********************************************************************************
Field Output Report, written Mon Apr 21 02:05:47 2025

Source 1
---------

   ODB: F:/Abaqus_calc/Vel_20/odb/Correct/1020_2a_32_rd_250_cal_50_v_20_f_050.odb
   Step: Step-1
   Frame: Increment   4054002: Step Time =   0.5630

Loc 1 : Nodal values from source 1

Output sorted by column "Nodal Label".

Field Output reported at nodes for region: DIE_2A_32_D0_36-1.Region_1
   Computation algorithm: EXTRAPOLATE_COMPUTE_AVERAGE
   Averaged at nodes
   Averaging regions: ODB_REGIONS

      Node Label  COORD.Magnitude     COORD.COOR1     COORD.COOR2
                          @Loc 1          @Loc 1          @Loc 1
------------------------------------------------------------------
               1     149.265E-03     22.3874E-03     147.577E-03


Field Output reported at nodes for region: DIE_2A_32_D0_36-1.Region_2
   Computation algorithm: EXTRAPOLATE_COMPUTE_AVERAGE
   Averaged at nodes
   Averaging regions: ODB_REGIONS

      Node Label  COORD.Magnitude     COORD.COOR1     COORD.COOR2
                          @Loc 1          @Loc 1          @Loc 1
------------------------------------------------------------------
               1     149.265E-03     22.3874E-03     147.577E-03


Field Output reported at nodes for part: WIRE_1-1
   Computation algorithm: EXTRAPOLATE_COMPUTE_AVERAGE
   Averaged at nodes
   Averaging regions: ODB_REGIONS

      Node Label  COORD.Magnitude     COORD.COOR1     COORD.COOR2    PE.Max. Prin    PE.Mid. Prin    PE.Min. Prin         PE.PE11         PE.PE22         PE.PE33         PE.PE12            PEEQ         S.Mises     S.Max. Prin     S.Mid. Prin     S.Min. Prin           S.S11           S.S22           S.S33           S.S12
                          @Loc 1          @Loc 1          @Loc 1          @Loc 1          @Loc 1          @Loc 1          @Loc 1          @Loc 1          @Loc 1          @Loc 1          @Loc 1          @Loc 1          @Loc 1          @Loc 1          @Loc 1          @Loc 1          @Loc 1          @Loc 1          @Loc 1
----------------------------------------------------------------------------------------------------------------------------------------------------------------------------------------------------------------------------------------------------------------------------------------------------------------------------------
               1     61.7621E-03     17.5011E-03     59.2306E-03     201.708E-03    -29.2068E-03    -172.438E-03    -46.0851E-03     75.3550E-03    -29.2068E-03     353.888E-03     644.388E-03     188.175E+06     191.291E+06     177.438E+06    -3.42724E+06    -3.42048E+06     191.284E+06     177.438E+06     427.264E+03
               2     58.0455E-03    -1.80523E-06     58.0455E-03     58.3349E-03    -29.0564E-03    -29.2781E-03    -29.1338E-03     58.3346E-03    -29.2005E-03     102.606E-06     58.8758E-03     206.338E+06    -26.2826E+06    -29.7192E+06    -234.318E+06    -27.9406E+06    -234.315E+06    -28.0643E+06    -764.584E+03
               3     1.79289E-06     1.79163E-06     67.0552E-09     112.260E-03    -55.7513E-03    -56.5082E-03    -56.5080E-03     112.260E-03    -55.7513E-03     303.144E-06     114.356E-03     205.436E+06    -44.6403E+06    -45.8991E+06    -250.703E+06    -45.9003E+06    -250.702E+06    -44.6403E+06    -484.949E+03
               4     17.2872E-03     17.2872E-03     67.0552E-09     211.950E-03    -36.0755E-03    -175.600E-03    -148.435E-03     184.786E-03    -36.0755E-03     197.886E-03     284.222E-03     151.818E+06     177.599E+06     156.180E+06     16.2085E+06     19.5279E+06     174.279E+06     156.180E+06     22.9062E+06
               5     118.909E-03     17.0204E-03     117.684E-03     23.2753E-03     20.3972E-03    -43.6636E-03     21.4329E-03     22.2396E-03    -43.6636E-03     2.76275E-03     43.9064E-03     97.4921E+06     40.4125E+06    -24.1119E+06    -71.7382E+06     39.3894E+06    -23.0889E+06    -71.7382E+06     8.06026E+06
               6     115.591E-03     4.40498E-06     115.591E-03     32.4959E-03    -15.4711E-03    -17.0243E-03    -17.0091E-03     32.4807E-03    -15.4711E-03    -1.73504E-03     32.5209E-03     57.1307E+06     62.3146E+06     54.3753E+06     1.62946E+06     53.4928E+06     2.51198E+06     62.3146E+06    -6.76537E+06
               7     61.1050E-03     16.5300E-03     58.8267E-03     220.381E-03    -29.1301E-03    -191.169E-03    -51.1260E-03     80.3381E-03    -29.1301E-03     389.983E-03     612.238E-03     176.444E+06     178.708E+06     151.555E+06    -9.23592E+06    -9.22911E+06     178.702E+06     151.555E+06    -251.066E+03
               8     60.3961E-03     15.5537E-03     58.3590E-03     168.006E-03    -28.8894E-03    -139.104E-03    -43.4865E-03     72.3890E-03    -28.8894E-03     282.255E-03     400.049E-03     145.178E+06     146.372E+06     84.4518E+06    -16.4663E+06    -16.4330E+06     146.339E+06     84.4518E+06    -974.440E+03
               9     60.0083E-03     14.5801E-03     58.2101E-03     78.3189E-03    -28.5658E-03    -49.8055E-03    -29.1965E-03     57.7099E-03    -28.5658E-03     87.2265E-03     181.931E-03     120.068E+06     106.773E+06     10.8790E+06    -25.3525E+06    -19.6129E+06     106.705E+06     5.20702E+06    -124.737E+03
              10     59.7427E-03     13.6079E-03     58.1723E-03     58.9179E-03    -28.3889E-03    -30.5834E-03    -27.7455E-03     56.0800E-03    -28.3889E-03     30.9938E-03     128.437E-03     99.4657E+06     63.9584E+06    -20.9201E+06    -44.0527E+06    -20.8317E+06     63.8701E+06    -44.0527E+06     1.30854E+06
              11     59.5016E-03     12.6346E-03     58.1447E-03     57.8572E-03    -28.4517E-03    -29.4697E-03    -28.0572E-03     56.4447E-03    -28.4517E-03     21.6004E-03     106.061E-03     53.6194E+06     11.3185E+06    -23.1405E+06    -49.6300E+06    -19.3768E+06     7.55478E+06    -49.6300E+06     992.142E+03
              12     59.2847E-03     11.6624E-03     58.1263E-03     57.5067E-03    -28.6055E-03    -28.9391E-03    -28.2909E-03     56.8618E-03    -28.6088E-03     14.6465E-03     94.3317E-03     38.3177E+06    -17.3265E+06    -26.5161E+06    -59.3465E+06    -17.4062E+06    -50.2380E+06    -35.5450E+06     40.8831E+03
              13     59.0892E-03     10.6906E-03     58.1141E-03     57.5061E-03    -28.7153E-03    -28.7937E-03    -28.3145E-03     57.0472E-03    -28.7355E-03     12.5424E-03     86.4984E-03     71.3862E+06    -15.7319E+06    -22.0701E+06    -89.8688E+06    -15.7489E+06    -89.8518E+06    -22.0701E+06     8.70072E+03
              14     58.9066E-03     9.71780E-03     58.0995E-03     57.6159E-03    -28.7570E-03    -28.8467E-03    -28.3833E-03     57.2300E-03    -28.8344E-03     11.4047E-03     80.4158E-03     103.636E+06    -11.9440E+06    -16.3758E+06    -117.706E+06    -15.4518E+06    -117.701E+06    -12.8728E+06     116.321E+03
              15     58.7443E-03     8.74588E-03     58.0896E-03     57.7016E-03    -28.7507E-03    -28.9275E-03    -28.5179E-03     57.4565E-03    -28.9152E-03     9.16717E-03     75.0070E-03     129.031E+06    -9.16802E+06    -17.0473E+06    -141.951E+06    -17.0570E+06    -141.942E+06    -9.16802E+06     440.977E+03
              16     58.5983E-03     7.77362E-03     58.0804E-03     57.8180E-03    -28.8113E-03    -28.9754E-03    -28.6146E-03     57.6213E-03    -28.9754E-03     8.22885E-03     70.8568E-03     148.310E+06    -9.08430E+06    -18.8473E+06    -162.023E+06    -18.8673E+06    -162.003E+06    -9.08430E+06     694.438E+03
              17     58.4689E-03     6.80193E-03     58.0719E-03     58.0128E-03    -28.9574E-03    -29.0466E-03    -28.8011E-03     57.8565E-03    -29.0466E-03     7.33917E-03     67.6865E-03     168.848E+06    -7.10481E+06    -19.5953E+06    -181.834E+06    -19.6065E+06    -181.823E+06    -7.10481E+06     456.472E+03
              18     58.3569E-03     5.83010E-03     58.0649E-03     58.0323E-03    -28.9446E-03    -29.0878E-03    -28.8285E-03     57.9163E-03    -29.0878E-03     6.33484E-03     64.9013E-03     183.837E+06    -9.44619E+06    -20.5761E+06    -198.565E+06    -20.5785E+06    -198.562E+06    -9.44619E+06     64.9494E+03
              19     58.2615E-03     4.85795E-03     58.0586E-03     58.0362E-03    -28.9218E-03    -29.1152E-03    -28.8394E-03     57.9538E-03    -29.1152E-03     5.31952E-03     62.6668E-03     193.706E+06    -14.7097E+06    -22.7873E+06    -212.327E+06    -22.7911E+06    -212.323E+06    -14.7097E+06    -221.340E+03
              20     58.1837E-03     3.88661E-03     58.0537E-03     58.2032E-03    -29.0501E-03    -29.1571E-03    -28.9969E-03     58.1501E-03    -29.1571E-03     4.27541E-03     61.1775E-03     205.634E+06    -17.3268E+06    -25.0766E+06    -226.724E+06    -25.0806E+06    -226.720E+06    -17.3268E+06    -249.405E+03
              21     58.1228E-03     2.91461E-03     58.0497E-03     58.3381E-03    -29.1286E-03    -29.2125E-03    -29.1507E-03     58.3041E-03    -29.1565E-03     3.41785E-03     60.0585E-03     210.842E+06    -21.4520E+06    -27.0206E+06    -235.014E+06    -27.0308E+06    -235.004E+06    -21.4520E+06    -84.7632E+03
              22     58.0791E-03     1.94328E-03     58.0466E-03     58.2673E-03    -29.0608E-03    -29.2047E-03    -29.1112E-03     58.2489E-03    -29.1358E-03     2.47676E-03     59.1706E-03     210.586E+06    -26.1778E+06    -29.3197E+06    -238.310E+06    -29.3262E+06    -238.281E+06    -26.2006E+06    -84.1642E+03
              23     58.0528E-03     971.642E-06     58.0447E-03     58.2368E-03    -29.0175E-03    -29.2162E-03    -29.0637E-03     58.2314E-03    -29.1646E-03     1.01508E-03     58.8232E-03     208.275E+06    -27.1039E+06    -30.0937E+06    -236.852E+06    -29.2028E+06    -236.830E+06    -28.0175E+06    -467.920E+03
              24     56.9841E-03     1.93569E-06     56.9841E-03     58.5154E-03    -28.9891E-03    -29.5263E-03    -29.5211E-03     58.5102E-03    -28.9891E-03     852.741E-06     59.1288E-03     203.564E+06    -31.7685E+06    -34.3261E+06    -236.598E+06    -31.7736E+06    -236.593E+06    -34.3261E+06     47.4667E+03
              25     55.9262E-03    -1.06004E-06     55.9262E-03     58.2503E-03    -28.8378E-03    -29.4111E-03    -29.2899E-03     58.2428E-03    -28.9515E-03     1.58588E-03     58.9096E-03     202.387E+06    -33.8907E+06    -37.4840E+06    -238.042E+06    -36.7625E+06    -237.988E+06    -34.6665E+06     2.80746E+06
              26     54.8660E-03     876.888E-09     54.8660E-03     57.9646E-03    -28.8796E-03    -29.0824E-03    -28.9648E-03     57.9608E-03    -28.9934E-03     1.14173E-03     58.6685E-03     205.577E+06    -29.6666E+06    -33.9866E+06    -237.366E+06    -32.5454E+06    -237.305E+06    -31.1691E+06     1.26706E+06
              27     53.8101E-03    -720.963E-09     53.8101E-03     57.8810E-03    -28.7700E-03    -29.1100E-03    -29.1085E-03     57.8794E-03    -28.7700E-03     596.830E-06     58.5355E-03     207.973E+06    -29.8099E+06    -31.4405E+06    -238.590E+06    -29.9482E+06    -238.580E+06    -31.3124E+06    -1.21976E+06
              28     52.7502E-03     1.21442E-06     52.7502E-03     57.7795E-03    -28.6586E-03    -29.1213E-03    -29.1198E-03     57.7780E-03    -28.6586E-03     580.503E-06     58.4301E-03     207.141E+06    -31.6292E+06    -31.9955E+06    -238.953E+06    -31.9970E+06    -238.951E+06    -31.6292E+06     118.604E+03
              29     51.6919E-03    -797.665E-09     51.6919E-03     57.4223E-03    -28.5780E-03    -28.8429E-03    -28.7869E-03     57.4196E-03    -28.6314E-03     974.687E-06     57.9744E-03     206.760E+06    -31.8783E+06    -33.1773E+06    -239.284E+06    -32.1239E+06    -239.276E+06    -32.9391E+06     1.14649E+06
              30     50.6348E-03     682.930E-09     50.6348E-03     57.6056E-03    -28.6247E-03    -28.9802E-03    -28.9250E-03     57.6038E-03    -28.6780E-03     775.806E-06     58.1868E-03     207.008E+06    -29.9359E+06    -32.1668E+06    -238.050E+06    -31.1161E+06    -238.040E+06    -30.9967E+06     199.348E+03
              31     49.5759E-03    -78.1265E-09     49.5759E-03     57.8557E-03    -28.7465E-03    -29.1083E-03    -29.1066E-03     57.8540E-03    -28.7465E-03     750.071E-06     58.4774E-03     207.195E+06    -30.9953E+06    -32.7572E+06    -239.065E+06    -32.1692E+06    -239.061E+06    -31.5870E+06    -627.918E+03
              32     48.5173E-03     187.385E-09     48.5173E-03     57.5243E-03    -28.7231E-03    -28.7990E-03    -28.7808E-03     57.5225E-03    -28.7395E-03     778.699E-06     57.9878E-03     208.105E+06    -31.2856E+06    -32.2045E+06    -239.849E+06    -31.2863E+06    -239.848E+06    -32.2045E+06     268.056E+03
              33     47.4599E-03    -222.933E-09     47.4599E-03     57.4072E-03    -28.5299E-03    -28.8744E-03    -28.8570E-03     57.4063E-03    -28.5463E-03     551.731E-06     57.9482E-03     207.092E+06    -30.6595E+06    -31.2119E+06    -238.027E+06    -30.8901E+06    -238.021E+06    -30.9867E+06     971.947E+03
              34     46.4021E-03     867.211E-09     46.4021E-03     57.6942E-03    -28.6031E-03    -29.0892E-03    -29.0885E-03     57.6934E-03    -28.6031E-03     509.218E-06     58.3357E-03     205.682E+06    -29.3419E+06    -30.1937E+06    -235.448E+06    -30.2103E+06    -235.431E+06    -29.3419E+06    -414.816E+03
              35     45.3433E-03    -550.823E-09     45.3433E-03     57.7446E-03    -28.7462E-03    -28.9989E-03    -28.9985E-03     57.7441E-03    -28.7462E-03     329.956E-06     58.3525E-03     205.928E+06    -31.2572E+06    -32.6021E+06    -237.854E+06    -31.8964E+06    -237.842E+06    -31.9755E+06    -1.34657E+06
              36     44.2854E-03     729.701E-09     44.2854E-03     57.6239E-03    -28.7160E-03    -28.9083E-03    -28.9074E-03     57.6230E-03    -28.7160E-03     437.715E-06     58.2597E-03     206.067E+06    -32.4860E+06    -33.6473E+06    -239.131E+06    -32.9396E+06    -239.120E+06    -33.2043E+06     775.143E+03
              37     43.2268E-03    -533.145E-09     43.2268E-03     57.9056E-03    -28.8001E-03    -29.1062E-03    -29.1046E-03     57.9040E-03    -28.8001E-03     739.143E-06     58.5853E-03     204.170E+06    -33.3347E+06    -33.9505E+06    -237.812E+06    -33.7881E+06    -237.801E+06    -33.5076E+06     804.894E+03
              38     42.1683E-03     937.097E-09     42.1683E-03     58.0695E-03    -28.8926E-03    -29.1772E-03    -29.1733E-03     58.0656E-03    -28.8926E-03     1.09861E-03     58.7202E-03     204.561E+06    -32.2257E+06    -33.1700E+06    -237.257E+06    -33.0044E+06    -237.249E+06    -32.3986E+06     625.322E+03
              39     41.1081E-03    -782.852E-09     41.1081E-03     57.6257E-03    -28.7311E-03    -28.8926E-03    -28.8874E-03     57.6205E-03    -28.7311E-03     1.33108E-03     58.2348E-03     205.744E+06    -30.5774E+06    -32.5940E+06    -237.322E+06    -31.3560E+06    -237.315E+06    -31.8226E+06     645.671E+03
              40     40.0521E-03     931.388E-09     40.0521E-03     57.4976E-03    -28.5793E-03    -28.9174E-03    -28.9152E-03     57.4953E-03    -28.5793E-03     796.997E-06     58.1059E-03     206.761E+06    -30.1957E+06    -32.4626E+06    -238.080E+06    -31.2177E+06    -238.080E+06    -31.4409E+06    -183.304E+03
              41     38.9939E-03    -423.414E-09     38.9939E-03     57.9139E-03    -28.7857E-03    -29.1298E-03    -29.1294E-03     57.9135E-03    -28.7857E-03     346.628E-06     58.5287E-03     207.566E+06    -30.3413E+06    -32.2342E+06    -238.847E+06    -31.3717E+06    -238.838E+06    -31.2125E+06    -946.284E+03
              42     37.9348E-03     592.678E-09     37.9348E-03     58.0930E-03    -28.9308E-03    -29.1647E-03    -29.0197E-03     58.0907E-03    -29.0735E-03     749.151E-06     58.7071E-03     206.903E+06    -30.6941E+06    -31.6983E+06    -238.096E+06    -30.8388E+06    -238.084E+06    -31.5653E+06    -393.885E+03
              43     36.8753E-03    -868.733E-09     36.8753E-03     57.8966E-03    -28.7259E-03    -29.1742E-03    -29.0287E-03     57.8938E-03    -28.8686E-03     938.770E-06     58.5218E-03     207.044E+06    -32.0904E+06    -32.8038E+06    -239.490E+06    -32.2322E+06    -239.481E+06    -32.6708E+06     1.33435E+06
              44     35.8178E-03     1.45775E-06     35.8178E-03     57.8996E-03    -28.5924E-03    -29.3085E-03    -29.3067E-03     57.8978E-03    -28.5924E-03     774.334E-06     58.5723E-03     206.248E+06    -31.8411E+06    -34.3881E+06    -239.348E+06    -33.8171E+06    -239.338E+06    -32.4215E+06     171.418E+03
              45     34.7597E-03    -634.549E-09     34.7597E-03     58.3109E-03    -28.9381E-03    -29.3720E-03    -29.3465E-03     58.3087E-03    -28.9615E-03     868.843E-06     58.9377E-03     205.567E+06    -29.2098E+06    -31.8846E+06    -236.098E+06    -31.1826E+06    -236.092E+06    -29.9180E+06    -84.9307E+03
              46     33.6989E-03     583.114E-09     33.6989E-03     58.2013E-03    -29.0809E-03    -29.1200E-03    -29.0950E-03     58.1997E-03    -29.1043E-03     724.290E-06     58.6987E-03     205.868E+06    -29.3650E+06    -31.5590E+06    -236.320E+06    -29.3677E+06    -236.318E+06    -31.5590E+06     488.058E+03
              47     32.6419E-03    -566.844E-09     32.6419E-03     57.6917E-03    -28.8135E-03    -28.8772E-03    -28.8276E-03     57.6901E-03    -28.8615E-03     720.298E-06     58.2216E-03     207.229E+06    -30.2810E+06    -32.0830E+06    -238.402E+06    -30.5982E+06    -238.401E+06    -31.7668E+06     284.930E+03
              48     31.5831E-03     483.135E-09     31.5831E-03     57.9428E-03    -28.9140E-03    -29.0275E-03    -28.9784E-03     57.9417E-03    -28.9620E-03     530.177E-06     58.5568E-03     207.288E+06    -29.9684E+06    -30.5575E+06    -237.550E+06    -30.3268E+06    -237.508E+06    -30.2413E+06    -1.74559E+06
              49     30.5255E-03    -353.992E-09     30.5255E-03     58.2879E-03    -29.0042E-03    -29.2830E-03    -29.2828E-03     58.2878E-03    -29.0042E-03     195.075E-06     58.8246E-03     205.901E+06    -32.2296E+06    -33.7367E+06    -238.878E+06    -33.5057E+06    -238.836E+06    -32.5025E+06    -2.32134E+06
              50     29.4647E-03     791.388E-09     29.4647E-03     57.8948E-03    -28.6655E-03    -29.2291E-03    -29.2278E-03     57.8934E-03    -28.6655E-03     558.805E-06     58.4566E-03     206.092E+06    -33.8768E+06    -36.8432E+06    -241.436E+06    -35.1127E+06    -241.434E+06    -35.6090E+06     58.9818E+03
              51     28.4074E-03    -131.668E-09     28.4074E-03     57.5954E-03    -28.5938E-03    -29.0032E-03    -29.0013E-03     57.5935E-03    -28.5938E-03     808.596E-06     58.2328E-03     206.230E+06    -30.8266E+06    -35.8926E+06    -239.539E+06    -34.1690E+06    -239.530E+06    -32.5588E+06     1.19416E+06
              52     27.3497E-03     290.884E-09     27.3497E-03     57.8595E-03    -28.8178E-03    -29.0435E-03    -29.0423E-03     57.8582E-03    -28.8178E-03     648.454E-06     58.5098E-03     206.109E+06    -29.8997E+06    -36.9172E+06    -239.427E+06    -33.2430E+06    -239.418E+06    -33.5834E+06     426.468E+03
              53     26.2897E-03    -13.7177E-09     26.2897E-03     57.8967E-03    -28.8639E-03    -29.0334E-03    -29.0312E-03     57.8945E-03    -28.8639E-03     850.459E-06     58.4605E-03     204.672E+06    -30.0173E+06    -35.9623E+06    -237.593E+06    -32.3006E+06    -237.571E+06    -33.7010E+06     969.139E+03
              54     25.2325E-03     49.2281E-09     25.2325E-03     57.6258E-03    -28.8043E-03    -28.8194E-03    -28.8174E-03     57.6237E-03    -28.8043E-03     799.190E-06     58.1941E-03     203.853E+06    -28.5777E+06    -31.9622E+06    -234.099E+06    -30.8636E+06    -234.075E+06    -29.7009E+06     730.566E+03
              55     24.1740E-03    -38.2423E-09     24.1740E-03     57.7390E-03    -28.6159E-03    -29.1194E-03    -29.1162E-03     57.7358E-03    -28.6159E-03     967.361E-06     58.3856E-03     203.454E+06    -30.8298E+06    -33.3110E+06    -235.513E+06    -32.2023E+06    -235.498E+06    -31.9530E+06     311.487E+03
              56     23.1149E-03     1.00776E-06     23.1149E-03     57.7449E-03    -28.4350E-03    -29.3086E-03    -29.3058E-03     57.7421E-03    -28.4350E-03     736.309E-06     58.3435E-03     202.370E+06    -33.6228E+06    -35.2374E+06    -236.793E+06    -35.0336E+06    -236.740E+06    -33.8794E+06    -1.08461E+06
              57     22.0587E-03    -265.454E-09     22.0587E-03     57.0557E-03    -28.1933E-03    -28.8628E-03    -28.5757E-03     57.0557E-03    -28.4804E-03     2.17947E-06     57.5243E-03     203.096E+06    -32.2357E+06    -33.6593E+06    -236.038E+06    -32.2830E+06    -235.991E+06    -33.6593E+06    -1.40819E+06
              58     21.0002E-03    -305.552E-09     21.0002E-03     56.5755E-03    -28.1075E-03    -28.4704E-03    -28.1820E-03     56.5743E-03    -28.3946E-03     417.697E-06     57.0802E-03     201.296E+06    -33.4506E+06    -34.7991E+06    -235.416E+06    -33.6474E+06    -235.400E+06    -34.6175E+06     1.70874E+06
              59     19.9425E-03     447.958E-09     19.9425E-03     56.4982E-03    -28.0358E-03    -28.4653E-03    -28.4640E-03     56.4968E-03    -28.0358E-03     595.645E-06     57.0874E-03     201.722E+06    -29.7125E+06    -31.7813E+06    -232.456E+06    -31.7921E+06    -232.445E+06    -29.7125E+06     912.255E+03
              60     18.8872E-03     261.300E-09     18.8872E-03     55.4764E-03    -27.4768E-03    -28.0015E-03    -27.8304E-03     55.4763E-03    -27.6478E-03     113.881E-06     56.0429E-03     200.648E+06    -32.2899E+06    -36.6169E+06    -235.065E+06    -34.1784E+06    -235.064E+06    -34.7297E+06    -458.115E+03
              61     17.8301E-03    -629.156E-09     17.8301E-03     53.4474E-03    -26.6390E-03    -26.8105E-03    -26.6395E-03     53.4474E-03    -26.8100E-03     71.6320E-06     53.9790E-03     198.995E+06    -34.3915E+06    -36.9799E+06    -234.658E+06    -34.5512E+06    -234.647E+06    -36.8313E+06     663.578E+03
              62     16.7791E-03     627.719E-09     16.7791E-03     51.0942E-03    -25.4337E-03    -25.6614E-03    -25.6591E-03     51.0919E-03    -25.4337E-03    -478.094E-06     51.5707E-03     199.544E+06    -31.0549E+06    -31.5666E+06    -230.854E+06    -31.2157E+06    -230.842E+06    -31.4180E+06     533.875E+03
              63     15.7295E-03    -196.699E-09     15.7295E-03     48.2855E-03    -23.9306E-03    -24.3549E-03    -24.3500E-03     48.2805E-03    -23.9306E-03    -1.19976E-03     48.7305E-03     198.925E+06    -30.6447E+06    -32.6250E+06    -230.550E+06    -32.2641E+06    -230.547E+06    -31.0078E+06    -445.848E+03
              64     14.6819E-03     595.819E-09     14.6819E-03     44.6074E-03    -22.2007E-03    -22.4066E-03    -22.3904E-03     44.6000E-03    -22.2094E-03    -1.39265E-03     44.9324E-03     199.591E+06    -26.8886E+06    -29.8513E+06    -227.944E+06    -28.5218E+06    -227.928E+06    -28.2341E+06    -1.24731E+06
              65     13.6406E-03    -645.143E-09     13.6406E-03     40.0955E-03    -19.9946E-03    -20.1025E-03    -19.9851E-03     40.0860E-03    -20.1025E-03    -1.50908E-03     40.3266E-03     199.700E+06    -24.3227E+06    -28.6879E+06    -226.164E+06    -24.4204E+06    -226.066E+06    -28.6879E+06     1.60868E+06
              66     12.6016E-03     396.217E-09     12.6016E-03     35.4507E-03    -17.6036E-03    -17.8497E-03    -17.7434E-03     35.4435E-03    -17.7028E-03    -1.22249E-03     35.6889E-03     198.592E+06    -15.8982E+06    -23.9360E+06    -218.379E+06    -20.9981E+06    -218.297E+06    -18.9178E+06     2.95949E+06
              67     11.5702E-03    -46.6813E-09     11.5702E-03     30.6485E-03    -15.1828E-03    -15.4672E-03    -15.4563E-03     30.6377E-03    -15.1828E-03    -1.33255E-03     30.8419E-03     199.889E+06    -7.28158E+06    -16.0772E+06    -211.419E+06    -12.3036E+06    -211.416E+06    -11.0590E+06     704.601E+03
              68     10.5420E-03     246.059E-09     10.5420E-03     26.0131E-03    -12.9019E-03    -13.1124E-03    -13.0260E-03     25.9997E-03    -12.9749E-03    -1.43853E-03     26.2895E-03     201.350E+06    -2.23986E+06    -8.28759E+06    -206.541E+06    -4.59291E+06    -206.458E+06    -6.01731E+06     3.41684E+06
              69     9.51955E-03    -373.674E-09     9.51955E-03     22.9923E-03    -11.3974E-03    -11.5953E-03    -11.5149E-03     22.9850E-03    -11.4704E-03    -994.526E-06     23.6595E-03     200.300E+06    -2.07934E+06    -5.92142E+06    -204.272E+06    -4.42952E+06    -204.192E+06    -3.65114E+06     3.09274E+06
              70     8.49757E-03     586.446E-09     8.49757E-03     22.1936E-03    -10.9936E-03    -11.1997E-03    -11.1967E-03     22.1906E-03    -10.9936E-03    -201.899E-06     23.3078E-03     200.568E+06    -3.14762E+06    -9.65045E+06    -206.867E+06    -8.07972E+06    -206.866E+06    -4.71942E+06     165.176E+03
              71     7.47661E-03    -366.978E-09     7.47661E-03     23.7478E-03    -11.8032E-03    -11.9451E-03    -11.9444E-03     23.7471E-03    -11.8032E-03     292.541E-06     25.2778E-03     202.325E+06    -2.88845E+06    -10.8615E+06    -209.075E+06    -7.94073E+06    -208.954E+06    -5.93050E+06    -3.67231E+06
              72     6.45300E-03     440.711E-09     6.45300E-03     28.7892E-03    -14.3481E-03    -14.4415E-03    -14.4033E-03     28.7837E-03    -14.3808E-03     812.065E-06     30.5493E-03     203.435E+06    -12.0625E+06    -15.2578E+06    -217.061E+06    -12.3379E+06    -216.939E+06    -15.1046E+06    -3.87339E+06
              73     5.42194E-03    -516.078E-09     5.42194E-03     39.1701E-03    -19.4513E-03    -19.7174E-03    -19.6705E-03     39.1559E-03    -19.4841E-03     1.82587E-03     40.9848E-03     203.530E+06    -20.5982E+06    -20.8037E+06    -224.230E+06    -20.7680E+06    -224.214E+06    -20.6505E+06    -1.59506E+06
              74     4.37646E-03     959.524E-09     4.37646E-03     54.4484E-03    -27.0322E-03    -27.4131E-03    -27.2426E-03     54.4254E-03    -27.1798E-03     2.73740E-03     56.3332E-03     205.169E+06    -27.5947E+06    -28.1305E+06    -233.031E+06    -27.6159E+06    -233.010E+06    -28.1305E+06    -2.02496E+06
              75     3.31264E-03    -1.27284E-06     3.31264E-03     73.2702E-03    -36.5583E-03    -36.7106E-03    -36.5302E-03     73.2373E-03    -36.7058E-03     3.80064E-03     75.0614E-03     205.949E+06    -32.0115E+06    -32.6296E+06    -238.269E+06    -32.0179E+06    -238.262E+06    -32.6296E+06    -488.214E+03
              76     2.22630E-03     1.24060E-06     2.22630E-03     92.9418E-03    -46.4237E-03    -46.5160E-03    -46.4895E-03     92.9153E-03    -46.4237E-03     3.71163E-03     94.4424E-03     205.131E+06    -34.6441E+06    -35.4210E+06    -240.162E+06    -34.6485E+06    -240.158E+06    -35.4210E+06    -330.636E+03
              77     1.11910E-03    -1.13245E-06     1.11910E-03     107.288E-03    -53.4096E-03    -53.8756E-03    -53.8677E-03     107.280E-03    -53.4096E-03     1.69556E-03     109.013E-03     204.931E+06     -41.239E+06    -42.5106E+06    -246.803E+06    -41.8726E+06    -246.798E+06    -41.8812E+06    -849.805E+03
              78     944.186E-06     944.186E-06     67.0552E-09     111.173E-03    -55.1202E-03    -56.0495E-03    -55.4930E-03     111.167E-03    -55.6711E-03     1.51322E-03     112.909E-03     205.076E+06    -40.2140E+06    -43.8961E+06    -247.095E+06    -43.8974E+06    -247.094E+06    -40.2140E+06    -507.925E+03
              79     1.89069E-03     1.89069E-03     67.0552E-09     107.897E-03    -52.8638E-03    -55.0309E-03    -52.8492E-03     107.883E-03    -55.0309E-03     3.03804E-03     109.083E-03     205.200E+06    -36.7855E+06    -40.6691E+06    -243.891E+06    -40.6834E+06    -243.877E+06    -36.7855E+06    -1.44633E+06
              80     2.83993E-03     2.83993E-03     67.0552E-09     102.676E-03    -48.9930E-03    -53.6786E-03    -48.9616E-03     102.645E-03    -53.6786E-03     4.23767E-03     103.701E-03     205.462E+06    -36.5616E+06    -40.0852E+06    -243.756E+06    -37.4204E+06    -243.728E+06    -39.2543E+06    -2.39936E+06
              81     3.79353E-03     3.79353E-03     67.0552E-09     96.4784E-03    -44.5499E-03    -51.9192E-03    -44.4941E-03     96.4226E-03    -51.9192E-03     5.56677E-03     97.3769E-03     205.533E+06    -35.1217E+06    -45.0491E+06    -245.401E+06    -35.1440E+06    -245.378E+06    -45.0491E+06    -2.14149E+06
              82     4.75283E-03     4.75283E-03     67.0552E-09     90.1852E-03    -40.2064E-03    -49.9573E-03    -40.1341E-03     90.1129E-03    -49.9573E-03     6.12607E-03     91.0256E-03     205.785E+06    -32.9788E+06    -50.7217E+06    -247.042E+06    -33.0854E+06    -246.935E+06    -50.7217E+06    -4.18056E+06
              83     5.71514E-03     5.71514E-03     67.0552E-09     83.9690E-03    -36.0229E-03    -47.9061E-03    -35.9357E-03     83.8819E-03    -47.9061E-03     6.44880E-03     84.9626E-03     204.812E+06    -28.8850E+06    -59.2527E+06    -247.016E+06    -29.0879E+06    -246.813E+06    -59.2527E+06    -6.64942E+06
              84     6.68286E-03     6.68286E-03     67.0552E-09     78.1593E-03    -32.3383E-03    -45.7768E-03    -32.2299E-03     78.0508E-03    -45.7768E-03     6.90054E-03     79.4585E-03     191.361E+06    -22.2563E+06    -75.5061E+06    -233.976E+06    -22.6099E+06    -233.622E+06    -75.5061E+06    -8.41131E+06
              85     7.65263E-03     7.65263E-03     67.0552E-09     73.1572E-03    -29.5143E-03    -43.6463E-03    -29.3734E-03     73.0163E-03    -43.6463E-03     7.57036E-03     75.1722E-03     164.998E+06    -14.6072E+06    -100.115E+06    -202.597E+06    -15.2542E+06    -201.950E+06    -100.115E+06    -10.8770E+06
              86     8.62550E-03     8.62550E-03     67.0552E-09     68.6436E-03    -27.0259E-03    -41.6548E-03    -26.8558E-03     68.4734E-03    -41.6548E-03     8.05421E-03     71.5440E-03     142.081E+06    -8.66365E+06    -121.218E+06    -166.588E+06    -9.37724E+06    -165.875E+06    -121.218E+06    -10.5913E+06
              87     9.60008E-03     9.60008E-03     67.0552E-09     63.5821E-03    -23.7461E-03    -39.8267E-03    -23.5687E-03     63.4047E-03    -39.8267E-03     7.86122E-03     67.2421E-03     124.366E+06    -3.25526E+06    -114.804E+06    -137.323E+06    -3.83694E+06    -125.033E+06    -126.513E+06    -8.40970E+06
              88     10.5794E-03     10.5794E-03     67.0552E-09     58.3103E-03    -20.2288E-03    -38.0470E-03    -20.0170E-03     58.0986E-03    -38.0470E-03     8.09536E-03     63.1355E-03     110.080E+06     117.529E+03    -70.2205E+06    -121.809E+06    -775.143E+03    -69.3279E+06    -121.809E+06    -7.09058E+06
              89     11.5620E-03     11.5620E-03     67.0552E-09     54.9793E-03    -18.5985E-03    -36.3763E-03    -18.3443E-03     54.7251E-03    -36.3763E-03     8.63270E-03     61.5889E-03     113.280E+06     18.1206E+06    -18.9646E+06    -108.985E+06    -318.307E+03    -525.726E+03    -108.985E+06    -4.33900E+06
              90     12.5450E-03     12.5450E-03     67.0552E-09     52.5759E-03    -17.5865E-03    -35.0067E-03    -17.3070E-03     52.2964E-03    -35.0067E-03     8.82737E-03     61.6785E-03     115.707E+06     57.2988E+06    -1.66321E+06    -72.7135E+06    -1.57971E+06     57.2153E+06    -72.7135E+06    -2.13223E+06
              91     13.5248E-03     13.5248E-03     67.0552E-09     51.1231E-03    -17.1556E-03    -33.9690E-03    -16.8246E-03     50.7920E-03    -33.9690E-03     9.47616E-03     62.4516E-03     104.875E+06     92.4565E+06     8.50276E+06    -24.8319E+06    -3.61374E+06     92.1478E+06    -12.4067E+06     2.66843E+06
              92     14.5162E-03     14.5162E-03     67.0552E-09     57.3402E-03    -24.0299E-03    -33.2870E-03    -22.5288E-03     55.8390E-03    -33.2870E-03     20.5087E-03     74.6849E-03     107.334E+06     114.263E+06     40.3048E+06    -6.91675E+06    -6.55964E+06     113.906E+06     40.3048E+06     6.22663E+06
              93     15.4643E-03     15.4643E-03     67.0552E-09     65.4648E-03    -31.6899E-03    -33.7403E-03    -28.2806E-03     61.3318E-03    -33.0167E-03     38.7884E-03     96.3236E-03     117.780E+06     127.842E+06     82.4650E+06    -4.60126E+06    -3.40374E+06     126.644E+06     82.4650E+06    -6.18533E+06
              94     16.4321E-03     16.4321E-03     67.0552E-09     139.693E-03    -34.5252E-03    -105.011E-03    -88.6150E-03     123.297E-03    -34.5252E-03     122.214E-03     195.353E-03     136.586E+06     155.238E+06     130.259E+06     8.00323E+06     10.7765E+06     152.465E+06     130.259E+06     2.91739E+06
              95     17.4180E-03     17.3654E-03     1.35285E-03     214.011E-03    -34.7824E-03    -179.403E-03    -134.726E-03     169.334E-03    -34.7824E-03     243.731E-03     362.124E-03     162.165E+06     161.803E+06     136.747E+06    -11.4217E+06    -9.73396E+06     160.115E+06     136.747E+06     13.0654E+06
              96     17.5861E-03     17.4034E-03     2.52808E-03     216.404E-03    -32.8514E-03    -184.193E-03    -107.643E-03     139.854E-03    -32.8514E-03     312.935E-03     471.094E-03     162.207E+06     157.023E+06     139.717E+06    -12.8948E+06    -12.4346E+06     156.563E+06     139.717E+06     7.37878E+06
              97     17.8232E-03     17.4427E-03     3.66342E-03     216.595E-03    -31.3922E-03    -185.573E-03    -91.1580E-03     122.180E-03    -31.3922E-03     340.821E-03     511.896E-03     162.778E+06     169.329E+06     159.483E+06     1.87632E+06     2.34042E+06     168.865E+06     159.483E+06     7.46392E+06
              98     18.1108E-03     17.4686E-03     4.77989E-03     213.897E-03    -29.9328E-03    -183.938E-03    -88.4600E-03     118.418E-03    -29.9328E-03     339.800E-03     529.147E-03     171.228E+06     171.046E+06     163.050E+06    -3.96877E+06    -3.81942E+06     170.897E+06     163.050E+06     4.85258E+06
              99     18.4499E-03     17.4851E-03     5.88796E-03     210.558E-03    -28.8308E-03    -181.690E-03    -89.9466E-03     118.815E-03    -28.8308E-03     332.070E-03     542.933E-03     173.430E+06     172.908E+06     169.153E+06    -2.36472E+06    -2.21780E+06     172.761E+06     169.153E+06     4.78910E+06
             100     18.8482E-03     17.4978E-03     7.00599E-03     212.105E-03    -28.1094E-03    -184.057E-03    -93.1034E-03     121.152E-03    -28.1094E-03     333.221E-03     560.518E-03     178.045E+06     174.206E+06     171.180E+06    -5.32166E+06     -5.2898E+06     174.174E+06     171.180E+06     2.08580E+06
             101     19.2984E-03     17.5006E-03     8.13364E-03     215.844E-03    -27.7902E-03    -188.139E-03    -94.9286E-03     122.634E-03    -27.7902E-03     340.386E-03     580.458E-03     178.139E+06     174.845E+06     174.208E+06    -3.61167E+06    -3.59823E+06     174.832E+06     174.208E+06    -545.733E+03
             102     19.7952E-03     17.5034E-03     9.24573E-03     214.626E-03    -27.7587E-03    -186.912E-03    -93.0275E-03     120.741E-03    -27.7587E-03     339.906E-03     593.682E-03     178.474E+06     174.522E+06     174.134E+06    -4.14569E+06    -4.13081E+06     174.507E+06     174.134E+06    -420.247E+03
             103     20.3275E-03     17.5001E-03     10.3418E-03     204.178E-03    -27.8594E-03    -176.291E-03    -88.3305E-03     116.218E-03    -27.8594E-03     320.793E-03     596.216E-03     178.956E+06     173.352E+06     173.121E+06    -5.71974E+06    -5.71113E+06     173.343E+06     173.121E+06    -83.8463E+03
             104     20.9003E-03     17.5010E-03     11.4253E-03     188.695E-03    -27.9571E-03    -160.697E-03    -82.3935E-03     110.391E-03    -27.9571E-03     291.372E-03     591.379E-03     177.573E+06     174.095E+06     173.392E+06    -3.82777E+06    -3.81702E+06     173.481E+06     173.994E+06    -1.37925E+06
             105     21.5123E-03     17.5009E-03     12.5100E-03     178.898E-03    -27.9947E-03    -150.884E-03    -78.8607E-03     106.875E-03    -27.9947E-03     272.501E-03     588.743E-03     177.463E+06     173.309E+06     172.317E+06    -4.64798E+06    -4.61893E+06     172.677E+06     172.920E+06    -2.15938E+06
             106     22.1794E-03     17.5011E-03     13.6249E-03     183.322E-03    -28.1412E-03    -155.215E-03    -75.2205E-03     103.328E-03    -28.1412E-03     287.232E-03     596.642E-03     179.935E+06     172.225E+06     171.368E+06    -8.13710E+06    -8.10816E+06     172.196E+06     171.368E+06    -718.210E+03
             107     22.8865E-03     17.5014E-03     14.7476E-03     194.491E-03    -28.4987E-03    -166.047E-03    -66.4457E-03     94.8895E-03    -28.4987E-03     321.967E-03     615.421E-03     180.133E+06     174.207E+06     173.629E+06    -6.21380E+06    -6.20473E+06     174.089E+06     173.738E+06     178.654E+03
             108     23.5921E-03     17.5008E-03     15.8212E-03     197.046E-03    -28.9055E-03    -168.166E-03    -54.6908E-03     83.5709E-03    -28.9055E-03     337.853E-03     630.381E-03     181.075E+06     174.872E+06     173.474E+06    -6.89518E+06    -6.89006E+06     174.758E+06     173.583E+06    -135.348E+03
             109     24.3128E-03     17.4997E-03     16.8782E-03     193.926E-03    -29.1564E-03    -164.774E-03    -46.3520E-03     75.5038E-03    -29.1564E-03     337.341E-03     635.773E-03     181.645E+06     177.102E+06     175.044E+06    -5.56294E+06    -5.51093E+06     177.050E+06     175.044E+06     2.54155E+06
             110     25.0583E-03     17.5014E-03     17.9337E-03     193.188E-03    -29.1833E-03    -164.038E-03    -44.7538E-03     73.9044E-03    -29.1833E-03     336.940E-03     638.465E-03     182.468E+06     178.761E+06     177.148E+06    -4.50856E+06    -4.45757E+06     178.710E+06     177.148E+06     1.85991E+06
             111     25.8321E-03     17.5008E-03     19.0005E-03     194.634E-03    -29.1643E-03    -165.448E-03    -44.9339E-03     74.1201E-03    -29.1643E-03     339.826E-03     641.645E-03     183.505E+06     179.576E+06     177.091E+06    -5.15750E+06    -5.15263E+06     179.571E+06     177.091E+06     -884.47E+03
             112     26.6238E-03     17.5021E-03     20.0624E-03     195.721E-03    -29.1941E-03    -166.495E-03    -43.7917E-03     73.0181E-03    -29.1941E-03     342.862E-03     644.050E-03     183.713E+06     180.714E+06     177.686E+06    -4.49362E+06    -4.48936E+06     180.710E+06     177.686E+06    -478.812E+03
             113     27.4244E-03     17.5012E-03     21.1140E-03     197.379E-03    -29.1579E-03    -168.179E-03    -45.2244E-03     74.4245E-03    -29.1579E-03     345.409E-03     643.650E-03     184.594E+06     181.023E+06     177.581E+06      -5.267E+06    -5.26103E+06     181.017E+06     177.581E+06     866.875E+03
             114     28.2602E-03     17.5019E-03     22.1884E-03     199.919E-03    -29.1550E-03    -170.698E-03    -45.6316E-03     74.8530E-03    -29.1550E-03     350.464E-03     643.126E-03     184.965E+06     181.797E+06     176.414E+06    -5.79724E+06    -5.79125E+06     181.791E+06     176.414E+06     592.145E+03
             115     29.0956E-03     17.5017E-03     23.2431E-03     201.829E-03    -29.2336E-03    -172.587E-03    -43.2950E-03     72.5371E-03    -29.2336E-03     356.040E-03     646.557E-03     185.338E+06     182.627E+06     176.769E+06    -5.56875E+06    -5.56854E+06     182.627E+06     176.769E+06    -146.609E+03
             116     29.9456E-03     17.5018E-03     24.2987E-03     201.970E-03    -29.2514E-03    -172.778E-03    -43.4483E-03     72.6411E-03    -29.2514E-03     356.305E-03     647.299E-03     186.383E+06     184.517E+06     179.507E+06    -4.32128E+06    -4.31936E+06     184.515E+06     179.507E+06     422.364E+03
             117     30.8081E-03     17.5014E-03     25.3543E-03     200.143E-03    -29.2158E-03    -170.977E-03    -44.4136E-03     73.5797E-03    -29.2158E-03     351.862E-03     645.410E-03     187.418E+06     185.291E+06     180.447E+06    -4.50126E+06    -4.49892E+06     185.289E+06     180.447E+06     626.779E+03
             118     31.6821E-03     17.5021E-03     26.4089E-03     200.935E-03    -29.1572E-03    -171.769E-03    -46.4058E-03     75.5710E-03    -29.1572E-03     352.167E-03     646.459E-03     187.272E+06     185.372E+06     178.834E+06    -5.07702E+06    -5.07544E+06     185.370E+06     178.834E+06     533.214E+03
             119     32.5809E-03     17.5007E-03     27.4817E-03     201.670E-03    -29.1757E-03    -172.507E-03    -46.4880E-03     75.6513E-03    -29.1757E-03     353.667E-03     645.276E-03     187.334E+06     185.301E+06     178.151E+06    -5.50340E+06    -5.49850E+06     185.296E+06     178.151E+06     929.366E+03
             120     33.4703E-03     17.5019E-03     28.5298E-03     198.720E-03    -29.2487E-03    -169.451E-03    -43.2330E-03     72.5023E-03    -29.2487E-03     349.504E-03     644.152E-03     187.934E+06     185.556E+06     178.327E+06    -5.88509E+06    -5.88123E+06     185.552E+06     178.327E+06     704.864E+03
             121     34.3691E-03     17.5011E-03     29.5795E-03     195.579E-03    -29.2181E-03    -166.344E-03    -43.3210E-03     72.5558E-03    -29.2181E-03     342.851E-03     642.667E-03     188.000E+06     186.760E+06     178.833E+06    -5.07787E+06    -5.07694E+06     186.759E+06     178.833E+06     388.337E+03
             122     35.2890E-03     17.5018E-03     30.6431E-03     195.504E-03    -29.1629E-03    -166.342E-03    -44.9101E-03     74.0714E-03    -29.1629E-03     341.724E-03     641.532E-03     188.206E+06     187.848E+06     179.387E+06    -4.44325E+06    -4.44181E+06     187.846E+06     179.387E+06     33.1049E+03
             123     36.2143E-03     17.5019E-03     31.7043E-03     198.147E-03    -29.1666E-03    -168.936E-03    -45.1751E-03     74.3866E-03    -29.1666E-03     347.066E-03     643.667E-03     188.745E+06     188.057E+06     179.691E+06    -4.72891E+06    -4.72827E+06     188.057E+06     179.691E+06    -287.676E+03
             124     37.1504E-03     17.5019E-03     32.7694E-03     199.049E-03    -29.2167E-03    -169.823E-03    -43.9492E-03     73.1751E-03    -29.2167E-03     349.774E-03     644.469E-03     189.276E+06     188.096E+06     180.115E+06    -5.04256E+06    -5.04249E+06     188.096E+06     180.115E+06     27.2738E+03
             125     38.0790E-03     17.5014E-03     33.8188E-03     198.344E-03    -29.2178E-03    -169.295E-03    -43.2473E-03     72.2965E-03    -29.2178E-03     349.008E-03     645.511E-03     188.912E+06     187.318E+06     177.057E+06    -6.51118E+06    -6.51113E+06     187.318E+06     177.057E+06     84.8680E+03
             126     39.0228E-03     17.5022E-03     34.8777E-03     199.716E-03    -29.1655E-03    -170.720E-03    -44.9631E-03     73.9591E-03    -29.1655E-03     350.825E-03     645.589E-03     188.878E+06     187.580E+06     176.861E+06    -6.42627E+06    -6.42583E+06     187.580E+06     176.861E+06     221.562E+03
             127     39.9822E-03     17.5018E-03     35.9480E-03     201.777E-03    -29.2086E-03    -172.648E-03    -44.5319E-03     73.6611E-03    -29.2086E-03     355.264E-03     645.411E-03     189.510E+06     190.097E+06     180.240E+06    -4.14861E+06    -4.14628E+06     190.095E+06     180.240E+06     633.871E+03
             128     40.9261E-03     17.5015E-03     36.9952E-03     200.725E-03    -29.2595E-03    -171.643E-03    -43.3566E-03     72.4388E-03    -29.2595E-03     353.902E-03     645.940E-03     189.261E+06     189.906E+06     178.711E+06    -4.70089E+06    -4.69880E+06     189.904E+06     178.711E+06     292.233E+03
             129     41.8811E-03     17.5009E-03     38.0493E-03     198.568E-03    -29.2175E-03    -169.447E-03    -44.5570E-03     73.6778E-03    -29.2175E-03     348.497E-03     644.059E-03     189.676E+06     189.034E+06     177.787E+06    -6.01291E+06    -6.01259E+06     189.034E+06     177.787E+06    -249.964E+03
             130     42.8493E-03     17.5021E-03     39.1118E-03     196.872E-03    -29.1836E-03    -167.597E-03    -44.6800E-03     73.9547E-03    -29.1836E-03     344.621E-03     642.880E-03     189.584E+06     189.448E+06     179.331E+06    -4.99229E+06    -4.98613E+06     189.442E+06     179.331E+06    -878.862E+03
             131     43.8112E-03     17.5018E-03     40.1636E-03     195.852E-03    -29.1605E-03    -166.584E-03    -44.4294E-03     73.6966E-03    -29.1605E-03     342.644E-03     642.165E-03     188.196E+06     188.002E+06     178.329E+06    -4.84394E+06    -4.83548E+06     187.993E+06     178.329E+06    -1.24782E+06
             132     44.7902E-03     17.5023E-03     41.2291E-03     199.276E-03    -29.1299E-03    -170.127E-03    -46.1705E-03     75.3189E-03    -29.1299E-03     348.853E-03     643.028E-03     187.737E+06     187.564E+06     178.097E+06    -4.72698E+06    -4.72266E+06     187.560E+06     178.097E+06    -57.2029E+03
             133     45.7779E-03     17.5020E-03     42.3001E-03     204.066E-03    -29.1473E-03    -174.922E-03    -46.8605E-03     76.0045E-03    -29.1473E-03     358.513E-03     647.041E-03     189.141E+06     189.039E+06     178.522E+06    -5.13981E+06    -5.13697E+06     189.036E+06     178.522E+06     731.841E+03
             134     46.7554E-03     17.5025E-03     43.3559E-03     203.459E-03    -29.1774E-03    -174.268E-03    -45.7151E-03     74.9062E-03    -29.1774E-03     357.950E-03     648.341E-03     190.588E+06     190.912E+06     179.144E+06    -5.28719E+06    -5.28558E+06     190.910E+06     179.144E+06     559.458E+03
             135     47.7304E-03     17.5014E-03     44.4060E-03     200.786E-03    -29.1656E-03    -171.617E-03    -45.7300E-03     74.8988E-03    -29.1656E-03     352.320E-03     645.671E-03     190.933E+06     191.363E+06     179.014E+06    -5.44474E+06    -5.44394E+06     191.362E+06     179.014E+06     371.779E+03
             136     48.7233E-03     17.5019E-03     45.4714E-03     199.526E-03    -29.2135E-03    -170.330E-03    -44.3681E-03     73.5639E-03    -29.2135E-03     350.530E-03     644.036E-03     190.417E+06     191.193E+06     179.078E+06    -4.99184E+06    -4.99074E+06     191.191E+06     179.078E+06    -186.404E+03
             137     49.7069E-03     17.5014E-03     46.5239E-03     198.318E-03    -29.2680E-03    -169.012E-03    -41.9991E-03     71.3057E-03    -29.2680E-03     349.418E-03     645.797E-03     189.706E+06     189.954E+06     178.083E+06    -5.40874E+06    -5.40775E+06     189.953E+06     178.083E+06    -363.014E+03
             138     50.6904E-03     17.5024E-03     47.5729E-03     197.546E-03    -29.2084E-03    -168.216E-03    -43.6407E-03     72.9708E-03    -29.2084E-03     346.648E-03     644.884E-03     189.081E+06     189.208E+06     177.966E+06    -5.24140E+06    -5.23463E+06     189.201E+06     177.966E+06    -866.116E+03
             139     51.6946E-03     17.5015E-03     48.6418E-03     198.879E-03    -29.1634E-03    -169.664E-03    -45.6154E-03     74.8305E-03    -29.1634E-03     348.304E-03     643.377E-03     187.719E+06     188.705E+06     178.530E+06    -3.89418E+06    -3.88644E+06     188.697E+06     178.530E+06    -1.11951E+06
             140     52.6925E-03     17.5025E-03     49.7007E-03     200.434E-03    -29.1672E-03    -171.237E-03    -45.4793E-03     74.6761E-03    -29.1672E-03     351.714E-03     644.752E-03     188.283E+06     189.098E+06     178.430E+06    -4.29064E+06    -4.28748E+06     189.095E+06     178.430E+06     146.514E+03
             141     53.6903E-03     17.5015E-03     50.7577E-03     201.450E-03    -29.1668E-03    -172.238E-03    -46.0813E-03     75.2931E-03    -29.1668E-03     353.427E-03     644.989E-03     189.281E+06     189.668E+06     177.566E+06    -5.37256E+06    -5.36488E+06     189.660E+06     177.566E+06     1.19115E+06
             142     54.7012E-03     17.5019E-03     51.8257E-03     203.254E-03    -29.2122E-03    -174.137E-03    -45.4813E-03     74.5987E-03    -29.2122E-03     357.763E-03     645.803E-03     189.544E+06     190.541E+06     176.427E+06    -5.66176E+06    -5.65623E+06     190.536E+06     176.427E+06     728.742E+03
             143     55.7007E-03     17.5015E-03     52.8797E-03     202.476E-03    -29.2696E-03    -173.372E-03    -43.8842E-03     72.9881E-03    -29.2696E-03     357.214E-03     647.036E-03     189.369E+06     190.732E+06     176.863E+06    -5.18512E+06    -5.18297E+06     190.730E+06     176.863E+06    -459.696E+03
             144     56.6964E-03     17.5009E-03     53.9277E-03     197.122E-03    -29.2495E-03    -168.012E-03    -43.5490E-03     72.6589E-03    -29.2495E-03     346.139E-03     643.647E-03     188.603E+06     190.300E+06     176.335E+06    -4.89195E+06    -4.87610E+06     190.285E+06     176.335E+06     704.715E+03
             145     57.6982E-03     17.5017E-03     54.9797E-03     194.377E-03    -29.1630E-03    -165.381E-03    -44.8294E-03     73.8257E-03    -29.1630E-03     339.622E-03     641.263E-03     189.722E+06     191.260E+06     175.650E+06    -5.78509E+06    -5.75843E+06     191.233E+06     175.650E+06     28.9611E+03
             146     58.7186E-03     17.5024E-03     56.0495E-03     197.202E-03    -29.1267E-03    -168.258E-03    -45.9836E-03     74.9276E-03    -29.1267E-03     344.876E-03     643.376E-03     189.665E+06     191.951E+06     177.087E+06    -4.70799E+06    -4.69350E+06     191.937E+06     177.087E+06    -742.641E+03
             147     59.7381E-03     17.5021E-03     57.1168E-03     200.305E-03    -29.1953E-03    -171.318E-03    -44.6974E-03     73.6844E-03    -29.1953E-03     352.248E-03     646.069E-03     189.613E+06     191.151E+06     176.179E+06    -5.50350E+06    -5.49473E+06     191.142E+06     176.179E+06    -455.941E+03
             148     60.7429E-03     17.5015E-03     58.1670E-03     201.695E-03    -29.2240E-03    -172.537E-03    -44.9551E-03     74.1133E-03    -29.2240E-03     354.772E-03     646.015E-03     189.017E+06     190.376E+06     175.454E+06    -5.65834E+06    -5.64540E+06     190.363E+06     175.454E+06    -98.7234E+03
             149     62.7781E-03     17.5019E-03     60.2890E-03     200.296E-03    -29.2210E-03    -171.136E-03    -44.3618E-03     73.5217E-03    -29.2210E-03     352.222E-03     645.175E-03     188.092E+06     190.640E+06     175.271E+06    -4.65774E+06    -4.65554E+06     190.638E+06     175.271E+06     17.8431E+03
             150     63.7878E-03     17.5020E-03     61.3398E-03     198.356E-03    -29.2062E-03    -169.383E-03    -44.1236E-03     73.0966E-03    -29.2062E-03     348.544E-03     645.309E-03     188.345E+06     190.382E+06     174.373E+06    -5.45323E+06    -5.44952E+06     190.378E+06     174.373E+06    -163.598E+03
             151     64.8083E-03     17.5017E-03     62.4004E-03     197.725E-03    -29.1760E-03    -168.846E-03    -45.3060E-03     74.1857E-03    -29.1760E-03     346.549E-03     642.862E-03     188.732E+06     190.920E+06     175.077E+06    -5.23151E+06    -5.21718E+06     190.906E+06     175.077E+06     574.855E+03
             152     65.8319E-03     17.5023E-03     63.4626E-03     197.809E-03    -29.1890E-03    -168.908E-03    -44.0751E-03     72.9763E-03    -29.1890E-03     347.526E-03     642.301E-03     189.329E+06     192.776E+06     174.832E+06    -4.88361E+06    -4.87182E+06     192.764E+06     174.832E+06     1.10238E+06
             153     66.8474E-03     17.5023E-03     64.5155E-03     198.058E-03    -29.2206E-03    -169.130E-03    -43.0628E-03     71.9907E-03    -29.2206E-03     348.697E-03     643.003E-03     190.299E+06     194.181E+06     175.296E+06    -4.85618E+06    -4.85540E+06     194.180E+06     175.296E+06     304.165E+03
             154     67.8723E-03     17.5016E-03     65.5770E-03     199.131E-03    -29.2405E-03    -170.193E-03    -43.0338E-03     71.9720E-03    -29.2405E-03     350.960E-03     643.138E-03     190.592E+06     194.679E+06     176.159E+06    -4.49697E+06    -4.49445E+06     194.676E+06     176.159E+06     694.885E+03
             155     68.8931E-03     17.5027E-03     66.6327E-03     199.198E-03    -29.2218E-03    -170.199E-03    -43.6434E-03     72.6424E-03    -29.2218E-03     350.608E-03     644.899E-03     190.843E+06     194.188E+06     175.769E+06    -5.19641E+06    -5.18832E+06     194.180E+06     175.769E+06    -376.323E+03
             156     69.9115E-03     17.5013E-03     67.6855E-03     197.208E-03    -29.1723E-03    -168.152E-03    -45.0050E-03     74.0612E-03    -29.1723E-03     345.409E-03     642.892E-03     189.908E+06     192.986E+06     175.169E+06    -5.20171E+06    -5.19415E+06     192.978E+06     175.169E+06    -1.14329E+06
             157     70.9417E-03     17.5024E-03     68.7488E-03     198.013E-03    -29.1444E-03    -168.980E-03    -46.0678E-03     75.1003E-03    -29.1444E-03     346.413E-03     641.147E-03     188.683E+06     192.054E+06     174.595E+06    -4.75203E+06    -4.75059E+06     192.052E+06     174.595E+06    -488.554E+03
             158     71.9728E-03     17.5014E-03     69.8125E-03     198.955E-03    -29.1769E-03    -169.859E-03    -45.0476E-03     74.1434E-03    -29.1769E-03     349.015E-03     641.420E-03     188.100E+06     191.436E+06     173.494E+06    -4.99148E+06    -4.98918E+06     191.434E+06     173.494E+06     313.703E+03
             159     72.9965E-03     17.5023E-03     70.8672E-03     198.122E-03    -29.2171E-03    -168.912E-03    -43.4128E-03     72.6228E-03    -29.2171E-03     348.209E-03     642.721E-03     188.358E+06     191.146E+06     172.619E+06    -5.79125E+06    -5.78902E+06     191.144E+06     172.619E+06     570.689E+03
             160     74.0200E-03     17.5010E-03     71.9213E-03     198.418E-03    -29.1940E-03    -169.223E-03    -44.7404E-03     73.9350E-03    -29.1940E-03     347.948E-03     643.064E-03     189.093E+06     192.608E+06     173.043E+06    -5.50538E+06    -5.50391E+06     192.607E+06     173.043E+06     481.003E+03
             161     75.0577E-03     17.5019E-03     72.9887E-03     198.133E-03    -29.1868E-03    -169.084E-03    -45.0344E-03     74.0831E-03    -29.1868E-03     347.354E-03     642.354E-03     189.678E+06     195.097E+06     174.121E+06    -4.19652E+06    -4.19448E+06     195.094E+06     174.121E+06     631.682E+03
             162     76.0791E-03     17.5020E-03     74.0385E-03     195.099E-03    -29.2001E-03    -166.137E-03    -43.3134E-03     72.2756E-03    -29.2001E-03     342.243E-03     642.529E-03     190.321E+06     196.268E+06     174.101E+06    -4.16563E+06    -4.16443E+06     196.267E+06     174.101E+06     45.7668E+03
             163     77.1046E-03     17.5024E-03     75.0918E-03     194.502E-03    -29.1288E-03    -165.615E-03    -45.2192E-03     74.1068E-03    -29.1288E-03     339.751E-03     641.420E-03     191.156E+06     196.364E+06     173.251E+06    -5.29756E+06    -5.29665E+06     196.363E+06     173.251E+06    -16.0141E+03
             164     78.1509E-03     17.5021E-03     76.1658E-03     199.499E-03    -29.0956E-03    -170.551E-03    -47.7520E-03     76.6996E-03    -29.0956E-03     348.490E-03     641.755E-03     191.965E+06     198.181E+06     173.966E+06    -4.74211E+06    -4.74168E+06     198.181E+06     173.966E+06     245.621E+03
             165     79.1937E-03     17.5017E-03     77.2356E-03     201.344E-03    -29.2219E-03    -172.200E-03    -44.3987E-03     73.5432E-03    -29.2219E-03     354.381E-03     643.785E-03     193.481E+06     199.630E+06     173.867E+06    -5.43986E+06    -5.43157E+06     199.622E+06     173.867E+06     964.327E+03
             166     80.2062E-03     17.5018E-03     78.2734E-03     197.271E-03    -29.2969E-03    -168.107E-03    -41.0292E-03     70.1928E-03    -29.2969E-03     348.033E-03     643.723E-03     194.311E+06     200.302E+06     173.397E+06    -6.05894E+06    -6.03352E+06     200.277E+06     173.397E+06     2.25361E+06
             167     81.2359E-03     17.5018E-03     79.3281E-03     196.846E-03    -29.2292E-03    -167.757E-03    -43.2475E-03     72.3362E-03    -29.2292E-03     345.784E-03     642.377E-03     196.339E+06     204.381E+06     175.452E+06    -4.81377E+06    -4.78794E+06     204.355E+06     175.452E+06     2.28872E+06
             168     82.2848E-03     17.5020E-03     80.4020E-03     201.001E-03    -29.1893E-03    -171.930E-03    -45.3496E-03     74.4212E-03    -29.1893E-03     353.173E-03     645.441E-03     200.511E+06     210.697E+06     177.896E+06    -4.18624E+06    -4.15976E+06     210.671E+06     177.896E+06     2.35062E+06
             169     83.3137E-03     17.5024E-03     81.4545E-03     199.746E-03    -29.2170E-03    -170.535E-03    -43.7184E-03     72.9288E-03    -29.2170E-03     351.426E-03     646.185E-03     206.643E+06     217.846E+06     180.383E+06    -4.95942E+06    -4.92528E+06     217.812E+06     180.383E+06     2.75650E+06
             170     84.3401E-03     17.5024E-03     82.5040E-03     197.189E-03    -29.2105E-03    -168.045E-03    -43.0685E-03     72.2132E-03    -29.2105E-03     346.560E-03     642.414E-03     211.397E+06     222.349E+06     181.512E+06    -6.48598E+06    -6.46938E+06     222.332E+06     181.512E+06     1.54034E+06
             171     85.3814E-03     17.5026E-03     83.5682E-03     197.203E-03    -29.1749E-03    -168.272E-03    -44.4689E-03     73.3997E-03    -29.1749E-03     345.944E-03     640.313E-03     212.009E+06     224.334E+06     182.105E+06    -5.61121E+06    -5.61040E+06     224.333E+06     182.105E+06     425.864E+03
             172     86.4139E-03     17.5021E-03     84.6229E-03     197.930E-03    -29.1682E-03    -168.955E-03    -45.4383E-03     74.4133E-03    -29.1682E-03     346.757E-03     641.580E-03     212.986E+06     226.564E+06     183.625E+06    -4.62097E+06    -4.61951E+06     226.562E+06     183.625E+06     577.638E+03
             173     87.4592E-03     17.5020E-03     85.6901E-03     198.629E-03    -29.2001E-03    -169.564E-03    -44.2727E-03     73.3370E-03    -29.2001E-03     348.890E-03     643.122E-03     213.714E+06     227.119E+06     182.841E+06    -5.26280E+06    -5.25541E+06     227.112E+06     182.841E+06     1.19456E+06
             174     88.4909E-03     17.5030E-03     86.7427E-03     196.530E-03    -29.2296E-03    -167.461E-03    -41.4732E-03     70.5424E-03    -29.2296E-03     346.324E-03     643.948E-03     213.589E+06     227.358E+06     181.411E+06    -5.46471E+06    -5.45798E+06     227.352E+06     181.411E+06     692.908E+03
             175     89.5166E-03     17.5038E-03     87.7886E-03     194.457E-03    -29.1644E-03    -165.444E-03    -42.0542E-03     71.0678E-03    -29.1644E-03     341.639E-03     642.856E-03     213.772E+06     227.961E+06     181.492E+06    -5.22355E+06    -5.22102E+06     227.958E+06     181.492E+06    -690.051E+03
             176     90.5644E-03     17.5038E-03     88.8567E-03     198.176E-03    -29.0728E-03    -169.178E-03    -45.5119E-03     74.5106E-03    -29.0728E-03     347.193E-03     642.652E-03     214.017E+06     228.357E+06     181.690E+06    -5.14305E+06    -5.14058E+06     228.355E+06     181.690E+06    -666.137E+03
             177     91.6141E-03     17.5046E-03     89.9263E-03     201.362E-03    -29.0772E-03    -172.313E-03    -44.4147E-03     73.4638E-03    -29.0772E-03     354.557E-03     643.911E-03     213.454E+06     228.532E+06     180.711E+06    -4.77348E+06    -4.77323E+06     228.531E+06     180.711E+06    -64.8291E+03
             178     92.6436E-03     17.5061E-03     90.9746E-03     199.419E-03    -29.0968E-03    -170.374E-03    -40.5496E-03     69.5949E-03    -29.0968E-03     353.005E-03     644.629E-03     211.811E+06     226.484E+06     176.431E+06    -5.86656E+06    -5.86611E+06     226.484E+06     176.431E+06     296.485E+03
             179     93.6729E-03     17.5067E-03     92.0224E-03     199.543E-03    -28.9881E-03    -170.645E-03    -41.8320E-03     70.7297E-03    -28.9881E-03     352.637E-03     644.586E-03     209.849E+06     225.929E+06     173.053E+06    -5.29472E+06    -5.29395E+06     225.928E+06     173.053E+06     422.158E+03
             180     94.7242E-03     17.5092E-03     93.0919E-03     201.221E-03    -28.8253E-03    -172.446E-03    -42.4253E-03     71.2008E-03    -28.8253E-03     355.950E-03     644.338E-03     207.174E+06     225.668E+06     168.097E+06    -4.17797E+06    -4.17241E+06     225.662E+06     168.097E+06    -556.548E+03
             181     95.7559E-03     17.5122E-03     94.1409E-03     199.894E-03    -28.6803E-03    -171.219E-03    -39.8051E-03     68.4800E-03    -28.6803E-03     354.962E-03     645.248E-03     203.590E+06     223.055E+06     159.504E+06    -4.70511E+06    -4.69707E+06     223.047E+06     159.504E+06    -1.33934E+06
             182     96.7825E-03     17.5150E-03     95.1845E-03     196.113E-03    -28.4135E-03    -167.750E-03    -39.1112E-03     67.4742E-03    -28.4135E-03     347.899E-03     640.375E-03     197.870E+06     219.943E+06     146.476E+06    -3.99304E+06    -3.99014E+06     219.940E+06     146.476E+06    -621.234E+03
             183     97.8236E-03     17.5209E-03     96.2417E-03     195.245E-03    -28.0192E-03    -167.253E-03    -39.4446E-03     67.4368E-03    -28.0192E-03     346.383E-03     639.364E-03     190.880E+06     212.706E+06     128.019E+06    -5.78737E+06    -5.74473E+06     212.663E+06     128.019E+06    -2.19531E+06
             184     98.8608E-03     17.5265E-03     97.2948E-03     196.967E-03    -27.5009E-03    -169.413E-03    -39.5345E-03     67.0889E-03    -27.5009E-03     350.520E-03     642.606E-03     180.135E+06     203.727E+06     103.163E+06    -3.43866E+06    -3.38311E+06     203.671E+06     103.163E+06    -3.27723E+06
             185     99.9047E-03     17.5371E-03     98.3534E-03     199.145E-03    -26.9379E-03    -172.165E-03    -39.7651E-03     66.7443E-03    -26.9379E-03     355.705E-03     643.315E-03     170.553E+06     195.021E+06     86.8801E+06    -1.55695E+06    -1.53135E+06     194.995E+06     86.8801E+06    -2.24304E+06
             186     100.944E-03     17.5447E-03     99.4079E-03     197.731E-03    -26.4974E-03    -171.239E-03    -39.8636E-03     66.3554E-03    -26.4974E-03     353.349E-03     643.655E-03     167.599E+06     191.978E+06     100.368E+06    -996.124E+03    -956.154E+03     191.938E+06     100.368E+06     504.961E+03
             187     101.973E-03     17.5533E-03     100.451E-03     191.899E-03    -26.2502E-03    -165.650E-03    -41.0820E-03     67.3307E-03    -26.2502E-03     340.684E-03     644.173E-03     174.618E+06     186.087E+06     137.905E+06    -4.94020E+06    -4.65779E+06     185.805E+06     137.905E+06    -3.31190E+06
             188     103.013E-03     17.5541E-03     101.507E-03     189.363E-03    -26.0942E-03    -163.310E-03    -44.1915E-03     70.2449E-03    -26.0942E-03     333.575E-03     644.003E-03     171.357E+06     171.354E+06     157.746E+06    -6.38517E+06    -6.00966E+06     170.978E+06     157.746E+06    -8.07317E+06
             189     104.068E-03     17.5552E-03     102.577E-03     188.793E-03    -26.1274E-03    -162.742E-03    -42.3078E-03     68.3581E-03    -26.1274E-03     333.594E-03     642.078E-03     161.490E+06     163.444E+06     154.871E+06    -2.15681E+06    -1.81581E+06     159.503E+06     158.471E+06    -7.33273E+06
             190     105.093E-03     17.5549E-03     103.616E-03     182.651E-03    -26.2963E-03    -156.380E-03    -35.7164E-03     61.9872E-03    -26.2963E-03     324.633E-03     638.471E-03     158.284E+06     162.135E+06     151.004E+06    -1.37674E+06    -1.15506E+06     150.783E+06     162.135E+06    -3.90553E+06
             191     106.111E-03     17.5555E-03     104.649E-03     176.300E-03    -26.2432E-03    -150.000E-03    -36.4642E-03     62.7650E-03    -26.2432E-03     310.728E-03     632.614E-03     162.617E+06     165.815E+06     148.995E+06    -4.55654E+06    -4.55514E+06     148.994E+06     165.815E+06     438.655E+03
             192     107.156E-03     17.5551E-03     105.708E-03     178.225E-03    -26.0498E-03    -152.125E-03    -43.8852E-03     69.9849E-03    -26.0498E-03     310.059E-03     624.683E-03     169.680E+06     171.265E+06     154.023E+06    -6.37484E+06    -6.36949E+06     154.018E+06     171.265E+06     790.276E+03
             193     108.222E-03     17.5562E-03     106.789E-03     185.709E-03    -25.9273E-03    -159.789E-03    -49.0480E-03     74.9682E-03    -25.9273E-03     322.472E-03     617.372E-03     167.362E+06     170.508E+06     146.139E+06    -7.53686E+06    -7.10516E+06     145.707E+06     170.508E+06    -4.97496E+06
             194     109.268E-03     17.5563E-03     107.849E-03     180.781E-03    -25.7711E-03    -155.015E-03    -52.1027E-03     77.8681E-03    -25.7711E-03     309.427E-03     599.924E-03     154.280E+06     168.944E+06     127.483E+06       -1.44E+06    -996.173E+03     127.039E+06     168.944E+06    -6.57755E+06
             195     110.282E-03     17.5576E-03     108.875E-03     165.405E-03    -25.2642E-03    -140.137E-03    -63.7638E-03     89.0318E-03    -25.2642E-03     262.901E-03     563.827E-03     148.738E+06     160.751E+06     109.295E+06    -6.87935E+06    -5.72848E+06     108.144E+06     160.751E+06    -9.23459E+06
             196     111.347E-03     17.5576E-03     109.954E-03     165.387E-03    -24.4057E-03    -140.992E-03    -90.0025E-03     114.397E-03    -24.4057E-03     226.066E-03     527.382E-03     140.468E+06     154.994E+06     90.6751E+06    -4.87940E+06    -3.73029E+06     89.5260E+06     154.994E+06    -8.99035E+06
             197     112.477E-03     17.5592E-03     111.098E-03     184.224E-03    -23.6283E-03    -160.568E-03    -118.720E-03     142.376E-03    -23.6283E-03     225.036E-03     502.945E-03     144.095E+06     156.985E+06     73.3585E+06    -9.35554E+06    -8.62865E+06     72.6316E+06     156.985E+06    -6.55925E+06
             198     113.648E-03     17.5598E-03     112.284E-03     206.677E-03    -23.1747E-03    -183.462E-03    -137.643E-03     160.858E-03    -23.1747E-03     251.177E-03     483.241E-03     151.916E+06     168.401E+06     82.5947E+06    -7.00043E+06     1.60362E+06     73.9906E+06     168.401E+06     10.3426E+06
             199     114.827E-03     17.5623E-03     113.476E-03     219.058E-03    -22.9755E-03    -196.080E-03    -140.027E-03     163.005E-03    -22.9755E-03     283.209E-03     464.329E-03     151.978E+06     134.816E+06     80.2806E+06    -34.2903E+06    -18.1177E+06     64.1080E+06     134.816E+06    -7.06595E+06
             200     115.984E-03     17.5627E-03     114.647E-03     205.808E-03    -23.4936E-03    -182.318E-03    -109.910E-03     133.400E-03    -23.4936E-03     299.684E-03     407.263E-03     114.791E+06     75.1962E+06     47.4039E+06    -50.4430E+06    -19.8948E+06     16.8557E+06     75.1962E+06    -30.0081E+06
             201     117.046E-03     17.5659E-03     115.720E-03     154.026E-03    -26.7042E-03    -127.367E-03    -48.6094E-03     75.2679E-03    -26.7042E-03     249.518E-03     257.849E-03     74.4583E+06     61.1233E+06     16.8968E+06    -23.5590E+06     2.31446E+06    -8.97663E+06     61.1233E+06     -45.367E+03
             202     117.991E-03     17.4304E-03     116.697E-03     70.7127E-03    -4.48037E-03    -66.2705E-03     3.98667E-03     32.4859E-03    -36.5108E-03     101.009E-03     100.632E-03     90.1241E+06     50.2261E+06    -12.9183E+06    -52.8635E+06     6.30554E+06    -16.0120E+06    -5.84924E+06     10.7504E+06
             203     118.377E-03     16.1078E-03     117.276E-03     28.5869E-03     15.3351E-03    -43.9145E-03     17.9186E-03     26.0034E-03    -43.9145E-03     10.3556E-03     46.2528E-03     88.5403E+06     55.6455E+06     11.4013E+06    -44.8383E+06     13.2525E+06     21.3678E+06    -12.4118E+06     14.3179E+06
             204     117.941E-03     15.1422E-03     116.965E-03     59.8775E-03    -16.2655E-03    -43.6823E-03    -14.0939E-03     57.5084E-03    -43.4847E-03     144.682E-06     76.4549E-03     101.749E+06     85.6880E+06     18.4451E+06    -25.6960E+06    -13.9881E+06     18.7192E+06     73.7060E+06     5.46465E+06
             205     117.518E-03     14.2709E-03     116.648E-03     87.0013E-03    -41.0372E-03    -46.0350E-03    -44.9335E-03     85.8997E-03    -41.0372E-03    -23.5319E-03     103.120E-03     101.421E+06     81.0150E+06     9.39656E+06    -30.9762E+06    -13.3484E+06    -8.23121E+06     81.0150E+06    -17.8892E+06
             206     117.176E-03     13.3834E-03     116.409E-03     89.0472E-03    -37.9498E-03    -51.1031E-03    -49.2765E-03     87.2206E-03    -37.9498E-03    -31.7466E-03     101.416E-03     88.9904E+06     66.2474E+06     10.9101E+06    -34.4936E+06    -9.56206E+06    -14.0215E+06     66.2474E+06    -10.9920E+06
             207     116.899E-03     12.4682E-03     116.232E-03     89.7381E-03    -35.2967E-03    -54.4581E-03    -52.5079E-03     87.7880E-03    -35.2967E-03    -33.2950E-03     99.4333E-03     95.3381E+06     83.0946E+06     13.7279E+06    -25.3270E+06    -8.18162E+06    -3.41748E+06     83.0946E+06    -1.70799E+06
             208     116.656E-03     11.5520E-03     116.083E-03     87.7266E-03    -32.5873E-03    -55.1559E-03    -53.5957E-03     86.1664E-03    -32.5873E-03    -29.5929E-03     95.0486E-03     92.6017E+06     86.4363E+06     20.9465E+06    -19.3763E+06    -4.14878E+06     5.71897E+06     86.4363E+06    -10.8679E+06
             209     116.454E-03     10.6261E-03     115.968E-03     82.9335E-03    -29.8663E-03    -53.0664E-03    -51.9948E-03     81.8619E-03    -29.8663E-03    -23.9718E-03     88.2850E-03     86.0294E+06     81.2327E+06     10.5148E+06    -13.9533E+06     5.29740E+06    -8.73585E+06     81.2327E+06    -9.96563E+06
             210     116.276E-03     9.69288E-03     115.872E-03     75.0292E-03    -27.2533E-03    -47.7692E-03    -47.0752E-03     74.3352E-03    -27.2533E-03    -18.3346E-03     78.7460E-03     73.1347E+06     74.6895E+06     11.8186E+06    -5.32926E+06     10.0365E+06    -3.54714E+06     74.6895E+06    -2.53054E+06
             211     116.128E-03     8.74914E-03     115.798E-03     66.0678E-03    -24.9618E-03    -41.1044E-03    -40.6800E-03     65.6435E-03    -24.9618E-03    -13.4140E-03     68.4341E-03     64.9932E+06     67.0714E+06     11.8537E+06    -4.37468E+06     7.07617E+06     402.820E+03     67.0714E+06    -1.56507E+06
             212     116.003E-03     7.79591E-03     115.740E-03     58.9006E-03    -23.0105E-03    -35.9003E-03    -35.6276E-03     58.6279E-03    -23.0105E-03    -10.1283E-03     60.3716E-03     60.7247E+06     62.2017E+06     10.9945E+06    -4.65051E+06     5.29569E+06     1.04830E+06     62.2017E+06    -4.84015E+06
             213     115.898E-03     6.83471E-03     115.697E-03     52.7431E-03    -21.2246E-03    -31.5272E-03    -31.3413E-03     52.5572E-03    -21.2246E-03    -7.89490E-03     53.6688E-03     48.8282E+06     50.9780E+06     12.7488E+06    -4.02642E+06     9.03170E+06    -309.279E+03     50.9780E+06    -6.21298E+06
             214     115.809E-03     5.86960E-03     115.660E-03     47.0799E-03    -19.6794E-03    -27.3912E-03    -27.2576E-03     46.9463E-03    -19.6794E-03    -6.29589E-03     47.6176E-03     41.6652E+06     42.9602E+06     18.0553E+06    -4.40184E+06     14.5922E+06    -938.725E+03     42.9602E+06    -6.48998E+06
             215     115.739E-03     4.89846E-03     115.635E-03     42.1484E-03    -18.4358E-03    -23.7069E-03    -23.6200E-03     42.0615E-03    -18.4358E-03    -4.74241E-03     42.4096E-03     42.9396E+06     46.0022E+06     22.0502E+06    -3.21063E+06     20.8426E+06    -2.00307E+06     46.0022E+06    -5.37713E+06
             216     115.681E-03     3.92411E-03     115.614E-03     38.0844E-03    -17.4318E-03    -20.6509E-03    -20.5965E-03     38.0300E-03    -17.4318E-03    -3.57399E-03     38.1966E-03     43.1716E+06     47.3987E+06     29.0468E+06    -643.659E+03     27.6672E+06     735.884E+03     47.3987E+06    -6.23377E+06
             217     115.640E-03     2.94475E-03     115.602E-03     35.2852E-03    -16.6002E-03    -18.6855E-03    -18.6459E-03     35.2456E-03    -16.6002E-03    -2.90496E-03     35.3377E-03     41.2676E+06     41.8450E+06     36.2462E+06    -1.87829E+06     35.0716E+06    -703.668E+03     41.8450E+06    -6.44566E+06
             218     115.609E-03     1.96520E-03     115.592E-03     32.7613E-03    -15.7946E-03    -16.9664E-03    -16.6785E-03     32.7404E-03    -16.0616E-03    -1.99257E-03     32.7813E-03     43.7368E+06     42.4763E+06     40.7116E+06    -2.10642E+06     40.6763E+06    -1.58416E+06     41.9892E+06    -4.62203E+06
             219     115.590E-03     982.020E-06     115.586E-03     31.8880E-03    -15.4216E-03    -16.4653E-03    -16.1848E-03     31.8746E-03    -15.6887E-03    -1.60710E-03     31.9047E-03     53.7273E+06     52.5773E+06     48.1207E+06    -3.16719E+06     47.9681E+06    -2.52760E+06     52.0903E+06    -5.61843E+06
             220     114.553E-03    -2.87666E-06     114.553E-03     28.1116E-03    -13.2114E-03    -14.8995E-03    -13.9739E-03     28.0976E-03    -14.1229E-03    -1.53701E-03     28.1650E-03     53.6200E+06     45.1195E+06     34.2634E+06    -13.0008E+06     39.6640E+06    -11.5149E+06     38.2331E+06    -8.66709E+06
             221     113.528E-03     956.823E-09     113.528E-03     19.9869E-03    -9.33171E-03    -10.6545E-03    -9.73558E-03     19.9795E-03    -10.2433E-03    -875.026E-06     20.0484E-03     30.7047E+06     2.62093E+06    -5.05632E+06    -31.1606E+06    -378.567E+03    -28.9519E+06    -4.26554E+06    -3.11336E+06
             222     112.514E-03    -133.949E-09     112.514E-03     13.7145E-03    -6.54756E-03    -7.16672E-03    -6.95370E-03     13.7094E-03    -6.75553E-03    -578.615E-06     13.7588E-03     17.6545E+06    -34.3993E+06    -46.1563E+06    -53.2288E+06    -47.1213E+06    -41.2977E+06    -45.3655E+06    -2.53697E+06
             223     111.502E-03    -298.888E-09     111.502E-03     9.41167E-03    -4.54369E-03    -4.86793E-03    -4.65050E-03     9.40220E-03    -4.75166E-03    -721.885E-06     9.45898E-03     33.3529E+06    -57.3737E+06    -87.1190E+06    -93.4188E+06    -89.3927E+06    -61.3998E+06    -87.1190E+06    -11.1742E+06
             224     110.496E-03     549.093E-09     110.496E-03     5.76587E-03    -2.78383E-03    -2.98201E-03    -2.89462E-03     5.76038E-03    -2.86574E-03    -399.748E-06     5.80700E-03     49.1077E+06    -87.5612E+06    -131.483E+06    -140.570E+06    -133.859E+06    -89.6248E+06    -136.130E+06    -8.01818E+06
             225     109.490E-03    -779.300E-09     109.490E-03     2.87032E-03    -1.38821E-03    -1.48205E-03    -1.39956E-03     2.86973E-03    -1.47011E-03    -6.09444E-06     2.89289E-03     73.8671E+06    -111.217E+06    -179.202E+06    -189.801E+06    -185.056E+06    -111.315E+06    -183.850E+06    -1.85339E+06
             226     108.490E-03     884.532E-09     108.490E-03     1.85745E-03    -909.930E-06    -947.482E-06    -920.063E-06     1.85565E-03    -935.543E-06     134.297E-06     1.86588E-03     57.5252E+06    -111.717E+06    -159.719E+06    -173.598E+06    -164.211E+06    -113.177E+06    -167.646E+06     2.02209E+06
             227     107.487E-03    -1.06569E-06     107.487E-03     2.35623E-03    -1.15098E-03    -1.20532E-03    -1.13565E-03     2.34090E-03    -1.20532E-03     431.499E-06     2.36529E-03     45.4168E+06    -52.1601E+06    -80.0481E+06    -104.333E+06    -76.3249E+06    -72.2415E+06    -87.9747E+06     21.8451E+06
             228     106.485E-03     948.787E-09     106.485E-03     3.84989E-03    -1.85994E-03    -1.99000E-03    -1.92117E-03     3.80978E-03    -1.88866E-03     962.013E-06     3.86577E-03     78.5297E+06     25.0614E+06    -35.5272E+06    -63.0865E+06    -42.0490E+06     4.02398E+06    -35.5272E+06     30.1344E+06
             229     105.479E-03    -678.709E-09     105.479E-03     6.93737E-03    -3.40429E-03    -3.53315E-03    -3.45660E-03     6.88834E-03    -3.43181E-03     1.40348E-03     6.95636E-03     87.5828E+06     65.3337E+06    -14.4359E+06    -27.8391E+06    -22.9136E+06     62.6105E+06    -16.6382E+06     14.1957E+06
             230     104.471E-03     548.117E-09     104.471E-03     12.3524E-03    -6.11382E-03    -6.23871E-03    -6.15831E-03     12.2995E-03    -6.14134E-03     1.97385E-03     12.3669E-03     68.8258E+06     89.3137E+06     23.5040E+06     17.8950E+06     20.4084E+06     89.0026E+06     21.3017E+06     3.32121E+06
             231     103.453E-03    -365.056E-09     103.453E-03     19.4700E-03    -9.64790E-03    -9.82155E-03    -9.76535E-03     19.4138E-03    -9.64790E-03     2.54115E-03     19.4862E-03     34.8755E+06     91.9538E+06     58.9973E+06     55.4990E+06     56.5247E+06     90.9281E+06     58.9973E+06    -3.14488E+06
             232     102.431E-03     457.634E-09     102.431E-03     27.0499E-03    -13.3282E-03    -13.7210E-03    -13.6797E-03     27.0086E-03    -13.3282E-03     2.53818E-03     27.0751E-03     17.2161E+06     86.3660E+06     76.9639E+06     68.9369E+06     75.8856E+06     79.0711E+06     77.3100E+06    -6.33424E+06
             233     101.398E-03     171.999E-09     101.398E-03     34.3205E-03    -17.0009E-03    -17.3193E-03    -17.2847E-03     34.2878E-03    -17.0029E-03     2.59555E-03     34.3523E-03     30.8828E+06     94.3846E+06     91.3282E+06     62.1004E+06     91.9819E+06     64.1569E+06     91.6744E+06    -4.50825E+06
             234     100.361E-03    -241.214E-09     100.361E-03     40.7809E-03    -20.3607E-03    -20.4213E-03    -20.3954E-03     40.7569E-03    -20.3626E-03     2.33145E-03     40.8295E-03     53.0666E+06     103.838E+06     97.2288E+06     47.7766E+06     98.9941E+06     48.7215E+06     101.127E+06    -6.00583E+06
             235     99.3147E-03     407.174E-09     99.3147E-03     46.2273E-03    -22.9614E-03    -23.2664E-03    -23.2528E-03     46.2137E-03    -22.9614E-03     1.94194E-03     46.2905E-03     76.8849E+06     103.551E+06     93.6854E+06     22.2094E+06     98.3803E+06     23.4813E+06     97.5841E+06    -9.22304E+06
             236     98.2663E-03    -8.16423E-09     98.2663E-03     50.5479E-03    -25.1240E-03    -25.4239E-03    -25.3609E-03     50.5384E-03    -25.1775E-03     1.63537E-03     50.6182E-03     98.9996E+06     96.8908E+06     87.2567E+06    -6.54207E+06     92.4534E+06    -5.77210E+06     90.9241E+06    -8.73025E+06
             237     97.2111E-03    -42.3048E-09     97.2111E-03     53.5732E-03    -26.6778E-03    -26.8964E-03    -26.8390E-03     53.5694E-03    -26.7313E-03     1.09566E-03     53.6544E-03     117.000E+06     86.2711E+06     79.1919E+06    -34.1047E+06     81.7917E+06    -33.2927E+06     82.8593E+06    -9.68556E+06
             238     96.1569E-03     324.786E-09     96.1569E-03     55.7745E-03    -27.6916E-03    -28.0823E-03    -28.0788E-03     55.7710E-03    -27.6916E-03     1.07498E-03     55.8592E-03     126.062E+06     69.2918E+06     65.3056E+06    -58.6936E+06     68.2749E+06    -58.2511E+06     65.8800E+06    -6.51334E+06
             239     95.0974E-03     119.927E-09     95.0974E-03     56.9911E-03    -28.3711E-03    -28.6181E-03    -28.5926E-03     56.9870E-03    -28.3925E-03     1.19110E-03     57.0739E-03     126.998E+06     52.7607E+06     51.4961E+06    -74.8652E+06     51.4314E+06    -74.8004E+06     52.7607E+06    -2.85252E+06
             240     94.0389E-03    -151.275E-09     94.0389E-03     57.2899E-03    -28.4675E-03    -28.8216E-03    -28.7976E-03     57.2873E-03    -28.4889E-03     906.089E-06     57.3796E-03     125.134E+06     36.9051E+06     35.8669E+06    -88.7448E+06     35.5456E+06    -88.4236E+06     36.9051E+06    -5.66388E+06
             241     92.9826E-03     809.125E-09     92.9826E-03     57.9359E-03    -28.6682E-03    -29.2670E-03    -29.2660E-03     57.9350E-03    -28.6682E-03     574.674E-06     58.0427E-03     128.775E+06     21.9818E+06     20.2200E+06    -107.662E+06     21.2293E+06    -107.258E+06     20.5680E+06    -7.00054E+06
             242     91.9204E-03    -304.323E-09     91.9204E-03     58.1828E-03    -28.8314E-03    -29.3499E-03    -29.0970E-03     58.1823E-03    -29.0837E-03     395.284E-06     58.2781E-03     130.346E+06     7.89027E+06     6.08543E+06    -123.347E+06     7.35026E+06    -123.198E+06     6.47650E+06    -4.20915E+06
             243     90.8637E-03    -178.830E-09     90.8637E-03     58.3415E-03    -28.8841E-03    -29.4563E-03    -29.2017E-03     58.3393E-03    -29.1365E-03     748.635E-06     58.4311E-03     121.320E+06    -14.4011E+06    -15.2094E+06    -136.123E+06    -14.9825E+06    -135.933E+06    -14.8183E+06    -4.43017E+06
             244     89.8011E-03     796.255E-09     89.8011E-03     58.7566E-03    -29.1009E-03    -29.6553E-03    -29.6523E-03     58.7537E-03    -29.1009E-03     999.063E-06     58.8525E-03     125.782E+06    -24.0636E+06    -24.7052E+06    -150.165E+06    -24.4798E+06    -149.973E+06    -24.4808E+06    -4.51322E+06
             245     88.7433E-03    -333.768E-09     88.7433E-03     58.3341E-03    -29.0280E-03    -29.3062E-03    -29.3045E-03     58.3324E-03    -29.0280E-03     765.508E-06     58.4222E-03     136.529E+06    -28.9490E+06    -29.2807E+06    -165.643E+06    -29.3867E+06    -165.538E+06    -28.9490E+06    -3.71510E+06
             246     87.6832E-03     422.762E-09     87.6832E-03     58.1111E-03    -28.8976E-03    -29.2132E-03    -29.2106E-03     58.1085E-03    -28.8976E-03     941.008E-06     58.2055E-03     143.652E+06    -39.5964E+06    -39.7947E+06    -183.347E+06    -39.8762E+06    -183.175E+06    -39.6873E+06    -4.96776E+06
             247     86.6247E-03     106.596E-09     86.6247E-03     58.1214E-03    -28.8609E-03    -29.2602E-03    -29.2579E-03     58.1191E-03    -28.8609E-03     862.986E-06     58.2160E-03     150.498E+06    -47.4171E+06    -48.4559E+06    -198.431E+06    -47.5590E+06    -198.289E+06    -48.4559E+06    -4.53622E+06
             248     85.5656E-03     133.583E-09     85.5656E-03     57.9190E-03    -28.8860E-03    -29.0338E-03    -29.0118E-03     57.9174E-03    -28.9064E-03     735.894E-06     58.0093E-03     161.786E+06    -46.2702E+06    -47.4049E+06    -208.619E+06    -46.3231E+06    -208.566E+06    -47.4049E+06    -2.66053E+06
             249     84.5072E-03    -173.408E-09     84.5072E-03     58.1091E-03    -28.8812E-03    -29.2302E-03    -29.2087E-03     58.1080E-03    -28.9016E-03     532.951E-06     58.2049E-03     171.003E+06    -44.8050E+06    -45.9244E+06    -216.364E+06    -45.7855E+06    -216.316E+06    -44.9919E+06    -2.64632E+06
             250     83.4487E-03     828.926E-09     83.4487E-03     58.2134E-03    -28.9406E-03    -29.2742E-03    -29.2680E-03     58.2122E-03    -28.9457E-03     541.630E-06     58.3294E-03     174.364E+06    -50.3587E+06    -52.2967E+06    -225.684E+06    -51.3668E+06    -225.608E+06    -51.3641E+06    -3.62368E+06
             251     82.3886E-03    -850.312E-09     82.3886E-03     58.0737E-03    -28.9706E-03    -29.1036E-03    -29.0965E-03     58.0716E-03    -28.9757E-03     840.607E-06     58.1987E-03     182.988E+06    -47.8743E+06    -48.9569E+06    -231.399E+06    -47.9092E+06    -231.364E+06    -48.9569E+06    -1.53400E+06
             252     81.3305E-03     1.10017E-06     81.3305E-03     58.1125E-03    -28.8684E-03    -29.2441E-03    -29.2415E-03     58.1100E-03    -28.8684E-03     937.045E-06     58.2526E-03     186.756E+06    -47.1424E+06    -47.6840E+06    -234.168E+06    -47.6103E+06    -234.164E+06    -47.2196E+06    -322.458E+03
             253     80.2716E-03    -611.793E-09     80.2716E-03     58.1346E-03    -28.9015E-03    -29.2328E-03    -29.1470E-03     58.1322E-03    -28.9849E-03     896.384E-06     58.3010E-03     187.400E+06    -46.9734E+06    -48.5282E+06    -235.145E+06    -47.4433E+06    -235.140E+06    -48.0637E+06    -44.2883E+03
             254     79.2127E-03     435.967E-09     79.2127E-03     58.0894E-03    -28.9111E-03    -29.1784E-03    -29.0920E-03     58.0865E-03    -28.9945E-03     978.709E-06     58.3461E-03     192.472E+06    -41.0949E+06    -42.6538E+06    -234.341E+06    -41.5660E+06    -234.339E+06    -42.1853E+06     386.171E+03
             255     78.1538E-03    -77.1046E-09     78.1538E-03     58.0221E-03    -28.8479E-03    -29.1728E-03    -29.1698E-03     58.0191E-03    -28.8479E-03     996.123E-06     58.4449E-03     193.272E+06    -42.9191E+06    -44.5947E+06    -237.022E+06    -43.3933E+06    -237.016E+06    -44.1261E+06    -839.189E+03
             256     77.0959E-03     336.200E-09     77.0959E-03     58.0911E-03    -28.8086E-03    -29.2814E-03    -29.2798E-03     58.0895E-03    -28.8086E-03     747.024E-06     58.5441E-03     195.263E+06    -42.9647E+06    -45.6719E+06    -239.567E+06    -44.4811E+06    -239.551E+06    -44.1717E+06     280.554E+03
             257     76.0363E-03     328.060E-09     76.0363E-03     58.0989E-03    -28.8079E-03    -29.2913E-03    -29.2901E-03     58.0978E-03    -28.8079E-03     614.426E-06     58.6570E-03     194.322E+06    -41.4843E+06    -43.2717E+06    -236.691E+06    -42.9953E+06    -236.680E+06    -41.7715E+06     1.13559E+06
             258     74.9787E-03    -35.8921E-09     74.9787E-03     57.6594E-03    -28.7215E-03    -28.9389E-03    -28.9385E-03     57.6590E-03    -28.7215E-03     256.514E-06     58.2962E-03     195.717E+06    -41.0771E+06    -42.2072E+06    -237.356E+06    -41.9518E+06    -237.324E+06    -41.3643E+06    -1.65779E+06
             259     73.9202E-03     175.814E-09     73.9202E-03     57.5708E-03    -28.7179E-03    -28.8532E-03    -28.8479E-03     57.5656E-03    -28.7179E-03     968.342E-06     58.2406E-03     201.061E+06    -36.5388E+06    -39.7905E+06    -239.201E+06    -37.4430E+06     -239.14E+06    -38.9477E+06    -26.8131E+03
             260     72.8611E-03    -82.9802E-09     72.8611E-03     58.0401E-03    -28.9555E-03    -29.0838E-03    -29.0777E-03     58.0341E-03    -28.9555E-03     1.33175E-03     58.6949E-03     204.209E+06    -33.2230E+06    -37.0545E+06    -239.319E+06    -34.6813E+06    -239.283E+06    -35.6319E+06     966.459E+03
             261     71.8032E-03     213.630E-09     71.8032E-03     57.9875E-03    -28.8370E-03    -29.1490E-03    -29.1479E-03     57.9863E-03    -28.8370E-03     611.511E-06     58.5242E-03     205.825E+06    -35.5241E+06    -37.7280E+06    -242.441E+06    -36.9568E+06    -242.431E+06    -36.3054E+06    -1.43910E+06
             262     70.7446E-03     270.056E-09     70.7446E-03     57.5839E-03    -28.6145E-03    -28.9687E-03    -28.9663E-03     57.5815E-03    -28.6145E-03     837.700E-06     57.9590E-03     206.684E+06    -34.1788E+06    -35.6839E+06    -241.611E+06    -34.9177E+06    -241.596E+06    -34.9601E+06     403.080E+03
             263     69.6860E-03    -73.7551E-09     69.6860E-03     57.4051E-03    -28.5527E-03    -28.8526E-03    -28.8503E-03     57.4029E-03    -28.5527E-03     745.731E-06     57.8688E-03     207.992E+06    -30.6607E+06    -32.5094E+06    -239.571E+06    -31.3961E+06    -239.559E+06    -31.7856E+06     1.32400E+06
             264     68.6297E-03     446.728E-09     68.6297E-03     57.5364E-03    -28.5254E-03    -29.0117E-03    -29.0108E-03     57.5355E-03    -28.5254E-03     507.500E-06     58.1997E-03     207.899E+06    -29.6810E+06    -33.0349E+06    -239.234E+06    -31.9107E+06    -239.233E+06    -30.8059E+06     366.843E+03
             265     67.5701E-03     139.782E-09     67.5701E-03     57.7164E-03    -28.6970E-03    -29.0197E-03    -28.9823E-03     57.7144E-03    -28.7323E-03     830.127E-06     58.3240E-03     206.815E+06    -29.5073E+06    -33.2389E+06    -238.162E+06    -31.7408E+06    -238.158E+06    -31.0100E+06    -573.205E+03
             266     66.5120E-03    -228.662E-09     66.5120E-03     57.7068E-03    -28.8056E-03    -28.9015E-03    -28.8646E-03     57.7052E-03    -28.8409E-03     709.755E-06     58.3537E-03     207.208E+06    -31.1125E+06    -32.8655E+06    -239.189E+06    -31.1173E+06    -239.184E+06    -32.8655E+06    -478.365E+03
             267     65.4545E-03     343.686E-09     65.4545E-03     57.6517E-03    -28.7453E-03    -28.9061E-03    -28.9042E-03     57.6499E-03    -28.7453E-03     752.552E-06     58.2749E-03     206.164E+06    -34.0009E+06    -34.3058E+06    -240.317E+06    -34.0016E+06    -240.316E+06    -34.3058E+06     380.244E+03
             268     64.3946E-03    -149.307E-09     64.3946E-03     57.4576E-03    -28.5593E-03    -28.8962E-03    -28.8922E-03     57.4537E-03    -28.5593E-03     1.15449E-03     57.8999E-03     205.174E+06    -34.2467E+06    -34.5775E+06    -239.586E+06    -34.2527E+06    -239.580E+06    -34.5775E+06     945.156E+03
             269     63.3381E-03     604.405E-09     63.3381E-03     57.5324E-03    -28.5436E-03    -28.9877E-03    -28.9851E-03     57.5298E-03    -28.5436E-03     830.676E-06     57.9993E-03     206.675E+06    -31.4903E+06    -32.5819E+06    -238.708E+06    -32.3114E+06    -238.702E+06    -31.7665E+06     857.830E+03
             270     62.2803E-03    -189.228E-09     62.2803E-03     58.1902E-03    -28.9211E-03    -29.2695E-03    -29.2684E-03     58.1891E-03    -28.9211E-03     575.460E-06     58.8570E-03     206.430E+06    -30.4873E+06    -31.3775E+06    -237.360E+06    -31.3050E+06    -237.358E+06    -30.5621E+06     570.185E+03
             271     61.2198E-03     463.199E-09     61.2198E-03     58.5227E-03    -29.1668E-03    -29.3573E-03    -29.3037E-03     58.5187E-03    -29.2163E-03     1.13079E-03     59.2319E-03     206.355E+06    -30.8308E+06    -30.9260E+06    -237.234E+06    -30.8705E+06    -237.214E+06    -30.9056E+06    -851.194E+03
             272     60.1603E-03    -560.863E-09     60.1603E-03     58.0209E-03    -28.7306E-03    -29.2910E-03    -29.2383E-03     58.0178E-03    -28.7801E-03     745.233E-06     58.7184E-03     206.840E+06    -32.3008E+06    -33.1109E+06    -239.544E+06    -32.3500E+06    -239.515E+06    -33.0905E+06    -226.918E+03
             273     59.1042E-03     1.55098E-06     59.1042E-03     57.8181E-03    -28.5811E-03    -29.2361E-03    -29.0918E-03     57.8179E-03    -28.7252E-03     205.897E-06     58.3802E-03     206.570E+06    -30.6316E+06    -33.0763E+06    -238.412E+06    -32.2990E+06    -238.400E+06    -31.4214E+06     822.207E+03
             274     60.0876E-03     16.5269E-03     57.7701E-03     220.753E-03    -29.1498E-03    -191.591E-03    -51.2055E-03     80.3672E-03    -29.1498E-03     390.779E-03     613.100E-03     176.840E+06     178.942E+06     149.882E+06    -10.0380E+06    -10.0058E+06      178.91E+06     149.882E+06    -1.44613E+06
             275     59.3729E-03     15.5548E-03     57.2991E-03     168.532E-03    -28.8896E-03    -139.636E-03    -44.3908E-03     73.2869E-03    -28.8896E-03     282.646E-03     400.165E-03     144.918E+06     145.425E+06     82.6662E+06    -17.5595E+06    -17.5012E+06     145.367E+06     82.6662E+06    -1.80902E+06
             276     58.9840E-03     14.5823E-03     57.1530E-03     78.3860E-03    -28.5496E-03    -49.8942E-03    -29.3645E-03     57.8563E-03    -28.5496E-03     87.3289E-03     181.901E-03     119.017E+06     104.693E+06     9.03828E+06    -25.4605E+06    -21.7576E+06     104.627E+06     5.40124E+06     821.848E+03
             277     58.7124E-03     13.6076E-03     57.1137E-03     58.7689E-03    -28.3719E-03    -30.4550E-03    -27.6024E-03     55.9163E-03    -28.3719E-03     30.9992E-03     128.309E-03     99.2295E+06     64.6587E+06    -22.0148E+06    -42.0429E+06    -21.9753E+06     64.6191E+06    -42.0429E+06     1.61014E+06
             278     58.4680E-03     12.6356E-03     57.0863E-03     57.6888E-03    -28.4319E-03    -29.3211E-03    -27.9269E-03     56.2945E-03    -28.4319E-03     21.4052E-03     105.976E-03     54.4853E+06     12.7961E+06    -23.6917E+06    -49.0009E+06    -19.4542E+06     8.55863E+06    -49.0009E+06     371.610E+03
             279     58.2475E-03     11.6628E-03     57.0680E-03     57.3471E-03    -28.5465E-03    -28.8434E-03    -28.1605E-03     56.7134E-03    -28.5957E-03     14.5127E-03     94.2845E-03     38.5309E+06    -17.0681E+06    -26.5784E+06    -59.3596E+06    -17.1626E+06    -50.3468E+06    -35.4966E+06     67.4831E+03
             280     58.0479E-03     10.6903E-03     57.0551E-03     57.5178E-03    -28.6735E-03    -28.8541E-03    -28.3451E-03     57.0592E-03    -28.7239E-03     12.5414E-03     86.5875E-03     71.0921E+06    -16.4612E+06    -22.3876E+06    -90.1299E+06    -16.4842E+06    -90.1069E+06    -22.3876E+06     47.5659E+03
             281     57.8638E-03     9.71840E-03     57.0419E-03     57.6033E-03    -28.7027E-03    -28.8935E-03    -28.3867E-03     57.2152E-03    -28.8214E-03     11.4492E-03     80.4101E-03     103.554E+06    -12.7200E+06    -17.3799E+06    -118.500E+06    -16.6776E+06    -118.477E+06    -13.4447E+06     642.264E+03
             282     57.6972E-03     8.74583E-03     57.0305E-03     57.6243E-03    -28.7039E-03    -28.9022E-03    -28.4600E-03     57.3804E-03    -28.9022E-03     9.12988E-03     74.9459E-03     128.688E+06    -9.30016E+06    -17.4399E+06    -141.859E+06    -17.4652E+06    -141.834E+06    -9.30016E+06     1.10576E+06
             283     57.5498E-03     7.77411E-03     57.0223E-03     57.8109E-03    -28.8279E-03    -28.9545E-03    -28.6295E-03     57.6125E-03    -28.9545E-03     8.27837E-03     70.8820E-03     146.964E+06    -9.97321E+06    -18.1889E+06    -160.868E+06    -18.1997E+06    -160.857E+06    -9.97321E+06     62.9582E+03
             284     57.4173E-03     6.80179E-03     57.0130E-03     57.9513E-03    -28.9146E-03    -29.0261E-03    -28.7547E-03     57.7914E-03    -29.0261E-03     7.40646E-03     67.6228E-03     168.424E+06    -8.74655E+06    -18.7253E+06    -181.935E+06    -18.7309E+06    -181.929E+06    -8.74655E+06    -789.095E+03
             285     57.3038E-03     5.83006E-03     57.0064E-03     58.0324E-03    -28.9404E-03    -29.0891E-03    -28.8300E-03     57.9221E-03    -29.0891E-03     6.17314E-03     64.8888E-03     185.367E+06    -8.27412E+06    -20.1804E+06    -199.301E+06    -20.1874E+06    -199.294E+06    -8.27412E+06     118.497E+03
             286     57.2067E-03     4.85835E-03     57.0001E-03     58.0431E-03    -28.9239E-03    -29.1195E-03    -28.8445E-03     57.9637E-03    -29.1195E-03     5.22905E-03     62.6743E-03     195.300E+06    -11.8849E+06    -22.1285E+06    -212.091E+06    -22.1323E+06    -212.087E+06    -11.8849E+06     677.392E+03
             287     57.1273E-03     3.88612E-03     56.9950E-03     58.1795E-03    -29.0269E-03    -29.1553E-03    -28.9795E-03     58.1253E-03    -29.1485E-03     4.32505E-03     61.1900E-03     206.716E+06    -16.3890E+06    -24.1963E+06    -226.893E+06    -24.1984E+06    -226.891E+06    -16.3890E+06     1.00452E+03
             288     57.0652E-03     2.91490E-03     56.9908E-03     58.2758E-03    -29.0949E-03    -29.1822E-03    -29.0857E-03     58.2427E-03    -29.1584E-03     3.35478E-03     60.0305E-03     211.204E+06    -21.1696E+06    -27.0555E+06    -235.246E+06    -27.0614E+06    -235.240E+06    -21.1696E+06     382.949E+03
             289     57.0209E-03     1.94316E-03     56.9877E-03     58.2254E-03    -29.0305E-03    -29.1926E-03    -29.0319E-03     58.2098E-03    -29.1755E-03     2.26575E-03     59.1421E-03     209.930E+06    -26.5532E+06    -29.4774E+06    -237.919E+06    -29.4721E+06    -237.901E+06    -26.5760E+06     26.5648E+03
             290     56.9947E-03     971.135E-06     56.9864E-03     58.3646E-03    -29.0010E-03    -29.3602E-03    -29.2627E-03     58.3577E-03    -29.0916E-03     1.28702E-03     59.0068E-03     206.451E+06    -30.4585E+06    -32.2778E+06    -237.810E+06    -30.9922E+06    -237.794E+06    -31.7600E+06    -477.641E+03
             291     59.0655E-03     16.5255E-03     56.7066E-03     219.573E-03    -29.1171E-03    -190.513E-03    -50.6804E-03     79.7400E-03    -29.1171E-03     388.780E-03     611.924E-03     176.958E+06     180.102E+06     148.727E+06    -9.67194E+06    -9.64240E+06     180.072E+06     148.727E+06    -883.777E+03
             292     58.3518E-03     15.5538E-03     56.2406E-03     167.971E-03    -28.8690E-03    -139.096E-03    -44.0570E-03     72.9311E-03    -28.8690E-03     281.652E-03     398.390E-03     144.431E+06     144.213E+06     79.8105E+06    -18.9469E+06    -18.9120E+06     144.178E+06     79.8105E+06    -388.862E+03
             293     57.9576E-03     14.5803E-03     56.0937E-03     78.4141E-03    -28.5492E-03    -49.9296E-03    -29.5304E-03     58.0148E-03    -28.5492E-03     87.1285E-03     181.400E-03     118.778E+06     103.344E+06      6.9452E+06    -25.4607E+06    -24.2291E+06     103.319E+06     5.73898E+06     66.0290E+03
             294     57.6845E-03     13.6093E-03     56.0562E-03     58.9032E-03    -28.3663E-03    -30.5994E-03    -27.6860E-03     55.9898E-03    -28.3663E-03     31.4329E-03     128.271E-03     98.5486E+06     65.2371E+06    -22.2724E+06    -39.5724E+06    -22.2430E+06     65.2078E+06    -39.5724E+06    -240.597E+03
             295     57.4347E-03     12.6353E-03     56.0276E-03     57.6894E-03    -28.4123E-03    -29.3457E-03    -27.8925E-03     56.2362E-03    -28.4123E-03     21.7881E-03     105.779E-03     54.0124E+06     12.9180E+06    -23.1376E+06    -48.3444E+06    -18.9501E+06     8.73047E+06    -48.3444E+06     320.182E+03
             296     57.2113E-03     11.6631E-03     56.0099E-03     57.2519E-03    -28.5235E-03    -28.7719E-03    -28.0838E-03     56.6130E-03    -28.5728E-03     14.5697E-03     94.1633E-03     38.7770E+06    -17.2239E+06    -26.7067E+06    -59.7492E+06    -17.4981E+06    -50.3620E+06    -35.8197E+06     449.546E+03
             297     57.0081E-03     10.6904E-03     55.9968E-03     57.4401E-03    -28.6480E-03    -28.7909E-03    -28.2698E-03     56.9788E-03    -28.7078E-03     12.5704E-03     86.5202E-03     71.2281E+06    -16.8830E+06    -22.6500E+06    -90.6298E+06    -16.9176E+06    -90.5952E+06    -22.6500E+06     405.183E+03
             298     56.8201E-03     9.71820E-03     55.9828E-03     57.5971E-03    -28.7036E-03    -28.8756E-03    -28.3923E-03     57.2137E-03    -28.8036E-03     11.3712E-03     80.3607E-03     103.477E+06    -13.8910E+06    -17.5508E+06    -119.135E+06    -16.8760E+06    -119.094E+06    -14.6067E+06     579.087E+03
             299     56.6522E-03     8.74626E-03     55.9730E-03     57.6172E-03    -28.7146E-03    -28.8797E-03    -28.4585E-03     57.3611E-03    -28.8797E-03     9.37759E-03     74.9138E-03     128.033E+06    -10.5064E+06    -16.6192E+06    -141.483E+06    -16.6437E+06    -141.459E+06    -10.5064E+06     387.910E+03
             300     56.5003E-03     7.77374E-03     55.9630E-03     57.8372E-03    -28.8577E-03    -28.9517E-03    -28.6669E-03     57.6338E-03    -28.9392E-03     8.35359E-03     70.9321E-03     147.018E+06    -9.23992E+06    -17.2663E+06    -160.100E+06    -17.2693E+06    -160.097E+06    -9.23992E+06     185.080E+03
             301     56.3671E-03     6.80226E-03     55.9552E-03     57.9155E-03    -28.8826E-03    -29.0230E-03    -28.7432E-03     57.7636E-03    -29.0105E-03     7.23659E-03     67.5887E-03     168.016E+06    -8.37607E+06    -20.1593E+06    -181.964E+06    -20.1674E+06    -181.956E+06    -8.37607E+06     42.4634E+03
             302     56.2502E-03     5.83008E-03     55.9473E-03     57.9418E-03    -28.8724E-03    -29.0635E-03    -28.7608E-03     57.8302E-03    -29.0635E-03     6.19439E-03     64.7620E-03     183.598E+06    -10.3207E+06    -23.0634E+06    -199.944E+06    -23.0822E+06    -199.925E+06    -10.3207E+06    -308.957E+03
             303     56.1524E-03     4.85834E-03     55.9418E-03     58.0679E-03    -28.9475E-03    -29.1186E-03    -28.9018E-03     57.9882E-03    -29.0846E-03     5.25145E-03     62.6942E-03     193.274E+06    -13.7311E+06    -24.4333E+06    -212.122E+06    -24.4469E+06    -212.109E+06    -13.7311E+06         604.086
             304     56.0711E-03     3.88675E-03     55.9362E-03     58.1104E-03    -28.9629E-03    -29.1488E-03    -28.9488E-03     58.0555E-03    -29.1080E-03     4.33924E-03     61.1149E-03     205.450E+06    -17.3058E+06    -25.5187E+06    -226.730E+06    -25.5214E+06    -226.728E+06    -17.3058E+06     627.553E+03
             305     56.0078E-03     2.91481E-03     55.9319E-03     58.1462E-03    -29.0040E-03    -29.1426E-03    -28.9793E-03     58.1145E-03    -29.1356E-03     3.27848E-03     59.8946E-03     211.460E+06    -21.2687E+06    -27.5083E+06    -235.777E+06    -27.5096E+06    -235.775E+06    -21.2687E+06     372.884E+03
             306     55.9631E-03     1.94300E-03     55.9293E-03     58.2392E-03    -29.0812E-03    -29.1567E-03    -29.0668E-03     58.2246E-03    -29.1566E-03     2.18311E-03     59.2172E-03     210.027E+06    -24.9060E+06    -30.0283E+06    -237.440E+06    -30.0300E+06    -237.439E+06    -24.9060E+06     384.487E+03
             307     55.9353E-03     971.872E-06     55.9269E-03     58.2657E-03    -28.9778E-03    -29.2855E-03    -29.2001E-03     58.2583E-03    -29.0557E-03     1.60219E-03     58.9854E-03     205.567E+06    -30.4059E+06    -34.4131E+06    -237.938E+06     -34.054E+06    -237.909E+06    -30.7938E+06     1.75162E+06
             308     58.0618E-03     16.5339E-03     55.6579E-03     219.285E-03    -29.0426E-03    -190.294E-03    -50.9529E-03     79.9435E-03    -29.0426E-03     388.073E-03     610.878E-03     177.172E+06     179.982E+06     150.273E+06    -9.50834E+06    -9.48748E+06     179.961E+06     150.273E+06     684.888E+03
             309     57.3313E-03     15.5544E-03     55.1809E-03     168.706E-03    -28.8306E-03    -139.882E-03    -43.5513E-03     72.3755E-03    -28.8306E-03     283.550E-03     398.518E-03     145.059E+06     145.771E+06     83.2141E+06    -17.6507E+06    -17.6297E+06     145.750E+06     83.2141E+06     1.23889E+06
             310     56.9349E-03     14.5825E-03     55.0357E-03     77.7829E-03    -28.5308E-03    -49.3215E-03    -29.2677E-03     57.7291E-03    -28.5308E-03     86.2078E-03     181.002E-03     119.708E+06     104.491E+06     10.1443E+06    -27.0721E+06    -21.7858E+06     104.440E+06     4.90848E+06    -1.28386E+06
             311     56.6558E-03     13.6075E-03     54.9974E-03     58.8620E-03    -28.3424E-03    -30.5820E-03    -27.6541E-03     55.9341E-03    -28.3424E-03     31.4146E-03     128.152E-03     98.5651E+06     63.1214E+06    -22.2945E+06    -43.3389E+06    -22.2356E+06     63.0625E+06    -43.3389E+06    -1.46089E+06
             312     56.4033E-03     12.6360E-03     54.9696E-03     57.7136E-03    -28.4024E-03    -29.3796E-03    -27.9439E-03     56.2779E-03    -28.4024E-03     21.7245E-03     105.723E-03     53.2873E+06     11.0065E+06    -23.7228E+06    -49.1604E+06    -20.7055E+06     7.98928E+06    -49.1604E+06     236.242E+03
             313     56.1755E-03     11.6630E-03     54.9514E-03     57.2858E-03    -28.5572E-03    -28.7670E-03    -28.1139E-03     56.6327E-03    -28.5572E-03     14.7174E-03     94.0781E-03     38.3734E+06    -18.0789E+06    -26.3816E+06    -59.8676E+06    -18.4773E+06    -49.8402E+06    -36.0106E+06     385.056E+03
             314     55.9692E-03     10.6909E-03     54.9386E-03     57.4192E-03    -28.6695E-03    -28.7373E-03    -28.2499E-03     56.9524E-03    -28.6901E-03     12.6408E-03     86.4224E-03     71.4890E+06    -16.8889E+06    -22.7473E+06    -90.9563E+06    -16.9294E+06    -90.9157E+06    -22.7473E+06     390.979E+03
             315     55.7777E-03     9.71836E-03     54.9245E-03     57.5362E-03    -28.7235E-03    -28.7875E-03    -28.3384E-03     57.1511E-03    -28.7875E-03     11.3749E-03     80.2309E-03     103.521E+06    -13.8665E+06    -17.2361E+06    -119.026E+06    -16.3276E+06    -119.000E+06    -14.8017E+06    -95.8537E+03
             316     55.6066E-03     8.74596E-03     54.9145E-03     57.6829E-03    -28.7932E-03    -28.8640E-03    -28.5418E-03     57.4297E-03    -28.8622E-03     9.33448E-03     74.9716E-03     128.270E+06    -10.4541E+06    -16.4469E+06    -141.613E+06    -16.4557E+06    -141.604E+06    -10.4541E+06    -277.732E+03
             317     55.4522E-03     7.77436E-03     54.9045E-03     57.8155E-03    -28.8469E-03    -28.9381E-03    -28.6569E-03     57.6112E-03    -28.9238E-03     8.37389E-03     70.8652E-03     148.697E+06    -8.26130E+06    -17.2625E+06    -161.249E+06    -17.2776E+06    -161.234E+06    -8.26130E+06     918.282E+03
             318     55.3161E-03     6.80225E-03     54.8962E-03     57.8900E-03    -28.8695E-03    -29.0075E-03    -28.7318E-03     57.7398E-03    -28.9950E-03     7.17716E-03     67.5425E-03     168.909E+06    -6.12460E+06    -18.8611E+06    -181.037E+06    -18.8773E+06    -181.021E+06    -6.12460E+06     1.18505E+06
             319     55.1982E-03     5.83039E-03     54.8895E-03     57.9221E-03    -28.8755E-03    -29.0409E-03    -28.7635E-03     57.8101E-03    -29.0409E-03     6.21683E-03     64.7430E-03     184.538E+06    -8.64175E+06    -21.0915E+06    -199.074E+06    -21.1059E+06    -199.059E+06    -8.64175E+06    -25.8168E+03
             320     55.0973E-03     4.85833E-03     54.8826E-03     58.0226E-03    -28.9334E-03    -29.0887E-03    -28.8844E-03     57.9395E-03    -29.0547E-03     5.34487E-03     62.6517E-03     194.384E+06    -14.0384E+06    -23.7751E+06    -213.102E+06    -23.7891E+06    -213.088E+06    -14.0384E+06    -331.186E+03
             321     55.0152E-03     3.88682E-03     54.8778E-03     58.0995E-03    -28.9648E-03    -29.1364E-03    -28.9745E-03     58.0449E-03    -29.0722E-03     4.32769E-03     61.0773E-03     205.447E+06    -16.9946E+06    -26.2748E+06    -226.920E+06    -26.2785E+06    -226.917E+06    -16.9946E+06     248.138E+03
             322     54.9510E-03     2.91487E-03     54.8737E-03     58.0888E-03    -28.9742E-03    -29.1151E-03    -28.9726E-03     58.0568E-03    -29.0847E-03     3.29283E-03     59.8119E-03     211.590E+06    -20.4930E+06    -27.9178E+06    -235.689E+06    -27.9197E+06    -235.687E+06    -20.4930E+06     430.937E+03
             323     54.9044E-03     1.94348E-03     54.8700E-03     58.1504E-03    -29.0353E-03    -29.1130E-03    -29.0595E-03     58.1355E-03    -29.0739E-03     2.20634E-03     59.1068E-03     210.008E+06    -25.1688E+06    -29.9235E+06    -237.506E+06    -29.9248E+06    -237.505E+06    -25.1688E+06     162.210E+03
             324     54.8775E-03     971.402E-06     54.8689E-03     58.0763E-03    -28.9637E-03    -29.1094E-03    -29.0414E-03     58.0705E-03    -29.0259E-03     1.39437E-03     58.7901E-03     207.020E+06    -28.4573E+06    -32.6467E+06    -237.532E+06    -31.9264E+06    -237.501E+06    -29.2085E+06     596.913E+03
             325     57.0494E-03     16.5274E-03     54.6029E-03     219.105E-03    -29.0732E-03    -190.082E-03    -51.5345E-03     80.5579E-03    -29.0732E-03     387.262E-03     610.700E-03     178.043E+06     179.422E+06     150.691E+06    -10.7450E+06    -10.7112E+06     179.388E+06     150.691E+06     47.7904E+03
             326     56.3119E-03     15.5557E-03     54.1207E-03     169.776E-03    -28.8286E-03    -140.960E-03    -44.3001E-03     73.1158E-03    -28.8286E-03     285.542E-03     399.678E-03     145.892E+06     146.480E+06     84.3403E+06    -17.3125E+06    -17.2611E+06     146.428E+06     84.3403E+06    -471.136E+03
             327     55.9137E-03     14.5812E-03     53.9790E-03     77.8217E-03    -28.5109E-03    -49.3767E-03    -28.9900E-03     57.4351E-03    -28.5109E-03     86.7940E-03     181.098E-03     119.459E+06     104.993E+06     10.6641E+06    -26.8471E+06    -20.1616E+06     104.884E+06     4.08742E+06    -296.421E+03
             328     55.6288E-03     13.6093E-03     53.9384E-03     58.9568E-03    -28.3330E-03    -30.6790E-03    -27.6874E-03     55.9653E-03    -28.3330E-03     31.7456E-03     127.839E-03     98.1578E+06     62.1204E+06    -21.8034E+06    -44.6290E+06    -21.6955E+06     62.0125E+06    -44.6290E+06    -10.9437E+03
             329     55.3726E-03     12.6357E-03     53.9117E-03     57.6975E-03    -28.3982E-03    -29.3646E-03    -27.9177E-03     56.2506E-03    -28.3982E-03     21.8460E-03     105.620E-03     53.1247E+06     10.3363E+06    -23.6383E+06    -49.6835E+06    -20.6261E+06     7.32412E+06    -49.6835E+06    -411.481E+03
             330     55.1407E-03     11.6633E-03     53.8931E-03     57.3641E-03    -28.5553E-03    -28.8479E-03    -28.1716E-03     56.6878E-03    -28.5553E-03     14.9817E-03     94.0403E-03     38.4455E+06    -18.1570E+06    -26.4260E+06    -60.0317E+06    -18.3647E+06    -50.0278E+06    -36.2223E+06    -123.964E+03
             331     54.9304E-03     10.6907E-03     53.8800E-03     57.4596E-03    -28.6700E-03    -28.7781E-03    -28.3013E-03     56.9929E-03    -28.6800E-03     12.6488E-03     86.3956E-03     71.2814E+06    -16.9762E+06    -23.1913E+06    -90.9848E+06    -17.0083E+06    -90.9527E+06    -23.1913E+06    -42.3492E+03
             332     54.7364E-03     9.71844E-03     53.8667E-03     57.6169E-03    -28.7464E-03    -28.8441E-03    -28.4313E-03     57.2250E-03    -28.7673E-03     11.5211E-03     80.2340E-03     102.430E+06    -14.1452E+06    -17.9966E+06    -118.440E+06    -16.8943E+06    -118.431E+06    -15.2568E+06    -214.921E+03
             333     54.5610E-03     8.74663E-03     53.8554E-03     57.6949E-03    -28.8138E-03    -28.8566E-03    -28.5780E-03     57.4399E-03    -28.8374E-03     9.34586E-03     74.9267E-03     128.100E+06    -11.1532E+06    -17.9152E+06    -142.498E+06    -17.9239E+06    -142.490E+06    -11.1532E+06     192.847E+03
             334     54.4048E-03     7.77436E-03     53.8465E-03     57.7054E-03    -28.7862E-03    -28.8943E-03    -28.5883E-03     57.5057E-03    -28.8925E-03     8.29721E-03     70.7178E-03     148.211E+06    -9.92710E+06    -18.4130E+06    -162.197E+06    -18.4381E+06    -162.172E+06    -9.92710E+06     491.782E+03
             335     54.2655E-03     6.80225E-03     53.8375E-03     57.8176E-03    -28.8434E-03    -28.9662E-03    -28.6891E-03     57.6632E-03    -28.9662E-03     7.26566E-03     67.4416E-03     167.990E+06    -6.86938E+06    -18.2702E+06    -180.261E+06    -18.2888E+06    -180.243E+06    -6.86938E+06     287.027E+03
             336     54.1457E-03     5.83054E-03     53.8309E-03     57.9864E-03    -28.9549E-03    -29.0315E-03    -28.8515E-03     57.8763E-03    -29.0248E-03     6.17169E-03     64.8345E-03     186.528E+06    -6.05099E+06    -19.4726E+06    -198.924E+06    -19.4757E+06    -198.921E+06    -6.05099E+06     561.872E+03
             337     54.0431E-03     4.85878E-03     53.8243E-03     57.9530E-03    -28.9186E-03    -29.0376E-03    -28.8426E-03     57.8703E-03    -29.0309E-03     5.33234E-03     62.5916E-03     196.539E+06    -11.5212E+06    -22.1000E+06    -213.122E+06    -22.1079E+06    -213.114E+06    -11.5212E+06     659.654E+03
             338     53.9592E-03     3.88664E-03     53.8190E-03     58.0427E-03    -28.9590E-03    -29.0864E-03    -28.9604E-03     57.9883E-03    -29.0306E-03     4.31457E-03     61.0295E-03     205.454E+06    -17.5349E+06    -25.6400E+06    -226.915E+06    -25.6455E+06    -226.909E+06    -17.5349E+06     110.974E+03
             339     53.8937E-03     2.91548E-03     53.8148E-03     58.0827E-03    -28.9872E-03    -29.0982E-03    -29.0337E-03     58.0515E-03    -29.0205E-03     3.25800E-03     59.8045E-03     211.011E+06    -21.0203E+06    -28.0841E+06    -235.467E+06    -28.0861E+06    -235.465E+06    -21.0203E+06    -50.1743E+03
             340     53.8471E-03     1.94324E-03     53.8120E-03     57.9868E-03    -28.9299E-03    -29.0550E-03    -28.9743E-03     57.9703E-03    -28.9941E-03     2.35110E-03     58.9308E-03     210.312E+06    -24.6886E+06    -28.9192E+06    -237.077E+06    -28.9212E+06    -237.075E+06    -24.6886E+06    -104.288E+03
             341     53.8180E-03     972.206E-06     53.8092E-03     57.9320E-03    -28.8444E-03    -29.0843E-03    -29.0469E-03     57.9254E-03    -28.8753E-03     1.28203E-03     58.6251E-03     208.730E+06    -28.3887E+06    -30.3815E+06    -238.105E+06    -29.6356E+06    -238.100E+06    -29.1399E+06    -742.918E+03
             342     56.0304E-03     16.5280E-03     53.5372E-03     219.102E-03    -29.1569E-03    -190.005E-03    -51.3674E-03     80.4638E-03    -29.1569E-03     387.277E-03     611.792E-03     177.517E+06     180.375E+06     150.941E+06    -9.35441E+06    -9.33608E+06     180.357E+06     150.941E+06    -127.808E+03
             343     55.2996E-03     15.5554E-03     53.0667E-03     169.020E-03    -28.8694E-03    -140.185E-03    -44.7218E-03     73.5576E-03    -28.8694E-03     283.838E-03     399.772E-03     145.559E+06     145.931E+06     81.9776E+06    -17.8853E+06    -17.8235E+06     145.869E+06     81.9776E+06    -462.987E+03
             344     54.8906E-03     14.5813E-03     52.9185E-03     78.5580E-03    -28.5314E-03    -50.0870E-03    -29.1075E-03     57.5785E-03    -28.5314E-03     88.0401E-03     181.508E-03     118.786E+06     103.432E+06     7.43363E+06    -26.4551E+06    -22.6346E+06     103.320E+06     3.72545E+06     494.007E+03
             345     54.6042E-03     13.6081E-03     52.8813E-03     59.1663E-03    -28.3568E-03    -30.8623E-03    -27.8965E-03     56.2005E-03    -28.3568E-03     31.7976E-03     127.972E-03     98.7221E+06     63.4701E+06    -22.2604E+06    -42.8392E+06    -22.1640E+06     63.3737E+06    -42.8392E+06     370.877E+03
             346     54.3423E-03     12.6355E-03     52.8529E-03     57.8311E-03    -28.4023E-03    -29.4948E-03    -28.0099E-03     56.3462E-03    -28.4023E-03     22.0967E-03     105.621E-03     54.5525E+06     11.5824E+06    -23.7912E+06    -50.3272E+06    -19.7594E+06     7.55058E+06    -50.3272E+06    -378.572E+03
             347     54.1068E-03     11.6632E-03     52.8348E-03     57.4371E-03    -28.5595E-03    -28.9211E-03    -28.2508E-03     56.7669E-03    -28.5595E-03     14.9547E-03     94.1158E-03     39.1851E+06    -17.7542E+06    -27.0856E+06    -60.6889E+06    -17.9137E+06    -50.8642E+06    -36.7509E+06    -354.837E+03
             348     53.8928E-03     10.6908E-03     52.8218E-03     57.5638E-03    -28.6785E-03    -28.8850E-03    -28.4182E-03     57.0970E-03    -28.6785E-03     12.6690E-03     86.4934E-03     71.0692E+06    -17.2707E+06    -23.3328E+06    -90.9829E+06    -17.2901E+06    -90.9635E+06    -23.3328E+06     38.0525E+03
             349     53.6948E-03     9.71879E-03     52.8079E-03     57.6986E-03    -28.7508E-03    -28.9310E-03    -28.5410E-03     57.3086E-03    -28.7508E-03     11.5220E-03     80.3428E-03     102.208E+06    -14.8066E+06    -18.4562E+06    -118.780E+06    -17.5963E+06    -118.770E+06    -15.6768E+06     332.006E+03
             350     53.5168E-03     8.74648E-03     52.7972E-03     57.6743E-03    -28.7987E-03    -28.8541E-03    -28.5823E-03     57.4176E-03    -28.8137E-03     9.37383E-03     74.9158E-03     128.439E+06    -11.1248E+06    -18.0193E+06    -142.870E+06    -18.0373E+06    -142.852E+06    -11.1248E+06     278.716E+03
             351     53.3573E-03     7.77474E-03     52.7878E-03     57.6888E-03    -28.8004E-03    -28.8674E-03    -28.6172E-03     57.4959E-03    -28.8577E-03     8.15053E-03     70.7172E-03     147.094E+06    -10.5888E+06    -18.6287E+06    -161.537E+06    -18.6457E+06    -161.520E+06    -10.5888E+06    -402.373E+03
             352     53.2162E-03     6.80265E-03     52.7797E-03     57.7421E-03    -28.8053E-03    -28.9332E-03    -28.6618E-03     57.5890E-03    -28.9236E-03     7.25596E-03     67.3521E-03     166.788E+06    -8.76637E+06    -19.3693E+06    -180.594E+06    -19.3779E+06    -180.586E+06    -8.76637E+06    -618.303E+03
             353     53.0928E-03     5.83057E-03     52.7717E-03     57.8939E-03    -28.9001E-03    -28.9936E-03    -28.7962E-03     57.7834E-03    -28.9869E-03     6.16115E-03     64.7382E-03     186.340E+06    -7.35443E+06    -20.7024E+06    -200.008E+06    -20.7071E+06    -200.003E+06    -7.35443E+06     293.424E+03
             354     52.9895E-03     4.85889E-03     52.7663E-03     57.9643E-03    -28.9343E-03    -29.0321E-03    -28.9003E-03     57.8847E-03    -28.9865E-03     5.25105E-03     62.6091E-03     195.519E+06    -11.7873E+06    -23.1673E+06    -212.738E+06    -23.1774E+06    -212.727E+06    -11.7873E+06     1.31729E+06
             355     52.9033E-03     3.88718E-03     52.7603E-03     57.9212E-03    -28.8871E-03    -29.0374E-03    -28.8965E-03     57.8660E-03    -28.9728E-03     4.33465E-03     60.8916E-03     204.095E+06    -18.2264E+06    -25.3738E+06    -225.789E+06    -25.3820E+06    -225.781E+06    -18.2264E+06     817.447E+03
             356     52.8368E-03     2.91505E-03     52.7563E-03     57.9673E-03    -28.9219E-03    -29.0472E-03    -28.9721E-03     57.9364E-03    -28.9661E-03     3.23874E-03     59.6838E-03     210.528E+06    -22.1816E+06    -27.1537E+06    -235.151E+06    -27.1573E+06    -235.147E+06    -22.1816E+06    -622.382E+03
             357     52.7892E-03     1.94396E-03     52.7534E-03     57.9228E-03    -28.9093E-03    -29.0116E-03    -28.9644E-03     57.9065E-03    -28.9402E-03     2.32087E-03     58.8709E-03     210.830E+06    -24.5191E+06    -28.8907E+06    -237.499E+06    -28.8944E+06    -237.495E+06    -24.5191E+06    -741.503E+03
             358     52.7602E-03     971.240E-06     52.7513E-03     57.7967E-03    -28.7584E-03    -29.0365E-03    -28.9994E-03     57.7906E-03    -28.7893E-03     1.23687E-03     58.4838E-03     208.707E+06    -28.7719E+06    -30.7919E+06    -238.477E+06    -30.7930E+06    -238.476E+06    -28.7719E+06    -117.288E+03
             359     55.0100E-03     16.5236E-03     52.4697E-03     219.905E-03    -29.1866E-03    -190.791E-03    -50.7537E-03     79.8680E-03    -29.1866E-03     389.359E-03     612.911E-03     177.755E+06     179.998E+06     150.167E+06    -10.0773E+06    -10.0754E+06     179.997E+06     150.167E+06    -56.3285E+03
             360     54.2850E-03     15.5538E-03     52.0090E-03     167.656E-03    -28.9174E-03    -138.766E-03    -44.4174E-03     73.3071E-03    -28.9174E-03     280.915E-03     399.413E-03     145.533E+06     145.401E+06     82.1232E+06    -18.6602E+06    -18.6266E+06     145.367E+06     82.1232E+06     643.457E+03
             361     53.8707E-03     14.5803E-03     51.8601E-03     78.9650E-03    -28.5664E-03    -50.4561E-03    -29.5522E-03     58.0611E-03    -28.5664E-03     88.1835E-03     181.870E-03     119.090E+06     103.503E+06     8.31619E+06    -26.7299E+06    -23.1943E+06     103.450E+06     4.83314E+06     182.950E+03
             362     53.5792E-03     13.6080E-03     51.8223E-03     59.1519E-03    -28.3665E-03    -30.8436E-03    -28.0094E-03     56.3176E-03    -28.3665E-03     31.0773E-03     128.302E-03     99.8559E+06     63.8371E+06    -23.1188E+06    -43.5901E+06    -23.0576E+06     63.7759E+06    -43.5901E+06    -486.843E+03
             363     53.3136E-03     12.6357E-03     51.7946E-03     57.8864E-03    -28.4103E-03    -29.5446E-03    -28.1074E-03     56.4493E-03    -28.4103E-03     21.8399E-03     105.835E-03     55.1551E+06     11.5600E+06    -24.7188E+06    -51.0212E+06    -20.7785E+06     7.61973E+06    -51.0212E+06    -248.561E+03
             364     53.0737E-03     11.6630E-03     51.7763E-03     57.5188E-03    -28.5620E-03    -29.0004E-03    -28.3250E-03     56.8434E-03    -28.5620E-03     14.9992E-03     94.3056E-03     38.5992E+06    -18.5864E+06    -28.0347E+06    -60.9576E+06    -18.8250E+06    -51.4047E+06    -37.3489E+06     44.4607E+03
             365     52.8556E-03     10.6909E-03     51.7631E-03     57.6639E-03    -28.6718E-03    -29.0001E-03    -28.5416E-03     57.2054E-03    -28.6718E-03     12.5720E-03     86.6722E-03     70.9426E+06    -18.0362E+06    -23.7507E+06    -91.4315E+06    -18.0494E+06    -91.4184E+06    -23.7507E+06     251.341E+03
             366     52.6543E-03     9.71884E-03     51.7495E-03     57.6794E-03    -28.7356E-03    -28.9389E-03    -28.5531E-03     57.2936E-03    -28.7356E-03     11.4661E-03     80.4314E-03     102.198E+06    -15.5584E+06    -18.0542E+06    -118.973E+06    -17.6717E+06    -118.961E+06    -15.9527E+06     324.031E+03
             367     52.4728E-03     8.74706E-03     51.7386E-03     57.6641E-03    -28.7858E-03    -28.8608E-03    -28.6018E-03     57.4075E-03    -28.7881E-03     9.37023E-03     74.9552E-03     127.910E+06    -11.7253E+06    -17.6042E+06    -142.467E+06    -17.6171E+06    -142.454E+06    -11.7253E+06    -112.402E+03
             368     52.3105E-03     7.77479E-03     51.7295E-03     57.7040E-03    -28.8240E-03    -28.8550E-03    -28.6573E-03     57.5086E-03    -28.8263E-03     8.20865E-03     70.7289E-03     146.572E+06    -10.6791E+06    -18.1788E+06    -160.855E+06    -18.1858E+06    -160.848E+06    -10.6791E+06    -539.272E+03
             369     52.1665E-03     6.80303E-03     51.7210E-03     57.7626E-03    -28.8275E-03    -28.9265E-03    -28.7181E-03     57.6071E-03    -28.8805E-03     7.30621E-03     67.3777E-03     166.812E+06    -9.66597E+06    -19.4699E+06    -181.158E+06    -19.4760E+06    -181.152E+06    -9.66597E+06    -250.262E+03
             370     52.0416E-03     5.83097E-03     51.7139E-03     57.8154E-03    -28.8540E-03    -28.9577E-03    -28.7712E-03     57.7050E-03    -28.9301E-03     6.15765E-03     64.6364E-03     185.872E+06    -9.75319E+06    -21.9871E+06    -201.440E+06    -21.9928E+06    -201.434E+06    -9.75319E+06     310.967E+03
             371     51.9349E-03     4.85900E-03     51.7071E-03     57.8551E-03    -28.8841E-03    -28.9705E-03    -28.8460E-03     57.7780E-03    -28.9315E-03     5.14573E-03     62.4975E-03     194.643E+06    -12.7694E+06    -23.9936E+06    -212.779E+06    -23.9991E+06    -212.773E+06    -12.7694E+06     725.512E+03
             372     51.8483E-03     3.88740E-03     51.7024E-03     57.8267E-03    -28.8534E-03    -28.9755E-03    -28.8532E-03     57.7731E-03    -28.9220E-03     4.29016E-03     60.8052E-03     203.448E+06    -16.9916E+06    -25.1679E+06    -224.392E+06    -25.1726E+06    -224.387E+06    -16.9916E+06     660.386E+03
             373     51.7800E-03     2.91557E-03     51.6979E-03     57.8403E-03    -28.8655E-03    -28.9759E-03    -28.8990E-03     57.8076E-03    -28.9097E-03     3.30571E-03     59.5747E-03     209.898E+06    -22.4209E+06    -26.8863E+06    -234.506E+06    -26.8895E+06    -234.503E+06    -22.4209E+06    -143.155E+03
             374     51.7313E-03     1.94335E-03     51.6948E-03     57.8535E-03    -28.8649E-03    -28.9873E-03    -28.9738E-03     57.8400E-03    -28.8649E-03     2.06511E-03     58.8080E-03     211.000E+06    -25.6356E+06    -29.2065E+06    -238.395E+06    -29.2122E+06    -238.389E+06    -25.6356E+06    -903.990E+03
             375     51.7024E-03     972.550E-06     51.6933E-03     57.6124E-03    -28.7036E-03    -28.9068E-03    -28.8759E-03     57.6081E-03    -28.7303E-03     1.19191E-03     58.2414E-03     208.935E+06    -28.9824E+06    -31.8419E+06    -239.328E+06    -31.3183E+06    -239.321E+06    -29.5128E+06     47.5006E+03
             376     54.0042E-03     16.5285E-03     51.4127E-03     219.900E-03    -29.1402E-03    -190.774E-03    -50.4845E-03     79.6108E-03    -29.1402E-03     389.512E-03     612.261E-03     177.704E+06     179.024E+06     150.147E+06    -10.7364E+06    -10.7334E+06     179.021E+06     150.147E+06     439.835E+03
             377     53.2698E-03     15.5530E-03     50.9488E-03     166.824E-03    -28.9032E-03    -137.923E-03    -43.6187E-03     72.5203E-03    -28.9032E-03     279.381E-03     399.269E-03     145.860E+06     145.703E+06     83.7750E+06    -18.4809E+06    -18.4715E+06     145.694E+06     83.7750E+06    -135.322E+03
             378     52.8531E-03     14.5813E-03     50.8019E-03     78.3918E-03    -28.5649E-03    -49.8817E-03    -29.6369E-03     58.1471E-03    -28.5649E-03     86.9630E-03     181.693E-03     119.464E+06     104.960E+06     10.5523E+06    -26.0865E+06    -21.8448E+06     104.940E+06     6.33055E+06    -264.074E+03
             379     52.5553E-03     13.6082E-03     50.7630E-03     58.9683E-03    -28.3655E-03    -30.6618E-03    -27.8073E-03     56.1138E-03    -28.3655E-03     31.0330E-03     128.386E-03     98.6093E+06     63.3508E+06    -22.2295E+06    -42.9983E+06    -22.1720E+06     63.2933E+06    -42.9983E+06    -184.576E+03
             380     52.2865E-03     12.6354E-03     50.7368E-03     57.9516E-03    -28.4136E-03    -29.6058E-03    -28.2022E-03     56.5480E-03    -28.4136E-03     21.6330E-03     106.154E-03     53.5636E+06     10.4114E+06    -24.3591E+06    -50.2432E+06    -21.0082E+06     7.06054E+06    -50.2432E+06    -14.0885E+03
             381     52.0412E-03     11.6631E-03     50.7174E-03     57.5667E-03    -28.5519E-03    -29.0584E-03    -28.3877E-03     56.8961E-03    -28.5519E-03     14.9439E-03     94.4280E-03     38.2720E+06    -19.3829E+06    -28.2021E+06    -61.2525E+06    -19.5769E+06    -51.7215E+06    -37.5393E+06     208.986E+03
             382     51.8194E-03     10.6913E-03     50.7045E-03     57.6093E-03    -28.6547E-03    -28.9647E-03    -28.5100E-03     57.1546E-03    -28.6547E-03     12.5122E-03     86.6736E-03     70.8946E+06    -17.8290E+06    -24.4170E+06    -91.5960E+06    -17.8490E+06    -91.5759E+06    -24.4170E+06    -48.8384E+03
             383     51.6145E-03     9.71913E-03     50.6912E-03     57.6842E-03    -28.7202E-03    -28.9655E-03    -28.5776E-03     57.2963E-03    -28.7202E-03     11.4979E-03     80.4853E-03     102.145E+06    -15.0718E+06    -18.1508E+06    -118.716E+06    -16.9070E+06    -118.702E+06    -16.3296E+06    -220.587E+03
             384     51.4294E-03     8.74683E-03     50.6801E-03     57.6559E-03    -28.7692E-03    -28.8732E-03    -28.6160E-03     57.3987E-03    -28.7692E-03     9.38085E-03     74.9700E-03     127.626E+06    -12.1182E+06    -16.8037E+06    -142.021E+06    -16.8112E+06    -142.013E+06    -12.1182E+06    -338.317E+03
             385     51.2642E-03     7.77511E-03     50.6711E-03     57.7216E-03    -28.8057E-03    -28.8881E-03    -28.6927E-03     57.5261E-03    -28.8057E-03     8.21126E-03     70.7894E-03     147.473E+06    -10.2259E+06    -17.6023E+06    -161.239E+06    -17.6116E+06    -161.229E+06    -10.2259E+06    -202.095E+03
             386     51.1173E-03     6.80293E-03     50.6626E-03     57.8071E-03    -28.8520E-03    -28.9452E-03    -28.7917E-03     57.6537E-03    -28.8520E-03     7.26046E-03     67.4713E-03     167.812E+06    -9.00526E+06    -19.8606E+06    -181.972E+06    -19.8675E+06    -181.965E+06    -9.00526E+06     402.070E+03
             387     50.9899E-03     5.83142E-03     50.6553E-03     57.7964E-03    -28.8684E-03    -28.9240E-03    -28.7946E-03     57.6846E-03    -28.8861E-03     6.20797E-03     64.6363E-03     186.172E+06    -9.42977E+06    -21.7514E+06    -201.455E+06    -21.7537E+06    -201.452E+06    -9.42977E+06     443.501E+03
             388     50.8816E-03     4.85956E-03     50.6490E-03     57.7263E-03    -28.8401E-03    -28.8848E-03    -28.7591E-03     57.6454E-03    -28.8848E-03     5.26320E-03     62.3747E-03     195.206E+06    -12.5404E+06    -23.2799E+06    -212.890E+06    -23.2803E+06    -212.889E+06    -12.5404E+06     222.950E+03
             389     50.7928E-03     3.88731E-03     50.6438E-03     57.7685E-03    -28.8470E-03    -28.9242E-03    -28.8439E-03     57.7153E-03    -28.8741E-03     4.25372E-03     60.7658E-03     203.310E+06    -16.8003E+06    -25.1919E+06    -224.172E+06    -25.1936E+06    -224.170E+06    -16.8003E+06     141.987E+03
             390     50.7235E-03     2.91557E-03     50.6397E-03     57.7418E-03    -28.8219E-03    -28.9236E-03    -28.8583E-03     57.7101E-03    -28.8555E-03     3.26553E-03     59.4714E-03     209.364E+06    -21.5921E+06    -27.2692E+06    -233.725E+06    -27.2720E+06    -233.722E+06    -21.5921E+06     271.312E+03
             391     50.6738E-03     1.94419E-03     50.6365E-03     57.6530E-03    -28.7466E-03    -28.9082E-03    -28.8044E-03     57.6379E-03    -28.8352E-03     2.20228E-03     58.6084E-03     210.680E+06    -26.6414E+06    -29.9710E+06    -238.955E+06    -29.9754E+06    -238.950E+06    -26.6414E+06    -41.9081E+03
             392     50.6445E-03     971.582E-06     50.6351E-03     57.6285E-03    -28.6705E-03    -28.9582E-03    -28.8715E-03     57.6235E-03    -28.7522E-03     1.20981E-03     58.2936E-03     209.165E+06    -29.5051E+06    -31.9037E+06    -239.854E+06    -31.3813E+06    -239.846E+06    -30.0355E+06    -196.817E+03
             393     53.0049E-03     16.5300E-03     50.3615E-03     220.309E-03    -29.0919E-03    -191.143E-03    -51.1243E-03     80.2900E-03    -29.0919E-03     389.892E-03     612.433E-03     177.573E+06     179.426E+06     152.768E+06    -9.38660E+06    -9.37832E+06     179.418E+06     152.768E+06     1.12815E+06
             394     52.2569E-03     15.5548E-03     49.8882E-03     167.635E-03    -28.8531E-03    -138.774E-03    -43.5680E-03     72.4295E-03    -28.8531E-03     281.306E-03     399.758E-03     145.437E+06     146.633E+06     85.4740E+06    -16.6312E+06    -16.6156E+06     146.617E+06     85.4740E+06     259.636E+03
             395     51.8374E-03     14.5819E-03     49.7442E-03     77.8525E-03    -28.5289E-03    -49.3839E-03    -29.1670E-03     57.6357E-03    -28.5289E-03     86.5510E-03     181.525E-03     118.997E+06     104.643E+06     10.1503E+06    -26.0646E+06    -21.2415E+06     104.614E+06     5.35556E+06    -132.083E+03
             396     51.5342E-03     13.6080E-03     49.7051E-03     58.9061E-03    -28.3518E-03    -30.6100E-03    -27.6974E-03     55.9935E-03    -28.3518E-03     31.2979E-03     128.380E-03     97.7041E+06     62.7633E+06    -22.0030E+06    -42.7801E+06    -21.9621E+06     62.7224E+06    -42.7801E+06     399.099E+03
             397     51.2591E-03     12.6357E-03     49.6774E-03     58.0020E-03    -28.4020E-03    -29.6633E-03    -28.2672E-03     56.6058E-03    -28.4020E-03     21.5402E-03     106.338E-03     52.7227E+06     10.5606E+06    -23.7536E+06    -49.0953E+06    -20.3684E+06     7.17540E+06    -49.0953E+06     246.866E+03
             398     51.0106E-03     11.6638E-03     49.6592E-03     57.5310E-03    -28.5318E-03    -29.0402E-03    -28.3915E-03     56.8823E-03    -28.5318E-03     14.7111E-03     94.4296E-03      38.946E+06    -17.9770E+06    -27.2408E+06    -60.6802E+06    -18.1263E+06    -51.1715E+06    -36.6001E+06    -200.657E+03
             399     50.7842E-03     10.6910E-03     49.6461E-03     57.4909E-03    -28.6354E-03    -28.8619E-03    -28.4009E-03     57.0299E-03    -28.6354E-03     12.5766E-03     86.5872E-03     71.8004E+06    -16.7475E+06    -24.3227E+06    -91.8408E+06    -16.7777E+06    -91.8107E+06    -24.3227E+06    -484.247E+03
             400     50.5750E-03     9.71909E-03     49.6323E-03     57.7000E-03    -28.7071E-03    -28.9905E-03    -28.6027E-03     57.3122E-03    -28.7071E-03     11.4557E-03     80.5411E-03     102.794E+06    -14.2483E+06    -18.2170E+06    -118.968E+06    -16.4319E+06    -118.953E+06    -16.0485E+06    -544.103E+03
             401     50.3870E-03     8.74732E-03     49.6220E-03     57.6688E-03    -28.7557E-03    -28.8995E-03    -28.6496E-03     57.4189E-03    -28.7557E-03     9.27029E-03     75.0168E-03     128.115E+06    -11.3222E+06    -16.6076E+06    -141.995E+06    -16.6207E+06    -141.982E+06    -11.3222E+06    -354.059E+03
             402     50.2179E-03     7.77507E-03     49.6124E-03     57.7369E-03    -28.7884E-03    -28.9190E-03    -28.7215E-03     57.5394E-03    -28.7884E-03     8.25116E-03     70.8328E-03     148.635E+06    -9.61654E+06    -18.0158E+06    -162.263E+06    -18.0251E+06    -162.254E+06    -9.61654E+06     328.034E+03
             403     50.0686E-03     6.80362E-03     49.6042E-03     57.7825E-03    -28.8293E-03    -28.9403E-03    -28.7862E-03     57.6300E-03    -28.8310E-03     7.24298E-03     67.4503E-03     168.728E+06    -7.67665E+06    -19.6490E+06    -182.071E+06    -19.6533E+06    -182.066E+06    -7.67665E+06     692.188E+03
             404     49.9385E-03     5.83137E-03     49.5969E-03     57.7135E-03    -28.8368E-03    -28.8708E-03    -28.7346E-03     57.6010E-03    -28.8605E-03     6.21989E-03     64.5585E-03     185.886E+06    -9.01297E+06    -21.4074E+06    -200.782E+06    -21.4088E+06    -200.780E+06    -9.01297E+06     236.766E+03
             405     49.8285E-03     4.85938E-03     49.5910E-03     57.7211E-03    -28.8260E-03    -28.8936E-03    -28.7841E-03     57.6364E-03    -28.8508E-03     5.40249E-03     62.3657E-03     194.761E+06    -13.5649E+06    -23.6351E+06    -213.162E+06    -23.6359E+06    -213.161E+06    -13.5649E+06     55.2637E+03
             406     49.7376E-03     3.88781E-03     49.5854E-03     57.7191E-03    -28.8089E-03    -28.9127E-03    -28.8307E-03     57.6625E-03    -28.8343E-03     4.37046E-03     60.7167E-03     203.513E+06    -17.2250E+06    -25.3195E+06    -224.662E+06    -25.3222E+06    -224.659E+06    -17.2250E+06     196.424E+03
             407     49.6671E-03     2.91604E-03     49.5814E-03     57.6053E-03    -28.7421E-03    -28.8655E-03    -28.7461E-03     57.5737E-03    -28.8300E-03     3.26407E-03     59.3392E-03     209.410E+06    -21.3422E+06    -27.3802E+06    -233.698E+06    -27.3841E+06    -233.694E+06    -21.3422E+06     482.644E+03
             408     49.6168E-03     1.94336E-03     49.5787E-03     57.5723E-03    -28.7199E-03    -28.8535E-03    -28.7038E-03     57.5562E-03    -28.8535E-03     2.28505E-03     58.4928E-03     210.279E+06    -26.5770E+06    -29.4412E+06    -238.263E+06    -29.4431E+06    -238.261E+06    -26.5770E+06     350.361E+03
             409     49.5862E-03     971.868E-06     49.5766E-03     57.7350E-03    -28.7430E-03    -28.9923E-03    -28.9186E-03     57.7297E-03    -28.8115E-03     1.24631E-03     58.3876E-03     209.323E+06    -29.9001E+06    -31.3361E+06    -239.936E+06    -31.0424E+06    -239.934E+06    -30.1960E+06    -327.546E+03
             410     51.9965E-03     16.5274E-03     49.2999E-03     219.930E-03    -29.0914E-03    -190.777E-03    -51.2202E-03     80.3732E-03    -29.0914E-03     389.053E-03     612.018E-03     176.809E+06     178.756E+06     153.915E+06    -8.61369E+06    -8.60712E+06     178.750E+06     153.915E+06     335.986E+03
             411     51.2495E-03     15.5561E-03     48.8316E-03     167.998E-03    -28.8533E-03    -139.147E-03    -43.7314E-03     72.5817E-03    -28.8533E-03     282.205E-03     399.795E-03     144.916E+06     146.274E+06     86.8538E+06    -16.1055E+06    -16.0573E+06     146.226E+06     86.8538E+06     821.907E+03
             412     50.8222E-03     14.5811E-03     48.6856E-03     78.2566E-03    -28.5255E-03    -49.7953E-03    -29.1605E-03     57.6218E-03    -28.5255E-03     87.2536E-03     181.920E-03     118.338E+06     104.765E+06     11.4197E+06    -25.3468E+06    -20.3173E+06     104.711E+06     6.44458E+06     1.05665E+06
             413     50.5147E-03     13.6090E-03     48.6470E-03     59.0644E-03    -28.3321E-03    -30.7813E-03    -27.8717E-03     56.1548E-03    -28.3321E-03     31.4497E-03     128.457E-03     97.5472E+06     62.8485E+06    -21.0974E+06    -42.7583E+06    -21.0716E+06     62.8228E+06    -42.7583E+06     600.050E+03
             414     50.2339E-03     12.6360E-03     48.6187E-03     57.8831E-03    -28.3805E-03    -29.5614E-03    -28.1109E-03     56.4326E-03    -28.3805E-03     21.8755E-03     106.227E-03     53.2817E+06     11.6331E+06    -23.1231E+06    -48.9232E+06    -19.0118E+06     7.52179E+06    -48.9232E+06    -31.0159E+03
             415     49.9804E-03     11.6635E-03     48.6005E-03     57.5272E-03    -28.5191E-03    -29.0451E-03    -28.3986E-03     56.8806E-03    -28.5191E-03     14.6623E-03     94.4436E-03     39.3003E+06    -16.7916E+06    -26.6067E+06    -59.9719E+06    -16.9589E+06    -50.6904E+06    -35.7210E+06    -352.821E+03
             416     49.7506E-03     10.6917E-03     48.5882E-03     57.5261E-03    -28.6207E-03    -28.9120E-03    -28.4512E-03     57.0653E-03    -28.6207E-03     12.5738E-03     86.6253E-03     72.2754E+06    -16.1877E+06    -23.6184E+06    -91.7098E+06    -16.2126E+06    -91.6849E+06    -23.6184E+06    -382.669E+03
             417     49.5363E-03     9.71922E-03     48.5735E-03     57.5786E-03    -28.6833E-03    -28.8909E-03    -28.4884E-03     57.1855E-03    -28.6928E-03     11.5118E-03     80.4001E-03     103.209E+06    -14.1197E+06    -18.1930E+06    -119.304E+06    -16.3465E+06    -119.292E+06    -15.9784E+06    -330.342E+03
             418     49.3451E-03     8.74726E-03     48.5636E-03     57.6683E-03    -28.7357E-03    -28.9141E-03    -28.6495E-03     57.4132E-03    -28.7452E-03     9.37031E-03     75.0129E-03     128.428E+06    -11.5295E+06    -17.4200E+06    -142.799E+06    -17.4303E+06    -142.789E+06    -11.5295E+06     30.4344E+03
             419     49.1728E-03     7.77547E-03     48.5542E-03     57.7275E-03    -28.7732E-03    -28.9239E-03    -28.7139E-03     57.5215E-03    -28.7772E-03     8.42808E-03     70.7805E-03     148.905E+06    -10.0673E+06    -18.2549E+06    -162.896E+06    -18.2576E+06    -162.893E+06    -10.0673E+06     381.536E+03
             420     49.0200E-03     6.80327E-03     48.5456E-03     57.7281E-03    -28.8160E-03    -28.8936E-03    -28.7308E-03     57.5708E-03    -28.8215E-03     7.34710E-03     67.3750E-03     168.806E+06    -7.81940E+06    -18.9677E+06    -181.919E+06    -18.9693E+06    -181.917E+06    -7.81940E+06     419.529E+03
             421     48.8881E-03     5.83158E-03     48.5390E-03     57.7639E-03    -28.8356E-03    -28.9174E-03    -28.7852E-03     57.6501E-03    -28.8540E-03     6.25757E-03     64.5868E-03     186.325E+06    -8.19291E+06    -20.9397E+06    -200.561E+06    -20.9448E+06    -200.556E+06    -8.19291E+06     568.256E+03
             422     48.7752E-03     4.85963E-03     48.5325E-03     57.6838E-03    -28.7553E-03    -28.9264E-03    -28.7571E-03     57.5989E-03    -28.8397E-03     5.40403E-03     62.2975E-03     194.886E+06    -13.2979E+06    -23.4831E+06    -213.067E+06    -23.4876E+06    -213.062E+06    -13.2979E+06     402.995E+03
             423     48.6827E-03     3.88767E-03     48.5272E-03     57.5930E-03    -28.7178E-03    -28.8768E-03    -28.7011E-03     57.5334E-03    -28.8340E-03     4.50504E-03     60.5699E-03     203.223E+06    -18.7921E+06    -25.9008E+06    -225.469E+06    -25.9037E+06    -225.466E+06    -18.7921E+06     154.751E+03
             424     48.6111E-03     2.91544E-03     48.5236E-03     57.6596E-03    -28.7678E-03    -28.8922E-03    -28.7777E-03     57.6251E-03    -28.8479E-03     3.39981E-03     59.3879E-03     209.226E+06    -22.2956E+06    -27.2331E+06    -233.938E+06    -27.2365E+06    -233.934E+06    -22.2956E+06     371.370E+03
             425     48.5594E-03     1.94408E-03     48.5205E-03     57.7062E-03    -28.7884E-03    -28.9170E-03    -28.8567E-03     57.6908E-03    -28.8333E-03     2.22994E-03     58.5743E-03     209.866E+06    -25.2906E+06    -28.6256E+06    -236.801E+06    -28.6293E+06    -236.797E+06    -25.2906E+06     560.560E+03
             426     48.5283E-03     971.781E-06     48.5185E-03     57.6016E-03    -28.7550E-03    -28.8457E-03    -28.8192E-03     57.5968E-03    -28.7766E-03     1.21746E-03     58.1149E-03     209.434E+06    -29.2498E+06    -31.1404E+06    -239.620E+06    -30.6842E+06    -239.617E+06    -29.7093E+06     407.902E+03
             427     50.9948E-03     16.5302E-03     48.2413E-03     219.178E-03    -29.0848E-03    -190.048E-03    -50.7060E-03     79.8359E-03    -29.0848E-03     387.832E-03     611.010E-03     176.513E+06     177.796E+06     152.313E+06    -9.43568E+06    -9.43103E+06     177.791E+06     152.313E+06    -790.918E+03
             428     50.2423E-03     15.5538E-03     47.7741E-03     168.418E-03    -28.8653E-03    -139.588E-03    -43.6466E-03     72.4770E-03    -28.8653E-03     282.953E-03     399.573E-03     145.054E+06     145.059E+06     85.6913E+06    -17.8423E+06    -17.7862E+06     145.003E+06     85.6913E+06     25.4451E+03
             429     49.8087E-03     14.5817E-03     47.6264E-03     78.6127E-03    -28.5516E-03    -50.1324E-03    -29.6366E-03     58.1170E-03    -28.5516E-03     87.3899E-03     181.997E-03     118.046E+06     104.660E+06     11.8910E+06    -24.5777E+06    -21.0274E+06     104.581E+06     8.41907E+06     1.00049E+06
             430     49.4961E-03     13.6086E-03     47.5885E-03     59.1029E-03    -28.3312E-03    -30.8196E-03    -27.9073E-03     56.1906E-03    -28.3312E-03     31.5192E-03     128.405E-03     98.0989E+06     63.8557E+06    -20.7667E+06    -41.8330E+06    -20.7299E+06     63.8189E+06    -41.8330E+06     865.716E+03
             431     49.2105E-03     12.6361E-03     47.5605E-03     57.8821E-03    -28.3612E-03    -29.5757E-03    -28.1029E-03     56.4093E-03    -28.3612E-03     22.0120E-03     106.009E-03     54.5399E+06     11.9292E+06    -23.1301E+06    -50.1206E+06    -19.0709E+06     7.86996E+06    -50.1206E+06     83.3184E+03
             432     48.9517E-03     11.6636E-03     47.5419E-03     57.4499E-03    -28.5081E-03    -28.9729E-03    -28.3234E-03     56.8003E-03    -28.5081E-03     14.7083E-03     94.2591E-03     39.5387E+06    -17.2266E+06    -26.8865E+06    -60.6064E+06    -17.4285E+06    -51.0086E+06    -36.2824E+06    -150.362E+03
             433     48.7168E-03     10.6915E-03     47.5292E-03     57.5631E-03    -28.6142E-03    -28.9496E-03    -28.4845E-03     57.0980E-03    -28.6142E-03     12.6426E-03     86.6144E-03     72.1489E+06    -16.3666E+06    -23.5867E+06    -91.6837E+06    -16.3876E+06    -91.6627E+06    -23.5867E+06    -138.532E+03
             434     48.4998E-03     9.71949E-03     47.5159E-03     57.5565E-03    -28.6766E-03    -28.8708E-03    -28.4599E-03     57.1551E-03    -28.6861E-03     11.6672E-03     80.2687E-03     103.502E+06    -14.3000E+06    -17.9130E+06    -119.559E+06    -16.1289E+06    -119.550E+06    -16.0928E+06     120.015E+03
             435     48.3033E-03     8.74702E-03     47.5047E-03     57.5883E-03    -28.7230E-03    -28.8482E-03    -28.5530E-03     57.3222E-03    -28.7520E-03     9.54564E-03     74.8714E-03     129.293E+06    -11.1539E+06    -16.6353E+06    -143.095E+06    -16.6389E+06    -143.091E+06    -11.1539E+06     266.512E+03
             436     48.1280E-03     7.77528E-03     47.4958E-03     57.7153E-03    -28.7704E-03    -28.9255E-03    -28.6947E-03     57.5081E-03    -28.7939E-03     8.45543E-03     70.7544E-03     149.625E+06    -9.39173E+06    -17.4725E+06    -162.893E+06    -17.4740E+06    -162.891E+06    -9.39173E+06     129.490E+03
             437     47.9724E-03     6.80335E-03     47.4875E-03     57.7554E-03    -28.8285E-03    -28.9161E-03    -28.7525E-03     57.5957E-03    -28.8324E-03     7.40239E-03     67.3545E-03     168.902E+06    -8.40374E+06    -19.1089E+06    -182.400E+06    -19.1117E+06    -182.397E+06    -8.40374E+06     353.893E+03
             438     47.8370E-03     5.83129E-03     47.4803E-03     57.7815E-03    -28.8332E-03    -28.9420E-03    -28.7925E-03     57.6653E-03    -28.8666E-03     6.32946E-03     64.5675E-03     186.450E+06    -8.23427E+06    -21.0814E+06    -200.775E+06    -21.0887E+06    -200.767E+06    -8.23427E+06     977.738E+03
             439     47.7225E-03     4.85975E-03     47.4744E-03     57.6687E-03    -28.7611E-03    -28.9089E-03    -28.7213E-03     57.5820E-03    -28.8621E-03     5.45263E-03     62.2730E-03     194.944E+06    -12.5500E+06    -23.1117E+06    -212.546E+06    -23.1197E+06    -212.538E+06    -12.5500E+06     1.13011E+06
             440     47.6284E-03     3.88734E-03     47.4695E-03     57.6308E-03    -28.7651E-03    -28.8678E-03    -28.7090E-03     57.5716E-03    -28.8648E-03     4.49114E-03     60.5782E-03     202.975E+06    -18.6883E+06    -25.1058E+06    -224.789E+06    -25.1099E+06    -224.785E+06    -18.6883E+06     278.671E+03
             441     47.5544E-03     2.91562E-03     47.4650E-03     57.7566E-03    -28.8382E-03    -28.9179E-03    -28.8483E-03     57.7223E-03    -28.8735E-03     3.39056E-03     59.4377E-03     209.383E+06    -23.0152E+06    -27.5454E+06    -234.624E+06    -27.5471E+06    -234.622E+06    -23.0152E+06    -88.6885E+03
             442     47.5020E-03     1.94359E-03     47.4623E-03     57.7758E-03    -28.8324E-03    -28.9419E-03    -28.9228E-03     57.7600E-03    -28.8356E-03     2.28786E-03     58.6351E-03     210.103E+06    -25.2096E+06    -29.2055E+06    -237.281E+06    -29.2094E+06    -237.277E+06    -25.2096E+06     651.353E+03
             443     47.4705E-03     972.317E-06     47.4605E-03     57.5691E-03    -28.6665E-03    -28.9006E-03    -28.8873E-03     57.5640E-03    -28.6747E-03     1.17239E-03     58.1371E-03     208.982E+06    -28.0080E+06    -30.1671E+06    -238.057E+06    -30.0093E+06    -238.051E+06    -28.1716E+06     1.00810E+06
             444     50.0012E-03     16.5292E-03     47.1901E-03     219.853E-03    -29.1384E-03    -190.628E-03    -50.7813E-03     80.0062E-03    -29.1384E-03     389.061E-03     612.341E-03     177.347E+06     177.995E+06     152.151E+06    -10.2619E+06    -10.2514E+06     177.985E+06     152.151E+06    -1.04631E+06
             445     49.2343E-03     15.5539E-03     46.7129E-03     169.402E-03    -28.8978E-03    -140.530E-03    -44.8651E-03     73.7371E-03    -28.8978E-03     283.940E-03     399.441E-03     145.160E+06     144.251E+06     85.2218E+06    -18.7032E+06    -18.6517E+06     144.200E+06     85.2218E+06    -554.670E+03
             446     48.7979E-03     14.5816E-03     46.5684E-03     78.2091E-03    -28.5586E-03    -49.7217E-03    -29.7066E-03     58.1940E-03    -28.5586E-03     86.4673E-03     181.280E-03     118.129E+06     103.372E+06     9.98688E+06    -25.4349E+06    -23.0387E+06     103.282E+06     7.68129E+06     57.5696E+03
             447     48.4792E-03     13.6087E-03     46.5300E-03     59.0852E-03    -28.3372E-03    -30.8000E-03    -27.8547E-03     56.1398E-03    -28.3372E-03     31.6547E-03     128.297E-03     99.3821E+06     64.2889E+06    -22.7608E+06    -42.1441E+06    -22.6936E+06     64.2217E+06    -42.1441E+06     266.860E+03
             448     48.1880E-03     12.6362E-03     46.5017E-03     57.9281E-03    -28.3588E-03    -29.6268E-03    -28.1527E-03     56.4540E-03    -28.3588E-03     22.0486E-03     105.902E-03     55.4923E+06     12.6383E+06    -24.1949E+06    -50.3468E+06    -19.9652E+06     8.40870E+06    -50.3468E+06     308.127E+03
             449     47.9250E-03     11.6639E-03     46.4839E-03     57.3921E-03    -28.5069E-03    -28.9199E-03    -28.2529E-03     56.7251E-03    -28.5069E-03     14.9258E-03     94.0778E-03     38.9025E+06    -17.5981E+06    -27.9212E+06    -60.5345E+06    -17.7721E+06    -51.2863E+06    -36.9954E+06     38.4917E+03
             450     47.6846E-03     10.6913E-03     46.4706E-03     57.5109E-03    -28.6195E-03    -28.8792E-03    -28.4088E-03     57.0404E-03    -28.6195E-03     12.7139E-03     86.4595E-03     71.9409E+06    -16.7896E+06    -24.2923E+06    -91.9640E+06    -16.8156E+06    -91.9381E+06    -24.2923E+06    -24.3563E+03
             451     47.4631E-03     9.71921E-03     46.4574E-03     57.6413E-03    -28.6898E-03    -28.9248E-03    -28.5265E-03     57.2429E-03    -28.6898E-03     11.6524E-03     80.2642E-03     103.106E+06    -15.3588E+06    -18.1477E+06    -119.829E+06    -16.6141E+06    -119.820E+06    -16.9014E+06     144.641E+03
             452     47.2631E-03     8.74735E-03     46.4466E-03     57.5787E-03    -28.7365E-03    -28.8266E-03    -28.5307E-03     57.3059E-03    -28.7597E-03     9.66410E-03     74.7424E-03     128.461E+06    -12.1321E+06    -16.6924E+06    -142.803E+06    -16.6963E+06    -142.800E+06    -12.1321E+06     325.287E+03
             453     47.0836E-03     7.77489E-03     46.4372E-03     57.6706E-03    -28.7897E-03    -28.8690E-03    -28.6393E-03     57.4641E-03    -28.8128E-03     8.42634E-03     70.6682E-03     149.634E+06    -9.74463E+06    -17.8455E+06    -163.261E+06    -17.8498E+06    -163.257E+06    -9.74463E+06     431.936E+03
             454     46.9248E-03     6.80317E-03     46.4290E-03     57.7498E-03    -28.8259E-03    -28.9233E-03    -28.7348E-03     57.5905E-03    -28.8551E-03     7.40423E-03     67.3108E-03     168.956E+06    -8.98658E+06    -19.6020E+06    -182.999E+06    -19.6088E+06    -182.993E+06    -8.98658E+06     823.218E+03
             455     46.7870E-03     5.83144E-03     46.4221E-03     57.7309E-03    -28.8250E-03    -28.9078E-03    -28.7179E-03     57.6117E-03    -28.8958E-03     6.40093E-03     64.5086E-03     185.668E+06    -9.55434E+06    -21.7467E+06    -201.018E+06    -21.7529E+06    -201.012E+06    -9.55434E+06     1.03352E+06
             456     46.6699E-03     4.85896E-03     46.4162E-03     57.7887E-03    -28.8596E-03    -28.9315E-03    -28.8045E-03     57.7032E-03    -28.9012E-03     5.41261E-03     62.4106E-03     194.049E+06    -12.3303E+06    -23.6271E+06    -211.774E+06    -23.6328E+06    -211.768E+06    -12.3303E+06     745.769E+03
             457     46.5736E-03     3.88761E-03     46.4111E-03     57.8147E-03    -28.8841E-03    -28.9314E-03    -28.8679E-03     57.7573E-03    -28.8903E-03     4.43568E-03     60.7396E-03     202.518E+06    -16.9694E+06    -25.6084E+06    -223.660E+06    -25.6170E+06    -223.652E+06    -16.9694E+06     780.016E+03
             458     46.4985E-03     2.91557E-03     46.4070E-03     57.7326E-03    -28.8429E-03    -28.8887E-03    -28.8194E-03     57.6983E-03    -28.8779E-03     3.39784E-03     59.3982E-03     209.554E+06    -22.7901E+06    -28.1848E+06    -234.980E+06    -28.1905E+06    -234.974E+06    -22.7901E+06     552.435E+03
             459     46.4446E-03     1.94384E-03     46.4039E-03     57.7175E-03    -28.8181E-03    -28.8949E-03    -28.8247E-03     57.7015E-03    -28.8723E-03     2.28723E-03     58.5989E-03     209.989E+06    -26.8403E+06    -29.8147E+06    -238.299E+06    -29.8161E+06    -238.297E+06    -26.8403E+06    -13.8279E+03
             460     46.4124E-03     971.561E-06     46.4023E-03     57.7240E-03    -28.7140E-03    -29.0051E-03    -28.9748E-03     57.7192E-03    -28.7394E-03     1.13164E-03     58.3604E-03     207.812E+06    -28.5695E+06    -30.2811E+06    -237.229E+06    -30.2906E+06    -237.220E+06    -28.5695E+06    -255.242E+03
             461     48.9941E-03     16.5217E-03     46.1243E-03     220.106E-03    -29.2056E-03    -190.830E-03    -50.8076E-03     80.0834E-03    -29.2056E-03     389.512E-03     613.335E-03     177.628E+06     178.294E+06     152.893E+06    -10.1565E+06    -10.1479E+06     178.285E+06     152.893E+06    -522.713E+03
             462     48.2301E-03     15.5547E-03     45.6530E-03     168.758E-03    -28.9335E-03    -139.814E-03    -45.5928E-03     74.5367E-03    -28.9335E-03     281.914E-03     399.126E-03     145.034E+06     143.850E+06     86.1015E+06    -18.7577E+06    -18.6922E+06     143.784E+06     86.1015E+06    -518.343E+03
             463     47.7891E-03     14.5815E-03     45.5102E-03     77.7623E-03    -28.5581E-03    -49.2628E-03    -29.5736E-03     58.0730E-03    -28.5581E-03     85.7400E-03     180.443E-03     117.991E+06     103.427E+06     10.7008E+06    -25.3401E+06    -22.7698E+06     103.342E+06     8.21520E+06    -653.825E+03
             464     47.4640E-03     13.6086E-03     45.4713E-03     59.1132E-03    -28.3450E-03    -30.8223E-03    -27.8165E-03     56.1075E-03    -28.3450E-03     31.9148E-03     128.207E-03     98.7196E+06     63.9905E+06    -22.2875E+06    -41.8144E+06    -22.2177E+06     63.9207E+06    -41.8144E+06    -577.336E+03
             465     47.1674E-03     12.6359E-03     45.4434E-03     57.8488E-03    -28.3720E-03    -29.5382E-03    -28.0730E-03     56.3837E-03    -28.3720E-03     21.9905E-03     105.720E-03     54.7708E+06     12.0263E+06    -24.1023E+06    -50.1636E+06    -20.0007E+06     7.92468E+06    -50.1636E+06     62.3861E+03
             466     46.8987E-03     11.6633E-03     45.4253E-03     57.4245E-03    -28.5253E-03    -28.9410E-03    -28.2624E-03     56.7460E-03    -28.5253E-03     15.0619E-03     94.0260E-03     38.8173E+06    -17.6412E+06    -27.6140E+06    -60.3768E+06    -17.8906E+06    -51.1074E+06    -36.6340E+06     283.304E+03
             467     46.6540E-03     10.6914E-03     45.4124E-03     57.5813E-03    -28.6381E-03    -28.9318E-03    -28.4578E-03     57.1073E-03    -28.6381E-03     12.7717E-03     86.4187E-03     71.9225E+06    -16.9658E+06    -23.9495E+06    -91.9137E+06    -16.9862E+06    -91.8933E+06    -23.9495E+06     82.9104E+03
             468     46.4274E-03     9.71906E-03     45.3987E-03     57.6446E-03    -28.7040E-03    -28.9104E-03    -28.5209E-03     57.2551E-03    -28.7040E-03     11.5099E-03     80.2235E-03     103.583E+06    -15.2567E+06    -17.6467E+06    -120.012E+06    -16.3529E+06    -120.002E+06    -16.5615E+06    -48.7908E+03
             469     46.2234E-03     8.74688E-03     45.3883E-03     57.6332E-03    -28.7612E-03    -28.8523E-03    -28.5823E-03     57.3668E-03    -28.7647E-03     9.56233E-03     74.7640E-03     128.693E+06    -12.6771E+06    -16.3928E+06    -143.183E+06    -16.4036E+06    -143.172E+06    -12.6771E+06     397.015E+03
             470     46.0401E-03     7.77518E-03     45.3788E-03     57.6481E-03    -28.7691E-03    -28.8566E-03    -28.5915E-03     57.4418E-03    -28.8279E-03     8.41982E-03     70.5890E-03     150.928E+06    -9.28976E+06    -17.4879E+06    -164.134E+06    -17.4993E+06    -164.123E+06    -9.28976E+06     1.07345E+06
             471     45.8778E-03     6.80295E-03     45.3706E-03     57.6832E-03    -28.7859E-03    -28.8959E-03    -28.6346E-03     57.5278E-03    -28.8919E-03     7.29445E-03     67.2522E-03     170.424E+06    -7.14502E+06    -19.1742E+06    -183.261E+06    -19.1880E+06    -183.247E+06    -7.14502E+06     1.43521E+06
             472     45.7371E-03     5.83066E-03     45.3640E-03     57.8133E-03    -28.8707E-03    -28.9441E-03    -28.7709E-03     57.6990E-03    -28.9296E-03     6.27073E-03     64.6029E-03     185.688E+06    -8.29089E+06    -21.3091E+06    -200.143E+06    -21.3198E+06    -200.133E+06    -8.29089E+06     839.824E+03
             473     45.6173E-03     4.85938E-03     45.3577E-03     57.8864E-03    -28.9175E-03    -28.9678E-03    -28.8764E-03     57.8035E-03    -28.9259E-03     5.33885E-03     62.5078E-03     194.542E+06    -11.4204E+06    -23.5910E+06    -211.760E+06    -23.5956E+06    -211.755E+06    -11.4204E+06     249.638E+03
             474     45.5190E-03     3.88726E-03     45.3527E-03     57.8512E-03    -28.9038E-03    -28.9481E-03    -28.8870E-03     57.7961E-03    -28.9099E-03     4.34453E-03     60.7829E-03     203.304E+06    -15.6362E+06    -25.6572E+06    -223.760E+06    -25.6651E+06    -223.753E+06    -15.6362E+06     558.291E+03
             475     45.4424E-03     2.91569E-03     45.3488E-03     57.7748E-03    -28.8648E-03    -28.9094E-03    -28.8441E-03     57.7409E-03    -28.8963E-03     3.39472E-03     59.4512E-03     210.124E+06    -20.8139E+06    -27.1089E+06    -234.003E+06    -27.1162E+06    -233.996E+06    -20.8139E+06     735.145E+03
             476     45.3874E-03     1.94350E-03     45.3458E-03     57.7360E-03    -28.8358E-03    -28.8986E-03    -28.8312E-03     57.7196E-03    -28.8868E-03     2.29930E-03     58.6040E-03     209.817E+06    -26.5774E+06    -29.2571E+06    -237.719E+06    -29.2593E+06    -237.717E+06    -26.5774E+06     151.137E+03
             477     45.3543E-03     971.981E-06     45.3439E-03     57.7445E-03    -28.7911E-03    -28.9523E-03    -28.9226E-03     57.7402E-03    -28.8165E-03     1.00404E-03     58.3428E-03     207.613E+06    -30.2286E+06    -31.6929E+06    -238.569E+06    -31.3407E+06    -238.562E+06    -30.5878E+06    -879.024E+03
             478     48.0035E-03     16.5296E-03     45.0678E-03     220.456E-03    -29.1409E-03    -191.266E-03    -51.0677E-03     80.2578E-03    -29.1409E-03     390.202E-03     612.708E-03     178.107E+06     178.328E+06     152.148E+06    -10.8715E+06    -10.8696E+06     178.326E+06     152.148E+06     19.4735E+03
             479     47.2261E-03     15.5533E-03     44.5914E-03     167.869E-03    -28.8913E-03    -138.957E-03    -44.4910E-03     73.4030E-03    -28.8913E-03     280.751E-03     399.101E-03     144.916E+06     143.973E+06     85.2872E+06    -18.6715E+06    -18.6359E+06     143.937E+06     85.2872E+06    -911.900E+03
             480     46.7832E-03     14.5817E-03     44.4527E-03     77.1916E-03    -28.5464E-03    -48.6989E-03    -29.4040E-03     57.8967E-03    -28.5464E-03     84.7537E-03     180.260E-03     117.728E+06     103.556E+06     11.0333E+06    -25.2571E+06    -21.8741E+06     103.489E+06     7.71705E+06    -1.57565E+06
             481     46.4505E-03     13.6084E-03     44.4124E-03     59.0965E-03    -28.3399E-03    -30.8109E-03    -27.7819E-03     56.0675E-03    -28.3399E-03     31.9466E-03     128.300E-03     98.4013E+06     62.8646E+06    -22.4355E+06    -43.0199E+06    -22.3651E+06     62.7942E+06    -43.0199E+06    -737.163E+03
             482     46.1488E-03     12.6360E-03     44.3852E-03     57.7720E-03    -28.3788E-03    -29.4539E-03    -28.0331E-03     56.3512E-03    -28.3788E-03     21.6658E-03     105.728E-03     54.2715E+06     10.9866E+06    -24.1725E+06    -50.6286E+06    -20.6431E+06     7.45718E+06    -50.6286E+06    -177.359E+03
             483     45.8745E-03     11.6633E-03     44.3670E-03     57.4035E-03    -28.5355E-03    -28.9041E-03    -28.2343E-03     56.7338E-03    -28.5355E-03     14.9568E-03     94.0266E-03     38.5474E+06    -18.4768E+06    -27.7484E+06    -60.7592E+06    -18.8171E+06    -51.2309E+06    -36.9364E+06     94.6278E+03
             484     45.6238E-03     10.6910E-03     44.3535E-03     57.5801E-03    -28.6545E-03    -28.9214E-03    -28.4513E-03     57.1100E-03    -28.6545E-03     12.7185E-03     86.4465E-03     71.7225E+06    -17.1629E+06    -23.7458E+06    -91.7491E+06    -17.1855E+06    -91.7265E+06    -23.7458E+06    -77.9948E+03
             485     45.3934E-03     9.71920E-03     44.3407E-03     57.6972E-03    -28.7259E-03    -28.9582E-03    -28.5689E-03     57.3078E-03    -28.7259E-03     11.5142E-03     80.3328E-03     103.972E+06    -14.3807E+06    -17.8834E+06    -120.048E+06    -16.7697E+06    -120.032E+06    -15.5107E+06    -104.359E+03
             486     45.1844E-03     8.74711E-03     44.3297E-03     57.6471E-03    -28.7554E-03    -28.8747E-03    -28.5946E-03     57.3859E-03    -28.7743E-03     9.46448E-03     74.8324E-03     129.404E+06    -12.0992E+06    -17.0253E+06    -143.886E+06    -17.0389E+06    -143.873E+06    -12.0992E+06     291.441E+03
             487     44.9974E-03     7.77489E-03     44.3206E-03     57.6521E-03    -28.7564E-03    -28.8650E-03    -28.5828E-03     57.4538E-03    -28.8403E-03     8.25335E-03     70.5963E-03     152.534E+06    -8.34950E+06    -17.2651E+06    -165.122E+06    -17.2842E+06    -165.103E+06    -8.34950E+06     1.16566E+06
             488     44.8316E-03     6.80277E-03     44.3125E-03     57.7313E-03    -28.8117E-03    -28.9120E-03    -28.6611E-03     57.5806E-03    -28.9120E-03     7.18583E-03     67.3026E-03     171.651E+06    -4.51402E+06    -18.2648E+06    -182.626E+06    -18.2839E+06    -182.607E+06    -4.51402E+06     1.50370E+06
             489     44.6874E-03     5.83123E-03     44.3053E-03     57.8501E-03    -28.8980E-03    -28.9516E-03    -28.8029E-03     57.7406E-03    -28.9372E-03     6.14129E-03     64.6398E-03     186.073E+06    -6.26453E+06    -20.0279E+06    -198.831E+06    -20.0364E+06    -198.822E+06    -6.26453E+06     533.732E+03
             490     44.5650E-03     4.85896E-03     44.2993E-03     57.8483E-03    -28.9037E-03    -28.9445E-03    -28.8389E-03     57.7691E-03    -28.9301E-03     5.21945E-03     62.4580E-03     195.700E+06    -11.1117E+06    -22.3152E+06    -212.165E+06    -22.3197E+06    -212.160E+06    -11.1117E+06     19.2959E+03
             491     44.4646E-03     3.88742E-03     44.2943E-03     57.8015E-03    -28.8768E-03    -28.9273E-03    -28.8237E-03     57.7484E-03    -28.9273E-03     4.25729E-03     60.7356E-03     204.202E+06    -15.5495E+06    -24.5582E+06    -224.103E+06    -24.5623E+06    -224.099E+06    -15.5495E+06     110.266E+03
             492     44.3864E-03     2.91531E-03     44.2905E-03     57.8436E-03    -28.9005E-03    -28.9432E-03    -28.8821E-03     57.8105E-03    -28.9285E-03     3.36532E-03     59.5237E-03     210.368E+06    -20.0206E+06    -26.8895E+06    -233.734E+06    -26.8934E+06    -233.730E+06    -20.0206E+06     589.368E+03
             493     44.3301E-03     1.94386E-03     44.2875E-03     57.8360E-03    -28.9019E-03    -28.9351E-03    -28.9184E-03     57.8193E-03    -28.9019E-03     2.31440E-03     58.7336E-03     210.170E+06    -24.6310E+06    -29.0871E+06    -236.988E+06    -29.0899E+06    -236.985E+06    -24.6310E+06     532.794E+03
             494     44.2963E-03     971.774E-06     44.2856E-03     57.7101E-03    -28.7985E-03    -28.9131E-03    -28.9088E-03     57.7057E-03    -28.7985E-03     1.04362E-03     58.3540E-03     208.105E+06    -29.4236E+06    -31.7715E+06    -238.687E+06    -31.4176E+06    -238.682E+06    -29.7827E+06     385.755E+03
             495     47.0142E-03     16.5290E-03     44.0128E-03     221.510E-03    -29.0782E-03    -192.373E-03    -51.8735E-03     81.0102E-03    -29.0782E-03     391.962E-03     612.957E-03     178.069E+06     179.175E+06     152.862E+06    -10.0377E+06    -10.0361E+06     179.174E+06     152.862E+06     281.462E+03
             496     46.2289E-03     15.5559E-03     43.5330E-03     168.017E-03    -28.8320E-03    -139.164E-03    -43.9464E-03     72.7993E-03    -28.8320E-03     281.885E-03     398.516E-03     144.466E+06     144.325E+06     84.2266E+06    -17.7285E+06    -17.7051E+06     144.302E+06     84.2266E+06    -710.086E+03
             497     45.7784E-03     14.5813E-03     43.3941E-03     77.0424E-03    -28.5274E-03    -48.5696E-03    -28.8571E-03     57.3299E-03    -28.5274E-03     85.0933E-03     180.457E-03     117.750E+06     102.646E+06     8.87595E+06    -26.3386E+06    -22.3424E+06     102.580E+06     4.94554E+06    -1.03656E+06
             498     45.4399E-03     13.6089E-03     43.3542E-03     59.2207E-03    -28.3483E-03    -30.9297E-03    -27.8596E-03     56.1507E-03    -28.3483E-03     32.2505E-03     128.540E-03     98.2823E+06     62.3080E+06    -23.2802E+06    -43.5698E+06    -23.1859E+06     62.2137E+06    -43.5698E+06    -564.975E+03
             499     45.1317E-03     12.6358E-03     43.3268E-03     57.8968E-03    -28.3901E-03    -29.5706E-03    -28.1068E-03     56.4330E-03    -28.3901E-03     21.9815E-03     106.006E-03     53.9451E+06     10.8176E+06    -24.7305E+06    -50.2805E+06    -21.1279E+06     7.21502E+06    -50.2805E+06    -526.491E+03
             500     44.8516E-03     11.6636E-03     43.3085E-03     57.4757E-03    -28.5385E-03    -28.9744E-03    -28.3050E-03     56.8063E-03    -28.5385E-03     14.9473E-03     94.2562E-03     38.5539E+06    -18.4016E+06    -27.5673E+06    -60.6575E+06    -18.6476E+06    -51.2206E+06    -36.7581E+06    -401.598E+03
             501     44.5959E-03     10.6911E-03     43.2954E-03     57.4696E-03    -28.6608E-03    -28.8095E-03    -28.3399E-03     57.0000E-03    -28.6608E-03     12.6930E-03     86.4364E-03     72.0086E+06    -17.5266E+06    -23.5703E+06    -92.1426E+06    -17.5767E+06    -92.0925E+06    -23.5703E+06    -49.7724E+03
             502     44.3593E-03     9.71874E-03     43.2816E-03     57.6777E-03    -28.7421E-03    -28.9215E-03    -28.5276E-03     57.2839E-03    -28.7421E-03     11.5637E-03     80.4123E-03     103.514E+06    -14.8168E+06    -18.9825E+06    -120.327E+06    -18.3617E+06    -120.301E+06    -15.4639E+06     321.523E+03
             503     44.1468E-03     8.74701E-03     43.2716E-03     57.7089E-03    -28.7716E-03    -28.9193E-03    -28.6401E-03     57.4485E-03    -28.7905E-03     9.45665E-03     74.9635E-03     128.444E+06    -12.2495E+06    -19.4044E+06    -144.115E+06    -19.4139E+06    -144.106E+06    -12.2495E+06     278.606E+03
             504     43.9554E-03     7.77500E-03     43.2623E-03     57.7245E-03    -28.8022E-03    -28.8957E-03    -28.6695E-03     57.5270E-03    -28.8308E-03     8.24307E-03     70.6961E-03     150.156E+06    -10.9825E+06    -19.5050E+06    -165.203E+06    -19.5292E+06    -165.178E+06    -10.9825E+06     106.010E+03
             505     43.7859E-03     6.80318E-03     43.2542E-03     57.7656E-03    -28.8432E-03    -28.9104E-03    -28.7157E-03     57.6138E-03    -28.8861E-03     7.22613E-03     67.3220E-03     169.335E+06    -7.38583E+06    -19.2727E+06    -182.335E+06    -19.2925E+06    -182.315E+06    -7.38583E+06     83.9562E+03
             506     43.6382E-03     5.83086E-03     43.2469E-03     57.7824E-03    -28.8560E-03    -28.9253E-03    -28.7438E-03     57.6701E-03    -28.9253E-03     6.21074E-03     64.5636E-03     185.438E+06    -6.94061E+06    -20.0009E+06    -198.558E+06    -20.0019E+06    -198.557E+06    -6.94061E+06     371.381E+03
             507     43.5132E-03     4.85941E-03     43.2410E-03     57.7868E-03    -28.8569E-03    -28.9311E-03    -28.7779E-03     57.7079E-03    -28.9311E-03     5.20575E-03     62.3998E-03     195.095E+06    -11.8560E+06    -21.9220E+06     -211.78E+06    -21.9253E+06    -211.777E+06    -11.8560E+06     298.279E+03
             508     43.4104E-03     3.88713E-03     43.2360E-03     57.8215E-03    -28.8776E-03    -28.9469E-03    -28.8345E-03     57.7692E-03    -28.9378E-03     4.22987E-03     60.7608E-03     204.135E+06    -16.5447E+06    -24.7792E+06    -224.672E+06    -24.7825E+06    -224.669E+06    -16.5447E+06     198.803E+03
             509     43.3304E-03     2.91548E-03     43.2322E-03     57.8584E-03    -28.8915E-03    -28.9674E-03    -28.8814E-03     57.8267E-03    -28.9458E-03     3.27782E-03     59.5472E-03     210.655E+06    -19.6443E+06    -27.3698E+06    -234.054E+06    -27.3721E+06    -234.052E+06    -19.6443E+06     474.421E+03
             510     43.2726E-03     1.94344E-03     43.2290E-03     57.8155E-03    -28.8456E-03    -28.9683E-03    -28.8509E-03     57.7992E-03    -28.9469E-03     2.30809E-03     58.7390E-03     210.234E+06    -23.4860E+06    -29.2255E+06    -236.527E+06    -29.2275E+06    -236.525E+06    -23.4860E+06     471.643E+03
             511     43.2386E-03     971.991E-06     43.2277E-03     57.8427E-03    -28.8056E-03    -29.0366E-03    -28.9621E-03     57.8372E-03    -28.8745E-03     1.27069E-03     58.5247E-03     207.029E+06    -29.5011E+06    -32.0511E+06    -237.786E+06    -31.9704E+06    -237.781E+06    -29.5876E+06     577.137E+03
             512     46.0161E-03     16.5273E-03     42.9456E-03     221.343E-03    -29.0811E-03    -192.190E-03    -51.6574E-03     80.8107E-03    -29.0811E-03     391.740E-03     613.357E-03     177.868E+06     179.514E+06     152.990E+06    -9.52102E+06    -9.51761E+06     179.511E+06     152.990E+06     206.649E+03
             513     45.2384E-03     15.5561E-03     42.4796E-03     167.397E-03    -28.8284E-03    -138.542E-03    -43.5835E-03     72.4390E-03    -28.8284E-03     281.181E-03     397.953E-03     144.468E+06     144.198E+06     83.1188E+06    -17.9853E+06    -17.9402E+06     144.153E+06     83.1188E+06    -94.2333E+03
             514     44.7749E-03     14.5807E-03     42.3344E-03     77.8943E-03    -28.5422E-03    -49.4093E-03    -28.7709E-03     57.2558E-03    -28.5422E-03     86.8886E-03     181.134E-03     117.862E+06     102.765E+06     8.23714E+06    -26.1506E+06    -22.4841E+06     102.678E+06     4.65820E+06    -279.471E+03
             515     44.4314E-03     13.6078E-03     42.2963E-03     59.2880E-03    -28.3714E-03    -30.9753E-03    -28.0063E-03     56.3190E-03    -28.3714E-03     31.8303E-03     128.801E-03     98.0116E+06     62.7690E+06    -22.5739E+06    -42.6981E+06    -22.4853E+06     62.6805E+06    -42.6981E+06    -762.086E+03
             516     44.1161E-03     12.6355E-03     42.2679E-03     57.9886E-03    -28.4021E-03    -29.6524E-03    -28.1835E-03     56.5197E-03    -28.4021E-03     22.0120E-03     106.059E-03     53.8688E+06     11.0130E+06    -24.8399E+06    -50.1830E+06    -20.5456E+06     6.71870E+06    -50.1830E+06    -1.01621E+06
             517     43.8302E-03     11.6633E-03     42.2499E-03     57.5277E-03    -28.5437E-03    -29.0257E-03    -28.3685E-03     56.8705E-03    -28.5437E-03     14.8190E-03     94.4505E-03     38.8670E+06    -18.0736E+06    -27.8400E+06    -60.7221E+06    -18.4540E+06    -51.5439E+06    -36.6379E+06     -662.41E+03
             518     43.5693E-03     10.6912E-03     42.2372E-03     57.5161E-03    -28.6627E-03    -28.8617E-03    -28.3916E-03     57.0460E-03    -28.6627E-03     12.7047E-03     86.5455E-03     72.9762E+06    -17.5878E+06    -23.1156E+06    -92.9520E+06    -17.6346E+06    -92.9053E+06    -23.1156E+06     289.685E+03
             519     43.3274E-03     9.71895E-03     42.2233E-03     57.6059E-03    -28.7400E-03    -28.8489E-03    -28.4525E-03     57.2131E-03    -28.7436E-03     11.5222E-03     80.3806E-03     104.506E+06    -14.5634E+06    -17.8079E+06    -120.635E+06    -17.4762E+06    -120.606E+06    -14.9239E+06     877.817E+03
             520     43.1094E-03     8.74664E-03     42.2127E-03     57.6864E-03    -28.7968E-03    -28.8667E-03    -28.6107E-03     57.4345E-03    -28.8010E-03     9.29808E-03     74.9943E-03     129.052E+06    -11.7044E+06    -18.2829E+06    -143.913E+06    -18.3019E+06    -143.894E+06    -11.7044E+06     518.368E+03
             521     42.9140E-03     7.77495E-03     42.2038E-03     57.7793E-03    -28.8272E-03    -28.9297E-03    -28.7284E-03     57.5786E-03    -28.8279E-03     8.32700E-03     70.7736E-03     148.098E+06    -12.8503E+06    -19.8237E+06    -164.306E+06    -19.8401E+06    -164.289E+06    -12.8503E+06    -323.604E+03
             522     42.7405E-03     6.80294E-03     42.1956E-03     57.7802E-03    -28.8424E-03    -28.9320E-03    -28.7561E-03     57.6236E-03    -28.8617E-03     7.32928E-03     67.3520E-03     166.256E+06    -11.7622E+06    -21.2042E+06    -182.526E+06    -21.2244E+06    -182.506E+06    -11.7622E+06    -939.957E+03
             523     42.5898E-03     5.83133E-03     42.1887E-03     57.7325E-03    -28.8119E-03    -28.9215E-03    -28.7083E-03     57.6198E-03    -28.9124E-03     6.22851E-03     64.5425E-03     183.808E+06    -10.1379E+06    -22.4045E+06    -199.771E+06    -22.4137E+06    -199.762E+06    -10.1379E+06    -323.575E+03
             524     42.4615E-03     4.85882E-03     42.1826E-03     57.7622E-03    -28.8241E-03    -28.9370E-03    -28.7431E-03     57.6811E-03    -28.9370E-03     5.26564E-03     62.3797E-03     193.361E+06    -12.8575E+06    -24.1796E+06    -211.622E+06    -24.1818E+06    -211.619E+06    -12.8575E+06     346.516E+03
             525     42.3566E-03     3.88734E-03     42.1779E-03     57.8682E-03    -28.9144E-03    -28.9575E-03    -28.8719E-03     57.8144E-03    -28.9462E-03     4.30157E-03     60.8200E-03     203.123E+06    -16.6839E+06    -26.0183E+06    -224.302E+06    -26.0212E+06    -224.299E+06    -16.6839E+06     364.484E+03
             526     42.2742E-03     2.91548E-03     42.1736E-03     57.8581E-03    -28.9072E-03    -28.9535E-03    -28.8895E-03     57.8264E-03    -28.9395E-03     3.25375E-03     59.5561E-03     210.176E+06    -20.9520E+06    -27.4124E+06    -234.272E+06    -27.4161E+06    -234.268E+06    -20.9520E+06    -94.5910E+03
             527     42.2159E-03     1.94371E-03     42.1711E-03     57.7769E-03    -28.8176E-03    -28.9579E-03    -28.8059E-03     57.7626E-03    -28.9552E-03     2.17577E-03     58.7263E-03     209.819E+06    -24.4932E+06    -29.1109E+06    -236.576E+06    -29.1138E+06    -236.573E+06    -24.4932E+06    -161.681E+03
             528     42.1800E-03     971.204E-06     42.1688E-03     57.9115E-03    -28.8310E-03    -29.0786E-03    -28.9669E-03     57.9051E-03    -28.9363E-03     1.41679E-03     58.6003E-03     206.856E+06    -28.9205E+06    -31.6658E+06    -237.129E+06    -31.5835E+06    -237.124E+06    -29.0070E+06     476.113E+03
             529     45.0287E-03     16.5298E-03     41.8850E-03     220.748E-03    -29.0706E-03    -191.620E-03    -50.8416E-03     79.9699E-03    -29.0706E-03     391.051E-03     613.095E-03     177.375E+06     178.886E+06     152.924E+06    -9.39479E+06    -9.39033E+06     178.882E+06     152.924E+06     336.913E+03
             530     44.2472E-03     15.5539E-03     41.4233E-03     167.265E-03    -28.8572E-03    -138.396E-03    -43.0513E-03     71.9195E-03    -28.8572E-03     280.885E-03     398.904E-03     144.950E+06     145.656E+06     85.1899E+06    -17.1496E+06    -17.1137E+06     145.620E+06     85.1899E+06     166.180E+03
             531     43.7753E-03     14.5809E-03     41.2756E-03     78.4592E-03    -28.5532E-03    -49.9734E-03    -29.5842E-03     58.0700E-03    -28.5532E-03     86.8168E-03     181.587E-03     118.111E+06     103.766E+06     10.2613E+06    -25.7974E+06    -21.5174E+06     103.694E+06     6.05385E+06    -195.562E+03
             532     43.4249E-03     13.6085E-03     41.2375E-03     58.9766E-03    -28.3453E-03    -30.6874E-03    -27.9191E-03     56.2083E-03    -28.3453E-03     30.6948E-03     128.613E-03     98.1121E+06     62.6816E+06    -21.7253E+06    -43.3228E+06    -21.6419E+06     62.5983E+06    -43.3228E+06    -882.002E+03
             533     43.1031E-03     12.6359E-03     41.2094E-03     57.7259E-03    -28.3837E-03    -29.4015E-03    -27.9956E-03     56.3200E-03    -28.3837E-03     21.5263E-03     105.822E-03     53.8367E+06     10.7996E+06    -24.5791E+06    -50.5398E+06    -20.1980E+06     6.41851E+06    -50.5398E+06    -926.650E+03
             534     42.8108E-03     11.6632E-03     41.1914E-03     57.3845E-03    -28.5373E-03    -28.8818E-03    -28.2369E-03     56.7395E-03    -28.5373E-03     14.6486E-03     94.3518E-03     39.1235E+06    -18.4842E+06    -28.6223E+06    -61.5069E+06    -18.8925E+06    -52.5280E+06    -37.1929E+06    -575.622E+03
             535     42.5438E-03     10.6911E-03     41.1786E-03     57.5886E-03    -28.6593E-03    -28.9317E-03    -28.4711E-03     57.1280E-03    -28.6593E-03     12.5856E-03     86.6576E-03     73.4770E+06    -17.4620E+06    -23.5598E+06    -93.5765E+06    -17.4949E+06    -93.5436E+06    -23.5598E+06    -77.3076E+03
             536     42.2969E-03     9.71898E-03     41.1651E-03     57.6366E-03    -28.7306E-03    -28.8902E-03    -28.4959E-03     57.2458E-03    -28.7341E-03     11.5097E-03     80.3715E-03     105.004E+06    -14.4241E+06    -16.6154E+06    -120.501E+06    -15.9611E+06    -120.480E+06    -15.0989E+06     280.587E+03
             537     42.0736E-03     8.74698E-03     41.1543E-03     57.6167E-03    -28.7801E-03    -28.8127E-03    -28.5391E-03     57.3659E-03    -28.8029E-03     9.26406E-03     74.9251E-03     131.340E+06    -10.2895E+06    -15.5656E+06    -144.172E+06    -15.6023E+06    -144.135E+06    -10.2895E+06     738.866E+03
             538     41.8736E-03     7.77465E-03     41.1455E-03     57.7232E-03    -28.8127E-03    -28.8857E-03    -28.6550E-03     57.5285E-03    -28.8487E-03     8.19541E-03     70.7691E-03     150.138E+06    -9.54425E+06    -17.2729E+06    -163.391E+06    -17.2925E+06    -163.371E+06    -9.54425E+06     746.946E+03
             539     41.6956E-03     6.80295E-03     41.1369E-03     57.7839E-03    -28.8471E-03    -28.9330E-03    -28.7391E-03     57.6298E-03    -28.8869E-03     7.27632E-03     67.4067E-03     167.849E+06    -9.52807E+06    -19.4739E+06    -182.123E+06    -19.4838E+06    -182.113E+06    -9.52807E+06    -386.058E+03
             540     41.5418E-03     5.83084E-03     41.1306E-03     57.8207E-03    -28.8603E-03    -28.9608E-03    -28.7760E-03     57.7078E-03    -28.9322E-03     6.23953E-03     64.6724E-03     185.594E+06    -9.56873E+06    -21.9188E+06    -201.029E+06    -21.9283E+06    -201.019E+06    -9.56873E+06    -670.661E+03
             541     41.4105E-03     4.85929E-03     41.1244E-03     57.8151E-03    -28.8511E-03    -28.9625E-03    -28.7883E-03     57.7328E-03    -28.9429E-03     5.31467E-03     62.4359E-03     193.689E+06    -12.6555E+06    -24.0674E+06    -211.784E+06    -24.0686E+06    -211.783E+06    -12.6555E+06    -220.898E+03
             542     41.3025E-03     3.88708E-03     41.1192E-03     57.8251E-03    -28.8765E-03    -28.9519E-03    -28.8240E-03     57.7704E-03    -28.9498E-03     4.32432E-03     60.7727E-03     203.068E+06    -16.9587E+06    -25.3041E+06    -224.054E+06    -25.3087E+06    -224.049E+06    -16.9587E+06    -302.455E+03
             543     41.2186E-03     2.91537E-03     41.1154E-03     57.8775E-03    -28.9228E-03    -28.9587E-03    -28.8961E-03     57.8452E-03    -28.9531E-03     3.30212E-03     59.5765E-03     209.892E+06    -21.4275E+06    -26.9705E+06    -234.028E+06    -26.9791E+06    -234.019E+06    -21.4275E+06    -168.483E+03
             544     41.1584E-03     1.94353E-03     41.1125E-03     57.9059E-03    -28.8910E-03    -29.0155E-03    -28.9642E-03     57.8910E-03    -28.9274E-03     2.20420E-03     58.8763E-03     209.578E+06    -25.0621E+06    -29.5598E+06    -236.847E+06    -29.5643E+06    -236.842E+06    -25.0621E+06    -151.135E+03
             545     41.1225E-03     972.262E-06     41.1110E-03     57.7683E-03    -28.7822E-03    -28.9840E-03    -28.9411E-03     57.7618E-03    -28.8186E-03     1.48708E-03     58.4625E-03     207.439E+06    -28.5643E+06     -31.834E+06    -237.615E+06    -31.2152E+06    -237.611E+06    -29.1869E+06     199.773E+03
             546     44.0549E-03     16.5306E-03     40.8359E-03     219.759E-03    -29.0583E-03    -190.638E-03    -50.8515E-03     79.9734E-03    -29.0583E-03     388.962E-03     611.430E-03     176.502E+06     178.080E+06     153.424E+06    -8.83745E+06    -8.83246E+06     178.075E+06     153.424E+06    -39.7970E+03
             547     43.2550E-03     15.5533E-03     40.3620E-03     168.172E-03    -28.8390E-03    -139.329E-03    -43.7038E-03     72.5468E-03    -28.8390E-03     282.066E-03     399.258E-03     145.171E+06     146.642E+06     87.0850E+06    -16.2220E+06    -16.1816E+06     146.602E+06     87.0850E+06     285.079E+03
             548     42.7794E-03     14.5826E-03     40.2173E-03     77.7588E-03    -28.5144E-03    -49.3160E-03    -29.6119E-03     58.0547E-03    -28.5144E-03     85.6114E-03     181.061E-03     118.570E+06     104.721E+06     11.3005E+06    -25.4085E+06    -21.0964E+06     104.661E+06     7.04870E+06     208.105E+03
             549     42.4212E-03     13.6094E-03     40.1789E-03     58.6988E-03    -28.3059E-03    -30.4486E-03    -27.5597E-03     55.8099E-03    -28.3059E-03     31.1876E-03     128.186E-03     98.4636E+06     62.3844E+06    -22.0506E+06    -44.0787E+06    -21.9609E+06     62.2947E+06    -44.0787E+06    -188.426E+03
             550     42.0931E-03     12.6363E-03     40.1517E-03     57.6371E-03    -28.3616E-03    -29.3325E-03    -27.8826E-03     56.1873E-03    -28.3616E-03     21.8459E-03     105.821E-03     54.2018E+06     10.7053E+06    -24.4380E+06    -51.0642E+06    -20.1519E+06     6.41917E+06    -51.0642E+06    -347.702E+03
             551     41.7935E-03     11.6635E-03     40.1330E-03     57.3214E-03    -28.5252E-03    -28.8303E-03    -28.1686E-03     56.6597E-03    -28.5252E-03     14.7931E-03     94.2429E-03     39.8439E+06    -17.9772E+06    -28.4667E+06    -61.9072E+06    -18.2788E+06    -52.7556E+06    -37.3166E+06    -456.156E+03
             552     41.5202E-03     10.6911E-03     40.1202E-03     57.4946E-03    -28.6486E-03    -28.8424E-03    -28.3872E-03     57.0394E-03    -28.6486E-03     12.5000E-03     86.6001E-03     73.7374E+06    -16.9512E+06    -24.2971E+06    -93.8581E+06    -16.9983E+06    -93.8111E+06    -24.2971E+06    -686.918E+03
             553     41.2673E-03     9.71908E-03     40.1064E-03     57.6094E-03    -28.7305E-03    -28.8578E-03    -28.4669E-03     57.2185E-03    -28.7305E-03     11.5194E-03     80.3466E-03     104.991E+06    -14.8971E+06    -18.1014E+06    -121.442E+06    -16.7871E+06    -121.406E+06    -16.2476E+06    -320.698E+03
             554     41.0391E-03     8.74681E-03     40.0962E-03     57.6240E-03    -28.7785E-03    -28.8202E-03    -28.5367E-03     57.3643E-03    -28.8023E-03     9.43182E-03     74.9241E-03     130.669E+06    -11.4951E+06    -17.4228E+06    -145.010E+06    -17.4557E+06    -144.977E+06    -11.4951E+06     799.149E+03
             555     40.8338E-03     7.77501E-03     40.0868E-03     57.6651E-03    -28.7840E-03    -28.8553E-03    -28.5855E-03     57.4666E-03    -28.8553E-03     8.26217E-03     70.7208E-03     149.302E+06    -8.89317E+06    -17.6995E+06    -162.402E+06    -17.7171E+06    -162.384E+06    -8.89317E+06     789.717E+03
             556     40.6522E-03     6.80265E-03     40.0790E-03     57.7415E-03    -28.8199E-03    -28.9134E-03    -28.6672E-03     57.5888E-03    -28.9134E-03     7.24154E-03     67.3729E-03     168.687E+06    -8.04343E+06    -18.9529E+06    -181.919E+06    -18.9563E+06    -181.916E+06    -8.04343E+06     491.666E+03
             557     40.4938E-03     5.83087E-03     40.0718E-03     57.8577E-03    -28.8832E-03    -28.9721E-03    -28.7898E-03     57.7447E-03    -28.9526E-03     6.24165E-03     64.6693E-03     185.156E+06    -10.0483E+06    -21.5053E+06    -200.656E+06    -21.5102E+06    -200.651E+06    -10.0483E+06    -80.7847E+03
             558     40.3596E-03     4.85895E-03     40.0660E-03     57.8741E-03    -28.8999E-03    -28.9751E-03    -28.8393E-03     57.7886E-03    -28.9502E-03     5.43377E-03     62.4871E-03     193.161E+06    -14.5499E+06    -23.1212E+06    -211.836E+06    -23.1267E+06    -211.831E+06    -14.5499E+06    -874.016E+03
             559     40.2491E-03     3.88728E-03     40.0609E-03     57.8726E-03    -28.9035E-03    -28.9719E-03    -28.8510E-03     57.8147E-03    -28.9665E-03     4.43376E-03     60.8142E-03     204.129E+06    -17.7811E+06    -24.6031E+06    -225.234E+06    -24.6106E+06    -225.226E+06    -17.7811E+06    -617.813E+03
             560     40.1629E-03     2.91521E-03     40.0570E-03     57.9259E-03    -28.9409E-03    -28.9876E-03    -28.9194E-03     57.8938E-03    -28.9770E-03     3.29806E-03     59.6127E-03     210.330E+06    -20.5849E+06    -26.7776E+06    -233.938E+06    -26.7837E+06    -233.932E+06    -20.5849E+06     111.247E+03
             561     40.1012E-03     1.94357E-03     40.0540E-03     57.9752E-03    -28.9304E-03    -29.0466E-03    -29.0312E-03     57.9598E-03    -28.9304E-03     2.25218E-03     58.9325E-03     209.507E+06    -24.8643E+06    -29.0554E+06    -236.430E+06    -29.0578E+06    -236.428E+06    -24.8643E+06     86.6877E+03
             562     40.0639E-03     971.818E-06     40.0521E-03     57.7432E-03    -28.7341E-03    -29.0088E-03    -29.0034E-03     57.7378E-03    -28.7341E-03     1.25593E-03     58.4291E-03     207.952E+06    -28.6325E+06    -31.2950E+06    -237.903E+06    -30.6729E+06    -237.902E+06    -29.2551E+06    -284.382E+03
             563     43.0780E-03     16.5281E-03     39.7811E-03     219.086E-03    -29.0715E-03    -189.886E-03    -51.4524E-03     80.6517E-03    -29.0715E-03     387.044E-03     610.302E-03     177.220E+06     177.655E+06     153.000E+06    -10.0078E+06    -10.0019E+06     177.649E+06     153.000E+06    -946.629E+03
             564     42.2687E-03     15.5573E-03     39.3016E-03     168.807E-03    -28.8122E-03    -139.969E-03    -44.4118E-03     73.2501E-03    -28.8122E-03     283.334E-03     398.387E-03     145.905E+06     145.515E+06     85.9482E+06    -18.1028E+06    -18.0537E+06     145.466E+06     85.9482E+06    -256.175E+03
             565     41.7871E-03     14.5826E-03     39.1601E-03     77.4659E-03    -28.4964E-03    -49.0396E-03    -28.8148E-03     57.2411E-03    -28.4964E-03     86.3718E-03     180.819E-03     118.835E+06     104.443E+06     10.7030E+06    -25.8398E+06    -21.8381E+06     104.354E+06     6.79022E+06     347.347E+03
             566     41.4202E-03     13.6084E-03     39.1209E-03     58.8601E-03    -28.3184E-03    -30.5978E-03    -27.5354E-03     55.7978E-03    -28.3184E-03     32.1110E-03     128.284E-03     99.0740E+06     63.2729E+06    -22.1509E+06    -43.6627E+06    -22.0431E+06     63.1651E+06    -43.6627E+06     166.270E+03
             567     41.0846E-03     12.6359E-03     39.0932E-03     57.8264E-03    -28.3707E-03    -29.5158E-03    -28.0073E-03     56.3179E-03    -28.3707E-03     22.3366E-03     106.114E-03     55.1382E+06     11.7352E+06    -24.9522E+06    -51.1526E+06    -19.8841E+06     6.66713E+06    -51.1526E+06    -336.963E+03
             568     40.7784E-03     11.6637E-03     39.0748E-03     57.4482E-03    -28.5279E-03    -28.9593E-03    -28.2645E-03     56.7535E-03    -28.5279E-03     15.1807E-03     94.3140E-03     39.7374E+06    -17.6906E+06    -28.8854E+06    -61.6547E+06    -17.9680E+06    -52.7759E+06    -37.4869E+06    -375.756E+03
             569     40.4984E-03     10.6914E-03     39.0617E-03     57.4316E-03    -28.6511E-03    -28.7785E-03    -28.3074E-03     56.9605E-03    -28.6511E-03     12.7056E-03     86.5317E-03     73.7360E+06    -17.2678E+06    -24.4658E+06    -94.1015E+06    -17.3248E+06    -94.0444E+06    -24.4658E+06    -233.871E+03
             570     40.2396E-03     9.71877E-03     39.0483E-03     57.5607E-03    -28.7378E-03    -28.7996E-03    -28.3976E-03     57.1610E-03    -28.7402E-03     11.6404E-03     80.3190E-03     105.734E+06    -15.4604E+06    -18.9582E+06    -122.890E+06    -17.7452E+06    -122.845E+06    -16.7191E+06     252.523E+03
             571     40.0054E-03     8.74681E-03     39.0375E-03     57.6088E-03    -28.7651E-03    -28.8162E-03    -28.5076E-03     57.3432E-03    -28.8081E-03     9.53687E-03     74.8782E-03     129.464E+06    -12.9621E+06    -18.1183E+06    -144.921E+06    -18.1313E+06    -144.908E+06    -12.9621E+06     313.752E+03
             572     39.7956E-03     7.77452E-03     39.0288E-03     57.6729E-03    -28.7839E-03    -28.8640E-03    -28.5787E-03     57.4677E-03    -28.8640E-03     8.40400E-03     70.7148E-03     148.070E+06    -10.8838E+06    -18.4203E+06    -162.572E+06    -18.4222E+06    -162.570E+06    -10.8838E+06     272.181E+03
             573     39.6088E-03     6.80275E-03     39.0203E-03     57.7635E-03    -28.8279E-03    -28.9312E-03    -28.6693E-03     57.6048E-03    -28.9312E-03     7.37926E-03     67.3937E-03     167.902E+06    -9.08417E+06    -19.5967E+06    -181.994E+06    -19.6011E+06    -181.989E+06    -9.08417E+06     782.133E+03
             574     39.4468E-03     5.83068E-03     39.0135E-03     57.8341E-03    -28.8594E-03    -28.9745E-03    -28.7427E-03     57.7174E-03    -28.9745E-03     6.34346E-03     64.6466E-03     183.570E+06    -10.6897E+06    -20.8604E+06    -199.125E+06    -20.8660E+06    -199.120E+06    -10.6897E+06     40.6139E+03
             575     39.3090E-03     4.85874E-03     39.0076E-03     57.9229E-03    -28.9328E-03    -28.9919E-03    -28.8521E-03     57.8368E-03    -28.9865E-03     5.44235E-03     62.5481E-03     193.083E+06    -15.0099E+06    -23.3558E+06    -212.126E+06    -23.3622E+06    -212.120E+06    -15.0099E+06    -679.191E+03
             576     39.1956E-03     3.88686E-03     39.0024E-03     58.0128E-03    -28.9873E-03    -29.0293E-03    -28.9637E-03     57.9555E-03    -28.9956E-03     4.43052E-03     60.9502E-03     203.756E+06    -18.8321E+06    -26.1304E+06    -226.130E+06    -26.1359E+06    -226.124E+06    -18.8321E+06    -126.721E+03
             577     39.1073E-03     2.91537E-03     38.9984E-03     57.9935E-03    -28.9733E-03    -29.0215E-03    -28.9828E-03     57.9607E-03    -28.9791E-03     3.33176E-03     59.6696E-03     209.328E+06    -22.4965E+06    -27.2565E+06    -234.155E+06    -27.2601E+06    -234.151E+06    -22.4965E+06    -281.411E+03
             578     39.0439E-03     1.94356E-03     38.9955E-03     57.9110E-03    -28.9127E-03    -28.9992E-03    -28.9319E-03     57.8953E-03    -28.9642E-03     2.28611E-03     58.8715E-03     209.456E+06    -25.2473E+06    -28.4510E+06    -236.286E+06    -28.4558E+06    -236.281E+06    -25.2473E+06    -110.591E+03
             579     39.0060E-03     971.895E-06     38.9939E-03     57.8914E-03    -28.8240E-03    -29.0685E-03    -29.0120E-03     57.8864E-03    -28.8755E-03     1.07796E-03     58.5783E-03     208.478E+06    -28.1981E+06    -30.8186E+06    -237.973E+06    -30.3898E+06    -237.966E+06    -28.6337E+06    -199.877E+03
             580     42.0962E-03     16.5287E-03     38.7156E-03     218.999E-03    -29.0992E-03    -189.782E-03    -51.3313E-03     80.5486E-03    -29.0992E-03     386.917E-03     610.501E-03     177.978E+06     178.103E+06     153.228E+06    -10.4213E+06    -10.4179E+06     178.099E+06     153.228E+06    -600.973E+03
             581     41.2889E-03     15.5555E-03     38.2466E-03     168.543E-03    -28.8445E-03    -139.673E-03    -44.0621E-03     72.9321E-03    -28.8445E-03     283.130E-03     398.589E-03     145.163E+06     144.346E+06     85.4272E+06    -18.4156E+06    -18.3881E+06     144.318E+06     85.4272E+06    -639.764E+03
             582     40.7958E-03     14.5805E-03     38.1012E-03     77.8884E-03    -28.5328E-03    -49.4230E-03    -28.8119E-03     57.2773E-03    -28.5328E-03     87.1693E-03     181.322E-03     118.115E+06     104.039E+06     10.4748E+06    -25.0939E+06    -21.7797E+06     103.939E+06     7.26100E+06    -709.180E+03
             583     40.4225E-03     13.6087E-03     38.0628E-03     59.0822E-03    -28.3549E-03    -30.7833E-03    -27.7218E-03     56.0207E-03    -28.3549E-03     32.2357E-03     128.498E-03     98.9483E+06     63.8212E+06    -21.7222E+06    -42.6836E+06    -21.5676E+06     63.6666E+06    -42.6836E+06    -197.423E+03
             584     40.0785E-03     12.6355E-03     38.0346E-03     57.9729E-03    -28.3974E-03    -29.6396E-03    -28.1003E-03     56.4336E-03    -28.3974E-03     22.5648E-03     106.199E-03     54.8040E+06     11.2746E+06    -24.7203E+06    -51.2200E+06    -19.9192E+06     6.47346E+06    -51.2200E+06    -33.3094E+03
             585     39.7649E-03     11.6632E-03     38.0160E-03     57.4983E-03    -28.5530E-03    -28.9840E-03    -28.2819E-03     56.7962E-03    -28.5530E-03     15.2925E-03     94.2865E-03     40.0357E+06    -18.1360E+06    -28.9546E+06    -62.3254E+06    -18.3581E+06    -53.3513E+06    -37.7067E+06    -111.657E+03
             586     39.4787E-03     10.6909E-03     38.0036E-03     57.5573E-03    -28.6797E-03    -28.8688E-03    -28.3830E-03     57.0714E-03    -28.6797E-03     12.9209E-03     86.5768E-03     74.3083E+06    -17.4269E+06    -24.0472E+06    -94.5701E+06    -17.4705E+06    -94.5265E+06    -24.0472E+06     480.031E+03
             587     39.2132E-03     9.71884E-03     37.9897E-03     57.6296E-03    -28.7342E-03    -28.8685E-03    -28.4363E-03     57.2228E-03    -28.7596E-03     11.7447E-03     80.3381E-03     105.512E+06    -16.0473E+06    -18.1007E+06    -122.570E+06    -17.4025E+06    -122.554E+06    -16.7621E+06     372.003E+03
             588     38.9734E-03     8.74647E-03     37.9793E-03     57.6042E-03    -28.7531E-03    -28.8226E-03    -28.4852E-03     57.3362E-03    -28.8226E-03     9.57919E-03     74.8310E-03     129.551E+06    -13.8261E+06    -17.2422E+06    -145.050E+06    -17.2453E+06    -145.047E+06    -13.8261E+06    -230.383E+03
             589     38.7578E-03     7.77446E-03     37.9700E-03     57.7104E-03    -28.7932E-03    -28.8881E-03    -28.5885E-03     57.5057E-03    -28.8881E-03     8.39047E-03     70.7313E-03     149.233E+06    -11.0630E+06    -17.3934E+06    -163.351E+06    -17.3976E+06    -163.347E+06    -11.0630E+06     372.219E+03
             590     38.5666E-03     6.80233E-03     37.9620E-03     57.7998E-03    -28.8311E-03    -28.9631E-03    -28.6729E-03     57.6416E-03    -28.9631E-03     7.37580E-03     67.4167E-03     168.618E+06    -7.98973E+06    -18.0338E+06    -181.403E+06    -18.0388E+06    -181.398E+06    -7.98973E+06     324.601E+03
             591     38.4003E-03     5.83041E-03     37.9551E-03     57.9171E-03    -28.9020E-03    -29.0156E-03    -28.7844E-03     57.7995E-03    -29.0156E-03     6.36565E-03     64.7655E-03     184.936E+06    -8.85702E+06    -20.0007E+06    -199.110E+06    -20.0091E+06    -199.101E+06    -8.85702E+06     189.520E+03
             592     38.2588E-03     4.85857E-03     37.9490E-03     58.0166E-03    -28.9889E-03    -29.0282E-03    -28.9093E-03     57.9327E-03    -29.0239E-03     5.37350E-03     62.6654E-03     194.277E+06    -13.1092E+06    -22.6554E+06    -211.975E+06    -22.6635E+06    -211.967E+06    -13.1092E+06     719.430E+03
             593     38.1425E-03     3.88699E-03     37.9439E-03     58.0624E-03    -29.0151E-03    -29.0511E-03    -28.9925E-03     58.0073E-03    -29.0185E-03     4.35177E-03     61.0063E-03     203.732E+06    -18.0284E+06    -25.0761E+06    -225.185E+06    -25.0782E+06    -225.183E+06    -18.0284E+06     229.942E+03
             594     38.0516E-03     2.91519E-03     37.9398E-03     58.0285E-03    -28.9936E-03    -29.0358E-03    -28.9944E-03     57.9966E-03    -29.0031E-03     3.28424E-03     59.7171E-03     209.691E+06    -22.5192E+06    -27.4300E+06    -234.618E+06    -27.4326E+06    -234.615E+06    -22.5192E+06    -523.881E+03
             595     37.9871E-03     1.94351E-03     37.9373E-03     57.9327E-03    -28.9255E-03    -29.0077E-03    -28.9147E-03     57.9177E-03    -29.0034E-03     2.22278E-03     58.9064E-03     209.702E+06    -25.7063E+06    -29.5254E+06    -237.289E+06    -29.5334E+06    -237.281E+06    -25.7063E+06    -419.541E+03
             596     37.9478E-03     971.371E-06     37.9353E-03     57.9921E-03    -28.9036E-03    -29.0899E-03    -28.9438E-03     57.9866E-03    -29.0443E-03     1.23309E-03     58.6863E-03     208.164E+06    -28.8392E+06    -31.1037E+06    -238.123E+06    -30.6796E+06    -238.111E+06    -29.2748E+06    -267.409E+03
             597     41.1263E-03     16.5290E-03     37.6585E-03     219.453E-03    -29.1423E-03    -190.322E-03    -51.0161E-03     80.1473E-03    -29.1423E-03     388.209E-03     611.971E-03     177.760E+06     178.941E+06     153.606E+06    -9.58297E+06    -9.58093E+06     178.939E+06     153.606E+06    -499.896E+03
             598     40.3090E-03     15.5536E-03     37.1874E-03     168.173E-03    -28.8947E-03    -139.287E-03    -44.1707E-03     73.0562E-03    -28.8947E-03     282.023E-03     399.185E-03     144.613E+06     145.061E+06     86.4565E+06    -17.0701E+06    -17.0435E+06     145.034E+06     86.4565E+06    -799.163E+03
             599     39.8103E-03     14.5820E-03     37.0435E-03     77.8985E-03    -28.5654E-03    -49.3979E-03    -29.1060E-03     57.6066E-03    -28.5654E-03     86.8945E-03     181.012E-03     117.676E+06     103.218E+06     10.2600E+06    -25.6317E+06    -21.8758E+06     103.116E+06     6.60552E+06    -610.157E+03
             600     39.4270E-03     13.6072E-03     37.0044E-03     59.1602E-03    -28.3810E-03    -30.8353E-03    -27.7121E-03     56.0370E-03    -28.3810E-03     32.5563E-03     128.445E-03     98.8992E+06     62.9097E+06    -22.6323E+06    -43.6874E+06    -22.4820E+06     62.7594E+06    -43.6874E+06    -79.1308E+03
             601     39.0752E-03     12.6355E-03     36.9759E-03     58.0747E-03    -28.4318E-03    -29.7112E-03    -28.1621E-03     56.5256E-03    -28.4318E-03     22.6282E-03     106.119E-03     55.1619E+06     10.9579E+06    -25.4021E+06    -51.8537E+06    -20.7282E+06     6.28396E+06    -51.8537E+06     234.691E+03
             602     38.7546E-03     11.6628E-03     36.9581E-03     57.5555E-03    -28.5883E-03    -29.0074E-03    -28.3162E-03     56.8643E-03    -28.5883E-03     15.1827E-03     94.2862E-03     40.7405E+06    -18.2646E+06    -28.9445E+06    -63.1442E+06    -18.5633E+06    -53.7945E+06    -37.9955E+06     339.358E+03
             603     38.4603E-03     10.6905E-03     36.9447E-03     57.6365E-03    -28.7094E-03    -28.9245E-03    -28.4426E-03     57.1546E-03    -28.7094E-03     12.8776E-03     86.6193E-03     74.2012E+06    -17.4453E+06    -24.8500E+06    -94.8784E+06    -17.4632E+06    -94.8605E+06    -24.8500E+06     334.213E+03
             604     38.1887E-03     9.71842E-03     36.9314E-03     57.7150E-03    -28.7642E-03    -28.9353E-03    -28.5094E-03     57.3123E-03    -28.7873E-03     11.6899E-03     80.4254E-03     104.885E+06    -15.2565E+06    -18.7332E+06    -121.830E+06    -17.1275E+06    -121.828E+06    -16.8639E+06     226.909E+03
             605     37.9428E-03     8.74637E-03     36.9210E-03     57.6764E-03    -28.7852E-03    -28.8693E-03    -28.5398E-03     57.4083E-03    -28.8466E-03     9.59783E-03     74.9335E-03     129.392E+06    -13.9427E+06    -17.7365E+06    -145.187E+06    -17.7393E+06    -145.184E+06    -13.9427E+06     150.126E+03
             606     37.7214E-03     7.77428E-03     36.9116E-03     57.7212E-03    -28.7926E-03    -28.9017E-03    -28.5867E-03     57.5152E-03    -28.9017E-03     8.40930E-03     70.7458E-03     148.443E+06    -12.9008E+06    -18.2234E+06    -163.928E+06    -18.2401E+06    -163.912E+06    -12.9008E+06    -324.634E+03
             607     37.5255E-03     6.80229E-03     36.9039E-03     57.8502E-03    -28.8609E-03    -28.9812E-03    -28.7026E-03     57.6919E-03    -28.9812E-03     7.38957E-03     67.4848E-03     167.662E+06    -9.16912E+06    -18.8591E+06    -181.453E+06    -18.8807E+06    -181.431E+06    -9.16912E+06    -138.462E+03
             608     37.3541E-03     5.83031E-03     36.8963E-03     58.0197E-03    -28.9818E-03    -29.0374E-03    -28.8659E-03     57.9025E-03    -29.0360E-03     6.35082E-03     64.8656E-03     185.283E+06    -8.69248E+06    -20.7222E+06    -199.695E+06    -20.7352E+06    -199.682E+06    -8.69248E+06     724.893E+03
             609     37.2090E-03     4.85868E-03     36.8904E-03     58.0564E-03    -29.0175E-03    -29.0409E-03    -28.9416E-03     57.9749E-03    -29.0353E-03     5.30924E-03     62.7031E-03     194.557E+06    -12.4435E+06    -22.2962E+06    -211.731E+06    -22.3048E+06    -211.723E+06    -12.4435E+06     1.02505E+06
             610     37.0894E-03     3.88680E-03     36.8852E-03     58.0372E-03    -28.9968E-03    -29.0437E-03    -28.9464E-03     57.9825E-03    -29.0394E-03     4.32083E-03     61.0232E-03     204.587E+06    -15.9007E+06    -24.0113E+06    -224.419E+06    -24.0144E+06    -224.415E+06    -15.9007E+06     557.575E+03
             611     36.9965E-03     2.91516E-03     36.8815E-03     58.0516E-03    -29.0045E-03    -29.0491E-03    -28.9801E-03     58.0207E-03    -29.0427E-03     3.23769E-03     59.7761E-03     211.259E+06    -20.0318E+06    -26.6943E+06    -234.539E+06    -26.6950E+06    -234.538E+06    -20.0318E+06     189.665E+03
             612     36.9297E-03     1.94337E-03     36.8785E-03     58.0522E-03    -28.9932E-03    -29.0605E-03    -29.0201E-03     58.0382E-03    -29.0196E-03     2.12686E-03     59.0105E-03     209.967E+06    -25.2367E+06    -29.2914E+06    -237.198E+06    -29.2966E+06    -237.193E+06    -25.2367E+06    -510.033E+03
             613     36.8899E-03     971.991E-06     36.8771E-03     57.9689E-03    -28.8471E-03    -29.1235E-03    -29.0296E-03     57.9641E-03    -28.9363E-03     1.23347E-03     58.6580E-03     208.109E+06    -29.8938E+06    -31.6384E+06    -238.867E+06    -31.3572E+06    -238.858E+06    -30.1840E+06    -7.26588E+03
             614     40.1533E-03     16.5238E-03     36.5958E-03     219.839E-03    -29.1885E-03    -190.700E-03    -50.6234E-03     79.7621E-03    -29.1885E-03     389.273E-03     612.926E-03     178.396E+06     179.131E+06     152.042E+06    -10.5827E+06    -10.5680E+06     179.116E+06     152.042E+06    -874.409E+03
             615     39.3342E-03     15.5546E-03     36.1281E-03     167.519E-03    -28.9388E-03    -138.586E-03    -44.3370E-03     73.2699E-03    -28.9388E-03     280.494E-03     398.748E-03     146.599E+06     144.676E+06     83.5212E+06    -20.1786E+06    -20.1398E+06     144.637E+06     83.5212E+06    -1.41673E+06
             616     38.8270E-03     14.5796E-03     35.9857E-03     78.2651E-03    -28.5993E-03    -49.7304E-03    -29.3811E-03     57.9158E-03    -28.5993E-03     87.1292E-03     180.969E-03     118.538E+06     102.666E+06     8.96570E+06    -26.9960E+06    -23.7145E+06     102.565E+06     5.78506E+06    -569.514E+03
             617     38.4354E-03     13.6079E-03     35.9458E-03     59.4068E-03    -28.4078E-03    -31.0593E-03    -27.9939E-03     56.3414E-03    -28.4078E-03     32.3063E-03     128.691E-03     97.8181E+06     62.4362E+06    -22.8718E+06    -42.6684E+06    -22.7503E+06     62.3147E+06    -42.6684E+06    -398.738E+03
             618     38.0748E-03     12.6345E-03     35.9174E-03     57.9687E-03    -28.4541E-03    -29.5840E-03    -28.1123E-03     56.4970E-03    -28.4541E-03     22.0338E-03     105.997E-03     54.3411E+06     10.9093E+06    -25.7586E+06    -50.9711E+06    -20.5522E+06     5.70280E+06    -50.9711E+06    -35.8534E+03
             619     37.7460E-03     11.6626E-03     35.8991E-03     57.5304E-03    -28.6088E-03    -28.9674E-03    -28.3068E-03     56.8698E-03    -28.6088E-03     14.8414E-03     94.3731E-03     40.4555E+06    -18.3662E+06    -29.2967E+06    -62.9446E+06    -18.6183E+06    -54.0958E+06    -37.8933E+06     383.159E+03
             620     37.4449E-03     10.6904E-03     35.8865E-03     57.6088E-03    -28.7298E-03    -28.8847E-03    -28.4149E-03     57.1389E-03    -28.7298E-03     12.7088E-03     86.6472E-03     73.8897E+06    -17.6690E+06    -24.9457E+06    -94.7598E+06    -17.6864E+06    -94.7424E+06    -24.9457E+06     279.906E+03
             621     37.1657E-03     9.71811E-03     35.8726E-03     57.7445E-03    -28.8103E-03    -28.9245E-03    -28.5289E-03     57.3490E-03    -28.8103E-03     11.5822E-03     80.4861E-03     104.793E+06    -15.1890E+06    -19.2915E+06    -121.971E+06    -17.5525E+06    -121.966E+06    -16.9323E+06     393.180E+03
             622     36.9136E-03     8.74621E-03     35.8625E-03     57.7312E-03    -28.8072E-03    -28.9078E-03    -28.5846E-03     57.4727E-03    -28.8719E-03     9.42556E-03     75.0042E-03     129.228E+06    -13.0204E+06    -17.7269E+06    -144.536E+06    -17.7316E+06    -144.531E+06    -13.0204E+06     391.034E+03
             623     36.6865E-03     7.77408E-03     35.8533E-03     57.7618E-03    -28.8214E-03    -28.9165E-03    -28.6170E-03     57.5575E-03    -28.9165E-03     8.39099E-03     70.7914E-03     147.691E+06    -13.4866E+06    -18.4710E+06    -163.606E+06    -18.4855E+06    -163.592E+06    -13.4866E+06    -442.961E+03
             624     36.4848E-03     6.80203E-03     35.8452E-03     57.9392E-03    -28.9446E-03    -28.9890E-03    -28.7898E-03     57.7796E-03    -28.9842E-03     7.41442E-03     67.5792E-03     167.174E+06    -11.3131E+06    -19.8698E+06    -182.584E+06    -19.8901E+06    -182.564E+06    -11.3131E+06    -337.422E+03
             625     36.3089E-03     5.83040E-03     35.8377E-03     58.0394E-03    -28.9923E-03    -29.0476E-03    -28.8823E-03     57.9233E-03    -29.0415E-03     6.33116E-03     64.8789E-03     185.212E+06    -9.18236E+06    -21.3284E+06    -200.165E+06    -21.3466E+06    -200.147E+06    -9.18236E+06     860.471E+03
             626     36.1597E-03     4.85858E-03     35.8318E-03     58.0418E-03    -28.9933E-03    -29.0510E-03    -28.9156E-03     57.9594E-03    -29.0464E-03     5.32899E-03     62.6938E-03     193.778E+06    -12.3386E+06    -23.7034E+06    -211.544E+06    -23.7157E+06    -211.532E+06    -12.3386E+06     950.965E+03
             627     36.0370E-03     3.88691E-03     35.8268E-03     58.0354E-03    -28.9910E-03    -29.0492E-03    -28.9415E-03     57.9827E-03    -29.0459E-03     4.24328E-03     61.0286E-03     203.080E+06    -17.2454E+06    -25.7612E+06    -224.437E+06    -25.7639E+06    -224.434E+06    -17.2454E+06     182.343E+03
             628     35.9412E-03     2.91497E-03     35.8228E-03     58.0326E-03    -28.9738E-03    -29.0619E-03    -28.9496E-03     58.0020E-03    -29.0555E-03     3.23421E-03     59.7613E-03     210.291E+06    -21.4999E+06    -26.8547E+06    -234.409E+06    -26.8560E+06    -234.407E+06    -21.4999E+06    -4.37927E+03
             629     35.8727E-03     1.94344E-03     35.8200E-03     58.1165E-03    -29.0136E-03    -29.1033E-03    -29.0478E-03     58.1008E-03    -29.0535E-03     2.26764E-03     59.0946E-03     210.352E+06    -24.5743E+06    -28.4514E+06    -236.836E+06    -28.4617E+06    -236.826E+06    -24.5743E+06     496.249E+03
             630     35.8316E-03     971.645E-06     35.8184E-03     58.0400E-03    -28.8192E-03    -29.2206E-03    -29.2155E-03     58.0349E-03    -28.8192E-03     1.24644E-03     58.7699E-03     208.119E+06    -28.7648E+06    -31.9380E+06    -238.449E+06    -31.6621E+06    -238.434E+06    -29.0550E+06     488.474E+03
             631     39.1881E-03     16.5270E-03     35.5326E-03     219.571E-03    -29.1578E-03    -190.405E-03    -50.0007E-03     79.1668E-03    -29.1578E-03     389.079E-03     611.689E-03     178.996E+06     179.340E+06     152.093E+06    -10.9342E+06    -10.9004E+06     179.306E+06     152.093E+06     556.214E+03
             632     38.3648E-03     15.5519E-03     35.0713E-03     166.755E-03    -28.9466E-03    -137.813E-03    -43.4543E-03     72.3961E-03    -28.9466E-03     279.234E-03     398.366E-03     147.450E+06     145.567E+06     83.3715E+06    -20.4636E+06    -20.3740E+06     145.477E+06     83.3715E+06    -678.147E+03
             633     37.8467E-03     14.5800E-03     34.9256E-03     78.2839E-03    -28.6113E-03    -49.7466E-03    -29.8023E-03     58.3396E-03    -28.6113E-03     86.2895E-03     181.647E-03     119.099E+06     103.271E+06     9.21799E+06    -27.0487E+06    -23.6821E+06     103.170E+06     5.95312E+06    -2.13500E+06
             634     37.4469E-03     13.6076E-03     34.8871E-03     59.4156E-03    -28.4019E-03    -31.0776E-03    -28.1542E-03     56.4922E-03    -28.4019E-03     31.6014E-03     128.881E-03     97.3753E+06     61.5776E+06    -22.9266E+06    -43.1373E+06    -22.8381E+06     61.4891E+06    -43.1373E+06    -1.39959E+06
             635     37.0785E-03     12.6358E-03     34.8591E-03     57.8896E-03    -28.4432E-03    -29.5140E-03    -28.0774E-03     56.4530E-03    -28.4432E-03     21.8147E-03     105.998E-03     53.5083E+06     10.1039E+06    -25.5679E+06    -50.9354E+06    -20.3821E+06     4.91808E+06    -50.9354E+06    -66.9531E+03
             636     36.7407E-03     11.6626E-03     34.8405E-03     57.3617E-03    -28.5825E-03    -28.8224E-03    -28.1428E-03     56.7042E-03    -28.6047E-03     14.7430E-03     94.2355E-03     40.3910E+06    -18.4136E+06    -29.3403E+06    -62.9232E+06    -18.6318E+06    -54.2833E+06    -37.7619E+06     261.935E+03
             637     36.4316E-03     10.6903E-03     34.8279E-03     57.5761E-03    -28.7158E-03    -28.8632E-03    -28.3792E-03     57.1142E-03    -28.7380E-03     12.5921E-03     86.6721E-03     74.1381E+06    -17.6053E+06    -24.4967E+06    -94.7594E+06    -17.6323E+06    -94.7324E+06    -24.4967E+06     519.547E+03
             638     36.1451E-03     9.71816E-03     34.8142E-03     57.7420E-03    -28.8013E-03    -28.9293E-03    -28.5237E-03     57.3518E-03    -28.8168E-03     11.4855E-03     80.4978E-03     104.944E+06    -15.9034E+06    -18.6589E+06    -122.194E+06    -17.3652E+06    -122.180E+06    -17.2112E+06     422.019E+03
             639     35.8858E-03     8.74606E-03     34.8037E-03     57.7311E-03    -28.8244E-03    -28.8925E-03    -28.5912E-03     57.4847E-03    -28.8793E-03     9.19964E-03     75.0100E-03     128.937E+06    -13.2732E+06    -17.6858E+06    -144.352E+06    -17.6936E+06    -144.344E+06    -13.2732E+06     228.382E+03
             640     35.6531E-03     7.77403E-03     34.7952E-03     57.8433E-03    -28.8824E-03    -28.9351E-03    -28.6947E-03     57.6442E-03    -28.9237E-03     8.29589E-03     70.8724E-03     146.830E+06    -12.4637E+06    -18.7923E+06    -162.351E+06    -18.7967E+06    -162.347E+06    -12.4637E+06     241.341E+03
             641     35.4449E-03     6.80226E-03     34.7861E-03     57.9508E-03    -28.9463E-03    -28.9996E-03    -28.8050E-03     57.7933E-03    -28.9835E-03     7.36016E-03     67.5708E-03     167.442E+06    -11.4450E+06    -20.7128E+06    -183.316E+06    -20.7170E+06    -183.312E+06    -11.4450E+06    -7.17156E+03
             642     35.2648E-03     5.83038E-03     34.7795E-03     58.0013E-03    -28.9559E-03    -29.0468E-03    -28.8474E-03     57.8879E-03    -29.0420E-03     6.25981E-03     64.8436E-03     185.847E+06    -9.90112E+06    -21.9343E+06    -201.469E+06    -21.9495E+06    -201.454E+06    -9.90112E+06     356.511E+03
             643     35.1108E-03     4.85846E-03     34.7731E-03     58.0073E-03    -28.9522E-03    -29.0557E-03    -28.8734E-03     57.9253E-03    -29.0524E-03     5.31266E-03     62.6588E-03     193.766E+06    -12.3037E+06    -22.4246E+06    -210.911E+06    -22.4363E+06    -210.899E+06    -12.3037E+06     392.385E+03
             644     34.9848E-03     3.88676E-03     34.7682E-03     58.0438E-03    -28.9903E-03    -29.0581E-03    -28.9402E-03     57.9905E-03    -29.0548E-03     4.27583E-03     61.0281E-03     203.255E+06    -17.4583E+06    -23.9801E+06    -223.882E+06    -23.9816E+06    -223.881E+06    -17.4583E+06     6.59218E+03
             645     34.8864E-03     2.91518E-03     34.7644E-03     58.0769E-03    -29.0126E-03    -29.0680E-03    -28.9813E-03     58.0456E-03    -29.0680E-03     3.26281E-03     59.7959E-03     210.392E+06    -22.1359E+06    -27.0064E+06    -234.918E+06    -27.0135E+06    -234.911E+06    -22.1359E+06     498.934E+03
             646     34.8157E-03     1.94306E-03     34.7614E-03     58.0784E-03    -28.9736E-03    -29.1049E-03    -28.9668E-03     58.0627E-03    -29.0959E-03     2.28567E-03     59.0346E-03     210.341E+06    -25.1206E+06    -29.0263E+06    -237.381E+06    -29.0436E+06    -237.364E+06    -25.1206E+06     700.529E+03
             647     34.7730E-03     971.706E-06     34.7594E-03     58.1978E-03    -28.9444E-03    -29.2523E-03    -29.1528E-03     58.1920E-03    -29.0381E-03     1.33724E-03     58.8910E-03     207.695E+06    -27.6242E+06    -30.5270E+06    -236.751E+06    -30.1877E+06    -236.736E+06    -27.9783E+06     199.318E+03
             648     38.2437E-03     16.5311E-03     34.4863E-03     220.291E-03    -29.1174E-03    -191.242E-03    -50.5205E-03     79.5697E-03    -29.1174E-03     390.419E-03     612.124E-03     178.797E+06     179.985E+06     153.222E+06    -10.0163E+06    -9.99517E+06     179.964E+06     153.222E+06     992.883E+03
             649     37.3971E-03     15.5532E-03     34.0094E-03     168.061E-03    -28.9130E-03    -139.191E-03    -43.9252E-03     72.7955E-03    -28.9130E-03     281.538E-03     398.798E-03     146.855E+06     148.413E+06     86.8959E+06    -16.5905E+06    -16.4991E+06     148.322E+06     86.8959E+06     345.119E+03
             650     36.8735E-03     14.5812E-03     33.8680E-03     77.5479E-03    -28.5748E-03    -49.0526E-03    -29.6528E-03     58.1480E-03    -28.5748E-03     85.1147E-03     181.328E-03     118.236E+06     103.320E+06     10.4595E+06    -26.9864E+06    -21.3502E+06     103.237E+06     4.90561E+06    -1.19962E+06
             651     36.4620E-03     13.6080E-03     33.8275E-03     59.0117E-03    -28.3726E-03    -30.6982E-03    -27.7405E-03     56.0540E-03    -28.3726E-03     31.5815E-03     128.519E-03     97.5076E+06     59.6993E+06    -23.2531E+06    -46.2657E+06    -23.2098E+06     59.6559E+06    -46.2657E+06    -1.11932E+06
             652     36.0852E-03     12.6350E-03     33.8009E-03     57.8275E-03    -28.4358E-03    -29.4547E-03    -28.0059E-03     56.3786E-03    -28.4358E-03     21.9460E-03     106.034E-03     53.6207E+06     8.85852E+06    -26.3889E+06    -52.3461E+06    -21.5622E+06     4.03176E+06    -52.3461E+06    -425.158E+03
             653     35.7389E-03     11.6629E-03     33.7823E-03     57.4516E-03    -28.5800E-03    -28.9121E-03    -28.2006E-03     56.7623E-03    -28.6022E-03     15.1076E-03     94.2604E-03     40.0443E+06    -18.7905E+06    -29.4661E+06    -62.9136E+06    -19.0602E+06    -54.1455E+06    -37.9645E+06     280.018E+03
             654     35.4212E-03     10.6903E-03     33.7695E-03     57.5945E-03    -28.7104E-03    -28.8892E-03    -28.4007E-03     57.1283E-03    -28.7326E-03     12.6587E-03     86.6737E-03     74.0388E+06    -17.8411E+06    -25.0701E+06    -95.0476E+06    -17.8775E+06    -95.0112E+06    -25.0701E+06     443.413E+03
             655     35.1265E-03     9.71823E-03     33.7554E-03     57.6946E-03    -28.7848E-03    -28.9030E-03    -28.4875E-03     57.3104E-03    -28.8160E-03     11.3981E-03     80.4656E-03     105.143E+06    -15.6647E+06    -19.0886E+06    -122.470E+06    -17.5174E+06    -122.446E+06    -17.2593E+06     488.008E+03
             656     34.8606E-03     8.74606E-03     33.7456E-03     57.7419E-03    -28.8421E-03    -28.8862E-03    -28.6035E-03     57.4950E-03    -28.8778E-03     9.21487E-03     75.0539E-03     129.013E+06    -13.0989E+06    -17.9580E+06    -144.463E+06    -17.9721E+06    -144.449E+06    -13.0989E+06     547.594E+03
             657     34.6202E-03     7.77420E-03     33.7360E-03     57.8692E-03    -28.9040E-03    -28.9410E-03    -28.7239E-03     57.6694E-03    -28.9212E-03     8.31236E-03     70.9216E-03     146.702E+06    -11.7058E+06    -19.3117E+06    -162.058E+06    -19.3240E+06    -162.046E+06    -11.7058E+06     749.340E+03
             658     34.4071E-03     6.80225E-03     33.7280E-03     57.9261E-03    -28.9235E-03    -28.9936E-03    -28.7768E-03     57.7680E-03    -28.9822E-03     7.37866E-03     67.5641E-03     167.452E+06    -10.3656E+06    -20.9261E+06    -182.847E+06    -20.9364E+06    -182.836E+06    -10.3656E+06     719.593E+03
             659     34.2208E-03     5.83031E-03     33.7205E-03     57.9590E-03    -28.9322E-03    -29.0231E-03    -28.8174E-03     57.8443E-03    -29.0231E-03     6.29334E-03     64.7789E-03     183.874E+06    -12.8990E+06    -22.5296E+06    -201.376E+06    -22.5367E+06    -201.369E+06    -12.8990E+06    -476.455E+03
             660     34.0630E-03     4.85871E-03     33.7147E-03     57.9437E-03    -28.9086E-03    -29.0344E-03    -28.8260E-03     57.8611E-03    -29.0344E-03     5.33282E-03     62.5656E-03     191.419E+06    -16.5883E+06    -23.2859E+06    -211.256E+06    -23.2929E+06    -211.249E+06    -16.5883E+06    -941.211E+03
             661     33.9327E-03     3.88658E-03     33.7094E-03     58.0342E-03    -28.9661E-03    -29.0692E-03    -28.9115E-03     57.9796E-03    -29.0692E-03     4.32538E-03     61.0157E-03     203.775E+06    -17.6212E+06    -24.3190E+06    -224.659E+06    -24.3258E+06    -224.652E+06    -17.6212E+06     468.580E+03
             662     33.8314E-03     2.91479E-03     33.7056E-03     58.1568E-03    -29.0653E-03    -29.0928E-03    -29.0346E-03     58.1261E-03    -29.0928E-03     3.21695E-03     59.8678E-03     211.327E+06    -19.6093E+06    -26.2006E+06    -234.151E+06    -26.2124E+06    -234.140E+06    -19.6093E+06     1.05733E+06
             663     33.7589E-03     1.94362E-03     33.7029E-03     58.1242E-03    -29.0001E-03    -29.1255E-03    -29.0239E-03     58.1097E-03    -29.0873E-03     2.21181E-03     59.0072E-03     210.395E+06    -24.2331E+06    -28.6302E+06    -236.786E+06    -28.6421E+06    -236.774E+06    -24.2331E+06     285.396E+03
             664     33.7150E-03     971.158E-06     33.7010E-03     58.1352E-03    -28.9980E-03    -29.1378E-03    -29.0387E-03     58.1298E-03    -29.0917E-03     1.26118E-03     58.6990E-03     207.765E+06    -28.3538E+06    -30.9028E+06    -237.379E+06    -29.8129E+06    -237.372E+06    -29.4508E+06     180.679E+03
             665     37.2875E-03     16.5239E-03     33.4263E-03     220.501E-03    -29.1463E-03    -191.406E-03    -50.9528E-03     80.0484E-03    -29.1463E-03     390.515E-03     613.088E-03     178.857E+06     179.995E+06     152.787E+06    -10.1598E+06    -10.1588E+06     179.994E+06     152.787E+06    -246.072E+03
             666     36.4366E-03     15.5545E-03     32.9496E-03     168.815E-03    -28.9003E-03    -139.937E-03    -44.8490E-03     73.7270E-03    -28.9003E-03     282.719E-03     399.018E-03     147.300E+06     148.183E+06     84.7736E+06    -17.4413E+06    -17.4101E+06     148.151E+06     84.7736E+06    -110.187E+03
             667     35.9038E-03     14.5814E-03     32.8095E-03     77.4563E-03    -28.5586E-03    -48.9732E-03    -29.3169E-03     57.8000E-03    -28.5586E-03     85.4066E-03     180.596E-03     118.672E+06     102.843E+06     8.71697E+06    -27.8635E+06    -22.2590E+06     102.767E+06     3.18832E+06     600.399E+03
             668     35.4832E-03     13.6080E-03     32.7701E-03     58.9588E-03    -28.3730E-03    -30.6393E-03    -27.6130E-03     55.9326E-03    -28.3730E-03     31.9654E-03     128.372E-03     97.2553E+06     59.6594E+06    -22.8981E+06    -46.0459E+06    -22.8383E+06     59.5996E+06    -46.0459E+06     215.246E+03
             669     35.0956E-03     12.6351E-03     32.7423E-03     57.8013E-03    -28.4409E-03    -29.4217E-03    -27.9526E-03     56.3321E-03    -28.4409E-03     21.9629E-03     105.948E-03     53.3650E+06     8.31803E+06    -26.4006E+06    -52.6222E+06    -21.6303E+06     3.54777E+06    -52.6222E+06    -290.981E+03
             670     34.7400E-03     11.6623E-03     32.7240E-03     57.5764E-03    -28.6011E-03    -29.0157E-03    -28.3465E-03     56.9072E-03    -28.6011E-03     14.9661E-03     94.3414E-03     39.9092E+06    -19.5684E+06    -30.1493E+06    -63.5384E+06    -19.8065E+06    -54.6979E+06    -38.7518E+06    -109.998E+03
             671     34.4132E-03     10.6905E-03     32.7106E-03     57.6122E-03    -28.7244E-03    -28.8870E-03    -28.4221E-03     57.1473E-03    -28.7244E-03     12.6477E-03     86.6113E-03     73.8377E+06    -18.3700E+06    -25.3653E+06    -95.2616E+06    -18.4287E+06    -95.2030E+06    -25.3653E+06     321.570E+03
             672     34.1112E-03     9.71818E-03     32.6975E-03     57.6669E-03    -28.7813E-03    -28.8708E-03    -28.4601E-03     57.2842E-03    -28.8094E-03     11.4010E-03     80.4118E-03     104.787E+06    -16.3838E+06    -19.6946E+06    -122.779E+06    -18.3567E+06    -122.747E+06    -17.7536E+06     578.686E+03
             673     33.8364E-03     8.74610E-03     32.6865E-03     57.7263E-03    -28.8280E-03    -28.8803E-03    -28.5815E-03     57.4714E-03    -28.8719E-03     9.35342E-03     75.0114E-03     128.508E+06    -13.8138E+06    -18.6201E+06    -144.651E+06    -18.6364E+06    -144.635E+06    -13.8138E+06     538.925E+03
             674     33.5900E-03     7.77414E-03     32.6779E-03     57.8516E-03    -28.8883E-03    -28.9431E-03    -28.7135E-03     57.6505E-03    -28.9168E-03     8.33833E-03     70.9025E-03     146.816E+06    -12.5314E+06    -18.8055E+06    -162.372E+06    -18.8188E+06    -162.359E+06    -12.5314E+06     894.825E+03
             675     33.3696E-03     6.80220E-03     32.6690E-03     57.9346E-03    -28.9313E-03    -28.9965E-03    -28.7916E-03     57.7770E-03    -28.9786E-03     7.36560E-03     67.5678E-03     167.470E+06    -10.1483E+06    -19.0177E+06    -181.861E+06    -19.0273E+06    -181.852E+06    -10.1483E+06     753.752E+03
             676     33.1788E-03     5.83047E-03     32.6625E-03     57.9375E-03    -28.9086E-03    -29.0265E-03    -28.7958E-03     57.8247E-03    -29.0265E-03     6.23765E-03     64.7494E-03     184.207E+06    -11.3466E+06    -20.7190E+06    -200.041E+06    -20.7249E+06    -200.035E+06    -11.3466E+06    -73.4402E+03
             677     33.0153E-03     4.85828E-03     32.6559E-03     57.9533E-03    -28.9154E-03    -29.0404E-03    -28.8331E-03     57.8710E-03    -29.0404E-03     5.32611E-03     62.5864E-03     191.676E+06    -16.7118E+06    -24.3466E+06    -212.077E+06    -24.3538E+06    -212.070E+06    -16.7118E+06    -279.058E+03
             678     32.8817E-03     3.88674E-03     32.6512E-03     58.0447E-03    -28.9764E-03    -29.0715E-03    -28.9210E-03     57.9893E-03    -29.0715E-03     4.35543E-03     61.0097E-03     202.404E+06    -19.6094E+06    -27.0660E+06    -225.636E+06    -27.0752E+06    -225.627E+06    -19.6094E+06     100.440E+03
             679     32.7766E-03     2.91510E-03     32.6467E-03     58.1468E-03    -29.0360E-03    -29.1120E-03    -29.0223E-03     58.1153E-03    -29.0942E-03     3.26447E-03     59.8344E-03     210.052E+06    -21.0429E+06    -27.2776E+06    -234.138E+06    -27.2858E+06    -234.130E+06    -21.0429E+06    -153.994E+03
             680     32.7021E-03     1.94297E-03     32.6443E-03     58.2351E-03    -29.0485E-03    -29.1837E-03    -29.1645E-03     58.2206E-03    -29.0532E-03     2.17562E-03     59.1198E-03     210.301E+06    -23.2272E+06    -28.2906E+06    -236.013E+06    -28.2939E+06    -236.010E+06    -23.2272E+06     87.7683E+03
             681     32.6564E-03     972.405E-06     32.6419E-03     57.9718E-03    -28.9122E-03    -29.0568E-03    -29.0281E-03     57.9671E-03    -28.9362E-03     1.18070E-03     58.5477E-03     208.610E+06    -27.3756E+06    -30.8389E+06    -237.690E+06    -30.0989E+06    -237.687E+06    -28.1185E+06     523.698E+03
             682     36.3406E-03     16.5281E-03     32.3645E-03     220.321E-03    -29.1404E-03    -191.108E-03    -50.8105E-03     80.0231E-03    -29.1404E-03     390.064E-03     612.702E-03     178.420E+06     179.406E+06     153.897E+06    -9.59556E+06    -9.59300E+06     179.404E+06     153.897E+06     109.321E+03
             683     35.4830E-03     15.5537E-03     31.8925E-03     168.180E-03    -28.8986E-03    -139.264E-03    -44.2472E-03     73.1629E-03    -28.8986E-03     281.769E-03     398.610E-03     146.955E+06     147.157E+06     84.4367E+06    -18.0003E+06    -17.9512E+06     147.108E+06     84.4367E+06     582.529E+03
             684     34.9372E-03     14.5799E-03     31.7495E-03     77.2967E-03    -28.5714E-03    -48.7944E-03    -29.2083E-03     57.7106E-03    -28.5714E-03     84.9620E-03     180.264E-03     119.385E+06     103.300E+06     8.39964E+06    -27.8525E+06    -23.0268E+06     103.203E+06     3.67034E+06     804.713E+03
             685     34.5088E-03     13.6078E-03     31.7125E-03     59.1485E-03    -28.3845E-03    -30.8178E-03    -27.8462E-03     56.1768E-03    -28.3845E-03     31.7943E-03     128.701E-03     97.7757E+06     60.2928E+06    -23.8229E+06    -45.4785E+06    -23.7170E+06     60.1869E+06    -45.4785E+06     742.875E+03
             686     34.1099E-03     12.6348E-03     31.6835E-03     58.0105E-03    -28.4354E-03    -29.6373E-03    -28.1757E-03     56.5489E-03    -28.4354E-03     21.9149E-03     106.010E-03     53.6078E+06     9.11207E+06    -26.3749E+06    -51.9813E+06    -21.4965E+06     4.23367E+06    -51.9813E+06     235.173E+03
             687     33.7450E-03     11.6631E-03     31.6653E-03     57.4523E-03    -28.5811E-03    -28.9101E-03    -28.2643E-03     56.8129E-03    -28.5876E-03     14.6182E-03     94.2066E-03     40.4620E+06    -19.3751E+06    -30.0739E+06    -63.9349E+06    -19.6647E+06    -54.9651E+06    -38.7540E+06    -148.134E+03
             688     33.4088E-03     10.6902E-03     31.6522E-03     57.5073E-03    -28.7063E-03    -28.7942E-03    -28.3292E-03     57.0488E-03    -28.7129E-03     12.5423E-03     86.5175E-03     74.1140E+06    -18.7249E+06    -26.1281E+06    -96.0870E+06    -18.7942E+06    -96.0178E+06    -26.1281E+06     194.284E+03
             689     33.0978E-03     9.71836E-03     31.6388E-03     57.6725E-03    -28.7856E-03    -28.8641E-03    -28.4675E-03     57.2883E-03    -28.7980E-03     11.4150E-03     80.3913E-03     104.296E+06    -16.6434E+06    -19.8949E+06    -122.518E+06    -18.1541E+06    -122.486E+06    -18.4166E+06     192.171E+03
             690     32.8153E-03     8.74613E-03     31.6283E-03     57.7229E-03    -28.8193E-03    -28.8812E-03    -28.5810E-03     57.4683E-03    -28.8649E-03     9.35016E-03     74.9777E-03     128.715E+06    -14.3012E+06    -18.0230E+06    -144.831E+06    -18.0347E+06    -144.820E+06    -14.3012E+06     213.898E+03
             691     32.5605E-03     7.77409E-03     31.6189E-03     57.8465E-03    -28.8801E-03    -28.9464E-03    -28.7139E-03     57.6472E-03    -28.9134E-03     8.29442E-03     70.9027E-03     147.479E+06    -12.7128E+06    -18.0956E+06    -162.798E+06    -18.1016E+06    -162.792E+06    -12.7128E+06     329.078E+03
             692     32.3343E-03     6.80231E-03     31.6107E-03     57.9145E-03    -28.9022E-03    -29.0105E-03    -28.7837E-03     57.7630E-03    -28.9775E-03     7.21650E-03     67.5579E-03     167.299E+06    -9.52252E+06    -18.8973E+06    -181.288E+06    -18.8986E+06    -181.286E+06    -9.52252E+06     353.006E+03
             693     32.1368E-03     5.83026E-03     31.6035E-03     57.9419E-03    -28.9017E-03    -29.0425E-03    -28.7932E-03     57.8334E-03    -29.0425E-03     6.11905E-03     64.7813E-03     185.944E+06    -7.79910E+06    -20.7147E+06    -199.857E+06    -20.7210E+06    -199.851E+06    -7.79910E+06     863.707E+03
             694     31.9693E-03     4.85864E-03     31.5979E-03     57.9919E-03    -28.9441E-03    -29.0525E-03    -28.8635E-03     57.9114E-03    -29.0525E-03     5.27231E-03     62.6481E-03     194.265E+06    -12.7808E+06    -23.1900E+06    -212.019E+06    -23.1978E+06    -212.011E+06    -12.7808E+06     1.11863E+06
             695     31.8303E-03     3.88670E-03     31.5921E-03     58.0426E-03    -28.9819E-03    -29.0656E-03    -28.9354E-03     57.9883E-03    -29.0579E-03     4.31040E-03     61.0183E-03     203.022E+06    -19.0156E+06    -25.4242E+06    -225.163E+06    -25.4298E+06    -225.157E+06    -19.0156E+06    -125.043E+03
             696     31.7229E-03     2.91477E-03     31.5887E-03     58.1176E-03    -29.0299E-03    -29.0900E-03    -29.0234E-03     58.0857E-03    -29.0646E-03     3.29870E-03     59.8045E-03     209.290E+06    -22.9572E+06    -27.9926E+06    -234.719E+06    -27.9963E+06    -234.715E+06    -22.9572E+06    -630.801E+03
             697     31.6444E-03     1.94373E-03     31.5847E-03     58.1205E-03    -28.9836E-03    -29.1365E-03    -29.0601E-03     58.1049E-03    -29.0444E-03     2.25662E-03     59.0420E-03     208.755E+06    -25.5928E+06    -29.6724E+06    -236.352E+06    -29.6732E+06    -236.351E+06    -25.5928E+06    -189.279E+03
             698     31.5991E-03     971.449E-06     31.5841E-03     58.0181E-03    -28.9137E-03    -29.1039E-03    -29.0161E-03     58.0134E-03    -28.9968E-03     1.10763E-03     58.6835E-03     207.876E+06    -28.1561E+06    -30.1741E+06    -237.025E+06    -30.0593E+06    -237.003E+06    -28.2925E+06    -1.00947E+06
             699     35.4071E-03     16.5292E-03     31.3121E-03     220.527E-03    -29.0958E-03    -191.363E-03    -51.0944E-03     80.2579E-03    -29.0958E-03     390.375E-03     612.024E-03     177.984E+06     179.217E+06     154.574E+06    -9.11759E+06    -9.11215E+06     179.212E+06     154.574E+06     534.172E+03
             700     34.5326E-03     15.5538E-03     30.8315E-03     168.546E-03    -28.8781E-03    -139.660E-03    -43.7713E-03     72.6573E-03    -28.8781E-03     282.908E-03     398.420E-03     146.190E+06     146.598E+06     86.5151E+06    -17.4835E+06    -17.4397E+06     146.555E+06     86.5151E+06     1.45343E+06
             701     33.9809E-03     14.5817E-03     30.6933E-03     77.1709E-03    -28.5743E-03    -48.6509E-03    -29.1878E-03     57.7078E-03    -28.5743E-03     84.6537E-03     180.470E-03     118.360E+06     103.171E+06     9.88221E+06    -26.6385E+06    -22.5254E+06     103.063E+06     5.87791E+06     1.34402E+06
             702     33.5371E-03     13.6072E-03     30.6526E-03     59.3124E-03    -28.3810E-03    -30.9862E-03    -28.0640E-03     56.3902E-03    -28.3810E-03     31.4855E-03     128.931E-03     97.3902E+06     61.3248E+06    -23.0854E+06    -43.6848E+06    -22.9267E+06     61.1661E+06    -43.6848E+06     590.622E+03
             703     33.1297E-03     12.6361E-03     30.6253E-03     57.9177E-03    -28.4134E-03    -29.5686E-03    -28.1731E-03     56.5222E-03    -28.4134E-03     21.5312E-03     105.997E-03     53.8019E+06     9.85164E+06    -26.5554E+06    -51.4792E+06    -21.1648E+06     4.46108E+06    -51.4792E+06     138.802E+03
             704     32.7537E-03     11.6628E-03     30.6069E-03     57.3299E-03    -28.5647E-03    -28.8071E-03    -28.1504E-03     56.6797E-03    -28.5712E-03     14.6812E-03     94.0824E-03     40.9457E+06    -18.8732E+06    -30.1430E+06    -64.0066E+06    -19.2649E+06    -55.2863E+06    -38.4717E+06     355.866E+03
             705     32.4084E-03     10.6908E-03     30.5943E-03     57.4468E-03    -28.6974E-03    -28.7492E-03    -28.2830E-03     56.9871E-03    -28.7040E-03     12.5485E-03     86.4635E-03     74.2488E+06    -18.1241E+06    -26.0170E+06    -95.8622E+06    -18.1704E+06    -95.8158E+06    -26.0170E+06     136.127E+03
             706     32.0872E-03     9.71812E-03     30.5801E-03     57.6330E-03    -28.7751E-03    -28.8422E-03    -28.4418E-03     57.2463E-03    -28.7889E-03     11.4276E-03     80.3576E-03     104.425E+06    -16.2109E+06    -20.0193E+06    -122.480E+06    -17.7562E+06    -122.458E+06    -18.4963E+06    -109.649E+03
             707     31.7965E-03     8.74633E-03     30.5699E-03     57.7389E-03    -28.8254E-03    -28.8953E-03    -28.6123E-03     57.4872E-03    -28.8566E-03     9.30846E-03     75.0262E-03     129.237E+06    -13.9042E+06    -17.9291E+06    -145.098E+06    -17.9399E+06    -145.087E+06    -13.9042E+06     75.8001E+03
             708     31.5338E-03     7.77428E-03     30.5605E-03     57.8027E-03    -28.8386E-03    -28.9412E-03    -28.6760E-03     57.6026E-03    -28.9038E-03     8.30550E-03     70.8590E-03     147.545E+06    -12.5801E+06    -18.9611E+06    -163.202E+06    -18.9653E+06    -163.198E+06    -12.5801E+06     191.942E+03
             709     31.3000E-03     6.80239E-03     30.5519E-03     57.8573E-03    -28.8689E-03    -28.9854E-03    -28.7362E-03     57.7072E-03    -28.9680E-03     7.17692E-03     67.5032E-03     166.448E+06    -10.0512E+06    -20.5751E+06    -181.500E+06    -20.5781E+06    -181.497E+06    -10.0512E+06     454.029E+03
             710     31.0969E-03     5.83052E-03     30.5454E-03     57.9512E-03    -28.9250E-03    -29.0300E-03    -28.8177E-03     57.8415E-03    -29.0277E-03     6.15863E-03     64.7945E-03     184.807E+06    -9.06110E+06    -22.3878E+06    -200.167E+06    -22.3951E+06    -200.159E+06    -9.06110E+06     870.445E+03
             711     30.9228E-03     4.85857E-03     30.5387E-03     57.9909E-03    -28.9505E-03    -29.0450E-03    -28.8798E-03     57.9096E-03    -29.0344E-03     5.28619E-03     62.6481E-03     193.346E+06    -12.8340E+06    -24.0445E+06    -211.524E+06    -24.0507E+06    -211.517E+06    -12.8340E+06     822.982E+03
             712     30.7806E-03     3.88681E-03     30.5342E-03     58.0411E-03    -28.9917E-03    -29.0526E-03    -28.9665E-03     57.9877E-03    -29.0243E-03     4.28420E-03     60.9989E-03     202.005E+06    -18.8223E+06    -26.0460E+06    -224.330E+06    -26.0543E+06    -224.321E+06    -18.8223E+06     626.490E+03
             713     30.6681E-03     2.91541E-03     30.5292E-03     58.0114E-03    -28.9739E-03    -29.0385E-03    -28.9606E-03     57.9805E-03    -29.0208E-03     3.22588E-03     59.6897E-03     208.467E+06    -23.8372E+06    -28.3264E+06    -234.509E+06    -28.3362E+06    -234.500E+06    -23.8372E+06        -721.730
             714     30.5891E-03     1.94306E-03     30.5273E-03     57.9483E-03    -28.9040E-03    -29.0491E-03    -28.8890E-03     57.9333E-03    -29.0491E-03     2.24270E-03     58.8941E-03     207.620E+06    -27.5062E+06    -30.3053E+06    -236.508E+06    -30.3094E+06    -236.504E+06    -27.5062E+06    -667.582E+03
             715     30.5398E-03     971.631E-06     30.5244E-03     58.1214E-03    -28.9439E-03    -29.1815E-03    -29.0783E-03     58.1165E-03    -29.0421E-03     1.01823E-03     58.7612E-03     206.358E+06    -30.7065E+06    -32.4652E+06    -237.936E+06    -32.3508E+06    -237.914E+06    -30.8429E+06    -1.49815E+06
             716     34.4749E-03     16.5289E-03     30.2542E-03     219.788E-03    -29.0811E-03    -190.662E-03    -51.1668E-03     80.2930E-03    -29.0811E-03     388.815E-03     611.314E-03     178.381E+06     178.856E+06     153.097E+06    -10.2427E+06    -10.2383E+06     178.852E+06     153.097E+06     285.389E+03
             717     33.5937E-03     15.5550E-03     29.7755E-03     169.272E-03    -28.8565E-03    -140.406E-03    -44.0296E-03     72.8949E-03    -28.8565E-03     284.307E-03     398.895E-03     146.772E+06     145.734E+06     84.7500E+06    -19.2721E+06    -19.2441E+06     145.706E+06     84.7500E+06     782.845E+03
             718     33.0258E-03     14.5795E-03     29.6334E-03     77.3481E-03    -28.5588E-03    -48.8438E-03    -29.3001E-03     57.8045E-03    -28.5588E-03     84.8798E-03     180.573E-03     118.332E+06     103.147E+06      9.3415E+06    -26.1194E+06    -23.1479E+06     103.039E+06     6.47800E+06     834.959E+03
             719     32.5734E-03     13.6095E-03     29.5941E-03     59.1644E-03    -28.3625E-03    -30.8573E-03    -27.9149E-03     56.2220E-03    -28.3625E-03     31.6039E-03     128.724E-03     97.7576E+06     61.7435E+06    -22.9053E+06    -43.3119E+06    -22.6996E+06     61.5378E+06    -43.3119E+06     595.125E+03
             720     32.1534E-03     12.6353E-03     29.5667E-03     57.7698E-03    -28.4003E-03    -29.4375E-03    -27.9959E-03     56.3282E-03    -28.4003E-03     21.8063E-03     105.837E-03     54.1066E+06     9.57337E+06    -26.2263E+06    -52.2257E+06    -20.8359E+06     4.18298E+06    -52.2257E+06     725.767E+03
             721     31.7673E-03     11.6634E-03     29.5487E-03     57.4178E-03    -28.5652E-03    -28.8986E-03    -28.2325E-03     56.7518E-03    -28.5652E-03     14.8819E-03     94.1751E-03     40.5361E+06    -19.0950E+06    -30.3308E+06    -63.8308E+06    -19.3518E+06    -55.1178E+06    -38.7870E+06     577.292E+03
             722     31.4108E-03     10.6906E-03     29.5355E-03     57.5087E-03    -28.6930E-03    -28.8201E-03    -28.3615E-03     57.0501E-03    -28.6930E-03     12.5476E-03     86.5358E-03     73.5974E+06    -18.2714E+06    -26.0207E+06    -95.2713E+06    -18.3054E+06    -95.2372E+06    -26.0207E+06     164.863E+03
             723     31.0806E-03     9.71877E-03     29.5220E-03     57.5860E-03    -28.7401E-03    -28.8376E-03    -28.4169E-03     57.2002E-03    -28.7750E-03     11.4402E-03     80.3117E-03     104.335E+06    -16.4655E+06    -19.9721E+06    -122.504E+06    -17.9769E+06    -122.485E+06    -18.4805E+06     116.071E+03
             724     30.7798E-03     8.74617E-03     29.5110E-03     57.6508E-03    -28.7708E-03    -28.8655E-03    -28.5363E-03     57.3939E-03    -28.8432E-03     9.37960E-03     74.9435E-03     129.049E+06    -14.1726E+06    -18.6368E+06    -145.389E+06    -18.6490E+06    -145.377E+06    -14.1726E+06     243.227E+03
             725     30.5092E-03     7.77453E-03     29.5020E-03     57.7437E-03    -28.8051E-03    -28.9129E-03    -28.6272E-03     57.5433E-03    -28.8904E-03     8.31219E-03     70.7935E-03     147.086E+06    -13.5192E+06    -19.4580E+06    -163.482E+06    -19.4618E+06    -163.478E+06    -13.5192E+06     324.536E+03
             726     30.2680E-03     6.80222E-03     29.4938E-03     57.8369E-03    -28.8714E-03    -28.9582E-03    -28.7195E-03     57.6825E-03    -28.9557E-03     7.27894E-03     67.4543E-03     166.629E+06    -11.2719E+06    -19.9809E+06    -182.072E+06    -19.9845E+06    -182.069E+06    -11.2719E+06     524.058E+03
             727     30.0574E-03     5.83052E-03     29.4864E-03     57.9773E-03    -28.9410E-03    -29.0379E-03    -28.8552E-03     57.8661E-03    -29.0125E-03     6.20176E-03     64.8146E-03     184.559E+06    -10.0062E+06    -21.7013E+06    -200.134E+06    -21.7060E+06    -200.129E+06    -10.0062E+06     736.985E+03
             728     29.8784E-03     4.85869E-03     29.4807E-03     58.0325E-03    -28.9787E-03    -29.0580E-03    -28.9414E-03     57.9509E-03    -29.0137E-03     5.30312E-03     62.6892E-03     193.069E+06    -12.8099E+06    -23.9916E+06    -211.224E+06    -23.9962E+06    -211.220E+06    -12.8099E+06     750.512E+03
             729     29.7300E-03     3.88710E-03     29.4748E-03     57.9820E-03    -28.9515E-03    -29.0336E-03    -28.9294E-03     57.9286E-03    -29.0024E-03     4.26938E-03     60.9287E-03     202.073E+06    -16.9848E+06    -26.2325E+06    -223.515E+06    -26.2409E+06    -223.506E+06    -16.9848E+06     895.659E+03
             730     29.6155E-03     2.91508E-03     29.4716E-03     57.9403E-03    -28.9063E-03    -29.0344E-03    -28.9065E-03     57.9085E-03    -29.0023E-03     3.28273E-03     59.6266E-03     208.408E+06    -22.6878E+06    -28.3150E+06    -233.838E+06    -28.3253E+06    -233.827E+06    -22.6878E+06     414.084E+03
             731     29.5323E-03     1.94364E-03     29.4682E-03     57.9890E-03    -28.9159E-03    -29.0748E-03    -28.9755E-03     57.9740E-03    -29.0002E-03     2.17259E-03     58.9371E-03     207.691E+06    -27.6217E+06    -30.5109E+06    -236.741E+06    -30.5160E+06    -236.736E+06    -27.6217E+06    -202.881E+03
             732     29.4826E-03     971.512E-06     29.4666E-03     57.9559E-03    -28.7918E-03    -29.1653E-03    -29.1221E-03     57.9518E-03    -28.8309E-03     1.03820E-03     58.6007E-03     206.387E+06    -31.5928E+06    -34.3562E+06    -239.347E+06    -33.4916E+06    -239.345E+06    -32.4589E+06    -71.1828E+03
             733     33.5516E-03     16.5290E-03     29.1977E-03     220.185E-03    -29.1357E-03    -190.989E-03    -51.4343E-03     80.6301E-03    -29.1357E-03     389.366E-03     612.738E-03     178.291E+06     178.306E+06     153.043E+06    -10.5080E+06    -10.4945E+06     178.293E+06     153.043E+06     838.053E+03
             734     32.6581E-03     15.5534E-03     28.7166E-03     169.548E-03    -28.8724E-03    -140.669E-03    -45.2068E-03     74.0862E-03    -28.8724E-03     283.977E-03     399.261E-03     147.247E+06     146.619E+06     85.2139E+06    -18.8377E+06    -18.7931E+06     146.575E+06     85.2139E+06     891.775E+03
             735     32.0809E-03     14.5833E-03     28.5747E-03     76.9463E-03    -28.5280E-03    -48.4810E-03    -29.0382E-03     57.5035E-03    -28.5280E-03     84.7649E-03     179.889E-03     119.210E+06     103.412E+06     9.63208E+06    -27.6191E+06    -22.7218E+06     103.310E+06     4.83654E+06     397.117E+03
             736     31.6145E-03     13.6073E-03     28.5362E-03     58.8785E-03    -28.3518E-03    -30.5852E-03    -27.5617E-03     55.8550E-03    -28.3518E-03     31.8390E-03     128.613E-03     97.7883E+06     60.7231E+06    -23.9498E+06    -44.9129E+06    -23.7865E+06     60.5598E+06    -44.9129E+06     749.953E+03
             737     31.1830E-03     12.6356E-03     28.5083E-03     57.8422E-03    -28.4135E-03    -29.5008E-03    -28.0621E-03     56.4036E-03    -28.4135E-03     21.7848E-03     105.990E-03     53.5433E+06     9.27528E+06    -26.5614E+06    -51.5640E+06    -21.9100E+06     4.62388E+06    -51.5640E+06     1.02563E+06
             738     30.7850E-03     11.6629E-03     28.4903E-03     57.4751E-03    -28.5663E-03    -28.9564E-03    -28.2937E-03     56.8123E-03    -28.5663E-03     14.8729E-03     94.2914E-03     40.0481E+06    -19.4835E+06    -29.9647E+06    -63.5878E+06    -19.7841E+06    -54.4521E+06    -38.7999E+06     618.665E+03
             739     30.4177E-03     10.6912E-03     28.4770E-03     57.5716E-03    -28.6848E-03    -28.8885E-03    -28.4183E-03     57.1015E-03    -28.6848E-03     12.7093E-03     86.6023E-03     72.9222E+06    -19.0782E+06    -26.6732E+06    -95.3365E+06    -19.1155E+06    -95.2992E+06    -26.6732E+06     382.084E+03
             740     30.0772E-03     9.71864E-03     28.4638E-03     57.6399E-03    -28.7404E-03    -28.8903E-03    -28.4742E-03     57.2448E-03    -28.7615E-03     11.5714E-03     80.3269E-03     103.457E+06    -17.2118E+06    -20.7645E+06    -122.396E+06    -18.8352E+06    -122.374E+06    -19.1634E+06     489.934E+03
             741     29.7667E-03     8.74672E-03     28.4526E-03     57.5674E-03    -28.7150E-03    -28.8450E-03    -28.4703E-03     57.3078E-03    -28.8302E-03     9.42468E-03     74.8378E-03     128.797E+06    -14.7304E+06    -18.6461E+06    -145.439E+06    -18.6529E+06    -145.432E+06    -14.7304E+06     283.234E+03
             742     29.4869E-03     7.77415E-03     28.4436E-03     57.6799E-03    -28.7768E-03    -28.8843E-03    -28.5750E-03     57.4780E-03    -28.8841E-03     8.33645E-03     70.7451E-03     147.673E+06    -13.2472E+06    -18.7147E+06    -163.576E+06    -18.7185E+06    -163.572E+06    -13.2472E+06    -107.836E+03
             743     29.2375E-03     6.80262E-03     28.4351E-03     57.8597E-03    -28.8983E-03    -28.9524E-03    -28.7469E-03     57.7039E-03    -28.9480E-03     7.31934E-03     67.4925E-03     167.379E+06    -11.4492E+06    -19.6387E+06    -182.767E+06    -19.6442E+06    -182.762E+06    -11.4492E+06     270.191E+03
             744     29.0200E-03     5.83040E-03     28.4283E-03     58.0013E-03    -28.9635E-03    -29.0333E-03    -28.8836E-03     57.8880E-03    -29.0000E-03     6.25591E-03     64.8363E-03     184.988E+06    -10.3391E+06    -21.1076E+06    -200.475E+06    -21.1125E+06    -200.470E+06    -10.3391E+06     803.193E+03
             745     28.8339E-03     4.85891E-03     28.4216E-03     58.0271E-03    -28.9886E-03    -29.0397E-03    -28.9468E-03     57.9455E-03    -29.0000E-03     5.30039E-03     62.6770E-03     193.575E+06    -11.9715E+06    -22.9728E+06    -210.811E+06    -22.9779E+06    -210.806E+06    -11.9715E+06     874.749E+03
             746     28.6815E-03     3.88705E-03     28.4169E-03     57.9486E-03    -28.9274E-03    -29.0280E-03    -28.9143E-03     57.8972E-03    -28.9897E-03     4.18299E-03     60.9309E-03     203.568E+06    -15.4087E+06    -24.6639E+06    -223.437E+06    -24.6686E+06    -223.432E+06    -15.4087E+06     730.289E+03
             747     28.5620E-03     2.91524E-03     28.4129E-03     57.9634E-03    -28.9289E-03    -29.0387E-03    -28.9578E-03     57.9333E-03    -28.9798E-03     3.20137E-03     59.6923E-03     209.011E+06    -20.6826E+06    -27.4357E+06    -232.980E+06    -27.4445E+06    -232.971E+06    -20.6826E+06     1.09003E+06
             748     28.4760E-03     1.94338E-03     28.4096E-03     57.9634E-03    -28.9322E-03    -29.0302E-03    -29.0154E-03     57.9486E-03    -28.9322E-03     2.15286E-03     58.9083E-03     207.962E+06    -26.8328E+06    -30.8511E+06    -236.769E+06    -30.8578E+06    -236.762E+06    -26.8328E+06     871.438E+03
             749     28.4246E-03     972.313E-06     28.4080E-03     57.7598E-03    -28.7438E-03    -29.0153E-03    -29.0111E-03     57.7555E-03    -28.7438E-03     1.14700E-03     58.4446E-03     207.118E+06    -30.2958E+06    -34.0798E+06    -239.274E+06    -33.2181E+06    -239.270E+06    -31.1619E+06     677.580E+03
             750     32.6254E-03     16.5220E-03     28.1326E-03     220.271E-03    -29.1604E-03    -191.055E-03    -51.6163E-03     80.8323E-03    -29.1604E-03     389.403E-03     612.224E-03     177.919E+06     177.897E+06     153.831E+06    -10.1117E+06    -10.0963E+06     177.881E+06     153.831E+06     940.653E+03
             751     31.7312E-03     15.5568E-03     27.6559E-03     168.002E-03    -28.8751E-03    -139.121E-03    -44.9841E-03     73.8646E-03    -28.8751E-03     281.140E-03     398.016E-03     146.504E+06     147.003E+06     86.2816E+06    -17.3468E+06    -17.2831E+06     146.939E+06     86.2816E+06     1.15653E+06
             752     31.1429E-03     14.5803E-03     27.5189E-03     77.1541E-03    -28.5287E-03    -48.6801E-03    -28.7922E-03     57.2663E-03    -28.5287E-03     85.5865E-03     180.071E-03     118.311E+06     103.278E+06     9.74409E+06    -26.6837E+06    -21.9523E+06     103.183E+06     5.10738E+06     1.31657E+06
             753     30.6625E-03     13.6089E-03     27.4771E-03     59.1282E-03    -28.3603E-03    -30.8222E-03    -27.7525E-03     56.0585E-03    -28.3603E-03     32.1375E-03     128.700E-03     97.0342E+06     61.1670E+06    -22.5029E+06    -43.6752E+06    -22.4046E+06     61.0687E+06    -43.6752E+06     1.01506E+06
             754     30.2188E-03     12.6355E-03     27.4504E-03     57.8176E-03    -28.4123E-03    -29.4748E-03    -28.0402E-03     56.3831E-03    -28.4123E-03     21.7734E-03     105.947E-03     53.5471E+06     9.87773E+06    -25.9771E+06    -51.1035E+06    -20.7253E+06     4.62599E+06    -51.1035E+06     840.034E+03
             755     29.8079E-03     11.6634E-03     27.4314E-03     57.4432E-03    -28.5652E-03    -28.9259E-03    -28.2595E-03     56.7768E-03    -28.5652E-03     14.8940E-03     94.2611E-03     40.4746E+06    -18.9426E+06    -30.2788E+06    -63.6624E+06    -19.2363E+06    -54.7778E+06    -38.8698E+06     1.04689E+06
             756     29.4295E-03     10.6904E-03     27.4191E-03     57.5711E-03    -28.6879E-03    -28.8825E-03    -28.4082E-03     57.0968E-03    -28.6879E-03     12.7631E-03     86.5560E-03     73.4911E+06    -18.1530E+06    -26.3632E+06    -95.2363E+06    -18.2106E+06    -95.1787E+06    -26.3632E+06     754.829E+03
             757     29.0770E-03     9.71878E-03     27.4047E-03     57.6949E-03    -28.7611E-03    -28.9244E-03    -28.5244E-03     57.2949E-03    -28.7611E-03     11.6384E-03     80.3738E-03     103.772E+06    -17.4683E+06    -20.4661E+06    -122.688E+06    -18.1212E+06    -122.665E+06    -19.8358E+06     668.614E+03
             758     28.7572E-03     8.74652E-03     27.3948E-03     57.6444E-03    -28.7650E-03    -28.8775E-03    -28.5594E-03     57.3829E-03    -28.8216E-03     9.47564E-03     74.8957E-03     127.830E+06    -15.6526E+06    -18.5540E+06    -144.901E+06    -18.5177E+06    -144.892E+06    -15.6982E+06     611.738E+03
             759     28.4673E-03     7.77464E-03     27.3851E-03     57.6820E-03    -28.7707E-03    -28.8922E-03    -28.5919E-03     57.4777E-03    -28.8667E-03     8.38178E-03     70.7078E-03     145.764E+06    -14.6224E+06    -20.0937E+06    -163.043E+06    -20.1027E+06    -163.034E+06    -14.6224E+06     420.155E+03
             760     28.2092E-03     6.80221E-03     27.3768E-03     57.8401E-03    -28.8892E-03    -28.9385E-03    -28.7444E-03     57.6853E-03    -28.9286E-03     7.29598E-03     67.4549E-03     165.952E+06    -13.5745E+06    -22.5282E+06    -183.810E+06    -22.5389E+06    -183.800E+06    -13.5745E+06     586.627E+03
             761     27.9836E-03     5.83080E-03     27.3694E-03     57.9355E-03    -28.9465E-03    -28.9848E-03    -28.8496E-03     57.8225E-03    -28.9689E-03     6.24356E-03     64.7547E-03     181.729E+06    -13.8549E+06    -24.1583E+06    -200.507E+06    -24.1613E+06    -200.504E+06    -13.8549E+06     461.436E+03
             762     27.7912E-03     4.85879E-03     27.3632E-03     57.9231E-03    -28.9356E-03    -28.9897E-03    -28.8757E-03     57.8428E-03    -28.9692E-03     5.25426E-03     62.5563E-03     190.234E+06    -15.7852E+06    -24.9081E+06    -210.410E+06    -24.9107E+06    -210.408E+06    -15.7852E+06    -143.038E+03
             763     27.6331E-03     3.88705E-03     27.3584E-03     58.0030E-03    -28.9493E-03    -29.0618E-03    -28.9997E-03     57.9523E-03    -28.9606E-03     4.15957E-03     60.9924E-03     202.219E+06    -18.3168E+06    -26.4659E+06    -224.478E+06    -26.4735E+06    -224.470E+06    -18.3168E+06     530.707E+03
             764     27.5092E-03     2.91554E-03     27.3543E-03     57.9418E-03    -28.9254E-03    -29.0224E-03    -28.9938E-03     57.9132E-03    -28.9254E-03     3.11529E-03     59.6686E-03     208.032E+06    -21.8471E+06    -28.0948E+06    -232.926E+06    -28.1056E+06    -232.916E+06    -21.8471E+06     1.36454E+06
             765     27.4204E-03     1.94391E-03     27.3514E-03     57.7687E-03    -28.8315E-03    -28.9356E-03    -28.8418E-03     57.7546E-03    -28.9111E-03     2.15539E-03     58.6784E-03     208.213E+06    -24.5848E+06    -29.7024E+06    -235.303E+06    -29.7141E+06    -235.291E+06    -24.5848E+06     1.19539E+06
             766     27.3669E-03     971.430E-06     27.3496E-03     57.7843E-03    -28.7884E-03    -28.9951E-03    -28.9108E-03     57.7796E-03    -28.8681E-03     1.15963E-03     58.4417E-03     207.416E+06    -27.8319E+06    -33.8321E+06    -238.176E+06    -32.0014E+06    -238.165E+06    -29.6738E+06     788.495E+03
             767     31.7175E-03     16.5322E-03     27.0682E-03     220.498E-03    -29.0901E-03    -191.395E-03    -51.4616E-03     80.5653E-03    -29.0901E-03     390.134E-03     611.685E-03     177.581E+06     177.541E+06     153.659E+06    -10.0652E+06    -10.0601E+06     177.536E+06     153.659E+06     583.596E+03
             768     30.8163E-03     15.5539E-03     26.6030E-03     167.226E-03    -28.8540E-03    -138.391E-03    -43.3897E-03     72.2242E-03    -28.8540E-03     280.648E-03     397.691E-03     145.820E+06     145.691E+06     86.0606E+06    -17.8640E+06    -17.8093E+06     145.636E+06     86.0606E+06     644.808E+03
             769     30.2094E-03     14.5811E-03     26.4575E-03     77.6374E-03    -28.5551E-03    -49.1359E-03    -29.0801E-03     57.5816E-03    -28.5551E-03     86.0028E-03     180.894E-03     117.344E+06     103.489E+06     10.8673E+06    -25.1833E+06    -21.0743E+06     103.403E+06     6.84450E+06     1.13775E+06
             770     29.7186E-03     13.6081E-03     26.4200E-03     59.2114E-03    -28.3731E-03    -30.8894E-03    -27.8579E-03     56.1799E-03    -28.3731E-03     32.1288E-03     128.699E-03     96.3427E+06     61.3583E+06    -21.0909E+06    -42.7199E+06    -21.0156E+06     61.2830E+06    -42.7199E+06     1.54490E+06
             771     29.2599E-03     12.6355E-03     26.3910E-03     57.8892E-03    -28.4188E-03    -29.5362E-03    -28.0426E-03     56.3956E-03    -28.4188E-03     22.1586E-03     105.946E-03     53.0758E+06      9.2559E+06    -25.4078E+06    -51.4432E+06    -20.1437E+06     3.99187E+06    -51.4432E+06     1.56896E+06
             772     28.8373E-03     11.6628E-03     26.3736E-03     57.4915E-03    -28.5731E-03    -28.9692E-03    -28.2988E-03     56.8212E-03    -28.5731E-03     14.9727E-03     94.3309E-03     40.4393E+06    -18.1414E+06    -30.0884E+06    -63.0149E+06    -18.4736E+06    -54.2535E+06    -38.5177E+06     1.17442E+06
             773     28.4454E-03     10.6911E-03     26.3598E-03     57.5906E-03    -28.6917E-03    -28.9108E-03    -28.4378E-03     57.1177E-03    -28.6917E-03     12.7550E-03     86.5578E-03     74.1868E+06    -17.1175E+06    -26.0073E+06    -95.1440E+06    -17.1873E+06    -95.0743E+06    -26.0073E+06     1.08330E+06
             774     28.0821E-03     9.71842E-03     26.3468E-03     57.6771E-03    -28.7669E-03    -28.9093E-03    -28.5181E-03     57.2858E-03    -28.7669E-03     11.5291E-03     80.3717E-03     105.208E+06    -16.5134E+06    -19.2608E+06    -123.044E+06    -16.7957E+06    -123.007E+06    -19.0154E+06     948.437E+03
             775     27.7501E-03     8.74645E-03     26.3356E-03     57.7449E-03    -28.8205E-03    -28.9190E-03    -28.6609E-03     57.4868E-03    -28.8205E-03     9.41536E-03     74.9870E-03     128.637E+06    -14.8274E+06    -17.1770E+06    -144.615E+06    -17.1524E+06    -144.594E+06    -14.8731E+06     1.17370E+06
             776     27.4509E-03     7.77454E-03     26.3270E-03     57.8351E-03    -28.8339E-03    -28.9774E-03    -28.7538E-03     57.6377E-03    -28.8602E-03     8.25581E-03     70.8220E-03     147.894E+06    -12.5446E+06    -18.4889E+06    -163.311E+06    -18.5222E+06    -163.277E+06    -12.5446E+06     2.00705E+06
             777     27.1831E-03     6.80287E-03     26.3181E-03     57.8323E-03    -28.8462E-03    -28.9738E-03    -28.7550E-03     57.6808E-03    -28.9136E-03     7.21944E-03     67.4338E-03     167.858E+06    -10.9014E+06    -20.6039E+06    -183.388E+06    -20.6295E+06    -183.363E+06    -10.9014E+06     1.76088E+06
             778     26.9493E-03     5.83073E-03     26.3110E-03     57.8391E-03    -28.8781E-03    -28.9605E-03    -28.7889E-03     57.7309E-03    -28.9415E-03     6.09861E-03     64.6638E-03     181.158E+06    -12.9732E+06    -22.9811E+06    -198.918E+06    -22.9875E+06    -198.911E+06    -12.9732E+06     198.972E+03
             779     26.7500E-03     4.85893E-03     26.3050E-03     57.8624E-03    -28.9017E-03    -28.9653E-03    -28.8532E-03     57.7861E-03    -28.9375E-03     5.12522E-03     62.4776E-03     189.988E+06    -17.3943E+06    -25.3265E+06    -211.222E+06    -25.3349E+06    -211.214E+06    -17.3943E+06    -142.016E+03
             780     26.5853E-03     3.88720E-03     26.2996E-03     57.8981E-03    -28.8947E-03    -29.0101E-03    -28.9163E-03     57.8462E-03    -28.9366E-03     4.21494E-03     60.8502E-03     202.029E+06    -19.6663E+06    -27.2954E+06    -225.401E+06    -27.3100E+06    -225.386E+06    -19.6663E+06     119.957E+03
             781     26.4571E-03     2.91559E-03     26.2960E-03     57.8722E-03    -28.8934E-03    -28.9827E-03    -28.9239E-03     57.8418E-03    -28.9218E-03     3.19166E-03     59.5711E-03     207.898E+06    -21.9838E+06    -28.0526E+06    -232.844E+06    -28.0621E+06    -232.834E+06    -21.9838E+06     322.024E+03
             782     26.3649E-03     1.94351E-03     26.2932E-03     57.7829E-03    -28.8404E-03    -28.9408E-03    -28.8466E-03     57.7683E-03    -28.9201E-03     2.19732E-03     58.7057E-03     207.649E+06    -25.0469E+06    -29.0634E+06    -234.664E+06    -29.0715E+06    -234.655E+06    -25.0469E+06     1.02569E+06
             783     26.3094E-03     971.881E-06     26.2914E-03     57.8171E-03    -28.8164E-03    -28.9996E-03    -28.9144E-03     57.8115E-03    -28.8961E-03     1.30296E-03     58.4501E-03     205.975E+06    -28.2569E+06    -33.0650E+06    -236.578E+06    -31.2405E+06    -236.561E+06    -30.0988E+06     1.12530E+06
             784     30.8236E-03     16.5288E-03     26.0171E-03     220.647E-03    -29.0820E-03    -191.550E-03    -51.2929E-03     80.3900E-03    -29.0820E-03     390.573E-03     612.373E-03     177.531E+06     177.197E+06     154.012E+06    -10.0877E+06    -10.0846E+06     177.194E+06     154.012E+06     437.433E+03
             785     29.9052E-03     15.5541E-03     25.5419E-03     167.876E-03    -28.8654E-03    -139.037E-03    -43.2908E-03     72.1298E-03    -28.8654E-03     282.097E-03     398.089E-03     145.831E+06     145.387E+06     86.1794E+06    -18.0625E+06    -18.0310E+06     145.356E+06     86.1794E+06     281.054E+03
             786     29.2885E-03     14.5814E-03     25.4008E-03     77.8520E-03    -28.5701E-03    -49.3380E-03    -29.0860E-03     57.5999E-03    -28.5701E-03     86.7530E-03     181.086E-03     117.559E+06     102.264E+06     10.1763E+06    -27.1986E+06    -21.8598E+06     102.203E+06     4.89867E+06     1.16723E+06
             787     28.7807E-03     13.6077E-03     25.3606E-03     59.3705E-03    -28.3879E-03    -31.0408E-03    -27.9597E-03     56.2895E-03    -28.3879E-03     32.2959E-03     128.784E-03     97.1911E+06     60.6551E+06    -22.7137E+06    -44.7458E+06    -22.6215E+06     60.5629E+06    -44.7458E+06     2.19972E+06
             788     28.3095E-03     12.6353E-03     25.3333E-03     57.9865E-03    -28.4353E-03    -29.6229E-03    -28.1668E-03     56.5304E-03    -28.4353E-03     21.9951E-03     106.081E-03     53.8426E+06     9.94126E+06    -26.0567E+06    -51.4346E+06    -20.8998E+06     4.78429E+06    -51.4346E+06     1.56661E+06
             789     27.8721E-03     11.6631E-03     25.3145E-03     57.5769E-03    -28.5825E-03    -29.0473E-03    -28.3681E-03     56.8976E-03    -28.5825E-03     15.0343E-03     94.3769E-03     40.7756E+06    -18.0321E+06    -29.7248E+06    -63.1911E+06    -18.4140E+06    -54.1858E+06    -38.3481E+06     1.08204E+06
             790     27.4676E-03     10.6905E-03     25.3018E-03     57.6686E-03    -28.6929E-03    -28.9834E-03    -28.5220E-03     57.2071E-03    -28.6929E-03     12.6067E-03     86.6467E-03     74.2039E+06    -17.3012E+06    -25.8614E+06    -95.2179E+06    -17.3813E+06    -95.1379E+06    -25.8614E+06     1.36758E+06
             791     27.0912E-03     9.71880E-03     25.2879E-03     57.7334E-03    -28.7605E-03    -28.9688E-03    -28.5839E-03     57.3485E-03    -28.7605E-03     11.4399E-03     80.4140E-03     104.760E+06    -16.3151E+06    -19.7114E+06    -122.720E+06    -17.4670E+06    -122.672E+06    -18.6075E+06     1.40508E+06
             792     26.7481E-03     8.74661E-03     25.2776E-03     57.7734E-03    -28.8014E-03    -28.9680E-03    -28.7188E-03     57.5242E-03    -28.8014E-03     9.25159E-03     74.9899E-03     128.382E+06    -15.2823E+06    -17.9549E+06    -144.976E+06    -17.9888E+06    -144.942E+06    -15.2823E+06     1.35800E+06
             793     26.4369E-03     7.77483E-03     25.2678E-03     57.8443E-03    -28.8351E-03    -28.9906E-03    -28.8010E-03     57.6547E-03    -28.8351E-03     8.09796E-03     70.8262E-03     149.377E+06    -12.4015E+06    -17.9975E+06    -164.483E+06    -18.0356E+06    -164.444E+06    -12.4015E+06     2.08460E+06
             794     26.1599E-03     6.80300E-03     25.2598E-03     57.8445E-03    -28.8413E-03    -28.9977E-03    -28.8079E-03     57.6958E-03    -28.8823E-03     7.15545E-03     67.4569E-03     168.339E+06    -8.66388E+06    -17.7580E+06    -181.360E+06    -17.7890E+06    -181.329E+06    -8.66388E+06     1.97783E+06
             795     25.9169E-03     5.83106E-03     25.2524E-03     57.8024E-03    -28.8369E-03    -28.9656E-03    -28.7813E-03     57.6959E-03    -28.9147E-03     6.05028E-03     64.6023E-03     183.770E+06    -9.28439E+06    -19.4796E+06    -197.939E+06    -19.5047E+06    -197.914E+06    -9.28439E+06     1.22215E+06
             796     25.7096E-03     4.85931E-03     25.2462E-03     57.7696E-03    -28.8459E-03    -28.9270E-03    -28.7843E-03     57.6946E-03    -28.9136E-03     5.07227E-03     62.3773E-03     193.278E+06    -14.1856E+06    -22.8647E+06    -211.649E+06    -22.8899E+06    -211.624E+06    -14.1856E+06     1.24030E+06
             797     25.5393E-03     3.88732E-03     25.2417E-03     57.7120E-03    -28.7998E-03    -28.9185E-03    -28.7484E-03     57.6606E-03    -28.9185E-03     4.19168E-03     60.6473E-03     202.411E+06    -18.8724E+06    -25.6133E+06    -224.568E+06    -25.6242E+06    -224.557E+06    -18.8724E+06     368.405E+03
             798     25.4051E-03     2.91509E-03     25.2373E-03     57.7857E-03    -28.8410E-03    -28.9478E-03    -28.8117E-03     57.7557E-03    -28.9471E-03     3.16069E-03     59.4740E-03     208.369E+06    -22.5952E+06    -28.1285E+06    -233.674E+06    -28.1381E+06    -233.665E+06    -22.5952E+06    -282.734E+03
             799     25.3098E-03     1.94364E-03     25.2350E-03     57.9368E-03    -28.9194E-03    -29.0158E-03    -28.9835E-03     57.9228E-03    -28.9377E-03     2.16734E-03     58.8500E-03     207.076E+06    -26.2424E+06    -29.8692E+06    -235.100E+06    -29.8770E+06    -235.093E+06    -26.2424E+06     439.604E+03
             800     25.2514E-03     971.800E-06     25.2327E-03     57.8046E-03    -28.8585E-03    -28.9434E-03    -28.9378E-03     57.7990E-03    -28.8585E-03     1.28902E-03     58.4315E-03     205.250E+06    -28.0828E+06    -31.0585E+06    -234.798E+06    -30.5132E+06    -234.781E+06    -28.6444E+06     882.283E+03
             801     29.9305E-03     16.5268E-03     24.9540E-03     220.061E-03    -29.1520E-03    -190.887E-03    -50.5252E-03     79.6999E-03    -29.1520E-03     389.766E-03     612.469E-03     177.040E+06     177.080E+06     154.846E+06    -9.26705E+06    -9.25693E+06     177.070E+06     154.846E+06     810.905E+03
             802     29.0098E-03     15.5553E-03     24.4867E-03     168.469E-03    -28.9335E-03    -139.533E-03    -43.7623E-03     72.6985E-03    -28.9335E-03     282.964E-03     399.152E-03     145.402E+06     144.891E+06     85.0274E+06    -18.0614E+06    -18.0357E+06     144.865E+06     85.0274E+06     1.24639E+06
             803     28.3737E-03     14.5789E-03     24.3418E-03     78.8828E-03    -28.6128E-03    -50.3330E-03    -29.7079E-03     58.2577E-03    -28.6128E-03     87.6785E-03     181.671E-03     117.545E+06     101.369E+06     7.78572E+06    -27.3443E+06    -23.6199E+06     101.324E+06     4.10588E+06     1.75527E+06
             804     27.8520E-03     13.6077E-03     24.3015E-03     59.5158E-03    -28.4050E-03    -31.1684E-03    -28.2654E-03     56.6127E-03    -28.4050E-03     31.4722E-03     128.748E-03     97.2089E+06     61.0567E+06    -23.4831E+06    -43.6072E+06    -23.3641E+06     60.9376E+06    -43.6072E+06     1.26503E+06
             805     27.3665E-03     12.6353E-03     24.2750E-03     57.9867E-03    -28.4324E-03    -29.6270E-03    -28.2057E-03     56.5654E-03    -28.4324E-03     21.7495E-03     105.989E-03     54.3705E+06     10.8732E+06    -26.1389E+06    -51.0968E+06    -20.4815E+06     5.21574E+06    -51.0968E+06     917.364E+03
             806     26.9141E-03     11.6627E-03     24.2559E-03     57.6655E-03    -28.5709E-03    -29.1431E-03    -28.4816E-03     57.0040E-03    -28.5709E-03     14.8243E-03     94.3659E-03     41.0517E+06    -18.3085E+06    -30.2194E+06    -63.7317E+06    -18.7974E+06    -54.7291E+06    -38.7331E+06     1.48378E+06
             807     26.4959E-03     10.6911E-03     24.2432E-03     57.7070E-03    -28.6730E-03    -29.0277E-03    -28.5953E-03     57.2746E-03    -28.6730E-03     12.2146E-03     86.5782E-03     73.8498E+06    -17.6525E+06    -26.2329E+06    -95.2688E+06    -17.7428E+06    -95.1785E+06    -26.2329E+06     1.70963E+06
             808     26.1060E-03     9.71865E-03     24.2296E-03     57.7610E-03    -28.7307E-03    -29.0138E-03    -28.6454E-03     57.3927E-03    -28.7307E-03     11.2155E-03     80.3599E-03     104.014E+06    -16.6079E+06    -20.4063E+06    -122.451E+06    -17.7948E+06    -122.389E+06    -19.2817E+06     1.86520E+06
             809     25.7499E-03     8.74710E-03     24.2187E-03     57.7297E-03    -28.7658E-03    -28.9556E-03    -28.7095E-03     57.4836E-03    -28.7658E-03     9.18893E-03     74.8575E-03     127.877E+06    -16.1769E+06    -18.6589E+06    -145.274E+06    -18.7184E+06    -145.215E+06    -16.1769E+06     2.12310E+06
             810     25.4277E-03     7.77508E-03     24.2098E-03     57.7620E-03    -28.7851E-03    -28.9591E-03    -28.7736E-03     57.5765E-03    -28.7851E-03     8.00398E-03     70.6758E-03     146.741E+06    -15.4610E+06    -19.4858E+06    -164.169E+06    -19.5364E+06    -164.119E+06    -15.4610E+06     1.49896E+06
             811     25.1391E-03     6.80307E-03     24.2011E-03     57.7787E-03    -28.8270E-03    -28.9467E-03    -28.8039E-03     57.6358E-03    -28.8270E-03     7.00581E-03     67.3301E-03     164.910E+06    -11.8610E+06    -20.1716E+06    -180.754E+06    -20.1967E+06    -180.728E+06    -11.8610E+06     1.13747E+06
             812     24.8869E-03     5.83148E-03     24.1941E-03     57.7311E-03    -28.8210E-03    -28.9086E-03    -28.7603E-03     57.6293E-03    -28.8676E-03     5.91404E-03     64.4711E-03     182.880E+06    -10.3927E+06    -21.4233E+06    -198.536E+06    -21.4539E+06    -198.505E+06    -10.3927E+06     1.89783E+06
             813     24.6714E-03     4.85924E-03     24.1882E-03     57.6427E-03    -28.7738E-03    -28.8703E-03    -28.7007E-03     57.5696E-03    -28.8703E-03     5.00500E-03     62.2061E-03     192.385E+06    -13.7655E+06    -22.8379E+06    -210.518E+06    -22.8680E+06    -210.488E+06    -13.7655E+06     1.90835E+06
             814     24.4934E-03     3.88736E-03     24.1829E-03     57.6501E-03    -28.7686E-03    -28.8827E-03    -28.7221E-03     57.6037E-03    -28.8827E-03     3.95678E-03     60.5952E-03     201.747E+06    -18.0374E+06    -24.7648E+06    -223.060E+06    -24.7770E+06    -223.048E+06    -18.0374E+06     1.15600E+06
             815     24.3545E-03     2.91549E-03     24.1793E-03     57.7172E-03    -28.8095E-03    -28.9056E-03    -28.7828E-03     57.6905E-03    -28.9056E-03     3.01584E-03     59.4089E-03     208.435E+06    -22.9050E+06    -27.7024E+06    -233.694E+06    -27.7086E+06    -233.688E+06    -22.9050E+06     350.509E+03
             816     24.2539E-03     1.94332E-03     24.1759E-03     57.7986E-03    -28.8246E-03    -28.9726E-03    -28.8699E-03     57.7854E-03    -28.9141E-03     2.03155E-03     58.6864E-03     206.950E+06    -26.1970E+06    -30.1112E+06    -235.075E+06    -30.1281E+06    -235.058E+06    -26.1970E+06    -228.561E+03
             817     24.1943E-03     972.063E-06     24.1748E-03     57.7881E-03    -28.7088E-03    -29.0766E-03    -29.0146E-03     57.7836E-03    -28.7663E-03     1.17315E-03     58.4425E-03     205.018E+06    -28.7874E+06    -32.1872E+06    -235.482E+06    -31.6452E+06    -235.462E+06    -29.3490E+06    -58.8438E+03
             818     29.0535E-03     16.5271E-03     23.8947E-03     220.504E-03    -29.2123E-03    -191.264E-03    -49.9946E-03     79.2343E-03    -29.2123E-03     390.953E-03     613.990E-03     176.848E+06     176.204E+06     153.887E+06    -9.99829E+06    -9.98676E+06     176.192E+06     153.887E+06     535.295E+03
             819     28.1188E-03     15.5488E-03     23.4287E-03     168.288E-03    -29.0002E-03    -139.288E-03    -44.4476E-03     73.4468E-03    -29.0002E-03     281.622E-03     399.611E-03     145.898E+06     143.950E+06     85.4843E+06    -19.6158E+06    -19.5518E+06     143.886E+06     85.4843E+06     1.68837E+06
             820     27.4689E-03     14.5807E-03     23.2797E-03     78.8319E-03    -28.6317E-03    -50.2738E-03    -30.3096E-03     58.8676E-03    -28.6317E-03     86.2973E-03     181.366E-03     117.600E+06     102.024E+06     9.93917E+06    -26.8435E+06    -23.0804E+06     101.915E+06     6.28492E+06     1.35095E+06
             821     26.9349E-03     13.6083E-03     23.2444E-03     59.2861E-03    -28.3922E-03    -30.9476E-03    -28.2270E-03     56.5654E-03    -28.3922E-03     30.5888E-03     128.465E-03     96.1848E+06     61.3849E+06    -22.1344E+06    -42.1730E+06    -21.9702E+06     61.2208E+06    -42.1730E+06     348.168E+03
             822     26.4312E-03     12.6352E-03     23.2156E-03     58.1310E-03    -28.4109E-03    -29.7896E-03    -28.3806E-03     56.7221E-03    -28.4109E-03     21.5965E-03     105.939E-03     53.4102E+06     10.1624E+06    -25.6539E+06    -50.7351E+06    -20.2121E+06     4.72052E+06    -50.7351E+06     1.32037E+06
             823     25.9648E-03     11.6637E-03     23.1976E-03     57.6696E-03    -28.5350E-03    -29.1776E-03    -28.5632E-03     57.0552E-03    -28.5350E-03     14.3165E-03     94.2618E-03     41.2266E+06    -18.2203E+06    -30.1193E+06    -63.8697E+06    -18.6877E+06    -54.7054E+06    -38.8161E+06     1.96807E+06
             824     25.5305E-03     10.6910E-03     23.1842E-03     57.6451E-03    -28.6281E-03    -29.0095E-03    -28.5945E-03     57.2301E-03    -28.6281E-03     11.9575E-03     86.3565E-03     73.6987E+06    -17.8297E+06    -26.6399E+06    -95.3717E+06    -17.9422E+06    -95.2592E+06    -26.6399E+06     2.06752E+06
             825     25.1272E-03     9.71970E-03     23.1711E-03     57.6970E-03    -28.6831E-03    -28.9965E-03    -28.6455E-03     57.3460E-03    -28.6831E-03     10.9281E-03     80.1729E-03     103.960E+06    -16.8438E+06    -20.2355E+06    -122.438E+06    -17.6823E+06    -122.352E+06    -19.4827E+06     2.39468E+06
             826     24.7568E-03     8.74708E-03     23.1601E-03     57.6291E-03    -28.7204E-03    -28.8942E-03    -28.6628E-03     57.3977E-03    -28.7204E-03     8.90590E-03     74.6457E-03     128.831E+06    -15.3993E+06    -17.6387E+06    -145.334E+06    -17.7218E+06    -145.251E+06    -15.3993E+06     2.58181E+06
             827     24.4218E-03     7.77537E-03     23.1510E-03     57.6764E-03    -28.7383E-03    -28.9174E-03    -28.7425E-03     57.5014E-03    -28.7383E-03     7.76137E-03     70.5044E-03     146.641E+06    -14.4972E+06    -18.3915E+06    -163.045E+06    -18.4585E+06    -162.978E+06    -14.4972E+06     1.95752E+06
             828     24.1222E-03     6.80370E-03     23.1428E-03     57.6804E-03    -28.7718E-03    -28.9017E-03    -28.7681E-03     57.5468E-03    -28.7718E-03     6.77451E-03     67.1564E-03     164.739E+06    -12.3871E+06    -20.1041E+06    -180.833E+06    -20.1450E+06    -180.792E+06    -12.3871E+06     1.31425E+06
             829     23.8593E-03     5.83145E-03     23.1357E-03     57.6221E-03    -28.7934E-03    -28.8269E-03    -28.7159E-03     57.5288E-03    -28.8111E-03     5.64579E-03     64.3301E-03     182.958E+06    -10.7668E+06    -21.7001E+06    -198.943E+06    -21.7231E+06    -198.919E+06    -10.7668E+06     1.50629E+06
             830     23.6352E-03     4.85980E-03     23.1302E-03     57.5595E-03    -28.7515E-03    -28.8094E-03    -28.6841E-03     57.4921E-03    -28.8094E-03     4.81603E-03     62.0884E-03     190.891E+06    -14.0801E+06    -23.6617E+06    -209.574E+06    -23.6880E+06    -209.548E+06    -14.0801E+06     2.03194E+06
             831     23.4495E-03     3.88765E-03     23.1250E-03     57.6106E-03    -28.7575E-03    -28.8516E-03    -28.7619E-03     57.5658E-03    -28.8025E-03     3.86749E-03     60.5183E-03     199.843E+06    -18.5274E+06    -25.6663E+06    -221.842E+06    -25.6869E+06    -221.821E+06    -18.5274E+06     1.78007E+06
             832     23.3042E-03     2.91578E-03     23.1211E-03     57.5896E-03    -28.7392E-03    -28.8484E-03    -28.7646E-03     57.5659E-03    -28.7993E-03     2.84366E-03     59.2556E-03     207.796E+06    -22.2301E+06    -27.3910E+06    -232.555E+06    -27.3995E+06    -232.547E+06    -22.2301E+06     974.259E+03
             833     23.1995E-03     1.94411E-03     23.1179E-03     57.4925E-03    -28.6799E-03    -28.8133E-03    -28.6668E-03     57.4794E-03    -28.8133E-03     2.03473E-03     58.3889E-03     207.031E+06    -26.3885E+06    -30.1028E+06    -235.250E+06    -30.1159E+06    -235.237E+06    -26.3885E+06     16.2746E+03
             834     23.1369E-03     971.381E-06     23.1165E-03     57.6291E-03    -28.5569E-03    -29.0719E-03    -28.9885E-03     57.6239E-03    -28.6351E-03     1.14136E-03     58.2762E-03     204.304E+06    -30.9262E+06    -33.4682E+06    -236.487E+06    -33.3771E+06    -236.450E+06    -31.0545E+06    -848.093E+03
             835     28.1881E-03     16.5225E-03     22.8381E-03     220.539E-03    -29.1951E-03    -191.274E-03    -50.4009E-03     79.6664E-03    -29.1951E-03     390.721E-03     613.421E-03     176.721E+06     174.712E+06     152.451E+06    -11.4198E+06    -11.4086E+06     174.700E+06     152.451E+06     268.772E+03
             836     27.2445E-03     15.5561E-03     22.3667E-03     167.891E-03    -28.9654E-03    -138.904E-03    -44.7348E-03     73.7212E-03    -28.9654E-03     280.600E-03     398.790E-03     145.509E+06     144.588E+06     87.8015E+06    -18.3695E+06    -18.2849E+06     144.503E+06     87.8015E+06     897.267E+03
             837     26.5788E-03     14.5808E-03     22.2224E-03     78.1039E-03    -28.5812E-03    -49.5880E-03    -29.9166E-03     58.4324E-03    -28.5812E-03     85.2969E-03     180.539E-03     117.016E+06     102.792E+06     12.7133E+06    -26.2184E+06    -20.6109E+06     102.647E+06     7.25094E+06     751.269E+03
             838     26.0252E-03     13.6075E-03     22.1844E-03     59.1599E-03    -28.3460E-03    -30.8712E-03    -28.2067E-03     56.4955E-03    -28.3460E-03     30.1633E-03     128.401E-03     96.1136E+06     60.3935E+06    -21.6039E+06    -43.9612E+06    -21.4557E+06     60.2454E+06    -43.9612E+06     1.13664E+06
             839     25.5073E-03     12.6365E-03     22.1572E-03     58.1831E-03    -28.3611E-03    -29.8905E-03    -28.5485E-03     56.8411E-03    -28.3611E-03     21.1417E-03     105.881E-03     53.1425E+06     9.51463E+06    -25.5979E+06    -51.1840E+06    -20.4186E+06     4.33530E+06    -51.1840E+06     2.11822E+06
             840     25.0228E-03     11.6638E-03     22.1382E-03     57.5952E-03    -28.4743E-03    -29.1663E-03    -28.5842E-03     57.0131E-03    -28.4743E-03     13.8707E-03     93.9854E-03     40.9877E+06    -18.5040E+06    -30.6235E+06    -63.9812E+06    -19.2143E+06    -54.5798E+06    -39.3146E+06     2.37183E+06
             841     24.5743E-03     10.6924E-03     22.1262E-03     57.5458E-03    -28.5592E-03    -28.9792E-03    -28.5916E-03     57.1582E-03    -28.5592E-03     11.5400E-03     86.0816E-03     73.5118E+06    -18.1403E+06    -27.1851E+06    -95.5721E+06    -18.2809E+06    -95.4314E+06    -27.1851E+06     2.54148E+06
             842     24.1538E-03     9.71949E-03     22.1119E-03     57.5914E-03    -28.6100E-03    -28.9682E-03    -28.6409E-03     57.2641E-03    -28.6100E-03     10.5016E-03     79.8803E-03     103.606E+06    -16.8715E+06    -20.4954E+06    -122.224E+06    -17.9438E+06    -122.111E+06    -19.5364E+06     2.69604E+06
             843     23.7704E-03     8.74836E-03     22.1020E-03     57.5013E-03    -28.6382E-03    -28.8547E-03    -28.6489E-03     57.2955E-03    -28.6382E-03     8.40262E-03     74.3759E-03     127.586E+06    -15.8843E+06    -18.3941E+06    -144.707E+06    -18.4777E+06    -144.623E+06    -15.8843E+06     2.58488E+06
             844     23.4210E-03     7.77595E-03     22.0925E-03     57.4486E-03    -28.6515E-03    -28.7759E-03    -28.6154E-03     57.2881E-03    -28.6515E-03     7.41599E-03     70.1468E-03     145.588E+06    -15.0108E+06    -18.6404E+06    -162.379E+06    -18.7052E+06    -162.314E+06    -15.0108E+06     2.21733E+06
             845     23.1089E-03     6.80389E-03     22.0846E-03     57.5028E-03    -28.6904E-03    -28.8028E-03    -28.6837E-03     57.3837E-03    -28.6904E-03     6.37783E-03     66.8847E-03     164.803E+06    -12.2598E+06    -19.3632E+06    -180.484E+06    -19.4149E+06    -180.432E+06    -12.2598E+06     1.91645E+06
             846     22.8351E-03     5.83223E-03     22.0777E-03     57.5121E-03    -28.7163E-03    -28.7941E-03    -28.7036E-03     57.4296E-03    -28.7242E-03     5.30463E-03     64.1525E-03     183.027E+06    -10.8681E+06    -21.5031E+06    -198.979E+06    -21.5391E+06    -198.942E+06    -10.8681E+06     1.82358E+06
             847     22.6009E-03     4.85993E-03     22.0722E-03     57.4360E-03    -28.6890E-03    -28.7527E-03    -28.6786E-03     57.3775E-03    -28.7046E-03     4.45530E-03     61.9264E-03     190.522E+06    -14.3310E+06    -23.4580E+06    -209.243E+06    -23.4824E+06    -209.218E+06    -14.3310E+06     1.95395E+06
             848     22.4067E-03     3.88805E-03     22.0668E-03     57.3735E-03    -28.6143E-03    -28.7632E-03    -28.6485E-03     57.3318E-03    -28.6872E-03     3.74771E-03     60.2363E-03     199.535E+06    -18.4046E+06    -25.3889E+06    -221.340E+06    -25.4101E+06    -221.319E+06    -18.4046E+06     1.98145E+06
             849     22.2547E-03     2.91636E-03     22.0628E-03     57.3790E-03    -28.5824E-03    -28.7994E-03    -28.6689E-03     57.3554E-03    -28.6892E-03     2.78120E-03     59.0150E-03     207.464E+06    -20.6694E+06    -27.5699E+06    -231.494E+06    -27.5829E+06    -231.482E+06    -20.6694E+06     1.36918E+06
             850     22.1465E-03     1.94373E-03     22.0610E-03     57.3698E-03    -28.5865E-03    -28.7856E-03    -28.7116E-03     57.3581E-03    -28.6488E-03     1.98344E-03     58.2012E-03     206.294E+06    -25.5605E+06    -30.1923E+06    -234.119E+06    -30.1991E+06    -234.112E+06    -25.5605E+06     783.048E+03
             851     22.0787E-03     972.437E-06     22.0573E-03     57.1923E-03    -28.3812E-03    -28.8124E-03    -28.6435E-03     57.1876E-03    -28.5455E-03     892.367E-06     57.7090E-03     204.111E+06    -30.7760E+06    -32.6868E+06    -235.834E+06    -32.0012E+06    -235.808E+06    -31.4878E+06    -374.425E+03
             852     27.3449E-03     16.5315E-03     21.7819E-03     220.882E-03    -29.0950E-03    -191.692E-03    -51.1582E-03     80.3489E-03    -29.0950E-03     391.030E-03     612.188E-03     175.771E+06     174.836E+06     152.373E+06    -10.3542E+06    -10.3402E+06     174.822E+06     152.373E+06     638.442E+03
             853     26.3791E-03     15.5520E-03     21.3071E-03     168.759E-03    -28.8668E-03    -139.878E-03    -44.2802E-03     73.1616E-03    -28.8668E-03     282.787E-03     399.372E-03     144.671E+06     144.547E+06     85.8798E+06    -17.6002E+06    -17.5622E+06     144.509E+06     85.8798E+06     2.05909E+03
             854     25.7006E-03     14.5817E-03     21.1636E-03     77.6786E-03    -28.5073E-03    -49.2397E-03    -29.9044E-03     58.3433E-03    -28.5073E-03     84.4375E-03     180.232E-03     116.749E+06     101.523E+06     10.3563E+06    -27.2449E+06    -21.4321E+06     101.452E+06     4.61405E+06     601.623E+03
             855     25.1302E-03     13.6099E-03     21.1257E-03     59.0989E-03    -28.2725E-03    -30.8849E-03    -28.2449E-03     56.4589E-03    -28.2725E-03     29.9812E-03     127.888E-03     96.1097E+06     59.5185E+06    -22.3885E+06    -44.9512E+06    -22.1870E+06     59.3170E+06    -44.9512E+06     2.36234E+06
             856     24.5930E-03     12.6368E-03     21.0981E-03     58.0726E-03    -28.2817E-03    -29.8593E-03    -28.5885E-03     56.8017E-03    -28.2817E-03     20.5001E-03     105.513E-03     53.0015E+06     9.43728E+06    -26.1660E+06    -51.1185E+06    -20.6820E+06     3.95322E+06    -51.1185E+06     2.79217E+06
             857     24.0924E-03     11.6654E-03     21.0799E-03     57.5080E-03    -28.3838E-03    -29.1716E-03    -28.6411E-03     56.9775E-03    -28.3838E-03     13.2433E-03     93.5140E-03     40.3571E+06    -18.4702E+06    -30.5542E+06    -63.2216E+06    -19.2290E+06    -54.3307E+06    -38.6863E+06     2.83199E+06
             858     23.6254E-03     10.6927E-03     21.0672E-03     57.5019E-03    -28.4500E-03    -29.0468E-03    -28.7023E-03     57.1574E-03    -28.4500E-03     10.8859E-03     85.6928E-03     73.1276E+06    -18.1988E+06    -27.1378E+06    -95.2244E+06    -18.3850E+06    -95.0382E+06    -27.1378E+06     2.91971E+06
             859     23.1902E-03     9.72155E-03     21.0541E-03     57.4459E-03    -28.4803E-03    -28.9520E-03    -28.6705E-03     57.1644E-03    -28.4803E-03     9.72361E-03     79.3619E-03     103.178E+06    -17.2965E+06    -20.8140E+06    -122.164E+06    -18.1241E+06    -122.031E+06    -20.1190E+06     3.00967E+06
             860     22.7894E-03     8.74874E-03     21.0432E-03     57.2608E-03    -28.5044E-03    -28.7535E-03    -28.5845E-03     57.0917E-03    -28.5044E-03     7.56489E-03     73.8305E-03     127.219E+06    -15.4531E+06    -17.8690E+06    -143.860E+06    -17.9700E+06    -143.759E+06    -15.4531E+06     2.74849E+06
             861     22.4266E-03     7.77715E-03     21.0349E-03     57.1899E-03    -28.5087E-03    -28.6626E-03    -28.5326E-03     57.0599E-03    -28.5087E-03     6.64032E-03     69.6453E-03     144.799E+06    -14.8625E+06    -18.6055E+06    -161.496E+06    -18.6799E+06    -161.422E+06    -14.8625E+06     2.33518E+06
             862     22.0999E-03     6.80488E-03     21.0261E-03     57.1650E-03    -28.5308E-03    -28.6284E-03    -28.5279E-03     57.0700E-03    -28.5363E-03     5.63803E-03     66.3394E-03     163.876E+06    -13.2950E+06    -20.1572E+06    -180.479E+06    -20.2185E+06    -180.418E+06    -13.2950E+06     2.20734E+06
             863     21.8142E-03     5.83273E-03     21.0200E-03     57.2299E-03    -28.5604E-03    -28.6752E-03    -28.6057E-03     57.1659E-03    -28.5659E-03     4.66142E-03     63.7267E-03     182.151E+06    -11.5334E+06    -21.8200E+06    -198.607E+06    -21.8825E+06    -198.545E+06    -11.5334E+06     2.54656E+06
             864     21.5687E-03     4.86103E-03     21.0138E-03     57.1763E-03    -28.5375E-03    -28.6456E-03    -28.5997E-03     57.1304E-03    -28.5375E-03     3.93139E-03     61.5614E-03     190.032E+06    -14.0556E+06    -23.8408E+06    -208.784E+06    -23.8880E+06    -208.737E+06    -14.0556E+06     2.05490E+06
             865     21.3662E-03     3.88891E-03     21.0093E-03     56.9859E-03    -28.4426E-03    -28.5484E-03    -28.4474E-03     56.9556E-03    -28.5132E-03     3.17358E-03     59.7939E-03     198.803E+06    -18.1235E+06    -25.9778E+06    -220.731E+06    -25.9981E+06    -220.711E+06    -18.1235E+06     1.60432E+06
             866     21.2069E-03     2.91594E-03     21.0054E-03     57.0185E-03    -28.4368E-03    -28.5844E-03    -28.4940E-03     56.9987E-03    -28.5074E-03     2.52702E-03     58.6290E-03     205.407E+06    -21.8413E+06    -27.9835E+06    -230.239E+06    -27.9993E+06    -230.223E+06    -21.8413E+06     1.48355E+06
             867     21.0922E-03     1.94494E-03     21.0023E-03     57.0551E-03    -28.4489E-03    -28.6082E-03    -28.5924E-03     57.0458E-03    -28.4555E-03     1.72451E-03     57.8757E-03     205.504E+06    -25.0649E+06    -29.8294E+06    -232.893E+06    -29.8427E+06    -232.880E+06    -25.0649E+06     1.11256E+06
             868     21.0235E-03     972.358E-06     21.0010E-03     56.7644E-03    -28.2518E-03    -28.5156E-03    -28.3623E-03     56.7612E-03    -28.4019E-03     861.567E-06     57.2950E-03     203.522E+06    -30.0645E+06    -32.8767E+06    -234.966E+06    -32.3099E+06    -234.950E+06    -30.6480E+06     1.50890E+06
             869     26.5156E-03     16.5293E-03     20.7330E-03     221.481E-03    -29.0720E-03    -192.347E-03    -52.0470E-03     81.1811E-03    -29.0720E-03     391.768E-03     612.504E-03     175.159E+06     175.282E+06     153.408E+06    -8.94257E+06    -8.93051E+06     175.270E+06     153.408E+06     698.948E+03
             870     25.5321E-03     15.5563E-03     20.2458E-03     170.116E-03    -28.7963E-03    -141.328E-03    -45.2439E-03     74.0328E-03    -28.7963E-03     285.081E-03     399.103E-03     144.123E+06     144.170E+06     83.1264E+06    -17.3257E+06    -17.3096E+06     144.154E+06     83.1264E+06     855.804E+03
             871     24.8375E-03     14.5834E-03     20.1054E-03     77.4037E-03    -28.4216E-03    -49.0492E-03    -29.9931E-03     58.3476E-03    -28.4216E-03     83.8428E-03     179.500E-03     116.609E+06     99.4000E+06     5.72716E+06    -28.6108E+06    -23.7283E+06     99.3298E+06     914.837E+03     1.76240E+06
             872     24.2469E-03     13.6098E-03     20.0670E-03     59.3715E-03    -28.1762E-03    -31.2524E-03    -28.6018E-03     56.7210E-03    -28.1762E-03     30.0467E-03     127.131E-03     97.2141E+06     59.4950E+06    -24.4424E+06    -45.6880E+06    -24.2202E+06     59.2729E+06    -45.6880E+06     2.53101E+06
             873     23.6917E-03     12.6389E-03     20.0388E-03     58.1046E-03    -28.1482E-03    -30.0236E-03    -28.8609E-03     56.9419E-03    -28.1482E-03     19.5001E-03     104.804E-03     54.4325E+06     10.0714E+06    -27.3839E+06    -51.9870E+06    -21.4717E+06     4.15919E+06    -51.9870E+06     2.73158E+06
             874     23.1726E-03     11.6663E-03     20.0216E-03     57.4748E-03    -28.2178E-03    -29.3014E-03    -28.8693E-03     57.0428E-03    -28.2178E-03     11.8833E-03     92.8165E-03     40.5668E+06    -18.0726E+06    -30.8841E+06    -63.2173E+06    -18.7361E+06    -54.3839E+06    -39.0540E+06     2.77504E+06
             875     22.6878E-03     10.6951E-03     20.0088E-03     57.3355E-03    -28.2593E-03    -29.0704E-03    -28.8060E-03     57.0712E-03    -28.2593E-03     9.48472E-03     84.9557E-03     73.3998E+06    -17.4394E+06    -26.8142E+06    -94.8778E+06    -17.6398E+06    -94.6773E+06    -26.8142E+06     3.00576E+06
             876     22.2343E-03     9.72274E-03     19.9958E-03     57.1770E-03    -28.2638E-03    -28.8974E-03    -28.6877E-03     56.9674E-03    -28.2638E-03     8.31457E-03     78.5673E-03     103.431E+06    -16.7721E+06    -20.3138E+06    -121.903E+06    -17.1426E+06    -121.755E+06    -20.0911E+06     3.16841E+06
             877     21.8178E-03     8.75139E-03     19.9858E-03     56.9227E-03    -28.2635E-03    -28.6521E-03    -28.5353E-03     56.8059E-03    -28.2635E-03     6.23999E-03     73.0142E-03     126.914E+06    -15.3775E+06    -17.7795E+06    -143.473E+06    -17.4633E+06    -143.333E+06    -15.8334E+06     3.23600E+06
             878     21.4377E-03     7.77878E-03     19.9767E-03     56.7692E-03    -28.2495E-03    -28.4939E-03    -28.4090E-03     56.6843E-03    -28.2495E-03     5.32201E-03     68.8362E-03     144.015E+06    -15.1238E+06    -18.7168E+06    -160.900E+06    -18.8325E+06    -160.785E+06    -15.1238E+06     3.18035E+06
             879     21.0972E-03     6.80682E-03     19.9690E-03     56.6745E-03    -28.2551E-03    -28.4097E-03    -28.3420E-03     56.6123E-03    -28.2606E-03     4.51807E-03     65.5148E-03     162.893E+06    -13.9099E+06    -20.2802E+06    -179.882E+06    -20.3738E+06    -179.788E+06    -13.9099E+06     3.07164E+06
             880     20.7971E-03     5.83443E-03     19.9620E-03     56.6403E-03    -28.2665E-03    -28.3795E-03    -28.3238E-03     56.5992E-03    -28.2811E-03     3.68393E-03     62.8919E-03     180.754E+06    -12.3811E+06    -22.4770E+06    -197.970E+06    -22.5688E+06    -197.878E+06    -12.3811E+06     3.01834E+06
             881     20.5400E-03     4.86202E-03     19.9562E-03     56.5865E-03    -28.2459E-03    -28.3421E-03    -28.3042E-03     56.5577E-03    -28.2550E-03     3.04012E-03     60.8218E-03     188.218E+06    -15.0556E+06    -25.1415E+06    -208.109E+06    -25.2086E+06    -208.041E+06    -15.0556E+06     2.54711E+06
             882     20.3277E-03     3.88968E-03     19.9521E-03     56.5288E-03    -28.1986E-03    -28.3317E-03    -28.3083E-03     56.5108E-03    -28.2040E-03     2.41726E-03     59.2102E-03     195.376E+06    -20.3066E+06    -27.7246E+06    -219.278E+06    -27.7625E+06    -219.240E+06    -20.3066E+06     1.80405E+06
             883     20.1605E-03     2.91802E-03     19.9482E-03     56.3491E-03    -28.0722E-03    -28.2789E-03    -28.1686E-03     56.3372E-03    -28.1706E-03     1.98815E-03     57.8682E-03     202.143E+06    -24.8434E+06    -29.3815E+06    -229.212E+06    -29.3975E+06    -229.196E+06    -24.8434E+06     1.29812E+06
             884     20.0392E-03     1.94447E-03     19.9446E-03     56.2439E-03    -28.0381E-03    -28.2073E-03    -28.0475E-03     56.2373E-03    -28.1913E-03     1.39198E-03     57.0655E-03     204.201E+06    -27.3831E+06    -30.8302E+06    -233.275E+06    -30.7606E+06    -233.256E+06    -27.4714E+06     894.105E+03
             885     19.9680E-03     972.376E-06     19.9443E-03     56.4033E-03    -28.0657E-03    -28.3407E-03    -28.2785E-03     56.4013E-03    -28.1259E-03     760.981E-06     57.0073E-03     203.070E+06    -28.8462E+06    -31.7169E+06    -233.323E+06    -31.6456E+06    -233.306E+06    -28.9346E+06     765.126E+03
             886     25.6886E-03     16.5255E-03     19.6675E-03     220.887E-03    -29.0942E-03    -191.747E-03    -52.1702E-03     81.3100E-03    -29.0942E-03     390.445E-03     612.368E-03     173.926E+06     173.584E+06     152.472E+06    -9.11401E+06    -9.10358E+06     173.573E+06     152.472E+06     563.893E+03
             887     24.7012E-03     15.5559E-03     19.1876E-03     170.530E-03    -28.7818E-03    -141.763E-03    -46.3282E-03     75.0949E-03    -28.7818E-03     285.148E-03     398.098E-03     143.893E+06     143.102E+06     83.8103E+06    -18.1426E+06    -18.0429E+06     143.002E+06     83.8103E+06     2.72878E+06
             888     23.9880E-03     14.5827E-03     19.0465E-03     78.0247E-03    -28.3466E-03    -49.7410E-03    -30.8123E-03     59.0960E-03    -28.3466E-03     83.7712E-03     178.853E-03     117.590E+06     100.585E+06     7.85059E+06    -28.6992E+06    -23.4519E+06     100.430E+06     2.75734E+06     3.24954E+06
             889     23.3789E-03     13.6128E-03     19.0070E-03     59.9542E-03    -28.0215E-03    -31.9890E-03    -29.5875E-03     57.5527E-03    -28.0215E-03     28.5968E-03     126.520E-03     97.6279E+06     59.5969E+06    -23.8933E+06    -46.2560E+06    -23.7813E+06     59.4849E+06    -46.2560E+06     1.96816E+06
             890     22.8043E-03     12.6407E-03     18.9802E-03     58.2040E-03    -27.9173E-03    -30.3538E-03    -29.4366E-03     57.2869E-03    -27.9173E-03     17.3080E-03     103.667E-03     55.1437E+06     9.77225E+06    -26.6988E+06    -53.1530E+06    -21.1755E+06     4.24898E+06    -53.1530E+06     1.75872E+06
             891     22.2657E-03     11.6702E-03     18.9622E-03     57.3470E-03    -27.9307E-03    -29.4587E-03    -29.1519E-03     57.0403E-03    -27.9307E-03     9.84703E-03     91.7882E-03     41.5613E+06    -18.0709E+06    -31.5207E+06    -64.5278E+06    -18.7555E+06    -54.6586E+06    -40.7053E+06     2.65886E+06
             892     21.7620E-03     10.6982E-03     18.9508E-03     57.0284E-03    -27.9331E-03    -29.0981E-03    -28.9342E-03     56.8645E-03    -27.9331E-03     7.42145E-03     83.7924E-03     72.9126E+06    -17.2186E+06    -27.9751E+06    -94.6730E+06    -17.4397E+06    -94.4518E+06    -27.9751E+06     3.12136E+06
             893     21.2893E-03     9.72661E-03     18.9374E-03     56.7088E-03    -27.9004E-03    -28.8027E-03    -28.6793E-03     56.5854E-03    -27.9004E-03     6.15255E-03     77.3487E-03     103.142E+06    -16.6420E+06    -20.6385E+06    -121.684E+06    -16.8004E+06    -121.526E+06    -20.6385E+06     3.27343E+06
             894     20.8544E-03     8.75412E-03     18.9280E-03     56.3399E-03    -27.8595E-03    -28.4676E-03    -28.4115E-03     56.2838E-03    -27.8595E-03     4.14670E-03     71.8133E-03     126.481E+06    -15.9558E+06    -17.4106E+06    -143.155E+06    -16.8966E+06    -143.000E+06    -16.6249E+06     3.68441E+06
             895     20.4576E-03     7.78231E-03     18.9195E-03     56.0826E-03    -27.8295E-03    -28.2206E-03    -28.1802E-03     56.0421E-03    -27.8295E-03     3.50939E-03     67.6699E-03     145.265E+06    -14.0748E+06    -17.5357E+06    -161.021E+06    -17.7227E+06    -160.834E+06    -14.0748E+06     4.32972E+06
             896     20.1002E-03     6.80947E-03     18.9116E-03     55.9204E-03    -27.8146E-03    -28.0907E-03    -28.0630E-03     55.8928E-03    -27.8146E-03     2.85648E-03     64.3625E-03     162.973E+06    -12.8914E+06    -19.7633E+06    -179.179E+06    -19.9433E+06    -178.999E+06    -12.8914E+06     4.74599E+06
             897     19.7859E-03     5.83712E-03     18.9052E-03     55.7358E-03    -27.7921E-03    -27.9426E-03    -27.9160E-03     55.7183E-03    -27.8012E-03     2.20728E-03     61.6726E-03     178.712E+06    -13.5919E+06    -22.3751E+06    -196.530E+06    -22.4756E+06    -196.429E+06    -13.5919E+06     3.66297E+06
             898     19.5160E-03     4.86435E-03     18.9000E-03     55.6150E-03    -27.7621E-03    -27.8516E-03    -27.8320E-03     55.6045E-03    -27.7712E-03     1.77768E-03     59.6381E-03     187.047E+06    -16.3236E+06    -24.4455E+06    -207.294E+06    -24.5045E+06    -207.235E+06    -16.3236E+06     2.77379E+06
             899     19.2916E-03     3.89170E-03     18.8950E-03     55.5853E-03    -27.7122E-03    -27.8742E-03    -27.8475E-03     55.5775E-03    -27.7311E-03     1.51364E-03     58.1326E-03     195.245E+06    -19.0353E+06    -26.1017E+06    -217.715E+06    -26.1497E+06    -217.667E+06    -19.0353E+06     2.46950E+06
             900     19.1159E-03     2.91869E-03     18.8918E-03     55.4290E-03    -27.5767E-03    -27.8537E-03    -27.7367E-03     55.4240E-03    -27.6887E-03     1.14272E-03     56.8800E-03     202.320E+06    -23.2708E+06    -28.5885E+06    -228.188E+06    -28.6147E+06    -228.162E+06    -23.2708E+06     1.92328E+06
             901     18.9896E-03     1.94610E-03     18.8896E-03     55.2540E-03    -27.5075E-03    -27.7475E-03    -27.5776E-03     55.2514E-03    -27.6748E-03     841.424E-06     56.0347E-03     201.649E+06    -28.7214E+06    -31.3220E+06    -231.654E+06    -31.2517E+06    -231.636E+06    -28.8097E+06     1.12847E+06
             902     18.9114E-03     972.597E-06     18.8864E-03     55.3483E-03    -27.5068E-03    -27.8435E-03    -27.6828E-03     55.3474E-03    -27.6666E-03     435.429E-06     55.9364E-03     200.882E+06    -31.5058E+06    -34.4831E+06    -233.855E+06    -33.1837E+06    -233.846E+06    -32.8141E+06    -69.5802E+03
             903     24.8941E-03     16.5310E-03     18.6129E-03     220.629E-03    -29.0571E-03    -191.521E-03    -52.3226E-03     81.4300E-03    -29.0571E-03     389.833E-03     611.978E-03     173.803E+06     171.697E+06     151.693E+06    -10.4736E+06    -10.4320E+06     171.656E+06     151.693E+06     1.10556E+06
             904     23.8852E-03     15.5545E-03     18.1263E-03     171.114E-03    -28.7323E-03    -142.413E-03    -47.0764E-03     75.7774E-03    -28.7323E-03     285.212E-03     398.812E-03     144.714E+06     142.497E+06     85.4128E+06    -19.6154E+06    -19.4768E+06     142.358E+06     85.4128E+06     2.83649E+06
             905     23.1573E-03     14.5863E-03     17.9861E-03     78.8630E-03    -28.2012E-03    -50.7555E-03    -32.9651E-03     61.0727E-03    -28.2012E-03     81.3715E-03     178.266E-03     118.272E+06     102.288E+06     10.7141E+06    -27.6874E+06    -23.1457E+06     102.162E+06     6.29840E+06     2.16562E+06
             906     22.5263E-03     13.6152E-03     17.9460E-03     60.4048E-03    -27.7164E-03    -32.7505E-03    -30.9211E-03     58.5753E-03    -27.7164E-03     24.7471E-03     124.772E-03     97.6463E+06     60.3692E+06    -21.8078E+06    -45.5116E+06    -21.7341E+06     60.2954E+06    -45.5116E+06     1.72859E+06
             907     21.9337E-03     12.6465E-03     17.9208E-03     57.9182E-03    -27.5161E-03    -30.4709E-03    -29.9000E-03     57.3473E-03    -27.5161E-03     13.4337E-03     101.592E-03     55.4892E+06     9.45502E+06    -26.1114E+06    -54.1736E+06    -20.0888E+06     3.43242E+06    -54.1736E+06     2.21259E+06
             908     21.3740E-03     11.6745E-03     17.9040E-03     56.8958E-03    -27.4751E-03    -29.4610E-03    -29.2957E-03     56.7305E-03    -27.4751E-03     6.73877E-03     90.0829E-03     41.6099E+06    -17.6250E+06    -32.2234E+06    -64.3186E+06    -18.4289E+06    -54.7406E+06    -40.9975E+06     2.83453E+06
             909     20.8495E-03     10.7035E-03     17.8923E-03     56.5359E-03    -27.4211E-03    -29.1255E-03    -29.0555E-03     56.4660E-03    -27.4211E-03     4.48015E-03     82.2201E-03     72.7956E+06    -16.9613E+06    -28.2818E+06    -94.4615E+06    -17.2343E+06    -94.1885E+06    -28.2818E+06     3.43851E+06
             910     20.3572E-03     9.73172E-03     17.8804E-03     56.0454E-03    -27.3299E-03    -28.7189E-03    -28.6704E-03     55.9970E-03    -27.3299E-03     3.17460E-03     75.7090E-03     102.515E+06    -17.2959E+06    -21.0014E+06    -121.567E+06    -17.6387E+06    -121.352E+06    -20.8730E+06     3.82947E+06
             911     19.9026E-03     8.76000E-03     17.8711E-03     55.3868E-03    -27.2366E-03    -28.1359E-03    -28.1241E-03     55.3750E-03    -27.2366E-03     1.26807E-03     70.0090E-03     125.175E+06    -17.5935E+06    -18.1249E+06    -143.033E+06    -18.0803E+06    -142.864E+06    -17.8068E+06     3.94286E+06
             912     19.4867E-03     7.78682E-03     17.8633E-03     55.0067E-03    -27.1702E-03    -27.8064E-03    -27.7975E-03     54.9979E-03    -27.1702E-03     1.02545E-03     65.9475E-03     144.977E+06    -14.9152E+06    -17.9918E+06    -161.384E+06    -18.2010E+06    -161.175E+06    -14.9152E+06     4.84382E+06
             913     19.1116E-03     6.81444E-03     17.8555E-03     54.7268E-03    -27.1228E-03    -27.5903E-03    -27.5843E-03     54.7207E-03    -27.1228E-03     584.315E-06     62.6451E-03     163.039E+06    -12.7474E+06    -18.6649E+06    -178.658E+06    -18.8813E+06    -178.442E+06    -12.7474E+06     5.48262E+06
             914     18.7811E-03     5.84110E-03     17.8497E-03     54.4447E-03    -27.0792E-03    -27.3614E-03    -27.3577E-03     54.4410E-03    -27.0792E-03     199.673E-06     60.0084E-03     178.151E+06    -13.1546E+06    -20.1557E+06    -194.700E+06    -20.3048E+06    -194.551E+06    -13.1546E+06     4.88955E+06
             915     18.4963E-03     4.86787E-03     17.8443E-03     54.1963E-03    -27.0294E-03    -27.1656E-03    -27.1621E-03     54.1929E-03    -27.0294E-03     141.160E-06     57.9311E-03     186.181E+06    -15.2484E+06    -22.3715E+06    -204.887E+06    -22.4452E+06    -204.814E+06    -15.2484E+06     3.46413E+06
             916     18.2598E-03     3.89433E-03     17.8397E-03     54.0164E-03    -26.9723E-03    -27.0474E-03    -27.0261E-03     54.0140E-03    -26.9913E-03     137.467E-06     56.3828E-03     195.130E+06    -19.2505E+06    -25.2015E+06    -217.278E+06    -25.2503E+06    -217.229E+06    -19.2505E+06     2.92854E+06
             917     18.0741E-03     2.92084E-03     17.8365E-03     54.0110E-03    -26.9341E-03    -27.0789E-03    -27.0590E-03     54.0100E-03    -26.9530E-03     6.02011E-06     55.3627E-03     202.016E+06    -22.5710E+06    -27.7274E+06    -227.101E+06    -27.7733E+06    -227.056E+06    -22.5710E+06     2.90113E+06
             918     17.9399E-03     1.94742E-03     17.8339E-03     53.8932E-03    -26.8515E-03    -27.0417E-03    -27.0203E-03     53.8925E-03    -26.8722E-03     126.790E-06     54.6270E-03     200.536E+06    -25.9728E+06    -30.5309E+06    -228.743E+06    -30.5724E+06    -228.702E+06    -25.9728E+06     2.70837E+06
             919     17.8590E-03     974.084E-06     17.8324E-03     53.5951E-03    -26.7102E-03    -26.8859E-03    -26.7792E-03     53.5947E-03    -26.8164E-03     192.904E-06     54.1498E-03     199.759E+06    -31.0750E+06    -34.5694E+06    -232.550E+06    -33.3777E+06    -232.521E+06    -32.2949E+06     1.77591E+06
             920     24.1131E-03     16.5281E-03     17.5573E-03     221.199E-03    -29.0245E-03    -192.069E-03    -54.2431E-03     83.3729E-03    -29.0245E-03     389.652E-03     611.017E-03     173.872E+06     170.843E+06     151.920E+06    -10.9845E+06    -10.9148E+06     170.774E+06     151.920E+06     1.71199E+06
             921     23.0922E-03     15.5578E-03     17.0648E-03     172.236E-03    -28.5324E-03    -143.670E-03    -50.4018E-03     78.9679E-03    -28.5324E-03     284.328E-03     398.891E-03     144.992E+06     143.024E+06     86.1057E+06    -19.0951E+06    -19.0343E+06     142.963E+06     86.1057E+06     791.691E+03
             922     22.3423E-03     14.5895E-03     16.9212E-03     78.5100E-03    -27.8065E-03    -50.8186E-03    -34.8708E-03     62.5622E-03    -27.8065E-03     75.7591E-03     175.711E-03     116.875E+06     102.445E+06     11.6434E+06    -26.1664E+06    -21.4325E+06     102.396E+06     6.95847E+06     472.764E+03
             923     21.6965E-03     13.6249E-03     16.8850E-03     59.9786E-03    -27.1891E-03    -32.8596E-03    -31.7521E-03     58.8710E-03    -27.1891E-03     19.1688E-03     121.653E-03     96.9760E+06     59.5660E+06    -22.1941E+06    -45.7093E+06    -21.9355E+06     59.3073E+06    -45.7093E+06     2.34425E+06
             924     21.0819E-03     12.6534E-03     16.8623E-03     57.3744E-03    -26.8991E-03    -30.5503E-03    -30.2624E-03     57.0865E-03    -26.8991E-03     8.95352E-03     99.1451E-03     56.0620E+06     10.0158E+06    -26.8258E+06    -54.2258E+06    -20.1796E+06     3.36960E+06    -54.2258E+06     3.44657E+06
             925     20.5009E-03     11.6834E-03     16.8459E-03     56.2013E-03    -26.7809E-03    -29.4648E-03    -29.4177E-03     56.1542E-03    -26.7809E-03     2.82791E-03     87.8205E-03     41.1500E+06    -17.4468E+06    -32.7242E+06    -63.8100E+06    -18.3453E+06    -54.3417E+06    -41.2940E+06     3.45546E+06
             926     19.9540E-03     10.7114E-03     16.8353E-03     55.6692E-03    -26.6517E-03    -29.0276E-03    -29.0158E-03     55.6574E-03    -26.6517E-03     898.128E-06     80.1480E-03     72.6818E+06    -17.1383E+06    -29.5564E+06    -94.9380E+06    -17.5144E+06    -94.5619E+06    -29.5564E+06     4.04214E+06
             927     19.4391E-03     9.74008E-03     16.8229E-03     54.9646E-03    -26.4967E-03    -28.4702E-03    -28.4489E-03     54.9433E-03    -26.4967E-03    -623.640E-06     73.3951E-03     102.439E+06    -16.9675E+06    -22.0213E+06    -121.766E+06    -17.3892E+06    -121.472E+06    -21.8929E+06     4.61818E+06
             928     18.9643E-03     8.76726E-03     16.8161E-03     54.1474E-03    -26.3437E-03    -27.7908E-03    -27.7692E-03     54.1258E-03    -26.3437E-03    -1.99302E-03     67.7857E-03     124.527E+06    -17.9455E+06    -19.2364E+06    -143.110E+06    -18.5241E+06    -142.837E+06    -18.9306E+06     5.22808E+06
             929     18.5271E-03     7.79468E-03     16.8077E-03     53.5303E-03    -26.2022E-03    -27.3012E-03    -27.2807E-03     53.5097E-03    -26.2022E-03    -1.97276E-03     63.6352E-03     141.926E+06    -18.5089E+06    -19.8823E+06    -161.112E+06    -19.7899E+06    -160.890E+06    -18.8240E+06     5.31861E+06
             930     18.1331E-03     6.82074E-03     16.8013E-03     52.9952E-03    -26.1140E-03    -26.8665E-03    -26.8427E-03     52.9714E-03    -26.1140E-03    -2.23395E-03     60.2332E-03     160.118E+06    -16.1435E+06    -20.3303E+06    -178.297E+06    -20.5176E+06    -178.078E+06    -16.1758E+06     5.63863E+06
             931     17.7840E-03     5.84715E-03     16.7953E-03     52.5752E-03    -26.0341E-03    -26.5333E-03    -26.5121E-03     52.5540E-03    -26.0341E-03    -2.18795E-03     57.6621E-03     173.721E+06    -16.2111E+06    -21.6090E+06    -192.546E+06    -21.8105E+06    -192.345E+06    -16.2111E+06     5.73422E+06
             932     17.4835E-03     4.87306E-03     16.7907E-03     52.2148E-03    -25.9434E-03    -26.2703E-03    -26.2538E-03     52.1984E-03    -25.9434E-03    -1.97927E-03     55.6061E-03     181.281E+06    -18.8450E+06    -23.4487E+06    -202.367E+06    -23.5819E+06    -202.234E+06    -18.8450E+06     4.73874E+06
             933     17.2333E-03     3.89855E-03     16.7865E-03     51.9300E-03    -25.8871E-03    -26.0479E-03    -26.0355E-03     51.9175E-03    -25.8871E-03    -1.67387E-03     54.0559E-03     192.842E+06    -21.3316E+06    -25.7783E+06    -216.354E+06    -25.8835E+06    -216.249E+06    -21.3316E+06     4.32426E+06
             934     17.0358E-03     2.92405E-03     16.7830E-03     51.7665E-03    -25.8422E-03    -25.9278E-03    -25.9209E-03     51.7595E-03    -25.8422E-03    -1.24637E-03     52.9591E-03     198.551E+06    -24.5002E+06    -29.1799E+06    -225.344E+06    -29.2666E+06    -225.258E+06    -24.5002E+06     3.93102E+06
             935     16.8935E-03     1.94943E-03     16.7807E-03     51.7079E-03    -25.7657E-03    -25.9413E-03    -25.9378E-03     51.7045E-03    -25.7657E-03    -839.885E-06     52.3284E-03     197.437E+06    -26.6092E+06    -31.4797E+06    -226.432E+06    -31.5266E+06    -226.386E+06    -26.6092E+06     2.74164E+06
             936     16.8073E-03     974.816E-06     16.7790E-03     51.3885E-03    -25.5715E-03    -25.8167E-03    -25.8144E-03     51.3863E-03    -25.5715E-03    -552.446E-06     51.8536E-03     198.522E+06    -29.3642E+06    -31.7781E+06    -229.073E+06    -31.6200E+06    -229.049E+06    -29.5458E+06     1.31529E+06
             937     23.3488E-03     16.5271E-03     16.4930E-03     221.407E-03    -28.8584E-03    -192.355E-03    -58.5029E-03     87.5550E-03    -28.8584E-03     387.046E-03     607.636E-03     172.927E+06     171.615E+06     151.884E+06    -9.55742E+06    -9.50906E+06     171.566E+06     151.884E+06     1.59137E+06
             938     22.3221E-03     15.5658E-03     15.9995E-03     170.797E-03    -28.0570E-03    -142.632E-03    -54.4431E-03     82.6079E-03    -28.0570E-03     277.933E-03     394.396E-03     142.972E+06     143.795E+06     85.6278E+06    -16.1071E+06    -16.0641E+06     143.752E+06     85.6278E+06     228.688E+03
             939     21.5573E-03     14.6039E-03     15.8570E-03     76.4595E-03    -27.1191E-03    -49.4540E-03    -35.3262E-03     62.3317E-03    -27.1191E-03     69.9263E-03     171.371E-03     115.260E+06     100.832E+06     9.65496E+06    -25.9253E+06    -20.7255E+06     100.615E+06     4.67221E+06     1.77305E+06
             940     20.8874E-03     13.6325E-03     15.8252E-03     59.0641E-03    -26.4315E-03    -32.7004E-03    -32.0100E-03     58.3738E-03    -26.4315E-03     14.3318E-03     118.654E-03     96.3896E+06     59.1380E+06    -22.1572E+06    -45.6023E+06    -21.7069E+06     58.6876E+06    -45.6023E+06     3.10205E+06
             941     20.2513E-03     12.6652E-03     15.8021E-03     56.7457E-03    -26.0595E-03    -30.7641E-03    -30.6489E-03     56.6304E-03    -26.0595E-03     4.03778E-03     96.5684E-03     56.5240E+06     11.1297E+06    -26.9399E+06    -53.5578E+06    -19.2944E+06     3.48426E+06    -53.5578E+06     3.48773E+06
             942     19.6487E-03     11.6938E-03     15.7901E-03     55.3360E-03    -25.8455E-03    -29.5447E-03    -29.5311E-03     55.3224E-03    -25.8455E-03    -818.514E-06     85.5763E-03     42.3086E+06    -16.0709E+06    -32.8875E+06    -63.7061E+06    -17.4160E+06    -54.2054E+06    -41.0431E+06     4.61932E+06
             943     19.0764E-03     10.7229E-03     15.7775E-03     54.6253E-03    -25.6261E-03    -29.0134E-03    -28.9746E-03     54.5865E-03    -25.6261E-03    -2.77373E-03     77.9180E-03     73.6201E+06    -15.9070E+06    -29.0158E+06    -94.9364E+06    -16.3329E+06    -94.5104E+06    -29.0158E+06     4.77859E+06
             944     18.5400E-03     9.75066E-03     15.7689E-03     53.5476E-03    -25.3845E-03    -28.1606E-03    -28.0732E-03     53.4602E-03    -25.3845E-03    -4.76421E-03     70.6999E-03     103.574E+06    -15.6571E+06    -21.9859E+06    -122.188E+06    -16.0067E+06    -121.838E+06    -21.9859E+06     5.36502E+06
             945     18.0407E-03     8.77783E-03     15.7612E-03     52.5904E-03    -25.1601E-03    -27.4125E-03    -27.3004E-03     52.4782E-03    -25.1601E-03    -5.64104E-03     65.2508E-03     126.032E+06    -15.7431E+06    -17.5897E+06    -142.681E+06    -16.0842E+06    -142.340E+06    -17.5897E+06     6.16672E+06
             946     17.5818E-03     7.80415E-03     15.7548E-03     51.7302E-03    -24.9401E-03    -26.7608E-03    -26.6480E-03     51.6174E-03    -24.9401E-03    -5.57213E-03     60.9745E-03     143.353E+06    -16.8311E+06    -17.1950E+06    -160.365E+06    -17.1944E+06    -160.037E+06    -17.1593E+06     6.67798E+06
             947     17.1659E-03     6.83028E-03     15.7485E-03     50.8201E-03    -24.7734E-03    -26.0324E-03    -25.9242E-03     50.7119E-03    -24.7734E-03    -5.47224E-03     57.3586E-03     160.258E+06    -16.1390E+06    -18.6659E+06    -177.622E+06    -18.9351E+06    -177.321E+06    -16.1713E+06     6.81682E+06
             948     16.7973E-03     5.85512E-03     15.7438E-03     50.1151E-03    -24.6377E-03    -25.4699E-03    -25.3780E-03     50.0232E-03    -24.6377E-03    -4.99999E-03     54.6626E-03     172.072E+06    -16.8672E+06    -20.5005E+06    -190.708E+06    -20.7579E+06    -190.450E+06    -16.8672E+06     6.52236E+06
             949     16.4780E-03     4.87982E-03     15.7389E-03     49.6166E-03    -24.5041E-03    -25.1097E-03    -25.0398E-03     49.5467E-03    -24.5041E-03    -4.32551E-03     52.6265E-03     179.342E+06    -19.6526E+06    -23.0261E+06    -200.651E+06    -23.2620E+06    -200.415E+06    -19.6526E+06     6.34966E+06
             950     16.2126E-03     3.90456E-03     15.7354E-03     49.2144E-03    -24.4148E-03    -24.8019E-03    -24.7536E-03     49.1660E-03    -24.4148E-03    -3.60948E-03     51.0896E-03     192.703E+06    -19.4706E+06    -25.2724E+06    -215.004E+06    -25.4652E+06    -214.811E+06    -19.4706E+06     5.84578E+06
             951     16.0028E-03     2.92846E-03     15.7325E-03     48.8387E-03    -24.3259E-03    -24.5140E-03    -24.4855E-03     48.8102E-03    -24.3259E-03    -2.70839E-03     49.8864E-03     197.143E+06    -22.3802E+06    -27.0967E+06    -221.823E+06    -27.2234E+06    -221.696E+06    -22.3802E+06     4.85376E+06
             952     15.8506E-03     1.95240E-03     15.7299E-03     48.6028E-03    -24.2356E-03    -24.3662E-03    -24.3446E-03     48.5889E-03    -24.2434E-03    -1.90492E-03     49.1331E-03     194.900E+06    -26.7272E+06    -29.1755E+06    -222.836E+06    -29.2304E+06    -222.781E+06    -26.7272E+06     2.04155E+06
             953     15.7591E-03     976.494E-06     15.7288E-03     48.4091E-03    -24.0636E-03    -24.3455E-03    -24.3301E-03     48.4014E-03    -24.0713E-03    -1.42272E-03     48.8219E-03     197.451E+06    -29.2166E+06    -31.5411E+06    -227.817E+06    -31.3625E+06    -227.814E+06    -29.3981E+06    -367.111E+03
             954     22.6146E-03     16.5365E-03     15.4261E-03     222.154E-03    -28.4175E-03    -193.527E-03    -64.3272E-03     92.9545E-03    -28.4175E-03     384.689E-03     602.414E-03     172.138E+06     170.585E+06     150.486E+06    -9.85075E+06    -9.82107E+06     170.500E+06     150.540E+06     82.5284E+03
             955     21.5796E-03     15.5814E-03     14.9298E-03     168.561E-03    -27.3278E-03    -141.156E-03    -56.3000E-03     83.7052E-03    -27.3278E-03     272.186E-03     388.981E-03     142.511E+06     143.155E+06     83.0398E+06    -16.4167E+06    -16.2440E+06     142.982E+06     83.0398E+06     1.70523E+06
             956     20.7976E-03     14.6126E-03     14.7990E-03     74.7748E-03    -26.2435E-03    -48.7035E-03    -35.8793E-03     61.9506E-03    -26.2435E-03     65.2187E-03     167.610E-03     115.758E+06     101.253E+06     8.62028E+06    -26.0895E+06    -20.3177E+06     100.886E+06     3.21531E+06     2.92267E+06
             957     20.1036E-03     13.6477E-03     14.7612E-03     58.0818E-03    -25.4658E-03    -32.6814E-03    -32.2394E-03     57.6398E-03    -25.4658E-03     9.50585E-03     115.811E-03     96.1847E+06     59.7707E+06    -20.8090E+06    -44.9294E+06    -20.1848E+06     59.1465E+06    -44.9294E+06     3.05485E+06
             958     19.4469E-03     12.6780E-03     14.7462E-03     55.6151E-03    -25.0138E-03    -30.6728E-03    -30.6471E-03     55.5893E-03    -25.0138E-03    -721.878E-06     93.7240E-03     55.3750E+06     10.4798E+06    -25.8957E+06    -52.8837E+06    -18.8761E+06     3.46019E+06    -52.8837E+06     3.76344E+06
             959     18.8181E-03     11.7076E-03     14.7327E-03     54.4539E-03    -24.7047E-03    -29.7937E-03    -29.7337E-03     54.3939E-03    -24.7047E-03    -4.04323E-03     83.6594E-03     42.9883E+06    -15.1825E+06    -31.6411E+06    -63.4830E+06    -16.5657E+06    -53.8271E+06    -39.9137E+06      4.6691E+06
             960     18.2217E-03     10.7364E-03     14.7228E-03     53.4463E-03    -24.3781E-03    -29.0758E-03    -28.9279E-03     53.2984E-03    -24.3781E-03    -6.56909E-03     75.5727E-03     75.3812E+06    -14.4324E+06    -26.8532E+06    -94.9050E+06    -14.9237E+06    -94.4138E+06    -26.8532E+06     5.53513E+06
             961     17.6596E-03     9.76442E-03     14.7145E-03     52.0729E-03    -24.0273E-03    -28.0398E-03    -27.7973E-03     51.8304E-03    -24.0273E-03    -8.57815E-03     68.1470E-03     104.956E+06    -14.3025E+06    -19.4608E+06    -121.713E+06    -14.6832E+06    -121.332E+06    -19.4608E+06     5.93826E+06
             962     17.1361E-03     8.79098E-03     14.7093E-03     50.7604E-03    -23.6913E-03    -27.0426E-03    -26.7587E-03     50.4764E-03    -23.6913E-03    -9.20896E-03     62.4650E-03     127.559E+06    -14.2483E+06    -16.0333E+06    -142.685E+06    -14.8984E+06    -142.324E+06    -15.7446E+06     6.47233E+06
             963     16.6520E-03     7.81698E-03     14.7032E-03     49.4805E-03    -23.3782E-03    -26.0676E-03    -25.7830E-03     49.1959E-03    -23.3782E-03    -9.08941E-03     57.8786E-03     145.828E+06    -14.0432E+06    -14.5396E+06    -160.118E+06    -14.9143E+06    -159.730E+06    -14.0563E+06     7.37833E+06
             964     16.2135E-03     6.84157E-03     14.6993E-03     48.2955E-03    -23.1187E-03    -25.1625E-03    -24.8971E-03     48.0301E-03    -23.1187E-03    -8.64135E-03     54.1579E-03     162.352E+06    -12.5781E+06    -14.5362E+06    -175.892E+06    -14.9124E+06    -175.516E+06    -12.5781E+06     7.71747E+06
             965     15.8221E-03     5.86568E-03     14.6946E-03     47.2335E-03    -22.9120E-03    -24.3130E-03    -24.0874E-03     47.0079E-03    -22.9120E-03    -7.85312E-03     51.2420E-03     176.052E+06    -11.5750E+06    -16.1232E+06    -189.851E+06    -16.5171E+06    -189.457E+06    -11.5750E+06     8.10473E+06
             966     15.4833E-03     4.88896E-03     14.6911E-03     46.3524E-03    -22.7199E-03    -23.6254E-03    -23.4545E-03     46.1815E-03    -22.7199E-03    -6.73794E-03     48.9638E-03     182.343E+06    -13.8495E+06    -18.6649E+06    -198.549E+06    -19.0457E+06    -198.168E+06    -13.8495E+06     8.09431E+06
             967     15.1992E-03     3.91145E-03     14.6873E-03     45.7874E-03    -22.5685E-03    -23.2155E-03    -23.0979E-03     45.6697E-03    -22.5685E-03    -5.54239E-03     47.3981E-03     193.653E+06    -16.2304E+06    -21.2565E+06    -212.338E+06    -21.4944E+06    -212.100E+06    -16.2304E+06     6.56519E+06
             968     14.9758E-03     2.93434E-03     14.6855E-03     45.2601E-03    -22.4282E-03    -22.8300E-03    -22.7604E-03     45.1906E-03    -22.4282E-03    -4.17526E-03     46.1519E-03     197.615E+06    -18.3592E+06    -22.5918E+06    -218.039E+06    -22.7258E+06    -217.905E+06    -18.3592E+06     5.02879E+06
             969     14.8123E-03     1.95641E-03     14.6826E-03     44.7561E-03    -22.3157E-03    -22.4391E-03    -22.3982E-03     44.7229E-03    -22.3235E-03    -2.89024E-03     45.2145E-03     195.435E+06    -22.4562E+06    -24.4719E+06    -218.886E+06    -24.5442E+06    -218.813E+06    -22.4562E+06     2.84377E+06
             970     14.7151E-03     977.876E-06     14.6826E-03     44.5953E-03    -22.2421E-03    -22.3529E-03    -22.3253E-03     44.5799E-03    -22.2543E-03    -1.92771E-03     44.9288E-03     199.420E+06    -25.7218E+06    -27.9816E+06    -226.260E+06    -27.3329E+06    -226.236E+06    -26.3946E+06    -48.5272E+03
             971     21.9082E-03     16.5510E-03     14.3539E-03     220.533E-03    -27.8045E-03    -192.495E-03    -70.4859E-03     98.5241E-03    -27.8045E-03     376.325E-03     591.093E-03     171.104E+06     168.965E+06     150.235E+06    -9.91029E+06    -9.87814E+06     168.879E+06     150.289E+06     243.923E+03
             972     20.8641E-03     15.5896E-03     13.8664E-03     166.740E-03    -26.4450E-03    -140.237E-03    -57.3935E-03     83.8962E-03    -26.4450E-03     267.283E-03     382.609E-03     142.301E+06     142.633E+06     82.9351E+06    -16.4162E+06    -16.1956E+06     142.412E+06     82.9351E+06     928.273E+03
             973     20.0668E-03     14.6311E-03     13.7335E-03     72.4333E-03    -25.2282E-03    -47.4347E-03    -36.5338E-03     61.5323E-03    -25.2282E-03     58.8750E-03     162.977E-03     115.739E+06     101.403E+06     9.01186E+06    -26.2546E+06    -19.5964E+06     100.883E+06     2.87336E+06     2.64683E+06
             974     19.3513E-03     13.6629E-03     13.7039E-03     56.4560E-03    -24.3580E-03    -32.1626E-03    -31.8903E-03     56.1837E-03    -24.3580E-03     5.91379E-03     112.136E-03     96.3115E+06     60.1197E+06    -20.9705E+06    -44.9525E+06    -20.2580E+06     59.4072E+06    -44.9525E+06     3.77778E+06
             975     18.6678E-03     12.6931E-03     13.6884E-03     54.4648E-03    -23.8437E-03    -30.6860E-03    -30.6449E-03     54.4237E-03    -23.8437E-03    -3.37629E-03     91.3960E-03     55.1880E+06     12.1045E+06    -25.4221E+06    -50.8258E+06    -18.4890E+06     5.17139E+06    -50.8258E+06     3.89092E+06
             976     18.0140E-03     11.7231E-03     13.6774E-03     53.4793E-03    -23.4273E-03    -30.0762E-03    -29.9436E-03     53.3466E-03    -23.4273E-03    -6.36616E-03     81.8213E-03     42.1676E+06    -15.3693E+06    -31.0718E+06    -62.5046E+06    -16.6799E+06    -53.6338E+06    -38.6320E+06     4.56536E+06
             977     17.3907E-03     10.7522E-03     13.6685E-03     52.1765E-03    -22.9747E-03    -29.1965E-03    -28.9129E-03     51.8929E-03    -22.9747E-03    -9.40020E-03     73.2561E-03      75.594E+06    -15.1050E+06    -26.1823E+06    -95.2893E+06    -15.6118E+06    -94.7825E+06    -26.1823E+06     5.61585E+06
             978     16.8029E-03     9.77962E-03     13.6637E-03     50.5457E-03    -22.4975E-03    -28.0381E-03    -27.6118E-03     50.1194E-03    -22.4975E-03    -11.4396E-03     65.6261E-03     105.206E+06    -13.7566E+06    -17.9030E+06    -120.956E+06    -14.7346E+06    -120.544E+06    -17.3373E+06     6.24572E+06
             979     16.2513E-03     8.80634E-03     13.6584E-03     48.8168E-03    -22.0273E-03    -26.7584E-03    -26.2629E-03     48.3213E-03    -22.0273E-03    -12.1092E-03     59.6550E-03     128.851E+06    -12.8782E+06    -14.8538E+06    -142.704E+06    -14.5838E+06    -142.339E+06    -13.5128E+06     6.61733E+06
             980     15.7417E-03     7.83105E-03     13.6557E-03     47.0501E-03    -21.5909E-03    -25.4273E-03    -24.9202E-03     46.5430E-03    -21.5909E-03    -11.9744E-03     54.6736E-03     146.952E+06    -11.8917E+06    -14.2203E+06    -159.985E+06    -14.5814E+06    -159.624E+06    -11.8917E+06     7.11759E+06
             981     15.2763E-03     6.85501E-03     13.6519E-03     45.4353E-03    -21.2172E-03    -24.2020E-03    -23.7243E-03     44.9575E-03    -21.2172E-03    -11.3826E-03     50.6465E-03     162.260E+06    -10.8079E+06    -15.0210E+06    -175.124E+06    -15.4580E+06    -174.687E+06    -10.8079E+06     8.17895E+06
             982     14.8612E-03     5.87780E-03     13.6495E-03     43.9759E-03    -20.8963E-03    -23.0667E-03    -22.6643E-03     43.5735E-03    -20.8963E-03    -10.2466E-03     47.4516E-03     175.178E+06    -10.8116E+06    -16.1573E+06    -188.600E+06    -16.6496E+06    -188.108E+06    -10.8116E+06     9.03388E+06
             983     14.4995E-03     4.89934E-03     13.6467E-03     42.6937E-03    -20.6084E-03    -22.0762E-03    -21.7695E-03     42.3870E-03    -20.6084E-03    -8.77877E-03     44.9094E-03     181.008E+06    -12.5372E+06    -16.5067E+06    -195.491E+06    -16.9109E+06    -195.086E+06    -12.5372E+06     8.37293E+06
             984     14.1964E-03     3.92046E-03     13.6443E-03     41.7188E-03    -20.3991E-03    -21.3146E-03    -21.0987E-03     41.5029E-03    -20.3991E-03    -7.24959E-03     43.0615E-03     192.881E+06    -14.2906E+06    -17.2958E+06    -208.656E+06    -17.5751E+06    -208.377E+06    -14.2906E+06     7.25106E+06
             985     13.9553E-03     2.94065E-03     13.6420E-03     40.9683E-03    -20.2333E-03    -20.7329E-03    -20.6032E-03     40.8386E-03    -20.2333E-03    -5.49281E-03     41.7020E-03     196.176E+06    -17.2907E+06    -20.2491E+06    -214.924E+06    -20.3363E+06    -214.741E+06    -17.3871E+06     5.83602E+06
             986     13.7816E-03     1.96069E-03     13.6415E-03     40.4210E-03    -20.1180E-03    -20.3015E-03    -20.2414E-03     40.3610E-03    -20.1181E-03    -3.68260E-03     40.7703E-03     194.109E+06    -19.6889E+06    -22.5898E+06    -215.220E+06    -22.5813E+06    -215.132E+06    -19.7852E+06     3.89506E+06
             987     13.6747E-03     980.646E-06     13.6395E-03     40.1588E-03    -20.0413E-03    -20.1179E-03    -20.0418E-03     40.1368E-03    -20.0954E-03    -2.19380E-03     40.3878E-03     199.105E+06    -21.9674E+06    -25.8141E+06    -222.957E+06    -23.7036E+06    -222.885E+06    -24.1500E+06     2.30563E+06
             988     21.2431E-03     16.5648E-03     13.2994E-03     216.347E-03    -27.1989E-03    -188.883E-03    -77.8173E-03     105.281E-03    -27.1989E-03     360.081E-03     574.003E-03     170.840E+06     169.650E+06     151.518E+06    -8.78842E+06    -8.75512E+06     169.616E+06     151.518E+06     179.500E+03
             989     20.1826E-03     15.6106E-03     12.7924E-03     166.002E-03    -25.4953E-03    -140.342E-03    -59.9883E-03     85.6488E-03    -25.4953E-03     264.099E-03     371.561E-03     140.128E+06     141.555E+06     84.1640E+06    -14.7994E+06    -14.4290E+06     141.185E+06     84.1640E+06     2.25542E+06
             990     19.3706E-03     14.6468E-03     12.6763E-03     69.3508E-03    -24.1768E-03    -45.3133E-03    -35.7242E-03     59.7616E-03    -24.1768E-03     54.9176E-03     156.980E-03     114.743E+06     100.159E+06     6.96017E+06    -25.1912E+06    -20.7545E+06     99.4645E+06     3.21826E+06     3.32692E+06
             991     18.6272E-03     13.6776E-03     12.6450E-03     55.1512E-03    -23.2715E-03    -31.9411E-03    -31.6187E-03     54.8288E-03    -23.2715E-03     5.54629E-03     108.646E-03     96.7487E+06     61.6841E+06    -20.9524E+06    -42.7771E+06    -20.2591E+06     60.9908E+06    -42.7771E+06     3.33928E+06
             992     17.9202E-03     12.7089E-03     12.6340E-03     53.5681E-03    -22.6778E-03    -30.9554E-03    -30.9052E-03     53.5178E-03    -22.6778E-03    -4.01673E-03     89.5936E-03     53.5635E+06     11.7691E+06    -24.3217E+06    -49.3320E+06    -18.1022E+06     5.54956E+06    -49.3320E+06     4.16103E+06
             993     17.2373E-03     11.7386E-03     12.6225E-03     52.4549E-03    -22.1502E-03    -30.3298E-03    -30.1648E-03     52.2898E-03    -22.1502E-03    -6.94031E-03     80.0337E-03     41.5902E+06    -15.3746E+06    -29.3142E+06    -61.4073E+06    -16.7348E+06    -53.1196E+06    -36.2417E+06     4.93313E+06
             994     16.5871E-03     10.7677E-03     12.6170E-03     51.0752E-03    -21.5567E-03    -29.5063E-03    -29.1321E-03     50.7011E-03    -21.5567E-03    -10.8118E-03     71.3284E-03     75.7626E+06    -15.0930E+06    -24.5422E+06    -94.8950E+06    -15.5700E+06    -94.4180E+06    -24.5422E+06     5.42378E+06
             995     15.9698E-03     9.79572E-03     12.6126E-03     49.1012E-03    -20.9298E-03    -28.1477E-03    -27.5774E-03     48.5308E-03    -20.9298E-03    -13.1553E-03     63.3561E-03     105.347E+06    -13.0424E+06    -17.2309E+06    -120.413E+06    -15.1390E+06    -120.030E+06    -15.5174E+06     5.95874E+06
             996     15.3908E-03     8.82160E-03     12.6117E-03     46.9737E-03    -20.3133E-03    -26.6322E-03    -25.9466E-03     46.2881E-03    -20.3133E-03    -14.1026E-03     57.1401E-03     129.579E+06    -10.7870E+06    -14.7536E+06    -142.292E+06    -15.0943E+06    -141.952E+06    -10.7870E+06     6.40511E+06
             997     14.8515E-03     7.84652E-03     12.6095E-03     44.7225E-03    -19.7212E-03    -24.9785E-03    -24.2547E-03     43.9987E-03    -19.7212E-03    -14.0877E-03     51.7143E-03     146.840E+06    -10.2842E+06    -15.0806E+06    -159.454E+06    -15.4252E+06    -159.109E+06    -10.2842E+06     6.92802E+06
             998     14.3592E-03     6.86931E-03     12.6095E-03     42.5085E-03    -19.2082E-03    -23.2837E-03    -22.5867E-03     41.8116E-03    -19.2082E-03    -13.4172E-03     47.1867E-03     163.263E+06    -9.52647E+06    -15.4859E+06    -175.685E+06    -15.9091E+06    -175.262E+06    -9.52647E+06     8.05515E+06
             999     13.9157E-03     5.89036E-03     12.6076E-03     40.5595E-03    -18.7539E-03    -21.7938E-03    -21.2018E-03     39.9676E-03    -18.7539E-03    -12.0208E-03     43.6071E-03     173.252E+06    -10.6702E+06    -15.4700E+06    -186.260E+06    -15.9103E+06    -185.819E+06    -10.6702E+06     8.51869E+06
            1000     13.5293E-03     4.91084E-03     12.6066E-03     38.8645E-03    -18.3580E-03    -20.5010E-03    -20.0437E-03     38.4072E-03    -18.3580E-03    -10.2996E-03     40.7555E-03     178.821E+06    -12.3131E+06    -15.3892E+06    -192.648E+06    -15.7197E+06    -192.317E+06    -12.3131E+06     7.55458E+06
            1001     13.2034E-03     3.92976E-03     12.6050E-03     37.4155E-03    -18.0793E-03    -19.3342E-03    -19.0131E-03     37.0944E-03    -18.0793E-03    -8.42290E-03     38.5397E-03     192.559E+06    -12.7722E+06    -15.8546E+06    -206.851E+06    -16.1730E+06    -206.532E+06    -12.7722E+06     7.71335E+06
            1002     12.9445E-03     2.94787E-03     12.6043E-03     36.3516E-03    -17.8744E-03    -18.4765E-03    -18.2843E-03     36.1595E-03    -17.8744E-03    -6.37009E-03     36.9536E-03     194.270E+06    -15.1184E+06    -16.7673E+06    -210.204E+06    -16.7726E+06    -209.940E+06    -15.3773E+06     7.00973E+06
            1003     12.7550E-03     1.96540E-03     12.6027E-03     35.7354E-03    -17.7607E-03    -17.9726E-03    -17.8770E-03     35.6441E-03    -17.7651E-03    -4.27252E-03     36.0024E-03     194.099E+06    -15.9860E+06    -18.2559E+06    -211.200E+06    -17.6536E+06    -211.069E+06    -16.7191E+06     4.85204E+06
            1004     12.6415E-03     982.559E-06     12.6033E-03     35.4897E-03    -17.6702E-03    -17.8203E-03    -17.7375E-03     35.4610E-03    -17.7242E-03    -2.22981E-03     35.6854E-03     198.986E+06    -15.4670E+06    -21.4969E+06    -217.383E+06    -19.5996E+06    -217.297E+06    -17.4510E+06     3.50351E+06
            1005     20.5831E-03     16.5693E-03     12.2115E-03     212.394E-03    -26.8239E-03    -185.329E-03    -83.8841E-03     110.949E-03    -26.8239E-03     345.470E-03     559.342E-03     169.474E+06     167.166E+06     149.558E+06    -9.73702E+06    -9.70474E+06     166.832E+06     149.860E+06    -572.534E+03
            1006     19.5350E-03     15.6235E-03     11.7269E-03     162.749E-03    -24.7547E-03    -137.785E-03    -63.0667E-03     88.0310E-03    -24.7547E-03     255.791E-03     357.056E-03     141.977E+06     140.346E+06     82.4635E+06    -17.9836E+06    -17.6311E+06     139.994E+06     82.4635E+06     2.39968E+06
            1007     18.7045E-03     14.6588E-03     11.6181E-03     67.9488E-03    -23.3052E-03    -44.6863E-03    -35.0057E-03     58.2682E-03    -23.3052E-03     54.9694E-03     151.617E-03     114.929E+06     101.617E+06     9.20952E+06    -24.3009E+06    -19.9175E+06     101.109E+06     5.33359E+06     2.48027E+06
            1008     17.9373E-03     13.6913E-03     11.5886E-03     54.8540E-03    -22.3600E-03    -32.5481E-03    -32.1395E-03     54.4453E-03    -22.3600E-03     7.15454E-03     106.275E-03     93.6648E+06     60.9241E+06    -20.1598E+06    -40.0118E+06    -19.6458E+06     60.4101E+06    -40.0118E+06     2.89762E+06
            1009     17.2023E-03     12.7219E-03     11.5789E-03     52.9311E-03    -21.6670E-03    -31.3362E-03    -31.3105E-03     52.9055E-03    -21.6670E-03    -2.67723E-03     88.3122E-03     51.2205E+06     11.5772E+06    -24.6695E+06    -46.3350E+06    -18.5280E+06     5.43574E+06    -46.3350E+06     4.62428E+06
            1010     16.4915E-03     11.7523E-03     11.5695E-03     51.8799E-03    -21.0189E-03    -30.9058E-03    -30.7646E-03     51.7387E-03    -21.0189E-03    -5.99656E-03     78.9053E-03     40.8944E+06    -15.0511E+06    -26.3081E+06    -59.1054E+06    -16.3144E+06    -52.1527E+06    -31.9975E+06     4.80726E+06
            1011     15.8114E-03     10.7821E-03     11.5648E-03     50.2585E-03    -20.2748E-03    -29.9777E-03    -29.5804E-03     49.8612E-03    -20.2748E-03    -11.0438E-03     69.8933E-03     76.8780E+06    -14.5777E+06    -20.7265E+06    -94.1975E+06    -14.9988E+06    -93.7764E+06    -20.7265E+06     5.08180E+06
            1012     15.1654E-03     9.81005E-03     11.5651E-03     47.9612E-03    -19.4889E-03    -28.4426E-03    -27.8089E-03     47.3276E-03    -19.4889E-03    -13.8014E-03     61.6799E-03     106.911E+06    -10.7718E+06    -15.8924E+06    -120.135E+06    -14.5199E+06    -119.816E+06    -12.4629E+06     5.50631E+06
            1013     14.5547E-03     8.83662E-03     11.5652E-03     45.3809E-03    -18.7173E-03    -26.6410E-03    -25.8466E-03     44.5865E-03    -18.7173E-03    -15.0122E-03     55.1330E-03     131.471E+06    -6.31738E+06    -14.2960E+06    -141.583E+06    -14.5909E+06    -141.288E+06    -6.31738E+06     5.93468E+06
            1014     13.9855E-03     7.86070E-03     11.5673E-03     42.6054E-03    -17.9625E-03    -24.6283E-03    -23.7585E-03     41.7356E-03    -17.9625E-03    -15.1790E-03     49.2310E-03     148.723E+06    -6.02368E+06    -14.3274E+06    -158.708E+06    -14.6072E+06    -158.428E+06    -6.02368E+06     6.17644E+06
            1015     13.4615E-03     6.88291E-03     11.5688E-03     39.9043E-03    -17.2981E-03    -22.5911E-03    -21.7414E-03     39.0547E-03    -17.2981E-03    -14.4614E-03     44.2714E-03     166.297E+06    -4.82483E+06    -13.7288E+06    -175.380E+06    -14.0142E+06    -175.094E+06    -4.82483E+06     6.62284E+06
            1016     12.9892E-03     5.90336E-03     11.5702E-03     37.3259E-03    -16.7042E-03    -20.6186E-03    -19.8844E-03     36.5916E-03    -16.7042E-03    -12.9358E-03     40.1219E-03     174.544E+06    -6.32232E+06    -12.7393E+06    -183.951E+06    -13.0248E+06    -183.666E+06    -6.32232E+06     6.85474E+06
            1017     12.5732E-03     4.92163E-03     11.5699E-03     35.0818E-03    -16.2074E-03    -18.8756E-03    -18.2979E-03     34.5041E-03    -16.2074E-03    -11.0717E-03     36.7848E-03     180.977E+06    -8.38015E+06    -12.5300E+06    -191.391E+06    -12.7964E+06    -191.125E+06    -8.38015E+06     6.73703E+06
            1018     12.2234E-03     3.93887E-03     11.5714E-03     33.3557E-03    -15.8499E-03    -17.5051E-03    -17.0985E-03     32.9491E-03    -15.8499E-03    -8.98011E-03     34.3491E-03     194.945E+06    -7.81216E+06    -12.4803E+06    -205.044E+06    -12.7526E+06    -204.771E+06    -7.81216E+06     7.11542E+06
            1019     11.9418E-03     2.95492E-03     11.5705E-03     31.9704E-03    -15.5663E-03    -16.4034E-03    -16.1650E-03     31.7320E-03    -15.5663E-03    -6.69751E-03     32.4962E-03     194.314E+06    -9.94210E+06    -12.2954E+06    -205.416E+06    -11.9435E+06    -205.200E+06    -10.5095E+06     6.20572E+06
            1020     11.7375E-03     1.97018E-03     11.5710E-03     31.1296E-03    -15.4067E-03    -15.7209E-03    -15.6011E-03     31.0141E-03    -15.4111E-03    -4.49554E-03     31.3666E-03     196.173E+06    -9.55395E+06    -11.7549E+06    -206.814E+06    -10.8363E+06    -206.691E+06    -10.5956E+06     4.88165E+06
            1021     11.6116E-03     985.106E-06     11.5697E-03     30.7637E-03    -15.2745E-03    -15.4890E-03    -15.4491E-03     30.7282E-03    -15.2789E-03    -2.33419E-03     30.9276E-03     200.948E+06    -7.56884E+06    -13.6001E+06    -211.446E+06    -11.2993E+06    -211.384E+06    -9.93177E+06     2.79765E+06
            1022     19.9347E-03     16.5659E-03     11.0889E-03     207.429E-03    -26.6512E-03    -180.590E-03    -86.0297E-03     112.869E-03    -26.6512E-03     332.714E-03     546.851E-03     169.519E+06     166.117E+06     149.143E+06    -10.5938E+06    -10.5664E+06     165.788E+06     149.444E+06    -399.109E+03
            1023     18.9257E-03     15.6333E-03     10.6669E-03     153.026E-03    -24.3160E-03    -128.551E-03    -63.4959E-03     87.9702E-03    -24.3160E-03     234.584E-03     339.883E-03     140.798E+06     139.088E+06     81.8594E+06    -17.6598E+06    -17.5404E+06     138.968E+06     81.8594E+06     374.707E+03
            1024     18.0717E-03     14.6668E-03     10.5580E-03     68.2239E-03    -22.7107E-03    -45.5430E-03    -35.4637E-03     58.1447E-03    -22.7107E-03     56.3838E-03     147.148E-03     112.980E+06     100.403E+06     8.51634E+06    -22.9384E+06    -19.6515E+06     100.178E+06     5.45427E+06     2.05767E+06
            1025     17.2807E-03     13.7000E-03     10.5325E-03     54.9498E-03    -21.7064E-03    -33.2926E-03    -32.8594E-03     54.5166E-03    -21.7064E-03     8.71736E-03     104.638E-03     90.8349E+06     59.9616E+06    -21.2728E+06    -37.0177E+06    -20.9768E+06     59.6655E+06    -37.0177E+06     3.68208E+06
            1026     16.5185E-03     12.7315E-03     10.5247E-03     52.8987E-03    -20.9188E-03    -32.0450E-03    -32.0400E-03     52.8937E-03    -20.9188E-03    -330.231E-06     87.7387E-03     47.0239E+06     11.8920E+06    -24.6163E+06    -40.9075E+06    -18.8181E+06     6.09378E+06    -40.9075E+06     3.73559E+06
            1027     15.7785E-03     11.7632E-03     10.5161E-03     51.7556E-03    -20.1459E-03    -31.6521E-03    -31.5500E-03     51.6535E-03    -20.1459E-03    -4.22146E-03     78.4152E-03     39.3805E+06    -15.2363E+06    -22.9419E+06    -56.2193E+06    -16.3370E+06    -51.5462E+06    -26.5143E+06     3.89162E+06
            1028     15.0684E-03     10.7934E-03     10.5147E-03     49.7983E-03    -19.2659E-03    -30.5331E-03    -30.1824E-03     49.4476E-03    -19.2659E-03    -10.2621E-03     68.9553E-03     79.0762E+06    -13.0370E+06    -16.1872E+06    -93.6187E+06    -14.7762E+06    -93.3455E+06    -14.7212E+06     4.00598E+06
            1029     14.3906E-03     9.82231E-03     10.5172E-03     47.1024E-03    -18.3355E-03    -28.7396E-03    -28.1462E-03     46.5089E-03    -18.3355E-03    -13.2971E-03     60.5894E-03     109.735E+06    -6.40245E+06    -14.0852E+06    -119.737E+06    -13.7506E+06    -119.502E+06    -6.97259E+06     4.52681E+06
            1030     13.7476E-03     8.84863E-03     10.5213E-03     44.0954E-03    -17.4244E-03    -26.6547E-03    -25.8764E-03     43.3172E-03    -17.4244E-03    -14.7046E-03     53.7553E-03     135.022E+06     1.04117E+06    -12.5929E+06    -140.244E+06    -12.7779E+06    -140.059E+06     1.04117E+06     4.29143E+06
            1031     13.1448E-03     7.87290E-03     10.5263E-03     40.8899E-03    -16.5354E-03    -24.3549E-03    -23.4769E-03     40.0118E-03    -16.5354E-03    -15.0287E-03     47.4962E-03     153.851E+06     2.64238E+06    -11.3805E+06    -157.695E+06    -11.5091E+06    -157.567E+06     2.64238E+06     3.71480E+06
            1032     12.5873E-03     6.89458E-03     10.5311E-03     37.7296E-03    -15.7274E-03    -21.9912E-03    -21.1340E-03     36.8724E-03    -15.7274E-03    -14.2050E-03     42.1025E-03     171.949E+06     3.37926E+06    -10.1063E+06    -174.908E+06    -10.2190E+06    -174.795E+06     3.37926E+06     3.78353E+06
            1033     12.0815E-03     5.91400E-03     10.5351E-03     34.6463E-03    -15.0062E-03    -19.6336E-03    -18.8798E-03     33.8926E-03    -15.0062E-03    -12.6983E-03     37.4502E-03     180.468E+06     2.52875E+06    -8.42943E+06    -183.124E+06    -8.55303E+06    -183.001E+06     2.52875E+06     4.14018E+06
            1034     11.6355E-03     4.93126E-03     10.5388E-03     31.9445E-03    -14.4076E-03    -17.5369E-03    -16.9450E-03     31.3526E-03    -14.4076E-03    -10.7438E-03     33.6583E-03     187.477E+06     706.201E+03    -7.11447E+06    -190.545E+06    -7.26938E+06    -190.390E+06     706.201E+03     5.19353E+06
            1035     11.2550E-03     3.94671E-03     10.5403E-03     29.9096E-03    -13.9588E-03    -15.9496E-03    -15.5308E-03     29.4908E-03    -13.9588E-03    -8.68398E-03     30.9284E-03     199.940E+06     1.42881E+06    -6.74141E+06    -202.462E+06    -6.88721E+06    -202.317E+06     1.42881E+06     4.93001E+06
            1036     10.9504E-03     2.96115E-03     10.5425E-03     28.3016E-03    -13.5873E-03    -14.7128E-03    -14.4628E-03     28.0516E-03    -13.5873E-03    -6.46767E-03     28.8500E-03     199.320E+06     118.899E+03    -6.31414E+06    -202.321E+06    -5.99054E+06    -202.239E+06    -286.013E+03     3.68767E+06
            1037     10.7257E-03     1.97452E-03     10.5424E-03     27.1697E-03    -13.3050E-03    -13.8645E-03    -13.7478E-03     27.0530E-03    -13.3050E-03    -4.24322E-03     27.4576E-03     199.985E+06    -1.42012E+06    -5.77106E+06    -203.532E+06    -5.42497E+06    -203.473E+06    -1.82504E+06     3.06955E+06
            1038     10.5888E-03     987.628E-06     10.5426E-03     26.3812E-03    -13.0456E-03    -13.3364E-03    -13.2624E-03     26.3438E-03    -13.0821E-03    -2.29011E-03     26.6329E-03     202.087E+06    -2.10304E+06    -6.93825E+06    -206.558E+06    -5.11491E+06    -206.493E+06    -3.99176E+06     2.99226E+06
            1039     19.3375E-03     16.5733E-03     9.96318E-03     202.820E-03    -26.5203E-03    -176.108E-03    -85.7785E-03     112.490E-03    -26.5203E-03     322.835E-03     532.167E-03     168.857E+06     166.899E+06     151.019E+06     -8.7111E+06    -8.69979E+06     166.888E+06     151.019E+06    -427.892E+03
            1040     18.3478E-03     15.6344E-03     9.60236E-03     141.263E-03    -24.1073E-03    -116.984E-03    -61.1657E-03     85.4448E-03    -24.1073E-03     210.127E-03     320.130E-03     137.495E+06     136.561E+06     82.7611E+06    -16.4010E+06    -16.3396E+06     136.500E+06     82.7611E+06     926.239E+03
            1041     17.4787E-03     14.6721E-03     9.49907E-03     68.9003E-03    -22.4192E-03    -46.5117E-03    -36.5698E-03     58.9584E-03    -22.4192E-03     56.9548E-03     142.918E-03     111.697E+06     98.2080E+06     7.06285E+06    -22.7196E+06    -22.0924E+06     98.0586E+06     6.58514E+06     3.11549E+06
            1042     16.6620E-03     13.7052E-03     9.47571E-03     55.2007E-03    -21.3434E-03    -33.9113E-03    -33.4256E-03     54.7150E-03    -21.3434E-03     10.4178E-03     102.936E-03     89.8790E+06     61.3216E+06    -21.7140E+06    -33.0623E+06    -21.8914E+06     61.0464E+06    -32.6096E+06     2.87837E+06
            1043     15.8725E-03     12.7380E-03     9.46990E-03     53.2013E-03    -20.4841E-03    -32.7712E-03    -32.7397E-03     53.1698E-03    -20.4841E-03     2.70102E-03     87.5602E-03     42.6550E+06     10.7891E+06    -23.1163E+06    -36.7829E+06    -19.3917E+06     5.95387E+06    -35.6722E+06     2.31428E+06
            1044     15.1017E-03     11.7695E-03     9.46248E-03     51.8447E-03    -19.6232E-03    -32.2433E-03    -32.1612E-03     51.7626E-03    -19.6232E-03    -1.62504E-03     77.9874E-03     37.3435E+06    -14.4386E+06    -20.9358E+06    -53.7565E+06    -17.5162E+06    -51.0591E+06    -20.5556E+06     2.69417E+06
            1045     14.3607E-03     10.8010E-03     9.46406E-03     49.4909E-03    -18.6516E-03    -30.8204E-03    -30.5768E-03     49.2473E-03    -18.6516E-03    -8.43091E-03     68.2970E-03     80.7533E+06    -8.26734E+06    -16.6002E+06    -92.7171E+06    -16.7499E+06    -92.5674E+06    -8.26734E+06     2.47989E+06
            1046     13.6499E-03     9.82987E-03     9.47060E-03     46.4218E-03    -17.6235E-03    -28.7640E-03    -28.3275E-03     45.9852E-03    -17.6235E-03    -11.2765E-03     59.9531E-03     111.366E+06    -708.238E+03    -14.2953E+06    -118.177E+06    -14.4642E+06    -118.008E+06    -708.238E+03     977.375E+03
            1047     12.9719E-03     8.85666E-03     9.47786E-03     43.1446E-03    -16.6256E-03    -26.5115E-03    -25.9145E-03     42.5476E-03    -16.6256E-03    -12.7021E-03     53.0391E-03     139.323E+06     8.46739E+06    -10.2008E+06    -139.238E+06    -10.3481E+06    -139.091E+06     8.46739E+06    -143.381E+03
            1048     12.3333E-03     7.88068E-03     9.48716E-03     39.6766E-03    -15.6619E-03    -24.0322E-03    -23.3490E-03     38.9934E-03    -15.6619E-03    -13.0445E-03     46.6366E-03     160.118E+06     11.7397E+06    -8.08609E+06    -157.335E+06    -8.11013E+06    -157.311E+06     11.7397E+06     119.760E+03
            1049     11.7390E-03     6.90216E-03     9.49543E-03     36.1941E-03    -14.7604E-03    -21.4358E-03    -20.7704E-03     35.5287E-03    -14.7604E-03    -12.2419E-03     40.9592E-03     177.978E+06     12.1704E+06    -6.87130E+06    -174.539E+06    -6.89987E+06    -174.510E+06     12.1704E+06    -54.4215E+03
            1050     11.1969E-03     5.92102E-03     9.50325E-03     32.9222E-03    -13.9473E-03    -18.9667E-03    -18.3788E-03     32.3343E-03    -13.9473E-03    -10.9116E-03     36.0914E-03     187.955E+06     12.2721E+06    -5.87774E+06    -184.058E+06    -5.90956E+06    -184.026E+06     12.2721E+06     241.577E+03
            1051     10.7146E-03     4.93760E-03     9.50903E-03     30.0077E-03    -13.2496E-03    -16.7548E-03    -16.2983E-03     29.5512E-03    -13.2496E-03    -9.12796E-03     32.0180E-03     194.089E+06     11.4329E+06    -4.54462E+06    -190.096E+06    -4.59773E+06    -190.043E+06     11.4329E+06     1.58265E+06
            1052     10.3020E-03     3.95233E-03     9.51371E-03     27.6213E-03    -12.6873E-03    -14.9330E-03    -14.6104E-03     27.2986E-03    -12.6873E-03    -7.32079E-03     28.9149E-03     204.163E+06     10.7494E+06    -3.10550E+06    -199.953E+06    -3.14088E+06    -199.918E+06     10.7494E+06     1.25168E+06
            1053     9.96772E-03     2.96551E-03     9.51636E-03     25.7669E-03    -12.2145E-03    -13.5511E-03    -13.3578E-03     25.5736E-03    -12.2145E-03    -5.39435E-03     26.5529E-03     203.888E+06     7.88495E+06    -2.93294E+06    -201.191E+06    -2.95034E+06    -201.174E+06     7.88495E+06     528.346E+03
            1054     9.72161E-03     1.97793E-03     9.51827E-03     24.3241E-03    -11.8402E-03    -12.4836E-03    -12.3964E-03     24.2370E-03    -11.8402E-03    -3.47102E-03     24.8461E-03     203.324E+06     4.21536E+06    -3.24405E+06    -202.718E+06    -3.25617E+06    -202.706E+06     4.21536E+06     527.375E+03
            1055     9.57013E-03     989.239E-06     9.51887E-03     23.3333E-03    -11.5374E-03    -11.7960E-03    -11.7315E-03     23.3054E-03    -11.5739E-03    -1.79897E-03     23.9223E-03     202.032E+06    -235.702E+03    -4.71367E+06    -204.462E+06    -3.96862E+06    -204.421E+06    -1.02160E+06     1.72605E+06
            1056     18.7849E-03     16.5727E-03     8.84409E-03     197.254E-03    -26.4450E-03    -170.701E-03    -84.0860E-03     110.639E-03    -26.4450E-03     312.195E-03     513.435E-03     168.149E+06     165.643E+06     150.796E+06    -8.90230E+06    -8.89113E+06     165.632E+06     150.796E+06     309.020E+03
            1057     17.8123E-03     15.6346E-03     8.53450E-03     130.335E-03    -24.0873E-03    -106.184E-03    -57.8407E-03     81.9911E-03    -24.0873E-03     188.099E-03     300.131E-03     137.449E+06     134.780E+06     83.3928E+06    -17.9314E+06    -17.8567E+06     134.705E+06     83.3928E+06     2.03456E+06
            1058     16.9257E-03     14.6722E-03     8.43838E-03     68.8505E-03    -22.4096E-03    -46.5295E-03    -37.3236E-03     59.6447E-03    -22.4096E-03     55.7197E-03     138.168E-03     110.873E+06     98.3811E+06     10.4171E+06    -22.4759E+06    -22.2999E+06     98.2052E+06     10.4171E+06     2.50242E+06
            1059     16.0859E-03     13.7066E-03     8.41938E-03     55.4317E-03    -21.3080E-03    -34.1783E-03    -33.5760E-03     54.8295E-03    -21.3080E-03     13.0821E-03     100.826E-03     88.0115E+06     62.2230E+06    -20.6743E+06    -29.7189E+06    -22.5029E+06     61.9243E+06    -27.5916E+06     2.21788E+06
            1060     15.2671E-03     12.7386E-03     8.41495E-03     53.5814E-03    -20.4259E-03    -33.1998E-03    -33.0539E-03     53.4356E-03    -20.4259E-03     6.75349E-03     87.4586E-03     40.8172E+06     11.1368E+06    -23.7756E+06    -33.2547E+06    -22.1686E+06     6.24750E+06    -29.9725E+06     1.68316E+06
            1061     14.4664E-03     11.7718E-03     8.40842E-03     51.8762E-03    -19.5397E-03    -32.3489E-03    -32.2473E-03     51.7746E-03    -19.5397E-03     1.79015E-03     77.2941E-03     36.5270E+06    -12.2469E+06    -22.7451E+06    -52.3824E+06    -21.3770E+06    -51.2255E+06    -14.7718E+06     1.27894E+06
            1062     13.6930E-03     10.8025E-03     8.41445E-03     48.9831E-03    -18.5744E-03    -30.3888E-03    -30.2839E-03     48.8783E-03    -18.5744E-03    -5.04708E-03     67.6469E-03     80.8648E+06    -1.46980E+06    -18.2310E+06    -89.3333E+06    -18.6756E+06    -88.8887E+06    -1.46980E+06    -1.28309E+06
            1063     12.9469E-03     9.83153E-03     8.42394E-03     45.8460E-03    -17.5662E-03    -28.2561E-03    -28.0563E-03     45.6462E-03    -17.5662E-03    -7.18052E-03     59.8062E-03     113.832E+06     6.36372E+06    -12.8905E+06    -115.839E+06    -13.5632E+06    -115.166E+06     6.36372E+06    -6.03362E+06
            1064     12.2319E-03     8.85790E-03     8.43540E-03     42.5988E-03    -16.5725E-03    -26.0285E-03    -25.7400E-03     42.3103E-03    -16.5725E-03    -8.38657E-03     53.1451E-03     145.379E+06     14.3580E+06    -8.61129E+06    -141.120E+06    -9.06198E+06    -140.669E+06     14.3580E+06    -6.72626E+06
            1065     11.5542E-03     7.88198E-03     8.44825E-03     39.1891E-03    -15.6223E-03    -23.5838E-03    -23.2508E-03     38.8561E-03    -15.6223E-03    -8.65417E-03     46.9820E-03     167.606E+06     20.9295E+06    -5.56795E+06    -158.317E+06    -5.82010E+06    -158.064E+06     20.9295E+06    -4.98344E+06
            1066     10.9198E-03     6.90338E-03     8.46085E-03     35.8849E-03    -14.7179E-03    -21.1794E-03    -20.8615E-03     35.5671E-03    -14.7179E-03    -8.00235E-03     41.5246E-03     186.084E+06     23.7341E+06    -3.99487E+06    -174.617E+06    -4.14243E+06    -174.469E+06     23.7341E+06    -4.45744E+06
            1067     10.3367E-03     5.92237E-03     8.47194E-03     32.7535E-03    -13.8629E-03    -18.8935E-03    -18.6172E-03     32.4772E-03    -13.8629E-03    -7.07930E-03     36.6532E-03     197.426E+06     24.0738E+06    -4.17703E+06    -185.906E+06    -4.31411E+06    -185.768E+06     24.0738E+06    -4.36867E+06
            1068     9.81436E-03     4.93927E-03     8.48087E-03     29.8161E-03    -13.0720E-03    -16.7484E-03    -16.5338E-03     29.6014E-03    -13.0720E-03    -5.91237E-03     32.4560E-03     200.877E+06     20.9576E+06    -4.40945E+06    -191.357E+06    -4.50988E+06    -191.256E+06     20.9576E+06    -3.51802E+06
            1069     9.36361E-03     3.95411E-03     8.48777E-03     27.2215E-03    -12.3779E-03    -14.8447E-03    -14.6926E-03     27.0695E-03    -12.3779E-03    -4.71854E-03     29.0754E-03     205.305E+06     14.9225E+06    -4.19945E+06    -199.239E+06    -4.27148E+06    -199.167E+06     14.9225E+06    -3.01369E+06
            1070     8.99609E-03     2.96720E-03     8.49267E-03     25.0095E-03    -11.8030E-03    -13.2056E-03    -13.1173E-03     24.9212E-03    -11.8030E-03    -3.41810E-03     26.2755E-03     204.316E+06     7.70122E+06    -4.17202E+06    -202.266E+06    -4.26205E+06    -202.176E+06     7.70122E+06    -3.52209E+06
            1071     8.72294E-03     1.97887E-03     8.49552E-03     23.3682E-03    -11.4039E-03    -11.9637E-03    -11.9238E-03     23.3283E-03    -11.4039E-03    -2.18663E-03     24.3167E-03     203.447E+06     3.52944E+06    -4.41928E+06    -203.769E+06    -4.48909E+06    -203.699E+06     3.52944E+06    -2.85185E+06
            1072     8.55544E-03     989.454E-06     8.49804E-03     22.4528E-03    -11.1239E-03    -11.3285E-03    -11.3167E-03     22.4411E-03    -11.1239E-03    -898.219E-06     23.4703E-03     201.762E+06    -180.132E+03    -7.05788E+06    -205.282E+06    -6.28826E+06    -205.266E+06    -966.029E+03    -835.133E+03
            1073     18.2938E-03     16.5768E-03     7.73769E-03     190.091E-03    -26.5174E-03    -163.534E-03    -81.5087E-03     108.065E-03    -26.5174E-03     298.509E-03     492.452E-03     169.422E+06     164.506E+06     150.233E+06    -11.1356E+06    -11.1133E+06     164.484E+06     150.233E+06     830.756E+03
            1074     17.3205E-03     15.6299E-03     7.46365E-03     121.814E-03    -24.2694E-03    -97.5477E-03    -54.4158E-03     78.6823E-03    -24.2694E-03     171.325E-03     282.510E-03     138.543E+06     133.685E+06     84.2796E+06    -19.8841E+06    -19.7897E+06     133.591E+06     84.2796E+06     2.12282E+06
            1075     16.4205E-03     14.6695E-03     7.37811E-03     68.1483E-03    -22.6691E-03    -45.5702E-03    -37.2180E-03     59.7961E-03    -22.6691E-03     53.7637E-03     132.611E-03     110.750E+06     97.5023E+06     11.0675E+06    -23.6571E+06    -23.2862E+06     97.1314E+06     11.0675E+06     3.17839E+06
            1076     15.5549E-03     13.7018E-03     7.36322E-03     55.6866E-03    -21.6165E-03    -34.0915E-03    -33.2774E-03     54.8726E-03    -21.6165E-03     16.1667E-03     98.2920E-03     89.8410E+06     63.3776E+06    -22.9087E+06    -29.5796E+06    -26.7198E+06     62.8987E+06    -25.2896E+06     3.47868E+06
            1077     14.7081E-03     12.7350E-03     7.35866E-03     53.6499E-03    -20.8029E-03    -32.8708E-03    -32.4945E-03     53.2735E-03    -20.8029E-03     11.1432E-03     86.6395E-03     42.6371E+06     13.7899E+06    -25.0624E+06    -31.1642E+06    -27.0019E+06     8.45891E+06    -23.8937E+06     976.531E+03
            1078     13.8765E-03     11.7666E-03     7.35549E-03     51.2590E-03    -20.0078E-03    -31.2747E-03    -31.0598E-03     51.0441E-03    -20.0078E-03     6.19297E-03     75.8826E-03     37.1883E+06    -10.0262E+06    -21.4458E+06    -51.0315E+06    -23.5009E+06    -48.9763E+06    -10.0262E+06    -3.34796E+06
            1079     13.0698E-03     10.7969E-03     7.36521E-03     48.1056E-03    -19.1937E-03    -28.9172E-03    -28.8721E-03     48.0604E-03    -19.1937E-03     646.496E-06     66.9078E-03     80.8359E+06     3.43802E+06    -15.6247E+06    -85.1949E+06    -17.6406E+06    -83.1791E+06     3.43802E+06    -8.83374E+06
            1080     12.2863E-03     9.82434E-03     7.37805E-03     45.3705E-03    -18.3832E-03    -26.9919E-03    -26.9235E-03     45.3021E-03    -18.3832E-03    -105.377E-06     60.3429E-03     117.803E+06     12.7028E+06    -12.2110E+06    -115.505E+06    -13.8012E+06    -113.915E+06     12.7028E+06    -12.3958E+06
            1081     11.5319E-03     8.85044E-03     7.39295E-03     42.7614E-03    -17.5583E-03    -25.2172E-03    -25.1302E-03     42.6744E-03    -17.5583E-03    -848.787E-06     54.4269E-03     151.057E+06     19.4119E+06    -9.92188E+06    -144.111E+06    -11.4456E+06    -142.588E+06     19.4119E+06    -13.6642E+06
            1082     10.8123E-03     7.87408E-03     7.40973E-03     40.1093E-03    -16.7350E-03    -23.3842E-03    -23.2877E-03     40.0128E-03    -16.7350E-03    -938.215E-06     49.1766E-03     174.871E+06     27.1039E+06    -6.23165E+06    -162.022E+06    -7.51908E+06    -160.735E+06     27.1039E+06    -13.1533E+06
            1083     10.1336E-03     6.89585E-03     7.42545E-03     37.5521E-03    -15.9202E-03    -21.6435E-03    -21.5567E-03     37.4653E-03    -15.9202E-03    -781.701E-06     44.4439E-03     195.515E+06     33.5619E+06    -3.41278E+06    -177.778E+06    -4.20531E+06    -176.986E+06     33.5619E+06    -10.7487E+06
            1084     9.50494E-03     5.91605E-03     7.43937E-03     34.9272E-03    -15.0808E-03    -19.8511E-03    -19.7785E-03     34.8546E-03    -15.0808E-03    -744.686E-06     39.9247E-03     205.720E+06     32.9713E+06    -3.15874E+06    -188.401E+06    -3.64542E+06    -187.914E+06     32.9713E+06    -9.19199E+06
            1085     8.93696E-03     4.93410E-03     7.45143E-03     32.1875E-03    -14.2352E-03    -17.9560E-03    -17.9023E-03     32.1338E-03    -14.2352E-03    -665.597E-06     35.7887E-03     206.215E+06     24.6057E+06    -4.37631E+06    -194.522E+06    -4.79158E+06    -194.107E+06     24.6057E+06    -8.49715E+06
            1086     8.44227E-03     3.95033E-03     7.46102E-03     29.5218E-03    -13.4497E-03    -16.0729E-03    -16.0357E-03     29.4845E-03    -13.4497E-03    -571.055E-06     32.1417E-03     206.142E+06     14.2099E+06    -5.23027E+06    -200.917E+06    -5.56498E+06    -200.583E+06     14.2099E+06    -7.69737E+06
            1087     8.03542E-03     2.96473E-03     7.46849E-03     27.1280E-03    -12.7950E-03    -14.3329E-03    -14.3113E-03     27.1065E-03    -12.7950E-03    -454.491E-06     28.9857E-03     205.021E+06     5.32820E+06    -5.90821E+06    -205.052E+06    -6.17634E+06    -204.784E+06     5.32820E+06    -7.12551E+06
            1088     7.73050E-03     1.97713E-03     7.47339E-03     25.3201E-03    -12.3096E-03    -13.0107E-03    -13.0010E-03     25.3104E-03    -12.3096E-03    -344.148E-06     26.7528E-03     203.828E+06    -690.539E+03    -7.04400E+06    -207.612E+06    -7.21568E+06    -207.440E+06    -690.539E+03    -5.70207E+06
            1089     7.54107E-03     988.968E-06     7.47593E-03     24.1815E-03    -11.9571E-03    -12.2251E-03    -12.2221E-03     24.1785E-03    -11.9571E-03     8.87359E-06     25.6357E-03     202.717E+06    -2.83171E+06    -9.27177E+06    -208.680E+06    -7.86548E+06    -208.565E+06    -4.35274E+06    -4.11247E+06
            1090     17.8496E-03     16.5689E-03     6.63919E-03     183.312E-03    -26.8962E-03    -156.402E-03    -78.8465E-03     105.757E-03    -26.8962E-03     285.148E-03     469.560E-03     167.150E+06     163.893E+06     149.738E+06    -9.54864E+06    -9.51521E+06     163.859E+06     149.738E+06     2.23057E+06
            1091     16.8785E-03     15.6223E-03     6.38981E-03     115.990E-03    -24.7769E-03    -91.2183E-03    -52.4555E-03     77.2273E-03    -24.7769E-03     158.197E-03     265.485E-03     138.367E+06     132.897E+06     86.3277E+06    -20.2823E+06    -20.0309E+06     132.646E+06     86.3277E+06     3.50094E+06
            1092     15.9639E-03     14.6598E-03     6.31952E-03     67.2246E-03    -23.2622E-03    -44.0379E-03    -36.6586E-03     59.8453E-03    -23.2622E-03     50.8416E-03     126.257E-03     112.909E+06     96.0372E+06     11.7118E+06    -28.1141E+06    -27.5939E+06      95.517E+06     11.7118E+06     4.62489E+06
            1093     15.0754E-03     13.6934E-03     6.30537E-03     55.3331E-03    -22.3052E-03    -33.0446E-03    -31.9142E-03     54.2027E-03    -22.3052E-03     19.4877E-03     95.0461E-03     92.2636E+06     64.9443E+06    -24.3542E+06    -29.9310E+06    -29.2288E+06     64.2972E+06    -24.4094E+06     4.55345E+06
            1094     14.2005E-03     12.7245E-03     6.30407E-03     52.6518E-03    -21.6958E-03    -30.9563E-03    -30.0499E-03     51.7454E-03    -21.6958E-03     16.8251E-03     84.8600E-03     50.8874E+06     21.4050E+06    -23.7291E+06    -31.6316E+06    -28.5634E+06     15.5630E+06    -20.9552E+06    -994.050E+03
            1095     13.3375E-03     11.7541E-03     6.30321E-03     49.7252E-03    -21.1989E-03    -28.5491E-03    -27.8952E-03     49.0712E-03    -21.1989E-03     12.9074E-03     74.0194E-03     42.4779E+06    -5.23397E+06    -17.6688E+06    -51.8634E+06    -24.3178E+06    -41.8100E+06     -8.6384E+06    -11.4471E+06
            1096     12.4955E-03     10.7808E-03     6.31763E-03     47.1452E-03    -20.7529E-03    -26.4152E-03    -25.9173E-03     46.6473E-03    -20.7529E-03     10.1462E-03     66.6020E-03     82.5627E+06     4.11509E+06    -14.8811E+06    -86.2692E+06    -19.2951E+06    -81.8553E+06     4.11509E+06    -16.3711E+06
            1097     11.6729E-03     9.80621E-03     6.33203E-03     45.8127E-03    -20.3294E-03    -25.5002E-03    -24.9298E-03     45.2423E-03    -20.3294E-03     10.8360E-03     62.1383E-03     121.749E+06     16.5059E+06    -12.8544E+06    -117.235E+06    -16.0868E+06    -114.002E+06     16.5059E+06    -17.6348E+06
            1098     10.8768E-03     8.83039E-03     6.35044E-03     44.6097E-03    -19.8578E-03    -24.7600E-03    -24.2190E-03     44.0687E-03    -19.8578E-03     10.4153E-03     57.4862E-03     155.013E+06     23.0400E+06    -10.0477E+06    -145.820E+06    -13.4213E+06    -142.446E+06     23.0400E+06    -20.8574E+06
            1099     10.1116E-03     7.85413E-03     6.36843E-03     43.5417E-03    -19.3129E-03    -24.2286E-03    -23.6954E-03     43.0084E-03    -19.3129E-03     10.3455E-03     53.8527E-03     181.884E+06     28.4401E+06    -7.32527E+06    -168.664E+06    -10.5266E+06    -165.463E+06     28.4401E+06    -22.0484E+06
            1100     9.38553E-03     6.87739E-03     6.38668E-03     42.1404E-03    -18.6826E-03    -23.4629E-03    -23.0138E-03     41.6913E-03    -18.6826E-03     9.46078E-03     50.1096E-03     202.299E+06     34.2210E+06    -5.68907E+06    -185.052E+06    -7.88319E+06    -182.858E+06     34.2210E+06    -19.0377E+06
            1101     8.70639E-03     5.89930E-03     6.40308E-03     40.2412E-03    -17.9413E-03    -22.3053E-03    -21.9479E-03     39.8838E-03    -17.9413E-03     8.26699E-03     46.2817E-03     209.353E+06     31.7012E+06    -5.03624E+06    -193.547E+06    -6.40031E+06    -192.183E+06     31.7012E+06    -15.4075E+06
            1102     8.08699E-03     4.92027E-03     6.41798E-03     38.0062E-03    -17.1338E-03    -20.8710E-03    -20.6151E-03     37.7503E-03    -17.1338E-03     6.78466E-03     42.5052E-03     208.474E+06     21.3577E+06    -5.51279E+06    -199.191E+06    -6.49039E+06    -198.214E+06     21.3577E+06    -13.4959E+06
            1103     7.54112E-03     3.93926E-03     6.43045E-03     35.4655E-03    -16.3395E-03    -19.1261E-03    -18.9679E-03     35.3074E-03    -16.3395E-03     5.16610E-03     38.8071E-03     207.606E+06     10.1984E+06    -6.68182E+06    -205.290E+06    -7.41501E+06    -204.557E+06     10.1984E+06    -11.8673E+06
            1104     7.08655E-03     2.95636E-03     6.44042E-03     33.0651E-03    -15.6295E-03    -17.4352E-03    -17.3444E-03     32.9742E-03    -15.6295E-03     3.74528E-03     35.4967E-03     206.227E+06     1.30084E+06    -8.56579E+06    -209.670E+06    -9.01472E+06    -209.221E+06     1.30084E+06    -9.32554E+06
            1105     6.74215E-03     1.97239E-03     6.44719E-03     31.0733E-03    -15.0279E-03    -16.0439E-03    -15.9995E-03     31.0288E-03    -15.0279E-03     2.45504E-03     32.9597E-03     204.930E+06    -5.62840E+06    -10.9741E+06    -213.167E+06    -11.1999E+06    -212.941E+06    -5.62840E+06    -6.62727E+06
            1106     6.52644E-03     986.659E-06     6.45143E-03     29.4753E-03    -14.5501E-03    -14.9252E-03    -14.8942E-03     29.4606E-03    -14.5664E-03     1.31146E-03     31.2473E-03     203.849E+06    -10.4732E+06    -13.6301E+06    -215.874E+06    -12.2427E+06    -215.741E+06    -11.9942E+06    -4.64555E+06
            1107     17.4539E-03     16.5541E-03     5.53190E-03     177.212E-03    -27.6505E-03    -149.528E-03    -77.2040E-03     104.888E-03    -27.6505E-03     270.871E-03     444.971E-03     164.590E+06     162.155E+06     146.286E+06    -9.39186E+06    -9.18665E+06     161.950E+06     146.286E+06     5.19752E+06
            1108     16.4899E-03     15.6085E-03     5.31896E-03     109.746E-03    -25.6191E-03    -84.1245E-03    -51.6192E-03     77.2411E-03    -25.6191E-03     142.050E-03     245.582E-03     138.182E+06     132.039E+06     87.7934E+06    -21.2979E+06    -20.9243E+06     131.665E+06     87.7934E+06     6.36434E+06
            1109     15.5624E-03     14.6480E-03     5.25587E-03     65.4354E-03    -24.2581E-03    -41.2318E-03    -34.4741E-03     58.6776E-03    -24.2581E-03     48.1763E-03     119.193E-03     113.137E+06     96.1752E+06     18.7964E+06    -30.1797E+06    -29.3766E+06     95.3721E+06     18.7964E+06     7.12997E+06
            1110     14.6525E-03     13.6784E-03     5.25336E-03     53.6030E-03    -23.5209E-03    -30.1380E-03    -28.0830E-03     51.5481E-03    -23.5209E-03     24.8019E-03     91.3354E-03     100.457E+06     69.6020E+06    -23.7164E+06    -36.2023E+06    -32.4452E+06     68.5267E+06    -26.3982E+06     4.12522E+06
            1111     13.7466E-03     12.7048E-03     5.24929E-03     50.9451E-03    -23.2991E-03    -27.6667E-03    -25.2197E-03     48.4981E-03    -23.2991E-03     26.2726E-03     82.8124E-03     62.2998E+06     30.1274E+06    -24.3630E+06    -35.5185E+06    -29.4001E+06     26.6909E+06    -27.0448E+06    -5.76605E+06
            1112     12.8532E-03     11.7294E-03     5.25595E-03     48.5012E-03    -22.7797E-03    -25.7435E-03    -23.2109E-03     46.5234E-03    -23.3346E-03     22.8314E-03     72.4035E-03     44.9253E+06    -4.38266E+06    -15.9056E+06    -52.7889E+06    -26.4152E+06    -33.9827E+06    -12.6792E+06    -16.8472E+06
            1113     11.9737E-03     10.7510E-03     5.27115E-03     47.6571E-03    -22.6775E-03    -25.0113E-03    -22.1758E-03     45.5833E-03    -23.4391E-03     22.9281E-03     67.3097E-03     83.5856E+06    -3.05435E+06    -14.3790E+06    -91.3898E+06    -23.1020E+06    -82.6668E+06    -3.05435E+06    -23.3954E+06
            1114     11.1113E-03     9.77337E-03     5.28606E-03     48.4797E-03    -23.3204E-03    -25.1634E-03    -22.8103E-03     46.3587E-03    -23.5526E-03     23.7692E-03     64.8930E-03     123.973E+06     11.1190E+06    -10.5026E+06    -121.963E+06    -17.2487E+06    -115.217E+06     11.1190E+06    -26.0179E+06
            1115     10.2726E-03     8.79667E-03     5.30526E-03     49.1113E-03    -23.5471E-03    -25.5467E-03    -23.6300E-03     47.2200E-03    -23.5724E-03     22.8997E-03     62.0972E-03     158.096E+06     21.9904E+06    -6.91829E+06    -148.506E+06    -12.7085E+06    -142.715E+06     21.9904E+06    -27.7396E+06
            1116     9.46047E-03     7.82065E-03     5.32333E-03     49.7213E-03    -23.4506E-03    -26.2575E-03    -24.4756E-03     47.9394E-03    -23.4506E-03     22.5281E-03     60.2074E-03     188.485E+06     25.4939E+06    -5.87372E+06    -176.657E+06    -10.9532E+06    -171.577E+06     25.4939E+06    -28.8125E+06
            1117     8.68343E-03     6.84581E-03     5.34198E-03     49.7821E-03    -23.1460E-03    -26.6280E-03    -25.1365E-03     48.2905E-03    -23.1460E-03     20.7472E-03     57.9611E-03     206.460E+06     25.8301E+06    -6.55330E+06    -194.824E+06    -10.3723E+06    -191.005E+06     25.8301E+06    -26.2890E+06
            1118     7.95011E-03     5.87113E-03     5.36042E-03     48.9778E-03    -22.6486E-03    -26.3292E-03    -25.1611E-03     47.8097E-03    -22.6486E-03     18.2913E-03     55.3839E-03     210.286E+06     21.2627E+06    -7.32625E+06    -201.740E+06    -9.91404E+06    -199.153E+06     21.2627E+06    -22.0207E+06
            1119     7.27141E-03     4.89555E-03     5.37652E-03     47.4127E-03    -22.0236E-03    -25.3880E-03    -24.5524E-03     46.5771E-03    -22.0236E-03     15.2439E-03     52.3234E-03     209.166E+06     11.9259E+06    -8.56329E+06    -206.663E+06    -10.2229E+06    -205.004E+06     11.9259E+06    -17.7950E+06
            1120     6.66588E-03     3.91950E-03     5.39180E-03     45.4720E-03    -21.3504E-03    -24.1218E-03    -23.5703E-03     44.9205E-03    -21.3504E-03     12.0738E-03     49.1832E-03     208.096E+06     2.47545E+06    -11.4299E+06    -212.202E+06    -12.4238E+06    -211.208E+06     2.47545E+06    -13.9705E+06
            1121     6.15288E-03     2.94175E-03     5.40407E-03     43.2916E-03    -20.6854E-03    -22.6053E-03    -22.2871E-03     42.9735E-03    -20.6854E-03     8.90518E-03     46.0522E-03     206.648E+06    -5.17328E+06    -13.8669E+06    -216.019E+06    -14.4209E+06    -215.465E+06    -5.17328E+06    -10.3956E+06
            1122     5.75760E-03     1.96220E-03     5.41292E-03     41.2071E-03    -20.1157E-03    -21.0897E-03    -20.9364E-03     41.0538E-03    -20.1157E-03     5.97537E-03     43.3965E-03     205.566E+06    -12.0179E+06    -16.6360E+06    -219.850E+06    -16.8761E+06    -219.610E+06    -12.0179E+06    -6.73052E+06
            1123     5.50738E-03     981.791E-06     5.41916E-03     39.7246E-03    -19.6593E-03    -20.0648E-03    -19.9958E-03     39.6719E-03    -19.6757E-03     3.22412E-03     41.6234E-03     204.469E+06    -18.2300E+06    -19.8614E+06    -223.506E+06    -19.9034E+06    -223.438E+06    -18.2562E+06    -3.25967E+06
            1124     17.1138E-03     16.5342E-03     4.41609E-03     174.152E-03    -28.8108E-03    -145.245E-03    -76.2236E-03     105.130E-03    -28.8108E-03     261.758E-03     420.030E-03     159.437E+06     157.760E+06     140.018E+06    -9.47139E+06    -9.14042E+06     157.429E+06     140.018E+06     6.93274E+06
            1125     16.1622E-03     15.5941E-03     4.24755E-03     103.751E-03    -26.9319E-03    -76.7486E-03    -49.8261E-03     76.8287E-03    -26.9319E-03     126.883E-03     223.272E-03     135.507E+06     129.080E+06     88.4206E+06    -21.1699E+06    -19.9154E+06     127.825E+06     88.4206E+06     11.1666E+06
            1126     15.2164E-03     14.6265E-03     4.19575E-03     62.1797E-03    -24.7126E-03    -37.5189E-03    -29.2331E-03     55.0863E-03    -25.9051E-03     49.0178E-03     111.888E-03     116.712E+06     101.985E+06     31.4900E+06    -30.2404E+06    -28.6873E+06     100.432E+06     31.4900E+06     10.7054E+06
            1127     14.2844E-03     13.6517E-03     4.20409E-03     52.2624E-03    -24.4228E-03    -27.9023E-03    -21.7656E-03     47.3181E-03    -25.6152E-03     36.2203E-03     88.8462E-03     109.062E+06     79.3537E+06    -12.4625E+06    -40.4585E+06    -29.7718E+06     78.5432E+06    -22.3386E+06     552.946E+03
            1128     13.3490E-03     12.6710E-03     4.20002E-03     51.6031E-03    -24.6901E-03    -26.9603E-03    -20.1774E-03     45.9994E-03    -25.8692E-03     39.1919E-03     81.3285E-03     76.1583E+06     37.8998E+06    -26.6567E+06    -45.3898E+06    -26.5438E+06     34.8907E+06    -42.4936E+06    -10.2248E+06
            1129     12.4250E-03     11.6900E-03     4.21019E-03     50.0435E-03    -23.5722E-03    -26.5064E-03    -19.4143E-03     45.8532E-03    -26.4739E-03     33.7567E-03     71.2037E-03     49.6883E+06    -1.62781E+06    -24.6238E+06    -56.4187E+06    -24.6965E+06    -27.5138E+06    -30.4600E+06    -18.9309E+06
            1130     11.5122E-03     10.7087E-03     4.22541E-03     51.2316E-03    -24.1331E-03    -27.1293E-03    -20.0304E-03     47.1290E-03    -27.1293E-03     33.9939E-03     68.5661E-03     78.3551E+06    -8.81975E+06    -23.0926E+06    -92.3733E+06    -22.6150E+06    -80.0748E+06    -21.5957E+06    -28.6368E+06
            1131     10.6117E-03     9.72881E-03     4.23763E-03     53.0718E-03    -25.3241E-03    -27.7638E-03    -21.6490E-03     49.3967E-03    -27.7638E-03     33.0273E-03     66.8909E-03     119.774E+06    -1.78556E+06    -18.4610E+06    -128.788E+06    -19.1403E+06    -118.110E+06    -11.7839E+06    -33.8883E+06
            1132     9.73164E-03     8.75195E-03     4.25537E-03     55.1283E-03    -26.5120E-03    -28.6150E-03    -23.5592E-03     51.9011E-03    -28.3405E-03     31.8095E-03     66.2491E-03     154.931E+06     6.80381E+06    -10.1618E+06    -155.731E+06    -14.7777E+06    -147.342E+06     3.03038E+06    -34.0162E+06
            1133     8.87306E-03     7.77702E-03     4.27191E-03     57.3222E-03    -27.7715E-03    -29.5544E-03    -25.6503E-03     54.4031E-03    -28.7565E-03     31.0660E-03     66.3102E-03     186.749E+06     10.0938E+06    -6.50304E+06    -184.177E+06    -12.8769E+06    -177.803E+06     10.0938E+06    -32.8512E+06
            1134     8.04287E-03     6.80360E-03     4.28937E-03     58.8631E-03    -28.5990E-03    -30.2703E-03    -27.5061E-03     56.4400E-03    -28.9401E-03     28.8656E-03     65.9920E-03     206.004E+06     8.29983E+06    -8.18878E+06    -205.291E+06    -13.1812E+06    -200.299E+06     8.29983E+06    -30.8265E+06
            1135     7.25002E-03     5.83240E-03     4.30650E-03     59.5793E-03    -28.8886E-03    -30.6923E-03    -28.7819E-03     57.6875E-03    -28.9072E-03     25.7809E-03     65.3381E-03     210.120E+06     4.26872E+06    -10.1619E+06    -212.585E+06    -13.6151E+06    -209.131E+06     4.26872E+06    -25.9703E+06
            1136     6.50730E-03     4.86201E-03     4.32503E-03     59.3610E-03    -28.6927E-03    -30.6602E-03    -29.2724E-03     57.9732E-03    -28.6927E-03     22.0983E-03     63.9906E-03     209.203E+06    -1.90189E+06    -13.1157E+06    -216.438E+06    -15.0750E+06    -214.478E+06    -1.90189E+06    -19.5659E+06
            1137     5.82907E-03     3.89062E-03     4.34063E-03     58.5395E-03    -28.3596E-03    -30.1756E-03    -29.2339E-03     57.5978E-03    -28.3596E-03     18.0718E-03     62.1484E-03     208.036E+06    -8.24331E+06    -16.3981E+06    -220.208E+06    -17.4055E+06    -219.201E+06    -8.24331E+06    -14.1187E+06
            1138     5.24312E-03     2.91976E-03     4.35492E-03     57.3242E-03    -27.9774E-03    -29.3477E-03    -28.7889E-03     56.7653E-03    -27.9774E-03     13.7151E-03     60.0552E-03     206.913E+06    -14.0051E+06    -20.3756E+06    -224.017E+06    -20.8891E+06    -223.503E+06    -14.0051E+06    -10.0019E+06
            1139     4.78090E-03     1.94738E-03     4.36632E-03     55.9544E-03    -27.6060E-03    -28.3506E-03    -28.0850E-03     55.6887E-03    -27.6060E-03     9.18687E-03     58.1575E-03     206.084E+06    -18.6205E+06    -23.5649E+06    -227.128E+06    -23.7735E+06    -226.919E+06    -18.6205E+06    -6.23936E+06
            1140     4.48008E-03     973.418E-06     4.37305E-03     54.8543E-03    -27.2315E-03    -27.6231E-03    -27.4662E-03     54.7711E-03    -27.3053E-03     4.81170E-03     56.8088E-03     205.506E+06    -23.7774E+06    -26.2118E+06    -230.481E+06    -26.0030E+06    -230.422E+06    -24.0452E+06    -3.23154E+06
            1141     16.8337E-03     16.5059E-03     3.30591E-03     170.020E-03    -30.3316E-03    -139.806E-03    -76.2495E-03     106.463E-03    -30.3316E-03     247.918E-03     389.240E-03     153.228E+06     152.505E+06     133.733E+06    -8.96557E+06    -7.87428E+06     151.414E+06     133.733E+06     11.3562E+06
            1142     15.8777E-03     15.5589E-03     3.16556E-03     93.1472E-03    -27.6226E-03    -65.4873E-03    -44.6939E-03     73.4455E-03    -28.7144E-03     101.481E-03     189.843E-03     136.482E+06     128.472E+06     87.3813E+06    -23.0629E+06    -21.2212E+06     126.630E+06     87.3813E+06     13.4951E+06
            1143     14.9288E-03     14.5928E-03     3.14952E-03     56.3985E-03    -23.8574E-03    -32.6078E-03    -21.6817E-03     49.8343E-03    -28.2192E-03     44.1317E-03     98.5898E-03     117.768E+06     111.590E+06     42.7226E+06    -21.9433E+06    -20.9519E+06     110.599E+06     42.7226E+06     6.41519E+06
            1144     13.9656E-03     13.6042E-03     3.15683E-03     52.4152E-03    -23.6233E-03    -28.8422E-03    -16.8238E-03     45.2811E-03    -28.5077E-03     43.9411E-03     83.2487E-03     107.250E+06     86.3600E+06    -24.6532E+03    -33.5356E+06    -18.0292E+06     86.2483E+06    -15.4192E+06    -1.30055E+06
            1145     13.0099E-03     12.6226E-03     3.15067E-03     52.9370E-03    -23.4771E-03    -29.4947E-03    -17.5386E-03     46.6640E-03    -29.1601E-03     41.5909E-03     75.3127E-03     91.6326E+06     43.9602E+06    -21.9251E+06    -58.9841E+06    -19.4652E+06     41.5004E+06    -58.9841E+06    -8.37631E+06
            1146     12.0629E-03     11.6403E-03     3.16513E-03     53.0111E-03    -22.8846E-03    -30.1630E-03    -18.0011E-03     48.1277E-03    -30.1630E-03     37.1702E-03     69.0150E-03     66.5943E+06     5.69505E+06    -37.8108E+06    -68.2898E+06    -19.8882E+06    -21.0421E+06    -59.4753E+06    -19.4097E+06
            1147     11.1220E-03     10.6598E-03     3.17295E-03     55.9501E-03    -24.7532E-03    -31.2443E-03    -20.2769E-03     51.4738E-03    -31.2443E-03     36.7152E-03     68.7386E-03     75.7451E+06    -5.80612E+06    -50.6898E+06    -89.4673E+06    -18.5689E+06    -76.7046E+06    -50.6898E+06    -29.4790E+06
            1148     10.1932E-03     9.68219E-03     3.18692E-03     57.8843E-03    -25.6226E-03    -32.3059E-03    -21.9045E-03     54.1662E-03    -32.3059E-03     34.3167E-03     67.7436E-03     113.202E+06    -6.44325E+06    -43.7648E+06    -131.266E+06    -17.6833E+06    -120.026E+06    -43.7648E+06    -35.4164E+06
            1149     9.27319E-03     8.70393E-03     3.19901E-03     60.7639E-03    -27.3817E-03    -33.4010E-03    -24.0228E-03     57.4050E-03    -33.4010E-03     33.6323E-03     68.8450E-03     147.619E+06    -7.02537E+06    -30.9339E+06    -164.358E+06    -17.2062E+06    -155.085E+06    -30.0257E+06    -36.6729E+06
            1150     8.37111E-03     7.72983E-03     3.21329E-03     64.3101E-03    -29.9503E-03    -34.3885E-03    -27.0213E-03     61.3811E-03    -34.3885E-03     32.5489E-03     70.7908E-03     178.485E+06    -6.62701E+06    -22.1269E+06    -192.036E+06    -16.5023E+06    -185.126E+06    -19.1617E+06    -34.5736E+06
            1151     7.48962E-03     6.75875E-03     3.22704E-03     67.2136E-03    -32.0747E-03    -35.1758E-03    -29.6596E-03     64.7985E-03    -35.1758E-03     30.4094E-03     72.3649E-03     201.880E+06    -7.98235E+06    -19.4057E+06    -215.286E+06    -16.5269E+06    -210.260E+06    -15.8877E+06    -31.3670E+06
            1152     6.63604E-03     5.78960E-03     3.24306E-03     69.5837E-03    -33.6365E-03    -35.9563E-03    -31.9032E-03     67.6782E-03    -35.7839E-03     27.6381E-03     73.8072E-03     208.821E+06    -11.2324E+06    -20.8454E+06    -224.677E+06    -18.0118E+06    -221.396E+06    -17.3474E+06    -25.6950E+06
            1153     5.82027E-03     4.82245E-03     3.25876E-03     71.5057E-03    -34.8017E-03    -36.7007E-03    -33.8377E-03     70.0706E-03    -36.2296E-03     24.3940E-03     75.0371E-03     208.359E+06    -15.5739E+06    -22.1893E+06    -227.148E+06    -20.5772E+06    -225.391E+06    -18.9429E+06    -18.7264E+06
            1154     5.06046E-03     3.85785E-03     3.27494E-03     72.6286E-03    -35.6331E-03    -37.0008E-03    -35.1348E-03     71.6380E-03    -36.5085E-03     20.4567E-03     75.5202E-03     207.785E+06    -19.8737E+06    -23.3447E+06    -229.370E+06    -22.8267E+06    -228.562E+06    -21.1998E+06    -12.5104E+06
            1155     4.38003E-03     2.89228E-03     3.28929E-03     73.2764E-03    -36.1926E-03    -37.0916E-03    -36.0136E-03     72.6761E-03    -36.6703E-03     15.9223E-03     75.6005E-03     207.391E+06    -22.9776E+06    -25.7769E+06    -231.750E+06    -25.3887E+06    -231.404E+06    -23.7120E+06    -8.21227E+06
            1156     3.82274E-03     1.92849E-03     3.30064E-03     73.5724E-03    -36.5130E-03    -37.0656E-03    -36.5723E-03     73.2845E-03    -36.7183E-03     10.8931E-03     75.5285E-03     207.007E+06    -25.1897E+06    -28.3589E+06    -233.755E+06    -28.2868E+06    -233.611E+06    -25.4062E+06    -5.15062E+06
            1157     3.44722E-03     965.196E-06     3.30934E-03     73.4196E-03    -36.5913E-03    -36.8292E-03    -36.6188E-03     73.3252E-03    -36.7073E-03     6.04311E-03     75.2470E-03     206.367E+06    -28.8701E+06    -31.0026E+06    -236.286E+06    -30.7287E+06    -236.251E+06    -29.1792E+06    -2.01053E+06
            1158     16.6268E-03     16.4815E-03     2.19321E-03     157.029E-03    -31.7537E-03    -125.562E-03    -79.3287E-03     110.795E-03    -31.7537E-03     203.522E-03     331.317E-03     155.771E+06     150.971E+06     126.841E+06    -15.1800E+06    -14.2062E+06     149.997E+06     126.841E+06      9.9018E+06
            1159     15.6781E-03     15.5380E-03     2.09106E-03     72.7301E-03    -24.0947E-03    -48.6090E-03    -32.7480E-03     63.2457E-03    -30.4712E-03     60.6348E-03     137.470E-03     132.623E+06     135.412E+06     92.3922E+06    -12.3325E+06    -11.5512E+06     134.631E+06     92.3922E+06     7.20622E+06
            1160     14.7022E-03     14.5491E-03     2.11623E-03     51.1103E-03    -20.5606E-03    -30.5910E-03    -15.6047E-03     46.1543E-03    -30.5910E-03     35.3418E-03     81.4442E-03     109.840E+06     113.371E+06     39.7759E+06    -9.16842E+06    -9.12122E+06     113.324E+06     39.7759E+06     1.32780E+06
            1161     13.7257E-03     13.5641E-03     2.10008E-03     53.2403E-03    -21.9940E-03    -31.3070E-03    -16.6596E-03     47.9059E-03    -31.3070E-03     37.4079E-03     73.7066E-03     105.318E+06     87.7988E+06    -2.66070E+06    -27.4853E+06    -12.5499E+06     87.7537E+06    -17.5509E+06     702.910E+03
            1162     12.7574E-03     12.5824E-03     2.10579E-03     52.1319E-03    -19.9191E-03    -32.2431E-03    -16.4276E-03     48.6404E-03    -32.2431E-03     30.2273E-03     66.2604E-03     103.134E+06     50.2983E+06    -14.2127E+06    -65.5815E+06    -13.0787E+06     49.1642E+06    -65.5815E+06    -4.13998E+06
            1163     11.7877E-03     11.5969E-03     2.11212E-03     54.6960E-03    -21.2529E-03    -33.4632E-03    -18.0563E-03     51.4994E-03    -33.4632E-03     29.9161E-03     65.6657E-03     89.4371E+06     12.7862E+06    -36.0999E+06    -87.3203E+06    -11.5327E+06    -12.0251E+06    -87.0762E+06    -15.5415E+06
            1164     10.8266E-03     10.6175E-03     2.11741E-03     58.3280E-03    -23.5171E-03    -34.8477E-03    -20.7641E-03     55.5750E-03    -34.8477E-03     28.6137E-03     66.6902E-03     88.0659E+06    -1.95217E+06    -71.4908E+06    -97.8740E+06    -11.6318E+06    -73.6967E+06    -85.9885E+06    -25.4226E+06
            1165     9.87109E-03     9.63890E-03     2.12837E-03     61.2833E-03    -25.0338E-03    -36.2724E-03    -22.7377E-03     58.9872E-03    -36.2724E-03     27.0829E-03     67.7969E-03     112.609E+06    -4.99806E+06    -79.0175E+06    -130.381E+06    -13.0548E+06    -122.324E+06    -79.0175E+06    -30.1420E+06
            1166     8.92325E-03     8.66321E-03     2.13847E-03     65.1283E-03    -27.3739E-03    -37.7505E-03    -25.1692E-03     62.9236E-03    -37.7505E-03     27.6118E-03     70.3546E-03     141.462E+06    -8.53578E+06    -69.3871E+06    -167.879E+06    -15.2693E+06    -161.145E+06    -69.3871E+06    -31.4514E+06
            1167     7.98284E-03     7.68907E-03     2.14568E-03     69.2508E-03    -30.0222E-03    -39.2283E-03    -28.1249E-03     67.3535E-03    -39.2283E-03     26.5886E-03     73.3238E-03     169.328E+06    -12.4552E+06    -60.3388E+06    -198.758E+06    -17.7873E+06    -193.426E+06    -60.3388E+06    -30.4995E+06
            1168     7.05644E-03     6.71869E-03     2.15700E-03     73.3930E-03    -32.7378E-03    -40.6565E-03    -31.2046E-03     71.8597E-03    -40.6565E-03     24.7057E-03     76.5131E-03     194.670E+06    -15.9954E+06    -49.9074E+06    -224.423E+06    -19.6741E+06    -220.744E+06    -49.9074E+06    -26.8984E+06
            1169     6.14624E-03     5.75097E-03     2.16853E-03     77.4655E-03    -35.4572E-03    -41.9999E-03    -34.2284E-03     76.2367E-03    -41.9999E-03     22.8402E-03     80.0043E-03     205.855E+06    -20.4522E+06    -41.7785E+06    -235.881E+06    -22.5721E+06    -233.761E+06    -41.7785E+06    -20.5905E+06
            1170     5.26018E-03     4.78686E-03     2.18070E-03     81.4493E-03    -38.2286E-03    -43.2222E-03    -37.2931E-03     80.5137E-03    -43.2222E-03     20.5116E-03     83.6369E-03     207.007E+06    -24.8062E+06    -36.0550E+06    -237.138E+06    -25.9108E+06    -236.033E+06    -36.0550E+06    -14.6648E+06
            1171     4.40938E-03     3.82467E-03     2.19420E-03     85.1716E-03    -40.9031E-03    -44.2771E-03    -40.2461E-03     84.5146E-03    -44.2771E-03     17.5898E-03     87.0812E-03     207.357E+06    -28.4325E+06    -32.7451E+06    -237.884E+06    -28.9293E+06    -237.387E+06    -32.7451E+06    -9.71277E+06
            1172     3.61766E-03     2.86692E-03     2.20640E-03     88.1842E-03    -43.0605E-03    -45.1313E-03    -42.6540E-03     87.7776E-03    -45.1313E-03     14.0890E-03     89.9106E-03     207.173E+06    -30.1040E+06    -31.9964E+06    -238.215E+06    -30.2800E+06    -238.038E+06    -31.9964E+06    -5.75416E+06
            1173     2.92535E-03     1.90968E-03     2.21603E-03     90.5177E-03    -44.7075E-03    -45.8146E-03    -44.5055E-03     90.3157E-03    -45.8146E-03     9.94546E-03     92.1483E-03     207.385E+06    -31.1026E+06    -32.8947E+06    -239.376E+06    -31.8452E+06    -239.306E+06    -32.2221E+06    -3.49920E+06
            1174     2.41904E-03     953.598E-06     2.22316E-03     92.2747E-03    -45.9516E-03    -46.3214E-03    -45.9267E-03     92.2037E-03    -46.2753E-03     5.70638E-03     93.8376E-03     206.460E+06    -33.5011E+06    -34.5621E+06    -240.489E+06    -34.1919E+06    -240.470E+06    -33.8895E+06    -1.45054E+06
            1175     16.5195E-03     16.4855E-03     1.05926E-03     143.758E-03    -33.4376E-03    -110.374E-03    -85.1901E-03     118.574E-03    -33.4376E-03     146.752E-03     243.455E-03     147.820E+06     153.508E+06     126.467E+06    -5.89759E+06    -4.48277E+06     152.093E+06     126.467E+06     3.01214E+06
            1176     15.5487E-03     15.5117E-03     1.07143E-03     62.9962E-03    -26.1927E-03    -36.7665E-03    -26.4594E-03     58.6372E-03    -32.1408E-03     39.0650E-03     101.793E-03     120.906E+06     133.543E+06     90.2480E+06    -1.72791E+06    -1.07749E+06     132.892E+06     90.2480E+06    -1.29348E+06
            1177     14.5532E-03     14.5148E-03     1.05614E-03     53.4733E-03    -20.9993E-03    -32.4887E-03    -18.0960E-03     50.5701E-03    -32.4887E-03     26.7568E-03     74.3171E-03     106.591E+06     112.820E+06     36.9520E+06    -5.99670E+06    -5.77980E+06     112.603E+06     36.9520E+06     4.01057E+06
            1178     13.5811E-03     13.5404E-03     1.04982E-03     52.4454E-03    -19.2285E-03    -33.2562E-03    -17.3230E-03     50.5398E-03    -33.2562E-03     20.1735E-03     65.7786E-03     105.109E+06     90.1502E+06     1.20358E+06    -25.2490E+06    -7.86556E+06     89.9666E+06    -15.9963E+06     1.95647E+06
            1179     12.5969E-03     12.5526E-03     1.05602E-03     52.0448E-03    -17.7699E-03    -34.3001E-03    -16.6092E-03     50.8840E-03    -34.3001E-03     16.1334E-03     62.2023E-03     110.713E+06     55.3617E+06    -5.83423E+06    -68.8794E+06    -5.36259E+06     54.8900E+06    -68.8794E+06    -2.29344E+06
            1180     11.6193E-03     11.5713E-03     1.05551E-03     55.0907E-03    -19.4609E-03    -35.6286E-03    -18.3070E-03     53.9368E-03    -35.6286E-03     16.5522E-03     62.8077E-03     107.923E+06     17.7754E+06    -24.1267E+06    -104.409E+06    -3.04073E+06    -3.31055E+06    -104.409E+06    -8.42750E+06
            1181     10.6424E-03     10.5896E-03     1.05884E-03     58.4708E-03    -21.2374E-03    -37.2206E-03    -20.3577E-03     57.5911E-03    -37.2206E-03     15.0799E-03     64.1162E-03     104.128E+06    -254.825E+03    -72.8548E+06    -114.722E+06    -4.01629E+06    -70.6690E+06    -113.147E+06    -14.2727E+06
            1182     9.66970E-03     9.61079E-03     1.06576E-03     63.0091E-03    -24.1008E-03    -38.9040E-03    -23.3424E-03     62.2507E-03    -38.9040E-03     14.6347E-03     67.4063E-03     119.262E+06    -4.14132E+06    -106.612E+06    -133.626E+06    -7.39920E+06    -124.514E+06    -112.466E+06    -17.2930E+06
            1183     8.70101E-03     8.63488E-03     1.07071E-03     67.7742E-03    -27.1549E-03    -40.6298E-03    -26.3753E-03     66.9946E-03    -40.6298E-03     15.3797E-03     71.2183E-03     140.286E+06    -8.84933E+06    -106.751E+06    -167.401E+06    -11.4880E+06    -164.762E+06    -106.751E+06    -18.5228E+06
            1184     7.73726E-03     7.66224E-03     1.07488E-03     72.1400E-03    -29.6530E-03    -42.4720E-03    -28.9734E-03     71.4604E-03    -42.4720E-03     14.7577E-03     74.6555E-03     164.382E+06    -14.3248E+06    -92.4276E+06    -201.696E+06    -16.5215E+06    -199.500E+06    -92.4276E+06    -18.4737E+06
            1185     6.77803E-03     6.69145E-03     1.07992E-03     76.9880E-03    -32.5334E-03    -44.4113E-03    -32.0077E-03     76.4623E-03    -44.4113E-03     13.5000E-03     78.7407E-03     190.573E+06    -20.6442E+06    -73.2756E+06    -231.441E+06    -22.1824E+06    -229.903E+06    -73.2756E+06    -15.9666E+06
            1186     5.82715E-03     5.72496E-03     1.08651E-03     82.3610E-03    -35.9870E-03    -46.3423E-03    -35.5605E-03     81.9345E-03    -46.3423E-03     12.6202E-03     83.7469E-03     204.384E+06    -26.4111E+06    -56.8062E+06    -244.109E+06    -27.2206E+06    -243.299E+06    -56.8062E+06    -11.7936E+06
            1187     4.88503E-03     4.76112E-03     1.09328E-03     87.9208E-03    -39.7335E-03    -48.1747E-03    -39.4036E-03     87.5909E-03    -48.1747E-03     11.5723E-03     89.1347E-03     206.189E+06    -30.2823E+06    -47.0336E+06    -244.302E+06    -30.6415E+06    -243.943E+06    -47.0336E+06    -7.77704E+06
            1188     3.95852E-03     3.80260E-03     1.10006E-03     93.5869E-03    -43.6993E-03    -49.8826E-03    -43.4662E-03     93.3538E-03    -49.8826E-03     10.1210E-03     94.7774E-03     206.439E+06    -33.1011E+06    -41.0513E+06    -243.352E+06    -33.2830E+06    -243.170E+06    -41.0513E+06    -5.19699E+06
            1189     3.05458E-03     2.84683E-03     1.10726E-03     98.8109E-03    -47.4371E-03    -51.3729E-03    -47.2887E-03     98.6625E-03    -51.3729E-03     8.18153E-03     100.046E-03     206.145E+06    -35.0454E+06    -37.9652E+06    -242.629E+06    -35.5313E+06    -242.559E+06    -37.5498E+06    -3.45586E+06
            1190     2.19827E-03     1.89537E-03     1.11355E-03     103.139E-03    -50.5764E-03    -52.5617E-03    -50.5001E-03     103.062E-03    -52.5617E-03     5.85386E-03     104.472E-03     206.157E+06    -35.0782E+06    -38.2375E+06    -242.790E+06    -37.3575E+06    -242.767E+06    -35.9812E+06    -2.00272E+06
            1191     1.46469E-03     947.311E-06     1.11710E-03     106.177E-03    -52.6915E-03    -53.4814E-03    -52.9004E-03     106.153E-03    -53.2484E-03     3.13565E-03     107.775E-03     205.664E+06    -37.9195E+06    -40.3961E+06    -244.802E+06    -40.0842E+06    -244.793E+06    -38.2406E+06    -1.15097E+06
            1192     59.1112E-03     971.762E-06     59.1032E-03     58.1007E-03    -28.8301E-03    -29.2682E-03    -29.1908E-03     58.0953E-03    -28.9021E-03     1.06362E-03     58.7534E-03     209.126E+06    -27.2082E+06    -30.8794E+06    -238.143E+06    -30.5002E+06    -238.127E+06    -27.6031E+06     1.03616E+06
            1193     59.1374E-03     1.94330E-03     59.1054E-03     58.3452E-03    -29.0803E-03    -29.2639E-03    -29.2122E-03     58.3274E-03    -29.1142E-03     2.43082E-03     59.3068E-03     211.346E+06    -23.0513E+06    -27.9904E+06    -236.824E+06    -28.0052E+06    -236.809E+06    -23.0513E+06     432.247E+03
            1194     59.1805E-03     2.91488E-03     59.1087E-03     58.2578E-03    -29.0747E-03    -29.1854E-03    -29.0810E-03     58.2251E-03    -29.1465E-03     3.34596E-03     59.9735E-03     211.250E+06    -21.3744E+06    -26.4197E+06    -235.101E+06    -26.4281E+06    -235.093E+06    -21.3744E+06    -359.238E+03
            1195     59.2399E-03     3.88619E-03     59.1123E-03     58.1543E-03    -29.0264E-03    -29.1316E-03    -28.9727E-03     58.1006E-03    -29.1316E-03     4.28825E-03     61.1234E-03     205.259E+06    -17.9608E+06    -24.7455E+06    -226.520E+06    -24.7511E+06    -226.515E+06    -17.9608E+06    -240.951E+03
            1196     59.3167E-03     4.85837E-03     59.1174E-03     58.0889E-03    -28.9819E-03    -29.1083E-03    -28.8987E-03     58.0058E-03    -29.1083E-03     5.35288E-03     62.7291E-03     193.849E+06    -13.3625E+06    -23.3446E+06    -211.983E+06    -23.3488E+06    -211.979E+06    -13.3625E+06    -171.542E+03
            1197     59.4100E-03     5.83003E-03     59.1232E-03     58.0657E-03    -28.9715E-03    -29.0935E-03    -28.8508E-03     57.9449E-03    -29.0935E-03     6.45333E-03     64.9315E-03     184.196E+06    -8.77021E+06    -22.2586E+06    -199.306E+06    -22.2633E+06    -199.302E+06    -8.77021E+06     384.004E+03
            1198     59.5210E-03     6.80173E-03     59.1310E-03     57.9817E-03    -28.9249E-03    -29.0503E-03    -28.7661E-03     57.8229E-03    -29.0503E-03     7.41170E-03     67.6650E-03     169.292E+06    -6.15717E+06    -20.2297E+06    -182.042E+06    -20.2423E+06    -182.030E+06    -6.15717E+06      935.93E+03
            1199     59.6474E-03     7.77376E-03     59.1387E-03     57.8302E-03    -28.8283E-03    -28.9732E-03    -28.6263E-03     57.6282E-03    -28.9732E-03     8.33750E-03     70.8670E-03     148.842E+06    -8.14779E+06    -17.5812E+06    -161.462E+06    -17.5923E+06    -161.451E+06    -8.14779E+06     443.353E+03
            1200     59.7912E-03     8.74590E-03     59.1481E-03     57.7480E-03    -28.8054E-03    -28.9187E-03    -28.5594E-03     57.4898E-03    -28.9064E-03     9.42496E-03     75.0406E-03     128.446E+06    -9.94456E+06    -16.1283E+06    -141.368E+06    -16.1346E+06    -141.361E+06    -9.94456E+06    -261.013E+03
            1201     59.9513E-03     9.71793E-03     59.1584E-03     57.7367E-03    -28.8019E-03    -28.9151E-03    -28.4925E-03     57.3483E-03    -28.8361E-03     11.4733E-03     80.5126E-03     103.315E+06    -12.5417E+06    -16.1179E+06    -117.581E+06    -15.6365E+06    -117.573E+06    -13.0310E+06    -285.717E+03
            1202     60.1296E-03     10.6898E-03     59.1718E-03     57.4912E-03    -28.6746E-03    -28.8125E-03    -28.2757E-03     57.0256E-03    -28.7457E-03     12.6345E-03     86.5025E-03     71.9052E+06    -15.5589E+06    -21.2922E+06    -89.9505E+06    -15.5777E+06    -89.9317E+06    -21.2922E+06    -137.199E+03
            1203     60.3235E-03     11.6628E-03     59.1853E-03     57.3931E-03    -28.5532E-03    -28.8776E-03    -28.1496E-03     56.7206E-03    -28.6087E-03     14.9413E-03     94.1598E-03     39.4533E+06    -16.5156E+06    -26.6948E+06    -59.8277E+06    -16.6542E+06    -51.1812E+06    -35.2027E+06     228.090E+03
            1204     60.5364E-03     12.6351E-03     59.2031E-03     57.9326E-03    -28.4494E-03    -29.5469E-03    -28.0820E-03     56.4678E-03    -28.4494E-03     22.0233E-03     105.815E-03     53.0605E+06     11.8775E+06    -23.1823E+06    -48.5404E+06    -18.3075E+06     7.00270E+06    -48.5404E+06      750.48E+03
            1205     60.7736E-03     13.6073E-03     59.2306E-03     59.2976E-03    -28.4030E-03    -30.9498E-03    -27.9863E-03     56.3341E-03    -28.4030E-03     31.7753E-03     128.468E-03     98.5899E+06     64.6979E+06    -19.8292E+06    -42.1924E+06    -19.7424E+06     64.6112E+06    -42.1924E+06     571.188E+03
            1206     61.0368E-03     14.5803E-03     59.2697E-03     78.3867E-03    -28.5848E-03    -49.8610E-03    -29.1650E-03     57.6907E-03    -28.5848E-03     87.5148E-03     181.478E-03     120.723E+06     107.512E+06     11.8170E+06    -25.3536E+06    -19.8065E+06     107.478E+06     6.30401E+06     161.957E+03
            1207     61.4175E-03     15.5547E-03     59.4151E-03     168.124E-03    -28.9046E-03    -139.210E-03    -43.8995E-03     72.8136E-03    -28.9046E-03     282.286E-03     399.007E-03     145.565E+06     147.216E+06     84.5232E+06    -16.5149E+06    -16.5027E+06     147.204E+06     84.5232E+06     237.497E+03
            1208     62.1240E-03     16.5265E-03     59.8855E-03     220.016E-03    -29.1446E-03    -190.850E-03    -50.8981E-03     80.0645E-03    -29.1446E-03     389.428E-03     612.196E-03     176.246E+06     179.147E+06     150.062E+06    -9.28268E+06    -9.27942E+06     179.143E+06     150.062E+06     234.203E+03
            1209     60.1704E-03     971.984E-06     60.1625E-03     58.1951E-03    -28.8897E-03    -29.3037E-03    -29.2371E-03     58.1892E-03    -28.9504E-03     1.24552E-03     58.9287E-03     208.650E+06    -29.2157E+06    -31.1522E+06    -238.821E+06    -30.7722E+06    -238.807E+06    -29.6105E+06    -339.573E+03
            1210     60.1958E-03     1.94295E-03     60.1644E-03     58.2605E-03    -29.0302E-03    -29.2295E-03    -29.1123E-03     58.2447E-03    -29.1316E-03     2.28301E-03     59.2359E-03     210.943E+06    -23.6322E+06    -27.7019E+06    -236.577E+06    -27.7039E+06    -236.575E+06    -23.6322E+06    -24.9092E+03
            1211     60.2377E-03     2.91479E-03     60.1672E-03     58.1199E-03    -28.9959E-03    -29.1267E-03    -28.9633E-03     58.0873E-03    -29.1267E-03     3.32729E-03     59.8789E-03     212.052E+06    -19.8896E+06    -25.8831E+06    -234.867E+06    -25.8883E+06    -234.862E+06    -19.8896E+06     117.923E+03
            1212     60.2966E-03     3.88689E-03     60.1712E-03     58.1265E-03    -29.0068E-03    -29.1237E-03    -28.9716E-03     58.0725E-03    -29.1049E-03     4.30955E-03     61.1302E-03     206.352E+06    -15.9814E+06    -24.6090E+06    -226.497E+06    -24.6137E+06    -226.493E+06    -15.9814E+06     136.966E+03
            1213     60.3716E-03     4.85828E-03     60.1758E-03     58.1704E-03    -29.0456E-03    -29.1258E-03    -28.9822E-03     58.0882E-03    -29.1070E-03     5.32443E-03     62.8117E-03     196.577E+06    -10.0040E+06    -22.5753E+06    -212.550E+06    -22.5838E+06    -212.541E+06    -10.0040E+06     932.495E+03
            1214     60.4640E-03     5.83000E-03     60.1823E-03     58.0572E-03    -28.9603E-03    -29.0939E-03    -28.8419E-03     57.9387E-03    -29.0939E-03     6.39208E-03     64.9110E-03     186.367E+06    -6.45777E+06    -20.3547E+06    -199.380E+06    -20.3651E+06    -199.370E+06    -6.45777E+06     952.997E+03
            1215     60.5722E-03     6.80210E-03     60.1891E-03     57.8828E-03    -28.8457E-03    -29.0259E-03    -28.6847E-03     57.7218E-03    -29.0259E-03     7.44711E-03     67.5309E-03     169.204E+06    -6.70461E+06    -18.0567E+06    -181.290E+06    -18.0609E+06    -181.286E+06    -6.70461E+06    -77.8638E+03
            1216     60.6975E-03     7.77407E-03     60.1976E-03     57.8323E-03    -28.8508E-03    -28.9509E-03    -28.6476E-03     57.6291E-03    -28.9509E-03     8.37337E-03     70.8696E-03     149.208E+06    -7.85619E+06    -16.2951E+06    -161.093E+06    -16.2973E+06    -161.091E+06    -7.85619E+06    -204.643E+03
            1217     60.8382E-03     8.74588E-03     60.2063E-03     57.7674E-03    -28.8500E-03    -28.8960E-03    -28.5893E-03     57.5041E-03    -28.8935E-03     9.50631E-03     75.0677E-03     128.540E+06    -9.14039E+06    -15.8559E+06    -140.900E+06    -15.8642E+06    -140.892E+06    -9.14039E+06     62.2639E+03
            1218     60.9963E-03     9.71807E-03     60.2171E-03     57.7234E-03    -28.8069E-03    -28.8981E-03    -28.4821E-03     57.3259E-03    -28.8253E-03     11.6242E-03     80.4604E-03     103.160E+06    -12.5612E+06    -15.8348E+06    -117.294E+06    -15.7347E+06    -117.276E+06    -12.6797E+06    -346.974E+03
            1219     61.1718E-03     10.6902E-03     60.2305E-03     57.5302E-03    -28.6835E-03    -28.8381E-03    -28.3128E-03     57.0570E-03    -28.7357E-03     12.7441E-03     86.5670E-03     72.5601E+06    -15.6106E+06    -20.6948E+06    -90.3852E+06    -15.6682E+06    -90.3521E+06    -20.6703E+06    -255.916E+03
            1220     61.3615E-03     11.6624E-03     60.2430E-03     57.3504E-03    -28.5485E-03    -28.8374E-03    -28.1016E-03     56.6667E-03    -28.6006E-03     15.0651E-03     94.1955E-03     39.9055E+06    -16.2295E+06    -26.4320E+06    -59.9648E+06    -16.4338E+06    -51.5614E+06    -34.6311E+06     166.680E+03
            1221     61.5723E-03     12.6356E-03     60.2618E-03     57.7777E-03    -28.4358E-03    -29.4045E-03    -27.9462E-03     56.3194E-03    -28.4358E-03     21.9573E-03     105.689E-03     52.9014E+06     11.9758E+06    -23.3919E+06    -48.3303E+06    -18.2870E+06     6.87091E+06    -48.3303E+06     136.448E+03
            1222     61.8060E-03     13.6081E-03     60.2893E-03     59.3256E-03    -28.3906E-03    -30.9912E-03    -27.9402E-03     56.2747E-03    -28.3906E-03     32.1730E-03     128.608E-03     98.4466E+06     64.9771E+06    -20.2409E+06    -41.1457E+06    -20.1822E+06     64.9184E+06    -41.1457E+06    -51.5019E+03
            1223     62.0654E-03     14.5808E-03     60.3284E-03     77.9894E-03    -28.5837E-03    -49.4704E-03    -29.2592E-03     57.7783E-03    -28.5837E-03     86.6954E-03     181.525E-03     120.984E+06     107.694E+06     11.7192E+06    -24.9380E+06    -20.6767E+06     107.598E+06     7.55374E+06     977.361E+03
            1224     62.4406E-03     15.5540E-03     60.4723E-03     169.107E-03    -28.8913E-03    -140.233E-03    -44.3479E-03     73.2217E-03    -28.8913E-03     283.923E-03     399.538E-03     146.204E+06     147.713E+06     83.9508E+06    -17.2112E+06    -17.1461E+06     147.648E+06     83.9508E+06     1.46228E+06
            1225     63.1491E-03     16.5263E-03     60.9483E-03     220.538E-03    -29.1237E-03    -191.504E-03    -51.1512E-03     80.1859E-03    -29.1237E-03     390.540E-03     612.964E-03     176.712E+06     179.908E+06     149.004E+06    -9.57944E+06    -9.57524E+06     179.903E+06     149.004E+06     342.497E+03
            1226     61.2289E-03     971.028E-06     61.2212E-03     58.2874E-03    -29.0295E-03    -29.2565E-03    -29.0938E-03     58.2812E-03    -29.1860E-03     1.41973E-03     59.0345E-03     207.670E+06    -29.6882E+06    -30.6619E+06    -237.842E+06    -30.6379E+06    -237.828E+06    -29.7256E+06    -991.117E+03
            1227     61.2539E-03     1.94344E-03     61.2231E-03     58.0502E-03    -28.9272E-03    -29.1229E-03    -28.9113E-03     58.0343E-03    -29.1229E-03     2.27607E-03     59.0202E-03     209.734E+06    -25.5628E+06    -29.5693E+06    -237.262E+06    -29.5744E+06    -237.257E+06    -25.5628E+06    -381.674E+03
            1228     61.2952E-03     2.91507E-03     61.2258E-03     58.0953E-03    -28.9799E-03    -29.1205E-03    -28.9781E-03     58.0631E-03    -29.0901E-03     3.31101E-03     59.8412E-03     211.858E+06    -19.2040E+06    -27.4505E+06    -235.055E+06    -27.4532E+06    -235.053E+06    -19.2040E+06     402.001E+03
            1229     61.3529E-03     3.88663E-03     61.2296E-03     58.1392E-03    -29.0075E-03    -29.1369E-03    -29.0039E-03     58.0864E-03    -29.0877E-03     4.25973E-03     61.1417E-03     207.118E+06    -14.7250E+06    -25.1111E+06    -226.839E+06    -25.1155E+06    -226.835E+06    -14.7250E+06     607.348E+03
            1230     61.4274E-03     4.85841E-03     61.2349E-03     58.0872E-03    -28.9913E-03    -29.0992E-03    -28.9278E-03     58.0050E-03    -29.0804E-03     5.31864E-03     62.7087E-03     196.195E+06    -11.5390E+06    -22.3999E+06    -212.933E+06    -22.4118E+06    -212.921E+06    -11.5390E+06     687.619E+03
            1231     61.5175E-03     5.83021E-03     61.2406E-03     58.0172E-03    -28.9510E-03    -29.0662E-03    -28.8349E-03     57.9002E-03    -29.0653E-03     6.35859E-03     64.8447E-03     185.763E+06    -7.11085E+06    -18.9228E+06    -198.493E+06    -18.9322E+06    -198.484E+06    -7.11085E+06     312.938E+03
            1232     61.6243E-03     6.80208E-03     61.2478E-03     57.9046E-03    -28.8797E-03    -29.0124E-03    -28.7255E-03     57.7495E-03    -29.0115E-03     7.31359E-03     67.5223E-03     169.263E+06    -5.84932E+06    -16.9672E+06    -180.390E+06    -16.9697E+06    -180.387E+06    -5.84932E+06     26.3007E+03
            1233     61.7472E-03     7.77410E-03     61.2559E-03     57.7573E-03    -28.7860E-03    -28.9387E-03    -28.5862E-03     57.5575E-03    -28.9387E-03     8.29191E-03     70.8009E-03     149.822E+06    -7.32880E+06    -16.5573E+06    -161.545E+06    -16.5594E+06    -161.543E+06    -7.32880E+06    -18.6313E+03
            1234     61.8863E-03     8.74623E-03     61.2652E-03     57.7021E-03    -28.7966E-03    -28.8799E-03    -28.5344E-03     57.4366E-03    -28.8766E-03     9.53987E-03     74.9783E-03     129.087E+06    -8.16491E+06    -15.3789E+06    -140.706E+06    -15.3845E+06    -140.700E+06    -8.16491E+06     12.8984E+03
            1235     62.0413E-03     9.71817E-03     61.2754E-03     57.6546E-03    -28.8071E-03    -28.8254E-03    -28.4310E-03     57.2603E-03    -28.8071E-03     11.5795E-03     80.3761E-03     103.751E+06    -11.7881E+06    -15.0204E+06    -117.098E+06    -15.0499E+06    -117.069E+06    -11.7881E+06     152.791E+03
            1236     62.2143E-03     10.6906E-03     61.2889E-03     57.5574E-03    -28.7191E-03    -28.8270E-03    -28.3616E-03     57.0921E-03    -28.7191E-03     12.6441E-03     86.6378E-03     72.8034E+06    -15.7661E+06    -20.2946E+06    -90.5829E+06    -16.1097E+06    -90.5393E+06    -19.9946E+06     212.129E+03
            1237     62.4011E-03     11.6630E-03     61.3015E-03     57.4537E-03    -28.5907E-03    -28.8960E-03    -28.2240E-03     56.7816E-03    -28.5907E-03     14.9564E-03     94.3451E-03     38.8729E+06    -17.0117E+06    -25.7535E+06    -59.3102E+06    -17.1403E+06    -50.7694E+06    -34.1656E+06    -75.6692E+03
            1238     62.6083E-03     12.6349E-03     61.3201E-03     57.7368E-03    -28.4316E-03    -29.3689E-03    -27.9177E-03     56.2856E-03    -28.4316E-03     21.8698E-03     105.873E-03     52.3228E+06     11.4280E+06    -23.1232E+06    -48.1366E+06    -18.6772E+06     6.98197E+06    -48.1366E+06    -394.678E+03
            1239     62.8384E-03     13.6084E-03     61.3471E-03     59.2069E-03    -28.3749E-03    -30.8890E-03    -27.8202E-03     56.1382E-03    -28.3749E-03     32.2127E-03     128.726E-03     98.6154E+06     64.5964E+06    -20.9462E+06    -41.6182E+06    -20.8188E+06     64.4689E+06    -41.6182E+06     444.802E+03
            1240     63.0964E-03     14.5808E-03     61.3885E-03     77.7073E-03    -28.5413E-03    -49.2147E-03    -29.1756E-03     57.6683E-03    -28.5413E-03     86.2721E-03     181.444E-03     120.743E+06     106.503E+06     7.63713E+06    -25.3562E+06    -21.1192E+06     106.337E+06     3.56639E+06     1.22346E+06
            1241     63.4646E-03     15.5543E-03     61.5290E-03     169.094E-03    -28.8450E-03    -140.242E-03    -43.9051E-03     72.7570E-03    -28.8450E-03     284.175E-03     399.970E-03     146.524E+06     148.221E+06     81.2628E+06    -16.7574E+06    -16.6638E+06     148.127E+06     81.2628E+06     1.45121E+06
            1242     64.1744E-03     16.5316E-03     62.0086E-03     220.419E-03    -29.0918E-03    -191.439E-03    -51.3070E-03     80.2863E-03    -29.0918E-03     390.261E-03     612.231E-03     177.803E+06     181.615E+06     150.097E+06    -9.15511E+06    -9.13498E+06     181.595E+06     150.097E+06     1.17633E+06
            1243     62.2875E-03     971.760E-06     62.2799E-03     58.1185E-03    -28.9056E-03    -29.2113E-03    -29.1106E-03     58.1136E-03    -29.0015E-03     1.15297E-03     58.8459E-03     207.963E+06    -28.1833E+06    -30.8343E+06    -237.449E+06    -30.8068E+06    -237.439E+06    -28.2207E+06     401.438E+03
            1244     62.3117E-03     1.94323E-03     62.2814E-03     58.0373E-03    -28.9351E-03    -29.1023E-03    -28.9556E-03     58.0221E-03    -29.0667E-03     2.24370E-03     59.0152E-03     210.156E+06    -25.0466E+06    -29.7814E+06    -237.522E+06    -29.7914E+06    -237.512E+06    -25.0466E+06     397.129E+03
            1245     62.3527E-03     2.91517E-03     62.2845E-03     58.0592E-03    -28.9794E-03    -29.0828E-03    -28.9763E-03     58.0258E-03    -29.0524E-03     3.35621E-03     59.7508E-03     210.875E+06    -21.2949E+06    -28.4742E+06    -235.652E+06    -28.4822E+06    -235.644E+06    -21.2949E+06     821.424E+03
            1246     62.4097E-03     3.88669E-03     62.2885E-03     58.0491E-03    -28.9710E-03    -29.0816E-03    -28.9445E-03     57.9922E-03    -29.0512E-03     4.42314E-03     60.9959E-03     205.584E+06    -16.5964E+06    -26.3522E+06    -226.880E+06    -26.3621E+06    -226.870E+06    -16.5964E+06     856.090E+03
            1247     62.4823E-03     4.85856E-03     62.2932E-03     57.9830E-03    -28.9520E-03    -29.0327E-03    -28.8683E-03     57.8972E-03    -29.0307E-03     5.43191E-03     62.6079E-03     192.739E+06    -14.2828E+06    -24.1172E+06    -211.750E+06    -24.1228E+06    -211.745E+06    -14.2828E+06    -160.594E+03
            1248     62.5716E-03     5.83048E-03     62.2994E-03     57.9763E-03    -28.9545E-03    -29.0232E-03    -28.8380E-03     57.8569E-03    -29.0202E-03     6.42403E-03     64.7960E-03     182.527E+06    -10.0838E+06    -22.2725E+06    -198.377E+06    -22.2754E+06    -198.374E+06    -10.0838E+06    -353.051E+03
            1249     62.6765E-03     6.80216E-03     62.3063E-03     57.8995E-03    -28.9028E-03    -28.9876E-03    -28.7452E-03     57.7410E-03    -28.9868E-03     7.39169E-03     67.5179E-03     167.836E+06    -7.07457E+06    -20.0904E+06    -181.032E+06    -20.0927E+06    -181.029E+06    -7.07457E+06     507.256E+03
            1250     62.7973E-03     7.77410E-03     62.3143E-03     57.7406E-03    -28.7919E-03    -28.9171E-03    -28.5879E-03     57.5367E-03    -28.9171E-03     8.37626E-03     70.7843E-03     147.880E+06    -8.09332E+06    -17.8663E+06    -160.614E+06    -17.8698E+06    -160.611E+06    -8.09332E+06     175.073E+03
            1251     62.9341E-03     8.74631E-03     62.3234E-03     57.6106E-03    -28.7322E-03    -28.8540E-03    -28.4677E-03     57.3451E-03    -28.8531E-03     9.53344E-03     74.9017E-03     127.860E+06    -9.54751E+06    -16.9915E+06    -140.966E+06    -16.9989E+06    -140.958E+06    -9.54751E+06    -152.978E+03
            1252     63.0873E-03     9.71857E-03     62.3342E-03     57.6410E-03    -28.7379E-03    -28.8821E-03    -28.4452E-03     57.2539E-03    -28.7876E-03     11.4797E-03     80.3690E-03     103.131E+06    -12.5022E+06    -16.6322E+06    -117.623E+06    -16.6540E+06    -117.601E+06    -12.5022E+06     447.060E+03
            1253     63.2569E-03     10.6907E-03     62.3469E-03     57.6307E-03    -28.7113E-03    -28.9147E-03    -28.4518E-03     57.1677E-03    -28.7113E-03     12.6246E-03     86.7699E-03     72.2914E+06    -15.4290E+06    -20.5474E+06    -90.0188E+06    -16.3652E+06    -89.9854E+06    -19.6446E+06     446.948E+03
            1254     63.4419E-03     11.6626E-03     62.3607E-03     57.4480E-03    -28.5875E-03    -28.8998E-03    -28.2580E-03     56.8061E-03    -28.5875E-03     14.6673E-03     94.3336E-03     38.2638E+06    -17.2844E+06    -25.4093E+06    -58.8088E+06    -17.4317E+06    -49.9723E+06    -34.0984E+06    -92.3827E+03
            1255     63.6445E-03     12.6359E-03     62.3775E-03     57.8565E-03    -28.4365E-03    -29.4851E-03    -28.0348E-03     56.4063E-03    -28.4365E-03     21.7861E-03     106.092E-03     51.8698E+06     10.9398E+06    -23.7418E+06    -47.7763E+06    -19.8964E+06     7.09442E+06    -47.7763E+06    -49.8941E+03
            1256     63.8730E-03     13.6076E-03     62.4067E-03     59.1031E-03    -28.3725E-03    -30.7888E-03    -27.7127E-03     56.0271E-03    -28.3725E-03     32.2483E-03     128.630E-03     98.3166E+06     63.2898E+06    -21.8499E+06    -43.2524E+06    -21.6939E+06     63.1338E+06    -43.2524E+06     694.159E+03
            1257     64.1254E-03     14.5813E-03     62.4456E-03     77.3823E-03    -28.5216E-03    -48.9063E-03    -28.9952E-03     57.4712E-03    -28.5216E-03     85.8333E-03     181.028E-03     121.174E+06     106.407E+06     7.79640E+06    -26.7621E+06    -20.5739E+06     106.276E+06     1.73921E+06     527.039E+03
            1258     64.4921E-03     15.5553E-03     62.5881E-03     168.526E-03    -28.8453E-03    -139.658E-03    -44.3101E-03     73.1786E-03    -28.8453E-03     282.645E-03     399.974E-03     146.957E+06     148.459E+06     80.3024E+06    -17.0524E+06    -16.9984E+06     148.405E+06     80.3024E+06     813.076E+03
            1259     65.1927E-03     16.5265E-03     63.0631E-03     219.982E-03    -29.1093E-03    -190.967E-03    -51.0738E-03     80.0883E-03    -29.1093E-03     389.448E-03     611.963E-03     178.086E+06     181.751E+06     148.866E+06    -9.84497E+06    -9.82615E+06     181.732E+06     148.866E+06     1.43280E+06
            1260     63.3460E-03     971.894E-06     63.3385E-03     57.7890E-03    -28.7290E-03    -29.0594E-03    -29.0542E-03     57.7838E-03    -28.7290E-03     1.23970E-03     58.3651E-03     208.167E+06    -29.3523E+06    -31.6385E+06    -238.643E+06    -31.3808E+06    -238.633E+06    -29.6197E+06     1.23596E+06
            1261     63.3700E-03     1.94353E-03     63.3401E-03     58.0354E-03    -28.9551E-03    -29.0819E-03    -29.0623E-03     58.0190E-03    -28.9583E-03     2.30037E-03     58.9746E-03     210.471E+06    -25.5579E+06    -29.7336E+06    -238.073E+06    -29.6165E+06    -238.060E+06    -25.6873E+06     1.36698E+06
            1262     63.4099E-03     2.91501E-03     63.3428E-03     57.9499E-03    -28.9399E-03    -29.0125E-03    -28.9196E-03     57.9143E-03    -28.9972E-03     3.47547E-03     59.6517E-03     211.210E+06    -21.8092E+06    -27.7078E+06    -235.900E+06    -27.7219E+06    -235.886E+06    -21.8092E+06     1.46254E+06
            1263     63.4661E-03     3.88722E-03     63.3470E-03     57.9131E-03    -28.9223E-03    -28.9925E-03    -28.8640E-03     57.8548E-03    -28.9925E-03     4.47507E-03     60.8556E-03     205.398E+06    -16.7943E+06    -25.7852E+06    -226.530E+06    -25.7947E+06    -226.520E+06    -16.7943E+06     1.03127E+06
            1264     63.5379E-03     4.85891E-03     63.3518E-03     57.9587E-03    -28.9673E-03    -28.9900E-03    -28.8816E-03     57.8710E-03    -28.9880E-03     5.49402E-03     62.6007E-03     192.693E+06    -12.5162E+06    -24.3672E+06    -210.851E+06    -24.3709E+06    -210.847E+06    -12.5162E+06     231.897E+03
            1265     63.6256E-03     5.83051E-03     63.3579E-03     57.8904E-03    -28.9063E-03    -28.9840E-03    -28.7868E-03     57.7689E-03    -28.9819E-03     6.47625E-03     64.7145E-03     182.875E+06    -9.33990E+06    -23.2568E+06    -198.761E+06    -23.2610E+06    -198.756E+06    -9.33990E+06     363.143E+03
            1266     63.7288E-03     6.80263E-03     63.3647E-03     57.8190E-03    -28.8513E-03    -28.9636E-03    -28.7137E-03     57.6545E-03    -28.9368E-03     7.52001E-03     67.4158E-03     166.435E+06    -8.35817E+06    -21.5193E+06    -180.976E+06    -21.5238E+06    -180.971E+06    -8.35817E+06     152.833E+03
            1267     63.8479E-03     7.77462E-03     63.3728E-03     57.8035E-03    -28.8568E-03    -28.9205E-03    -28.6924E-03     57.5966E-03    -28.8780E-03     8.45450E-03     70.8483E-03     145.665E+06    -9.33435E+06    -19.8267E+06    -159.959E+06    -19.8332E+06    -159.952E+06    -9.33435E+06    -85.1520E+03
            1268     63.9825E-03     8.74638E-03     63.3819E-03     57.6565E-03    -28.7757E-03    -28.8584E-03    -28.5417E-03     57.3963E-03    -28.8322E-03     9.44635E-03     74.9565E-03     126.667E+06    -10.4188E+06    -18.8281E+06    -141.078E+06    -18.8357E+06    -141.071E+06    -10.4188E+06     199.244E+03
            1269     64.1328E-03     9.71867E-03     63.3921E-03     57.6351E-03    -28.7202E-03    -28.8996E-03    -28.4531E-03     57.2382E-03    -28.7699E-03     11.5954E-03     80.3461E-03     102.029E+06    -13.8743E+06    -18.0234E+06    -117.892E+06    -17.9950E+06    -117.883E+06    -13.9112E+06     241.624E+03
            1270     64.3012E-03     10.6906E-03     63.4062E-03     57.6236E-03    -28.6942E-03    -28.9280E-03    -28.4561E-03     57.1517E-03    -28.6942E-03     12.7405E-03     86.6914E-03     70.6953E+06    -17.1641E+06    -21.9588E+06    -89.9991E+06    -17.8104E+06    -89.9802E+06    -21.3314E+06     196.237E+03
            1271     64.4820E-03     11.6632E-03     63.4184E-03     57.5410E-03    -28.5812E-03    -28.9986E-03    -28.3546E-03     56.8970E-03    -28.5812E-03     14.6912E-03     94.3351E-03     36.9776E+06    -18.4698E+06    -26.1395E+06    -58.5797E+06    -18.9335E+06    -49.4521E+06    -34.8034E+06     505.517E+03
            1272     64.6828E-03     12.6347E-03     63.4368E-03     57.9739E-03    -28.4377E-03    -29.6018E-03    -28.1555E-03     56.5275E-03    -28.4377E-03     21.8081E-03     106.255E-03     52.0389E+06     10.1122E+06    -24.1301E+06    -48.8489E+06    -20.9801E+06     6.96225E+06    -48.8489E+06     551.236E+03
            1273     64.9070E-03     13.6083E-03     63.4644E-03     58.9048E-03    -28.3817E-03    -30.5816E-03    -27.5922E-03     55.9154E-03    -28.3817E-03     31.7536E-03     128.423E-03      98.529E+06     63.4603E+06    -22.3331E+06    -42.6329E+06    -22.2469E+06     63.3741E+06    -42.6329E+06    -238.028E+03
            1274     65.1565E-03     14.5811E-03     63.5040E-03     77.7676E-03    -28.5549E-03    -49.2760E-03    -29.4488E-03     57.9405E-03    -28.5549E-03     86.0207E-03     181.255E-03     121.146E+06     106.183E+06     8.47917E+06    -26.4647E+06    -22.1694E+06     106.132E+06     4.23429E+06    -33.7207E+03
            1275     65.5194E-03     15.5536E-03     63.6465E-03     168.625E-03    -28.8981E-03    -139.736E-03    -44.8044E-03     73.6935E-03    -28.8981E-03     282.265E-03     400.568E-03     146.925E+06     147.521E+06     80.4502E+06    -18.4315E+06    -18.3944E+06     147.484E+06     80.4502E+06     1.26735E+06
            1276     66.2197E-03     16.5271E-03     64.1242E-03     219.606E-03    -29.1538E-03    -190.564E-03    -50.4625E-03     79.5039E-03    -29.1538E-03     389.031E-03     612.376E-03     178.304E+06     182.280E+06     148.379E+06    -9.87915E+06    -9.86567E+06     182.267E+06     148.379E+06     1.03747E+06
            1277     64.4045E-03     972.140E-06     64.3972E-03     57.5846E-03    -28.6621E-03    -28.9226E-03    -28.8968E-03     57.5782E-03    -28.6816E-03     1.45129E-03     58.1379E-03     207.312E+06    -32.0728E+06    -33.5285E+06    -240.102E+06    -33.2384E+06    -240.098E+06    -32.3675E+06     838.579E+03
            1278     64.4278E-03     1.94370E-03     64.3985E-03     57.8249E-03    -28.8333E-03    -28.9941E-03    -28.9581E-03     57.8085E-03    -28.8528E-03     2.31773E-03     58.7540E-03     210.033E+06    -27.1347E+06    -30.8772E+06    -239.004E+06    -30.7549E+06    -238.997E+06    -27.2640E+06     878.475E+03
            1279     64.4674E-03     2.91564E-03     64.4014E-03     57.9080E-03    -28.9053E-03    -29.0067E-03    -28.9568E-03     57.8749E-03    -28.9221E-03     3.35640E-03     59.6329E-03     211.799E+06    -21.0056E+06    -27.3034E+06    -235.874E+06    -27.3107E+06    -235.867E+06    -21.0056E+06     752.506E+03
            1280     64.5223E-03     3.88713E-03     64.4051E-03     57.8522E-03    -28.8951E-03    -28.9611E-03    -28.8531E-03     57.7942E-03    -28.9451E-03     4.44202E-03     60.8176E-03     206.756E+06    -15.0392E+06    -24.3392E+06    -226.280E+06    -24.3465E+06    -226.273E+06    -15.0392E+06     904.625E+03
            1281     64.5936E-03     4.85908E-03     64.4105E-03     57.8337E-03    -28.8839E-03    -28.9513E-03    -28.7956E-03     57.7454E-03    -28.9513E-03     5.51244E-03     62.4684E-03     195.755E+06    -9.58773E+06    -22.5655E+06    -211.497E+06    -22.5834E+06    -211.480E+06    -9.58773E+06     1.66127E+06
            1282     64.6796E-03     5.83109E-03     64.4162E-03     57.8453E-03    -28.8698E-03    -28.9735E-03    -28.7797E-03     57.7268E-03    -28.9451E-03     6.39247E-03     64.6680E-03     185.576E+06    -5.56846E+06    -20.6855E+06    -198.236E+06    -20.6996E+06    -198.222E+06    -5.56846E+06     1.17998E+06
            1283     64.7813E-03     6.80297E-03     64.4231E-03     57.8191E-03    -28.8532E-03    -28.9566E-03    -28.7456E-03     57.6562E-03    -28.9013E-03     7.47833E-03     67.4177E-03     168.372E+06    -5.37228E+06    -18.8665E+06     -180.08E+06    -18.8735E+06    -180.073E+06    -5.37228E+06     246.335E+03
            1284     64.8990E-03     7.77471E-03     64.4316E-03     57.7970E-03    -28.8442E-03    -28.9238E-03    -28.7095E-03     57.5897E-03    -28.8512E-03     8.46385E-03     70.8311E-03     148.236E+06    -6.95716E+06    -18.0952E+06    -160.447E+06    -18.1027E+06    -160.440E+06    -6.95716E+06     402.262E+03
            1285     65.0311E-03     8.74674E-03     64.4402E-03     57.7518E-03    -28.8126E-03    -28.9136E-03    -28.6543E-03     57.4925E-03    -28.8126E-03     9.44298E-03     75.0419E-03     127.895E+06     -8.2862E+06    -17.4952E+06    -140.535E+06    -17.5050E+06    -140.525E+06     -8.2862E+06     646.347E+03
            1286     65.1794E-03     9.71857E-03     64.4508E-03     57.7016E-03    -28.7616E-03    -28.9192E-03    -28.5160E-03     57.2983E-03    -28.7616E-03     11.6838E-03     80.4501E-03     103.177E+06    -12.2332E+06    -17.2856E+06    -117.816E+06    -17.2595E+06    -117.805E+06    -12.2701E+06     463.334E+03
            1287     65.3449E-03     10.6911E-03     64.4643E-03     57.6058E-03    -28.6871E-03    -28.9095E-03    -28.4358E-03     57.1321E-03    -28.6871E-03     12.7588E-03     86.6082E-03     71.3187E+06    -16.8021E+06    -21.5688E+06    -90.2900E+06    -17.8820E+06    -90.2541E+06    -20.5247E+06     543.607E+03
            1288     65.5238E-03     11.6628E-03     64.4775E-03     57.5480E-03    -28.5694E-03    -29.0106E-03    -28.3590E-03     56.8965E-03    -28.5694E-03     14.7500E-03     94.3362E-03     36.8671E+06    -18.2610E+06    -26.2111E+06    -58.2524E+06    -18.7435E+06    -49.7750E+06    -34.2061E+06     670.295E+03
            1289     65.7212E-03     12.6358E-03     64.4951E-03     58.0785E-03    -28.4242E-03    -29.7169E-03    -28.2327E-03     56.5944E-03    -28.4242E-03     22.1284E-03     106.231E-03     53.0841E+06     11.5482E+06    -24.1313E+06    -48.8100E+06    -20.2651E+06     7.68201E+06    -48.8100E+06     389.066E+03
            1290     65.9426E-03     13.6072E-03     64.5234E-03     59.0226E-03    -28.3803E-03    -30.6986E-03    -27.8248E-03     56.1487E-03    -28.3803E-03     31.2998E-03     128.464E-03     100.007E+06     64.3638E+06    -23.0184E+06    -43.0009E+06    -22.9580E+06     64.3034E+06    -43.0009E+06     108.927E+03
            1291     66.1868E-03     14.5815E-03     64.5606E-03     78.9039E-03    -28.5712E-03    -50.3802E-03    -30.0311E-03     58.5548E-03    -28.5712E-03     87.4465E-03     181.826E-03     121.336E+06     105.428E+06     5.92351E+06    -26.8593E+06    -23.5364E+06     105.404E+06     2.62475E+06     155.284E+03
            1292     66.5529E-03     15.5522E-03     64.7103E-03     168.305E-03    -28.9344E-03    -139.350E-03    -44.4284E-03     73.3836E-03    -28.9344E-03     281.784E-03     400.731E-03     146.860E+06     146.918E+06     78.3382E+06    -18.9775E+06    -18.9319E+06     146.872E+06     78.3382E+06     23.2687E+03
            1293     67.2387E-03     16.5263E-03     65.1761E-03     218.705E-03    -29.1886E-03    -189.618E-03    -49.6430E-03     78.7305E-03    -29.1886E-03     387.616E-03     612.206E-03     178.525E+06     182.455E+06     148.152E+06    -10.0073E+06    -9.97570E+06     182.423E+06     148.152E+06     218.190E+03
            1294     65.4617E-03     971.642E-06     65.4544E-03     57.6134E-03    -28.7483E-03    -28.8642E-03    -28.8222E-03     57.6069E-03    -28.7838E-03     1.35669E-03     58.2465E-03     207.358E+06    -31.7566E+06    -33.6778E+06    -240.062E+06    -33.5281E+06    -240.060E+06    -31.9090E+06    -60.4185E+03
            1295     65.4859E-03     1.94403E-03     65.4571E-03     57.6634E-03    -28.7764E-03    -28.8878E-03    -28.8133E-03     57.6470E-03    -28.8345E-03     2.34749E-03     58.5655E-03     209.614E+06    -27.0051E+06    -31.0587E+06    -238.613E+06    -31.0619E+06    -238.610E+06    -27.0051E+06    -458.974E+03
            1296     65.5246E-03     2.91545E-03     65.4597E-03     57.7839E-03    -28.8438E-03    -28.9443E-03    -28.8889E-03     57.7511E-03    -28.8664E-03     3.31725E-03     59.4977E-03     211.637E+06    -21.5965E+06    -27.9625E+06    -236.335E+06    -27.9634E+06    -236.335E+06    -21.5965E+06    -311.603E+03
            1297     65.5790E-03     3.88745E-03     65.4637E-03     57.7870E-03    -28.8650E-03    -28.9261E-03    -28.8411E-03     57.7280E-03    -28.8910E-03     4.47991E-03     60.7568E-03     206.773E+06    -16.0739E+06    -25.3732E+06    -227.335E+06    -25.3826E+06    -227.326E+06    -16.0739E+06     847.010E+03
            1298     65.6486E-03     4.85939E-03     65.4685E-03     57.7722E-03    -28.8443E-03    -28.9306E-03    -28.7877E-03     57.6849E-03    -28.9000E-03     5.48011E-03     62.3974E-03     195.814E+06    -10.6592E+06    -22.6346E+06    -212.178E+06    -22.6560E+06    -212.157E+06    -10.6592E+06     1.90792E+06
            1299     65.7339E-03     5.83131E-03     65.4747E-03     57.8158E-03    -28.8638E-03    -28.9514E-03    -28.7975E-03     57.7010E-03    -28.9028E-03     6.29546E-03     64.6402E-03     184.626E+06    -5.45060E+06    -20.1529E+06    -196.981E+06    -20.1689E+06    -196.965E+06    -5.45060E+06     1.29934E+06
            1300     65.8341E-03     6.80295E-03     65.4816E-03     57.7897E-03    -28.8571E-03    -28.9222E-03    -28.7475E-03     57.6313E-03    -28.8735E-03     7.37077E-03     67.4066E-03     169.104E+06    -4.43183E+06    -18.2647E+06    -180.023E+06    -18.2724E+06    -180.015E+06    -4.43183E+06     852.455E+03
            1301     65.9497E-03     7.77520E-03     65.4898E-03     57.7179E-03    -28.8133E-03    -28.8742E-03    -28.6553E-03     57.5095E-03    -28.8238E-03     8.47385E-03     70.7459E-03     149.708E+06    -6.29279E+06    -16.9316E+06    -161.035E+06    -16.9451E+06    -161.022E+06    -6.29279E+06     1.16470E+06
            1302     66.0806E-03     8.74695E-03     65.4991E-03     57.7436E-03    -28.7790E-03    -28.9380E-03    -28.6716E-03     57.4807E-03    -28.7826E-03     9.51333E-03     75.0359E-03     128.420E+06    -7.53479E+06    -16.2600E+06    -140.093E+06    -16.2767E+06    -140.076E+06    -7.53479E+06     1.10905E+06
            1303     66.2261E-03     9.71904E-03     65.5090E-03     57.7862E-03    -28.7403E-03    -29.0231E-03    -28.6225E-03     57.3855E-03    -28.7403E-03     11.6655E-03     80.5910E-03     103.921E+06    -11.1717E+06    -16.3805E+06    -117.577E+06    -16.2198E+06    -117.547E+06    -11.3622E+06     1.07524E+06
            1304     66.3895E-03     10.6907E-03     65.5231E-03     57.5887E-03    -28.6713E-03    -28.9105E-03    -28.4263E-03     57.1045E-03    -28.6713E-03     12.9031E-03     86.6022E-03     72.6307E+06    -15.2979E+06    -20.8757E+06    -90.4364E+06    -16.3932E+06    -90.3852E+06    -19.8316E+06     1.19377E+06
            1305     66.5655E-03     11.6634E-03     65.5358E-03     57.5464E-03    -28.5546E-03    -29.0279E-03    -28.3601E-03     56.8786E-03    -28.5546E-03     14.9666E-03     94.3816E-03     38.0297E+06    -17.0228E+06    -25.4093E+06    -58.3907E+06    -17.5243E+06    -49.7119E+06    -33.5866E+06     822.926E+03
            1306     66.7603E-03     12.6353E-03     65.5537E-03     58.0062E-03    -28.4128E-03    -29.6563E-03    -28.1820E-03     56.5319E-03    -28.4128E-03     22.0473E-03     106.132E-03     52.5143E+06     11.8189E+06    -23.6067E+06    -47.7498E+06    -20.0015E+06     8.21371E+06    -47.7498E+06     646.268E+03
            1307     66.9793E-03     13.6086E-03     65.5823E-03     59.3753E-03    -28.3721E-03    -31.0611E-03    -28.1399E-03     56.4540E-03    -28.3721E-03     31.6569E-03     128.599E-03     99.6306E+06     64.5124E+06    -22.2934E+06    -42.9422E+06    -22.2338E+06     64.4528E+06    -42.9422E+06     792.058E+03
            1308     67.2194E-03     14.5796E-03     65.6192E-03     79.6049E-03    -28.5592E-03    -51.0911E-03    -29.9176E-03     58.4315E-03    -28.5592E-03     89.1682E-03     182.700E-03     121.505E+06     105.919E+06     6.29691E+06    -27.0751E+06    -22.3542E+06     105.881E+06     1.61385E+06     631.724E+03
            1309     67.5852E-03     15.5529E-03     65.7713E-03     168.637E-03    -28.9047E-03    -139.692E-03    -43.9878E-03     72.9329E-03    -28.9047E-03     283.208E-03     400.315E-03     147.023E+06     146.902E+06     78.0249E+06    -18.9633E+06    -18.9323E+06     146.871E+06     78.0249E+06    -626.015E+03
            1310     68.2633E-03     16.5258E-03     66.2328E-03     218.851E-03    -29.1578E-03    -189.738E-03    -50.0474E-03     79.1599E-03    -29.1578E-03     387.617E-03     612.164E-03     178.846E+06     182.029E+06     148.142E+06    -10.6399E+06    -10.6183E+06     182.008E+06     148.142E+06    -1.05091E+06
            1311     66.5201E-03     972.048E-06     66.5130E-03     57.6776E-03    -28.7959E-03    -28.8799E-03    -28.8204E-03     57.6718E-03    -28.8496E-03     1.28355E-03     58.3331E-03     208.195E+06    -29.5965E+06    -31.9278E+06    -238.945E+06    -31.0559E+06    -238.940E+06    -30.4730E+06    -571.073E+03
            1312     66.5433E-03     1.94349E-03     66.5149E-03     57.5866E-03    -28.7417E-03    -28.8450E-03    -28.7241E-03     57.5690E-03    -28.8450E-03     2.39975E-03     58.4936E-03     209.875E+06    -25.7249E+06    -30.2011E+06    -237.797E+06    -30.2041E+06    -237.794E+06    -25.7249E+06    -588.591E+03
            1313     66.5819E-03     2.91599E-03     66.5180E-03     57.6204E-03    -28.7647E-03    -28.8603E-03    -28.7589E-03     57.5862E-03    -28.8319E-03     3.40256E-03     59.3107E-03     211.425E+06    -21.8339E+06    -28.6465E+06    -236.582E+06    -28.6484E+06    -236.580E+06    -21.8339E+06    -522.604E+03
            1314     66.6353E-03     3.88771E-03     66.5218E-03     57.7575E-03    -28.8420E-03    -28.9183E-03    -28.8625E-03     57.7017E-03    -28.8420E-03     4.36755E-03     60.7050E-03     207.266E+06    -18.3776E+06    -26.5154E+06    -229.589E+06    -26.5228E+06    -229.582E+06    -18.3776E+06     502.866E+03
            1315     66.7042E-03     4.85948E-03     66.5270E-03     57.7726E-03    -28.8499E-03    -28.9231E-03    -28.8328E-03     57.6873E-03    -28.8550E-03     5.40737E-03     62.3800E-03     193.536E+06    -13.7649E+06    -23.8362E+06    -212.131E+06    -23.8456E+06    -212.122E+06    -13.7649E+06     1.28772E+06
            1316     66.7882E-03     5.83119E-03     66.5331E-03     57.7442E-03    -28.8531E-03    -28.8884E-03    -28.7575E-03     57.6278E-03    -28.8676E-03     6.33438E-03     64.5604E-03     181.904E+06    -7.69694E+06    -20.8429E+06    -195.810E+06    -20.8508E+06    -195.802E+06    -7.69694E+06     711.375E+03
            1317     66.8869E-03     6.80345E-03     66.5400E-03     57.7361E-03    -28.8392E-03    -28.8870E-03    -28.7207E-03     57.5792E-03    -28.8486E-03     7.33831E-03     67.3762E-03     169.718E+06    -4.87118E+06    -18.2091E+06    -180.863E+06    -18.2299E+06    -180.843E+06    -4.87118E+06     1.12254E+06
            1318     67.0009E-03     7.77503E-03     66.5482E-03     57.6762E-03    -28.7926E-03    -28.8576E-03    -28.6500E-03     57.4721E-03    -28.7961E-03     8.38321E-03     70.7106E-03     149.430E+06    -7.16814E+06    -16.8945E+06    -161.216E+06    -16.9206E+06    -161.190E+06    -7.16814E+06     1.64443E+06
            1319     67.1296E-03     8.74744E-03     66.5573E-03     57.6391E-03    -28.7485E-03    -28.8695E-03    -28.5992E-03     57.3724E-03    -28.7521E-03     9.56202E-03     74.9364E-03     127.815E+06    -9.00433E+06    -16.1870E+06    -140.257E+06    -16.2100E+06    -140.234E+06    -9.00433E+06     1.32943E+06
            1320     67.2739E-03     9.71903E-03     66.5682E-03     57.7129E-03    -28.7076E-03    -28.9927E-03    -28.5889E-03     57.3091E-03    -28.7076E-03     11.7219E-03     80.5019E-03     103.855E+06    -11.8992E+06    -16.0417E+06    -117.746E+06    -15.8893E+06    -117.708E+06    -12.0897E+06     1.57804E+06
            1321     67.4341E-03     10.6915E-03     66.5811E-03     57.5793E-03    -28.6395E-03    -28.9408E-03    -28.4611E-03     57.0996E-03    -28.6395E-03     12.8451E-03     86.6514E-03     72.0835E+06    -15.6766E+06    -20.7698E+06    -90.0367E+06    -16.3255E+06    -89.9667E+06    -20.1909E+06     1.69050E+06
            1322     67.6080E-03     11.6635E-03     66.5944E-03     57.5251E-03    -28.5288E-03    -29.0343E-03    -28.3310E-03     56.8218E-03    -28.5288E-03     15.2950E-03     94.3502E-03     37.8467E+06    -17.4443E+06    -25.4958E+06    -58.5687E+06    -17.8585E+06    -49.4960E+06    -34.1544E+06     1.52944E+06
            1323     67.8008E-03     12.6356E-03     66.6130E-03     57.9538E-03    -28.3904E-03    -29.6278E-03    -28.1556E-03     56.4817E-03    -28.3904E-03     22.1433E-03     106.151E-03     52.8348E+06     12.0066E+06    -23.6497E+06    -47.7262E+06    -20.2326E+06     8.58949E+06    -47.7262E+06     1.44907E+06
            1324     68.0146E-03     13.6082E-03     66.6393E-03     59.3694E-03    -28.3445E-03    -31.0857E-03    -27.9547E-03     56.2384E-03    -28.3445E-03     32.5302E-03     128.576E-03     99.5304E+06     64.8276E+06    -22.2181E+06    -42.4961E+06    -22.1384E+06     64.7479E+06    -42.4961E+06     1.23498E+06
            1325     68.2569E-03     14.5812E-03     66.6813E-03     78.9787E-03    -28.5046E-03    -50.5381E-03    -29.1738E-03     57.6144E-03    -28.5046E-03     89.5452E-03     182.947E-03     121.463E+06     106.190E+06      6.5098E+06    -26.8242E+06    -21.9382E+06     106.164E+06     1.64981E+06     446.992E+03
            1326     68.6121E-03     15.5557E-03     66.8254E-03     168.821E-03    -28.8148E-03    -139.986E-03    -43.7553E-03     72.5901E-03    -28.8148E-03     284.092E-03     400.136E-03     146.908E+06     148.342E+06     79.5047E+06    -17.2763E+06    -17.2684E+06     148.334E+06     79.5047E+06    -465.936E+03
            1327     69.2990E-03     16.5306E-03     67.2985E-03     218.693E-03    -29.0813E-03    -189.609E-03    -51.0363E-03     80.1206E-03    -29.0813E-03     386.656E-03     610.570E-03     178.101E+06     182.346E+06     149.163E+06    -9.32903E+06    -9.32233E+06     182.340E+06     149.163E+06    -896.815E+03
            1328     67.5784E-03     971.641E-06     67.5714E-03     57.6521E-03    -28.7177E-03    -28.9326E-03    -28.8565E-03     57.6473E-03    -28.7889E-03     1.22608E-03     58.3317E-03     208.790E+06    -27.9491E+06    -30.9631E+06    -238.227E+06    -30.2142E+06    -238.225E+06    -28.7004E+06    -374.511E+03
            1329     67.6007E-03     1.94404E-03     67.5728E-03     57.5861E-03    -28.7338E-03    -28.8507E-03    -28.7365E-03     57.5702E-03    -28.8320E-03     2.25311E-03     58.5455E-03     210.729E+06    -25.2834E+06    -28.6644E+06    -237.678E+06    -28.6655E+06    -237.677E+06    -25.2834E+06     69.8055E+03
            1330     67.6388E-03     2.91572E-03     67.5760E-03     57.6340E-03    -28.7736E-03    -28.8635E-03    -28.7789E-03     57.6009E-03    -28.8250E-03     3.34853E-03     59.3448E-03     211.167E+06    -22.3371E+06    -28.4077E+06    -236.468E+06    -28.4101E+06    -236.466E+06    -22.3371E+06     49.2176E+03
            1331     67.6919E-03     3.88766E-03     67.5802E-03     57.7190E-03    -28.8273E-03    -28.8948E-03    -28.8302E-03     57.6646E-03    -28.8375E-03     4.31038E-03     60.6733E-03     207.545E+06    -19.1177E+06    -27.1536E+06    -230.562E+06    -27.1570E+06    -230.559E+06    -19.1177E+06     310.392E+03
            1332     67.7597E-03     4.85943E-03     67.5852E-03     57.6880E-03    -28.8191E-03    -28.8681E-03    -28.7726E-03     57.6040E-03    -28.8306E-03     5.36103E-03     62.2766E-03     191.730E+06    -16.0810E+06    -24.4402E+06    -211.848E+06    -24.4450E+06    -211.843E+06    -16.0810E+06     447.203E+03
            1333     67.8424E-03     5.83161E-03     67.5913E-03     57.6814E-03    -28.8304E-03    -28.8439E-03    -28.7188E-03     57.5645E-03    -28.8385E-03     6.34288E-03     64.4598E-03     179.682E+06    -10.1978E+06    -21.8066E+06    -195.375E+06    -21.8117E+06    -195.370E+06    -10.1978E+06     56.2852E+03
            1334     67.9398E-03     6.80319E-03     67.5983E-03     57.6944E-03    -28.8277E-03    -28.8510E-03    -28.6944E-03     57.5385E-03    -28.8284E-03     7.31900E-03     67.3168E-03     169.766E+06    -6.18074E+06    -19.3303E+06    -182.137E+06    -19.3493E+06    -182.118E+06    -6.18074E+06     571.651E+03
            1335     68.0523E-03     7.77553E-03     67.6066E-03     57.6418E-03    -28.7755E-03    -28.8362E-03    -28.6296E-03     57.4359E-03    -28.7762E-03     8.40983E-03     70.6650E-03     149.618E+06    -7.37412E+06    -16.9618E+06    -161.550E+06    -16.9996E+06    -161.512E+06    -7.37412E+06     1.52643E+06
            1336     68.1792E-03     8.74710E-03     67.6157E-03     57.5886E-03    -28.7370E-03    -28.8316E-03    -28.5651E-03     57.3221E-03    -28.7370E-03     9.55991E-03     74.9031E-03     128.420E+06    -8.51194E+06    -16.2158E+06    -140.604E+06    -16.2577E+06    -140.563E+06    -8.51194E+06     2.05963E+06
            1337     68.3213E-03     9.71982E-03     67.6263E-03     57.6078E-03    -28.6906E-03    -28.9047E-03    -28.5091E-03     57.2122E-03    -28.6906E-03     11.5854E-03     80.4025E-03     104.012E+06    -11.6157E+06    -16.2216E+06    -117.828E+06    -16.2622E+06    -117.788E+06    -11.6157E+06     1.94430E+06
            1338     68.4798E-03     10.6914E-03     67.6400E-03     57.5951E-03    -28.6201E-03    -28.9698E-03    -28.5047E-03     57.1300E-03    -28.6201E-03     12.6516E-03     86.6940E-03     71.9657E+06    -15.6303E+06    -20.5102E+06    -89.7947E+06    -16.4881E+06    -89.7248E+06    -19.7223E+06     1.94264E+06
            1339     68.6505E-03     11.6637E-03     67.6525E-03     57.4049E-03    -28.5098E-03    -28.9286E-03    -28.2513E-03     56.7276E-03    -28.5098E-03     14.9745E-03     94.2943E-03     37.6583E+06    -16.9456E+06    -25.2827E+06    -57.8810E+06    -17.4213E+06    -49.3717E+06    -33.3163E+06     2.04710E+06
            1340     68.8410E-03     12.6368E-03     67.6712E-03     57.8180E-03    -28.3618E-03    -29.5205E-03    -28.0473E-03     56.3449E-03    -28.3618E-03     22.0760E-03     106.086E-03     53.0022E+06     12.6424E+06    -23.2115E+06    -47.5252E+06    -19.3386E+06     8.76941E+06    -47.5252E+06     1.97142E+06
            1341     69.0530E-03     13.6088E-03     67.6987E-03     58.9393E-03    -28.2995E-03    -30.6995E-03    -27.6281E-03     55.8679E-03    -28.2995E-03     32.1112E-03     128.409E-03     100.228E+06     65.2055E+06    -21.6077E+06    -43.1917E+06    -21.5420E+06     65.1399E+06    -43.1917E+06     1.40150E+06
            1342     69.2895E-03     14.5828E-03     67.7376E-03     78.2860E-03    -28.4605E-03    -49.8933E-03    -28.9248E-03     57.3175E-03    -28.4605E-03     88.3700E-03     182.500E-03     122.290E+06     107.643E+06     8.39434E+06    -26.5808E+06    -21.2332E+06     107.599E+06     3.09028E+06    -423.496E+03
            1343     69.6444E-03     15.5562E-03     67.8848E-03     168.406E-03    -28.7752E-03    -139.630E-03    -43.7554E-03     72.5316E-03    -28.7752E-03     283.173E-03     400.547E-03     147.739E+06     149.723E+06     81.1613E+06    -16.9922E+06    -16.9579E+06     149.689E+06     81.1613E+06    -1.11058E+06
            1344     70.3252E-03     16.5286E-03     68.3552E-03     218.895E-03    -29.0454E-03    -189.858E-03    -51.4397E-03     80.4766E-03    -29.0454E-03     386.870E-03     610.279E-03     177.828E+06     182.072E+06     148.825E+06    -9.33042E+06    -9.32668E+06     182.068E+06     148.825E+06    -529.396E+03
            1345     68.6359E-03     972.036E-06     68.6290E-03     57.6090E-03    -28.6401E-03    -28.9677E-03    -28.9297E-03     57.6046E-03    -28.6737E-03     1.08030E-03     58.2973E-03     208.923E+06    -28.1517E+06    -31.3849E+06    -238.668E+06    -30.8232E+06    -238.668E+06    -28.7142E+06     180.197E+03
            1346     68.6586E-03     1.94366E-03     68.6311E-03     57.7045E-03    -28.7978E-03    -28.9043E-03    -28.8525E-03     57.6896E-03    -28.8348E-03     2.19925E-03     58.6457E-03     210.329E+06    -25.9773E+06    -29.1458E+06    -237.869E+06    -29.1473E+06    -237.868E+06    -25.9773E+06     317.809E+03
            1347     68.6959E-03     2.91566E-03     68.6340E-03     57.7191E-03    -28.8439E-03    -28.8765E-03    -28.8295E-03     57.6860E-03    -28.8578E-03     3.33281E-03     59.4522E-03     211.370E+06    -22.3974E+06    -27.7029E+06    -236.362E+06    -27.7117E+06    -236.353E+06    -22.3974E+06     1.06719E+06
            1348     68.7483E-03     3.88753E-03     68.6383E-03     57.6667E-03    -28.8053E-03    -28.8647E-03    -28.7516E-03     57.6131E-03    -28.8647E-03     4.28826E-03     60.6500E-03     208.000E+06    -17.3432E+06    -25.5605E+06    -229.328E+06    -25.5790E+06    -229.309E+06    -17.3432E+06     150.839E+03
            1349     68.8152E-03     4.85961E-03     68.6434E-03     57.6035E-03    -28.7705E-03    -28.8338E-03    -28.6873E-03     57.5203E-03    -28.8338E-03     5.31403E-03     62.2013E-03     192.694E+06    -15.5733E+06    -23.3845E+06    -212.053E+06    -23.3969E+06    -212.041E+06    -15.5733E+06    -690.391E+03
            1350     68.8968E-03     5.83133E-03     68.6496E-03     57.6420E-03    -28.8057E-03    -28.8311E-03    -28.6914E-03     57.5231E-03    -28.8265E-03     6.39285E-03     64.4046E-03     180.089E+06    -11.0268E+06    -21.7984E+06    -196.221E+06    -21.8049E+06    -196.215E+06    -11.0268E+06     534.785E+03
            1351     68.9931E-03     6.80358E-03     68.6568E-03     57.6759E-03    -28.8132E-03    -28.8511E-03    -28.6899E-03     57.5217E-03    -28.8202E-03     7.28293E-03     67.2858E-03     169.320E+06    -6.09606E+06    -20.7967E+06    -182.276E+06    -20.8065E+06    -182.266E+06    -6.09606E+06     768.441E+03
            1352     69.1035E-03     7.77531E-03     68.6646E-03     57.6361E-03    -28.7701E-03    -28.8385E-03    -28.6369E-03     57.4352E-03    -28.7708E-03     8.30491E-03     70.6891E-03     149.220E+06    -7.70660E+06    -19.5136E+06    -162.461E+06    -19.5391E+06    -162.435E+06    -7.70660E+06     888.760E+03
            1353     69.2292E-03     8.74779E-03     68.6743E-03     57.6051E-03    -28.7357E-03    -28.8489E-03    -28.5926E-03     57.3488E-03    -28.7357E-03     9.38284E-03     74.9111E-03     128.602E+06    -8.30754E+06    -17.1137E+06    -141.086E+06    -17.1509E+06    -141.048E+06    -8.30754E+06     1.71884E+06
            1354     69.3688E-03     9.71910E-03     68.6846E-03     57.6205E-03    -28.6946E-03    -28.9098E-03    -28.5257E-03     57.2365E-03    -28.6946E-03     11.4057E-03     80.4607E-03     104.926E+06    -10.5577E+06    -15.4401E+06    -117.807E+06    -15.4829E+06    -117.765E+06    -10.5577E+06     2.04685E+06
            1355     69.5254E-03     10.6918E-03     68.6984E-03     57.5237E-03    -28.6222E-03    -28.8953E-03    -28.4390E-03     57.0674E-03    -28.6222E-03     12.5204E-03     86.6277E-03     72.8835E+06    -14.9396E+06    -19.6405E+06    -89.9442E+06    -15.6844E+06    -89.8666E+06    -18.9733E+06     2.17636E+06
            1356     69.6942E-03     11.6638E-03     68.7113E-03     57.4612E-03    -28.5130E-03    -28.9856E-03    -28.3471E-03     56.8227E-03    -28.5130E-03     14.5976E-03     94.3938E-03     37.9923E+06    -16.2475E+06    -24.7693E+06    -57.5425E+06    -16.7318E+06    -49.3237E+06    -32.5038E+06     2.14378E+06
            1357     69.8808E-03     12.6359E-03     68.7289E-03     57.6960E-03    -28.3655E-03    -29.3976E-03    -27.9818E-03     56.2801E-03    -28.3655E-03     21.5547E-03     106.037E-03     52.1551E+06     12.6752E+06    -22.3302E+06    -46.7254E+06    -18.2375E+06     8.58246E+06    -46.7254E+06     1.86761E+06
            1358     70.0916E-03     13.6094E-03     68.7577E-03     58.6037E-03    -28.2964E-03    -30.3683E-03    -27.5092E-03     55.7446E-03    -28.2964E-03     31.0172E-03     128.218E-03     99.8375E+06     66.3917E+06    -19.7306E+06    -41.6178E+06    -19.6690E+06     66.3301E+06    -41.6178E+06     788.399E+03
            1359     70.3230E-03     14.5821E-03     68.7945E-03     78.5026E-03    -28.4764E-03    -50.0873E-03    -29.3338E-03     57.7491E-03    -28.4764E-03     87.7934E-03     182.436E-03     122.708E+06     109.981E+06     11.6054E+06    -24.8125E+06    -19.5133E+06     109.908E+06     6.37888E+06    -242.364E+03
            1360     70.6773E-03     15.5553E-03     68.9443E-03     167.890E-03    -28.8269E-03    -139.061E-03    -44.0911E-03     72.9196E-03    -28.8269E-03     281.661E-03     400.609E-03     147.773E+06     150.393E+06     83.7124E+06    -16.3727E+06    -16.3201E+06     150.340E+06     83.7124E+06    -539.242E+03
            1361     71.3537E-03     16.5309E-03     69.4124E-03     218.536E-03    -29.0934E-03    -189.441E-03    -50.9512E-03     80.0458E-03    -29.0934E-03     386.367E-03     610.632E-03     177.508E+06     181.613E+06     148.732E+06    -9.40462E+06    -9.39967E+06     181.608E+06     148.732E+06    -173.633E+03
            1362     69.6945E-03     972.014E-06     69.6877E-03     57.5784E-03    -28.6775E-03    -28.9015E-03    -28.8960E-03     57.5729E-03    -28.6775E-03     1.24580E-03     58.1669E-03     208.426E+06    -29.7919E+06    -32.3488E+06    -239.481E+06    -31.7956E+06    -239.472E+06    -30.3543E+06     1.16585E+06
            1363     69.7163E-03     1.94375E-03     69.6892E-03     57.8175E-03    -28.8461E-03    -28.9713E-03    -28.9518E-03     57.8013E-03    -28.8496E-03     2.30052E-03     58.7537E-03     209.738E+06    -26.2245E+06    -31.1005E+06    -238.342E+06    -31.1043E+06    -238.338E+06    -26.2245E+06     707.012E+03
            1364     69.7533E-03     2.91550E-03     69.6924E-03     57.7893E-03    -28.8459E-03    -28.9444E-03    -28.8616E-03     57.7573E-03    -28.8967E-03     3.29882E-03     59.5300E-03     211.276E+06    -21.6441E+06    -27.6420E+06    -235.842E+06    -27.6590E+06    -235.825E+06    -21.6441E+06     127.926E+03
            1365     69.8049E-03     3.88735E-03     69.6966E-03     57.6599E-03    -28.7696E-03    -28.8927E-03    -28.7168E-03     57.6072E-03    -28.8927E-03     4.23517E-03     60.6555E-03     208.118E+06    -16.5329E+06    -23.9659E+06    -228.257E+06    -23.9947E+06    -228.228E+06    -16.5329E+06    -505.828E+03
            1366     69.8705E-03     4.85941E-03     69.7013E-03     57.6427E-03    -28.7715E-03    -28.8709E-03    -28.6892E-03     57.5604E-03    -28.8709E-03     5.29454E-03     62.2514E-03     195.295E+06    -12.2738E+06    -22.5211E+06    -212.470E+06    -22.5341E+06    -212.457E+06    -12.2738E+06    -173.583E+03
            1367     69.9514E-03     5.83170E-03     69.7079E-03     57.6551E-03    -28.7989E-03    -28.8543E-03    -28.6864E-03     57.5426E-03    -28.8543E-03     6.21847E-03     64.4378E-03     182.576E+06    -8.54966E+06    -21.1206E+06    -197.063E+06    -21.1250E+06    -197.058E+06    -8.54966E+06     677.756E+03
            1368     70.0461E-03     6.80338E-03     69.7149E-03     57.7063E-03    -28.8096E-03    -28.8892E-03    -28.7093E-03     57.5581E-03    -28.8413E-03     7.13559E-03     67.3337E-03     171.465E+06    -4.26007E+06    -18.8437E+06    -182.539E+06    -18.8565E+06    -182.526E+06    -4.26007E+06     1.26085E+06
            1369     70.1556E-03     7.77546E-03     69.7233E-03     57.7155E-03    -28.7961E-03    -28.8941E-03    -28.7010E-03     57.5224E-03    -28.7961E-03     8.15653E-03     70.7756E-03     151.174E+06    -5.58448E+06    -17.4826E+06    -162.334E+06    -17.4970E+06    -162.320E+06    -5.58448E+06     1.17229E+06
            1370     70.2789E-03     8.74693E-03     69.7324E-03     57.6161E-03    -28.7481E-03    -28.8487E-03    -28.5970E-03     57.3643E-03    -28.7481E-03     9.29246E-03     74.8945E-03     129.099E+06    -8.88649E+06    -16.5765E+06    -141.655E+06    -16.5903E+06    -141.641E+06    -8.88649E+06     836.336E+03
            1371     70.4173E-03     9.71972E-03     69.7433E-03     57.6395E-03    -28.7038E-03    -28.9214E-03    -28.5400E-03     57.2582E-03    -28.7038E-03     11.3795E-03     80.4197E-03     105.159E+06    -11.5614E+06    -15.6965E+06    -118.710E+06    -15.7374E+06    -118.669E+06    -11.5614E+06     1.67434E+06
            1372     70.5712E-03     10.6911E-03     69.7567E-03     57.5319E-03    -28.6382E-03    -28.8934E-03    -28.4505E-03     57.0890E-03    -28.6382E-03     12.3348E-03     86.6401E-03     73.0194E+06    -14.3768E+06    -19.2553E+06    -89.6005E+06    -15.2180E+06    -89.5208E+06    -18.4937E+06     2.13944E+06
            1373     70.7379E-03     11.6639E-03     69.7696E-03     57.4631E-03    -28.5269E-03    -28.9749E-03    -28.3310E-03     56.8191E-03    -28.5269E-03     14.6135E-03     94.3637E-03     38.8725E+06    -15.3146E+06    -24.1724E+06    -57.5892E+06    -15.6271E+06    -49.3905E+06    -32.0586E+06     1.88764E+06
            1374     70.9229E-03     12.6359E-03     69.7882E-03     57.7505E-03    -28.3801E-03    -29.4341E-03    -28.0563E-03     56.3727E-03    -28.3801E-03     21.3671E-03     105.926E-03     51.9724E+06     13.4966E+06    -21.5248E+06    -45.6807E+06    -17.0090E+06     8.98078E+06    -45.6807E+06     1.48224E+06
            1375     71.1282E-03     13.6085E-03     69.8142E-03     58.8002E-03    -28.3238E-03    -30.5363E-03    -27.6793E-03     55.9432E-03    -28.3238E-03     30.9796E-03     128.281E-03     99.4341E+06     67.7312E+06    -18.7280E+06    -39.4131E+06    -18.6424E+06     67.6456E+06    -39.4131E+06     935.380E+03
            1376     71.3601E-03     14.5820E-03     69.8543E-03     78.8560E-03    -28.5105E-03    -50.3953E-03    -29.6034E-03     58.0641E-03    -28.5105E-03     88.2587E-03     182.477E-03     122.973E+06     111.001E+06     11.6479E+06    -23.6824E+06    -19.1985E+06     110.932E+06     7.23259E+06     818.887E+03
            1377     71.7095E-03     15.5543E-03     70.0023E-03     168.500E-03    -28.8849E-03    -139.581E-03    -44.7201E-03     73.6394E-03    -28.8849E-03     282.332E-03     400.876E-03     147.718E+06     150.887E+06     83.8742E+06    -15.7809E+06    -15.7513E+06     150.857E+06     83.8742E+06     413.903E+03
            1378     72.3816E-03     16.5233E-03     70.4704E-03     218.544E-03    -29.1536E-03    -189.331E-03    -50.5949E-03     79.8077E-03    -29.1536E-03     386.465E-03     611.638E-03     177.439E+06     181.829E+06     148.727E+06    -9.21836E+06    -9.21057E+06     181.821E+06     148.727E+06     251.877E+03
            1379     70.7522E-03     971.915E-06     70.7455E-03     57.6835E-03    -28.7343E-03    -28.9493E-03    -28.9428E-03     57.6770E-03    -28.7343E-03     1.36949E-03     58.2197E-03     207.800E+06    -31.9697E+06    -33.9097E+06    -240.732E+06    -33.5310E+06     -240.72E+06    -32.3603E+06     853.522E+03
            1380     70.7744E-03     1.94382E-03     70.7477E-03     57.8151E-03    -28.8486E-03    -28.9673E-03    -28.9183E-03     57.7992E-03    -28.8817E-03     2.30887E-03     58.7648E-03     208.464E+06    -27.4996E+06    -31.3574E+06    -237.845E+06    -31.3625E+06    -237.840E+06    -27.4996E+06     919.790E+03
            1381     70.8109E-03     2.91528E-03     70.7509E-03     57.7623E-03    -28.8116E-03    -28.9522E-03    -28.8283E-03     57.7312E-03    -28.9045E-03     3.23363E-03     59.5094E-03     208.376E+06    -23.2174E+06    -29.6335E+06    -234.695E+06    -29.6447E+06    -234.683E+06    -23.2174E+06    -678.800E+03
            1382     70.8611E-03     3.88746E-03     70.7543E-03     57.7373E-03    -28.8161E-03    -28.9230E-03    -28.7788E-03     57.6832E-03    -28.9062E-03     4.29304E-03     60.7041E-03     205.672E+06    -18.3389E+06    -27.7094E+06    -228.513E+06    -27.7225E+06    -228.500E+06    -18.3389E+06    -854.937E+03
            1383     70.9265E-03     4.85938E-03     70.7599E-03     57.7520E-03    -28.8348E-03    -28.9162E-03    -28.7707E-03     57.6710E-03    -28.8993E-03     5.27459E-03     62.3642E-03     193.874E+06    -13.3570E+06    -24.9899E+06    -212.772E+06    -24.9930E+06    -212.769E+06    -13.3570E+06     119.457E+03
            1384     71.0058E-03     5.83091E-03     70.7660E-03     57.6917E-03    -28.8096E-03    -28.8835E-03    -28.6992E-03     57.5812E-03    -28.8835E-03     6.15910E-03     64.4732E-03     181.545E+06    -9.90035E+06    -22.2391E+06    -197.289E+06    -22.2405E+06    -197.288E+06    -9.90035E+06     249.519E+03
            1385     71.0995E-03     6.80323E-03     70.7733E-03     57.7155E-03    -28.8186E-03    -28.8890E-03    -28.6971E-03     57.5633E-03    -28.8583E-03     7.22398E-03     67.2849E-03     169.658E+06    -8.09821E+06    -19.8971E+06    -183.345E+06    -19.9036E+06    -183.339E+06    -8.09821E+06     744.303E+03
            1386     71.2075E-03     7.77496E-03     70.7818E-03     57.7109E-03    -28.8097E-03    -28.8718E-03    -28.6749E-03     57.5180E-03    -28.8136E-03     8.15653E-03     70.7098E-03     150.138E+06    -7.54471E+06    -17.3214E+06    -162.328E+06    -17.3329E+06    -162.317E+06    -7.54471E+06     1.09393E+06
            1387     71.3293E-03     8.74737E-03     70.7909E-03     57.6579E-03    -28.7674E-03    -28.8705E-03    -28.6163E-03     57.4076E-03    -28.7714E-03     9.25937E-03     74.9268E-03     129.350E+06    -8.68963E+06    -16.2463E+06    -141.650E+06    -16.2647E+06    -141.631E+06    -8.68963E+06     1.18251E+06
            1388     71.4654E-03     9.71881E-03     70.8015E-03     57.6402E-03    -28.7173E-03    -28.9068E-03    -28.5262E-03     57.2596E-03    -28.7173E-03     11.3756E-03     80.3447E-03     104.982E+06    -12.3223E+06    -16.2509E+06    -119.197E+06    -15.9112E+06    -119.160E+06    -12.6991E+06     1.13617E+06
            1389     71.6180E-03     10.6915E-03     70.8155E-03     57.5491E-03    -28.6488E-03    -28.8984E-03    -28.4491E-03     57.0998E-03    -28.6488E-03     12.4271E-03     86.5635E-03     72.8379E+06    -14.6474E+06    -19.7475E+06    -89.7661E+06    -15.0044E+06    -89.7124E+06    -19.4441E+06     1.31373E+06
            1390     71.7817E-03     11.6630E-03     70.8278E-03     57.3956E-03    -28.5350E-03    -28.8979E-03    -28.2524E-03     56.7501E-03    -28.5350E-03     14.6489E-03     94.1899E-03     39.0774E+06    -14.9677E+06    -24.3061E+06    -57.6132E+06    -15.2672E+06    -49.2844E+06    -32.3353E+06     1.74830E+06
            1391     71.9645E-03     12.6363E-03     70.8464E-03     57.7952E-03    -28.3845E-03    -29.4726E-03    -28.0989E-03     56.4215E-03    -28.3845E-03     21.3389E-03     105.736E-03     53.4183E+06     14.4681E+06    -22.2345E+06    -46.2022E+06    -17.5460E+06     9.77965E+06    -46.2022E+06     1.56483E+06
            1392     72.1678E-03     13.6086E-03     70.8731E-03     59.1448E-03    -28.3381E-03    -30.8593E-03    -28.0326E-03     56.3181E-03    -28.3381E-03     30.9624E-03     128.589E-03     101.303E+06     68.3882E+06    -20.0044E+06    -40.8246E+06    -19.9254E+06     68.3092E+06    -40.8246E+06     1.17315E+06
            1393     72.3956E-03     14.5811E-03     70.9120E-03     79.1627E-03    -28.5394E-03    -50.6738E-03    -29.7562E-03     58.2451E-03    -28.5394E-03     88.5139E-03     182.663E-03     124.131E+06     111.194E+06     10.4521E+06    -24.8417E+06    -19.8886E+06     111.122E+06     5.57033E+06     1.21802E+06
            1394     72.7450E-03     15.5541E-03     71.0627E-03     168.830E-03    -28.8863E-03    -139.912E-03    -43.9696E-03     72.8877E-03    -28.8863E-03     283.583E-03     400.816E-03     148.667E+06     150.872E+06     82.1760E+06    -16.9527E+06    -16.9166E+06     150.836E+06     82.1760E+06     898.931E+03
            1395     73.4181E-03     16.5301E-03     71.5330E-03     218.888E-03    -29.1257E-03    -189.695E-03    -50.5459E-03     79.7388E-03    -29.1257E-03     387.240E-03     611.836E-03     178.292E+06     182.219E+06     147.873E+06    -10.1176E+06    -10.1135E+06     182.215E+06     147.873E+06     489.334E+03
            1396     71.8102E-03     971.749E-06     71.8036E-03     57.9013E-03    -28.8315E-03    -29.0694E-03    -28.9963E-03     57.8953E-03    -28.8986E-03     1.26829E-03     58.5390E-03     206.587E+06    -33.8373E+06    -35.8978E+06    -241.445E+06    -35.3659E+06    -241.438E+06    -34.3767E+06    -734.901E+03
            1397     71.8327E-03     1.94330E-03     71.8064E-03     57.7222E-03    -28.7769E-03    -28.9456E-03    -28.7760E-03     57.7066E-03    -28.9309E-03     2.29319E-03     58.7212E-03     206.226E+06    -30.5782E+06    -32.7869E+06    -237.896E+06    -32.6412E+06    -237.893E+06    -30.7269E+06     103.482E+03
            1398     71.8678E-03     2.91575E-03     71.8087E-03     57.7361E-03    -28.7999E-03    -28.9381E-03    -28.8047E-03     57.7058E-03    -28.9029E-03     3.19635E-03     59.5039E-03     205.479E+06    -25.4585E+06    -31.4698E+06    -233.850E+06    -31.4785E+06    -233.841E+06    -25.4585E+06     455.489E+03
            1399     71.9181E-03     3.88731E-03     71.8130E-03     57.8523E-03    -28.8866E-03    -28.9690E-03    -28.8849E-03     57.7985E-03    -28.9169E-03     4.28195E-03     60.8158E-03     202.831E+06    -20.2335E+06    -30.7009E+06    -228.089E+06    -30.7107E+06    -228.080E+06    -20.2335E+06    -58.4998E+03
            1400     71.9822E-03     4.85888E-03     71.8181E-03     57.7728E-03    -28.8546E-03    -28.9179E-03    -28.7885E-03     57.6898E-03    -28.9010E-03     5.33516E-03     62.3702E-03     189.165E+06    -18.6354E+06    -28.2972E+06    -212.442E+06    -28.3091E+06    -212.430E+06    -18.6354E+06    -1.14922E+06
            1401     72.0606E-03     5.83128E-03     71.8243E-03     57.7327E-03    -28.8441E-03    -28.8913E-03    -28.7288E-03     57.6173E-03    -28.8913E-03     6.29945E-03     64.5012E-03     178.386E+06    -14.4918E+06    -25.1751E+06    -197.961E+06    -25.1868E+06    -197.950E+06    -14.4918E+06    -728.285E+03
            1402     72.1529E-03     6.80284E-03     71.8315E-03     57.7497E-03    -28.8553E-03    -28.8867E-03    -28.7070E-03     57.5924E-03    -28.8777E-03     7.35112E-03     67.2852E-03     167.225E+06    -10.2706E+06    -22.5656E+06    -183.297E+06    -22.5679E+06    -183.295E+06    -10.2706E+06    -94.9735E+03
            1403     72.2597E-03     7.77502E-03     71.8402E-03     57.6988E-03    -28.8200E-03    -28.8506E-03    -28.6441E-03     57.5035E-03    -28.8312E-03     8.20609E-03     70.6659E-03     147.876E+06    -9.84306E+06    -20.0944E+06    -162.573E+06    -20.0963E+06    -162.571E+06    -9.84306E+06    -70.0829E+03
            1404     72.3797E-03     8.74662E-03     71.8492E-03     57.6446E-03    -28.7697E-03    -28.8563E-03    -28.5803E-03     57.3909E-03    -28.7920E-03     9.31403E-03     74.8619E-03     128.685E+06    -9.60618E+06    -17.4907E+06    -142.049E+06    -17.5051E+06    -142.034E+06    -9.60618E+06     514.063E+03
            1405     72.5146E-03     9.71907E-03     71.8604E-03     57.6180E-03    -28.7099E-03    -28.8874E-03    -28.4798E-03     57.2287E-03    -28.7283E-03     11.4987E-03     80.2260E-03     104.251E+06    -12.3276E+06    -16.2276E+06    -118.458E+06    -15.5471E+06    -118.439E+06    -13.0272E+06     591.764E+03
            1406     72.6641E-03     10.6909E-03     71.8734E-03     57.4937E-03    -28.6493E-03    -28.8354E-03    -28.3732E-03     57.0316E-03    -28.6493E-03     12.5968E-03     86.3924E-03     73.1206E+06    -15.2329E+06    -20.6331E+06    -90.7493E+06    -15.2663E+06    -90.7158E+06    -20.6331E+06     718.437E+03
            1407     72.8272E-03     11.6637E-03     71.8871E-03     57.4245E-03    -28.5315E-03    -28.9282E-03    -28.2835E-03     56.7797E-03    -28.5315E-03     14.6841E-03     94.0492E-03     39.1625E+06    -15.8416E+06    -24.9712E+06    -58.6012E+06    -16.1805E+06     -49.762E+06    -33.4714E+06     1.50828E+06
            1408     73.0057E-03     12.6355E-03     71.9039E-03     57.9034E-03    -28.3834E-03    -29.5818E-03    -28.1666E-03     56.4883E-03    -28.3834E-03     21.6062E-03     105.625E-03     54.2050E+06     14.2249E+06    -21.9870E+06    -47.3594E+06    -17.8256E+06     10.0635E+06    -47.3594E+06     2.01127E+06
            1409     73.2087E-03     13.6081E-03     71.9329E-03     59.4878E-03    -28.3482E-03    -31.1874E-03    -28.2798E-03     56.5802E-03    -28.3482E-03     31.5661E-03     128.500E-03     103.467E+06     69.0878E+06    -20.9231E+06    -42.3399E+06    -20.8350E+06     68.9997E+06    -42.3399E+06     1.77484E+06
            1410     73.4325E-03     14.5802E-03     71.9705E-03     79.1921E-03    -28.5521E-03    -50.6946E-03    -29.5856E-03     58.0831E-03    -28.5521E-03     88.6821E-03     182.575E-03     126.089E+06     111.355E+06     8.36859E+06    -26.5266E+06    -21.9055E+06     111.278E+06     3.82407E+06     1.36672E+06
            1411     73.7793E-03     15.5533E-03     72.1213E-03     168.295E-03    -28.8654E-03    -139.412E-03    -43.3742E-03     72.2573E-03    -28.8654E-03     283.104E-03     400.013E-03     148.774E+06     150.260E+06     80.3173E+06    -17.8655E+06    -17.8203E+06     150.214E+06     80.3173E+06     1.33117E+06
            1412     74.4439E-03     16.5285E-03     72.5858E-03     218.498E-03    -29.0986E-03    -189.408E-03    -50.5399E-03     79.6295E-03    -29.0986E-03     386.566E-03     610.779E-03     178.169E+06     183.279E+06     147.607E+06    -9.38373E+06    -9.36952E+06     183.265E+06     147.607E+06     962.078E+03
            1413     72.8695E-03     971.378E-06     72.8630E-03     57.9135E-03    -28.8877E-03    -29.0249E-03    -28.9454E-03     57.9070E-03    -28.9607E-03     1.42588E-03     58.6508E-03     204.487E+06    -33.6053E+06    -37.1913E+06    -239.854E+06    -35.8624E+06    -239.830E+06    -34.9585E+06    -276.070E+03
            1414     72.8897E-03     1.94374E-03     72.8637E-03     57.7726E-03    -28.8207E-03    -28.9518E-03    -28.8093E-03     57.7568E-03    -28.9474E-03     2.21605E-03     58.7811E-03     205.322E+06    -31.5615E+06    -35.2612E+06    -238.702E+06    -35.1192E+06    -238.695E+06    -31.7102E+06    -927.477E+03
            1415     72.9257E-03     2.91533E-03     72.8674E-03     57.8222E-03    -28.8579E-03    -28.9661E-03    -28.8651E-03     57.7899E-03    -28.9266E-03     3.31945E-03     59.5593E-03     205.428E+06    -26.6573E+06    -31.6901E+06    -234.551E+06    -31.6974E+06    -234.544E+06    -26.6573E+06     356.827E+03
            1416     72.9749E-03     3.88709E-03     72.8713E-03     57.8803E-03    -28.9086E-03    -28.9742E-03    -28.8904E-03     57.8269E-03    -28.9390E-03     4.26676E-03     60.8403E-03     201.725E+06    -20.4577E+06    -28.8170E+06    -226.218E+06    -28.8253E+06    -226.210E+06    -20.4577E+06     169.008E+03
            1417     73.0382E-03     4.85926E-03     72.8764E-03     57.8502E-03    -28.9076E-03    -28.9405E-03    -28.8266E-03     57.7692E-03    -28.9405E-03     5.27655E-03     62.4497E-03     190.228E+06    -15.9802E+06    -27.0551E+06    -211.486E+06    -27.0665E+06    -211.475E+06    -15.9802E+06    -996.637E+03
            1418     73.1154E-03     5.83067E-03     72.8826E-03     57.8345E-03    -28.9005E-03    -28.9349E-03    -28.7861E-03     57.7200E-03    -28.9349E-03     6.27376E-03     64.6184E-03     179.570E+06    -12.3573E+06    -25.4069E+06    -198.074E+06    -25.4317E+06    -198.049E+06    -12.3573E+06    -1.57516E+06
            1419     73.2069E-03     6.80282E-03     72.8901E-03     57.7889E-03    -28.8696E-03    -28.9122E-03    -28.7130E-03     57.6322E-03    -28.9122E-03     7.34123E-03     67.3446E-03     167.774E+06    -8.57857E+06    -21.9295E+06    -182.627E+06    -21.9592E+06    -182.597E+06    -8.57857E+06    -1.83913E+06
            1420     73.3118E-03     7.77457E-03     72.8984E-03     57.6953E-03    -28.7988E-03    -28.8683E-03    -28.6079E-03     57.4940E-03    -28.8579E-03     8.32416E-03     70.6663E-03     149.568E+06    -8.80485E+06    -18.8512E+06    -163.133E+06    -18.8684E+06    -163.115E+06    -8.80485E+06    -1.27703E+06
            1421     73.4307E-03     8.74685E-03     72.9079E-03     57.6024E-03    -28.7510E-03    -28.8308E-03    -28.5200E-03     57.3435E-03    -28.8028E-03     9.42044E-03     74.7962E-03     129.016E+06    -10.0282E+06    -17.2764E+06    -142.511E+06    -17.2799E+06    -142.507E+06    -10.0282E+06    -628.190E+03
            1422     73.5629E-03     9.71886E-03     72.9181E-03     57.5791E-03    -28.7152E-03    -28.8424E-03    -28.4327E-03     57.1878E-03    -28.7336E-03     11.5123E-03     80.1790E-03     103.817E+06    -12.7690E+06    -16.5274E+06    -118.395E+06    -16.2109E+06    -118.388E+06    -13.0919E+06    -83.9422E+03
            1423     73.7119E-03     10.6912E-03     72.9325E-03     57.4779E-03    -28.6531E-03    -28.8172E-03    -28.3570E-03     57.0177E-03    -28.6531E-03     12.5644E-03     86.4061E-03     73.3713E+06    -15.4717E+06    -20.5569E+06    -91.1046E+06    -15.6935E+06    -91.0961E+06    -20.3436E+06     347.221E+03
            1424     73.8710E-03     11.6632E-03     72.9444E-03     57.3971E-03    -28.5330E-03    -28.9001E-03    -28.2433E-03     56.7404E-03    -28.5330E-03     14.7709E-03     94.0324E-03     39.6467E+06    -15.8239E+06    -25.1127E+06    -59.0657E+06    -16.1231E+06    -50.4579E+06    -33.4213E+06     875.089E+03
            1425     74.0497E-03     12.6359E-03     72.9637E-03     57.8843E-03    -28.3838E-03    -29.5604E-03    -28.1053E-03     56.4293E-03    -28.3838E-03     21.9210E-03     105.658E-03     52.9390E+06     13.3444E+06    -21.9347E+06    -46.9123E+06    -17.4303E+06     8.83994E+06    -46.9123E+06     1.91882E+06
            1426     74.2479E-03     13.6085E-03     72.9901E-03     59.5115E-03    -28.3374E-03    -31.2257E-03    -28.0514E-03     56.3372E-03    -28.3374E-03     32.8059E-03     128.268E-03     102.591E+06     69.2032E+06    -19.5942E+06    -41.5405E+06    -19.4820E+06     69.0910E+06    -41.5405E+06     2.89609E+06
            1427     74.4736E-03     14.5803E-03     73.0324E-03     78.4825E-03    -28.5149E-03    -50.0313E-03    -28.9351E-03     57.3863E-03    -28.5149E-03     88.6675E-03     181.943E-03     126.295E+06     112.605E+06     9.90653E+06    -25.7718E+06    -20.3989E+06     112.509E+06     4.62916E+06     2.55516E+06
            1428     74.8098E-03     15.5560E-03     73.1746E-03     169.513E-03    -28.8272E-03    -140.678E-03    -44.5312E-03     73.3662E-03    -28.8272E-03     285.054E-03     400.066E-03     148.194E+06     150.687E+06     80.4504E+06    -16.9886E+06    -16.9313E+06     150.629E+06     80.4504E+06     1.80310E+06
            1429     75.4829E-03     16.5267E-03     73.6515E-03     218.930E-03    -29.0936E-03    -189.902E-03    -51.2804E-03     80.3091E-03    -29.0936E-03     387.074E-03     611.255E-03     178.160E+06     184.010E+06     147.131E+06    -9.04057E+06    -9.02664E+06     183.996E+06     147.131E+06     947.786E+03
            1430     73.9274E-03     972.199E-06     73.9210E-03     57.7261E-03    -28.7937E-03    -28.9317E-03    -28.9188E-03     57.7191E-03    -28.7996E-03     1.32712E-03     58.4096E-03     202.949E+06    -34.5846E+06    -38.2002E+06    -239.310E+06    -37.0348E+06    -239.271E+06    -35.7891E+06    -105.643E+03
            1431     73.9479E-03     1.94336E-03     73.9223E-03     57.9389E-03    -28.9159E-03    -29.0226E-03    -29.0004E-03     57.9226E-03    -28.9218E-03     2.27744E-03     58.8556E-03     204.912E+06    -30.8612E+06    -35.9521E+06    -238.261E+06    -35.9608E+06    -238.252E+06    -30.8612E+06    -206.893E+03
            1432     73.9831E-03     2.91528E-03     73.9256E-03     57.9348E-03    -28.9329E-03    -29.0021E-03    -28.9354E-03     57.9010E-03    -28.9657E-03     3.38653E-03     59.6177E-03     204.268E+06    -26.9800E+06    -33.8476E+06    -234.580E+06    -33.8546E+06    -234.573E+06    -26.9800E+06    -751.838E+03
            1433     74.0318E-03     3.88722E-03     73.9297E-03     57.9290E-03    -28.9467E-03    -28.9827E-03    -28.8955E-03     57.8759E-03    -28.9807E-03     4.27998E-03     60.8623E-03     200.026E+06    -20.5584E+06    -30.1447E+06    -225.186E+06    -30.1566E+06    -225.174E+06    -20.5584E+06    -1.26330E+06
            1434     74.0944E-03     4.85862E-03     73.9349E-03     57.9576E-03    -28.9602E-03    -28.9963E-03    -28.8835E-03     57.8789E-03    -28.9943E-03     5.19939E-03     62.5628E-03     191.534E+06    -13.2282E+06    -25.9641E+06    -210.804E+06    -25.9737E+06    -210.795E+06    -13.2282E+06    -1.05811E+06
            1435     74.1707E-03     5.83082E-03     73.9412E-03     57.8862E-03    -28.9065E-03    -28.9808E-03    -28.7923E-03     57.7720E-03    -28.9808E-03     6.26847E-03     64.6674E-03     180.320E+06     -9.6618E+06    -22.7353E+06    -196.153E+06    -22.7639E+06    -196.125E+06     -9.6618E+06    -1.84554E+06
            1436     74.2607E-03     6.80244E-03     73.9485E-03     57.7553E-03    -28.8158E-03    -28.9310E-03    -28.6588E-03     57.5982E-03    -28.9310E-03     7.34456E-03     67.3277E-03     167.200E+06    -9.53447E+06    -20.8714E+06    -182.107E+06    -20.9229E+06    -182.056E+06    -9.53447E+06    -2.86965E+06
            1437     74.3644E-03     7.77469E-03     73.9568E-03     57.6622E-03    -28.7595E-03    -28.8717E-03    -28.5596E-03     57.4572E-03    -28.8667E-03     8.39202E-03     70.6488E-03     149.473E+06    -10.4978E+06    -19.6540E+06    -164.334E+06    -19.6921E+06    -164.296E+06    -10.4978E+06    -2.25123E+06
            1438     74.4814E-03     8.74667E-03     73.9660E-03     57.6344E-03    -28.7787E-03    -28.8353E-03    -28.5457E-03     57.3782E-03    -28.8121E-03     9.38415E-03     74.8711E-03     128.031E+06    -10.4528E+06    -17.8367E+06    -142.013E+06    -17.8632E+06    -141.986E+06    -10.4528E+06    -1.57648E+06
            1439     74.6126E-03     9.71874E-03     73.9769E-03     57.5564E-03    -28.7465E-03    -28.7943E-03    -28.4137E-03     57.1759E-03    -28.7465E-03     11.3420E-03     80.2691E-03     104.844E+06    -12.1818E+06    -16.5618E+06    -119.131E+06    -15.8207E+06    -119.112E+06    -12.9414E+06    -1.11787E+06
            1440     74.7585E-03     10.6910E-03     73.9901E-03     57.4149E-03    -28.6582E-03    -28.7561E-03    -28.2920E-03     56.9508E-03    -28.6582E-03     12.6106E-03     86.4203E-03     74.2496E+06    -14.5829E+06    -20.5821E+06    -91.4726E+06    -14.8038E+06    -91.4649E+06    -20.3688E+06    -290.939E+03
            1441     74.9171E-03     11.6634E-03     74.0036E-03     57.3256E-03    -28.5372E-03    -28.8306E-03    -28.1747E-03     56.6697E-03    -28.5372E-03     14.7808E-03     94.1013E-03     39.5407E+06    -15.2545E+06    -25.9015E+06    -58.6714E+06    -15.3485E+06    -51.0703E+06    -33.4085E+06     522.562E+03
            1442     75.0917E-03     12.6360E-03     74.0209E-03     57.7459E-03    -28.3774E-03    -29.4316E-03    -27.9636E-03     56.2779E-03    -28.3774E-03     21.9315E-03     105.836E-03     53.1922E+06     12.8895E+06    -23.1589E+06    -47.8254E+06    -17.5618E+06     7.29247E+06    -47.8254E+06     1.79700E+06
            1443     75.2901E-03     13.6086E-03     74.0500E-03     58.9096E-03    -28.3004E-03    -30.6646E-03    -27.4974E-03     55.7424E-03    -28.3004E-03     32.5741E-03     128.040E-03     102.615E+06     68.3871E+06    -19.3981E+06    -42.9917E+06    -19.2659E+06     68.2548E+06    -42.9917E+06     3.17245E+06
            1444     75.5105E-03     14.5831E-03     74.0890E-03     77.5712E-03    -28.4541E-03    -49.1810E-03    -28.7672E-03     57.1574E-03    -28.4541E-03     87.0635E-03     181.279E-03     126.588E+06     113.055E+06     9.36829E+06    -25.9496E+06    -19.4051E+06     112.945E+06     2.93417E+06     3.41016E+06
            1445     75.8452E-03     15.5566E-03     74.2326E-03     170.211E-03    -28.7596E-03    -141.447E-03    -44.3726E-03     73.1367E-03    -28.7596E-03     286.440E-03     400.427E-03     149.744E+06     152.559E+06     79.7366E+06    -16.7008E+06    -16.6496E+06     152.508E+06     79.7366E+06     2.29929E+06
            1446     76.5224E-03     16.5294E-03     74.7158E-03     219.716E-03    -29.0245E-03    -190.763E-03    -51.7749E-03     80.7272E-03    -29.0245E-03     388.467E-03     611.378E-03     179.573E+06     185.261E+06     147.212E+06    -9.61600E+06    -9.60776E+06     185.253E+06     147.212E+06     733.560E+03
            1447     74.9848E-03     971.788E-06     74.9785E-03     57.7567E-03    -28.7695E-03    -28.9871E-03    -28.9372E-03     57.7512E-03    -28.8140E-03     1.08146E-03     58.3455E-03     200.205E+06    -38.0258E+06    -40.5053E+06    -239.452E+06    -40.3816E+06    -239.432E+06    -38.1694E+06    -609.372E+03
            1448     75.0068E-03     1.94385E-03     74.9816E-03     57.9541E-03    -28.8971E-03    -29.0560E-03    -28.9961E-03     57.9387E-03    -28.9415E-03     2.27853E-03     58.8000E-03     203.396E+06    -32.0698E+06    -37.6431E+06    -238.185E+06    -37.6472E+06    -238.181E+06    -32.0698E+06     159.206E+03
            1449     75.0403E-03     2.91512E-03     74.9837E-03     58.0400E-03    -28.9792E-03    -29.0604E-03    -29.0099E-03     58.0073E-03    -28.9970E-03     3.30818E-03     59.7243E-03     201.979E+06    -26.2079E+06    -35.4552E+06    -232.644E+06    -35.4625E+06    -232.636E+06    -26.2079E+06    -485.550E+03
            1450     75.0892E-03     3.88674E-03     74.9885E-03     57.9762E-03    -28.9511E-03    -29.0267E-03    -28.9104E-03     57.9203E-03    -29.0114E-03     4.38722E-03     60.9154E-03     196.684E+06    -22.4018E+06    -33.2598E+06    -224.288E+06    -33.2856E+06    -224.262E+06    -22.4018E+06    -1.69286E+06
            1451     75.1506E-03     4.85877E-03     74.9933E-03     57.9393E-03    -28.9251E-03    -29.0150E-03    -28.8623E-03     57.8548E-03    -28.9933E-03     5.38292E-03     62.5323E-03     185.402E+06    -19.4352E+06    -29.3280E+06    -209.577E+06    -29.4156E+06    -209.489E+06    -19.4352E+06    -3.36407E+06
            1452     75.2260E-03     5.83030E-03     74.9997E-03     57.8894E-03    -28.8854E-03    -29.0039E-03    -28.7903E-03     57.7746E-03    -28.9843E-03     6.29723E-03     64.6716E-03     176.189E+06    -13.6490E+06    -24.5124E+06    -194.998E+06    -24.6080E+06    -194.903E+06    -13.6490E+06    -3.57160E+06
            1453     75.3146E-03     6.80251E-03     75.0068E-03     57.7832E-03    -28.8151E-03    -28.9569E-03    -28.6649E-03     57.6330E-03    -28.9569E-03     7.18424E-03     67.4039E-03     166.557E+06    -9.76015E+06    -21.6785E+06    -181.946E+06    -21.7254E+06    -181.899E+06    -9.76015E+06    -2.70463E+06
            1454     75.4168E-03     7.77452E-03     75.0150E-03     57.7124E-03    -28.7882E-03    -28.8925E-03    -28.5930E-03     57.5122E-03    -28.8875E-03     8.29205E-03     70.7227E-03     148.417E+06    -10.9272E+06    -19.7608E+06    -163.540E+06    -19.8452E+06    -163.456E+06    -10.9272E+06    -3.13461E+06
            1455     75.5330E-03     8.74647E-03     75.0249E-03     57.6051E-03    -28.7567E-03    -28.8283E-03    -28.5084E-03     57.3510E-03    -28.8227E-03     9.34005E-03     74.8448E-03     127.547E+06    -12.0387E+06    -17.3469E+06    -142.138E+06    -17.4522E+06    -142.033E+06    -12.0387E+06    -3.43600E+06
            1456     75.6617E-03     9.71856E-03     75.0349E-03     57.5553E-03    -28.7199E-03    -28.8221E-03    -28.4099E-03     57.1783E-03    -28.7551E-03     11.2915E-03     80.3058E-03     104.936E+06    -13.1771E+06    -17.0095E+06    -119.971E+06    -15.4002E+06    -119.901E+06    -14.8565E+06    -2.52379E+06
            1457     75.8063E-03     10.6909E-03     75.0486E-03     57.4094E-03    -28.6644E-03    -28.7412E-03    -28.2870E-03     56.9552E-03    -28.6644E-03     12.4693E-03     86.4739E-03     74.6378E+06    -14.5589E+06    -22.1292E+06    -92.5034E+06    -14.5900E+06    -92.4724E+06    -22.1292E+06    -1.17289E+06
            1458     75.9624E-03     11.6635E-03     75.0616E-03     57.3207E-03    -28.5432E-03    -28.8140E-03    -28.1835E-03     56.6902E-03    -28.5432E-03     14.4980E-03     94.1755E-03     40.4636E+06    -15.0757E+06    -26.9512E+06    -59.8006E+06    -15.1663E+06    -52.3062E+06    -34.3550E+06     344.770E+03
            1459     76.1356E-03     12.6357E-03     75.0797E-03     57.6763E-03    -28.3832E-03    -29.3563E-03    -27.9581E-03     56.2781E-03    -28.3832E-03     21.3903E-03     105.923E-03     53.0721E+06     11.9976E+06    -23.1705E+06    -48.8373E+06    -17.1788E+06     6.00591E+06    -48.8373E+06     2.02607E+06
            1460     76.3303E-03     13.6091E-03     75.1074E-03     58.5302E-03    -28.2980E-03    -30.2889E-03    -27.3731E-03     55.6143E-03    -28.2980E-03     31.2163E-03     128.145E-03     103.033E+06     66.6441E+06    -20.1039E+06    -45.6933E+06    -19.9406E+06     66.4808E+06    -45.6933E+06     3.37004E+06
            1461     76.5482E-03     14.5820E-03     75.1465E-03     77.7133E-03    -28.4520E-03    -49.3179E-03    -29.1684E-03     57.5639E-03    -28.4520E-03     86.4329E-03     181.352E-03     128.761E+06     113.267E+06     6.62568E+06    -28.1912E+06    -20.7348E+06     113.137E+06    -700.674E+03     3.71540E+06
            1462     76.8820E-03     15.5544E-03     75.2921E-03     168.570E-03    -28.7533E-03    -139.793E-03    -43.1341E-03     71.9107E-03    -28.7533E-03     283.603E-03     400.487E-03     151.774E+06     154.298E+06     77.7189E+06    -17.1872E+06    -17.1163E+06     154.228E+06     77.7189E+06     2.66186E+06
            1463     77.5517E-03     16.5348E-03     75.7685E-03     220.164E-03    -28.9995E-03    -191.179E-03    -51.3396E-03     80.3242E-03    -28.9995E-03     389.648E-03     611.648E-03     180.575E+06     186.956E+06     147.346E+06    -9.42386E+06    -9.41528E+06     186.948E+06     147.346E+06     937.972E+03
            1464     76.0439E-03     971.543E-06     76.0377E-03     58.0394E-03    -28.8710E-03    -29.1682E-03    -29.1082E-03     58.0350E-03    -28.9265E-03     1.12913E-03     58.6390E-03     198.144E+06    -39.2882E+06    -42.4222E+06    -238.975E+06    -42.2855E+06    -238.968E+06    -39.4318E+06     576.267E+03
            1465     76.0640E-03     1.94320E-03     76.0392E-03     57.9672E-03    -28.9170E-03    -29.0491E-03    -28.9196E-03     57.9518E-03    -29.0312E-03     2.23106E-03     58.8549E-03     200.330E+06    -35.0463E+06    -39.7974E+06    -237.707E+06    -39.8027E+06    -237.701E+06    -35.0463E+06    -483.316E+03
            1466     76.0990E-03     2.91522E-03     76.0431E-03     57.9898E-03    -28.9415E-03    -29.0485E-03    -28.9406E-03     57.9576E-03    -29.0172E-03     3.30394E-03     59.6675E-03     198.648E+06    -29.7489E+06    -35.9989E+06    -231.429E+06    -36.0126E+06    -231.415E+06    -29.7489E+06    -1.01991E+06
            1467     76.1458E-03     3.88685E-03     76.0465E-03     57.9973E-03    -28.9564E-03    -29.0430E-03    -28.9276E-03     57.9415E-03    -29.0160E-03     4.36172E-03     60.9400E-03     193.131E+06    -24.1911E+06    -32.3227E+06    -221.243E+06    -32.3651E+06    -221.200E+06    -24.1911E+06    -2.24931E+06
            1468     76.2072E-03     4.85861E-03     76.0521E-03     57.9301E-03    -28.8957E-03    -29.0352E-03    -28.8443E-03     57.8453E-03    -29.0019E-03     5.40026E-03     62.5468E-03     181.496E+06    -20.8001E+06    -30.2481E+06    -206.820E+06    -30.3693E+06    -206.699E+06    -20.8001E+06    -4.38681E+06
            1469     76.2814E-03     5.83049E-03     76.0582E-03     57.8985E-03    -28.8811E-03    -29.0167E-03    -28.7906E-03     57.7841E-03    -28.9927E-03     6.28296E-03     64.7040E-03     173.157E+06    -16.6395E+06    -28.6617E+06    -195.471E+06    -28.8156E+06    -195.317E+06    -16.6395E+06    -4.89962E+06
            1470     76.3686E-03     6.80220E-03     76.0650E-03     57.9078E-03    -28.9074E-03    -28.9903E-03    -28.7772E-03     57.7558E-03    -28.9685E-03     7.23849E-03     67.5398E-03     162.775E+06    -12.5989E+06    -24.3444E+06    -180.911E+06    -24.5647E+06    -180.690E+06    -12.5989E+06    -5.06919E+06
            1471     76.4698E-03     7.77398E-03     76.0736E-03     57.7546E-03    -28.8004E-03    -28.9230E-03    -28.6196E-03     57.5564E-03    -28.9054E-03     8.25924E-03     70.7838E-03     146.145E+06    -12.6331E+06    -18.9863E+06    -161.819E+06    -19.2647E+06    -161.541E+06    -12.6331E+06    -5.72678E+06
            1472     76.5840E-03     8.74626E-03     76.0829E-03     57.5645E-03    -28.7035E-03    -28.8368E-03    -28.4513E-03     57.3122E-03    -28.8368E-03     9.29945E-03     74.7952E-03     128.013E+06    -13.9913E+06    -16.2379E+06    -143.110E+06    -16.4529E+06    -142.895E+06    -13.9913E+06    -5.15042E+06
            1473     76.7115E-03     9.71864E-03     76.0934E-03     57.6106E-03    -28.7271E-03    -28.8635E-03    -28.4504E-03     57.2388E-03    -28.7684E-03     11.2306E-03     80.3359E-03     104.907E+06    -14.6074E+06    -17.2742E+06    -120.810E+06    -15.4276E+06    -120.662E+06    -16.6017E+06    -3.87716E+06
            1474     76.8541E-03     10.6905E-03     76.1070E-03     57.5439E-03    -28.6886E-03    -28.8485E-03    -28.4114E-03     57.1068E-03    -28.6886E-03     12.2538E-03     86.6122E-03     75.5692E+06    -14.6215E+06    -23.2311E+06    -93.9012E+06    -14.7081E+06    -93.8145E+06    -23.2311E+06    -2.33567E+06
            1475     77.0081E-03     11.6628E-03     76.1198E-03     57.4131E-03    -28.5708E-03    -28.8801E-03    -28.2583E-03     56.7913E-03    -28.5708E-03     14.3818E-03     94.2606E-03     42.0333E+06    -15.0769E+06    -28.5050E+06    -61.7225E+06    -15.1624E+06    -54.3654E+06    -35.7766E+06    -244.490E+03
            1476     77.1796E-03     12.6354E-03     76.1383E-03     57.7462E-03    -28.4168E-03    -29.3929E-03    -28.0499E-03     56.4032E-03    -28.4168E-03     21.0625E-03     105.839E-03     52.5038E+06     10.7051E+06    -23.6639E+06    -49.5838E+06    -16.8088E+06     3.85000E+06    -49.5838E+06     1.97802E+06
            1477     77.3712E-03     13.6076E-03     76.1652E-03     58.8081E-03    -28.3420E-03    -30.5248E-03    -27.7487E-03     56.0320E-03    -28.3420E-03     30.5747E-03     128.573E-03     102.025E+06     64.7355E+06    -19.3880E+06    -47.3280E+06    -19.1791E+06     64.5266E+06    -47.3280E+06     3.77719E+06
            1478     77.5869E-03     14.5815E-03     76.2043E-03     78.0169E-03    -28.5035E-03    -49.5718E-03    -29.0843E-03     57.5295E-03    -28.5035E-03     86.7711E-03     181.287E-03     128.710E+06     113.909E+06     8.30392E+06    -28.2509E+06    -18.7849E+06     113.735E+06    -987.773E+03     4.12818E+06
            1479     77.9205E-03     15.5547E-03     76.3521E-03     167.529E-03    -28.8514E-03    -138.659E-03    -44.0465E-03     72.9160E-03    -28.8514E-03     280.900E-03     400.295E-03     152.090E+06     156.725E+06     79.7148E+06    -15.1610E+06    -15.0819E+06     156.646E+06     79.7148E+06     2.94247E+06
            1480     78.5739E-03     16.5259E-03     76.8164E-03     219.961E-03    -29.1330E-03    -190.813E-03    -50.9386E-03     80.0871E-03    -29.1330E-03     389.261E-03     613.042E-03     181.860E+06     188.774E+06     147.920E+06    -9.34627E+06    -9.32575E+06     188.754E+06     147.920E+06     1.56846E+06
            1481     77.1023E-03     971.580E-06     77.0962E-03     58.1510E-03    -28.9379E-03    -29.2121E-03    -29.1958E-03     58.1458E-03    -28.9490E-03     1.24570E-03     58.6804E-03     196.871E+06    -41.1158E+06    -43.2944E+06    -239.065E+06    -42.6689E+06    -239.056E+06    -41.7503E+06     390.804E+03
            1482     77.1225E-03     1.94313E-03     77.0980E-03     58.1029E-03    -28.9979E-03    -29.1035E-03    -29.0083E-03     58.0866E-03    -29.0768E-03     2.31121E-03     58.9612E-03     195.121E+06    -38.7369E+06    -40.9555E+06    -234.955E+06    -40.9340E+06    -234.945E+06    -38.7679E+06    -652.287E+03
            1483     77.1561E-03     2.91487E-03     77.1010E-03     57.9821E-03    -28.9331E-03    -29.0496E-03    -28.9004E-03     57.9494E-03    -29.0496E-03     3.33328E-03     59.6461E-03     192.577E+06    -34.7951E+06    -38.2151E+06    -229.057E+06    -38.3072E+06    -228.965E+06    -34.7951E+06    -3.44439E+06
            1484     77.2034E-03     3.88677E-03     77.1055E-03     57.9905E-03    -28.9439E-03    -29.0488E-03    -28.9034E-03     57.9364E-03    -29.0351E-03     4.30340E-03     60.9390E-03     188.947E+06    -27.4479E+06    -33.5109E+06    -219.344E+06    -33.6504E+06    -219.204E+06    -27.4479E+06    -4.75304E+06
            1485     77.2634E-03     4.85831E-03     77.1105E-03     57.9673E-03    -28.9186E-03    -29.0479E-03    -28.8509E-03     57.8860E-03    -29.0342E-03     5.29137E-03     62.6037E-03     179.860E+06    -19.8145E+06    -30.1150E+06    -204.589E+06    -30.2216E+06    -204.483E+06    -19.8145E+06    -4.27489E+06
            1486     77.3367E-03     5.83031E-03     77.1166E-03     57.9317E-03    -28.9100E-03    -29.0199E-03    -28.8014E-03     57.8188E-03    -29.0156E-03     6.23988E-03     64.7549E-03     172.059E+06    -15.7529E+06    -26.7048E+06    -193.007E+06    -26.9679E+06    -192.744E+06    -15.7529E+06    -6.06312E+06
            1487     77.4235E-03     6.80210E-03     77.1241E-03     57.9130E-03    -28.9202E-03    -28.9840E-03    -28.7846E-03     57.7556E-03    -28.9622E-03     7.35857E-03     67.5279E-03     159.323E+06    -15.7632E+06    -22.9891E+06    -178.554E+06    -23.5003E+06    -178.043E+06    -15.7632E+06    -8.67757E+06
            1488     77.5227E-03     7.77397E-03     77.1320E-03     57.8066E-03    -28.8395E-03    -28.9422E-03    -28.6739E-03     57.6091E-03    -28.9103E-03     8.26041E-03     70.8289E-03     143.630E+06    -15.7046E+06    -20.0834E+06    -161.470E+06    -20.6115E+06    -160.942E+06    -15.7046E+06    -8.52469E+06
            1489     77.6353E-03     8.74608E-03     77.1411E-03     57.6630E-03    -28.7705E-03    -28.8733E-03    -28.5330E-03     57.4111E-03    -28.8589E-03     9.28520E-03     74.8854E-03     126.906E+06    -15.9462E+06    -17.8813E+06    -143.800E+06    -18.2464E+06    -143.400E+06    -15.9813E+06    -6.97096E+06
            1490     77.7617E-03     9.71795E-03     77.1521E-03     57.6603E-03    -28.7623E-03    -28.8796E-03    -28.4753E-03     57.2832E-03    -28.7896E-03     11.3263E-03     80.3346E-03     104.636E+06    -15.7590E+06    -18.7136E+06    -121.802E+06    -16.1347E+06    -121.485E+06    -18.6546E+06    -5.62733E+06
            1491     77.9024E-03     10.6903E-03     77.1654E-03     57.6325E-03    -28.7150E-03    -28.9175E-03    -28.4733E-03     57.1883E-03    -28.7150E-03     12.3667E-03     86.6406E-03     76.8374E+06    -14.8350E+06    -24.9471E+06    -96.0013E+06    -15.0369E+06    -95.7993E+06    -24.9471E+06    -3.86852E+06
            1492     78.0547E-03     11.6624E-03     77.1785E-03     57.5178E-03    -28.6001E-03    -28.9608E-03    -28.3315E-03     56.8886E-03    -28.6001E-03     14.5025E-03     94.3016E-03     43.6982E+06    -14.7219E+06    -30.9110E+06    -63.3582E+06    -14.8900E+06    -56.8097E+06    -37.2914E+06    -1.45147E+06
            1493     78.2235E-03     12.6348E-03     77.1964E-03     57.8479E-03    -28.4472E-03    -29.4639E-03    -28.0832E-03     56.4672E-03    -28.4472E-03     21.3352E-03     105.766E-03     52.2878E+06     9.34598E+06    -25.0940E+06    -50.7930E+06    -16.1575E+06     409.452E+03    -50.7930E+06     1.41585E+06
            1494     78.4140E-03     13.6076E-03     77.2242E-03     59.1135E-03    -28.3740E-03    -30.7967E-03    -27.8933E-03     56.2101E-03    -28.3740E-03     31.3392E-03     128.273E-03     101.370E+06     63.9457E+06    -17.7165E+06    -48.0729E+06    -17.5037E+06     63.7328E+06    -48.0729E+06     3.47377E+06
            1495     78.6261E-03     14.5791E-03     77.2627E-03     78.1290E-03    -28.5420E-03    -49.6376E-03    -29.3531E-03     57.8444E-03    -28.5420E-03     86.7290E-03     181.343E-03     128.970E+06     114.137E+06     8.09745E+06    -28.6021E+06    -17.3812E+06     113.954E+06    -2.94023E+06     4.03247E+06
            1496     78.9552E-03     15.5551E-03     77.4078E-03     169.139E-03    -28.9386E-03    -140.184E-03    -45.4582E-03     74.4132E-03    -28.9386E-03     283.090E-03     400.836E-03     153.291E+06     158.696E+06     79.3733E+06    -14.4769E+06    -14.3610E+06     158.580E+06     79.3733E+06     3.89244E+06
            1497     79.6194E-03     16.5219E-03     77.8863E-03     219.657E-03    -29.2348E-03    -190.443E-03    -50.5256E-03     79.7394E-03    -29.2348E-03     388.818E-03     613.269E-03     183.906E+06     191.974E+06     149.078E+06    -8.83773E+06    -8.79054E+06     191.926E+06     149.078E+06     2.95857E+06
            1498     78.1612E-03     971.754E-06     78.1552E-03     58.1105E-03    -28.9577E-03    -29.1502E-03    -29.1410E-03     58.1047E-03    -28.9610E-03     1.36183E-03     58.5588E-03     196.014E+06    -41.4898E+06    -43.4592E+06    -238.476E+06    -42.8333E+06    -238.467E+06    -42.1242E+06    -897.784E+03
            1499     78.1810E-03     1.94320E-03     78.1568E-03     58.1893E-03    -29.0614E-03    -29.1259E-03    -29.0976E-03     58.1734E-03    -29.0739E-03     2.28285E-03     58.9792E-03     192.074E+06    -39.4301E+06    -41.0464E+06    -232.301E+06    -41.0269E+06    -232.278E+06    -39.4728E+06    -1.71708E+06
            1500     78.2141E-03     2.91474E-03     78.1597E-03     58.0951E-03    -29.0007E-03    -29.0963E-03    -28.9920E-03     58.0612E-03    -29.0711E-03     3.38931E-03     59.7631E-03     185.561E+06    -36.3432E+06    -39.5985E+06    -223.499E+06    -39.7155E+06    -223.370E+06    -36.3550E+06    -4.38742E+06
            1501     78.2605E-03     3.88636E-03     78.1640E-03     57.9689E-03    -28.9191E-03    -29.0538E-03    -28.8628E-03     57.9126E-03    -29.0538E-03     4.39786E-03     60.9213E-03     182.548E+06    -32.2959E+06    -38.0739E+06    -217.662E+06    -38.3379E+06    -217.398E+06    -32.2959E+06    -6.67767E+06
            1502     78.3199E-03     4.85849E-03     78.1691E-03     57.9365E-03    -28.9171E-03    -29.0202E-03    -28.8326E-03     57.8520E-03    -29.0202E-03     5.38879E-03     62.5451E-03     172.595E+06    -27.3030E+06    -33.6358E+06    -202.953E+06    -33.5817E+06    -202.489E+06    -27.8210E+06    -7.94950E+06
            1503     78.3925E-03     5.82994E-03     78.1755E-03     57.9289E-03    -28.9190E-03    -29.0064E-03    -28.8011E-03     57.8110E-03    -29.0064E-03     6.37749E-03     64.7350E-03     165.524E+06    -19.7147E+06    -27.1354E+06    -188.794E+06    -27.2626E+06    -188.149E+06    -20.2327E+06    -9.59314E+06
            1504     78.4775E-03     6.80199E-03     78.1822E-03     57.8771E-03    -28.8947E-03    -28.9724E-03    -28.7362E-03     57.7186E-03    -28.9724E-03     7.38805E-03     67.4874E-03     156.753E+06    -16.6042E+06    -23.1995E+06    -176.539E+06    -23.8508E+06    -175.887E+06    -16.6042E+06    -9.96758E+06
            1505     78.5764E-03     7.77401E-03     78.1909E-03     57.8458E-03    -28.8911E-03    -28.9318E-03    -28.7079E-03     57.6482E-03    -28.9174E-03     8.26386E-03     70.8478E-03     141.596E+06    -17.2478E+06    -21.7418E+06    -161.035E+06    -22.4412E+06    -160.336E+06    -17.2478E+06    -9.80027E+06
            1506     78.6871E-03     8.74560E-03     78.1996E-03     57.7695E-03    -28.8424E-03    -28.9092E-03    -28.6263E-03     57.5141E-03    -28.8700E-03     9.35971E-03     75.0003E-03     125.232E+06    -17.3749E+06    -19.7295E+06    -143.761E+06    -20.1511E+06    -142.979E+06    -17.7356E+06    -9.66014E+06
            1507     78.8118E-03     9.71805E-03     78.2103E-03     57.7154E-03    -28.7818E-03    -28.9117E-03    -28.5004E-03     57.3252E-03    -28.8029E-03     11.5161E-03     80.3976E-03     104.538E+06    -16.7702E+06    -21.1148E+06    -123.351E+06    -17.4656E+06    -122.655E+06    -21.1148E+06    -8.41173E+06
            1508     78.9512E-03     10.6899E-03     78.2241E-03     57.6360E-03    -28.7269E-03    -28.9005E-03    -28.4407E-03     57.1762E-03    -28.7269E-03     12.5783E-03     86.6509E-03     78.2682E+06    -15.0211E+06    -27.1165E+06    -98.4084E+06    -15.5208E+06    -97.9088E+06    -27.1165E+06    -6.19841E+06
            1509     79.1014E-03     11.6622E-03     78.2370E-03     57.5168E-03    -28.6079E-03    -28.9440E-03    -28.3004E-03     56.8732E-03    -28.6079E-03     14.6637E-03     94.3001E-03     46.0726E+06    -14.3920E+06    -33.2900E+06    -65.7181E+06    -14.6736E+06    -59.6608E+06    -39.0658E+06    -3.31538E+06
            1510     79.2684E-03     12.6346E-03     78.2550E-03     57.9129E-03    -28.4572E-03    -29.5174E-03    -28.1005E-03     56.4961E-03    -28.4572E-03     21.6212E-03     105.961E-03     51.8354E+06     7.61976E+06    -25.7040E+06    -51.8951E+06    -14.8920E+06    -3.19228E+06    -51.8951E+06     40.4471E+03
            1511     79.4562E-03     13.6073E-03     78.2824E-03     59.0790E-03    -28.3850E-03    -30.7510E-03    -27.8343E-03     56.1623E-03    -28.3850E-03     31.4266E-03     128.193E-03     100.165E+06     62.4185E+06    -16.7354E+06    -48.2059E+06    -16.5684E+06     62.2515E+06    -48.2059E+06     2.54442E+06
            1512     79.6676E-03     14.5817E-03     78.3218E-03     78.9830E-03    -28.5767E-03    -50.4603E-03    -30.3052E-03     58.8279E-03    -28.5767E-03     87.4770E-03     182.502E-03     129.947E+06     114.078E+06     6.85832E+06    -29.6423E+06    -18.4284E+06     113.919E+06    -4.19684E+06     4.13308E+06
            1513     79.9940E-03     15.5499E-03     78.4681E-03     169.611E-03    -28.9415E-03    -140.661E-03    -44.3328E-03     73.2820E-03    -28.9415E-03     284.429E-03     401.745E-03     155.364E+06     158.861E+06     74.9198E+06    -17.2962E+06    -17.1373E+06     158.702E+06     74.9198E+06     4.99349E+06
            1514     80.6578E-03     16.5289E-03     78.9461E-03     218.968E-03    -29.1721E-03    -189.824E-03    -49.4711E-03     78.6146E-03    -29.1721E-03     388.183E-03     612.060E-03     186.481E+06     194.598E+06     146.795E+06    -10.1079E+06    -10.0305E+06     194.520E+06     146.795E+06     3.63473E+06
            1515     79.2197E-03     971.504E-06     79.2138E-03     58.1292E-03    -28.9927E-03    -29.1356E-03    -29.0848E-03     58.1236E-03    -29.0377E-03     1.34496E-03     58.4953E-03     195.174E+06    -40.1157E+06    -42.7291E+06    -236.580E+06    -42.1908E+06    -236.573E+06    -40.6609E+06    -295.189E+03
            1516     79.2393E-03     1.94324E-03     79.2155E-03     58.1570E-03    -29.0549E-03    -29.1009E-03    -29.0697E-03     58.1406E-03    -29.0698E-03     2.31460E-03     58.9520E-03     188.584E+06    -39.5665E+06    -41.5052E+06    -229.107E+06    -41.5554E+06    -229.045E+06    -39.5783E+06    -2.63116E+06
            1517     79.2724E-03     2.91474E-03     79.2188E-03     58.0943E-03    -29.0130E-03    -29.0832E-03    -29.0051E-03     58.0612E-03    -29.0579E-03     3.36439E-03     59.7655E-03     179.844E+06    -37.8383E+06    -39.5476E+06    -218.516E+06    -39.6849E+06    -218.354E+06    -37.8631E+06    -5.18275E+06
            1518     79.3176E-03     3.88655E-03     79.2224E-03     58.0025E-03    -28.9630E-03    -29.0432E-03    -28.9044E-03     57.9439E-03    -29.0432E-03     4.46362E-03     60.9495E-03     176.881E+06    -34.3834E+06    -37.3991E+06    -212.740E+06    -37.7812E+06    -212.345E+06    -34.3964E+06    -7.98946E+06
            1519     79.3766E-03     4.85799E-03     79.2278E-03     57.8881E-03    -28.8921E-03    -28.9969E-03    -28.8019E-03     57.7979E-03    -28.9969E-03     5.57065E-03     62.4755E-03     164.689E+06    -32.3066E+06    -34.9793E+06    -198.312E+06    -35.3885E+06    -197.385E+06    -32.8247E+06    -11.9515E+06
            1520     79.4479E-03     5.83025E-03     79.2337E-03     57.8891E-03    -28.8995E-03    -28.9860E-03    -28.7762E-03     57.7658E-03    -28.9860E-03     6.52019E-03     64.6705E-03     158.050E+06    -25.7844E+06    -32.0461E+06    -186.839E+06    -32.6507E+06    -185.717E+06    -26.3024E+06    -13.0306E+06
            1521     79.5325E-03     6.80189E-03     79.2411E-03     57.9087E-03    -28.9276E-03    -28.9748E-03    -28.7667E-03     57.7477E-03    -28.9748E-03     7.45673E-03     67.5348E-03     152.341E+06    -19.2422E+06    -27.5823E+06    -175.578E+06    -28.5987E+06    -174.561E+06    -19.2422E+06    -12.0082E+06
            1522     79.6295E-03     7.77370E-03     79.2492E-03     57.8081E-03    -28.8698E-03    -28.9146E-03    -28.6667E-03     57.6051E-03    -28.9146E-03     8.36698E-03     70.8387E-03     138.155E+06    -18.7188E+06    -23.4660E+06    -159.177E+06    -24.1310E+06    -157.992E+06    -19.2390E+06    -12.4078E+06
            1523     79.7396E-03     8.74602E-03     79.2585E-03     57.7754E-03    -28.8354E-03    -28.9150E-03    -28.6269E-03     57.5133E-03    -28.8615E-03     9.49544E-03     75.0429E-03     123.706E+06    -18.5120E+06    -20.8402E+06    -143.364E+06    -20.6946E+06    -142.069E+06    -19.9530E+06    -12.5070E+06
            1524     79.8621E-03     9.71744E-03     79.2687E-03     57.7823E-03    -28.7986E-03    -28.9589E-03    -28.5596E-03     57.3830E-03    -28.7986E-03     11.6456E-03     80.5120E-03     104.508E+06    -17.1110E+06    -23.5206E+06    -124.565E+06    -18.3477E+06    -123.328E+06    -23.5206E+06    -11.3402E+06
            1525     80.0000E-03     10.6900E-03     79.2826E-03     57.5866E-03    -28.7076E-03    -28.8667E-03    -28.3816E-03     57.1140E-03    -28.7202E-03     12.7432E-03     86.6265E-03     79.2808E+06    -15.6372E+06    -30.3059E+06    -101.016E+06    -16.6455E+06    -100.008E+06    -30.3059E+06    -9.10130E+06
            1526     80.1485E-03     11.6622E-03     79.2954E-03     57.5017E-03    -28.5902E-03    -28.9453E-03    -28.2782E-03     56.8470E-03    -28.6027E-03     14.7898E-03     94.3276E-03     48.5458E+06    -15.0314E+06    -36.7953E+06    -69.1515E+06    -15.8177E+06    -63.0562E+06    -42.1043E+06    -5.69920E+06
            1527     80.3132E-03     12.6349E-03     79.3131E-03     58.0252E-03    -28.4589E-03    -29.6299E-03    -28.2137E-03     56.6089E-03    -28.4589E-03     21.6697E-03     106.171E-03     52.4493E+06     5.44002E+06    -28.3130E+06    -54.6078E+06    -16.0981E+06    -6.77488E+06    -54.6078E+06    -2.05585E+06
            1528     80.4998E-03     13.6072E-03     79.3414E-03     59.3962E-03    -28.4014E-03    -31.0539E-03    -28.2004E-03     56.5427E-03    -28.4014E-03     31.2521E-03     128.823E-03     98.9721E+06     58.8241E+06    -17.8556E+06    -50.8733E+06    -17.7606E+06     58.7291E+06    -50.8733E+06     2.02623E+06
            1529     80.7071E-03     14.5788E-03     79.3794E-03     79.6271E-03    -28.5877E-03    -51.1084E-03    -30.0123E-03     58.5310E-03    -28.5877E-03     89.0578E-03     182.874E-03     129.583E+06     111.815E+06     5.00739E+06    -31.6928E+06    -19.3856E+06     111.540E+06    -7.02455E+06     5.52115E+06
            1530     81.0394E-03     15.5519E-03     79.5332E-03     168.146E-03    -28.8995E-03    -139.256E-03    -42.8519E-03     71.7415E-03    -28.8995E-03     282.902E-03     400.202E-03     155.556E+06     158.887E+06     72.6261E+06    -17.6346E+06    -17.3670E+06     158.620E+06     72.6261E+06     6.19630E+06
            1531     81.6799E-03     16.5286E-03     79.9900E-03     219.194E-03    -29.1122E-03    -190.103E-03    -49.6349E-03     78.7259E-03    -29.1122E-03     388.627E-03     612.183E-03     188.677E+06     198.314E+06     146.949E+06    -9.68429E+06    -9.58737E+06     198.217E+06     146.949E+06     4.07317E+06
            1532     80.2783E-03     971.708E-06     80.2724E-03     58.1309E-03    -28.9693E-03    -29.1612E-03    -29.0929E-03     58.1247E-03    -29.0313E-03     1.38509E-03     58.4383E-03     189.292E+06    -44.5273E+06    -46.1852E+06    -234.641E+06    -45.6589E+06    -234.622E+06    -45.0724E+06    -848.759E+03
            1533     80.2981E-03     1.94308E-03     80.2746E-03     58.0719E-03    -29.0143E-03    -29.0566E-03    -29.0033E-03     58.0550E-03    -29.0507E-03     2.37318E-03     58.8517E-03     180.864E+06    -41.8312E+06    -43.6585E+06    -223.598E+06    -42.9154E+06    -223.487E+06    -42.6849E+06    -3.66743E+06
            1534     80.3301E-03     2.91491E-03     80.2772E-03     58.0140E-03    -28.9976E-03    -29.0178E-03    -28.9642E-03     57.9804E-03    -29.0176E-03     3.37797E-03     59.6798E-03     172.484E+06    -40.2741E+06    -41.4109E+06    -213.320E+06    -40.7449E+06    -212.942E+06    -41.3179E+06    -7.60309E+06
            1535     80.3753E-03     3.88640E-03     80.2813E-03     57.9825E-03    -28.9714E-03    -29.0125E-03    -28.9126E-03     57.9236E-03    -29.0124E-03     4.48110E-03     60.9229E-03     170.821E+06    -35.4060E+06    -36.8575E+06    -206.943E+06    -37.3984E+06    -206.212E+06    -35.5960E+06    -10.7931E+06
            1536     80.4330E-03     4.85847E-03     80.2861E-03     57.9416E-03    -28.9265E-03    -29.0110E-03    -28.8458E-03     57.8515E-03    -29.0016E-03     5.56904E-03     62.5334E-03     160.324E+06    -30.0974E+06    -34.0687E+06    -192.355E+06    -35.1292E+06    -191.294E+06    -30.0974E+06    -12.7761E+06
            1537     80.5038E-03     5.83000E-03     80.2924E-03     57.9286E-03    -28.9190E-03    -29.0002E-03    -28.8056E-03     57.8057E-03    -28.9908E-03     6.51199E-03     64.7192E-03     154.889E+06    -26.3684E+06    -32.3853E+06    -184.161E+06    -33.8273E+06    -182.719E+06    -26.3684E+06    -14.6056E+06
            1538     80.5873E-03     6.80186E-03     80.2997E-03     57.8805E-03    -28.9141E-03    -28.9565E-03    -28.7518E-03     57.7182E-03    -28.9565E-03     7.47996E-03     67.5008E-03     147.946E+06    -23.1896E+06    -28.5140E+06    -173.701E+06    -30.1834E+06    -171.826E+06    -23.3950E+06    -16.1802E+06
            1539     80.6831E-03     7.77385E-03     80.3078E-03     57.7975E-03    -28.8707E-03    -28.9027E-03    -28.6711E-03     57.5941E-03    -28.8990E-03     8.37770E-03     70.8396E-03     134.355E+06    -21.8561E+06    -24.5462E+06    -157.518E+06    -25.7589E+06    -155.427E+06    -22.7343E+06    -16.4537E+06
            1540     80.7915E-03     8.74559E-03     80.3168E-03     57.7131E-03    -28.8064E-03    -28.8813E-03    -28.5753E-03     57.4494E-03    -28.8488E-03     9.50858E-03     75.0109E-03     121.867E+06    -19.8917E+06    -23.0968E+06    -143.304E+06    -21.9842E+06    -141.212E+06    -23.0968E+06    -15.7739E+06
            1541     80.9132E-03     9.71805E-03     80.3275E-03     57.7030E-03    -28.7634E-03    -28.9213E-03    -28.4948E-03     57.2992E-03    -28.7862E-03     11.7094E-03     80.4420E-03     104.240E+06    -17.4898E+06    -26.1352E+06    -125.697E+06    -19.4131E+06    -123.773E+06    -26.1352E+06    -14.1794E+06
            1542     81.0489E-03     10.6897E-03     80.3409E-03     57.5974E-03    -28.6932E-03    -28.8987E-03    -28.4102E-03     57.1214E-03    -28.7057E-03     12.7912E-03     86.6211E-03     80.3991E+06    -16.2573E+06    -33.1656E+06    -103.454E+06    -17.9398E+06    -101.772E+06    -33.1656E+06    -11.8634E+06
            1543     81.1955E-03     11.6624E-03     80.3536E-03     57.5511E-03    -28.5773E-03    -29.0104E-03    -28.3256E-03     56.8788E-03    -28.5898E-03     14.9798E-03     94.3936E-03     51.1500E+06    -15.4720E+06    -41.3710E+06    -72.4157E+06    -17.0214E+06    -66.5130E+06    -45.7243E+06    -8.59045E+06
            1544     81.3593E-03     12.6342E-03     80.3723E-03     58.0658E-03    -28.4466E-03    -29.6850E-03    -28.2275E-03     56.6083E-03    -28.4466E-03     21.9947E-03     106.098E-03     54.4527E+06     2.50301E+06    -32.7614E+06    -59.2927E+06    -18.4005E+06    -11.8579E+06    -59.2927E+06    -3.22769E+06
            1545     81.5428E-03     13.6069E-03     80.3995E-03     59.6399E-03    -28.3713E-03    -31.3256E-03    -28.1805E-03     56.4947E-03    -28.3713E-03     32.6986E-03     128.773E-03     101.117E+06     53.9309E+06    -21.4240E+06    -59.1171E+06    -21.3158E+06     53.8227E+06    -59.1171E+06     2.42168E+06
            1546     81.7514E-03     14.5788E-03     80.4410E-03     78.9074E-03    -28.5087E-03    -50.4600E-03    -28.9009E-03     57.3483E-03    -28.5087E-03     89.6063E-03     182.254E-03     131.901E+06     109.207E+06    -1.01148E+06    -36.7839E+06    -20.9896E+06     108.928E+06    -16.5266E+06     5.24754E+06
            1547     82.0736E-03     15.5555E-03     80.5859E-03     167.748E-03    -28.8345E-03    -138.910E-03    -43.4721E-03     72.3106E-03    -28.8345E-03     282.196E-03     398.028E-03     154.844E+06     158.557E+06     69.2373E+06    -15.9795E+06    -15.7052E+06     158.282E+06     69.2373E+06     6.03617E+06
            1548     82.7220E-03     16.5275E-03     81.0541E-03     219.112E-03    -29.1188E-03    -189.952E-03    -50.5295E-03     79.6900E-03    -29.1188E-03     387.776E-03     611.076E-03     190.635E+06     202.028E+06     149.001E+06    -8.62958E+06    -8.50933E+06     201.907E+06     149.001E+06     4.54985E+06
            1549     81.3370E-03     971.376E-06     81.3312E-03     58.1039E-03    -28.9419E-03    -29.1641E-03    -29.1378E-03     58.0980E-03    -28.9623E-03     1.37061E-03     58.3979E-03     183.918E+06    -46.3719E+06    -46.8821E+06    -230.544E+06    -46.8955E+06    -230.492E+06    -46.4105E+06    -2.24930E+06
            1550     81.3562E-03     1.94331E-03     81.3330E-03     58.0080E-03    -28.9741E-03    -29.0359E-03    -28.9720E-03     57.9919E-03    -29.0220E-03     2.30822E-03     58.7825E-03     170.725E+06    -45.2973E+06    -47.0772E+06    -216.901E+06    -45.7879E+06    -216.650E+06    -46.8378E+06    -5.96453E+06
            1551     81.3882E-03     2.91485E-03     81.3360E-03     57.9207E-03    -28.9386E-03    -28.9830E-03    -28.9052E-03     57.8871E-03    -28.9829E-03     3.36884E-03     59.5911E-03     161.952E+06    -42.6500E+06    -44.9899E+06    -205.757E+06    -43.9724E+06    -205.057E+06    -44.3674E+06    -10.2099E+06
            1552     81.4327E-03     3.88670E-03     81.3399E-03     57.9511E-03    -28.9459E-03    -29.0047E-03    -28.9096E-03     57.8939E-03    -28.9838E-03     4.42760E-03     60.8935E-03     161.938E+06    -38.4269E+06    -40.9473E+06    -201.607E+06    -41.9129E+06    -200.465E+06    -38.6038E+06    -13.4214E+06
            1553     81.4899E-03     4.85817E-03     81.3449E-03     57.9587E-03    -28.9431E-03    -29.0107E-03    -28.8837E-03     57.8691E-03    -28.9805E-03     5.54228E-03     62.5441E-03     152.691E+06    -33.5801E+06    -37.7355E+06    -188.295E+06    -38.7497E+06    -186.813E+06    -34.0479E+06    -14.6054E+06
            1554     81.5599E-03     5.82998E-03     81.3513E-03     57.9165E-03    -28.9231E-03    -28.9857E-03    -28.8095E-03     57.7935E-03    -28.9762E-03     6.52130E-03     64.7115E-03     148.289E+06    -28.2215E+06    -32.6733E+06    -178.676E+06    -34.2739E+06    -176.608E+06    -28.6893E+06    -16.9820E+06
            1555     81.6418E-03     6.80184E-03     81.3579E-03     57.8318E-03    -28.8809E-03    -28.9363E-03    -28.7164E-03     57.6672E-03    -28.9363E-03     7.52017E-03     67.4436E-03     142.693E+06    -26.3824E+06    -29.2065E+06    -170.462E+06    -31.1259E+06    -167.736E+06    -27.1891E+06    -19.3737E+06
            1556     81.7370E-03     7.77365E-03     81.3665E-03     57.7645E-03    -28.8520E-03    -28.8816E-03    -28.6463E-03     57.5551E-03    -28.8779E-03     8.49896E-03     70.7955E-03     130.098E+06    -25.1302E+06    -26.9881E+06    -156.143E+06    -28.2648E+06    -153.008E+06    -26.9881E+06    -19.9022E+06
            1557     81.8439E-03     8.74574E-03     81.3753E-03     57.6875E-03    -28.8037E-03    -28.8607E-03    -28.5646E-03     57.4217E-03    -28.8341E-03     9.54712E-03     75.0140E-03     118.991E+06    -21.7264E+06    -26.5981E+06    -143.046E+06    -24.9906E+06    -139.781E+06    -26.5981E+06    -19.5041E+06
            1558     81.9640E-03     9.71763E-03     81.3859E-03     57.6265E-03    -28.7494E-03    -28.8613E-03    -28.4415E-03     57.2295E-03    -28.7722E-03     11.6108E-03     80.3874E-03     103.633E+06    -18.5523E+06    -29.8132E+06    -127.257E+06    -21.6719E+06    -124.138E+06    -29.8132E+06    -17.9594E+06
            1559     82.0983E-03     10.6904E-03     81.3993E-03     57.5628E-03    -28.6906E-03    -28.8678E-03    -28.3962E-03     57.0912E-03    -28.6906E-03     12.7314E-03     86.6207E-03     82.4262E+06    -16.0548E+06    -36.3750E+06    -106.332E+06    -18.7788E+06    -103.609E+06    -36.3750E+06    -15.2806E+06
            1560     82.2434E-03     11.6619E-03     81.4123E-03     57.5032E-03    -28.5708E-03    -28.9672E-03    -28.2835E-03     56.8195E-03    -28.5708E-03     15.0915E-03     94.3656E-03     54.0430E+06    -15.5777E+06    -46.3165E+06    -75.4461E+06    -17.9631E+06    -70.2530E+06    -49.1243E+06    -11.1873E+06
            1561     82.4048E-03     12.6352E-03     81.4304E-03     57.9800E-03    -28.4207E-03    -29.6227E-03    -28.1288E-03     56.4861E-03    -28.4207E-03     22.2440E-03     106.150E-03     55.0646E+06    -2.64063E+06    -35.7470E+06    -63.9596E+06    -19.0370E+06    -19.3506E+06    -63.9596E+06    -4.50367E+06
            1562     82.5873E-03     13.6075E-03     81.4586E-03     58.8884E-03    -28.3013E-03    -30.6455E-03    -27.4681E-03     55.7111E-03    -28.3013E-03     32.5950E-03     128.121E-03     102.465E+06     48.8562E+06    -20.8961E+06    -66.2600E+06    -20.8023E+06     48.7624E+06    -66.2600E+06     1.84269E+06
            1563     82.7925E-03     14.5819E-03     81.4983E-03     78.1560E-03    -28.4079E-03    -49.7911E-03    -28.8780E-03     57.2428E-03    -28.4079E-03     88.4863E-03     181.915E-03     135.976E+06     108.891E+06    -4.57668E+06    -41.6710E+06    -21.5701E+06     108.749E+06    -24.5358E+06     3.74039E+06
            1564     83.1111E-03     15.5547E-03     81.6426E-03     168.627E-03    -28.7723E-03    -139.825E-03    -44.4042E-03     73.2063E-03    -28.7723E-03     283.079E-03     399.548E-03     157.283E+06     157.631E+06     61.6796E+06    -19.0483E+06    -18.9266E+06     157.509E+06     61.6796E+06     3.90965E+06
            1565     83.7641E-03     16.5261E-03     82.1177E-03     218.735E-03    -29.1010E-03    -189.615E-03    -50.4790E-03     79.5990E-03    -29.1010E-03     387.070E-03     610.262E-03     193.839E+06     203.400E+06     145.993E+06    -11.5989E+06    -11.5231E+06     203.324E+06     145.993E+06     2.93067E+06
            1566     82.3959E-03     971.881E-06     82.3902E-03     58.0530E-03    -28.9772E-03    -29.0793E-03    -29.0496E-03     58.0474E-03    -29.0014E-03     1.30912E-03     58.3341E-03     177.711E+06    -47.1274E+06    -48.3180E+06    -225.429E+06    -47.8492E+06    -225.356E+06    -47.6687E+06    -2.92713E+06
            1567     82.4147E-03     1.94299E-03     82.3918E-03     57.9805E-03    -28.9606E-03    -29.0234E-03    -28.9633E-03     57.9648E-03    -29.0051E-03     2.27914E-03     58.7566E-03     162.135E+06    -45.5024E+06    -47.2307E+06    -208.493E+06    -46.9290E+06    -208.108E+06    -46.1892E+06    -7.15018E+06
            1568     82.4462E-03     2.91492E-03     82.3946E-03     57.9258E-03    -28.9363E-03    -28.9900E-03    -28.9175E-03     57.8929E-03    -28.9758E-03     3.33468E-03     59.5979E-03     152.575E+06    -44.0623E+06    -45.9492E+06    -197.570E+06    -46.1403E+06    -196.692E+06    -44.7490E+06    -11.4299E+06
            1569     82.4901E-03     3.88651E-03     82.3985E-03     57.9495E-03    -28.9470E-03    -29.0040E-03    -28.9215E-03     57.8935E-03    -28.9735E-03     4.38195E-03     60.8993E-03     152.259E+06    -41.6605E+06    -43.4392E+06    -194.799E+06    -44.9387E+06    -193.299E+06    -41.6605E+06    -14.7687E+06
            1570     82.5467E-03     4.85825E-03     82.4036E-03     57.8721E-03    -28.8991E-03    -28.9737E-03    -28.8317E-03     57.7840E-03    -28.9529E-03     5.49205E-03     62.4653E-03     143.144E+06    -38.3516E+06    -40.5485E+06    -182.580E+06    -41.8372E+06    -180.065E+06    -39.5779E+06    -18.4415E+06
            1571     82.6157E-03     5.83007E-03     82.4097E-03     57.8297E-03    -28.8816E-03    -28.9491E-03    -28.7571E-03     57.7052E-03    -28.9491E-03     6.54973E-03     64.6217E-03     139.875E+06    -32.4847E+06    -36.2936E+06    -174.220E+06    -38.1991E+06    -171.088E+06    -33.7110E+06    -20.5307E+06
            1572     82.6970E-03     6.80178E-03     82.4168E-03     57.8075E-03    -28.8763E-03    -28.9262E-03    -28.7141E-03     57.6452E-03    -28.9262E-03     7.47394E-03     67.4402E-03     136.596E+06    -27.9498E+06    -31.5283E+06    -166.293E+06    -34.2792E+06    -162.546E+06    -28.9457E+06    -21.9761E+06
            1573     82.7905E-03     7.77389E-03     82.4247E-03     57.6987E-03    -28.8074E-03    -28.8635E-03    -28.5978E-03     57.4891E-03    -28.8635E-03     8.48698E-03     70.7671E-03     126.349E+06    -25.6745E+06    -29.5620E+06    -153.903E+06    -30.2108E+06    -149.366E+06    -29.5620E+06    -23.5354E+06
            1574     82.8968E-03     8.74577E-03     82.4341E-03     57.6830E-03    -28.7878E-03    -28.8737E-03    -28.5785E-03     57.4175E-03    -28.8175E-03     9.55595E-03     75.0278E-03     117.252E+06    -21.9906E+06    -29.8311E+06    -142.929E+06    -26.7759E+06    -138.143E+06    -29.8311E+06    -23.4574E+06
            1575     83.0149E-03     9.71788E-03     82.4441E-03     57.6863E-03    -28.7583E-03    -28.9105E-03    -28.5165E-03     57.2923E-03    -28.7583E-03     11.5612E-03     80.5075E-03     103.196E+06    -18.8727E+06    -33.3070E+06    -128.401E+06    -23.6022E+06    -123.672E+06    -33.3070E+06    -22.1669E+06
            1576     83.1479E-03     10.6896E-03     82.4579E-03     57.5157E-03    -28.6823E-03    -28.8302E-03    -28.3630E-03     57.0485E-03    -28.6823E-03     12.6644E-03     86.6903E-03     83.9387E+06    -17.1655E+06    -40.7838E+06    -110.053E+06    -21.3674E+06    -105.851E+06    -40.7838E+06    -19.1889E+06
            1577     83.2910E-03     11.6628E-03     82.4704E-03     57.4417E-03    -28.5640E-03    -28.9148E-03    -28.2576E-03     56.7845E-03    -28.5640E-03     14.8001E-03     94.4921E-03     57.5404E+06    -16.7394E+06    -51.8263E+06    -79.7919E+06    -20.3571E+06    -74.8992E+06    -53.1014E+06    -14.2495E+06
            1578     83.4507E-03     12.6345E-03     82.4887E-03     57.7787E-03    -28.4079E-03    -29.4348E-03    -27.9809E-03     56.3249E-03    -28.4079E-03     21.8610E-03     106.237E-03     55.9245E+06    -7.11262E+06    -39.8842E+06    -67.9762E+06    -19.9173E+06    -27.0795E+06    -67.9762E+06    -7.82729E+06
            1579     83.6312E-03     13.6076E-03     82.5167E-03     58.4943E-03    -28.2742E-03    -30.2822E-03    -27.4113E-03     55.6233E-03    -28.2742E-03     31.0556E-03     128.300E-03     102.048E+06     43.8536E+06    -20.8447E+06    -71.1550E+06    -20.0921E+06     43.1010E+06    -71.1550E+06    -1.00656E+06
            1580     83.8316E-03     14.5821E-03     82.5536E-03     78.3861E-03    -28.3688E-03    -50.0567E-03    -29.0666E-03     57.3960E-03    -28.3688E-03     88.0598E-03     182.006E-03     137.717E+06     107.338E+06    -7.42745E+06    -44.8724E+06    -21.2602E+06     107.219E+06    -30.9207E+06     3.78496E+06
            1581     84.1562E-03     15.5534E-03     82.7064E-03     168.864E-03    -28.7191E-03    -140.102E-03    -43.7634E-03     72.5247E-03    -28.7191E-03     284.141E-03     401.125E-03     159.125E+06     157.970E+06     56.7062E+06    -19.9397E+06    -19.8283E+06     157.858E+06     56.7062E+06     3.84917E+06
            1582     84.7981E-03     16.5303E-03     83.1713E-03     218.561E-03    -29.0492E-03    -189.573E-03    -50.4692E-03     79.4568E-03    -29.0492E-03     386.897E-03     610.926E-03     195.168E+06     205.540E+06     145.048E+06    -11.5050E+06    -11.4903E+06     205.526E+06     145.048E+06     1.35041E+06
            1583     83.4541E-03     971.242E-06     83.4484E-03     58.0766E-03    -28.9220E-03    -29.1575E-03    -29.0814E-03     58.0716E-03    -28.9932E-03     1.13837E-03     58.3546E-03     169.056E+06    -47.9807E+06    -49.9475E+06    -218.011E+06    -49.1789E+06    -217.837E+06    -48.9239E+06    -4.89270E+06
            1584     83.4735E-03     1.94348E-03     83.4509E-03     57.9364E-03    -28.9274E-03    -29.0112E-03    -28.9166E-03     57.9212E-03    -29.0069E-03     2.23907E-03     58.7142E-03     153.622E+06    -44.2228E+06    -46.5115E+06    -198.975E+06    -45.7457E+06    -198.401E+06    -45.5620E+06    -8.64106E+06
            1585     83.5041E-03     2.91477E-03     83.4532E-03     58.0001E-03    -28.9739E-03    -29.0256E-03    -28.9806E-03     57.9659E-03    -28.9847E-03     3.38944E-03     59.6762E-03     147.603E+06    -41.1457E+06    -43.6326E+06    -189.972E+06    -43.7595E+06    -188.946E+06    -42.0443E+06    -12.1846E+06
            1586     83.5480E-03     3.88640E-03     83.4575E-03     58.0031E-03    -28.9734E-03    -29.0321E-03    -28.9540E-03     57.9472E-03    -28.9956E-03     4.39555E-03     60.9581E-03     147.071E+06    -37.9170E+06    -39.7148E+06    -185.874E+06    -41.6486E+06    -183.941E+06    -37.9170E+06    -16.2653E+06
            1587     83.6035E-03     4.85807E-03     83.4623E-03     57.8969E-03    -28.9170E-03    -28.9836E-03    -28.8345E-03     57.8144E-03    -28.9836E-03     5.31835E-03     62.5198E-03     139.116E+06    -34.6006E+06    -37.0139E+06    -174.903E+06    -39.4728E+06    -171.686E+06    -35.3592E+06    -20.7441E+06
            1588     83.6717E-03     5.82992E-03     83.4683E-03     57.8211E-03    -28.8500E-03    -28.9711E-03    -28.7317E-03     57.7028E-03    -28.9711E-03     6.37754E-03     64.6349E-03     137.287E+06    -30.4684E+06    -34.0417E+06    -169.499E+06    -37.1403E+06    -165.384E+06    -31.4853E+06    -23.2161E+06
            1589     83.7521E-03     6.80188E-03     83.4755E-03     57.7786E-03    -28.8437E-03    -28.9301E-03    -28.6868E-03     57.6218E-03    -28.9301E-03     7.34833E-03     67.4206E-03     132.946E+06    -26.6009E+06    -30.0424E+06    -161.222E+06    -33.3287E+06    -155.998E+06    -28.5389E+06    -25.6332E+06
            1590     83.8444E-03     7.77354E-03     83.4833E-03     57.7372E-03    -28.8354E-03    -28.8781E-03    -28.6461E-03     57.5372E-03    -28.8673E-03     8.29765E-03     70.8325E-03     124.567E+06    -23.5660E+06    -29.9906E+06    -151.181E+06    -29.7426E+06    -145.005E+06    -29.9906E+06    -27.3145E+06
            1591     83.9494E-03     8.74578E-03     83.4926E-03     57.6766E-03    -28.7928E-03    -28.8639E-03    -28.5796E-03     57.4193E-03    -28.8199E-03     9.39788E-03     75.0353E-03     116.621E+06    -20.5360E+06    -31.6002E+06    -142.277E+06    -26.9903E+06    -135.822E+06    -31.6002E+06    -27.2012E+06
            1592     84.0664E-03     9.71758E-03     83.5029E-03     57.6578E-03    -28.7592E-03    -28.8893E-03    -28.5075E-03     57.2809E-03    -28.7642E-03     11.3168E-03     80.5370E-03     104.093E+06    -18.4276E+06    -34.8770E+06    -129.674E+06    -24.7891E+06    -123.313E+06    -34.8770E+06    -25.7680E+06
            1593     84.1973E-03     10.6901E-03     83.5159E-03     57.5913E-03    -28.6919E-03    -28.9039E-03    -28.4461E-03     57.1334E-03    -28.6919E-03     12.5456E-03     86.8019E-03     86.3626E+06    -17.3071E+06    -42.9216E+06    -113.223E+06    -23.1400E+06    -107.390E+06    -42.9216E+06    -22.8641E+06
            1594     84.3390E-03     11.6616E-03     83.5289E-03     57.4751E-03    -28.5772E-03    -28.9380E-03    -28.2917E-03     56.8288E-03    -28.5772E-03     14.7155E-03     94.6335E-03     63.2805E+06    -15.9532E+06    -56.1204E+06    -85.1681E+06    -21.5060E+06    -79.3534E+06    -56.3823E+06    -18.5005E+06
            1595     84.4970E-03     12.6346E-03     83.5471E-03     57.6933E-03    -28.4171E-03    -29.3425E-03    -27.9501E-03     56.3008E-03    -28.4171E-03     21.3837E-03     106.062E-03     59.3318E+06    -9.12352E+06    -44.6512E+06    -73.1968E+06    -20.8539E+06    -34.0191E+06    -72.0985E+06    -12.0844E+06
            1596     84.6744E-03     13.6080E-03     83.5738E-03     58.7851E-03    -28.2812E-03    -30.5632E-03    -27.7099E-03     55.9317E-03    -28.2812E-03     31.0124E-03     128.654E-03     101.630E+06     37.5207E+06    -23.4798E+06    -77.4104E+06    -21.5234E+06     35.5644E+06    -77.4104E+06    -3.96190E+06
            1597     84.8751E-03     14.5788E-03     83.6136E-03     78.2545E-03    -28.3649E-03    -49.9408E-03    -28.9167E-03     57.2304E-03    -28.3649E-03     87.8461E-03     181.896E-03     137.358E+06     102.397E+06    -12.0663E+06    -48.4930E+06    -21.6268E+06     102.276E+06    -38.8114E+06     2.85932E+06
            1598     85.1924E-03     15.5571E-03     83.7599E-03     168.215E-03    -28.6920E-03    -139.510E-03    -43.0534E-03     71.7587E-03    -28.6920E-03     283.491E-03     400.081E-03     159.012E+06     158.873E+06     52.8952E+06    -17.6541E+06    -17.5411E+06     158.760E+06     52.8952E+06     3.46848E+06
            1599     85.8407E-03     16.5282E-03     84.2344E-03     218.735E-03    -29.0270E-03    -189.760E-03    -50.6883E-03     79.6637E-03    -29.0270E-03     387.127E-03     611.233E-03     195.843E+06     208.839E+06     145.699E+06    -9.29150E+06    -9.27914E+06     208.827E+06     145.699E+06     1.02325E+06
            1600     84.5135E-03     971.660E-06     84.5079E-03     58.0976E-03    -28.9136E-03    -29.1861E-03    -29.1241E-03     58.0930E-03    -28.9708E-03     1.11333E-03     58.3674E-03     161.330E+06    -45.1489E+06    -46.1520E+06    -206.977E+06    -45.8734E+06    -206.721E+06    -45.6829E+06    -5.51127E+06
            1601     84.5313E-03     1.94285E-03     84.5090E-03     58.0239E-03    -28.9577E-03    -29.0674E-03    -28.9934E-03     58.0087E-03    -29.0165E-03     2.23766E-03     58.8127E-03     142.482E+06    -45.5353E+06    -47.1643E+06    -188.820E+06    -46.3766E+06    -187.982E+06    -47.1615E+06    -10.5163E+06
            1602     84.5627E-03     2.91493E-03     84.5125E-03     57.9853E-03    -28.9527E-03    -29.0326E-03    -28.9459E-03     57.9518E-03    -29.0058E-03     3.36385E-03     59.6649E-03     138.789E+06    -41.8332E+06    -44.1886E+06    -181.780E+06    -44.6382E+06    -180.145E+06    -43.0189E+06    -14.6288E+06
            1603     84.6055E-03     3.88631E-03     84.5162E-03     58.0077E-03    -28.9610E-03    -29.0469E-03    -28.9377E-03     57.9521E-03    -29.0147E-03     4.37282E-03     60.9552E-03     139.270E+06    -36.3805E+06    -38.8396E+06    -176.859E+06    -41.4094E+06    -174.289E+06    -36.3805E+06    -18.3024E+06
            1604     84.6605E-03     4.85801E-03     84.5210E-03     57.9894E-03    -28.9764E-03    -29.0152E-03    -28.8998E-03     57.9073E-03    -29.0098E-03     5.31713E-03     62.6382E-03     133.409E+06    -32.9912E+06    -35.6509E+06    -167.705E+06    -38.9594E+06    -164.080E+06    -33.3085E+06    -21.4909E+06
            1605     84.7278E-03     5.82956E-03     84.5271E-03     57.8806E-03    -28.8942E-03    -28.9859E-03    -28.7806E-03     57.7670E-03    -28.9859E-03     6.25950E-03     64.7067E-03     131.099E+06    -29.3514E+06    -32.3915E+06    -161.932E+06    -35.7936E+06    -156.542E+06    -31.3386E+06    -25.7613E+06
            1606     84.8070E-03     6.80155E-03     84.5339E-03     57.7812E-03    -28.8299E-03    -28.9386E-03    -28.6763E-03     57.6276E-03    -28.9386E-03     7.26445E-03     67.3861E-03     128.032E+06    -25.4492E+06    -30.2493E+06    -155.796E+06    -32.4820E+06    -148.763E+06    -30.2493E+06    -29.3076E+06
            1607     84.8989E-03     7.77361E-03     84.5423E-03     57.7955E-03    -28.8510E-03    -28.9130E-03    -28.6800E-03     57.6005E-03    -28.8889E-03     8.20514E-03     70.8556E-03     122.159E+06    -22.3073E+06    -30.6152E+06    -148.389E+06    -29.9801E+06    -140.716E+06    -30.6152E+06    -30.0725E+06
            1608     85.0019E-03     8.74511E-03     84.5508E-03     57.7016E-03    -28.8111E-03    -28.8662E-03    -28.5862E-03     57.4527E-03    -28.8421E-03     9.24138E-03     75.0392E-03     115.068E+06    -19.6817E+06    -32.2832E+06    -140.505E+06    -27.8923E+06    -132.295E+06    -32.2832E+06    -30.3216E+06
            1609     85.1181E-03     9.71748E-03     84.5616E-03     57.6602E-03    -28.7536E-03    -28.8932E-03    -28.4918E-03     57.2898E-03    -28.7847E-03     11.2189E-03     80.4401E-03     105.409E+06    -17.2271E+06    -36.6299E+06    -130.842E+06    -25.5540E+06    -122.515E+06    -36.6299E+06    -29.5332E+06
            1610     85.2470E-03     10.6893E-03     84.5742E-03     57.6050E-03    -28.6941E-03    -28.9081E-03    -28.4456E-03     57.1553E-03    -28.7068E-03     12.4355E-03     86.7085E-03     90.5531E+06    -14.8128E+06    -44.7133E+06    -116.158E+06    -22.7522E+06    -108.218E+06    -44.7133E+06    -27.1475E+06
            1611     85.3879E-03     11.6620E-03     84.5878E-03     57.4552E-03    -28.5727E-03    -28.9173E-03    -28.2635E-03     56.8142E-03    -28.5855E-03     14.6409E-03     94.3628E-03     70.2126E+06    -13.6009E+06    -59.1381E+06    -90.9067E+06    -21.2843E+06    -83.2233E+06    -59.1381E+06    -22.9052E+06
            1612     85.5427E-03     12.6342E-03     84.6045E-03     57.8463E-03    -28.4305E-03    -29.4826E-03    -28.0955E-03     56.4593E-03    -28.4305E-03     21.3911E-03     105.902E-03     62.9497E+06    -9.24830E+06    -50.1910E+06    -77.9172E+06    -21.1246E+06    -40.8189E+06    -75.4129E+06    -16.2673E+06
            1613     85.7197E-03     13.6063E-03     84.6330E-03     58.7834E-03    -28.2889E-03    -30.5528E-03    -27.6803E-03     55.9108E-03    -28.2889E-03     31.0806E-03     128.274E-03     99.7618E+06     30.8949E+06    -26.2536E+06    -83.2213E+06    -20.9424E+06     25.5838E+06    -83.2213E+06    -7.66981E+06
            1614     85.9169E-03     14.5821E-03     84.6704E-03     78.1256E-03    -28.3634E-03    -49.8198E-03    -29.0841E-03     57.3899E-03    -28.3634E-03     87.5317E-03     181.537E-03     136.350E+06     97.1187E+06    -13.7599E+06    -52.0652E+06    -20.2051E+06     97.0044E+06    -45.5058E+06    -355.186E+03
            1615     86.2323E-03     15.5514E-03     84.8185E-03     168.000E-03    -28.7227E-03    -139.266E-03    -43.5236E-03     72.2581E-03    -28.7227E-03     282.485E-03     399.542E-03     160.390E+06     160.822E+06     49.3644E+06    -16.1481E+06    -16.0803E+06     160.755E+06     49.3644E+06     1.68647E+06
            1616     86.8753E-03     16.5306E-03     85.2881E-03     218.843E-03    -29.0708E-03    -189.790E-03    -50.2341E-03     79.2870E-03    -29.0708E-03     387.553E-03     611.370E-03     196.660E+06     210.519E+06     143.979E+06     -9.0262E+06    -9.01388E+06     210.506E+06     143.979E+06     1.22994E+06
            1617     85.5721E-03     971.698E-06     85.5666E-03     58.0215E-03    -28.9396E-03    -29.0821E-03    -29.0665E-03     58.0161E-03    -28.9498E-03     1.26290E-03     58.2832E-03     149.044E+06    -46.9744E+06    -47.6151E+06    -196.336E+06    -47.2116E+06    -196.102E+06    -47.6123E+06    -5.08857E+06
            1618     85.5905E-03     1.94324E-03     85.5684E-03     58.1005E-03    -29.0068E-03    -29.0935E-03    -29.0764E-03     58.0843E-03    -29.0078E-03     2.31425E-03     58.8876E-03     130.141E+06    -46.6579E+06    -47.1573E+06    -177.047E+06    -47.7204E+06    -176.126E+06    -47.0155E+06    -10.3689E+06
            1619     85.6206E-03     2.91427E-03     85.5710E-03     58.0226E-03    -28.9796E-03    -29.0429E-03    -28.9658E-03     57.9877E-03    -29.0219E-03     3.42666E-03     59.6974E-03     125.939E+06    -44.5479E+06    -45.9650E+06    -171.185E+06    -47.7139E+06    -169.149E+06    -44.8350E+06    -15.6767E+06
            1620     85.6634E-03     3.88637E-03     85.5752E-03     57.9703E-03    -28.9445E-03    -29.0250E-03    -28.8983E-03     57.9147E-03    -29.0156E-03     4.37504E-03     60.9184E-03     126.540E+06    -40.7212E+06    -43.1813E+06    -168.469E+06    -46.1306E+06    -164.986E+06    -41.2550E+06    -20.3304E+06
            1621     85.7179E-03     4.85783E-03     85.5801E-03     57.9558E-03    -28.9521E-03    -29.0046E-03    -28.8752E-03     57.8734E-03    -28.9991E-03     5.31787E-03     62.5909E-03     123.433E+06    -34.9096E+06    -38.2774E+06    -159.979E+06    -41.3749E+06    -154.449E+06    -37.3420E+06    -25.0638E+06
            1622     85.7842E-03     5.82961E-03     85.5859E-03     57.9397E-03    -28.9557E-03    -28.9867E-03    -28.8429E-03     57.8244E-03    -28.9842E-03     6.31291E-03     64.7466E-03     122.998E+06    -29.0999E+06    -33.1292E+06    -154.048E+06    -36.4499E+06    -146.698E+06    -33.1292E+06    -29.1484E+06
            1623     85.8625E-03     6.80117E-03     85.5927E-03     57.8947E-03    -28.9131E-03    -28.9741E-03    -28.7708E-03     57.7390E-03    -28.9608E-03     7.32006E-03     67.4864E-03     122.556E+06    -25.5580E+06    -30.8517E+06    -150.667E+06    -33.9106E+06    -142.315E+06    -30.8517E+06    -31.2001E+06
            1624     85.9528E-03     7.77298E-03     85.6006E-03     57.7955E-03    -28.8289E-03    -28.9363E-03    -28.6531E-03     57.5956E-03    -28.9122E-03     8.30197E-03     70.8226E-03     117.832E+06    -22.4817E+06    -32.0609E+06    -144.754E+06    -31.9728E+06    -135.263E+06    -32.0609E+06    -32.5860E+06
            1625     86.0555E-03     8.74511E-03     85.6100E-03     57.7159E-03    -28.7853E-03    -28.8990E-03    -28.5784E-03     57.4685E-03    -28.8584E-03     9.22593E-03     74.9762E-03     112.989E+06    -18.4966E+06    -33.8332E+06    -138.325E+06    -29.0495E+06    -127.772E+06    -33.8332E+06    -33.8501E+06
            1626     86.1689E-03     9.71697E-03     85.6193E-03     57.7104E-03    -28.7681E-03    -28.9114E-03    -28.5023E-03     57.3274E-03    -28.7942E-03     11.3778E-03     80.3889E-03     106.355E+06    -15.0495E+06    -38.8942E+06    -131.102E+06    -26.1519E+06    -120.000E+06    -38.8942E+06    -34.0151E+06
            1627     86.2982E-03     10.6892E-03     85.6336E-03     57.5353E-03    -28.7008E-03    -28.8235E-03    -28.3548E-03     57.0794E-03    -28.7136E-03     12.5070E-03     86.5480E-03     94.7223E+06    -12.6211E+06    -47.3333E+06    -119.537E+06    -23.4107E+06    -108.748E+06    -47.3333E+06    -32.1095E+06
            1628     86.4351E-03     11.6614E-03     85.6448E-03     57.4028E-03    -28.5763E-03    -28.8637E-03    -28.1932E-03     56.7451E-03    -28.5890E-03     14.7508E-03     94.1038E-03     77.5857E+06    -10.6621E+06    -61.4087E+06    -96.7908E+06    -20.9907E+06    -86.4623E+06    -61.4087E+06    -27.7928E+06
            1629     86.5908E-03     12.6340E-03     85.6642E-03     57.7786E-03    -28.4287E-03    -29.4155E-03    -27.9737E-03     56.3368E-03    -28.4287E-03     21.8164E-03     105.610E-03     68.4963E+06    -6.91569E+06    -55.7391E+06    -82.8166E+06    -19.5771E+06    -47.9106E+06    -77.9836E+06    -21.2803E+06
            1630     86.7635E-03     13.6073E-03     85.6898E-03     59.1410E-03    -28.2907E-03    -30.9052E-03    -27.9623E-03     56.1981E-03    -28.2907E-03     31.6129E-03     128.061E-03     98.1194E+06     26.8521E+06    -30.2784E+06    -86.2567E+06    -19.3975E+06     15.9713E+06    -86.2567E+06    -12.4798E+06
            1631     86.9596E-03     14.5784E-03     85.7289E-03     78.2297E-03    -28.3558E-03    -49.9224E-03    -29.2757E-03     57.5830E-03    -28.3558E-03     87.3778E-03     181.629E-03     135.380E+06     92.6336E+06    -16.8040E+06    -54.2327E+06    -18.6104E+06     92.1586E+06    -51.9512E+06    -4.33542E+06
            1632     87.2743E-03     15.5558E-03     85.8768E-03     168.607E-03    -28.7283E-03    -139.847E-03    -44.3351E-03     73.0946E-03    -28.7283E-03     283.222E-03     399.031E-03     162.310E+06     160.187E+06     42.9147E+06    -17.6606E+06    -16.2322E+06     160.172E+06     41.5013E+06     412.891E+03
            1633     87.9129E-03     16.5230E-03     86.3462E-03     218.738E-03    -29.1021E-03    -189.653E-03    -49.8452E-03     78.9303E-03    -29.1021E-03     387.543E-03     611.117E-03     197.010E+06     210.300E+06     140.227E+06    -10.0916E+06    -10.0780E+06     210.287E+06     140.227E+06     1.31225E+06
            1634     86.6307E-03     971.509E-06     86.6253E-03     58.0304E-03    -28.8848E-03    -29.1441E-03    -29.0962E-03     58.0245E-03    -28.9268E-03     1.34568E-03     58.2952E-03     137.299E+06    -47.3027E+06    -48.9100E+06    -185.390E+06    -47.6733E+06    -185.020E+06    -48.9100E+06    -6.49659E+06
            1635     86.6493E-03     1.94298E-03     86.6275E-03     58.0299E-03    -28.9564E-03    -29.0719E-03    -29.0126E-03     58.0125E-03    -28.9983E-03     2.39446E-03     58.8087E-03     119.276E+06    -45.8431E+06    -47.1459E+06    -165.757E+06    -47.1073E+06    -164.708E+06     -46.931E+06    -10.7231E+06
            1636     86.6790E-03     2.91490E-03     86.6300E-03     58.1226E-03    -29.0221E-03    -29.1001E-03    -29.0662E-03     58.0887E-03    -29.0221E-03     3.39930E-03     59.8001E-03     117.383E+06    -41.5406E+06    -42.7686E+06    -159.529E+06    -44.9102E+06    -157.206E+06    -41.7218E+06    -16.0072E+06
            1637     86.7213E-03     3.88586E-03     86.6342E-03     58.0170E-03    -28.9608E-03    -29.0551E-03    -28.9272E-03     57.9614E-03    -29.0331E-03     4.35341E-03     60.9760E-03     119.695E+06    -36.9268E+06    -38.9389E+06    -157.612E+06    -42.0471E+06    -153.324E+06    -38.1071E+06    -21.9874E+06
            1638     86.7749E-03     4.85778E-03     86.6389E-03     57.9031E-03    -28.9002E-03    -29.0028E-03    -28.8146E-03     57.8175E-03    -29.0028E-03     5.41716E-03     62.5092E-03     115.006E+06    -33.1379E+06    -36.5745E+06    -149.813E+06    -40.4350E+06    -142.515E+06    -36.5745E+06    -27.9012E+06
            1639     86.8409E-03     5.82943E-03     86.6450E-03     57.9405E-03    -28.9450E-03    -28.9961E-03    -28.8301E-03     57.8231E-03    -28.9936E-03     6.37043E-03     64.7185E-03     116.304E+06    -29.4469E+06    -32.7411E+06    -147.349E+06    -38.9037E+06    -137.892E+06    -32.7411E+06    -31.9170E+06
            1640     86.9179E-03     6.80123E-03     86.6514E-03     57.9598E-03    -28.9581E-03    -28.9942E-03    -28.8114E-03     57.7999E-03    -28.9809E-03     7.42158E-03     67.5565E-03     119.497E+06    -24.3457E+06    -29.4706E+06    -146.265E+06    -34.8458E+06    -135.765E+06    -29.4706E+06    -33.9985E+06
            1641     87.0077E-03     7.77290E-03     86.6598E-03     57.8449E-03    -28.8765E-03    -28.9421E-03    -28.6865E-03     57.6407E-03    -28.9280E-03     8.39903E-03     70.8710E-03     115.841E+06    -18.8066E+06    -30.9012E+06    -140.158E+06    -30.6407E+06    -128.324E+06    -30.9012E+06    -35.8980E+06
            1642     87.1083E-03     8.74488E-03     86.6682E-03     57.7354E-03    -28.8008E-03    -28.9053E-03    -28.5774E-03     57.4813E-03    -28.8746E-03     9.34446E-03     75.0101E-03     112.575E+06    -14.7430E+06    -32.9893E+06    -135.294E+06    -27.8347E+06    -122.203E+06    -32.9893E+06    -37.4346E+06
            1643     87.2217E-03     9.71678E-03     86.6788E-03     57.6400E-03    -28.7769E-03    -28.8422E-03    -28.4297E-03     57.2565E-03    -28.8059E-03     11.3957E-03     80.3870E-03     107.903E+06    -11.3945E+06    -38.0167E+06    -129.955E+06    -25.3431E+06    -116.006E+06    -38.0167E+06    -38.1436E+06
            1644     87.3473E-03     10.6891E-03     86.6908E-03     57.4502E-03    -28.7089E-03    -28.7434E-03    -28.2727E-03     56.9849E-03    -28.7143E-03     12.6265E-03     86.4894E-03     99.7810E+06    -9.12782E+06    -48.0322E+06    -122.147E+06    -23.1207E+06    -108.154E+06    -48.0322E+06    -37.1528E+06
            1645     87.4849E-03     11.6616E-03     86.7042E-03     57.3622E-03    -28.5825E-03    -28.8193E-03    -28.1496E-03     56.6956E-03    -28.5857E-03     14.8863E-03     94.1515E-03     85.8695E+06    -6.61721E+06    -63.4021E+06    -102.840E+06    -20.7367E+06    -88.7203E+06    -63.4021E+06    -33.8455E+06
            1646     87.6364E-03     12.6344E-03     86.7209E-03     57.7781E-03    -28.4276E-03    -29.4156E-03    -28.0228E-03     56.3854E-03    -28.4276E-03     21.4799E-03     105.752E-03     76.2993E+06    -3.11068E+06    -62.0443E+06    -88.1573E+06    -18.7142E+06    -54.2607E+06    -80.3374E+06    -27.5497E+06
            1647     87.8092E-03     13.6075E-03     86.7485E-03     59.1892E-03    -28.2921E-03    -30.9543E-03    -27.9329E-03     56.1678E-03    -28.2921E-03     31.8983E-03     128.226E-03     97.3926E+06     23.1808E+06    -35.9031E+06    -88.8410E+06    -18.4533E+06     5.73104E+06    -88.8410E+06    -17.4926E+06
            1648     88.0055E-03     14.5802E-03     86.7893E-03     78.1187E-03    -28.3366E-03    -49.8421E-03    -29.2868E-03     57.5634E-03    -28.3366E-03     87.5430E-03     181.835E-03     132.546E+06     84.6726E+06    -20.5127E+06    -58.8183E+06    -19.4862E+06     83.6460E+06    -58.8183E+06    -6.65257E+06
            1649     88.3105E-03     15.5516E-03     86.9304E-03     169.725E-03    -28.6520E-03    -141.077E-03    -44.0842E-03     72.7321E-03    -28.6520E-03     285.794E-03     399.367E-03     163.187E+06     157.026E+06     34.5993E+06    -21.8693E+06    -18.1904E+06     157.007E+06     30.9386E+06    -701.402E+03
            1650     88.9624E-03     16.5293E-03     87.4133E-03     218.940E-03    -29.0157E-03    -189.963E-03    -49.7606E-03     78.7376E-03    -29.0157E-03     388.165E-03     610.795E-03     197.217E+06     210.079E+06     135.371E+06    -10.7951E+06    -10.7920E+06     210.076E+06     135.371E+06    -128.493E+03
            1651     87.6902E-03     971.381E-06     87.6848E-03     58.1338E-03    -28.9335E-03    -29.1967E-03    -29.1486E-03     58.1277E-03    -28.9755E-03     1.38827E-03     58.4003E-03     132.850E+06    -38.6817E+06    -39.9968E+06    -172.176E+06    -39.4010E+06    -171.709E+06    -39.7445E+06    -7.30024E+06
            1652     87.7073E-03     1.94333E-03     87.6857E-03     58.1481E-03    -28.9978E-03    -29.1473E-03    -29.0823E-03     58.1304E-03    -29.0451E-03     2.41426E-03     58.9288E-03     115.041E+06    -37.1827E+06    -40.2563E+06    -153.702E+06    -38.8516E+06    -152.308E+06    -39.9819E+06    -12.1510E+06
            1653     87.7385E-03     2.91422E-03     87.6900E-03     58.0826E-03    -28.9828E-03    -29.1020E-03    -29.0083E-03     58.0512E-03    -29.0451E-03     3.29028E-03     59.7625E-03     111.842E+06    -34.7074E+06    -37.1291E+06    -147.714E+06    -37.8092E+06    -144.688E+06    -37.0533E+06    -17.9505E+06
            1654     87.7788E-03     3.88616E-03     87.6928E-03     58.0046E-03    -28.9388E-03    -29.0677E-03    -28.9020E-03     57.9496E-03    -29.0496E-03     4.30953E-03     60.9657E-03     115.237E+06    -30.2018E+06    -31.2606E+06    -145.963E+06    -35.4224E+06    -140.772E+06    -31.2312E+06    -23.7094E+06
            1655     87.8325E-03     4.85772E-03     87.6981E-03     57.9701E-03    -28.9395E-03    -29.0313E-03    -28.8513E-03     57.8819E-03    -29.0313E-03     5.51351E-03     62.5762E-03     111.874E+06    -26.0367E+06    -27.7261E+06    -138.741E+06    -33.5086E+06    -131.298E+06    -27.6966E+06    -27.7649E+06
            1656     87.8970E-03     5.82945E-03     87.7035E-03     57.9765E-03    -28.9548E-03    -29.0171E-03    -28.8363E-03     57.8579E-03    -29.0171E-03     6.40273E-03     64.7647E-03     113.259E+06    -23.0371E+06    -26.0488E+06    -137.754E+06    -32.9438E+06    -127.847E+06    -26.0488E+06    -32.1321E+06
            1657     87.9738E-03     6.80106E-03     87.7106E-03     57.9385E-03    -28.9423E-03    -28.9834E-03    -28.7838E-03     57.7800E-03    -28.9834E-03     7.39190E-03     67.5393E-03     116.295E+06    -19.7596E+06    -27.2378E+06    -139.548E+06    -32.4011E+06    -126.906E+06    -27.2378E+06    -36.7291E+06
            1658     88.0620E-03     7.77298E-03     87.7183E-03     57.8427E-03    -28.8852E-03    -28.9285E-03    -28.6845E-03     57.6385E-03    -28.9251E-03     8.39375E-03     70.8606E-03     114.029E+06    -15.3856E+06    -30.2735E+06    -136.064E+06    -30.1264E+06    -121.323E+06    -30.2735E+06    -39.3831E+06
            1659     88.1618E-03     8.74464E-03     87.7271E-03     57.6965E-03    -28.7913E-03    -28.8757E-03    -28.5343E-03     57.4360E-03    -28.8723E-03     9.45414E-03     74.9992E-03     112.171E+06    -10.4542E+06    -31.9631E+06    -131.760E+06    -26.6871E+06    -115.527E+06    -31.9631E+06    -41.1589E+06
            1660     88.2731E-03     9.71694E-03     87.7366E-03     57.6159E-03    -28.7457E-03    -28.8561E-03    -28.4116E-03     57.2315E-03    -28.8058E-03     11.4233E-03     80.3983E-03     110.231E+06    -6.16880E+06    -36.4334E+06    -128.214E+06    -23.3348E+06    -111.048E+06    -36.4334E+06    -42.3527E+06
            1661     88.3983E-03     10.6892E-03     87.7496E-03     57.4873E-03    -28.7082E-03    -28.7819E-03    -28.3227E-03     57.0337E-03    -28.7137E-03     12.4707E-03     86.6000E-03     105.388E+06    -3.15964E+06    -47.1231E+06    -122.991E+06    -20.7214E+06    -105.429E+06    -47.1231E+06    -42.3055E+06
            1662     88.5331E-03     11.6617E-03     87.7617E-03     57.4436E-03    -28.5827E-03    -28.8939E-03    -28.2509E-03     56.8039E-03    -28.5859E-03     14.6076E-03     94.3793E-03     94.8410E+06    -868.780E+03    -64.0155E+06    -108.017E+06    -18.9832E+06    -89.9024E+06    -64.0155E+06    -40.0551E+06
            1663     88.6841E-03     12.6340E-03     87.7796E-03     57.9576E-03    -28.4377E-03    -29.5813E-03    -28.1874E-03     56.5637E-03    -28.4377E-03     21.4716E-03     106.125E-03     84.9273E+06     1.06573E+06    -67.9101E+06    -93.6325E+06    -17.9036E+06    -60.3901E+06    -82.1832E+06    -33.6933E+06
            1664     88.8546E-03     13.6057E-03     87.8068E-03     58.8532E-03    -28.2991E-03    -30.6143E-03    -27.6302E-03     55.8692E-03    -28.2991E-03     31.6152E-03     128.314E-03     96.7586E+06     17.2975E+06    -42.8941E+06    -93.1325E+06    -18.4372E+06    -7.15947E+06    -93.1325E+06    -22.0916E+06
            1665     89.0471E-03     14.5809E-03     87.8452E-03     77.8530E-03    -28.2967E-03    -49.6272E-03    -29.0043E-03     57.2302E-03    -28.2967E-03     87.4718E-03     181.722E-03     129.243E+06     73.9701E+06    -21.6559E+06    -68.3096E+06    -19.2281E+06     71.5424E+06    -68.3096E+06    -9.07777E+06
            1666     89.3572E-03     15.5552E-03     87.9929E-03     168.695E-03    -28.5444E-03    -140.162E-03    -42.5289E-03     71.0622E-03    -28.5444E-03     284.818E-03     399.709E-03     162.823E+06     154.092E+06     32.4347E+06    -27.0649E+06    -16.3344E+06     154.050E+06     21.7463E+06    -2.03287E+06
            1667     89.9950E-03     16.5313E-03     88.4636E-03     219.604E-03    -28.9017E-03    -190.703E-03    -49.8473E-03     78.7484E-03    -28.9017E-03     389.599E-03     611.024E-03     196.463E+06     210.688E+06     132.942E+06    -9.28558E+06    -9.28208E+06     210.685E+06     132.942E+06    -744.488E+03
            1668     88.7484E-03     971.880E-06     88.7431E-03     58.3962E-03    -29.0843E-03    -29.3106E-03    -29.2814E-03     58.3907E-03    -29.1081E-03     1.28313E-03     58.6557E-03     128.238E+06    -28.3868E+06    -29.4250E+06    -157.138E+06    -29.1958E+06    -156.693E+06    -29.0605E+06    -6.68632E+06
            1669     88.7674E-03     1.94240E-03     88.7462E-03     58.2317E-03    -29.0213E-03    -29.2089E-03    -29.0691E-03     58.2161E-03    -29.1455E-03     2.28021E-03     59.0098E-03     111.567E+06    -27.7956E+06    -31.1949E+06    -141.003E+06    -29.7027E+06    -139.294E+06    -30.9963E+06    -13.0533E+06
            1670     88.7960E-03     2.91457E-03     88.7481E-03     57.9798E-03    -28.8992E-03    -29.0819E-03    -28.8666E-03     57.9472E-03    -29.0819E-03     3.31633E-03     59.6593E-03     106.851E+06    -26.2741E+06    -29.8364E+06    -134.845E+06    -29.8034E+06    -131.316E+06    -29.8364E+06    -19.1046E+06
            1671     88.8375E-03     3.88609E-03     88.7524E-03     58.0075E-03    -28.9574E-03    -29.0529E-03    -28.9024E-03     57.9525E-03    -29.0529E-03     4.34610E-03     60.9657E-03     110.011E+06    -23.5292E+06    -25.2224E+06    -134.374E+06    -29.2694E+06    -128.663E+06    -25.1930E+06    -24.3067E+06
            1672     88.8894E-03     4.85773E-03     88.7566E-03     58.0255E-03    -28.9933E-03    -29.0340E-03    -28.9069E-03     57.9390E-03    -29.0340E-03     5.44496E-03     62.6307E-03     107.843E+06    -19.6240E+06    -23.1058E+06    -129.109E+06    -27.9019E+06    -120.861E+06    -23.0763E+06    -28.6489E+06
            1673     88.9543E-03     5.82938E-03     88.7631E-03     58.0036E-03    -28.9705E-03    -29.0269E-03    -28.8527E-03     57.8858E-03    -29.0269E-03     6.38964E-03     64.7831E-03     109.932E+06    -15.0301E+06    -20.0994E+06    -127.363E+06    -25.4916E+06    -116.902E+06    -20.0994E+06    -32.4844E+06
            1674     89.0294E-03     6.80112E-03     88.7693E-03     57.9417E-03    -28.9192E-03    -29.0046E-03    -28.7653E-03     57.7878E-03    -29.0046E-03     7.28236E-03     67.5484E-03     114.153E+06    -11.5966E+06    -19.0086E+06    -129.240E+06    -24.3049E+06    -116.531E+06    -19.0086E+06    -36.4586E+06
            1675     89.1169E-03     7.77282E-03     88.7772E-03     57.7591E-03    -28.7940E-03    -28.9301E-03    -28.5900E-03     57.5551E-03    -28.9301E-03     8.37652E-03     70.7876E-03     113.302E+06    -7.78772E+06    -24.5695E+06    -128.389E+06    -24.0310E+06    -112.145E+06    -24.5695E+06    -41.0467E+06
            1676     89.2152E-03     8.74507E-03     88.7856E-03     57.6509E-03    -28.7409E-03    -28.8787E-03    -28.5068E-03     57.3900E-03    -28.8519E-03     9.46606E-03     74.9227E-03     112.992E+06    -3.11332E+06    -29.9774E+06    -127.055E+06    -22.6088E+06    -107.559E+06    -29.9774E+06    -45.0931E+06
            1677     89.3254E-03     9.71703E-03     88.7953E-03     57.6675E-03    -28.7558E-03    -28.8988E-03    -28.4817E-03     57.2815E-03    -28.7869E-03     11.4456E-03     80.4275E-03     113.075E+06     327.191E+03    -35.4871E+06    -126.181E+06    -20.4134E+06    -105.440E+06    -35.4871E+06     -46.807E+06
            1678     89.4491E-03     10.6890E-03     88.8081E-03     57.6005E-03    -28.7088E-03    -28.8978E-03    -28.4411E-03     57.1438E-03    -28.7088E-03     12.5284E-03     86.6840E-03     109.878E+06     2.99914E+06    -45.9344E+06    -122.497E+06    -18.4789E+06    -101.019E+06    -45.9344E+06    -47.2045E+06
            1679     89.5823E-03     11.6612E-03     88.8200E-03     57.5739E-03    -28.5956E-03    -29.0156E-03    -28.3484E-03     56.9066E-03    -28.5956E-03     14.8956E-03     94.4666E-03     102.559E+06     4.89316E+06    -62.8877E+06    -111.666E+06    -17.0541E+06    -89.7191E+06    -62.8877E+06    -45.4872E+06
            1680     89.7319E-03     12.6335E-03     88.8381E-03     57.8330E-03    -28.4454E-03    -29.4466E-03    -28.0249E-03     56.4113E-03    -28.4454E-03     21.7034E-03     106.017E-03     93.2307E+06     4.50172E+06    -74.0154E+06    -98.1081E+06    -16.9965E+06    -67.6166E+06    -83.0087E+06    -39.1907E+06
            1681     89.9001E-03     13.6077E-03     88.8642E-03     59.0045E-03    -28.3025E-03    -30.7549E-03    -27.7786E-03     56.0282E-03    -28.3025E-03     31.6658E-03     128.333E-03     96.9983E+06     12.5158E+06    -50.6351E+06    -95.8093E+06    -17.2296E+06    -20.8898E+06    -95.8093E+06    -26.7467E+06
            1682     90.0909E-03     14.5793E-03     88.9034E-03     77.7530E-03    -28.2595E-03    -49.5548E-03    -28.8208E-03     57.0190E-03    -28.2595E-03     87.2956E-03     181.528E-03     126.736E+06     64.5934E+06    -22.6053E+06    -77.3524E+06    -17.4338E+06     59.4219E+06    -77.3524E+06    -13.3620E+06
            1683     90.3967E-03     15.5536E-03     89.0486E-03     166.631E-03    -28.4969E-03    -138.133E-03    -42.2646E-03     70.7633E-03    -28.4969E-03     280.916E-03     398.702E-03     162.737E+06     149.438E+06     28.4065E+06    -34.1432E+06    -15.2401E+06     149.101E+06     9.84027E+06    -4.60807E+06
            1684     91.0298E-03     16.5329E-03     89.5158E-03     219.547E-03    -28.8958E-03    -190.622E-03    -49.5333E-03     78.4585E-03    -28.8958E-03     389.656E-03     610.997E-03     195.250E+06     209.723E+06     127.934E+06    -8.79192E+06    -8.78765E+06     209.719E+06     127.934E+06    -681.404E+03
            1685     89.8091E-03     970.624E-06     89.8038E-03     58.5109E-03    -29.0610E-03    -29.4510E-03    -29.3314E-03     58.5041E-03    -29.1739E-03     1.45796E-03     58.7740E-03     119.019E+06    -23.4679E+06    -24.8291E+06    -143.159E+06    -24.4380E+06    -142.668E+06    -24.3503E+06    -6.95503E+06
            1686     89.8258E-03     1.94293E-03     89.8048E-03     58.1416E-03    -28.9634E-03    -29.1790E-03    -28.9480E-03     58.1262E-03    -29.1790E-03     2.28821E-03     58.9184E-03     105.272E+06    -20.9005E+06    -23.7900E+06    -127.582E+06    -23.2739E+06    -125.576E+06    -23.4234E+06    -13.5057E+06
            1687     89.8548E-03     2.91440E-03     89.8076E-03     58.0096E-03    -28.9277E-03    -29.0821E-03    -28.8951E-03     57.9770E-03    -29.0821E-03     3.30378E-03     59.6796E-03     101.933E+06    -18.0297E+06    -21.8534E+06    -121.816E+06    -21.9951E+06    -117.851E+06    -21.8534E+06    -19.8037E+06
            1688     89.8954E-03     3.88616E-03     89.8113E-03     58.0469E-03    -28.9952E-03    -29.0531E-03    -28.9430E-03     57.9905E-03    -29.0488E-03     4.40421E-03     60.9965E-03     105.112E+06    -15.0528E+06    -19.3358E+06    -122.228E+06    -21.1016E+06    -116.180E+06    -19.3358E+06    -24.5276E+06
            1689     89.9474E-03     4.85767E-03     89.8161E-03     58.0433E-03    -28.9995E-03    -29.0467E-03    -28.9192E-03     57.9588E-03    -29.0425E-03     5.39233E-03     62.6635E-03     104.910E+06    -10.5806E+06    -16.2608E+06    -118.182E+06    -19.6456E+06    -109.117E+06    -16.2608E+06    -29.6963E+06
            1690     90.0107E-03     5.82936E-03     89.8217E-03     57.9212E-03    -28.8986E-03    -29.0241E-03    -28.7783E-03     57.8009E-03    -29.0241E-03     6.43223E-03     64.7074E-03     108.361E+06    -7.06626E+06    -13.6969E+06     -118.54E+06    -18.3506E+06    -107.256E+06    -13.6969E+06    -33.5984E+06
            1691     90.0857E-03     6.80101E-03     89.8286E-03     57.8446E-03    -28.8387E-03    -28.9867E-03    -28.6783E-03     57.6841E-03    -28.9867E-03     7.43053E-03     67.4133E-03     112.058E+06    -2.72857E+06    -12.9639E+06    -119.441E+06    -16.3053E+06    -105.864E+06    -12.9639E+06    -37.2756E+06
            1692     90.1713E-03     7.77312E-03     89.8356E-03     57.7455E-03    -28.7970E-03    -28.9177E-03    -28.5927E-03     57.5412E-03    -28.9177E-03     8.38600E-03     70.7086E-03     112.459E+06     3.35937E+06    -17.2932E+06    -117.791E+06    -13.9791E+06    -100.452E+06    -17.2932E+06    -42.2851E+06
            1693     90.2690E-03     8.74512E-03     89.8444E-03     57.6325E-03    -28.7557E-03    -28.8682E-03    -28.5180E-03     57.3680E-03    -28.8415E-03     9.52129E-03     74.8404E-03     113.509E+06     6.30444E+06    -23.8786E+06    -119.213E+06    -14.1904E+06    -98.7179E+06    -23.8786E+06    -46.3761E+06
            1694     90.3779E-03     9.71703E-03     89.8541E-03     57.6479E-03    -28.7481E-03    -28.9017E-03    -28.4783E-03     57.2532E-03    -28.7767E-03     11.5776E-03     80.3280E-03     114.079E+06     6.95408E+06    -31.1514E+06    -121.195E+06    -15.7019E+06    -98.5388E+06    -31.1514E+06    -48.8517E+06
            1695     90.4999E-03     10.6894E-03     89.8664E-03     57.6212E-03    -28.6988E-03    -28.9320E-03    -28.4550E-03     57.1442E-03    -28.6988E-03     12.8149E-03     86.6511E-03     111.798E+06     7.83014E+06    -42.9735E+06    -120.042E+06    -16.6391E+06    -95.5726E+06    -42.9735E+06    -50.2643E+06
            1696     90.6322E-03     11.6616E-03     89.8788E-03     57.5198E-03    -28.5910E-03    -28.9685E-03    -28.2896E-03     56.8408E-03    -28.5910E-03     15.0671E-03     94.3667E-03     106.548E+06     7.77709E+06    -60.6508E+06    -113.989E+06    -17.7520E+06    -88.4602E+06    -60.6508E+06    -49.5102E+06
            1697     90.7792E-03     12.6344E-03     89.8957E-03     57.9094E-03    -28.4470E-03    -29.5238E-03    -28.1113E-03     56.4969E-03    -28.4470E-03     21.6599E-03     106.056E-03     99.3163E+06     6.61301E+06    -78.9031E+06    -100.800E+06    -18.2814E+06    -73.0522E+06     -81.756E+06    -44.4487E+06
            1698     90.9457E-03     13.6063E-03     89.9221E-03     59.0275E-03    -28.3075E-03    -30.7751E-03    -27.7842E-03     56.0366E-03    -28.3075E-03     31.7116E-03     128.390E-03      98.235E+06     10.1373E+06    -63.0627E+06    -96.8978E+06    -17.7350E+06    -35.1904E+06    -96.8978E+06    -33.1823E+06
            1699     91.1360E-03     14.5803E-03     89.9621E-03     77.5341E-03    -28.2253E-03    -49.3770E-03    -28.8023E-03     56.9594E-03    -28.2253E-03     87.0176E-03     181.048E-03     125.399E+06     57.2859E+06    -28.8163E+06    -84.7748E+06    -17.2166E+06     45.6863E+06    -84.7748E+06    -18.6666E+06
            1700     91.4366E-03     15.5556E-03     90.1037E-03     167.416E-03    -28.4672E-03    -138.928E-03    -43.7811E-03     72.2689E-03    -28.4672E-03     281.499E-03     398.829E-03     162.770E+06     143.566E+06     22.0636E+06    -40.9423E+06    -15.3563E+06     142.956E+06    -2.91271E+06    -7.48893E+06
            1701     92.0688E-03     16.5232E-03     90.5740E-03     219.449E-03    -28.9131E-03    -190.494E-03    -48.9856E-03     77.9400E-03    -28.9131E-03     389.770E-03     611.860E-03     193.690E+06     206.758E+06     119.424E+06    -9.75389E+06    -9.71189E+06     206.716E+06     119.424E+06    -1.57190E+06
            1702     90.8676E-03     971.792E-06     90.8624E-03     58.2419E-03    -28.9084E-03    -29.3341E-03    -29.1129E-03     58.2359E-03    -29.1237E-03     1.28562E-03     58.5095E-03     114.513E+06    -12.3647E+06    -14.4490E+06    -127.893E+06    -13.7781E+06    -127.042E+06    -13.8869E+06    -8.33712E+06
            1703     90.8852E-03     1.94292E-03     90.8644E-03     58.1137E-03    -28.9773E-03    -29.1370E-03    -29.0235E-03     58.0969E-03    -29.0740E-03     2.35087E-03     58.8957E-03     100.815E+06    -9.00362E+06    -14.6105E+06    -112.445E+06    -12.0061E+06    -109.809E+06    -14.2438E+06    -15.5089E+06
            1704     90.9135E-03     2.91451E-03     90.8667E-03     58.1181E-03    -29.0204E-03    -29.0966E-03    -29.0284E-03     58.0839E-03    -29.0544E-03     3.40958E-03     59.7751E-03     100.356E+06    -7.24886E+06    -12.5224E+06    -110.065E+06    -11.4422E+06    -105.871E+06    -12.5224E+06    -20.3209E+06
            1705     90.9536E-03     3.88605E-03     90.8706E-03     58.0654E-03    -28.9782E-03    -29.0864E-03    -28.9525E-03     58.0056E-03    -29.0524E-03     4.52088E-03     60.9935E-03     103.162E+06    -4.05279E+06    -8.80729E+06    -109.479E+06    -10.8064E+06    -102.725E+06    -8.80729E+06    -25.3436E+06
            1706     91.0052E-03     4.85770E-03     90.8755E-03     57.9349E-03    -28.9038E-03    -29.0323E-03    -28.8196E-03     57.8465E-03    -29.0281E-03     5.52041E-03     62.5543E-03     104.512E+06     1.13454E+06    -6.29674E+06    -106.861E+06    -8.80655E+06    -96.9196E+06    -6.29674E+06    -31.1629E+06
            1707     91.0675E-03     5.82945E-03     90.8808E-03     57.8120E-03    -28.8208E-03    -28.9966E-03    -28.6969E-03     57.6881E-03    -28.9966E-03     6.51773E-03     64.6112E-03     110.918E+06     5.52998E+06    -3.29702E+06    -109.500E+06    -6.12486E+06    -97.8454E+06    -3.29702E+06    -34.6857E+06
            1708     91.1415E-03     6.80174E-03     90.8873E-03     57.7499E-03    -28.7971E-03    -28.9509E-03    -28.6310E-03     57.5838E-03    -28.9509E-03     7.56066E-03     67.2870E-03     113.237E+06     10.5862E+06    -2.55351E+06    -108.597E+06    -4.21824E+06    -93.7926E+06    -2.55351E+06    -39.1592E+06
            1709     91.2266E-03     7.77342E-03     90.8948E-03     57.7453E-03    -28.8305E-03    -28.9010E-03    -28.6225E-03     57.5373E-03    -28.9010E-03     8.46605E-03     70.6727E-03     114.526E+06     14.6753E+06    -5.56684E+06    -108.501E+06    -3.54732E+06    -90.2785E+06    -5.56684E+06    -43.7084E+06
            1710     91.3226E-03     8.74532E-03     90.9029E-03     57.6412E-03    -28.7980E-03    -28.8543E-03    -28.5297E-03     57.3729E-03    -28.8543E-03     9.59013E-03     74.7992E-03     114.960E+06     15.4584E+06    -10.5528E+06    -110.161E+06    -4.15108E+06    -90.5514E+06    -10.5528E+06    -45.5772E+06
            1711     91.4306E-03     9.71780E-03     90.9126E-03     57.6302E-03    -28.7516E-03    -28.8896E-03    -28.4478E-03     57.2287E-03    -28.7920E-03     11.6741E-03     80.2520E-03     114.101E+06     14.8580E+06    -18.1659E+06    -111.932E+06    -6.69409E+06    -90.3796E+06    -18.1659E+06    -47.5511E+06
            1712     91.5513E-03     10.6896E-03     90.9251E-03     57.5730E-03    -28.7026E-03    -28.8695E-03    -28.3876E-03     57.0911E-03    -28.7026E-03     12.8714E-03     86.5322E-03     111.862E+06     13.8992E+06    -31.7361E+06    -113.185E+06    -10.4349E+06    -88.8505E+06    -31.7361E+06    -49.9444E+06
            1713     91.6817E-03     11.6621E-03     90.9370E-03     57.4937E-03    -28.5888E-03    -28.9327E-03    -28.2602E-03     56.8212E-03    -28.5888E-03     15.0056E-03     94.2604E-03     108.095E+06     12.5247E+06    -50.4497E+06    -111.522E+06    -13.7965E+06    -85.2007E+06    -50.4497E+06    -50.6727E+06
            1714     91.8271E-03     12.6345E-03     90.9537E-03     58.0644E-03    -28.4388E-03    -29.6790E-03    -28.2059E-03     56.5914E-03    -28.4388E-03     22.0713E-03     106.061E-03     104.376E+06     10.7705E+06    -75.0468E+06    -102.989E+06    -16.3022E+06    -75.5755E+06    -75.3875E+06    -48.2785E+06
            1715     91.9929E-03     13.6071E-03     90.9810E-03     58.9432E-03    -28.2888E-03    -30.7100E-03    -27.7551E-03     55.9883E-03    -28.2888E-03     31.6263E-03     128.329E-03     103.452E+06     11.5125E+06    -72.5493E+06    -101.369E+06    -17.1810E+06    -47.1693E+06    -98.0554E+06    -40.0900E+06
            1716     92.1777E-03     14.5812E-03     91.0171E-03     77.7813E-03    -28.1668E-03    -49.6841E-03    -29.3007E-03     57.3979E-03    -28.1668E-03     86.8616E-03     181.178E-03     128.874E+06     50.8668E+06    -37.2625E+06    -96.8586E+06    -16.2160E+06     29.8203E+06    -96.8586E+06    -25.5027E+06
            1717     92.4811E-03     15.5535E-03     91.1638E-03     167.969E-03    -28.3474E-03    -139.545E-03    -43.0132E-03     71.4375E-03    -28.3474E-03     283.005E-03     399.358E-03     163.030E+06     133.922E+06     12.6424E+06    -50.8300E+06    -14.6780E+06     132.201E+06    -21.7884E+06    -10.7357E+06
            1718     93.1150E-03     16.5317E-03     91.6358E-03     219.610E-03    -28.7837E-03    -190.748E-03    -48.2728E-03     77.1349E-03    -28.7837E-03     390.689E-03     612.185E-03     190.992E+06     202.628E+06     108.537E+06    -9.67774E+06    -9.62312E+06     202.574E+06     108.537E+06    -2.01697E+06
            1719     91.9278E-03     971.574E-06     91.9226E-03     58.0937E-03    -28.8624E-03    -29.2308E-03    -29.0423E-03     58.0900E-03    -29.0472E-03     967.584E-06     58.3589E-03     116.367E+06     7.86739E+06     3.91384E+06    -110.399E+06     6.54835E+06    -109.276E+06     4.10937E+06    -9.45877E+06
            1720     91.9438E-03     1.94327E-03     91.9233E-03     58.0371E-03    -28.9423E-03    -29.0942E-03    -29.0188E-03     58.0204E-03    -29.0010E-03     2.29194E-03     58.8110E-03     100.581E+06     6.82867E+06     808.439E+03    -96.5594E+06     4.05620E+06    -93.7869E+06     808.439E+03    -16.5100E+06
            1721     91.9727E-03     2.91483E-03     91.9265E-03     58.1076E-03    -29.0133E-03    -29.0925E-03    -29.0482E-03     58.0701E-03    -29.0201E-03     3.57690E-03     59.7506E-03     104.017E+06     7.53896E+06     3.01092E+06    -98.5772E+06     3.18858E+06    -94.2268E+06     3.01092E+06    -20.8893E+06
            1722     92.0119E-03     3.88615E-03     91.9298E-03     57.9851E-03    -28.9391E-03    -29.0423E-03    -28.9044E-03     57.9206E-03    -29.0125E-03     4.69412E-03     60.8789E-03     104.457E+06     12.1766E+06     5.04942E+06    -95.5497E+06     4.87639E+06    -88.2494E+06     5.04942E+06    -26.6470E+06
            1723     92.0627E-03     4.85812E-03     91.9344E-03     57.7930E-03    -28.8235E-03    -28.9699E-03    -28.7281E-03     57.6976E-03    -28.9699E-03     5.72930E-03     62.3922E-03     105.941E+06     14.9360E+06     5.63625E+06    -95.2538E+06     4.94636E+06    -85.2642E+06     5.63625E+06    -31.5773E+06
            1724     92.1244E-03     5.83016E-03     91.9397E-03     57.7347E-03    -28.8059E-03    -28.9354E-03    -28.6752E-03     57.6040E-03    -28.9354E-03     6.69802E-03     64.5138E-03     112.475E+06     17.5063E+06     7.63267E+06    -99.4914E+06     4.90196E+06    -86.8870E+06     7.63267E+06    -36.0601E+06
            1725     92.1974E-03     6.80167E-03     91.9462E-03     57.6359E-03    -28.7552E-03    -28.8881E-03    -28.5764E-03     57.4571E-03    -28.8881E-03     7.81852E-03     67.1315E-03     113.412E+06     21.7750E+06     7.80224E+06    -97.9414E+06     6.24871E+06    -82.4151E+06     7.80224E+06    -40.1573E+06
            1726     92.2817E-03     7.77397E-03     91.9536E-03     57.5592E-03    -28.7231E-03    -28.8344E-03    -28.4925E-03     57.3286E-03    -28.8344E-03     8.88530E-03     70.4042E-03     113.785E+06     22.6064E+06     4.57491E+06    -99.0773E+06     5.27059E+06    -81.7414E+06     4.57491E+06     -42.516E+06
            1727     92.3766E-03     8.74608E-03     91.9616E-03     57.5930E-03    -28.7436E-03    -28.8426E-03    -28.5044E-03     57.2947E-03    -28.7835E-03     10.0937E-03     74.5664E-03     113.637E+06     21.6397E+06    -2.08980E+06    -101.914E+06     2.77428E+06    -83.0490E+06    -2.08980E+06    -44.4327E+06
            1728     92.4830E-03     9.71782E-03     91.9710E-03     57.6277E-03    -28.7116E-03    -28.8936E-03    -28.4376E-03     57.1833E-03    -28.7233E-03     12.2669E-03     80.0419E-03     112.639E+06     22.0726E+06    -10.1447E+06    -102.974E+06     1.53985E+06    -82.4414E+06    -10.1447E+06    -46.2988E+06
            1729     92.6027E-03     10.6905E-03     91.9835E-03     57.4809E-03    -28.6331E-03    -28.8357E-03    -28.3115E-03     56.9567E-03    -28.6331E-03     13.3997E-03     86.2165E-03     111.301E+06     22.4890E+06    -23.0425E+06    -103.982E+06    -83.5091E+03    -81.4095E+06    -23.0425E+06    -48.3790E+06
            1730     92.7314E-03     11.6628E-03     91.9951E-03     57.5013E-03    -28.5291E-03    -28.9996E-03    -28.2654E-03     56.7671E-03    -28.5291E-03     15.6599E-03     94.0356E-03     108.921E+06     20.5200E+06    -41.1648E+06    -104.753E+06    -3.90747E+06    -80.3255E+06    -41.1648E+06    -49.5726E+06
            1731     92.8757E-03     12.6353E-03     92.0122E-03     57.9829E-03    -28.3885E-03    -29.6411E-03    -28.0936E-03     56.4354E-03    -28.3885E-03     22.6551E-03     105.761E-03     107.463E+06     17.9259E+06    -67.1452E+06    -100.782E+06    -8.63107E+06    -74.2253E+06    -67.1452E+06    -49.3810E+06
            1732     93.0389E-03     13.6083E-03     92.0383E-03     59.2291E-03    -28.2365E-03    -31.0369E-03    -28.0212E-03     56.2134E-03    -28.2365E-03     32.0994E-03     128.234E-03     108.929E+06     16.4366E+06    -76.8373E+06    -102.172E+06    -12.3603E+06    -55.0999E+06    -95.1128E+06    -44.9780E+06
            1733     93.2225E-03     14.5806E-03     92.0752E-03     78.7358E-03    -28.0766E-03    -50.7128E-03    -29.6721E-03     57.6951E-03    -28.0766E-03     88.5986E-03     181.636E-03     132.850E+06     43.5209E+06    -45.6322E+06    -107.724E+06    -14.5878E+06     12.4764E+06    -107.724E+06    -31.5096E+06
            1734     93.5253E-03     15.5537E-03     92.2229E-03     166.633E-03    -28.1775E-03    -138.375E-03    -41.7434E-03     70.0016E-03    -28.1775E-03     281.456E-03     398.003E-03     161.749E+06     119.545E+06    -476.370E+03    -60.9928E+06    -14.2067E+06     116.575E+06    -44.2923E+06    -13.9658E+06
            1735     94.1453E-03     16.5342E-03     92.6820E-03     218.587E-03    -28.5973E-03    -189.895E-03    -47.3430E-03     76.0342E-03    -28.5973E-03     389.385E-03     610.417E-03     187.308E+06     196.779E+06     94.0799E+06    -8.75807E+06    -8.64447E+06     196.665E+06     94.0799E+06    -3.14615E+06
            1736     92.9860E-03     971.389E-06     92.9809E-03     57.9134E-03    -28.7393E-03    -29.1755E-03    -29.1112E-03     57.9077E-03    -28.7979E-03     1.22019E-03     58.1727E-03     112.421E+06     21.5563E+06     18.4250E+06    -92.3734E+06     19.9245E+06    -91.4285E+06     19.1119E+06    -9.41857E+06
            1737     93.0032E-03     1.94343E-03     92.9829E-03     57.9098E-03    -28.8552E-03    -29.0565E-03    -28.9448E-03     57.8911E-03    -28.9482E-03     2.46430E-03     58.6664E-03     101.609E+06     21.9619E+06     19.0654E+06    -81.0408E+06     18.6813E+06    -78.7726E+06     20.0778E+06    -14.8136E+06
            1738     93.0311E-03     2.91494E-03     92.9855E-03     57.8155E-03    -28.8511E-03    -28.9657E-03    -28.8408E-03     57.7750E-03    -28.9355E-03     3.69253E-03     59.4410E-03     106.422E+06     24.8717E+06     19.3110E+06    -84.1281E+06     19.3736E+06    -79.1296E+06     19.8106E+06    -22.2524E+06
            1739     93.0703E-03     3.88705E-03     92.9891E-03     57.6812E-03    -28.8037E-03    -28.8774E-03    -28.7328E-03     57.6103E-03    -28.8774E-03     4.91271E-03     60.5404E-03     105.873E+06     27.8667E+06     17.0637E+06    -82.9360E+06     20.0717E+06    -75.1410E+06     17.0637E+06    -28.2488E+06
            1740     93.1200E-03     4.85882E-03     92.9932E-03     57.6265E-03    -28.7777E-03    -28.8507E-03    -28.6708E-03     57.5196E-03    -28.8507E-03     6.04266E-03     62.1623E-03     109.530E+06     30.0767E+06     20.0645E+06    -84.0140E+06     20.7163E+06    -74.6536E+06     20.0645E+06    -31.2726E+06
            1741     93.1813E-03     5.83065E-03     92.9987E-03     57.5038E-03    -28.6979E-03    -28.8132E-03    -28.5458E-03     57.3517E-03    -28.8132E-03     7.19772E-03     64.1906E-03     114.266E+06     32.9065E+06     21.9082E+06    -86.3677E+06     20.8554E+06    -74.3166E+06     21.9082E+06    -35.6978E+06
            1742     93.2532E-03     6.80305E-03     93.0047E-03     57.3609E-03    -28.6193E-03    -28.7459E-03    -28.4107E-03     57.1523E-03    -28.7459E-03     8.43112E-03     66.7283E-03     114.926E+06     33.2832E+06     18.0995E+06    -88.4609E+06     18.8910E+06    -74.0687E+06     18.0995E+06    -39.1464E+06
            1743     93.3364E-03     7.77521E-03     93.0120E-03     57.3061E-03    -28.6176E-03    -28.6935E-03    -28.3494E-03     57.0353E-03    -28.6908E-03     9.61016E-03     69.9419E-03     113.480E+06     32.1685E+06     13.9865E+06    -89.2712E+06     16.7459E+06    -73.8486E+06     13.9865E+06    -40.3195E+06
            1744     93.4304E-03     8.74757E-03     93.0200E-03     57.3408E-03    -28.6262E-03    -28.7144E-03    -28.3540E-03     56.9931E-03    -28.6389E-03     10.8899E-03     74.0720E-03     113.619E+06     31.8947E+06     8.42115E+06    -91.5410E+06     14.7235E+06    -74.3698E+06     8.42115E+06    -42.5983E+06
            1745     93.5361E-03     9.72001E-03     93.0296E-03     57.4161E-03    -28.5678E-03    -28.8421E-03    -28.3316E-03     56.9056E-03    -28.5678E-03     13.1403E-03     79.5377E-03     113.618E+06     32.2772E+06    -2.19271E+06    -94.3486E+06     12.3890E+06    -74.4604E+06    -2.19271E+06    -45.9783E+06
            1746     93.6540E-03     10.6920E-03     93.0417E-03     57.3754E-03    -28.4880E-03    -28.8932E-03    -28.2923E-03     56.7745E-03    -28.4880E-03     14.3385E-03     85.8510E-03     112.143E+06     31.0164E+06    -15.2971E+06    -96.6588E+06     9.78888E+06    -75.4312E+06    -15.2971E+06    -47.5167E+06
            1747     93.7816E-03     11.6646E-03     93.0534E-03     57.3860E-03    -28.4030E-03    -29.0155E-03    -28.1940E-03     56.5646E-03    -28.4030E-03     16.5658E-03     93.6517E-03     109.218E+06     28.0008E+06    -31.9286E+06    -97.3946E+06     5.90806E+06    -75.3019E+06    -31.9286E+06    -47.7010E+06
            1748     93.9243E-03     12.6372E-03     93.0703E-03     57.9465E-03    -28.2789E-03    -29.7099E-03    -28.0681E-03     56.3047E-03    -28.2789E-03     23.3980E-03     105.411E-03     107.188E+06     25.3953E+06    -56.5079E+06    -94.4287E+06     669.557E+03    -69.7029E+06    -56.5079E+06    -48.3946E+06
            1749     94.0853E-03     13.6101E-03     93.0957E-03     59.4571E-03    -28.1277E-03    -31.3556E-03    -28.0532E-03     56.1546E-03    -28.1277E-03     33.5476E-03     128.009E-03     109.240E+06     21.0594E+06    -74.6560E+06    -97.8216E+06    -5.74798E+06    -58.7670E+06    -86.9031E+06    -46.0399E+06
            1750     94.2695E-03     14.5828E-03     93.1348E-03     78.5348E-03    -27.9332E-03    -50.6350E-03    -29.0402E-03     56.9400E-03    -27.9332E-03     89.7923E-03     181.036E-03     128.766E+06     35.9125E+06    -51.6840E+06    -109.224E+06    -11.1234E+06    -4.64813E+06    -109.224E+06    -34.9681E+06
            1751     94.5666E-03     15.5585E-03     93.2779E-03     166.863E-03    -27.9783E-03    -138.909E-03    -42.7395E-03     70.6938E-03    -27.9783E-03     282.044E-03     397.035E-03     155.020E+06     104.873E+06    -12.7478E+06    -64.3153E+06    -11.5318E+06     98.7102E+06    -59.3689E+06    -17.2600E+06
            1752     95.1849E-03     16.5298E-03     93.7387E-03     218.524E-03    -28.4116E-03    -190.115E-03    -47.6387E-03     76.0476E-03    -28.4116E-03     389.446E-03     610.343E-03     183.493E+06     189.625E+06     79.5288E+06    -8.85027E+06    -7.32645E+06     189.429E+06     78.2008E+06    -4.66126E+06
            1753     94.0457E-03     972.556E-06     94.0406E-03     57.4498E-03    -28.5849E-03    -28.8665E-03    -28.8481E-03     57.4421E-03    -28.5956E-03     1.50359E-03     57.7016E-03     111.996E+06     37.0596E+06     35.2539E+06    -75.8242E+06     35.2702E+06    -75.0667E+06     36.2858E+06    -8.23626E+06
            1754     94.0618E-03     1.94351E-03     94.0417E-03     57.5320E-03    -28.6955E-03    -28.8385E-03    -28.7809E-03     57.5088E-03    -28.7298E-03     2.74811E-03     58.2725E-03     103.139E+06     39.9089E+06     35.7756E+06    -65.2033E+06     36.4975E+06    -62.8043E+06     36.7880E+06    -15.1321E+06
            1755     94.0895E-03     2.91578E-03     94.0444E-03     57.3691E-03    -28.6404E-03    -28.7302E-03    -28.5963E-03     57.3208E-03    -28.7260E-03     4.01767E-03     58.9588E-03     107.814E+06     43.6318E+06     37.3398E+06    -67.0812E+06     37.9364E+06    -61.8855E+06     37.8394E+06    -22.9913E+06
            1756     94.1278E-03     3.88785E-03     94.0475E-03     57.2416E-03    -28.5720E-03    -28.6713E-03    -28.4903E-03     57.1598E-03    -28.6713E-03     5.25305E-03     60.0434E-03     111.591E+06     45.0880E+06     36.0020E+06    -70.6614E+06     37.6286E+06    -63.2021E+06     36.0020E+06    -28.3458E+06
            1757     94.1776E-03     4.86005E-03     94.0521E-03     57.1003E-03    -28.4922E-03    -28.6043E-03    -28.3631E-03     56.9712E-03    -28.6043E-03     6.59225E-03     61.5103E-03     113.884E+06     47.0538E+06     32.7904E+06    -73.2315E+06     37.4317E+06    -63.6094E+06     32.7904E+06    -32.5062E+06
            1758     94.2374E-03     5.83245E-03     94.0567E-03     56.9825E-03    -28.4314E-03    -28.5546E-03    -28.2433E-03     56.7945E-03    -28.5546E-03     7.96580E-03     63.4962E-03     117.230E+06     48.2794E+06     34.1861E+06    -75.2999E+06     37.3813E+06    -64.4018E+06     34.1861E+06    -35.0067E+06
            1759     94.3089E-03     6.80479E-03     94.0630E-03     56.9701E-03    -28.4343E-03    -28.5486E-03    -28.2217E-03     56.7148E-03    -28.5059E-03     9.28160E-03     66.1431E-03     119.254E+06     48.1396E+06     33.4348E+06    -77.7247E+06     36.1757E+06    -65.7608E+06     33.4348E+06    -36.8132E+06
            1760     94.3910E-03     7.77731E-03     94.0700E-03     56.9566E-03    -28.4315E-03    -28.5267E-03    -28.1829E-03     56.6253E-03    -28.4440E-03     10.5800E-03     69.3447E-03     118.627E+06     47.7958E+06     27.1589E+06    -79.7318E+06     34.2871E+06    -66.2230E+06     27.1589E+06    -39.2245E+06
            1761     94.4844E-03     8.74969E-03     94.0784E-03     56.9140E-03    -28.3947E-03    -28.5195E-03    -28.0896E-03     56.4841E-03    -28.3947E-03     12.0229E-03     73.3302E-03     118.124E+06     47.2749E+06     21.9655E+06    -81.3528E+06     32.5238E+06    -66.6017E+06     21.9655E+06    -40.9133E+06
            1762     94.5883E-03     9.72223E-03     94.0873E-03     57.0437E-03    -28.3241E-03    -28.7351E-03    -28.1173E-03     56.4259E-03    -28.3241E-03     14.3877E-03     78.7230E-03     115.093E+06     44.8956E+06     11.3952E+06    -83.0780E+06     28.1705E+06    -66.3529E+06     11.3952E+06    -43.0048E+06
            1763     94.7059E-03     10.6950E-03     94.1000E-03     57.1689E-03    -28.2476E-03    -28.9420E-03    -28.2179E-03     56.4449E-03    -28.2476E-03     15.6941E-03     85.1180E-03     112.818E+06     39.4173E+06    -4.20654E+06    -88.5552E+06     21.3499E+06    -70.4877E+06    -4.20654E+06    -44.4246E+06
            1764     94.8317E-03     11.6672E-03     94.1112E-03     57.2523E-03    -28.1689E-03    -29.1106E-03    -28.1624E-03     56.3042E-03    -28.1689E-03     17.8216E-03     92.9489E-03     108.956E+06     35.7592E+06    -21.9236E+06    -89.2893E+06     15.6898E+06    -69.2199E+06    -21.9236E+06    -45.7850E+06
            1765     94.9728E-03     12.6402E-03     94.1279E-03     57.9624E-03    -28.0747E-03    -29.9157E-03    -28.0840E-03     56.1306E-03    -28.0747E-03     24.7130E-03     104.756E-03     105.691E+06     31.9820E+06    -44.8866E+06    -87.7195E+06     10.1838E+06    -65.9213E+06    -44.8866E+06    -46.0624E+06
            1766     95.1330E-03     13.6128E-03     94.1540E-03     59.2867E-03    -27.9394E-03    -31.3574E-03    -27.8338E-03     55.7631E-03    -27.9394E-03     34.6416E-03     127.405E-03     105.913E+06     24.7448E+06    -67.8825E+06    -90.1210E+06     2.37740E+06    -60.5315E+06    -75.1045E+06    -43.4281E+06
            1767     95.3140E-03     14.5869E-03     94.1912E-03     78.0881E-03    -27.7437E-03    -50.3563E-03    -29.0326E-03     56.7645E-03    -27.7437E-03     89.4581E-03     180.477E-03     120.419E+06     30.9267E+06    -52.2697E+06    -102.693E+06    -4.99007E+06    -16.3530E+06    -102.693E+06    -35.8391E+06
            1768     95.6085E-03     15.5615E-03     94.3336E-03     167.349E-03    -27.7285E-03    -139.738E-03    -43.0012E-03     70.6123E-03    -27.7285E-03     283.194E-03     397.957E-03     147.318E+06     89.8830E+06    -19.6720E+06    -71.2359E+06     -9.7228E+06     79.9338E+06    -71.2359E+06    -21.3982E+06
            1769     96.2350E-03     16.5381E-03     94.8033E-03     217.323E-03    -28.1194E-03    -189.335E-03    -47.3133E-03     75.3014E-03    -28.1194E-03     387.711E-03     609.072E-03     179.371E+06     179.293E+06     66.7898E+06    -16.8079E+06    -7.79425E+06     178.642E+06     58.4267E+06    -6.68112E+06
            1770     95.1039E-03     971.773E-06     95.0989E-03     56.7616E-03    -28.2632E-03    -28.4973E-03    -28.3920E-03     56.7512E-03    -28.3581E-03     1.76404E-03     57.0069E-03     111.524E+06     52.9114E+06     48.7781E+06    -60.5427E+06     51.4799E+06    -59.7435E+06     49.4104E+06    -7.51558E+06
            1771     95.1204E-03     1.94490E-03     95.1005E-03     56.5837E-03    -28.2259E-03    -28.3581E-03    -28.2454E-03     56.5551E-03    -28.3101E-03     3.02204E-03     57.2995E-03     97.7003E+06     54.0715E+06     46.7507E+06    -47.0427E+06     50.8822E+06    -43.8534E+06     46.7507E+06    -16.9124E+06
            1772     95.1472E-03     2.91696E-03     95.1025E-03     56.5870E-03    -28.2749E-03    -28.3133E-03    -28.2340E-03     56.5245E-03    -28.2917E-03     4.51643E-03     58.1043E-03     104.304E+06     56.0614E+06     48.5821E+06    -51.6856E+06     50.3857E+06    -46.0100E+06     48.5821E+06    -23.9290E+06
            1773     95.1855E-03     3.88929E-03     95.1060E-03     56.4293E-03    -28.1671E-03    -28.2653E-03    -28.0581E-03     56.3202E-03    -28.2653E-03     6.00225E-03     59.1148E-03     113.101E+06     59.7277E+06     49.4033E+06    -58.0649E+06     51.7498E+06    -50.0870E+06     49.4033E+06    -29.4068E+06
            1774     95.2337E-03     4.86208E-03     95.1095E-03     56.2475E-03    -28.0549E-03    -28.1887E-03    -27.8866E-03     56.0788E-03    -28.1883E-03     7.46422E-03     60.4802E-03     117.280E+06     62.4411E+06     45.6756E+06    -62.2800E+06     52.6127E+06    -52.4516E+06     45.6756E+06    -33.4766E+06
            1775     95.2935E-03     5.83505E-03     95.1147E-03     56.1800E-03    -28.0583E-03    -28.1164E-03    -27.8166E-03     55.9379E-03    -28.1160E-03     8.96593E-03     62.4145E-03     121.227E+06     62.5915E+06     43.8220E+06    -66.8361E+06     51.8770E+06    -56.1216E+06     43.8220E+06    -35.5903E+06
            1776     95.3639E-03     6.80791E-03     95.1205E-03     56.1907E-03    -28.0626E-03    -28.1382E-03    -27.7900E-03     55.8481E-03    -28.0682E-03     10.6460E-03     64.9795E-03     124.463E+06     63.7722E+06     44.1711E+06    -69.2358E+06     52.2775E+06    -57.7411E+06     44.1711E+06    -37.2770E+06
            1777     95.4456E-03     7.78058E-03     95.1280E-03     56.2192E-03    -28.0045E-03    -28.2134E-03    -27.7597E-03     55.7654E-03    -28.0045E-03     12.2738E-03     68.0895E-03     124.250E+06     63.6125E+06     39.0507E+06    -71.0576E+06     51.7300E+06    -59.1751E+06     39.0507E+06    -38.0944E+06
            1778     95.5372E-03     8.75371E-03     95.1353E-03     56.3011E-03    -27.9516E-03    -28.3347E-03    -27.7500E-03     55.7164E-03    -27.9516E-03     13.9392E-03     72.0431E-03     122.410E+06     61.0677E+06     32.9368E+06    -72.9275E+06     48.5525E+06    -60.4123E+06     32.9368E+06    -38.8583E+06
            1779     95.6411E-03     9.72676E-03     95.1452E-03     56.5819E-03    -27.9021E-03    -28.6709E-03    -27.8528E-03     55.7638E-03    -27.9021E-03     16.5106E-03     77.4393E-03     118.203E+06     56.6666E+06     24.5432E+06    -74.1923E+06     43.9427E+06    -61.4684E+06     24.5432E+06    -38.5635E+06
            1780     95.7570E-03     10.6993E-03     95.1574E-03     56.8722E-03    -27.8450E-03    -29.0220E-03    -28.0810E-03     55.9312E-03    -27.8450E-03     17.8353E-03     83.8042E-03     113.751E+06     50.7122E+06     9.12071E+06    -77.7232E+06     37.3850E+06    -64.3960E+06     9.12071E+06    -38.9183E+06
            1781     95.8823E-03     11.6722E-03     95.1692E-03     57.1765E-03    -27.7967E-03    -29.3898E-03    -28.2314E-03     56.0181E-03    -27.7967E-03     19.7521E-03     91.8436E-03     106.867E+06     43.8645E+06    -10.5230E+06    -78.7736E+06     28.0739E+06    -62.9829E+06    -10.5230E+06    -40.6789E+06
            1782     96.0214E-03     12.6445E-03     95.1852E-03     57.9770E-03    -27.7400E-03    -30.2574E-03    -28.1663E-03     55.8859E-03    -27.7400E-03     26.4656E-03     103.741E-03     102.023E+06     35.5761E+06    -34.9661E+06    -80.6248E+06     17.7055E+06    -62.7542E+06    -34.9661E+06    -41.7174E+06
            1783     96.1804E-03     13.6179E-03     95.2115E-03     59.4296E-03    -27.6471E-03    -31.7818E-03    -28.0717E-03     55.7195E-03    -27.6471E-03     35.7639E-03     126.642E-03     101.526E+06     26.8701E+06    -62.6173E+06    -82.1639E+06     8.89625E+06    -61.7667E+06    -65.0407E+06    -39.7256E+06
            1784     96.3587E-03     14.5908E-03     95.2476E-03     78.8038E-03    -27.5263E-03    -51.2671E-03    -29.7170E-03     57.2537E-03    -27.5263E-03     90.5951E-03     180.492E-03     107.763E+06     27.6113E+06    -51.5025E+06    -89.9392E+06    -297.495E+03    -23.5937E+06    -89.9392E+06    -32.8987E+06
            1785     96.6535E-03     15.5630E-03     95.3923E-03     167.590E-03    -27.4493E-03    -140.241E-03    -42.5057E-03     69.8546E-03    -27.4493E-03     284.289E-03     398.128E-03     136.558E+06     76.6142E+06    -18.9665E+06    -76.8949E+06    -7.40315E+06     65.0508E+06    -76.8949E+06    -22.0275E+06
            1786     97.2706E-03     16.5403E-03     95.8540E-03     216.568E-03    -27.7276E-03    -188.954E-03    -46.5429E-03     74.1566E-03    -27.7276E-03     387.140E-03     608.539E-03     174.853E+06     166.599E+06     58.4249E+06    -30.3933E+06    -7.50941E+06     165.630E+06     36.5099E+06    -8.93239E+06
            1787     96.1610E-03     972.917E-06     96.1561E-03     55.5728E-03    -27.6277E-03    -27.9447E-03    -27.8472E-03     55.5595E-03    -27.7119E-03     1.92354E-03     55.8015E-03     108.925E+06     69.3843E+06     63.6011E+06    -42.2540E+06     67.8699E+06    -41.0268E+06     63.8883E+06    -10.0954E+06
            1788     96.1774E-03     1.94569E-03     96.1577E-03     55.3079E-03    -27.5567E-03    -27.7519E-03    -27.5710E-03     55.2674E-03    -27.6970E-03     3.55247E-03     55.9854E-03     94.8024E+06     70.0445E+06     62.0103E+06    -28.4857E+06     66.5434E+06    -24.9846E+06     62.0103E+06    -17.7757E+06
            1789     96.2044E-03     2.91885E-03     96.1601E-03     55.1548E-03    -27.5134E-03    -27.6445E-03    -27.4459E-03     55.0699E-03    -27.6271E-03     5.19641E-03     56.5935E-03     103.752E+06     72.2370E+06     61.0463E+06    -36.6317E+06     65.6655E+06    -30.0602E+06     61.0463E+06    -25.7491E+06
            1790     96.2413E-03     3.89222E-03     96.1626E-03     55.0535E-03    -27.4753E-03    -27.5843E-03    -27.3335E-03     54.8984E-03    -27.5711E-03     7.04798E-03     57.5787E-03     113.162E+06     74.6325E+06     60.5909E+06    -44.8895E+06     65.5903E+06    -35.8472E+06     60.5909E+06    -31.5331E+06
            1791     96.2896E-03     4.86552E-03     96.1666E-03     55.0365E-03    -27.4726E-03    -27.5637E-03    -27.2816E-03     54.7926E-03    -27.5107E-03     8.87231E-03     59.0019E-03     121.138E+06     76.2277E+06     58.9821E+06    -52.5864E+06     65.9996E+06    -42.3583E+06     58.9821E+06    -34.7610E+06
            1792     96.3482E-03     5.83871E-03     96.1711E-03     54.9471E-03    -27.4248E-03    -27.5088E-03    -27.1512E-03     54.5899E-03    -27.4252E-03     10.6999E-03     60.7427E-03     125.654E+06     78.5725E+06     53.6038E+06    -57.5841E+06     67.0936E+06    -46.1051E+06     53.6038E+06    -37.7747E+06
            1793     96.4180E-03     6.81233E-03     96.1771E-03     54.8959E-03    -27.3718E-03    -27.5183E-03    -27.0145E-03     54.3924E-03    -27.3722E-03     12.7165E-03     63.0528E-03     130.900E+06     78.4241E+06     53.0125E+06    -63.1846E+06     66.7854E+06    -51.5459E+06     53.0125E+06    -38.8373E+06
            1794     96.4985E-03     7.78639E-03     96.1839E-03     55.0565E-03    -27.3237E-03    -27.7458E-03    -27.0849E-03     54.3956E-03    -27.3237E-03     14.6330E-03     66.0913E-03     130.883E+06     76.2329E+06     50.9403E+06    -65.3409E+06     65.4128E+06    -54.5209E+06     50.9403E+06    -37.6092E+06
            1795     96.5904E-03     8.75973E-03     96.1923E-03     55.4057E-03    -27.2831E-03    -28.1318E-03    -27.2970E-03     54.5710E-03    -27.2831E-03     16.5073E-03     70.1373E-03     127.596E+06     73.0544E+06     45.7631E+06    -65.9314E+06     62.7167E+06    -55.5937E+06     45.7631E+06    -36.3600E+06
            1796     96.6926E-03     9.73296E-03     96.2015E-03     55.9322E-03    -27.2701E-03    -28.6645E-03    -27.5335E-03     54.8012E-03    -27.2701E-03     19.2758E-03     75.5715E-03     124.970E+06     68.2087E+06     38.9244E+06    -68.7087E+06     58.4086E+06    -58.9086E+06     38.9244E+06    -35.1965E+06
            1797     96.8085E-03     10.7064E-03     96.2147E-03     56.4454E-03    -27.2548E-03    -29.1841E-03    -27.8836E-03     55.1449E-03    -27.2548E-03     20.8556E-03     81.9103E-03     117.981E+06     61.7415E+06     24.7663E+06    -70.1921E+06     52.4385E+06    -60.8891E+06     24.7663E+06    -33.4187E+06
            1798     96.9324E-03     11.6787E-03     96.2263E-03     57.1465E-03    -27.2626E-03    -29.8867E-03    -28.3476E-03     55.6073E-03    -27.2626E-03     22.7803E-03     90.1680E-03     105.620E+06     51.5605E+06     7.05255E+06    -68.6532E+06     42.3919E+06    -59.4845E+06     7.05255E+06    -31.2810E+06
            1799     97.0707E-03     12.6515E-03     96.2427E-03     58.2704E-03    -27.2656E-03    -31.0212E-03    -28.5806E-03     55.8297E-03    -27.2656E-03     28.8440E-03     102.482E-03     94.6546E+06     40.3792E+06    -17.1881E+06    -68.0661E+06     28.9121E+06    -56.5990E+06    -17.1881E+06    -32.5655E+06
            1800     97.2276E-03     13.6237E-03     96.2684E-03     60.0084E-03    -27.2257E-03    -32.7793E-03    -28.5920E-03     55.8211E-03    -27.2257E-03     38.1689E-03     125.360E-03     95.9959E+06     28.6023E+06    -51.9105E+06    -75.7144E+06     15.6986E+06    -61.6713E+06    -53.0498E+06    -33.7263E+06
            1801     97.4060E-03     14.5957E-03     96.3062E-03     79.7317E-03    -27.1774E-03    -52.5438E-03    -30.1729E-03     57.3608E-03    -27.1774E-03     93.4080E-03     180.073E-03     96.9016E+06     24.7309E+06    -46.8446E+06    -81.0205E+06     5.61682E+06    -30.3496E+06    -78.4015E+06    -28.3668E+06
            1802     97.6978E-03     15.5710E-03     96.4490E-03     167.456E-03    -27.0738E-03    -140.416E-03    -42.2979E-03     69.3373E-03    -27.0738E-03     284.654E-03     396.585E-03     126.199E+06     67.4090E+06    -14.0681E+06    -76.8400E+06    -1.67460E+06     55.0155E+06    -76.8400E+06    -19.2210E+06
            1803     98.3135E-03     16.5494E-03     96.9106E-03     216.765E-03    -27.2426E-03    -189.533E-03    -46.1951E-03     73.4274E-03    -27.2426E-03     388.286E-03     608.263E-03     168.538E+06     155.593E+06     48.2393E+06    -37.4158E+06    -4.09402E+06     154.626E+06     15.8849E+06    -8.85895E+06
            1804     97.2177E-03     973.890E-06     97.2128E-03     53.5212E-03    -26.6803E-03    -26.8416E-03    -26.7805E-03     53.5014E-03    -26.7216E-03     2.21643E-03     53.7301E-03     102.675E+06     85.1751E+06     77.8544E+06    -20.9259E+06     81.5716E+06    -19.1562E+06     79.6881E+06    -12.5865E+06
            1805     97.2330E-03     1.94756E-03     97.2134E-03     53.3167E-03    -26.6023E-03    -26.7145E-03    -26.5804E-03     53.2532E-03    -26.6729E-03     4.34683E-03     53.9308E-03     91.3736E+06     84.9031E+06     74.7756E+06    -11.0426E+06     80.6609E+06    -6.80045E+06     74.7756E+06    -19.2239E+06
            1806     97.2594E-03     2.92184E-03     97.2155E-03     53.0903E-03    -26.4900E-03    -26.6023E-03    -26.3683E-03     52.9612E-03    -26.5949E-03     6.28214E-03     54.4021E-03     100.346E+06     86.8866E+06     73.1952E+06    -19.5745E+06     79.5962E+06    -12.2841E+06     73.1952E+06    -26.6261E+06
            1807     97.2958E-03     3.89615E-03     97.2178E-03     53.0272E-03    -26.4750E-03    -26.5602E-03    -26.2791E-03     52.7948E-03    -26.5237E-03     8.43082E-03     55.3218E-03     111.850E+06     87.5728E+06     70.8017E+06    -31.6836E+06     78.0684E+06    -22.1792E+06     70.8017E+06    -32.2510E+06
            1808     97.3437E-03     4.87047E-03     97.2217E-03     52.9783E-03    -26.4432E-03    -26.5427E-03    -26.1662E-03     52.6018E-03    -26.4432E-03     10.7698E-03     56.5651E-03     121.064E+06     88.6051E+06     66.2798E+06    -41.9626E+06     76.9325E+06      -30.29E+06     66.2798E+06    -37.1196E+06
            1809     97.4017E-03     5.84504E-03     97.2261E-03     52.9561E-03    -26.3565E-03    -26.5977E-03    -26.0392E-03     52.3976E-03    -26.3565E-03     13.1288E-03     58.1814E-03     126.790E+06     88.1704E+06     60.2050E+06    -50.1541E+06     75.6568E+06    -37.6405E+06     60.2050E+06    -39.5947E+06
            1810     97.4705E-03     6.81976E-03     97.2316E-03     53.1469E-03    -26.3004E-03    -26.8339E-03    -26.0436E-03     52.3565E-03    -26.3004E-03     15.6497E-03     60.4605E-03     130.901E+06     85.0910E+06     57.0789E+06    -57.3845E+06     73.4470E+06    -45.7406E+06     57.0789E+06    -39.0038E+06
            1811     97.5506E-03     7.79409E-03     97.2388E-03     53.5049E-03    -26.2661E-03    -27.2434E-03    -26.2079E-03     52.4694E-03    -26.2661E-03     17.9914E-03     63.3820E-03     132.156E+06     81.8391E+06     53.9967E+06    -61.8752E+06     71.0952E+06    -51.1313E+06     53.9967E+06    -37.7226E+06
            1812     97.6417E-03     8.76865E-03     97.2472E-03     54.0839E-03    -26.2544E-03    -27.8543E-03    -26.5541E-03     52.7837E-03    -26.2544E-03     20.2868E-03     67.3395E-03     128.803E+06     76.9687E+06     48.7218E+06    -63.5477E+06     67.9625E+06    -54.5415E+06     48.7218E+06    -34.3338E+06
            1813     97.7437E-03     9.74259E-03     97.2570E-03     55.0013E-03    -26.2911E-03    -28.7287E-03    -27.0258E-03     53.2984E-03    -26.2911E-03     23.4188E-03     72.8083E-03     124.040E+06     71.4210E+06     44.3266E+06    -63.8243E+06     63.4496E+06    -55.8530E+06     44.3266E+06    -31.7873E+06
            1814     97.8589E-03     10.7159E-03     97.2704E-03     55.9134E-03    -26.3437E-03    -29.5734E-03    -27.6467E-03     53.9867E-03    -26.3437E-03     25.2326E-03     79.2176E-03     120.105E+06     63.6821E+06     31.4217E+06    -69.1002E+06     57.2170E+06    -62.6351E+06     31.4217E+06    -28.2597E+06
            1815     97.9829E-03     11.6894E-03     97.2832E-03     57.0384E-03    -26.4222E-03    -30.6270E-03    -28.4146E-03     54.8260E-03    -26.4222E-03     27.3143E-03     87.5429E-03     105.511E+06     55.4813E+06     16.6611E+06    -63.7405E+06     50.3614E+06    -58.6206E+06     16.6611E+06    -23.9956E+06
            1816     98.1209E-03     12.6608E-03     97.3006E-03     58.8869E-03    -26.5444E-03    -32.3601E-03    -29.1968E-03     55.7236E-03    -26.5444E-03     33.1439E-03     100.395E-03     90.9187E+06     47.5787E+06     796.856E+03    -56.8411E+06     42.2073E+06    -51.4698E+06     796.856E+03    -22.6447E+06
            1817     98.2760E-03     13.6326E-03     97.3258E-03     60.7872E-03    -26.6143E-03    -34.1672E-03    -29.3322E-03     55.9522E-03    -26.6143E-03     41.4771E-03     123.467E-03     90.7163E+06     33.5778E+06    -34.8181E+06    -67.1580E+06     27.7522E+06    -61.3323E+06    -34.8181E+06    -21.5344E+06
            1818     98.4528E-03     14.6059E-03     97.3634E-03     80.9535E-03    -26.6486E-03    -54.2949E-03    -30.8911E-03     57.5497E-03    -26.6486E-03     96.8611E-03     179.025E-03     86.5473E+06     24.6198E+06    -38.9299E+06    -70.9635E+06     10.2467E+06    -31.9466E+06    -63.5737E+06    -21.0244E+06
            1819     98.7440E-03     15.5767E-03     97.5076E-03     167.195E-03    -26.5848E-03    -140.607E-03    -42.4315E-03     69.0195E-03    -26.5848E-03     284.705E-03     395.740E-03     113.577E+06     60.1283E+06    -11.0407E+06    -70.1456E+06     209.873E+03     48.8778E+06    -70.1456E+06    -17.1887E+06
            1820     99.3485E-03     16.5552E-03     97.9595E-03     216.611E-03    -26.7150E-03    -189.873E-03    -45.9656E-03     72.7035E-03    -26.7150E-03     388.771E-03     607.724E-03     158.428E+06     145.133E+06     41.5251E+06    -37.1545E+06    -1.79630E+06     144.236E+06     7.06399E+06    -7.66383E+06
            1821     98.2702E-03     975.151E-06     98.2654E-03     50.4042E-03    -25.1160E-03    -25.2874E-03    -25.2147E-03     50.3728E-03    -25.1573E-03     2.81475E-03     50.5887E-03     87.5346E+06     93.8870E+06     84.3801E+06     2.00955E+06     89.7689E+06     4.29393E+06     86.2138E+06    -12.8184E+06
            1822     98.2865E-03     1.95095E-03     98.2671E-03     50.1995E-03    -25.0853E-03    -25.1138E-03    -25.0064E-03     50.1067E-03    -25.0998E-03     5.13094E-03     50.7279E-03     79.1037E+06     91.3888E+06     79.5884E+06     7.06809E+06     85.9105E+06     12.5464E+06     79.5884E+06    -20.5018E+06
            1823     98.3115E-03     2.92626E-03     98.2680E-03     50.1367E-03    -25.0309E-03    -25.1061E-03    -24.9003E-03     49.9308E-03    -25.0309E-03     7.66411E-03     51.2617E-03     88.6022E+06     91.8857E+06     75.5561E+06    -3.72032E+06     83.4830E+06     4.68243E+06     75.5561E+06    -27.0028E+06
            1824     98.3482E-03     3.90186E-03     98.2708E-03     50.0561E-03    -24.9643E-03    -25.0982E-03    -24.7248E-03     49.6827E-03    -24.9643E-03     10.3791E-03     52.0233E-03     102.776E+06     93.2022E+06     71.4750E+06    -18.6353E+06     82.1466E+06    -7.57960E+06     71.4750E+06    -33.2880E+06
            1825     98.3948E-03     4.87780E-03     98.2738E-03     49.9386E-03    -24.8678E-03    -25.0821E-03    -24.4824E-03     49.3389E-03    -24.8678E-03     13.1569E-03     52.9968E-03     112.451E+06     93.0436E+06     65.5675E+06    -30.5518E+06     80.0653E+06    -17.5735E+06     65.5675E+06    -37.8481E+06
            1826     98.4524E-03     5.85412E-03     98.2782E-03     50.1055E-03    -24.7732E-03    -25.3443E-03    -24.4524E-03     49.2137E-03    -24.7732E-03     16.0916E-03     54.5530E-03     119.936E+06     88.4285E+06     57.8231E+06    -43.7587E+06     75.7397E+06    -31.0700E+06     57.8231E+06    -38.8559E+06
            1827     98.5206E-03     6.83002E-03     98.2836E-03     50.5925E-03    -24.6991E-03    -25.8942E-03    -24.6213E-03     49.3196E-03    -24.6991E-03     19.3172E-03     56.7703E-03     121.581E+06     82.6404E+06     48.6920E+06    -52.0954E+06     70.8033E+06    -40.2583E+06     48.6920E+06    -38.1191E+06
            1828     98.6005E-03     7.80601E-03     98.2910E-03     51.2845E-03    -24.6907E-03    -26.5939E-03    -24.9070E-03     49.5976E-03    -24.6907E-03     22.4370E-03     59.6288E-03     122.184E+06     75.4996E+06     43.3561E+06    -59.3397E+06     65.1268E+06    -48.9669E+06     43.3561E+06    -35.7819E+06
            1829     98.6910E-03     8.78133E-03     98.2996E-03     52.2561E-03    -24.7203E-03    -27.5554E-03    -25.4254E-03     50.1261E-03    -24.7203E-03     25.4554E-03     63.5079E-03     119.319E+06     67.6272E+06     37.7114E+06    -63.6891E+06     59.3540E+06    -55.4159E+06     37.7114E+06    -31.8925E+06
            1830     98.7937E-03     9.75631E-03     98.3108E-03     53.7024E-03    -24.8161E-03    -28.9080E-03    -26.2102E-03     51.0046E-03    -24.8161E-03     29.1005E-03     69.0541E-03     111.133E+06     59.3711E+06     34.5656E+06    -61.8395E+06     52.9294E+06    -55.3978E+06     34.5656E+06    -27.0743E+06
            1831     98.9083E-03     10.7306E-03     98.3245E-03     55.3334E-03    -24.9782E-03    -30.3582E-03    -27.3363E-03     52.3116E-03    -24.9782E-03     31.3832E-03     75.6602E-03     110.335E+06     51.6053E+06     26.1391E+06    -68.9960E+06     46.6550E+06    -64.0457E+06     26.1391E+06    -23.8379E+06
            1832     99.0327E-03     11.7028E-03     98.3388E-03     57.0071E-03    -25.1594E-03    -31.8542E-03    -28.5235E-03     53.6764E-03    -25.1594E-03     33.5406E-03     84.2232E-03     97.3866E+06     45.2558E+06     10.8933E+06    -64.5128E+06     41.2984E+06    -60.5554E+06     10.8933E+06    -20.3913E+06
            1833     99.1707E-03     12.6757E-03     98.3573E-03     59.4692E-03    -25.4357E-03    -34.0504E-03    -29.6847E-03     55.1036E-03    -25.4357E-03     39.2299E-03     97.2782E-03     80.1964E+06     35.5262E+06     1.35062E+06    -55.7208E+06     32.9382E+06    -53.1328E+06     1.35062E+06    -14.7590E+06
            1834     99.3269E-03     13.6459E-03     98.3851E-03     62.4625E-03    -25.7164E-03    -36.7428E-03    -31.0197E-03     56.7394E-03    -25.7164E-03     46.1609E-03     121.638E-03     76.6567E+06     22.6313E+06    -23.9991E+06    -63.7154E+06     21.4090E+06    -62.4930E+06    -23.9991E+06    -9.47787E+06
            1835     99.4987E-03     14.6161E-03     98.4193E-03     82.4386E-03    -25.9686E-03    -56.4572E-03    -32.3476E-03     58.3290E-03    -25.9686E-03     99.5224E-03     177.903E-03     67.4109E+06     23.8484E+06    -25.2359E+06    -52.4669E+06     9.55410E+06    -24.1160E+06    -39.2925E+06    -10.5923E+06
            1836     99.7945E-03     15.5900E-03     98.5693E-03     167.054E-03    -26.0538E-03    -140.996E-03    -43.1753E-03     69.2332E-03    -26.0538E-03     284.786E-03     396.053E-03     84.9161E+06     52.7340E+06    -6.49259E+06    -44.2367E+06     270.720E+03     45.9707E+06    -44.2367E+06    -14.6893E+06
            1837     100.389E-03     16.5672E-03     99.0124E-03     215.442E-03    -26.2531E-03    -189.192E-03    -46.6189E-03     72.8688E-03    -26.2531E-03     386.575E-03     609.071E-03     139.961E+06     132.882E+06     46.8612E+06    -27.5084E+06    -2.04207E+06     131.103E+06     23.1737E+06    -7.30283E+06
            1838     99.3206E-03     977.535E-06     99.3158E-03     46.1823E-03    -22.9986E-03    -23.1835E-03    -23.1381E-03     46.1370E-03    -22.9986E-03     3.25701E-03     46.3347E-03     71.2666E+06     101.681E+06     92.4881E+06     26.2678E+06     96.9524E+06     29.0470E+06     94.4374E+06    -12.9694E+06
            1839     99.3352E-03     1.95455E-03     99.3159E-03     46.0946E-03    -23.0065E-03    -23.0891E-03    -22.9452E-03     45.9507E-03    -23.0065E-03     6.05198E-03     46.5277E-03     69.1711E+06     99.2805E+06     87.8244E+06     25.1390E+06     93.1786E+06     31.2408E+06     87.8244E+06    -20.1463E+06
            1840     99.3609E-03     2.93244E-03     99.3176E-03     46.0219E-03    -22.9267E-03    -23.0965E-03    -22.7740E-03     45.6994E-03    -22.9267E-03     9.18256E-03     46.9299E-03     79.1889E+06     98.2647E+06     79.3936E+06     11.4341E+06     89.0688E+06     20.6301E+06     79.3936E+06    -26.6515E+06
            1841     99.3964E-03     3.91009E-03     99.3195E-03     45.9467E-03    -22.8128E-03    -23.1321E-03    -22.5498E-03     45.3644E-03    -22.8128E-03     12.4209E-03     47.5062E-03     90.2362E+06     96.4878E+06     67.9895E+06    -4.24641E+06     84.0301E+06     8.21123E+06     67.9895E+06    -33.0213E+06
            1842     99.4424E-03     4.88821E-03     99.3222E-03     46.0234E-03    -22.6974E-03    -23.3231E-03    -22.3794E-03     45.0797E-03    -22.6974E-03     15.8227E-03     48.4254E-03     99.2000E+06     89.9651E+06     55.8764E+06    -21.4538E+06     76.9814E+06    -8.47010E+06     55.8764E+06    -35.5223E+06
            1843     99.4993E-03     5.86622E-03     99.3262E-03     46.4366E-03    -22.5998E-03    -23.8362E-03    -22.4112E-03     45.0115E-03    -22.5998E-03     19.5438E-03     49.8989E-03     103.450E+06     80.2327E+06     43.8132E+06    -36.2435E+06     68.3677E+06    -24.3785E+06     43.8132E+06    -35.1666E+06
            1844     99.5676E-03     6.84437E-03     99.3321E-03     47.1742E-03    -22.5400E-03    -24.6340E-03    -22.6312E-03     45.1713E-03    -22.5400E-03     23.3880E-03     52.0046E-03     103.358E+06     68.8902E+06     31.3468E+06    -47.8570E+06     58.1224E+06    -37.0892E+06     31.3468E+06    -33.5515E+06
            1845     99.6471E-03     7.82201E-03     99.3396E-03     48.2819E-03    -22.5579E-03    -25.7303E-03    -23.0826E-03     45.6341E-03    -22.5579E-03     27.2354E-03     54.8692E-03     101.141E+06     56.3359E+06     23.9867E+06    -56.9160E+06     47.5267E+06    -48.1068E+06     23.9867E+06    -30.2141E+06
            1846     99.7383E-03     8.79928E-03     99.3494E-03     49.8949E-03    -22.6500E-03    -27.2543E-03    -23.9328E-03     46.5734E-03    -22.6500E-03     31.0817E-03     58.8800E-03     98.0969E+06     44.6093E+06     18.8614E+06    -63.5617E+06     37.6389E+06    -56.5913E+06     18.8614E+06    -26.3308E+06
            1847     99.8407E-03     9.77539E-03     99.3610E-03     52.1017E-03    -22.8423E-03    -29.2718E-03    -25.1723E-03     48.0021E-03    -22.8423E-03     35.3726E-03     64.7146E-03     90.0341E+06     33.7210E+06     16.9330E+06    -63.2124E+06     29.0260E+06    -58.5174E+06     16.9330E+06    -20.6819E+06
            1848     99.9570E-03     10.7500E-03     99.3773E-03     54.5066E-03    -23.1397E-03    -31.3732E-03    -26.8474E-03     49.9808E-03    -23.1397E-03     38.2009E-03     71.6819E-03     86.1205E+06     26.4454E+06     12.2367E+06    -65.6626E+06     20.7479E+06    -61.8649E+06     14.1365E+06    -18.0938E+06
            1849     100.082E-03     11.7236E-03     99.3931E-03     57.0973E-03    -23.4953E-03    -33.6008E-03    -28.8331E-03     52.3296E-03    -23.4953E-03     40.3592E-03     80.9868E-03     78.3581E+06     16.7746E+06    -1.96076E+06    -68.6239E+06     12.0633E+06    -65.8123E+06    -60.9859E+03    -14.8592E+06
            1850     100.221E-03     12.6939E-03     99.4138E-03     60.3558E-03    -23.9618E-03    -36.3994E-03    -30.7217E-03     54.6780E-03    -23.9618E-03     45.3812E-03     94.6676E-03     59.6198E+06     6.84701E+06    -8.15813E+06    -58.3697E+06     5.42513E+06    -56.9478E+06    -8.15813E+06    -9.21007E+06
            1851     100.378E-03     13.6649E-03     99.4431E-03     64.7936E-03    -24.4915E-03    -40.3054E-03    -33.2483E-03     57.7366E-03    -24.4915E-03     52.5407E-03     120.039E-03     62.2151E+06     3.14820E+06    -26.3429E+06    -66.7843E+06     2.51254E+06    -66.1486E+06    -26.3429E+06    -5.41937E+06
            1852     100.554E-03     14.6298E-03     99.4837E-03     83.7313E-03    -25.0328E-03    -58.6971E-03    -35.0056E-03     60.0398E-03    -25.0328E-03     101.307E-03     177.256E-03     66.4168E+06     26.6088E+06    -21.6930E+06    -48.3284E+06    -321.688E+03    -15.4367E+06    -27.6541E+06    -5.35686E+06
            1853     100.835E-03     15.6012E-03     99.6207E-03     167.500E-03    -25.4224E-03    -142.076E-03    -45.6057E-03     71.0296E-03    -25.4224E-03     284.378E-03     398.106E-03     68.7499E+06     53.2734E+06    -5.02587E+06    -21.4907E+06    -5.88434E+06     51.0784E+06    -18.4373E+06    -10.4517E+06
            1854     101.440E-03     16.5738E-03     100.077E-03     213.425E-03    -25.8872E-03    -187.539E-03    -48.5853E-03     74.4713E-03    -25.8872E-03     381.594E-03     611.699E-03     125.839E+06     120.761E+06     62.6605E+06    -16.2123E+06    -6.93322E+06     118.933E+06     55.2102E+06    -8.54174E+06
            1855     100.365E-03     979.859E-06     100.360E-03     40.7817E-03    -20.3518E-03    -20.4302E-03    -20.3597E-03     40.7122E-03    -20.3528E-03     3.79700E-03     40.8975E-03     51.5943E+06     102.953E+06     96.3493E+06     48.3796E+06     97.9984E+06     51.3850E+06     98.2987E+06    -10.5928E+06
            1856     100.380E-03     1.96028E-03     100.361E-03     40.7691E-03    -20.2998E-03    -20.4695E-03    -20.2523E-03     40.5519E-03    -20.2998E-03     7.00918E-03     41.0932E-03     53.8508E+06     100.729E+06     88.2993E+06     42.0802E+06     94.1646E+06     48.6449E+06     88.2993E+06    -18.2243E+06
            1857     100.405E-03     2.94008E-03     100.362E-03     40.6831E-03    -20.1832E-03    -20.4995E-03    -20.0173E-03     40.2010E-03    -20.1832E-03     10.5662E-03     41.3440E-03     62.4279E+06     96.7918E+06     72.0854E+06     26.5836E+06     86.6791E+06     36.6963E+06     72.0854E+06    -24.3096E+06
            1858     100.440E-03     3.92085E-03     100.363E-03     40.6999E-03    -20.0342E-03    -20.6649E-03    -19.7939E-03     39.8289E-03    -20.0342E-03     14.2640E-03     41.8186E-03     69.6764E+06      88.201E+06     52.7704E+06     8.68917E+06      75.977E+06     20.9132E+06     52.7704E+06    -28.3713E+06
            1859     100.485E-03     4.90136E-03     100.365E-03     41.1211E-03    -19.9226E-03    -21.1969E-03    -19.7815E-03     39.7056E-03    -19.9226E-03     18.3035E-03     42.8321E-03     76.7397E+06     74.4375E+06     35.2927E+06    -13.6054E+06     63.0004E+06    -2.16836E+06     35.2927E+06    -29.3892E+06
            1860     100.542E-03     5.88209E-03     100.370E-03     41.8918E-03    -19.8606E-03    -22.0222E-03    -19.8998E-03     39.7693E-03    -19.8606E-03     22.6492E-03     44.3405E-03     77.1136E+06     58.6772E+06     21.5344E+06    -29.8224E+06     49.0257E+06    -20.1708E+06     21.5344E+06    -27.3927E+06
            1861     100.610E-03     6.86236E-03     100.375E-03     43.0694E-03    -19.8632E-03    -23.1969E-03    -20.2431E-03     40.1157E-03    -19.8632E-03     27.1030E-03     46.5421E-03     75.9076E+06     42.0312E+06     10.9606E+06    -44.2442E+06     34.6554E+06    -36.8684E+06     10.9606E+06    -23.8691E+06
            1862     100.690E-03     7.84235E-03     100.384E-03     44.7907E-03    -19.9412E-03    -24.8525E-03    -20.9979E-03     40.9360E-03    -19.9412E-03     31.6292E-03     49.6466E-03     70.8598E+06     25.3192E+06     3.25337E+06    -53.8610E+06     19.9470E+06    -48.4888E+06     3.25337E+06    -19.6984E+06
            1863     100.781E-03     8.82132E-03     100.394E-03     47.1487E-03    -20.1496E-03    -27.0040E-03    -22.2682E-03     42.4129E-03    -20.1496E-03     36.0819E-03     54.0445E-03     69.1724E+06     13.5000E+06    -2.56085E+06    -62.1131E+06     5.80690E+06    -58.2679E+06     1.28705E+06    -15.8051E+06
            1864     100.885E-03     9.79873E-03     100.408E-03     50.3113E-03    -20.4935E-03    -29.8273E-03    -24.1422E-03     44.6262E-03    -20.4935E-03     40.9960E-03     60.5017E-03     66.0433E+06     7.63970E+06    -5.38436E+06    -63.6883E+06    -3.81395E+06    -60.4586E+06     2.83953E+06    -13.6731E+06
            1865     101.003E-03     10.7745E-03     100.427E-03     53.6792E-03    -20.9753E-03    -32.7112E-03    -26.6363E-03     47.6042E-03    -20.9753E-03     44.0690E-03     68.3339E-03     65.5248E+06     6.36023E+06    -8.91264E+06    -64.8177E+06    -9.94637E+06    -62.3488E+06     4.92503E+06    -10.5122E+06
            1866     101.131E-03     11.7469E-03     100.447E-03     57.2854E-03    -21.5657E-03    -35.7203E-03    -29.6224E-03     51.1874E-03    -21.5657E-03     45.9920E-03     78.6362E-03     62.8214E+06    -2.25886E+06    -13.8457E+06    -69.4775E+06    -14.7453E+06    -67.5845E+06    -3.25231E+06    -8.99942E+06
            1867     101.272E-03     12.7175E-03     100.470E-03     61.8604E-03    -22.2800E-03    -39.5848E-03    -32.8473E-03     55.1230E-03    -22.2800E-03     50.5006E-03     93.8950E-03     47.7581E+06    -9.50713E+06    -16.4506E+06    -60.2425E+06    -15.4639E+06    -58.4117E+06    -12.3247E+06    -8.58563E+06
            1868     101.430E-03     13.6833E-03     100.503E-03     66.9459E-03    -23.1047E-03    -43.8439E-03    -35.9404E-03     59.0424E-03    -23.1047E-03     57.0088E-03     120.115E-03     53.8214E+06    -12.0371E+06    -32.5378E+06    -72.0036E+06    -15.8256E+06    -71.2094E+06    -29.5436E+06    -5.46939E+06
            1869     101.609E-03     14.6498E-03     100.548E-03     85.3784E-03    -24.0099E-03    -61.3680E-03    -39.3818E-03     63.3922E-03    -24.0099E-03     101.245E-03     179.040E-03     71.6284E+06     27.0362E+06    -20.5594E+06    -53.1838E+06    -17.2018E+06    -8.94581E+06    -20.5594E+06    -5.55506E+06
            1870     101.886E-03     15.6134E-03     100.682E-03     166.095E-03    -24.7980E-03    -141.294E-03    -49.3626E-03     74.1634E-03    -24.7980E-03     277.829E-03     402.786E-03     73.7891E+06     62.0776E+06    -1.93011E+06    -17.5414E+06    -14.9639E+06     60.2494E+06    -2.67947E+06    -10.3854E+06
            1871     102.489E-03     16.5862E-03     101.138E-03     210.139E-03    -25.5896E-03    -184.568E-03    -50.7697E-03     76.3398E-03    -25.5896E-03     373.665E-03     614.425E-03     119.435E+06     112.341E+06     73.4422E+06    -11.6856E+06    -9.27032E+06     110.675E+06     72.6928E+06    -10.6348E+06
            1872     101.404E-03     983.362E-06     101.399E-03     34.2789E-03    -17.0271E-03    -17.2513E-03    -17.1507E-03     34.1793E-03    -17.0281E-03     4.18774E-03     34.3579E-03     30.7046E+06     95.3403E+06     87.8575E+06     62.9679E+06     90.0600E+06     69.2697E+06     86.8359E+06    -8.30188E+06
            1873     101.418E-03     1.96621E-03     101.399E-03     34.2562E-03    -17.0067E-03    -17.2486E-03    -16.9421E-03     33.9497E-03    -17.0067E-03     7.62577E-03     34.4660E-03     35.4684E+06     93.3135E+06     75.6166E+06     54.1524E+06     83.9857E+06     64.6749E+06     74.4220E+06    -15.1149E+06
            1874     101.443E-03     2.95005E-03     101.400E-03     34.3176E-03    -16.8784E-03    -17.4375E-03    -16.7653E-03     33.6454E-03    -16.8784E-03     11.4560E-03     34.7359E-03     42.1079E+06     84.2841E+06     55.7776E+06     36.8920E+06     73.3697E+06     48.9809E+06     54.6032E+06    -19.0329E+06
            1875     101.477E-03     3.93339E-03     101.401E-03     34.6759E-03    -16.7601E-03    -17.9182E-03    -16.6927E-03     33.4504E-03    -16.7601E-03     15.6149E-03     35.3821E-03     44.9971E+06     67.6980E+06     34.1250E+06     17.0646E+06     58.0810E+06     27.8560E+06     32.9505E+06    -19.2864E+06
            1876     101.522E-03     4.91723E-03     101.403E-03     35.5013E-03    -16.7072E-03    -18.7993E-03    -16.8309E-03     33.5328E-03    -16.7072E-03     20.0610E-03     36.5784E-03     45.8030E+06     45.9354E+06     14.1408E+06    -6.01580E+06     39.1238E+06      795.84E+03     14.1408E+06    -17.0171E+06
            1877     101.579E-03     5.90033E-03     101.407E-03     36.7032E-03    -16.7027E-03    -19.9976E-03    -17.1029E-03     33.8085E-03    -16.7027E-03     24.7372E-03     38.2733E-03     41.9457E+06     22.9041E+06    -3.88214E+06    -24.7666E+06     18.5052E+06    -20.3677E+06    -3.88214E+06    -13.2331E+06
            1878     101.647E-03     6.88351E-03     101.414E-03     38.5122E-03    -16.7937E-03    -21.7185E-03    -17.7199E-03     34.5136E-03    -16.7937E-03     29.7941E-03     40.8276E-03     38.4186E+06     2.06562E+06    -15.0972E+06    -41.0540E+06    -1.28318E+06    -38.2733E+06    -14.5292E+06    -9.40191E+06
            1879     101.727E-03     7.86558E-03     101.423E-03     41.0623E-03    -17.0123E-03    -24.0514E-03    -18.9185E-03     35.9293E-03    -17.0123E-03     34.9432E-03     44.5107E-03     39.1613E+06    -8.74537E+06    -21.9164E+06    -52.1419E+06    -16.6712E+06    -50.4220E+06    -15.7104E+06    -6.58958E+06
            1880     101.821E-03     8.84615E-03     101.436E-03     44.3771E-03    -17.3897E-03    -26.9836E-03    -20.7978E-03     38.1914E-03    -17.3897E-03     40.0455E-03     49.6814E-03     46.3342E+06    -7.62906E+06    -26.5867E+06    -59.5227E+06    -25.4067E+06    -58.5320E+06    -9.79971E+06    -5.55307E+06
            1881     101.927E-03     9.82487E-03     101.452E-03     48.6617E-03    -17.9254E-03    -30.7433E-03    -23.5176E-03     41.4360E-03    -17.9254E-03     45.5977E-03     57.1275E-03     50.7263E+06    -3.22890E+06    -28.9498E+06    -60.2386E+06    -30.6336E+06    -58.5548E+06    -3.22890E+06    -6.49706E+06
            1882     102.048E-03     10.8002E-03     101.475E-03     53.1739E-03    -18.6410E-03    -34.5438E-03    -27.0474E-03     45.6775E-03    -18.6410E-03     48.9529E-03     66.1135E-03     59.1190E+06     152.738E+03    -29.4450E+06    -66.8626E+06    -31.3232E+06    -64.9844E+06     152.738E+03    -7.01902E+06
            1883     102.179E-03     11.7723E-03     101.498E-03     58.0971E-03    -19.5095E-03    -38.5938E-03    -31.3155E-03     50.8188E-03    -19.5095E-03     50.9779E-03     77.8449E-03     56.4619E+06    -2.52849E+06    -25.3516E+06    -65.9648E+06    -27.7584E+06    -63.5580E+06    -2.52849E+06    -8.18158E+06
            1884     102.324E-03     12.7395E-03     101.527E-03     63.9198E-03    -20.5623E-03    -43.3613E-03    -35.8489E-03     56.4074E-03    -20.5623E-03     54.7416E-03     94.9364E-03     47.2679E+06    -11.0149E+06    -24.7670E+06    -62.7093E+06    -26.8610E+06    -60.6153E+06    -11.0149E+06    -7.66892E+06
            1885     102.486E-03     13.7038E-03     101.566E-03     70.2079E-03    -21.7771E-03    -48.4320E-03    -40.4078E-03     62.1838E-03    -21.7771E-03     59.5608E-03     122.753E-03     49.1646E+06    -19.6398E+06    -33.8993E+06    -74.1658E+06    -26.6084E+06    -73.1520E+06    -27.9446E+06    -6.55172E+06
            1886     102.665E-03     14.6627E-03     101.613E-03     89.1948E-03    -23.1519E-03    -66.0343E-03    -46.0089E-03     69.1694E-03    -23.1519E-03     100.974E-03     184.526E-03     66.3349E+06     28.2240E+06    -10.4742E+06    -47.1559E+06    -19.6075E+06     675.638E+03    -10.4742E+06    -11.2052E+06
            1887     102.949E-03     15.6186E-03     101.757E-03     162.066E-03    -24.4325E-03    -137.625E-03    -54.4659E-03     78.9072E-03    -24.4325E-03     263.555E-03     407.859E-03     73.5358E+06     65.4074E+06     5.73373E+06    -15.5312E+06    -11.7937E+06     62.1722E+06     5.23141E+06    -14.2880E+06
            1888     103.521E-03     16.5823E-03     102.184E-03     204.011E-03    -25.5391E-03    -178.511E-03    -50.9895E-03     76.4899E-03    -25.5391E-03     360.494E-03     614.674E-03     111.557E+06     106.737E+06     73.1698E+06    -8.15954E+06    -5.88227E+06     103.161E+06     74.4676E+06    -10.4628E+06
            1889     102.434E-03     986.493E-06     102.430E-03     27.0068E-03    -13.3547E-03    -13.6519E-03    -13.5228E-03     26.8777E-03    -13.3547E-03     4.20833E-03     27.0531E-03     24.3093E+06     90.0404E+06     70.9287E+06     64.6164E+06     73.2542E+06     83.5283E+06     68.8030E+06     -7.7758E+06
            1890     102.449E-03     1.97383E-03     102.430E-03     27.0484E-03    -13.3397E-03    -13.7095E-03    -13.3112E-03     26.6501E-03    -13.3397E-03     7.74209E-03     27.1559E-03     32.4221E+06     84.6416E+06     57.7420E+06     48.9785E+06     63.8196E+06     76.1169E+06     51.4256E+06    -10.1885E+06
            1891     102.473E-03     2.96041E-03     102.430E-03     27.4318E-03    -13.2658E-03    -14.1662E-03    -13.2998E-03     26.5654E-03    -13.2658E-03     11.6396E-03     27.6412E-03     31.0361E+06     64.3689E+06     39.7631E+06     29.7497E+06     48.4854E+06     53.1995E+06     32.1968E+06    -9.34182E+06
            1892     102.507E-03     3.94769E-03     102.431E-03     28.2630E-03    -13.2366E-03    -15.0268E-03    -13.4618E-03     26.6981E-03    -13.2366E-03     15.9399E-03     28.6242E-03     29.2880E+06     41.2471E+06     16.5425E+06     9.02731E+06     28.7922E+06     27.0733E+06     10.9514E+06    -4.45500E+06
            1893     102.553E-03     4.93394E-03     102.434E-03     29.5224E-03    -13.2655E-03    -16.2569E-03    -13.7563E-03     27.0218E-03    -13.2655E-03     20.6039E-03     30.1048E-03     27.1868E+06     16.1737E+06    -7.83070E+06    -13.1822E+06     6.54665E+06    -1.47350E+06    -9.91236E+06     875.755E+03
            1894     102.609E-03     5.92040E-03     102.438E-03     31.3667E-03    -13.3801E-03    -17.9833E-03    -14.3440E-03     27.7274E-03    -13.3801E-03     25.6279E-03     32.2925E-03     24.2282E+06    -6.09210E+06    -24.0335E+06    -32.2600E+06    -14.0777E+06    -24.2352E+06    -24.0727E+06     5.09708E+06
            1895     102.678E-03     6.90568E-03     102.445E-03     34.0171E-03    -13.6292E-03    -20.3871E-03    -15.4236E-03     29.0537E-03    -13.6292E-03     31.1982E-03     35.5489E-03     23.9694E+06    -19.7889E+06    -29.8279E+06    -46.3774E+06    -30.5257E+06    -39.1547E+06    -26.3138E+06     6.55425E+06
            1896     102.760E-03     7.88977E-03     102.457E-03     37.4261E-03    -14.0257E-03    -23.3953E-03    -17.1031E-03     31.1339E-03    -14.0257E-03     36.9565E-03     39.9857E-03     29.7111E+06    -19.5610E+06    -36.2113E+06    -52.9199E+06    -39.9242E+06    -49.2070E+06    -19.5610E+06     3.78923E+06
            1897     102.855E-03     8.87203E-03     102.472E-03     41.8237E-03    -14.5858E-03    -27.2325E-03    -19.6923E-03     34.2835E-03    -14.5858E-03     43.0029E-03     46.1583E-03     41.3590E+06    -10.2404E+06    -40.8356E+06    -56.8958E+06    -42.0118E+06    -55.7196E+06    -10.2404E+06    -683.993E+03
            1898     102.965E-03     9.85091E-03     102.493E-03     47.3562E-03    -15.3261E-03    -32.0351E-03    -23.3149E-03     38.6360E-03    -15.3261E-03     49.5903E-03     54.7896E-03     48.9384E+06    -2.00320E+06    -38.6513E+06    -57.1188E+06    -39.4636E+06    -56.3064E+06    -2.00320E+06    -3.02838E+06
            1899     103.090E-03     10.8263E-03     102.520E-03     53.2325E-03    -16.2918E-03    -36.9462E-03    -27.9922E-03     44.2786E-03    -16.2918E-03     53.8234E-03     65.1008E-03     56.9925E+06     2.37536E+06    -33.2896E+06    -62.5800E+06    -35.5454E+06    -60.3241E+06     2.37536E+06    -7.22248E+06
            1900     103.226E-03     11.7966E-03     102.550E-03     59.6908E-03    -17.4784E-03    -42.2134E-03    -33.5813E-03     51.0587E-03    -17.4784E-03     56.6829E-03     78.4395E-03     56.6685E+06    -328.366E+03    -27.7612E+06    -64.8460E+06    -31.2221E+06    -61.3852E+06    -328.366E+03    -10.3833E+06
            1901     103.378E-03     12.7612E-03     102.587E-03     67.0480E-03    -18.9093E-03    -48.1320E-03    -39.6083E-03     58.5242E-03    -18.9093E-03     60.2420E-03     97.3428E-03     53.2696E+06    -7.47830E+06    -24.2447E+06    -66.3488E+06    -26.2176E+06    -64.3759E+06    -7.47830E+06    -7.93697E+06
            1902     103.543E-03     13.7202E-03     102.630E-03     75.9043E-03    -20.5657E-03    -55.3393E-03    -46.5957E-03     67.1607E-03    -20.5657E-03     65.4374E-03     127.598E-03     54.2432E+06    -8.46858E+06    -26.8931E+06    -69.0589E+06    -19.0513E+06    -64.2856E+06    -21.0837E+06    -12.8872E+06
            1903     103.733E-03     14.6721E-03     102.690E-03     95.7480E-03    -22.4672E-03    -73.2841E-03    -54.0587E-03     76.5226E-03    -22.4672E-03     104.753E-03     192.146E-03     65.1104E+06     35.7342E+06    -5.15165E+06    -38.7987E+06    -10.5457E+06     7.48113E+06    -5.15165E+06    -20.3552E+06
            1904     104.014E-03     15.6202E-03     102.835E-03     160.727E-03    -24.2664E-03    -136.455E-03    -60.6982E-03     84.9706E-03    -24.2664E-03     253.384E-03     410.755E-03     65.9439E+06     61.1013E+06     7.32817E+06    -11.4644E+06    -4.97421E+06     57.0207E+06     4.91856E+06    -16.2190E+06
            1905     104.567E-03     16.5735E-03     103.245E-03     196.803E-03    -25.6616E-03    -171.151E-03    -49.7542E-03     75.4059E-03    -25.6616E-03     345.475E-03     611.317E-03     105.960E+06     103.602E+06     72.5347E+06    -6.06547E+06    -2.17600E+06     96.5573E+06     75.6903E+06    -7.50866E+06
            1906     103.459E-03     990.741E-06     103.454E-03     19.5293E-03    -9.64809E-03    -9.88076E-03    -9.72532E-03     19.3738E-03    -9.64809E-03     3.97723E-03     19.5499E-03     42.5451E+06     92.2647E+06     51.6257E+06     48.0971E+06     50.9760E+06     91.1653E+06     49.8462E+06    -2.66274E+06
            1907     103.472E-03     1.98072E-03     103.453E-03     19.8810E-03    -9.65169E-03    -10.2293E-03    -9.75875E-03     19.4104E-03    -9.65169E-03     7.21531E-03     19.9211E-03     46.7128E+06     79.4691E+06     36.9840E+06     30.1210E+06     37.3762E+06     78.0109E+06     31.1871E+06     253.845E+03
            1908     103.497E-03     2.97158E-03     103.454E-03     20.7089E-03    -9.69173E-03    -11.0168E-03    -9.99830E-03     19.6905E-03    -9.69173E-03     10.9878E-03     20.7914E-03     40.8925E+06     52.1350E+06     17.6340E+06     7.47002E+06     17.7968E+06     48.2000E+06     11.2422E+06     6.89500E+06
            1909     103.531E-03     3.96107E-03     103.455E-03     21.9291E-03    -9.78025E-03    -12.1489E-03    -10.3343E-03     20.1145E-03    -9.78025E-03     15.1286E-03     22.0905E-03     40.0327E+06     26.9939E+06    -5.46681E+06    -17.6021E+06    -4.29796E+06     18.1064E+06    -9.88351E+06     15.0415E+06
            1910     103.576E-03     4.95104E-03     103.458E-03     23.6840E-03    -9.92808E-03    -13.7556E-03    -10.8658E-03     20.7942E-03    -9.92808E-03     19.8397E-03     23.9987E-03     40.2532E+06     6.02425E+06    -23.9746E+06    -38.9798E+06    -23.7388E+06    -7.13511E+06    -26.0562E+06     19.7219E+06
            1911     103.633E-03     5.93971E-03     103.463E-03     26.2881E-03    -10.2019E-03    -16.0878E-03    -11.8639E-03     22.0642E-03    -10.2019E-03     25.2764E-03     26.8960E-03     37.6054E+06    -12.0678E+06    -29.9453E+06    -53.4627E+06    -37.5383E+06    -27.9531E+06    -29.9845E+06     19.8158E+06
            1912     103.704E-03     6.92731E-03     103.473E-03     29.7375E-03    -10.6085E-03    -19.1312E-03    -13.3615E-03     23.9677E-03    -10.6085E-03     31.4424E-03     30.9029E-03     34.6754E+06    -19.6505E+06    -27.5305E+06    -57.3283E+06    -43.2305E+06    -37.4656E+06    -23.8131E+06     16.5043E+06
            1913     103.788E-03     7.91307E-03     103.486E-03     34.1001E-03    -11.1552E-03    -22.9376E-03    -15.5814E-03     26.7439E-03    -11.1552E-03     38.1634E-03     36.2459E-03     35.4096E+06    -14.5560E+06    -33.5093E+06    -53.5577E+06    -43.9013E+06    -43.1657E+06    -14.5560E+06     9.52102E+06
            1914     103.886E-03     8.89624E-03     103.505E-03     39.5630E-03    -11.8883E-03    -27.6650E-03    -18.7833E-03     30.6813E-03    -11.8883E-03     45.4676E-03     43.4298E-03     41.8501E+06    -5.99038E+06    -40.9578E+06    -52.3267E+06    -43.2620E+06    -50.0226E+06    -5.99038E+06     2.27134E+06
            1915     104.000E-03     9.87617E-03     103.530E-03     46.3288E-03    -12.8276E-03    -33.4944E-03    -23.1534E-03     35.9877E-03    -12.8276E-03     53.5509E-03     53.1907E-03     49.2414E+06     196.130E+03    -37.7898E+06    -55.1341E+06    -40.4010E+06    -52.5229E+06     196.130E+03    -3.74437E+06
            1916     104.131E-03     10.8512E-03     103.565E-03     53.7304E-03    -14.0264E-03    -39.6970E-03    -28.8683E-03     42.9017E-03    -14.0264E-03     59.6675E-03     64.8648E-03     53.9524E+06     4.80809E+06    -30.2327E+06    -57.2423E+06    -34.8834E+06    -52.5917E+06     4.80809E+06    -9.16465E+06
            1917     104.275E-03     11.8197E-03     103.603E-03     61.7443E-03    -15.5110E-03    -46.2289E-03    -35.6451E-03     51.1604E-03    -15.5110E-03     64.0843E-03     79.6522E-03     58.7232E+06     2.20168E+06    -24.2488E+06    -64.4655E+06    -29.2403E+06    -59.4741E+06     2.20168E+06    -12.9166E+06
            1918     104.433E-03     12.7824E-03     103.648E-03     71.3981E-03    -17.3065E-03    -54.0843E-03    -43.6233E-03     60.9371E-03    -17.3065E-03     69.2419E-03     100.747E-03     61.4338E+06    -3.85586E+06    -16.6728E+06    -70.3062E+06    -21.6643E+06    -65.3147E+06    -3.85586E+06    -14.8284E+06
            1919     104.609E-03     13.7364E-03     103.703E-03     83.1732E-03    -19.4106E-03    -63.7651E-03    -52.9868E-03     72.3949E-03    -19.4106E-03     76.5471E-03     133.885E-03     60.5746E+06     5.98866E+06    -13.4666E+06    -60.5460E+06    -11.5728E+06    -46.1373E+06    -10.3138E+06    -23.4897E+06
            1920     104.807E-03     14.6812E-03     103.773E-03     103.400E-03    -21.8179E-03    -81.5927E-03    -61.5775E-03     83.3845E-03    -21.8179E-03     113.134E-03     199.649E-03     61.9284E+06     37.2822E+06     1.39327E+06    -33.8876E+06    -3.07498E+06     6.46956E+06     1.39327E+06    -28.5722E+06
            1921     105.091E-03     15.6209E-03     103.924E-03     160.489E-03    -23.9638E-03    -136.512E-03    -64.0966E-03     88.0737E-03    -23.9638E-03     248.441E-03     406.238E-03     58.1703E+06     49.2998E+06     8.04933E+06    -16.2142E+06     122.939E+03     40.3916E+06     620.375E+03    -15.0865E+06
            1922     105.619E-03     16.5752E-03     104.310E-03     190.068E-03    -25.5321E-03    -164.491E-03    -49.7318E-03     75.3085E-03    -25.5321E-03     331.284E-03     600.237E-03     107.685E+06     103.392E+06     73.3183E+06    -10.8865E+06    -2.38657E+06     93.9114E+06     74.2991E+06    -2.12264E+06
            1923     104.475E-03     993.756E-06     104.470E-03     12.6263E-03    -6.17107E-03    -6.45457E-03    -6.27672E-03     12.4622E-03    -6.18483E-03     3.27507E-03     12.6440E-03     71.9266E+06     86.9356E+06     18.3170E+06     12.1731E+06     15.0152E+06     85.8699E+06     16.5405E+06     7.07749E+06
            1924     104.489E-03     1.98807E-03     104.470E-03     13.4412E-03    -6.32477E-03    -7.11504E-03    -6.62320E-03     12.9494E-03    -6.32477E-03     6.11528E-03     13.4715E-03     71.3582E+06     71.0972E+06     6.77109E+06    -4.99850E+06     1.13139E+06     65.6426E+06     6.09581E+06     16.9892E+06
            1925     104.513E-03     2.98069E-03     104.471E-03     14.6480E-03    -6.51920E-03    -8.12740E-03    -7.05993E-03     13.5805E-03    -6.51920E-03     9.47818E-03     14.7105E-03     68.7632E+06     46.4211E+06    -7.87115E+06    -29.9744E+06    -16.5628E+06     33.0095E+06    -7.87115E+06     28.0057E+06
            1926     104.548E-03     3.97388E-03     104.473E-03     16.2396E-03    -6.73195E-03    -9.50758E-03    -7.59087E-03     14.3229E-03    -6.73195E-03     13.3988E-03     16.3721E-03     68.4006E+06     26.1458E+06    -22.0009E+06    -51.5500E+06    -32.1699E+06     6.76578E+06    -22.0009E+06     33.5369E+06
            1927     104.594E-03     4.96565E-03     104.476E-03     18.5667E-03    -7.01452E-03    -11.5544E-03    -8.44473E-03     15.4570E-03    -7.01452E-03     18.2232E-03     18.8501E-03     63.9970E+06     9.10128E+06    -28.6246E+06    -64.2880E+06    -42.1522E+06    -13.0345E+06    -28.6246E+06     33.6033E+06
            1928     104.653E-03     5.95680E-03     104.483E-03     21.7148E-03    -7.40528E-03    -14.3125E-03    -9.68894E-03     17.0913E-03    -7.40528E-03     24.0150E-03     22.2806E-03     54.6375E+06    -6.69640E+06    -27.4962E+06    -68.0897E+06    -47.3883E+06    -27.3978E+06    -27.4962E+06     29.0205E+06
            1929     104.724E-03     6.94633E-03     104.494E-03     25.7564E-03    -7.90438E-03    -17.8536E-03    -11.4432E-03     19.3460E-03    -7.90438E-03     30.8157E-03     26.8551E-03     42.4014E+06    -16.7344E+06    -23.9403E+06    -62.1353E+06    -48.3145E+06    -32.2204E+06    -22.2751E+06     20.0545E+06
            1930     104.811E-03     7.93408E-03     104.511E-03     30.9501E-03    -8.55791E-03    -22.3869E-03    -14.0257E-03     22.5888E-03    -8.55791E-03     38.7240E-03     32.9851E-03     36.9280E+06    -13.9706E+06    -28.2358E+06    -54.1774E+06    -46.0558E+06    -36.3574E+06    -13.9706E+06     11.4737E+06
            1931     104.914E-03     8.91859E-03     104.534E-03     37.4136E-03    -9.41951E-03    -27.9863E-03    -17.6594E-03     27.0867E-03    -9.41951E-03     47.6293E-03     41.0833E-03     40.2827E+06    -4.22701E+06    -35.4262E+06    -49.1135E+06    -42.0646E+06    -42.4751E+06    -4.22701E+06     3.52447E+06
            1932     105.033E-03     9.89915E-03     104.565E-03     45.5616E-03    -10.5124E-03    -35.0439E-03    -22.6702E-03     33.1879E-03    -10.5124E-03     58.0278E-03     52.0935E-03     46.4326E+06     3.30122E+06    -33.2828E+06    -48.7141E+06    -37.1064E+06    -44.8906E+06     3.30122E+06    -4.45507E+06
            1933     105.171E-03     10.8742E-03     104.607E-03     54.2686E-03    -11.8847E-03    -42.3812E-03    -29.0560E-03     40.9433E-03    -11.8847E-03     66.4721E-03     64.8730E-03     52.3433E+06     7.15474E+06    -24.6727E+06    -52.7459E+06    -32.1756E+06    -45.2430E+06     7.15474E+06    -11.9145E+06
            1934     105.323E-03     11.8434E-03     104.655E-03     64.0375E-03    -13.5987E-03    -50.4381E-03    -37.0706E-03     50.6700E-03    -13.5987E-03     73.3529E-03     81.2160E-03     62.1062E+06     6.03938E+06    -17.1280E+06    -63.7893E+06    -25.5992E+06    -55.3181E+06     6.03938E+06    -17.0842E+06
            1935     105.491E-03     12.8032E-03     104.711E-03     76.2070E-03    -15.6886E-03    -60.5116E-03    -46.9070E-03     62.6024E-03    -15.6886E-03     81.6464E-03     104.790E-03     67.4896E+06     2.22348E+06    -8.27281E+06    -69.4801E+06    -18.2474E+06    -58.6379E+06     1.35582E+06    -22.6402E+06
            1936     105.679E-03     13.7535E-03     104.780E-03     90.4722E-03    -18.1458E-03    -72.3208E-03    -57.8916E-03     76.0430E-03    -18.1458E-03     92.3281E-03     140.171E-03     65.2399E+06     14.7668E+06    -3.46216E+06    -55.9521E+06    -12.7268E+06    -28.7624E+06    -3.15830E+06    -31.8677E+06
            1937     105.890E-03     14.6927E-03     104.866E-03     111.445E-03    -20.9801E-03    -90.4647E-03    -67.9975E-03     88.9776E-03    -20.9801E-03     126.001E-03     206.547E-03     59.4820E+06     28.3358E+06     4.29768E+06    -38.2268E+06    -11.0131E+06     1.12206E+06     4.29768E+06    -31.9417E+06
            1938     106.174E-03     15.6295E-03     105.017E-03     155.965E-03    -23.4291E-03    -132.521E-03    -65.8575E-03     89.3016E-03    -23.4291E-03     236.338E-03     393.342E-03     52.6038E+06     26.2154E+06    -2.52016E+06    -30.4473E+06    -13.5331E+06     14.8229E+06    -8.04182E+06    -16.7155E+06
            1939     106.667E-03     16.5904E-03     105.369E-03     182.740E-03    -25.2057E-03    -157.494E-03    -51.5958E-03     76.8412E-03    -25.2057E-03     314.776E-03     580.103E-03     110.274E+06     97.9777E+06     67.6018E+06    -18.1675E+06    -10.9138E+06     87.6245E+06     70.7011E+06    -2.81540E+06
            1940     105.485E-03     997.031E-06     105.480E-03     7.31259E-03    -3.50816E-03    -3.80403E-03    -3.64299E-03     7.16531E-03    -3.52192E-03     2.37798E-03     7.35020E-03     94.3288E+06     65.8473E+06    -18.4912E+06    -35.5276E+06    -28.2103E+06     59.6311E+06    -19.5924E+06     21.8996E+06
            1941     105.499E-03     1.99256E-03     105.480E-03     8.29208E-03    -3.75334E-03    -4.53800E-03    -4.08573E-03     7.83981E-03    -3.75334E-03     4.61296E-03     8.36831E-03     97.2760E+06     54.7718E+06    -23.2032E+06    -53.2882E+06    -38.3639E+06     39.8475E+06    -23.2032E+06     35.6129E+06
            1942     105.524E-03     2.98867E-03     105.482E-03     9.69498E-03    -4.03700E-03    -5.65745E-03    -4.64326E-03     8.68079E-03    -4.03700E-03     7.52139E-03     9.82652E-03     92.0931E+06     36.9665E+06    -24.1103E+06    -68.6147E+06    -44.5041E+06     12.8559E+06    -24.1103E+06     43.9078E+06
            1943     105.559E-03     3.98327E-03     105.484E-03     11.6435E-03    -4.33533E-03    -7.30814E-03    -5.39431E-03     9.72968E-03    -4.33533E-03     11.3292E-03     11.8735E-03     86.9042E+06     25.0666E+06    -25.5524E+06    -75.1491E+06    -46.7114E+06    -3.37105E+06    -25.5524E+06     45.0320E+06
            1944     105.606E-03     4.97762E-03     105.489E-03     14.3684E-03    -4.69454E-03    -9.67463E-03    -6.45523E-03     11.1490E-03    -4.69454E-03     16.2965E-03     14.7718E-03     76.9736E+06     11.7273E+06    -26.5495E+06    -76.6677E+06    -47.9569E+06    -16.9834E+06    -26.5495E+06     41.2756E+06
            1945     105.666E-03     5.97037E-03     105.498E-03     17.8247E-03    -5.13773E-03    -12.6845E-03    -7.80628E-03     12.9464E-03    -5.13773E-03     22.3043E-03     18.5062E-03     63.2472E+06     27.9598E+03    -24.5607E+06    -71.7453E+06    -47.7271E+06    -23.9902E+06    -24.5607E+06     33.7689E+06
            1946     105.741E-03     6.96196E-03     105.511E-03     22.3299E-03    -5.68512E-03    -16.6413E-03    -9.67790E-03     15.3665E-03    -5.68512E-03     29.7992E-03     23.5348E-03     47.9610E+06    -8.71530E+06    -20.7212E+06    -61.3173E+06    -46.9895E+06    -23.9369E+06    -19.8273E+06     22.9192E+06
            1947     105.830E-03     7.95104E-03     105.531E-03     28.0699E-03    -6.39254E-03    -21.6787E-03    -12.3527E-03     18.7439E-03    -6.39254E-03     38.7770E-03     30.1625E-03     36.5199E+06    -11.0361E+06    -24.0851E+06    -51.0834E+06    -44.6478E+06    -28.7842E+06    -12.7727E+06     11.7682E+06
            1948     105.937E-03     8.93765E-03     105.559E-03     35.2903E-03    -7.29697E-03    -27.9946E-03    -16.1007E-03     23.3963E-03    -7.29697E-03     49.3777E-03     38.8890E-03     34.9094E+06    -4.02915E+06    -31.0402E+06    -42.7382E+06    -40.0107E+06    -33.7677E+06    -4.02915E+06     2.46751E+06
            1949     106.062E-03     9.91987E-03     105.597E-03     44.6261E-03    -8.44464E-03    -36.1880E-03    -21.3768E-03     29.8149E-03    -8.44464E-03     62.4361E-03     50.9155E-03     42.7894E+06     4.52801E+06    -27.0505E+06    -43.2054E+06    -34.4074E+06    -35.8485E+06     4.52801E+06    -6.22894E+06
            1950     106.208E-03     10.8964E-03     105.647E-03     54.6837E-03    -9.90087E-03    -44.7900E-03    -28.3383E-03     38.2320E-03    -9.90087E-03     73.7101E-03     64.8828E-03     51.2514E+06     11.1726E+06    -17.1878E+06    -47.5603E+06    -28.3571E+06    -36.3911E+06     11.1726E+06    -13.8523E+06
            1951     106.368E-03     11.8652E-03     105.705E-03     66.4328E-03    -11.7386E-03    -54.6931E-03    -37.4630E-03     49.2027E-03    -11.7386E-03     84.3963E-03     83.1348E-03     64.5118E+06     10.6678E+06    -9.90508E+06    -60.9063E+06    -23.0509E+06    -47.7605E+06     10.6678E+06    -21.2808E+06
            1952     106.551E-03     12.8252E-03     105.776E-03     80.6210E-03    -13.9932E-03    -66.6280E-03    -48.5317E-03     62.5247E-03    -13.9932E-03     96.3981E-03     108.655E-03     69.6838E+06     7.83960E+06    -2.16304E+06    -66.2140E+06    -17.1660E+06    -48.4067E+06     5.03533E+06    -28.5405E+06
            1953     106.751E-03     13.7740E-03     105.859E-03     96.8051E-03    -16.6858E-03    -80.1181E-03    -60.7142E-03     77.4011E-03    -16.6858E-03     110.374E-03     145.921E-03     61.8012E+06     16.0531E+06     2.93924E+06    -50.4946E+06    -16.1867E+06    -18.2548E+06     2.93924E+06    -31.3467E+06
            1954     106.979E-03     14.7128E-03     105.963E-03     119.801E-03    -19.8319E-03    -99.9676E-03    -73.4653E-03     93.2985E-03    -19.8319E-03     142.785E-03     213.092E-03     55.7402E+06     15.7622E+06     5.11568E+06    -43.5934E+06    -21.1253E+06    -6.70590E+06     5.11568E+06    -27.6783E+06
            1955     107.268E-03     15.6384E-03     106.122E-03     151.445E-03    -22.7065E-03    -128.734E-03    -71.7267E-03     94.4370E-03    -22.7065E-03     220.697E-03     377.765E-03     46.1341E+06     11.0207E+06    -7.88316E+06    -36.2099E+06    -20.6273E+06    -2.21325E+06    -10.2318E+06    -18.4349E+06
            1956     107.698E-03     16.5880E-03     106.413E-03     177.360E-03    -24.9126E-03    -152.446E-03    -56.3166E-03     81.2306E-03    -24.9126E-03     298.600E-03     557.809E-03     103.715E+06     92.4498E+06     61.6982E+06    -17.5370E+06    -12.4119E+06     77.4887E+06     71.5342E+06    -8.89766E+06
            1957     106.490E-03     997.773E-06     106.485E-03     4.06531E-03    -1.93053E-03    -2.13475E-03    -1.99850E-03     3.94342E-03    -1.94490E-03     1.60989E-03     4.13629E-03     91.6841E+06     33.6474E+06    -35.7188E+06    -69.5895E+06    -44.9488E+06     9.00675E+06    -35.7188E+06     38.9699E+06
            1958     106.505E-03     1.99620E-03     106.486E-03     4.87182E-03    -2.11208E-03    -2.75982E-03    -2.32022E-03     4.43223E-03    -2.11208E-03     3.43133E-03     5.06306E-03     106.024E+06     38.6436E+06    -33.4678E+06    -82.2953E+06    -50.5452E+06     6.89343E+06    -33.4678E+06     51.3250E+06
            1959     106.530E-03     2.99312E-03     106.488E-03     6.29701E-03    -2.36176E-03    -3.93509E-03    -2.93267E-03     5.29459E-03    -2.36176E-03     6.00622E-03     6.58703E-03     101.487E+06     29.8075E+06    -29.1318E+06    -87.1962E+06    -52.7117E+06    -4.67691E+06    -29.1318E+06     52.8527E+06
            1960     106.567E-03     3.99019E-03     106.492E-03     8.36264E-03    -2.66607E-03    -5.69645E-03    -3.78105E-03     6.44724E-03    -2.66607E-03     9.57616E-03     8.76027E-03     91.2066E+06     21.8348E+06    -26.0520E+06    -83.3020E+06    -49.6116E+06    -11.8556E+06    -26.0520E+06     49.0115E+06
            1961     106.615E-03     4.98570E-03     106.498E-03     11.1615E-03    -3.03343E-03    -8.12794E-03    -4.84710E-03     7.88070E-03    -3.03343E-03     14.4409E-03     11.7374E-03     78.4651E+06     13.1332E+06    -23.9273E+06    -76.9388E+06    -44.4012E+06    -19.4044E+06    -23.9273E+06     43.1599E+06
            1962     106.677E-03     5.98037E-03     106.509E-03     14.7883E-03    -3.47506E-03    -11.3098E-03    -6.20938E-03     9.68790E-03    -3.47506E-03     20.6472E-03     15.6443E-03     63.3733E+06     6.14415E+06    -20.2611E+06    -66.1466E+06    -39.7835E+06    -20.2190E+06    -20.2611E+06     34.5967E+06
            1963     106.752E-03     6.97333E-03     106.524E-03     19.5889E-03    -4.02380E-03    -15.5608E-03    -8.07070E-03     12.0988E-03    -4.02380E-03     28.7417E-03     20.9499E-03     49.9866E+06     1.01625E+06    -13.9925E+06    -54.4682E+06    -36.8553E+06    -16.5966E+06    -13.9925E+06     25.6511E+06
            1964     106.845E-03     7.96458E-03     106.548E-03     25.6508E-03    -4.72131E-03    -20.9293E-03    -10.6336E-03     15.3551E-03    -4.72131E-03     38.6060E-03     27.8407E-03     39.1671E+06    -3.59475E+06    -13.3398E+06    -45.5517E+06    -36.9496E+06    -18.2649E+06    -7.27173E+06     14.8398E+06
            1965     106.955E-03     8.95255E-03     106.580E-03     33.4242E-03    -5.59543E-03    -27.8273E-03    -14.2258E-03     19.8227E-03    -5.59543E-03     50.8463E-03     37.0190E-03     34.8044E+06    -1.23055E+06    -20.2003E+06    -39.1767E+06    -36.2177E+06    -23.1593E+06    -1.23055E+06     2.22616E+06
            1966     107.087E-03     9.93704E-03     106.625E-03     43.5583E-03    -6.70245E-03    -36.8590E-03    -19.3765E-03     26.0758E-03    -6.70245E-03     66.2443E-03     49.6775E-03     39.5221E+06     6.43735E+06    -18.4950E+06    -38.4145E+06    -31.5533E+06    -25.3563E+06     6.43735E+06    -8.56630E+06
            1967     107.241E-03     10.9160E-03     106.683E-03     54.6740E-03    -8.12005E-03    -46.5608E-03    -26.4343E-03     34.5475E-03    -8.12005E-03     80.5965E-03     64.4838E-03     49.2717E+06     12.6681E+06    -12.0330E+06    -43.8490E+06    -26.5836E+06    -29.2985E+06     12.6681E+06    -15.3944E+06
            1968     107.413E-03     11.8874E-03     106.753E-03     68.4419E-03    -9.94269E-03    -58.5002E-03    -36.2655E-03     46.2072E-03    -9.94269E-03     96.2506E-03     84.6867E-03     60.1545E+06     13.7706E+06    -5.97157E+06    -53.1870E+06    -23.1756E+06    -35.9830E+06     13.7706E+06    -22.5298E+06
            1969     107.608E-03     12.8480E-03     106.839E-03     84.2539E-03    -12.2251E-03    -72.0492E-03    -48.2908E-03     60.4955E-03    -12.2251E-03     111.881E-03     111.658E-03     67.1702E+06     9.19557E+06    -406.275E+03    -62.0784E+06    -21.6605E+06    -38.2941E+06     6.66542E+06    -30.7647E+06
            1970     107.825E-03     13.7979E-03     106.938E-03     102.642E-03    -15.0223E-03    -87.6381E-03    -62.0506E-03     77.0545E-03    -15.0223E-03     129.571E-03     151.057E-03     58.3156E+06     10.7928E+06     3.82664E+06    -50.5968E+06    -19.5326E+06    -20.2713E+06     3.82664E+06    -29.2457E+06
            1971     108.070E-03     14.7337E-03     107.061E-03     127.564E-03    -18.3273E-03    -109.237E-03    -76.4683E-03     94.7958E-03    -18.3273E-03     163.247E-03     217.488E-03     47.1660E+06     11.6185E+06     4.67952E+06    -38.5080E+06    -18.2309E+06    -10.9004E+06     6.92132E+06    -22.9843E+06
            1972     108.376E-03     15.6602E-03     107.238E-03     153.894E-03    -21.5995E-03    -132.289E-03    -81.0299E-03     102.635E-03    -21.5995E-03     217.816E-03     363.629E-03     46.3624E+06     13.3852E+06    -9.72951E+06    -35.9758E+06    -15.8105E+06    -6.67326E+06    -9.83638E+06    -20.8495E+06
            1973     108.756E-03     16.5934E-03     107.483E-03     173.496E-03    -24.4396E-03    -149.052E-03    -65.4105E-03     89.8550E-03    -24.4396E-03     279.968E-03     534.193E-03     100.495E+06     94.5603E+06     53.2183E+06    -15.9284E+06    -6.87457E+06     67.1251E+06     71.5998E+06    -13.3563E+06
            1974     107.493E-03     999.219E-06     107.488E-03     2.35347E-03    -1.13864E-03    -1.21486E-03    -1.10910E-03     2.28245E-03    -1.17337E-03     870.317E-06     2.40456E-03     67.3873E+06    -25.3029E+06    -72.6334E+06    -101.623E+06    -69.9183E+06    -53.0439E+06    -76.5968E+06     34.9150E+06
            1975     107.508E-03     1.99765E-03     107.489E-03     2.83934E-03    -1.19194E-03    -1.64760E-03    -1.25976E-03     2.45907E-03    -1.19950E-03     2.38694E-03     3.07219E-03     94.6488E+06     10.9143E+06    -54.6705E+06    -96.6572E+06    -56.6844E+06    -29.0585E+06    -54.6705E+06     51.8559E+06
            1976     107.534E-03     2.99653E-03     107.492E-03     4.21489E-03    -1.37776E-03    -2.83732E-03    -1.81702E-03     3.19459E-03    -1.37776E-03     4.92110E-03     4.64823E-03     98.2176E+06     22.9140E+06     -35.642E+06    -90.0737E+06    -46.4537E+06    -20.7059E+06     -35.642E+06     54.5939E+06
            1977     107.571E-03     3.99377E-03     107.497E-03     6.30672E-03    -1.64625E-03    -4.66050E-03    -2.66046E-03     4.30667E-03    -1.64625E-03     8.42489E-03     6.87833E-03     91.1390E+06     21.5408E+06    -26.0401E+06    -83.4697E+06    -42.4882E+06    -19.4407E+06    -26.0401E+06     50.7835E+06
            1978     107.621E-03     4.99076E-03     107.505E-03     9.07152E-03    -1.98242E-03    -7.08945E-03    -3.67612E-03     5.65820E-03    -1.98242E-03     13.1564E-03     9.82088E-03     79.3855E+06     14.6185E+06    -22.8450E+06    -76.5350E+06    -41.4651E+06    -20.4514E+06    -22.8450E+06     44.1491E+06
            1979     107.683E-03     5.98664E-03     107.516E-03     12.6782E-03    -2.39723E-03    -10.2800E-03    -4.96594E-03     7.36415E-03    -2.39723E-03     19.3402E-03     13.6922E-03     64.4596E+06     9.58797E+06    -18.0199E+06    -64.0569E+06    -39.0980E+06    -15.3710E+06    -18.0199E+06     34.3552E+06
            1980     107.762E-03     6.98120E-03     107.535E-03     17.4961E-03    -2.90620E-03    -14.5867E-03    -6.67308E-03     9.58248E-03    -2.90620E-03     27.6297E-03     18.9717E-03     46.8581E+06     4.98059E+06    -11.2941E+06    -47.6776E+06    -32.7547E+06    -9.94230E+06    -11.2941E+06     23.1414E+06
            1981     107.856E-03     7.97361E-03     107.561E-03     23.6398E-03    -3.54143E-03    -20.0959E-03    -8.92651E-03     12.4704E-03    -3.54143E-03     38.1063E-03     25.8555E-03     35.6776E+06     2.84465E+06    -3.50624E+06    -35.4087E+06    -23.5899E+06    -10.4181E+06    -2.06230E+06     14.7067E+06
            1982     107.971E-03     8.96405E-03     107.598E-03     31.8798E-03    -4.34205E-03    -27.5347E-03    -12.2830E-03     16.6282E-03    -4.34205E-03     51.8571E-03     35.4338E-03     33.4714E+06     7.91619E+06    -2.30719E+06    -28.7402E+06    -19.9504E+06    -11.0970E+06     7.91619E+06     5.72512E+06
            1983     108.107E-03     9.95057E-03     107.648E-03     42.5013E-03    -5.34649E-03    -37.1530E-03    -17.0153E-03     22.3636E-03    -5.34649E-03     69.1614E-03     48.4069E-03     36.9852E+06     13.5648E+06    -6.89565E+06    -29.0742E+06    -22.6087E+06    -13.3611E+06     13.5648E+06    -5.69709E+06
            1984     108.269E-03     10.9321E-03     107.716E-03     54.4182E-03    -6.62697E-03    -47.7940E-03    -23.6722E-03     30.2964E-03    -6.62697E-03     86.6258E-03     63.7971E-03     46.8765E+06     15.7044E+06    -5.77272E+06    -37.8114E+06    -22.4864E+06    -21.0977E+06     15.7044E+06    -15.5348E+06
            1985     108.451E-03     11.9072E-03     107.795E-03     69.7178E-03    -8.30777E-03    -61.4159E-03    -33.5280E-03     41.8300E-03    -8.30777E-03     107.085E-03     85.2109E-03     56.0533E+06     17.1884E+06    -558.999E+03    -45.5326E+06    -19.4583E+06    -26.6333E+06     17.1884E+06    -21.9352E+06
            1986     108.665E-03     12.8716E-03     107.900E-03     87.0985E-03    -10.4932E-03    -76.6232E-03    -46.4117E-03     56.8870E-03    -10.4932E-03     126.604E-03     113.125E-03     61.2055E+06     14.2060E+06     4.77868E+06    -50.8690E+06    -18.2460E+06    -27.2508E+06     13.6124E+06    -27.6135E+06
            1987     108.893E-03     13.8233E-03     108.012E-03     107.873E-03    -13.2645E-03    -94.6216E-03    -61.8705E-03     75.1224E-03    -13.2645E-03     148.892E-03     154.361E-03     60.6313E+06     10.7604E+06     6.52113E+06    -51.7580E+06    -17.0845E+06    -24.7954E+06     7.40349E+06    -30.0529E+06
            1988     109.166E-03     14.7614E-03     108.164E-03     132.851E-03    -16.5973E-03    -116.252E-03    -77.0067E-03     93.6059E-03    -16.5973E-03     181.399E-03     218.030E-03     50.1009E+06     14.8743E+06     9.27110E+06    -37.6201E+06    -11.5191E+06    -14.0664E+06     12.1109E+06    -24.1794E+06
            1989     109.476E-03     15.6902E-03     108.346E-03     160.374E-03    -20.0587E-03    -140.311E-03    -87.6755E-03     107.738E-03    -20.0587E-03     228.204E-03     351.737E-03     47.9012E+06     18.0182E+06    -6.65014E+06    -33.7911E+06    -9.59417E+06    -3.78947E+06    -9.03939E+06    -21.3438E+06
            1990     109.866E-03     16.6035E-03     108.604E-03     170.428E-03    -23.4973E-03    -146.925E-03    -77.7027E-03     101.206E-03    -23.4973E-03     260.203E-03     506.079E-03     101.071E+06     88.8040E+06     41.2475E+06     -24.405E+06    -8.83891E+06     52.7390E+06     61.7464E+06    -16.2193E+06
            1991     108.494E-03     998.330E-06     108.489E-03     1.79966E-03    -884.879E-06    -914.693E-06    -874.273E-06     1.77961E-03    -905.251E-06     362.644E-06     1.81181E-03     73.9126E+06    -86.8094E+06    -152.676E+06    -165.400E+06    -151.693E+06    -95.1938E+06    -157.998E+06     10.3730E+06
            1992     108.510E-03     1.99795E-03     108.492E-03     1.97716E-03    -895.258E-06    -1.08194E-03    -877.972E-06     1.78076E-03    -902.823E-06     1.31741E-03     2.09505E-03     94.1213E+06    -41.0669E+06    -124.936E+06    -141.785E+06    -119.621E+06    -59.5974E+06    -128.569E+06     23.5975E+06
            1993     108.536E-03     2.99690E-03     108.494E-03     2.83338E-03    -984.766E-06    -1.84906E-03    -1.17345E-03     2.15777E-03    -984.766E-06     3.21247E-03     3.11217E-03     94.3052E+06    -12.6182E+06    -83.9434E+06    -117.763E+06    -81.9881E+06    -37.1141E+06    -95.2228E+06     31.7028E+06
            1994     108.574E-03     3.99598E-03     108.501E-03     4.56840E-03    -1.18026E-03    -3.38840E-03    -1.79780E-03     2.97781E-03    -1.18026E-03     6.33317E-03     5.01800E-03     82.4943E+06     610.251E+03    -54.5511E+06    -92.0853E+06    -51.5391E+06    -30.9310E+06    -63.5560E+06     37.6355E+06
            1995     108.624E-03     4.99354E-03     108.509E-03     7.39064E-03    -1.49020E-03    -5.90056E-03    -2.76156E-03     4.25164E-03    -1.49020E-03     11.2790E-03     8.10897E-03     71.7469E+06     11.9820E+06    -33.4537E+06    -68.2304E+06    -32.4755E+06    -23.7729E+06    -33.4537E+06     39.0904E+06
            1996     108.689E-03     5.98987E-03     108.524E-03     11.1759E-03    -1.86422E-03    -9.31106E-03    -4.07774E-03     5.94255E-03    -1.86422E-03     17.8636E-03     12.2153E-03     64.0995E+06     18.4769E+06    -15.4727E+06    -54.9242E+06    -25.0370E+06    -11.4103E+06    -15.4727E+06     34.3732E+06
            1997     108.767E-03     6.98496E-03     108.543E-03     15.9624E-03    -2.31585E-03    -13.6426E-03    -5.62291E-03     7.94272E-03    -2.31585E-03     26.3027E-03     17.4446E-03     51.1715E+06     14.4768E+06    -7.88734E+06    -43.8517E+06    -27.6128E+06    -1.76209E+06    -7.88734E+06     24.6752E+06
            1998     108.865E-03     7.97902E-03     108.573E-03     21.9619E-03    -2.86995E-03    -19.0885E-03    -7.57873E-03     10.4521E-03    -2.86995E-03     36.8709E-03     24.1165E-03     42.3990E+06     8.15373E+06    -4.48909E+06    -39.0072E+06    -29.8373E+06    -1.94843E+06    -3.55690E+06     11.6796E+06
            1999     108.981E-03     8.97115E-03     108.611E-03     30.2490E-03    -3.55880E-03    -26.6876E-03    -10.4122E-03     13.9735E-03    -3.55880E-03     51.4207E-03     33.5884E-03     34.7906E+06     9.65039E+06     832.905E+03    -28.4843E+06    -21.1026E+06    -2.84809E+06     5.94965E+06     2.10223E+06
            2000     109.124E-03     9.95973E-03     108.669E-03     40.8964E-03    -4.42081E-03    -36.4744E-03    -14.3918E-03     18.8139E-03    -4.42081E-03     69.8330E-03     46.2613E-03     31.3041E+06     17.6259E+06      2.3564E+06    -17.5791E+06    -10.8619E+06    -4.36079E+06     17.6259E+06    -2.98506E+06
            2001     109.290E-03     10.9453E-03     108.740E-03     53.7677E-03    -5.52747E-03    -48.2388E-03    -20.5730E-03     26.1020E-03    -5.52747E-03     90.5886E-03     62.3906E-03     40.0676E+06     23.1993E+06     109.759E+03    -22.4713E+06    -11.7633E+06    -10.5983E+06     23.1993E+06    -9.58483E+06
            2002     109.486E-03     11.9230E-03     108.835E-03     70.1551E-03    -6.99876E-03    -63.1611E-03    -29.9377E-03     36.9317E-03    -6.99876E-03     115.156E-03     84.3379E-03     52.5956E+06     23.7863E+06     3.44072E+06    -35.2364E+06    -15.3180E+06    -16.4776E+06     23.7863E+06    -18.9315E+06
            2003     109.710E-03     12.8926E-03     108.950E-03     89.2481E-03    -8.98322E-03    -80.2730E-03    -43.2553E-03     52.2304E-03    -8.98322E-03     139.683E-03     113.113E-03     60.1246E+06     21.8810E+06     9.60786E+06    -43.2563E+06    -14.1646E+06    -19.4838E+06     21.8810E+06    -25.9503E+06
            2004     109.965E-03     13.8476E-03     109.090E-03     111.598E-03    -11.6065E-03    -99.9917E-03    -59.6745E-03     71.2807E-03    -11.6065E-03     165.905E-03     154.513E-03     63.3850E+06     18.6286E+06     13.8970E+06    -46.8802E+06    -11.7513E+06    -20.9964E+06     18.3931E+06    -29.8893E+06
            2005     110.251E-03     14.7879E-03     109.255E-03     137.149E-03    -14.8347E-03    -122.313E-03    -75.7801E-03     90.6168E-03    -14.8347E-03     198.857E-03     215.729E-03     63.3420E+06     20.7655E+06     15.8236E+06    -44.7773E+06    -9.02388E+06    -19.6943E+06     20.5300E+06    -29.6221E+06
            2006     110.582E-03     15.7151E-03     109.460E-03     167.358E-03    -18.2747E-03    -149.083E-03    -89.8733E-03     108.149E-03    -18.2747E-03     246.588E-03     339.955E-03     50.5328E+06     19.2075E+06    -144.901E+03    -35.7535E+06    -5.16587E+06    -7.88079E+06    -3.64420E+06    -21.0794E+06
            2007     110.985E-03     16.6414E-03     109.730E-03     174.913E-03    -22.1884E-03    -152.731E-03    -93.2182E-03     115.400E-03    -22.1884E-03     251.262E-03     477.837E-03     90.4671E+06     84.5339E+06     37.1641E+06    -18.2547E+06    -3.27797E+06     45.0391E+06     61.6822E+06    -11.8702E+06
            2008     109.497E-03     998.628E-06     109.492E-03     2.96682E-03    -1.43983E-03    -1.52694E-03    -1.48071E-03     2.96153E-03    -1.48078E-03     19.6491E-06     3.00529E-03     82.4733E+06    -96.2019E+06    -173.213E+06    -183.116E+06    -177.876E+06    -97.7592E+06    -176.896E+06    -7.57069E+06
            2009     109.510E-03     1.99606E-03     109.492E-03     3.07041E-03    -1.49837E-03    -1.57210E-03    -1.51719E-03     3.02090E-03    -1.50378E-03     532.866E-06     3.16501E-03     94.2370E+06    -67.3553E+06    -157.006E+06    -165.505E+06    -158.783E+06    -70.4444E+06    -160.639E+06    -10.2726E+06
            2010     109.538E-03     2.99437E-03     109.497E-03     3.16611E-03    -1.46626E-03    -1.69941E-03    -1.45604E-03     2.95952E-03    -1.50304E-03     1.61314E-03     3.32220E-03     96.6081E+06    -46.0223E+06    -133.305E+06    -148.598E+06    -134.357E+06    -48.9838E+06    -144.584E+06    -3.56556E+06
            2011     109.575E-03     3.99268E-03     109.502E-03     3.91563E-03    -1.51317E-03    -2.40208E-03    -1.62521E-03     3.17013E-03    -1.54455E-03     3.75909E-03     4.19816E-03     87.5402E+06    -31.6147E+06    -110.413E+06    -124.603E+06    -103.661E+06    -41.3424E+06    -121.627E+06     2.98582E+06
            2012     109.627E-03     4.99159E-03     109.513E-03     5.88904E-03    -1.66045E-03    -4.22912E-03    -2.24769E-03     3.90761E-03    -1.66045E-03     7.87301E-03     6.37740E-03     79.8994E+06    -12.7000E+06    -78.1574E+06    -99.8614E+06    -66.1212E+06    -31.4560E+06    -93.1416E+06     8.94590E+06
            2013     109.691E-03     5.98961E-03     109.528E-03     9.16734E-03    -1.89038E-03    -7.27690E-03    -3.31659E-03     5.20703E-03    -1.89038E-03     13.9995E-03     9.89850E-03     71.2636E+06     3.58601E+06    -34.6766E+06    -76.9143E+06    -30.7236E+06    -15.6329E+06    -61.6484E+06     15.3462E+06
            2014     109.774E-03     6.98578E-03     109.551E-03     13.8514E-03    -2.31067E-03    -11.5377E-03    -4.70878E-03     7.02246E-03    -2.31067E-03     22.4929E-03     15.0053E-03     56.7366E+06     20.5243E+06    -6.02055E+06    -42.5521E+06    -6.66959E+06    -1.16142E+06    -20.2174E+06     20.9919E+06
            2015     109.871E-03     7.98004E-03     109.581E-03     20.1827E-03    -2.83015E-03    -17.3502E-03    -6.62937E-03     9.46187E-03    -2.83015E-03     33.9024E-03     22.0269E-03     51.3414E+06     32.3032E+06     8.71286E+06    -25.1018E+06     -2.0908E+06     9.29215E+06     8.71286E+06     17.1581E+06
            2016     109.992E-03     8.97197E-03     109.625E-03     28.4423E-03    -3.40372E-03    -25.0376E-03    -9.10940E-03     12.5141E-03    -3.40372E-03     48.9072E-03     31.3472E-03     42.7895E+06     20.5570E+06     10.0470E+06    -26.3556E+06    -13.9788E+06     5.66845E+06     12.5588E+06     5.89648E+06
            2017     110.135E-03     9.96359E-03     109.683E-03     38.6618E-03    -4.10341E-03    -34.5604E-03    -12.2860E-03     16.3874E-03    -4.10341E-03     67.3678E-03     43.2151E-03     39.8117E+06     13.6750E+06     5.36806E+06    -28.3500E+06    -23.6077E+06     625.756E+03     13.6750E+06    -1.84416E+06
            2018     110.309E-03     10.9510E-03     109.764E-03     51.7821E-03    -5.00842E-03    -46.7777E-03    -17.2848E-03     22.2892E-03    -5.00842E-03     90.2206E-03     59.0380E-03     46.7065E+06     24.3694E+06     9.72727E+06    -25.5872E+06    -17.2659E+06     1.40602E+06     24.3694E+06    -10.3530E+06
            2019     110.511E-03     11.9339E-03     109.865E-03     69.2450E-03    -6.23378E-03    -63.0147E-03    -25.8753E-03     32.1056E-03    -6.23378E-03     118.739E-03     81.3592E-03     54.8512E+06     33.6414E+06     14.1888E+06    -27.2249E+06    -5.98363E+06    -7.05243E+06     33.6414E+06    -18.3121E+06
            2020     110.752E-03     12.9070E-03     109.997E-03     90.2987E-03    -7.95018E-03    -82.3525E-03    -39.1883E-03     47.1344E-03    -7.95018E-03     149.233E-03     111.280E-03     60.4899E+06     35.1284E+06     13.5323E+06    -32.5730E+06    -3.84491E+06    -15.1957E+06     35.1284E+06    -20.9876E+06
            2021     111.025E-03     13.8677E-03     110.156E-03     112.913E-03    -10.2681E-03    -102.650E-03    -54.7657E-03     65.0287E-03    -10.2681E-03     178.913E-03     150.156E-03     65.3898E+06     33.9943E+06     21.2200E+06    -35.5983E+06    -6.33901E+06    -8.03932E+06     33.9943E+06    -28.0018E+06
            2022     111.334E-03     14.8151E-03     110.343E-03     139.850E-03    -13.1934E-03    -126.661E-03    -71.9702E-03     85.1594E-03    -13.1934E-03     215.050E-03     209.590E-03     78.2476E+06     29.6633E+06     22.2342E+06    -51.9430E+06    -4.71817E+06    -24.9906E+06     29.6633E+06    -31.5903E+06
            2023     111.683E-03     15.7519E-03     110.567E-03     173.574E-03    -16.5624E-03    -157.014E-03    -92.2037E-03     108.764E-03    -16.5624E-03     262.414E-03     325.512E-03     57.8199E+06     20.1429E+06     3.65529E+06    -42.0891E+06    -4.77018E+06    -20.4088E+06     6.88810E+06    -20.5108E+06
            2024     112.105E-03     16.6662E-03     110.859E-03     188.030E-03    -20.9752E-03    -167.043E-03    -110.833E-03     131.820E-03    -20.9752E-03     256.732E-03     453.483E-03     87.2851E+06     85.9384E+06     33.2830E+06    -14.3785E+06    -7.96887E+06     40.1282E+06     72.6836E+06    -9.42473E+06
            2025     110.500E-03     996.615E-06     110.495E-03     5.74821E-03    -2.78453E-03    -2.96354E-03    -2.87400E-03     5.74282E-03    -2.86868E-03    -413.328E-06     5.81277E-03     61.9664E+06    -72.8416E+06    -130.094E+06    -138.481E+06    -132.589E+06    -76.4100E+06    -132.417E+06    -13.6441E+06
            2026     110.516E-03     1.99382E-03     110.498E-03     5.74833E-03    -2.82830E-03    -2.91996E-03    -2.85493E-03     5.73824E-03    -2.88324E-03    -215.135E-06     5.88192E-03     76.5415E+06    -55.8019E+06    -126.550E+06    -136.694E+06    -130.904E+06    -61.5921E+06    -126.550E+06    -20.7700E+06
            2027     110.541E-03     2.99051E-03     110.500E-03     5.81244E-03    -2.85526E-03    -2.95665E-03    -2.87641E-03     5.77531E-03    -2.89837E-03     480.893E-06     6.05403E-03     83.7339E+06    -44.2635E+06    -121.090E+06    -133.207E+06    -127.345E+06    -50.1258E+06    -121.090E+06    -20.7867E+06
            2028     110.579E-03     3.98758E-03     110.507E-03     6.17903E-03    -2.90358E-03    -3.27441E-03    -3.03826E-03     5.97425E-03    -2.93496E-03     1.91201E-03     6.61503E-03     88.2594E+06    -32.6153E+06    -111.301E+06    -127.224E+06    -118.323E+06    -39.3069E+06    -113.510E+06    -22.2976E+06
            2029     110.629E-03     4.98406E-03     110.516E-03     6.97170E-03    -2.96851E-03    -4.00266E-03    -3.27506E-03     6.24410E-03    -2.96851E-03     4.58715E-03     7.60006E-03     92.2212E+06    -23.7184E+06    -95.3555E+06    -126.599E+06    -102.151E+06    -33.1830E+06    -110.340E+06    -24.9870E+06
            2030     110.695E-03     5.98068E-03     110.534E-03     8.55842E-03    -3.04184E-03    -5.51680E-03    -3.60102E-03     6.64264E-03    -3.04184E-03     9.03344E-03     9.28934E-03     89.2474E+06    -13.8443E+06    -72.5141E+06    -113.015E+06    -77.1581E+06    -22.7296E+06    -99.4859E+06    -21.2927E+06
            2031     110.776E-03     6.97781E-03     110.556E-03     11.7486E-03    -3.26839E-03    -8.48061E-03    -4.36741E-03     7.63544E-03    -3.26839E-03     15.9210E-03     12.6262E-03     76.2607E+06     7.64069E+06    -49.7081E+06    -73.5696E+06    -41.1194E+06    -10.6126E+06    -63.9050E+06    -12.3378E+06
            2032     110.878E-03     7.97421E-03     110.591E-03     17.0795E-03    -3.58056E-03    -13.4986E-03    -5.81727E-03     9.39820E-03    -3.58056E-03     26.3425E-03     18.2767E-03     64.2550E+06     29.4517E+06    -14.6316E+06    -40.6080E+06    -2.92304E+06     4.56442E+06    -27.4293E+06     2.12396E+06
            2033     110.998E-03     8.96866E-03     110.635E-03     24.9619E-03    -4.06933E-03    -20.8903E-03    -7.97110E-03     12.0427E-03    -4.06933E-03     41.1860E-03     26.9581E-03     57.6669E+06     38.9259E+06     20.4022E+06    -25.5666E+06     17.0518E+06     7.33339E+06     9.37632E+06     14.1414E+06
            2034     111.145E-03     9.95830E-03     110.698E-03     35.4962E-03    -4.70468E-03    -30.7904E-03    -10.8484E-03     15.5543E-03    -4.70468E-03     60.7801E-03     38.9377E-03     58.3060E+06     45.1978E+06     36.9306E+06    -16.4508E+06     15.5874E+06     10.7649E+06     39.3253E+06     10.0203E+06
            2035     111.320E-03     10.9474E-03     110.780E-03     48.6738E-03    -5.39179E-03    -43.2848E-03    -15.0216E-03     20.4106E-03    -5.39179E-03     84.8540E-03     54.3151E-03     53.7892E+06     42.9383E+06     31.9933E+06    -13.2241E+06     2.80931E+06     16.1643E+06     42.7339E+06    -4.14931E+06
            2036     111.531E-03     11.9336E-03     110.891E-03     66.3675E-03    -6.35808E-03    -60.0133E-03    -22.3551E-03     28.7093E-03    -6.35808E-03     115.574E-03     76.1289E-03     59.8547E+06     40.9859E+06     15.7793E+06    -25.8660E+06    -10.3360E+06     249.255E+03     40.9859E+06    -14.1133E+06
            2037     111.784E-03     12.9123E-03     111.035E-03     88.0106E-03    -7.74720E-03    -80.2642E-03    -33.5163E-03     41.2627E-03    -7.74720E-03     150.581E-03     104.768E-03     70.6651E+06     45.7614E+06     16.0030E+06    -34.5477E+06    -10.1719E+06    -8.37292E+06     45.7614E+06    -20.9404E+06
            2038     112.077E-03     13.8786E-03     111.215E-03     110.578E-03    -9.62872E-03    -100.972E-03    -47.6332E-03     57.2390E-03    -9.62872E-03     183.473E-03     140.034E-03     70.5632E+06     50.5220E+06     22.8582E+06    -27.3574E+06    -6.19042E+06     1.69119E+06     50.5220E+06    -23.7404E+06
            2039     112.398E-03     14.8366E-03     111.414E-03     139.840E-03    -12.1677E-03    -127.697E-03    -67.7013E-03     79.8445E-03    -12.1677E-03     222.958E-03     198.777E-03     86.4459E+06     42.4682E+06     20.0596E+06    -50.5771E+06    -10.7880E+06    -19.7295E+06     42.4682E+06    -29.0768E+06
            2040     112.782E-03     15.7720E-03     111.673E-03     179.439E-03    -15.4841E-03    -163.956E-03    -95.8315E-03     111.314E-03    -15.4841E-03     273.664E-03     309.515E-03     77.8265E+06     25.0647E+06     9.86289E+06    -58.7621E+06    -6.79407E+06    -36.3175E+06     19.2771E+06    -26.3474E+06
            2041     113.231E-03     16.6845E-03     111.995E-03     203.900E-03    -20.2564E-03    -183.624E-03    -124.645E-03     144.921E-03    -20.2564E-03     275.798E-03     432.291E-03     102.616E+06     92.4696E+06     43.7786E+06    -23.9900E+06     1.13353E+06     24.4427E+06      86.682E+06    -3.47431E+06
            2042     111.508E-03     995.196E-06     111.504E-03     9.38598E-03    -4.57717E-03    -4.80875E-03    -4.65011E-03     9.37452E-03    -4.72435E-03    -790.459E-06     9.44802E-03     41.8453E+06    -49.7412E+06    -86.2653E+06    -94.5251E+06    -90.1923E+06    -54.0741E+06    -86.2653E+06    -12.9878E+06
            2043     111.522E-03     1.99034E-03     111.504E-03     9.56609E-03    -4.68310E-03    -4.88285E-03    -4.81334E-03     9.54611E-03    -4.73263E-03    -1.04356E-03     9.68353E-03     54.0347E+06    -39.4012E+06    -85.1596E+06    -98.1498E+06    -91.2255E+06    -46.3254E+06    -85.1596E+06    -18.2812E+06
            2044     111.549E-03     2.98559E-03     111.509E-03     10.0611E-03    -4.83732E-03    -5.22363E-03    -5.19243E-03     10.0363E-03    -4.84365E-03    -1.01370E-03     10.3080E-03     62.7908E+06    -29.1345E+06    -81.1291E+06    -98.6933E+06    -87.6117E+06    -40.2161E+06    -81.1291E+06    -24.7028E+06
            2045     111.585E-03     3.97988E-03     111.514E-03     10.6605E-03    -5.02269E-03    -5.63742E-03    -5.61252E-03     10.6356E-03    -5.02269E-03    -80.7733E-06     11.1567E-03     69.7892E+06    -16.5716E+06    -72.2767E+06    -94.5723E+06    -81.7201E+06    -29.4239E+06    -72.2767E+06    -28.4185E+06
            2046     111.637E-03     4.97375E-03     111.526E-03     11.3411E-03    -5.23868E-03    -6.10138E-03    -5.97198E-03     11.2117E-03    -5.23868E-03     1.78280E-03     12.1886E-03     77.4278E+06    -8.24298E+06    -63.7689E+06    -96.1295E+06    -80.9673E+06    -23.4051E+06    -63.7689E+06    -33.0069E+06
            2047     111.700E-03     5.96784E-03     111.541E-03     12.1518E-03    -5.41742E-03    -6.73404E-03    -6.20020E-03     11.6180E-03    -5.41742E-03     4.74108E-03     13.3195E-03     86.8528E+06    -1.82257E+06    -63.5390E+06    -99.8223E+06    -81.2185E+06    -20.4264E+06    -63.5390E+06    -37.8223E+06
            2048     111.783E-03     6.96135E-03     111.566E-03     13.5511E-03    -5.56943E-03    -7.99035E-03    -6.47699E-03     12.0378E-03    -5.56943E-03     9.48978E-03     14.8867E-03     91.8238E+06     5.32152E+06    -65.1533E+06    -96.0143E+06    -77.2761E+06    -13.4167E+06    -65.1533E+06    -38.7206E+06
            2049     111.882E-03     7.95471E-03     111.598E-03     16.2705E-03    -5.75346E-03    -10.5254E-03    -6.97906E-03     12.7242E-03    -5.75346E-03     16.9161E-03     17.6389E-03     87.8421E+06     6.26753E+06    -46.8346E+06    -91.5565E+06    -61.8916E+06    -10.5997E+06    -59.6323E+06    -31.6128E+06
            2050     112.005E-03     8.94818E-03     111.647E-03     21.3650E-03    -6.05834E-03    -15.3087E-03    -7.85846E-03     13.9148E-03    -6.05834E-03     28.6726E-03     22.7980E-03     81.8632E+06     22.5240E+06    -17.5513E+06    -69.9262E+06    -27.1492E+06    -7.45540E+06    -30.3490E+06    -15.0301E+06
            2051     112.152E-03     9.94320E-03     111.711E-03     29.9072E-03    -6.49505E-03    -23.4101E-03    -9.82063E-03     16.3177E-03    -6.49505E-03     46.0540E-03     31.8765E-03     62.4579E+06     44.2194E+06     14.3964E+06    -24.4545E+06     9.50088E+06     10.2640E+06     14.3964E+06     665.688E+03
            2052     112.332E-03     10.9331E-03     111.798E-03     42.3028E-03    -7.08947E-03    -35.2111E-03    -13.2794E-03     20.3711E-03    -7.08947E-03     69.6579E-03     45.8344E-03     52.9611E+06     58.9628E+06     36.6290E+06     693.515E+03     23.0621E+06     20.6434E+06     52.5798E+06     10.7652E+06
            2053     112.544E-03     11.9175E-03     111.911E-03     60.6819E-03    -7.86338E-03    -52.8216E-03    -19.0705E-03     26.9308E-03    -7.86338E-03     103.730E-03     67.5144E-03     67.8358E+06     71.8689E+06     37.4731E+06    -5.45015E+06     16.4925E+06     15.5304E+06     71.8689E+06     5.71155E+06
            2054     112.807E-03     12.8971E-03     112.067E-03     82.2991E-03    -8.85731E-03    -73.4422E-03    -28.0049E-03     36.8618E-03    -8.85731E-03     141.558E-03     94.2174E-03     77.0787E+06     67.3203E+06     27.2855E+06    -19.9656E+06    -462.785E+03     7.78266E+06     67.3203E+06    -9.48484E+06
            2055     113.108E-03     13.8756E-03     112.254E-03     104.492E-03    -10.3243E-03    -94.1865E-03    -41.4340E-03     51.7398E-03    -10.3243E-03     175.312E-03     125.995E-03     78.7014E+06     62.8715E+06     15.1694E+06    -26.1043E+06    -12.3372E+06     1.40234E+06     62.8715E+06    -15.7102E+06
            2056     113.456E-03     14.8350E-03     112.482E-03     136.226E-03    -12.5366E-03    -123.709E-03    -62.8627E-03     75.3800E-03    -12.5366E-03     219.940E-03     181.479E-03     86.8741E+06     67.6103E+06     16.0866E+06    -29.7484E+06    -12.8831E+06    -778.712E+03     67.6103E+06    -20.9962E+06
            2057     113.865E-03     15.7756E-03     112.767E-03     183.048E-03    -15.6131E-03    -167.429E-03    -95.8756E-03     111.495E-03    -15.6131E-03     282.206E-03     286.087E-03     91.1108E+06     32.3473E+06     1.06317E+06    -66.2831E+06    -19.7281E+06    -42.9483E+06     29.8037E+06    -27.7068E+06
            2058     114.362E-03     16.6840E-03     113.138E-03     214.481E-03    -20.1678E-03    -194.306E-03    -127.848E-03     148.023E-03    -20.1678E-03     299.782E-03     409.005E-03     118.625E+06     63.8802E+06     30.7397E+06    -65.9386E+06    -22.4025E+06    -10.2528E+06     61.3366E+06    -18.1306E+06
            2059     112.518E-03     993.335E-06     112.514E-03     14.0960E-03    -6.80854E-03    -7.28810E-03    -7.16491E-03     14.0767E-03    -6.91252E-03    -1.13922E-03     14.1497E-03     23.1116E+06    -28.4457E+06    -42.2284E+06    -54.2975E+06    -47.3373E+06    -35.8013E+06    -41.8330E+06    -7.78185E+06
            2060     112.534E-03     1.98617E-03     112.517E-03     14.8461E-03    -7.17465E-03    -7.67234E-03    -7.62478E-03     14.7985E-03    -7.17465E-03    -2.04183E-03     14.9444E-03     34.4703E+06    -18.5569E+06    -41.9096E+06    -57.7385E+06    -46.6509E+06    -29.6445E+06    -41.9096E+06    -16.7646E+06
            2061     112.560E-03     2.97795E-03     112.521E-03     15.6530E-03    -7.41919E-03    -8.23415E-03    -8.17405E-03     15.5929E-03    -7.41919E-03    -2.39000E-03     15.8543E-03     46.4402E+06    -10.1289E+06    -44.6168E+06    -62.8120E+06    -47.2595E+06    -25.6813E+06    -44.6168E+06    -23.5843E+06
            2062     112.598E-03     3.96956E-03     112.528E-03     16.6379E-03    -7.71647E-03    -8.92228E-03    -8.87140E-03     16.5870E-03    -7.71647E-03    -2.11594E-03     17.0241E-03     55.7241E+06    -2.94555E+06    -43.1562E+06    -66.2729E+06    -49.5422E+06    -19.6763E+06    -43.1562E+06    -27.6447E+06
            2063     112.648E-03     4.96083E-03     112.539E-03     17.8357E-03    -8.08984E-03    -9.74588E-03    -9.70857E-03     17.7984E-03    -8.08984E-03    -1.33977E-03     18.5441E-03     61.2292E+06     3.67716E+06    -35.6480E+06    -66.3682E+06    -49.8017E+06    -12.8893E+06    -35.6480E+06    -29.3198E+06
            2064     112.714E-03     5.95008E-03     112.557E-03     19.1375E-03    -8.53366E-03    -10.6030E-03    -10.5457E-03     19.0802E-03    -8.53366E-03     282.996E-06     20.3069E-03     67.7372E+06     7.48362E+06    -24.6818E+06    -69.3184E+06    -51.1330E+06    -10.7018E+06    -24.6818E+06    -32.2904E+06
            2065     112.793E-03     6.93925E-03     112.580E-03     20.3945E-03    -8.95913E-03    -11.4462E-03    -11.1859E-03     20.1343E-03    -8.95913E-03     3.51417E-03     22.0435E-03     74.4668E+06     9.18772E+06    -22.7620E+06    -74.6304E+06    -56.7194E+06    -8.72330E+06    -22.7620E+06    -34.0713E+06
            2066     112.894E-03     7.92767E-03     112.616E-03     22.0170E-03    -9.36809E-03    -12.6658E-03    -11.7486E-03     21.0998E-03    -9.36809E-03     8.48455E-03     24.1150E-03     82.9575E+06     9.67233E+06    -24.2394E+06    -84.1925E+06    -65.0726E+06    -9.44762E+06    -24.2394E+06    -37.1898E+06
            2067     113.012E-03     8.91598E-03     112.660E-03     24.5199E-03    -9.75808E-03    -14.7678E-03    -12.3018E-03     22.0539E-03    -9.75808E-03     15.8008E-03     26.7922E-03     88.0402E+06     5.59372E+06    -29.3635E+06    -91.4502E+06    -69.0813E+06    -16.7751E+06    -29.3635E+06     -39.376E+06
            2068     113.161E-03     9.90248E-03     112.726E-03     28.4467E-03    -10.1524E-03    -18.2914E-03    -12.6730E-03     22.8283E-03    -10.1524E-03     27.4950E-03     30.4999E-03     73.8689E+06     6.95089E+06    -23.3379E+06    -73.5508E+06    -58.8355E+06    -7.76449E+06    -23.3379E+06    -28.0881E+06
            2069     113.338E-03     10.8909E-03     112.814E-03     35.9163E-03    -10.7001E-03    -25.2120E-03    -13.8021E-03     24.5064E-03    -10.7001E-03     45.6825E-03     38.0761E-03     70.8816E+06     29.4393E+06     9.95239E+06    -47.8893E+06    -30.8495E+06     5.29196E+06     17.0600E+06    -9.39635E+06
            2070     113.555E-03     11.8804E-03     112.932E-03     49.7807E-03    -11.3530E-03    -38.4254E-03    -16.8758E-03     28.2311E-03    -11.3530E-03     74.5091E-03     53.3029E-03     81.0330E+06     61.9905E+06     41.3342E+06    -26.1008E+06    -2.59336E+06     18.9010E+06     60.9163E+06     3.59721E+06
            2071     113.820E-03     12.8666E-03     113.090E-03     68.9177E-03    -12.1655E-03    -56.7524E-03    -23.1027E-03     35.2680E-03    -12.1655E-03     110.852E-03     75.6106E-03     88.0389E+06     87.3264E+06     38.7425E+06    -10.9259E+06     9.82335E+06     17.9933E+06     87.3264E+06     9.27438E+06
            2072     114.133E-03     13.8367E-03     113.291E-03     92.4707E-03    -13.3176E-03    -79.1530E-03    -35.1456E-03     48.4634E-03    -13.3176E-03     149.762E-03     106.135E-03     92.6391E+06     94.6866E+06     30.1055E+06    -11.0904E+06     5.63253E+06     13.3826E+06     94.6866E+06     2.81043E+06
            2073     114.492E-03     14.8010E-03     113.532E-03     126.094E-03    -15.0898E-03    -111.003E-03    -56.2238E-03     71.3149E-03    -15.0898E-03     199.698E-03     156.081E-03     86.2634E+06     83.1936E+06     18.8761E+06    -13.7761E+06    -6.08231E+06     11.1823E+06     83.1936E+06    -6.07812E+06
            2074     114.932E-03     15.7485E-03     113.848E-03     175.696E-03    -17.8517E-03    -157.839E-03    -88.8375E-03     106.694E-03    -17.8517E-03     270.024E-03     245.776E-03     88.9647E+06     57.6528E+06    -3.37977E+06    -39.1615E+06    -15.5391E+06    -27.0021E+06     57.6528E+06    -11.2815E+06
            2075     115.476E-03     16.6660E-03     114.267E-03     205.367E-03    -21.4980E-03    -183.865E-03    -109.091E-03     130.592E-03    -21.4980E-03     305.274E-03     355.464E-03     105.146E+06     57.4895E+06     18.4065E+06    -57.1123E+06    -19.9344E+06    -18.7714E+06     57.4895E+06    -22.7908E+06
            2076     113.536E-03     990.446E-06     113.532E-03     20.3870E-03    -9.74136E-03    -10.6459E-03    -10.1647E-03     20.3616E-03    -10.1971E-03    -1.59634E-03     20.4375E-03     28.0207E+06     5.24659E+06    -5.32771E+06    -26.2232E+06    -844.624E+03    -20.5274E+06    -4.93231E+06    -6.91541E+06
            2077     113.551E-03     1.97966E-03     113.534E-03     21.2774E-03    -10.3076E-03    -10.9701E-03    -10.9131E-03     21.2204E-03    -10.3076E-03    -2.66639E-03     21.3379E-03     29.1892E+06     7.48894E+06    -6.71958E+06    -25.5431E+06    -4.34634E+06    -13.7079E+06    -6.71958E+06    -13.6023E+06
            2078     113.578E-03     2.96890E-03     113.540E-03     22.6009E-03    -10.6744E-03    -11.9255E-03    -11.8480E-03     22.5235E-03    -10.6744E-03    -3.24740E-03     22.7348E-03     34.5638E+06     6.74737E+06    -8.21019E+06    -31.4093E+06    -10.9356E+06    -13.7263E+06    -8.21019E+06    -17.5821E+06
            2079     113.617E-03     3.95687E-03     113.548E-03     24.3387E-03    -11.1438E-03    -13.1901E-03    -13.0946E-03     24.2432E-03    -11.1438E-03    -3.77840E-03     24.6150E-03     40.7714E+06     9.42462E+06    -9.74131E+06    -36.3396E+06    -17.0075E+06    -9.90752E+06    -9.74131E+06    -21.7711E+06
            2080     113.669E-03     4.94255E-03     113.562E-03     26.2291E-03    -11.7192E-03    -14.5132E-03    -14.4194E-03     26.1353E-03    -11.7192E-03    -3.88187E-03     26.7218E-03     45.5029E+06     11.6231E+06    -8.09404E+06    -39.2917E+06    -21.4755E+06    -6.19308E+06    -8.09404E+06    -23.9420E+06
            2081     113.734E-03     5.92819E-03     113.579E-03     28.4945E-03    -12.4178E-03    -16.0832E-03    -16.0128E-03     28.4241E-03    -12.4178E-03    -3.35664E-03     29.3200E-03     48.9728E+06     12.2391E+06    -728.073E+03    -40.9097E+06    -26.5774E+06    -4.53164E+06     1.71039E+06    -22.6295E+06
            2082     113.816E-03     6.91096E-03     113.606E-03     31.0816E-03    -13.2029E-03    -17.8793E-03    -17.8153E-03     31.0176E-03    -13.2029E-03    -2.33432E-03     32.4165E-03     54.3911E+06     15.6062E+06     1.76374E+06    -44.2158E+06    -31.9198E+06    -4.11740E+06     9.19131E+06    -22.0254E+06
            2083     113.913E-03     7.89274E-03     113.640E-03     33.6699E-03    -14.0244E-03    -19.6611E-03    -19.5620E-03     33.5707E-03    -14.0244E-03    -282.446E-06     35.6973E-03     60.7803E+06     20.7179E+06     10.9674E+03    -47.5608E+06    -36.6115E+06    -891.509E+03     10.6712E+06    -22.4144E+06
            2084     114.035E-03     8.87123E-03     113.689E-03     36.2628E-03    -14.9091E-03    -21.3642E-03    -21.0706E-03     35.9692E-03    -14.9091E-03     3.49888E-03     39.0443E-03     71.7947E+06     18.6867E+06    -1.24069E+06    -60.2772E+06    -45.0509E+06    -9.13061E+06     11.3503E+06    -26.9067E+06
            2085     114.177E-03     9.84913E-03     113.752E-03     38.8783E-03    -15.7958E-03    -23.0900E-03    -22.0004E-03     37.7887E-03    -15.7958E-03     9.76430E-03     42.1551E-03     79.0235E+06     14.7588E+06    -4.09993E+06    -71.5151E+06    -53.9811E+06    -15.2957E+06     8.42051E+06    -30.3807E+06
            2086     114.352E-03     10.8268E-03     113.838E-03     42.5127E-03    -16.6869E-03    -25.8327E-03    -22.9398E-03     39.6198E-03    -16.6869E-03     19.2465E-03     46.0430E-03     78.0802E+06     15.5188E+06    -2.98316E+06    -69.6875E+06    -57.7843E+06    -8.68562E+06     9.31805E+06    -26.3686E+06
            2087     114.563E-03     11.8010E-03     113.953E-03     47.8783E-03    -17.6834E-03    -30.1948E-03    -23.6533E-03     41.3367E-03    -17.6834E-03     34.3110E-03     51.7193E-03     83.7345E+06     32.5649E+06     13.5646E+06    -58.3127E+06    -48.3148E+06     4.64088E+06     31.4907E+06    -18.1649E+06
            2088     114.824E-03     12.7745E-03     114.111E-03     55.9887E-03    -18.7727E-03    -37.2399E-03    -23.7661E-03     42.5149E-03    -18.7727E-03     58.1280E-03     60.4225E-03     102.150E+06     72.6069E+06     26.2382E+06    -42.1073E+06    -23.8738E+06     8.00476E+06     72.6069E+06    -8.11945E+06
            2089     115.139E-03     13.7574E-03     114.315E-03     71.3925E-03    -19.8498E-03    -51.5605E-03    -28.1147E-03     47.9467E-03    -19.8498E-03     92.9613E-03     78.3593E-03     101.074E+06     94.9009E+06     31.1325E+06    -21.2176E+06    -2.34069E+06     12.2555E+06     94.9009E+06     7.37769E+06
            2090     115.517E-03     14.7221E-03     114.575E-03     102.818E-03    -21.3729E-03    -81.4710E-03    -45.4454E-03     66.7928E-03    -21.3729E-03     145.084E-03     119.784E-03     96.8475E+06     101.220E+06     34.3527E+06    -9.11631E+06     3.54962E+06     21.6868E+06     101.220E+06     14.4853E+06
            2091     115.969E-03     15.6614E-03     114.907E-03     149.061E-03    -23.7747E-03    -125.323E-03    -70.4508E-03     94.1889E-03    -23.7747E-03     219.138E-03     191.724E-03     111.778E+06     109.163E+06     33.1396E+06    -16.9328E+06     14.7583E+06     1.44842E+06     109.163E+06    -1.94726E+06
            2092     116.536E-03     16.5866E-03     115.349E-03     164.115E-03    -25.9358E-03    -138.211E-03    -65.5047E-03     91.4084E-03    -25.9358E-03     255.514E-03     246.273E-03     96.5545E+06     85.8744E+06     25.9801E+06    -23.3629E+06     14.8819E+06    -12.2647E+06     85.8744E+06    -7.73748E+06
            2093     114.559E-03     986.270E-06     114.555E-03     27.9213E-03    -13.4217E-03    -14.4987E-03    -13.8893E-03     27.9012E-03    -14.0110E-03    -1.74471E-03     27.9560E-03     46.2471E+06     40.0694E+06     30.3039E+06    -9.60693E+06     36.6438E+06    -8.16612E+06     32.2887E+06    -7.54441E+06
            2094     114.576E-03     1.97294E-03     114.559E-03     28.7461E-03    -13.9222E-03    -14.8232E-03    -14.6542E-03     28.7106E-03    -14.0557E-03    -2.35939E-03     28.7759E-03     36.4559E+06     31.8620E+06     25.4088E+06    -6.70778E+06     28.8230E+06    -4.30757E+06     26.0476E+06    -7.64587E+06
            2095     114.604E-03     2.95791E-03     114.566E-03     30.8751E-03    -14.5366E-03    -16.3371E-03    -16.2782E-03     30.8162E-03    -14.5366E-03    -3.22151E-03     30.9512E-03     36.1110E+06     28.5310E+06     23.9303E+06    -9.59681E+06     20.9280E+06    -4.79315E+06     26.7297E+06    -10.2047E+06
            2096     114.645E-03     3.94040E-03     114.578E-03     33.3509E-03    -15.2372E-03    -18.1073E-03    -18.0238E-03     33.2675E-03    -15.2372E-03    -4.00953E-03     33.5149E-03     38.4905E+06     31.6061E+06     18.5869E+06    -10.7144E+06     13.9042E+06    -2.18847E+06     27.7629E+06    -12.0549E+06
            2097     114.697E-03     4.92244E-03     114.592E-03     36.4987E-03    -16.0866E-03    -20.4121E-03    -20.3090E-03     36.3956E-03    -16.0866E-03    -4.75517E-03     36.8195E-03     40.4073E+06     30.0455E+06     14.3971E+06    -14.8118E+06     5.64858E+06    -2.39081E+06     26.3731E+06    -12.5003E+06
            2098     114.766E-03     5.90064E-03     114.614E-03     40.4018E-03    -17.1221E-03    -23.2825E-03    -23.1601E-03     40.2795E-03    -17.1221E-03    -5.57024E-03     40.9940E-03     40.6529E+06     28.0982E+06     13.0537E+06    -16.4737E+06    -834.567E+03    -2.43192E+06     27.9446E+06    -11.9387E+06
            2099     114.848E-03     6.87671E-03     114.642E-03     45.0461E-03    -18.3897E-03    -26.6596E-03    -26.5107E-03     44.8973E-03    -18.3897E-03    -6.51498E-03     46.0814E-03     47.5339E+06     37.4873E+06     10.9451E+06    -15.8896E+06    -4.21981E+06    -724.631E+03     37.4873E+06    -11.2861E+06
            2100     114.950E-03     7.84735E-03     114.682E-03     49.8873E-03    -19.8316E-03    -30.0684E-03    -29.8907E-03     49.7096E-03    -19.8316E-03    -7.33737E-03     51.5179E-03     55.6425E+06     46.2809E+06     10.0171E+06    -15.9890E+06    -6.82727E+06     855.398E+03     46.2809E+06    -10.0745E+06
            2101     115.070E-03     8.81631E-03     114.731E-03     54.9643E-03    -21.3816E-03    -33.5892E-03    -33.3625E-03     54.7375E-03    -21.3816E-03    -7.94786E-03     57.4153E-03     62.5739E+06     49.0536E+06     8.85379E+06    -20.9756E+06    -11.1386E+06    -983.295E+03     49.0536E+06    -9.22248E+06
            2102     115.215E-03     9.78098E-03     114.799E-03     61.0738E-03    -23.1273E-03    -37.9539E-03    -37.6029E-03     60.7228E-03    -23.1273E-03    -8.97746E-03     64.7509E-03     72.6680E+06     49.4553E+06     5.49939E+06    -31.2233E+06    -17.3573E+06    -8.36659E+06     49.4553E+06    -12.7459E+06
            2103     115.386E-03     10.7387E-03     114.885E-03     66.8665E-03    -25.0803E-03    -41.7966E-03    -41.1981E-03     66.2680E-03    -25.0803E-03    -9.26669E-03     72.0005E-03     78.8206E+06     52.8755E+06     5.21540E+06    -35.0314E+06    -20.0533E+06    -9.76272E+06     52.8755E+06    -15.5037E+06
            2104     115.595E-03     11.6922E-03     115.002E-03     70.4636E-03    -27.1391E-03    -43.3360E-03    -42.1555E-03     69.2831E-03    -27.1391E-03    -7.21531E-03     76.9564E-03     86.5441E+06     64.0137E+06     16.0706E+06    -34.5216E+06    -20.0547E+06     1.60367E+06     64.0137E+06    -17.4009E+06
            2105     115.840E-03     12.6448E-03     115.148E-03     71.4393E-03    -29.1605E-03    -42.3107E-03    -39.8752E-03     69.0039E-03    -29.1605E-03    -2.01763E-03     78.8244E-03     97.6181E+06     71.0563E+06     13.9804E+06    -40.2750E+06    -24.0693E+06    -2.22531E+06     71.0563E+06    -14.5531E+06
            2106     116.137E-03     13.5910E-03     115.339E-03     73.7138E-03    -31.0598E-03    -42.6751E-03    -37.1634E-03     68.2021E-03    -31.0598E-03     11.0890E-03     82.1751E-03     93.8484E+06     68.3211E+06     12.2663E+06    -38.8830E+06    -19.0734E+06     -7.5434E+06     68.3211E+06    -5.70369E+06
            2107     116.504E-03     14.5485E-03     115.592E-03     86.6491E-03    -33.3859E-03    -53.3247E-03    -41.5529E-03     74.8773E-03    -33.3859E-03     41.0102E-03     100.474E-03     104.908E+06     101.248E+06     30.4529E+06    -17.1747E+06     2.16487E+06     11.1133E+06     101.248E+06     4.20282E+06
            2108     116.979E-03     15.4889E-03     115.949E-03     95.1416E-03    -22.0746E-03    -73.1377E-03    -35.8460E-03     71.4596E-03    -35.6842E-03     91.7410E-03     119.520E-03     116.747E+06     112.806E+06     42.7666E+06    -18.6733E+06     11.5413E+06     18.5429E+06     106.815E+06     1.99467E+06
            2109     117.515E-03     16.4367E-03     116.360E-03     81.9309E-03    -6.91690E-03    -75.0405E-03    -10.5143E-03     47.0295E-03    -36.5417E-03     111.555E-03     112.080E-03     98.7010E+06     69.7495E+06     16.2630E+06    -42.7564E+06     7.20191E+06     333.286E+03     35.7209E+06     2.08387E+06


