********************************************************************************
Field Output Report, written Mon Apr 21 02:02:16 2025

Source 1
---------

   ODB: F:/Abaqus_calc/Vel_20/odb/Correct/1020_2a_32_rd_1000_cal_100_v_20_f_050.odb
   Step: Step-1
   Frame: Increment   6147860: Step Time =   0.7506

Loc 1 : Nodal values from source 1

Output sorted by column "Nodal Label".

Field Output reported at nodes for region: DIE_2A_32_D0_36-1.Region_1
   Computation algorithm: EXTRAPOLATE_COMPUTE_AVERAGE
   Averaged at nodes
   Averaging regions: ODB_REGIONS

      Node Label  COORD.Magnitude     COORD.COOR1     COORD.COOR2
                          @Loc 1          @Loc 1          @Loc 1
------------------------------------------------------------------
               1     199.745E-03     20.6653E-03     198.673E-03


Field Output reported at nodes for region: DIE_2A_32_D0_36-1.Region_2
   Computation algorithm: EXTRAPOLATE_COMPUTE_AVERAGE
   Averaged at nodes
   Averaging regions: ODB_REGIONS

      Node Label  COORD.Magnitude     COORD.COOR1     COORD.COOR2
                          @Loc 1          @Loc 1          @Loc 1
------------------------------------------------------------------
               1     199.745E-03     20.6653E-03     198.673E-03


Field Output reported at nodes for part: WIRE_1-1
   Computation algorithm: EXTRAPOLATE_COMPUTE_AVERAGE
   Averaged at nodes
   Averaging regions: ODB_REGIONS

      Node Label  COORD.Magnitude     COORD.COOR1     COORD.COOR2    PE.Max. Prin    PE.Mid. Prin    PE.Min. Prin         PE.PE11         PE.PE22         PE.PE33         PE.PE12            PEEQ         S.Mises     S.Max. Prin     S.Mid. Prin     S.Min. Prin           S.S11           S.S22           S.S33           S.S12
                          @Loc 1          @Loc 1          @Loc 1          @Loc 1          @Loc 1          @Loc 1          @Loc 1          @Loc 1          @Loc 1          @Loc 1          @Loc 1          @Loc 1          @Loc 1          @Loc 1          @Loc 1          @Loc 1          @Loc 1          @Loc 1          @Loc 1
----------------------------------------------------------------------------------------------------------------------------------------------------------------------------------------------------------------------------------------------------------------------------------------------------------------------------------
               1     72.4315E-03     15.9872E-03     70.6452E-03     238.331E-03    -119.066E-03    -119.511E-03    -117.776E-03     236.946E-03    -119.417E-03     44.4158E-03     334.695E-03     110.702E+06     110.024E+06     104.374E+06    -3.39252E+06    -3.33380E+06     109.965E+06     104.374E+06     75.1415E+03
               2     69.6686E-03    -222.335E-09     69.6686E-03     239.811E-03    -119.399E-03    -120.438E-03    -120.217E-03     239.811E-03    -119.619E-03     891.860E-06     240.772E-03     209.071E+06    -120.045E+06    -122.291E+06    -330.227E+06    -120.127E+06    -330.145E+06    -122.291E+06     284.205E+03
               3     168.795E-09     160.536E-09    -52.1541E-09     459.502E-03    -229.737E-03    -229.769E-03    -229.758E-03     459.492E-03    -229.737E-03     5.29441E-03     462.105E-03     209.358E+06    -74.8059E+06    -74.8254E+06    -284.174E+06    -75.2562E+06    -283.743E+06    -74.8059E+06     9.48676E+06
               4     15.4084E-03     15.4084E-03    -52.1541E-09     475.598E-03    -143.817E-03    -331.229E-03    -299.450E-03     443.819E-03    -143.817E-03     313.881E-03     547.279E-03     173.856E+06     93.1908E+06     83.7711E+06    -85.1837E+06    -72.8685E+06     71.4559E+06     93.1908E+06     43.9210E+06
               5     142.449E-03     15.7167E-03     141.580E-03     68.7996E-03     54.1241E-03    -122.938E-03     68.5067E-03     54.4170E-03    -122.938E-03     4.10495E-03     124.729E-03     74.8867E+06     71.7747E+06       41.96E+03    -5.91074E+06     71.0737E+06     742.885E+03    -5.91074E+06     7.05607E+06
               6     136.752E-03     2.03657E-06     136.752E-03     113.102E-03    -55.4798E-03    -57.6187E-03    -57.5224E-03     113.006E-03    -55.4798E-03    -8.10813E-03     113.117E-03     83.2187E+06     82.2218E+06     80.0514E+06    -2.06085E+06     79.5402E+06    -1.54958E+06     82.2218E+06    -6.45907E+06
               7     72.1857E-03     15.0975E-03     70.5893E-03     252.693E-03    -119.217E-03    -133.578E-03    -119.389E-03     238.679E-03    -119.392E-03     123.885E-03     412.562E-03     110.600E+06     106.052E+06     101.797E+06    -6.60234E+06    -6.54155E+06     105.689E+06     102.099E+06     362.449E+03
               8     71.7597E-03     14.2109E-03     70.3385E-03     255.972E-03    -119.430E-03    -136.466E-03    -118.610E-03     238.117E-03    -119.430E-03     158.896E-03     451.473E-03     111.978E+06     100.427E+06     97.6595E+06    -12.9047E+06    -12.8421E+06     98.7248E+06     99.2991E+06     680.898E+03
               9     71.4550E-03     13.3189E-03     70.2027E-03     247.247E-03    -119.498E-03    -127.793E-03    -116.833E-03     236.288E-03    -119.498E-03     125.898E-03     424.091E-03     117.212E+06     98.7182E+06     94.8084E+06    -20.3936E+06    -20.3274E+06     94.7422E+06     98.7182E+06     925.577E+03
              10     71.1315E-03     12.4322E-03     70.0366E-03     246.078E-03    -119.429E-03    -126.890E-03    -116.676E-03     235.865E-03    -119.429E-03     120.792E-03     422.072E-03     119.887E+06      95.039E+06     88.3860E+06    -28.0229E+06    -27.9748E+06     92.4189E+06     90.9581E+06     1.39958E+06
              11     70.8578E-03     11.5437E-03     69.9112E-03     240.473E-03    -119.197E-03    -121.514E-03    -115.493E-03     234.615E-03    -119.361E-03     90.3538E-03     395.448E-03     115.085E+06     88.4672E+06     67.5549E+06    -34.9763E+06    -34.9608E+06     88.4517E+06     67.5549E+06     1.14978E+06
              12     70.6346E-03     10.6550E-03     69.8264E-03     237.852E-03    -118.564E-03    -119.432E-03    -115.403E-03     234.601E-03    -119.343E-03     67.1256E-03     368.299E-03     109.404E+06     81.0444E+06     38.4687E+06    -42.8126E+06    -42.7769E+06     81.0087E+06     38.4687E+06     368.062E+03
              13     70.4428E-03     9.76600E-03     69.7625E-03     237.152E-03    -117.767E-03    -119.409E-03    -116.068E-03     235.452E-03    -119.409E-03     48.0123E-03     342.228E-03     84.6335E+06     44.8751E+06     11.1164E+06    -50.9945E+06    -50.9332E+06     36.7995E+06     19.1307E+06    -771.144E+03
              14     70.2860E-03     8.87669E-03     69.7232E-03     237.278E-03    -117.738E-03    -119.561E-03    -116.899E-03     236.439E-03    -119.561E-03     34.2186E-03     320.677E-03     64.4964E+06     7.32338E+06    -31.7276E+06    -62.4013E+06    -57.8214E+06    -36.3076E+06     7.32338E+06    -1.08185E+06
              15     70.1490E-03     7.98812E-03     69.6927E-03     237.591E-03    -118.028E-03    -119.597E-03    -117.558E-03     237.120E-03    -119.597E-03     25.3890E-03     302.951E-03     84.2485E+06    -3.95399E+06    -63.7379E+06    -98.0564E+06    -63.7691E+06    -98.0253E+06    -3.95399E+06    -441.814E+03
              16     70.0336E-03     7.10038E-03     69.6727E-03     237.991E-03    -118.335E-03    -119.652E-03    -118.124E-03     237.781E-03    -119.652E-03     16.8899E-03     287.988E-03     117.470E+06    -14.6912E+06    -69.8859E+06    -149.170E+06    -69.9025E+06    -149.154E+06    -14.6912E+06    -216.623E+03
              17     69.9383E-03     6.21278E-03     69.6618E-03     238.532E-03    -118.879E-03    -119.713E-03    -118.796E-03     238.449E-03    -119.713E-03     10.5649E-03     275.756E-03     145.724E+06    -25.7080E+06    -76.9600E+06    -190.028E+06    -76.9629E+06    -190.025E+06    -25.7080E+06    -6.46414E+03
              18     69.8609E-03     5.32594E-03     69.6576E-03     238.695E-03    -119.048E-03    -119.696E-03    -119.020E-03     238.667E-03    -119.696E-03     6.06752E-03     265.537E-03     175.079E+06    -36.7288E+06    -84.8642E+06    -230.748E+06    -84.8710E+06    -230.741E+06    -36.7288E+06     270.326E+03
              19     69.7965E-03     4.43770E-03     69.6553E-03     238.741E-03    -119.049E-03    -119.750E-03    -119.043E-03     238.735E-03    -119.750E-03     2.26088E-03     257.107E-03     198.971E+06    -50.0913E+06    -92.7087E+06    -266.858E+06    -92.7181E+06    -266.849E+06    -50.0913E+06     385.991E+03
              20     69.7488E-03     3.55039E-03     69.6583E-03     239.042E-03    -119.329E-03    -119.790E-03    -119.352E-03     239.042E-03    -119.766E-03    -386.209E-06     250.696E-03     208.612E+06    -67.4727E+06    -100.970E+06    -290.745E+06    -100.980E+06    -290.735E+06    -67.4727E+06     414.443E+03
              21     69.7130E-03     2.66315E-03     69.6622E-03     239.068E-03    -119.392E-03    -119.716E-03    -119.415E-03     239.066E-03    -119.693E-03    -1.31093E-03     245.639E-03     212.095E+06    -86.5389E+06    -109.292E+06    -309.021E+06    -109.312E+06    -309.002E+06    -86.5389E+06     577.995E+03
              22     69.6898E-03     1.77427E-03     69.6673E-03     238.973E-03    -119.299E-03    -119.715E-03    -119.300E-03     238.972E-03    -119.712E-03    -1.46417E-03     242.201E-03     212.593E+06    -103.290E+06    -115.347E+06    -321.600E+06    -115.364E+06    -321.583E+06    -103.290E+06     431.738E+03
              23     69.6764E-03     887.369E-06     69.6707E-03     239.457E-03    -119.375E-03    -120.107E-03    -119.787E-03     239.456E-03    -119.695E-03    -259.874E-06     240.892E-03     210.835E+06    -115.180E+06    -119.817E+06    -328.284E+06    -118.738E+06    -328.240E+06    -116.303E+06     263.887E+03
              24     68.4020E-03    -166.484E-09     68.4020E-03     239.284E-03    -119.218E-03    -120.090E-03    -119.869E-03     239.283E-03    -119.438E-03    -689.082E-06     240.235E-03     209.204E+06    -119.737E+06    -123.302E+06    -330.701E+06    -121.522E+06    -330.643E+06    -121.575E+06     1.09866E+06
              25     67.1331E-03     1.33917E-06     67.1331E-03     238.897E-03    -118.947E-03    -119.962E-03    -119.598E-03     238.896E-03    -119.309E-03    -649.975E-06     239.911E-03     209.028E+06    -121.837E+06    -125.408E+06    -332.627E+06    -123.579E+06    -332.612E+06    -123.681E+06    -544.307E+03
              26     65.8658E-03    -2.01213E-06     65.8658E-03     239.424E-03    -119.074E-03    -120.374E-03    -120.010E-03     239.422E-03    -119.436E-03    -872.441E-06     240.391E-03     208.154E+06    -119.867E+06    -122.744E+06    -329.444E+06    -120.903E+06    -329.441E+06    -121.712E+06     763.719E+03
              27     64.5942E-03     3.70622E-06     64.5942E-03     239.407E-03    -119.051E-03    -120.381E-03    -120.379E-03     239.405E-03    -119.051E-03    -1.05706E-03     240.386E-03     207.176E+06    -120.515E+06    -121.552E+06    -328.206E+06    -121.558E+06    -328.195E+06    -120.520E+06    -823.427E+03
              28     63.3287E-03    -3.01648E-06     63.3287E-03     239.318E-03    -119.423E-03    -119.911E-03    -119.910E-03     239.317E-03    -119.423E-03    -849.135E-06     240.431E-03     206.659E+06    -120.804E+06    -121.873E+06    -327.994E+06     -120.83E+06    -327.968E+06    -121.873E+06     266.702E+03
              29     62.0566E-03     3.16721E-06     62.0566E-03     239.950E-03    -119.249E-03    -120.717E-03    -120.716E-03     239.949E-03    -119.249E-03    -1.04551E-03     240.980E-03     206.111E+06    -118.448E+06    -121.373E+06    -326.005E+06    -120.328E+06    -325.987E+06    -119.512E+06     817.353E+03
              30     60.7865E-03    -714.158E-09     60.7865E-03     239.367E-03    -118.938E-03    -120.459E-03    -120.311E-03     239.367E-03    -119.086E-03    -214.205E-06     240.286E-03     206.136E+06    -119.305E+06    -122.738E+06    -327.136E+06    -121.173E+06    -327.131E+06    -120.877E+06    -1.07333E+06
              31     59.5195E-03     441.582E-09     59.5195E-03     239.381E-03    -119.216E-03    -120.188E-03    -120.040E-03     239.381E-03    -119.364E-03    -528.865E-06     240.324E-03     208.335E+06    -122.825E+06    -125.146E+06    -332.310E+06    -123.578E+06    -332.306E+06    -124.396E+06    -804.287E+03
              32     58.2492E-03     1.02371E-06     58.2492E-03     240.081E-03    -119.500E-03    -120.588E-03    -120.587E-03     240.080E-03    -119.500E-03    -299.106E-06     241.018E-03     210.593E+06    -122.771E+06    -123.841E+06    -333.897E+06    -123.522E+06    -333.895E+06    -123.091E+06     180.500E+03
              33     56.9784E-03    -558.743E-09     56.9784E-03     239.952E-03    -119.663E-03    -120.300E-03    -120.299E-03     239.951E-03    -119.663E-03    -625.401E-06     240.883E-03     208.854E+06    -121.012E+06    -121.428E+06    -330.074E+06    -121.014E+06    -330.071E+06    -121.428E+06     704.150E+03
              34     55.7107E-03     1.21679E-06     55.7107E-03     239.446E-03    -119.030E-03    -120.431E-03    -120.430E-03     239.445E-03    -119.030E-03    -1.08977E-03     240.332E-03     208.633E+06    -121.857E+06    -123.205E+06    -331.159E+06    -123.110E+06    -331.157E+06    -121.954E+06         -394.25
              35     54.4398E-03     618.508E-09     54.4398E-03     239.283E-03    -119.011E-03    -120.285E-03    -120.284E-03     239.283E-03    -119.011E-03     93.9963E-06     240.194E-03     205.366E+06    -121.046E+06    -124.152E+06    -327.946E+06    -122.313E+06    -327.930E+06    -122.901E+06     894.250E+03
              36     53.1721E-03    -221.752E-09     53.1721E-03     239.408E-03    -119.466E-03    -119.944E-03    -119.942E-03     239.405E-03    -119.466E-03    -788.791E-06     240.367E-03     204.451E+06    -120.443E+06    -122.905E+06    -326.111E+06    -121.065E+06    -326.096E+06    -122.298E+06     1.20770E+06
              37     51.9037E-03     631.087E-09     51.9037E-03     239.690E-03    -119.247E-03    -120.438E-03    -120.436E-03     239.688E-03    -119.247E-03    -1.15320E-03     240.695E-03     207.710E+06    -119.685E+06    -120.910E+06    -328.004E+06    -120.928E+06    -327.986E+06    -119.685E+06    -1.38674E+06
              38     50.6333E-03     1.06474E-06     50.6333E-03     240.182E-03    -119.527E-03    -120.656E-03    -120.655E-03     240.180E-03    -119.527E-03    -949.871E-06     241.174E-03     207.515E+06    -119.582E+06    -121.351E+06    -327.975E+06    -120.222E+06    -327.953E+06    -120.733E+06    -1.99702E+06
              39     49.3634E-03    -765.756E-09     49.3634E-03     239.788E-03    -119.776E-03    -120.022E-03    -120.021E-03     239.787E-03    -119.776E-03    -1.11303E-03     240.691E-03     208.436E+06    -122.039E+06    -123.682E+06    -331.290E+06    -122.557E+06    -331.265E+06    -123.189E+06     898.268E+03
              40     48.0921E-03     910.193E-09     48.0921E-03     239.388E-03    -119.362E-03    -120.043E-03    -120.043E-03     239.388E-03    -119.362E-03     4.20906E-06     240.292E-03     210.357E+06    -117.520E+06    -119.375E+06    -328.797E+06    -118.037E+06    -328.773E+06    -118.882E+06     1.99915E+06
              41     46.8237E-03     149.012E-09     46.8237E-03     238.874E-03    -119.081E-03    -119.806E-03    -119.686E-03     238.874E-03    -119.201E-03    -511.239E-06     239.798E-03     210.288E+06    -113.864E+06    -115.552E+06    -324.989E+06    -114.193E+06    -324.986E+06    -115.226E+06     254.885E+03
              42     45.5588E-03    -353.419E-09     45.5588E-03     238.670E-03    -119.133E-03    -119.544E-03    -119.424E-03     238.669E-03    -119.253E-03    -860.509E-06     239.601E-03     207.404E+06    -117.393E+06    -117.858E+06    -325.029E+06    -117.885E+06    -325.002E+06    -117.393E+06    -1.89385E+06
              43     44.2872E-03     872.341E-09     44.2872E-03     239.832E-03    -119.684E-03    -120.161E-03    -120.160E-03     239.830E-03    -119.684E-03     646.642E-06     240.782E-03     205.755E+06    -119.011E+06    -120.624E+06    -325.565E+06    -119.192E+06    -325.523E+06    -120.486E+06    -441.056E+03
              44     43.0159E-03    -560.975E-09     43.0159E-03     239.899E-03    -119.457E-03    -120.462E-03    -120.460E-03     239.897E-03    -119.457E-03     123.111E-06     240.864E-03     203.133E+06    -122.444E+06    -126.085E+06    -327.372E+06    -124.634E+06    -327.349E+06    -123.918E+06     2.13807E+06
              45     41.7486E-03     2.03199E-06     41.7486E-03     238.730E-03    -118.858E-03    -119.885E-03    -119.884E-03     238.729E-03    -118.858E-03    -309.312E-06     239.767E-03     203.566E+06    -121.712E+06    -125.506E+06    -327.147E+06    -123.927E+06    -327.099E+06    -123.338E+06    -1.12320E+06
              46     40.4817E-03    -1.67515E-06     40.4817E-03     238.635E-03    -119.148E-03    -119.487E-03    -119.354E-03     238.633E-03    -119.280E-03    -511.727E-06     239.653E-03     207.943E+06    -115.890E+06    -118.069E+06    -324.912E+06    -116.498E+06    -324.855E+06    -117.517E+06    -717.359E+03
              47     39.2134E-03     1.44646E-06     39.2134E-03     239.394E-03    -119.282E-03    -120.103E-03    -119.969E-03     239.393E-03    -119.414E-03    -967.322E-06     240.331E-03     207.670E+06    -115.162E+06    -115.840E+06    -323.170E+06    -115.735E+06    -323.147E+06    -115.288E+06     557.474E+03
              48     37.9440E-03    -194.114E-09     37.9440E-03     240.045E-03    -119.600E-03    -120.441E-03    -120.289E-03     240.045E-03    -119.752E-03    -239.187E-06     240.985E-03     205.789E+06    -118.850E+06    -119.474E+06    -324.950E+06    -118.856E+06    -324.944E+06    -119.474E+06    -1.03933E+06
              49     36.6721E-03    -81.5113E-09     36.6721E-03     240.117E-03    -119.783E-03    -120.339E-03    -120.187E-03     240.117E-03    -119.935E-03    -722.828E-06     241.093E-03     206.867E+06    -120.725E+06    -122.076E+06    -328.264E+06    -120.727E+06    -328.263E+06    -122.076E+06    -521.234E+03
              50     35.4033E-03     818.396E-09     35.4033E-03     239.604E-03    -119.152E-03    -120.454E-03    -120.454E-03     239.604E-03    -119.152E-03    -545.916E-06     240.557E-03     208.697E+06    -117.964E+06    -120.221E+06    -327.780E+06    -119.394E+06    -327.754E+06    -118.817E+06     1.38234E+06
              51     34.1331E-03     778.292E-09     34.1331E-03     239.071E-03    -118.812E-03    -120.265E-03    -119.711E-03     239.071E-03    -119.366E-03     386.493E-06     239.934E-03     210.600E+06    -116.422E+06    -118.884E+06    -328.242E+06    -117.852E+06    -328.216E+06    -117.480E+06     1.41034E+06
              52     32.8633E-03    -1.74484E-06     32.8633E-03     238.671E-03    -118.870E-03    -119.807E-03    -119.252E-03     238.670E-03    -119.424E-03    -369.482E-06     239.499E-03     210.463E+06    -118.080E+06    -120.008E+06    -329.500E+06    -118.959E+06    -329.492E+06    -119.138E+06     707.681E+03
              53     31.5977E-03     2.41544E-06     31.5977E-03     239.091E-03    -118.652E-03    -120.444E-03    -120.443E-03     239.090E-03    -118.652E-03    -206.963E-06     239.990E-03     206.358E+06    -118.870E+06    -120.033E+06    -325.807E+06    -120.072E+06    -325.768E+06    -118.870E+06    -855.913E+03
              54     30.3310E-03     102.829E-09     30.3310E-03     240.330E-03    -119.068E-03    -121.263E-03    -120.477E-03     240.329E-03    -119.854E-03     852.617E-06     241.308E-03     206.555E+06    -118.536E+06    -119.982E+06    -325.809E+06    -118.860E+06    -325.777E+06    -119.689E+06    -2.06715E+06
              55     29.0565E-03    -1.48898E-06     29.0565E-03     240.307E-03    -119.613E-03    -120.695E-03    -119.909E-03     240.306E-03    -120.399E-03    -185.590E-06     241.210E-03     209.362E+06    -117.425E+06    -118.966E+06    -327.553E+06    -117.441E+06    -327.537E+06    -118.966E+06     968.727E+03
              56     27.7860E-03     2.01249E-06     27.7860E-03     239.256E-03    -118.880E-03    -120.378E-03    -120.378E-03     239.255E-03    -118.880E-03     94.1526E-06     240.051E-03     208.684E+06    -117.976E+06    -120.074E+06    -327.698E+06    -119.706E+06    -327.679E+06    -118.364E+06     1.93077E+06
              57     26.5191E-03     128.846E-09     26.5191E-03     238.705E-03    -118.568E-03    -120.137E-03    -120.137E-03     238.704E-03    -118.568E-03     152.586E-06     239.565E-03     207.532E+06    -120.328E+06    -122.498E+06    -328.934E+06    -122.053E+06    -328.919E+06    -120.788E+06    -383.866E+03
              58     25.2515E-03     529.864E-09     25.2515E-03     237.853E-03    -118.230E-03    -119.632E-03    -119.631E-03     237.852E-03    -118.230E-03    -1.22279E-03     238.797E-03     208.095E+06    -122.437E+06    -123.385E+06    -331.004E+06    -122.955E+06    -330.974E+06    -122.897E+06     379.947E+03
              59     23.9880E-03     1.29298E-06     23.9880E-03     238.064E-03    -118.432E-03    -119.641E-03    -119.465E-03     238.062E-03    -118.607E-03    -381.103E-06     238.984E-03     207.137E+06    -118.271E+06    -119.929E+06    -326.231E+06    -120.005E+06    -326.155E+06    -118.271E+06    -956.553E+03
              60     22.7176E-03    -1.58045E-06     22.7176E-03     238.124E-03    -118.815E-03    -119.304E-03    -119.125E-03     238.120E-03    -118.990E-03    -1.17869E-03     239.056E-03     208.222E+06    -117.318E+06    -121.976E+06    -327.820E+06    -118.548E+06    -327.760E+06    -120.806E+06    -1.69927E+06
              61     21.4479E-03     2.10336E-06     21.4479E-03     235.690E-03    -117.582E-03    -118.103E-03    -118.097E-03     235.685E-03    -117.582E-03    -620.512E-06     236.653E-03     208.336E+06    -116.511E+06    -123.184E+06    -328.104E+06    -119.703E+06    -328.097E+06    -120.000E+06     1.18473E+06
              62     20.1875E-03    -1.71765E-06     20.1875E-03     234.326E-03    -117.000E-03    -117.332E-03    -117.330E-03     234.324E-03    -117.000E-03     771.994E-06     235.327E-03     205.597E+06    -113.079E+06    -119.664E+06    -321.889E+06    -116.269E+06    -321.885E+06    -116.479E+06     41.9097E+03
              63     18.9233E-03     1.88366E-06     18.9233E-03     232.848E-03    -115.967E-03    -116.883E-03    -116.881E-03     232.846E-03    -115.967E-03    -1.32076E-03     233.773E-03     204.551E+06    -118.153E+06    -124.619E+06    -325.860E+06    -121.230E+06    -325.848E+06    -121.553E+06    -1.44702E+06
              64     17.6688E-03    -448.050E-09     17.6688E-03     228.689E-03    -113.831E-03    -114.851E-03    -114.616E-03     228.684E-03    -114.061E-03    -2.67045E-03     229.512E-03     205.642E+06    -117.816E+06    -125.060E+06    -326.982E+06    -120.921E+06    -326.943E+06    -121.995E+06    -2.75508E+06
              65     16.4159E-03    -43.0053E-09     16.4159E-03     222.452E-03    -111.092E-03    -111.345E-03    -111.080E-03     222.440E-03    -111.345E-03    -3.92921E-03     223.261E-03     203.490E+06    -120.141E+06    -127.804E+06    -327.353E+06    -123.658E+06     -327.32E+06    -124.319E+06    -1.16342E+06
              66     15.1725E-03     22.1647E-09     15.1725E-03     212.787E-03    -106.275E-03    -106.503E-03    -106.463E-03     212.771E-03    -106.298E-03    -4.54402E-03     213.490E-03     203.710E+06    -124.131E+06    -130.768E+06    -331.078E+06    -127.634E+06    -331.059E+06    -127.284E+06     1.86857E+06
              67     13.9465E-03     294.817E-09     13.9465E-03     200.245E-03    -99.4121E-03    -100.825E-03    -100.793E-03     200.213E-03    -99.4121E-03    -5.95947E-03     200.675E-03     203.850E+06    -122.836E+06    -130.179E+06    -330.255E+06    -127.042E+06     -330.24E+06    -125.988E+06     1.25165E+06
              68     12.7331E-03     1.88785E-06     12.7331E-03     185.099E-03    -91.8332E-03    -93.2607E-03    -93.2122E-03     185.050E-03    -91.8332E-03    -7.34570E-03     185.299E-03     203.693E+06    -118.189E+06    -126.605E+06    -325.960E+06    -122.387E+06    -325.953E+06    -122.413E+06     826.616E+03
              69     11.5413E-03    -1.57824E-06     11.5413E-03     167.711E-03    -83.4743E-03    -84.2346E-03    -83.6255E-03     167.644E-03    -84.0158E-03    -8.12988E-03     167.851E-03     198.503E+06    -116.887E+06    -124.563E+06    -319.117E+06    -120.347E+06    -319.109E+06    -121.112E+06     490.580E+03
              70     10.3700E-03     551.545E-09     10.3700E-03     150.581E-03    -74.7797E-03    -75.8004E-03    -75.1800E-03     150.502E-03    -75.3212E-03    -8.43467E-03     150.697E-03     191.045E+06    -116.544E+06    -125.287E+06    -311.805E+06    -120.030E+06    -311.770E+06    -121.835E+06     1.44770E+06
              71     9.21681E-03     222.505E-09     9.21681E-03     137.656E-03    -68.1748E-03    -69.4872E-03    -69.4345E-03     137.604E-03    -68.1748E-03    -6.52320E-03     137.813E-03     185.889E+06    -110.736E+06    -124.270E+06    -302.998E+06    -119.047E+06    -302.930E+06    -116.027E+06     3.52861E+06
              72     8.08103E-03     1.40719E-06     8.08103E-03     137.058E-03    -67.8905E-03    -69.1700E-03    -69.1529E-03     137.041E-03    -67.8905E-03    -2.59194E-03     137.351E-03     191.296E+06    -95.7958E+06    -110.092E+06    -293.820E+06    -104.074E+06    -293.785E+06    -101.849E+06     1.92452E+06
              73     6.92993E-03    -635.114E-09     6.92993E-03     158.858E-03    -78.6256E-03    -80.2330E-03    -80.2102E-03     158.835E-03    -78.6256E-03     3.50221E-03     159.455E-03     197.524E+06    -82.3104E+06    -96.3467E+06    -286.468E+06    -90.3477E+06    -286.414E+06    -88.3636E+06     2.41797E+06
              74     5.74148E-03     2.94633E-06     5.74148E-03     208.008E-03    -102.837E-03    -105.180E-03    -103.869E-03     207.878E-03    -104.019E-03     12.2011E-03     209.274E-03     203.120E+06    -74.1938E+06    -89.9932E+06    -284.750E+06    -82.2819E+06    -284.645E+06    -82.0101E+06    -167.442E+03
              75     4.47116E-03    -5.03512E-06     4.47116E-03     280.981E-03    -139.239E-03    -141.699E-03    -139.038E-03     280.779E-03    -141.699E-03     18.3152E-03     282.788E-03     207.050E+06    -75.4049E+06    -86.3037E+06    -287.655E+06    -78.6005E+06    -287.542E+06    -83.2212E+06      77.209E+03
              76     3.09059E-03     3.04026E-06     3.09059E-03     365.210E-03    -181.068E-03    -184.071E-03    -182.614E-03     365.030E-03    -182.345E-03     19.7877E-03     367.585E-03     204.114E+06    -84.0836E+06    -88.3834E+06    -290.306E+06    -87.2822E+06    -290.190E+06    -85.3009E+06     76.0485E+03
              77     1.58768E-03    -165.717E-09     1.58768E-03     433.710E-03    -215.975E-03    -217.717E-03    -217.627E-03     433.620E-03    -215.975E-03     12.8422E-03     436.441E-03     209.113E+06    -79.8139E+06    -81.0410E+06    -289.535E+06    -80.0933E+06    -289.265E+06    -81.0312E+06     2.35789E+06
              78     790.230E-06     790.230E-06    -52.1541E-09     455.451E-03    -226.669E-03    -228.737E-03    -226.649E-03     455.415E-03    -228.721E-03     9.09404E-03     457.996E-03     206.652E+06    -75.3021E+06    -75.6612E+06    -282.133E+06    -75.9091E+06    -281.885E+06    -75.3021E+06     2.92469E+06
              79     1.58580E-03     1.58580E-03    -52.1541E-09     443.877E-03    -217.999E-03    -225.764E-03    -217.873E-03     443.752E-03    -225.764E-03     17.5415E-03     446.048E-03     203.249E+06    -74.5590E+06    -76.3400E+06    -278.690E+06    -76.5089E+06    -278.522E+06    -74.5590E+06     1.88243E+06
              80     2.38834E-03     2.38834E-03    -52.1541E-09     426.325E-03    -205.005E-03    -221.131E-03    -204.725E-03     426.046E-03    -221.131E-03     26.1522E-03     427.994E-03     208.679E+06    -71.8361E+06    -77.1986E+06    -283.135E+06    -77.3777E+06    -282.956E+06    -71.8361E+06     1.58146E+06
              81     3.20701E-03     3.20701E-03    -52.1541E-09     404.550E-03    -189.091E-03    -215.138E-03    -188.664E-03     404.123E-03    -215.138E-03     31.7150E-03     406.130E-03     209.072E+06    -70.6508E+06    -77.0754E+06    -282.858E+06    -77.1379E+06    -282.796E+06    -70.6508E+06     -706.96E+03
              82     4.04006E-03     4.04006E-03    -52.1541E-09     380.640E-03    -171.979E-03    -208.182E-03    -171.429E-03     380.091E-03    -208.182E-03     34.7307E-03     382.294E-03     208.469E+06    -70.8212E+06    -73.9493E+06    -280.830E+06    -74.2126E+06    -280.567E+06    -70.8212E+06    -3.67283E+06
              83     4.88865E-03     4.88865E-03    -52.1541E-09     356.251E-03    -155.356E-03    -200.597E-03    -154.670E-03     355.566E-03    -200.597E-03     37.3330E-03     358.404E-03     197.322E+06    -66.8065E+06    -74.8271E+06    -267.911E+06    -67.7596E+06    -267.592E+06    -74.1926E+06    -7.74271E+06
              84     5.75084E-03     5.75084E-03    -52.1541E-09     332.392E-03    -139.443E-03    -192.648E-03    -138.670E-03     331.619E-03    -192.648E-03     38.1363E-03     335.823E-03     153.886E+06    -57.9232E+06    -83.3629E+06    -222.343E+06    -58.8696E+06    -221.397E+06    -83.3629E+06    -10.4419E+06
              85     6.62966E-03     6.62966E-03    -52.1541E-09     310.080E-03    -124.936E-03    -184.664E-03    -124.142E-03     309.285E-03    -184.664E-03     37.1325E-03     315.462E-03     103.349E+06    -46.2238E+06    -94.3619E+06    -162.030E+06    -48.1827E+06    -160.071E+06    -94.3619E+06    -14.7255E+06
              86     7.51910E-03     7.51910E-03    -52.1541E-09     289.798E-03    -112.736E-03    -176.891E-03    -111.851E-03     288.913E-03    -176.891E-03     37.6252E-03     297.503E-03     75.3165E+06    -30.0000E+06    -77.3799E+06    -116.021E+06    -36.2877E+06    -86.3831E+06    -100.730E+06    -14.8714E+06
              87     8.41504E-03     8.41504E-03    -52.1541E-09     270.891E-03    -101.365E-03    -169.516E-03    -100.468E-03     269.994E-03    -169.516E-03     36.4869E-03     281.061E-03     82.3249E+06     8.15995E+06    -39.0573E+06    -86.6515E+06    -26.7802E+06    -4.11720E+06    -86.6515E+06    -10.2558E+06
              88     9.33108E-03     9.33108E-03    -52.1541E-09     254.816E-03    -92.1054E-03    -162.769E-03    -91.2287E-03     253.940E-03    -162.769E-03     34.8004E-03     268.283E-03     92.0422E+06     53.7379E+06    -20.1590E+06    -46.4761E+06    -22.0432E+06     53.5489E+06    -44.4028E+06    -1.74715E+06
              89     10.2430E-03     10.2430E-03    -52.1541E-09     242.653E-03    -86.4850E-03    -156.462E-03    -85.4711E-03     241.640E-03    -156.462E-03     36.4290E-03     260.427E-03     92.7179E+06     80.5753E+06     2.78557E+06    -19.9954E+06    -19.8635E+06     80.4434E+06     2.78557E+06    -2.02610E+06
              90     11.1633E-03     11.1633E-03    -52.1541E-09     233.741E-03    -83.2442E-03    -150.850E-03    -82.1336E-03     232.630E-03    -150.850E-03     37.4557E-03     255.779E-03     92.7021E+06     89.5726E+06     46.2481E+06    -13.9769E+06    -13.8251E+06     89.4207E+06     46.2481E+06    -1.44981E+06
              91     12.0878E-03     12.0878E-03    -52.1541E-09     231.285E-03    -85.3135E-03    -146.131E-03    -84.1878E-03     230.160E-03    -146.131E-03     37.6897E-03     256.270E-03     92.2767E+06     93.1589E+06     77.1351E+06    -6.03217E+06    -5.69396E+06     86.3066E+06     83.6493E+06    -2.51715E+06
              92     13.0052E-03     13.0052E-03    -52.1541E-09     239.345E-03    -96.9583E-03    -142.488E-03    -95.2014E-03     237.588E-03    -142.488E-03     47.8590E-03     266.622E-03     96.4157E+06     105.958E+06     87.0993E+06     1.62697E+06     2.75531E+06     85.9709E+06     105.958E+06     2.11775E+06
              93     13.8927E-03     13.8927E-03    -52.1541E-09     265.872E-03    -122.658E-03    -143.597E-03    -122.988E-03     263.078E-03    -140.473E-03     65.9076E-03     297.831E-03     122.727E+06     129.452E+06     110.963E+06    -1.15131E+06     21.2561E+06     94.7000E+06     123.307E+06    -28.6221E+06
              94     14.7797E-03     14.7797E-03    -52.1541E-09     380.501E-03    -141.841E-03    -238.671E-03    -221.181E-03     363.011E-03    -141.841E-03     193.969E-03     434.032E-03     160.485E+06     118.913E+06     108.058E+06    -46.7110E+06    -18.9633E+06     86.4552E+06     112.768E+06    -12.4508E+06
              95     15.7733E-03     15.6720E-03     1.78393E-03     401.650E-03    -140.162E-03    -260.909E-03    -217.875E-03     358.616E-03    -140.162E-03     315.655E-03     541.796E-03     113.069E+06     112.427E+06     102.861E+06    -4.98866E+06     20.0381E+06     77.8342E+06     112.427E+06     31.1784E+06
              96     16.0469E-03     15.7654E-03     2.99230E-03     307.051E-03    -133.477E-03    -173.398E-03    -129.465E-03     263.118E-03    -133.477E-03     275.906E-03     513.249E-03     123.502E+06     127.922E+06     105.151E+06    -5.38038E+06     13.4927E+06     104.193E+06     110.007E+06     9.85817E+06
              97     16.4149E-03     15.8571E-03     4.24296E-03     289.134E-03    -127.690E-03    -161.791E-03    -138.536E-03     265.878E-03    -127.690E-03     193.171E-03     440.337E-03     121.701E+06     120.475E+06     96.8886E+06    -11.2741E+06    -9.65436E+06     113.184E+06     102.560E+06     6.23732E+06
              98     16.8600E-03     15.9132E-03     5.57047E-03     295.488E-03    -123.241E-03    -172.731E-03    -162.343E-03     285.100E-03    -123.241E-03     136.649E-03     386.164E-03     105.563E+06     115.986E+06     96.2619E+06     1.97777E+06     3.67133E+06     108.621E+06     101.933E+06     8.20138E+06
              99     17.3859E-03     15.9501E-03     6.91815E-03     297.505E-03    -120.606E-03    -177.254E-03    -170.544E-03     290.795E-03    -120.606E-03     111.696E-03     379.844E-03     116.590E+06     113.615E+06     98.5713E+06    -9.56922E+06    -9.44959E+06     112.504E+06     99.5623E+06     3.81219E+06
             100     17.9785E-03     15.9688E-03     8.25979E-03     291.611E-03    -119.305E-03    -172.408E-03    -167.195E-03     286.397E-03    -119.305E-03     97.7792E-03     375.732E-03     106.175E+06     112.742E+06     101.911E+06     1.67701E+06     1.73531E+06     111.693E+06     102.902E+06     97.0826E+03
             101     18.6360E-03     15.9787E-03     9.59075E-03     284.093E-03    -118.856E-03    -165.513E-03    -160.847E-03     279.427E-03    -118.856E-03     91.1232E-03     372.522E-03     113.679E+06     112.807E+06     101.506E+06    -5.98878E+06    -5.97107E+06     111.328E+06     102.967E+06    -1.34506E+06
             102     19.3513E-03     15.9794E-03     10.9148E-03     276.594E-03    -118.798E-03    -158.344E-03    -153.995E-03     272.245E-03    -118.798E-03     86.5447E-03     368.557E-03     107.197E+06     111.502E+06     104.276E+06     905.063E+03     907.303E+03     110.039E+06     105.737E+06    -485.278E+03
             103     20.1197E-03     15.9836E-03     12.2199E-03     268.009E-03    -118.877E-03    -149.600E-03    -145.537E-03     263.946E-03    -118.877E-03     81.9751E-03     362.440E-03     112.784E+06     108.753E+06     102.985E+06    -6.72071E+06    -6.71113E+06     108.741E+06     102.987E+06    -897.884E+03
             104     20.9324E-03     15.9839E-03     13.5159E-03     260.357E-03    -118.986E-03    -141.625E-03    -138.086E-03     256.818E-03    -118.986E-03     75.0225E-03     356.437E-03     108.480E+06     108.212E+06     105.047E+06    -1.78803E+06    -1.77865E+06     108.200E+06     105.049E+06    -432.550E+03
             105     21.7813E-03     15.9855E-03     14.7949E-03     253.064E-03    -119.154E-03    -133.888E-03    -131.135E-03     250.310E-03    -119.154E-03     64.9159E-03     350.370E-03     110.644E+06     108.940E+06     105.102E+06    -3.55645E+06    -3.55231E+06     108.936E+06     105.102E+06    -201.458E+03
             106     22.6693E-03     15.9844E-03     16.0747E-03     245.932E-03    -119.339E-03    -126.500E-03    -124.271E-03     243.703E-03    -119.339E-03     57.4410E-03     344.210E-03     108.482E+06     107.873E+06     103.056E+06    -2.90313E+06    -2.88214E+06     107.852E+06     103.056E+06     610.204E+03
             107     23.5854E-03     15.9858E-03     17.3414E-03     241.184E-03    -119.438E-03    -121.872E-03    -119.939E-03     239.250E-03    -119.438E-03     52.7999E-03     339.863E-03     108.702E+06     108.085E+06     101.310E+06    -3.84225E+06    -3.81972E+06     108.062E+06     101.310E+06     519.387E+03
             108     24.5338E-03     15.9844E-03     18.6120E-03     239.310E-03    -119.461E-03    -120.011E-03    -118.201E-03     237.500E-03    -119.461E-03     50.8684E-03     338.148E-03     107.169E+06     108.276E+06     100.526E+06    -2.54208E+06    -2.51541E+06     108.250E+06     100.526E+06     622.959E+03
             109     25.5121E-03     15.9858E-03     19.8826E-03     238.862E-03    -119.471E-03    -119.548E-03    -117.755E-03     237.069E-03    -119.471E-03     50.5649E-03     337.482E-03     107.464E+06     108.022E+06     99.5129E+06    -3.43713E+06    -3.40391E+06     107.989E+06     99.5129E+06     351.541E+03
             110     26.5106E-03     15.9849E-03     21.1494E-03     238.405E-03    -119.175E-03    -119.479E-03    -117.527E-03     236.752E-03    -119.473E-03     48.5062E-03     336.964E-03     107.210E+06     108.016E+06     100.203E+06    -2.88564E+06    -2.86606E+06     107.996E+06     100.203E+06    -91.6071E+03
             111     27.5327E-03     15.9868E-03     22.4159E-03     238.039E-03    -118.833E-03    -119.446E-03    -117.240E-03     236.445E-03    -119.446E-03     47.5859E-03     336.743E-03     107.416E+06     107.165E+06     99.8012E+06    -3.73882E+06    -3.71669E+06     107.142E+06     99.8012E+06    -173.547E+03
             112     28.5780E-03     15.9858E-03     23.6888E-03     238.431E-03    -119.117E-03    -119.533E-03    -117.633E-03     236.845E-03    -119.432E-03     47.5252E-03     337.087E-03     106.337E+06     107.037E+06     100.326E+06    -2.49525E+06    -2.47969E+06     107.021E+06     100.326E+06     -564.28E+03
             113     29.6368E-03     15.9858E-03     24.9558E-03     238.613E-03    -119.295E-03    -119.538E-03    -117.848E-03     237.064E-03    -119.436E-03     46.9888E-03     337.250E-03     106.499E+06     106.388E+06     101.075E+06    -2.65335E+06    -2.63470E+06     106.369E+06     101.075E+06    -649.793E+03
             114     30.7156E-03     15.9864E-03     26.2275E-03     238.248E-03    -119.049E-03    -119.429E-03    -117.490E-03     236.689E-03    -119.429E-03     47.1045E-03     336.714E-03     105.482E+06     105.288E+06     100.611E+06     -2.4468E+06    -2.38889E+06     105.230E+06     100.611E+06     558.441E+03
             115     31.8058E-03     15.9858E-03     27.4966E-03     238.248E-03    -119.035E-03    -119.453E-03    -117.436E-03     236.649E-03    -119.453E-03     47.7011E-03     336.720E-03     106.960E+06     106.057E+06     100.104E+06    -3.75457E+06    -3.69405E+06     105.997E+06     100.104E+06     468.962E+03
             116     32.9079E-03     15.9853E-03     28.7646E-03     238.071E-03    -118.752E-03    -119.463E-03    -117.131E-03     236.450E-03    -119.463E-03     47.9829E-03     336.511E-03     104.879E+06     105.160E+06     100.081E+06    -2.16543E+06    -2.13166E+06     105.126E+06     100.081E+06    -172.091E+03
             117     34.0231E-03     15.9873E-03     30.0330E-03     237.961E-03    -118.633E-03    -119.428E-03    -117.059E-03     236.387E-03    -119.428E-03     47.2682E-03     336.419E-03     104.056E+06     104.848E+06     101.088E+06    -1.03442E+06    -987.469E+03     104.801E+06     101.088E+06    -455.863E+03
             118     35.1472E-03     15.9864E-03     31.3012E-03     238.691E-03    -119.138E-03    -119.692E-03    -117.882E-03     237.144E-03    -119.401E-03     46.9835E-03     336.954E-03     108.824E+06     106.995E+06     101.426E+06    -4.48837E+06    -4.41810E+06     106.924E+06     101.426E+06     160.538E+03
             119     36.2865E-03     15.9866E-03     32.5751E-03     238.832E-03    -119.167E-03    -119.707E-03    -117.913E-03     237.287E-03    -119.416E-03     46.9521E-03     337.077E-03     108.885E+06     108.213E+06     101.129E+06    -4.03846E+06    -3.98128E+06     108.156E+06     101.129E+06     448.501E+03
             120     37.4261E-03     15.9859E-03     33.8403E-03     238.033E-03    -118.595E-03    -119.456E-03    -117.120E-03     236.558E-03    -119.456E-03     45.7631E-03     336.462E-03     106.273E+06     107.054E+06     100.966E+06    -2.13179E+06    -2.10126E+06     107.023E+06     100.966E+06    -258.943E+03
             121     38.5774E-03     15.9860E-03     35.1093E-03     237.867E-03    -118.529E-03    -119.460E-03    -117.018E-03     236.356E-03    -119.460E-03     46.3073E-03     336.111E-03     106.474E+06     106.300E+06     99.3512E+06    -3.47531E+06    -3.46362E+06     106.288E+06     99.3512E+06     543.714E+03
             122     39.7391E-03     15.9855E-03     36.3821E-03     237.918E-03    -118.561E-03    -119.451E-03    -116.938E-03     236.295E-03    -119.451E-03     47.9859E-03     336.443E-03     106.531E+06     107.358E+06     99.6953E+06    -2.79693E+06    -2.79543E+06     107.357E+06     99.6953E+06    -53.9677E+03
             123     40.9001E-03     15.9870E-03     37.6462E-03     237.866E-03    -118.474E-03    -119.412E-03    -116.837E-03     236.229E-03    -119.412E-03     48.1954E-03     336.250E-03     104.957E+06     106.385E+06     99.5937E+06    -1.80121E+06    -1.78950E+06     106.373E+06     99.5937E+06    -589.810E+03
             124     42.0727E-03     15.9869E-03     38.9169E-03     238.375E-03    -118.987E-03    -119.373E-03    -117.417E-03     236.784E-03    -119.352E-03     47.5883E-03     336.281E-03     104.956E+06     105.229E+06     97.7541E+06    -3.25942E+06    -3.24825E+06     105.218E+06     97.7541E+06      -768.9E+03
             125     43.2507E-03     15.9874E-03     40.1874E-03     239.038E-03    -119.388E-03    -119.676E-03    -118.074E-03     237.436E-03    -119.388E-03     47.8310E-03     336.994E-03     104.859E+06     103.328E+06     98.2271E+06    -3.93994E+06    -3.91010E+06     103.298E+06     98.2271E+06    -1.23881E+06
             126     44.4331E-03     15.9864E-03     41.4576E-03     239.422E-03    -119.443E-03    -120.083E-03    -118.468E-03     237.806E-03    -119.443E-03     48.0907E-03     337.365E-03     103.862E+06     103.114E+06     100.010E+06    -2.25417E+06    -2.16298E+06     103.022E+06     100.010E+06     590.470E+03
             127     45.6203E-03     15.9866E-03     42.7276E-03     238.990E-03    -119.344E-03    -119.815E-03    -118.130E-03     237.403E-03    -119.442E-03     47.6062E-03     336.830E-03     106.502E+06     105.076E+06     100.117E+06    -3.81882E+06    -3.74824E+06     105.006E+06     100.117E+06     1.11487E+06
             128     46.8107E-03     15.9871E-03     43.9960E-03     237.956E-03    -118.788E-03    -119.411E-03    -117.164E-03     236.332E-03    -119.411E-03     48.0103E-03     335.499E-03     104.345E+06     104.463E+06     100.560E+06    -1.77550E+06    -1.74344E+06     104.431E+06     100.560E+06     376.544E+03
             129     48.0072E-03     15.9882E-03     45.2667E-03     238.119E-03    -118.868E-03    -119.426E-03    -117.239E-03     236.457E-03    -119.393E-03     48.5969E-03     335.438E-03     104.555E+06     103.487E+06     100.907E+06    -2.33355E+06    -2.28105E+06     103.435E+06     100.907E+06    -181.024E+03
             130     49.2045E-03     15.9855E-03     46.5355E-03     238.876E-03    -119.421E-03    -119.579E-03    -117.998E-03     237.296E-03    -119.421E-03     47.4860E-03     336.406E-03     106.643E+06     103.537E+06     101.474E+06    -4.12202E+06    -4.04171E+06     103.457E+06     101.474E+06     378.387E+03
             131     50.4052E-03     15.9862E-03     47.8030E-03     237.868E-03    -118.465E-03    -119.586E-03    -117.171E-03     236.448E-03    -119.461E-03     44.8879E-03     335.463E-03     106.089E+06     103.685E+06     100.183E+06    -4.10151E+06    -4.03604E+06     103.620E+06     100.183E+06     748.818E+03
             132     51.6082E-03     15.9853E-03     49.0702E-03     237.292E-03    -118.013E-03    -119.476E-03    -116.593E-03     235.872E-03    -119.476E-03     44.8195E-03     334.790E-03     106.855E+06     105.109E+06     99.6732E+06    -4.36034E+06    -4.32514E+06     105.074E+06     99.6732E+06     163.916E+03
             133     52.8159E-03     15.9866E-03     50.3384E-03     238.307E-03    -118.975E-03    -119.501E-03    -117.565E-03     236.838E-03    -119.442E-03     45.7247E-03     335.632E-03     107.022E+06     107.834E+06     101.989E+06    -1.99074E+06    -1.96335E+06     107.806E+06     101.989E+06     442.270E+03
             134     54.0312E-03     15.9859E-03     51.6122E-03     238.428E-03    -119.036E-03    -119.508E-03    -117.519E-03     236.851E-03    -119.449E-03     47.3186E-03     335.660E-03     108.060E+06     109.930E+06     102.768E+06    -1.52913E+06    -1.48754E+06     109.889E+06     102.768E+06     783.039E+03
             135     55.2463E-03     15.9860E-03     52.8829E-03     237.936E-03    -118.555E-03    -119.500E-03    -116.887E-03     236.268E-03    -119.500E-03     48.6507E-03     335.368E-03     108.659E+06     110.313E+06     103.690E+06    -1.49679E+06    -1.44463E+06     110.261E+06     103.690E+06     418.357E+03
             136     56.4557E-03     15.9852E-03     54.1454E-03     237.730E-03    -118.351E-03    -119.495E-03    -116.795E-03     236.175E-03    -119.495E-03     46.9551E-03     334.536E-03     108.995E+06     108.626E+06     102.794E+06    -3.16600E+06    -3.06889E+06     108.529E+06     102.794E+06     1.14097E+06
             137     57.6759E-03     15.9873E-03     55.4158E-03     237.423E-03    -118.018E-03    -119.448E-03    -116.468E-03     235.872E-03    -119.448E-03     46.8403E-03     333.460E-03     109.786E+06     108.511E+06     100.515E+06    -5.04829E+06    -4.95317E+06     108.416E+06     100.515E+06     1.18366E+06
             138     58.8953E-03     15.9859E-03     56.6843E-03     237.480E-03    -118.242E-03    -119.419E-03    -116.788E-03     236.027E-03    -119.419E-03     45.3227E-03     333.888E-03     110.128E+06     110.281E+06     101.090E+06    -4.15474E+06    -4.12819E+06     110.255E+06     101.090E+06    -144.893E+03
             139     60.1127E-03     15.9859E-03     57.9481E-03     238.053E-03    -118.831E-03    -119.424E-03    -117.574E-03     236.795E-03    -119.424E-03     42.2856E-03     334.630E-03     108.911E+06     110.322E+06     103.398E+06    -1.87198E+06    -1.83421E+06     110.284E+06     103.398E+06    -413.151E+03
             140     61.3406E-03     15.9869E-03     59.2207E-03     237.929E-03    -118.635E-03    -119.417E-03    -117.322E-03     236.615E-03    -119.417E-03     43.1684E-03     334.745E-03     109.347E+06     110.479E+06     103.464E+06    -2.19074E+06    -2.15665E+06     110.445E+06     103.464E+06    -557.572E+03
             141     62.5677E-03     15.9865E-03     60.4908E-03     238.132E-03    -118.718E-03    -119.399E-03    -117.179E-03     236.593E-03    -119.399E-03     46.7430E-03     335.065E-03     109.586E+06     110.141E+06     101.999E+06    -3.28626E+06    -3.27312E+06     110.128E+06     101.999E+06     82.5631E+03
             142     63.7985E-03     15.9876E-03     61.7628E-03     238.323E-03    -118.907E-03    -119.400E-03    -117.321E-03     236.738E-03    -119.400E-03     47.4855E-03     335.128E-03     107.608E+06     108.334E+06     101.667E+06    -2.45144E+06    -2.43932E+06     108.322E+06     101.667E+06     21.7451E+03
             143     65.0249E-03     15.9864E-03     63.0292E-03     237.953E-03    -118.773E-03    -119.408E-03    -117.264E-03     236.444E-03    -119.408E-03     46.3118E-03     335.028E-03     107.795E+06     108.285E+06     102.947E+06    -2.07627E+06    -2.04298E+06     108.252E+06     102.947E+06    -627.003E+03
             144     66.2538E-03     15.9868E-03     64.2961E-03     237.955E-03    -118.822E-03    -119.403E-03    -117.459E-03     236.592E-03    -119.403E-03     43.9605E-03     334.320E-03     108.300E+06     107.515E+06     103.459E+06    -2.75532E+06    -2.70803E+06     107.468E+06     103.459E+06    -157.222E+03
             145     67.4862E-03     15.9871E-03     65.5652E-03     238.023E-03    -118.831E-03    -119.391E-03    -117.490E-03     236.682E-03    -119.391E-03     43.6232E-03     333.603E-03     109.026E+06     106.337E+06     102.848E+06    -4.39099E+06    -4.36823E+06     106.314E+06     102.848E+06     689.125E+03
             146     68.7232E-03     15.9872E-03     66.8378E-03     237.802E-03    -118.545E-03    -119.390E-03    -117.134E-03     236.390E-03    -119.390E-03     44.7544E-03     333.941E-03     107.870E+06     107.725E+06     103.505E+06    -2.18916E+06    -2.17934E+06     107.715E+06     103.505E+06     262.206E+03
             147     69.9541E-03     15.9869E-03     68.1028E-03     237.661E-03    -118.480E-03    -119.388E-03    -117.118E-03     236.299E-03    -119.388E-03     43.9719E-03     334.335E-03     108.585E+06     109.568E+06     103.220E+06    -2.04851E+06    -2.02135E+06     109.541E+06     103.220E+06    -429.902E+03
             148     71.1910E-03     15.9861E-03     69.3729E-03     238.323E-03    -119.081E-03    -119.490E-03    -117.811E-03     236.959E-03    -119.395E-03     44.0846E-03     334.528E-03     110.885E+06     110.116E+06     103.989E+06    -3.69922E+06    -3.64838E+06     110.065E+06     103.989E+06     264.168E+03
             149     73.6673E-03     15.9869E-03     71.9117E-03     237.857E-03    -118.595E-03    -119.427E-03    -117.171E-03     236.434E-03    -119.427E-03     44.9583E-03     334.372E-03     109.780E+06     109.281E+06     103.596E+06    -3.22843E+06    -3.18848E+06     109.241E+06     103.596E+06    -424.310E+03
             150     74.9089E-03     15.9878E-03     73.1828E-03     237.850E-03    -118.497E-03    -119.419E-03    -117.021E-03     236.375E-03    -119.419E-03     45.7650E-03     334.012E-03     109.291E+06     108.888E+06     104.041E+06    -2.74569E+06    -2.73316E+06     108.875E+06     104.041E+06     951.903E+03
             151     76.1484E-03     15.9865E-03     74.4514E-03     238.127E-03    -118.807E-03    -119.411E-03    -117.327E-03     236.646E-03    -119.411E-03     45.8780E-03     334.671E-03     110.479E+06     110.392E+06     103.699E+06    -3.27046E+06    -3.23284E+06     110.355E+06     103.699E+06     1.59460E+06
             152     77.3892E-03     15.9866E-03     75.7200E-03     238.089E-03    -118.728E-03    -119.423E-03    -117.291E-03     236.652E-03    -119.423E-03     45.2019E-03     334.616E-03     111.084E+06     111.606E+06     103.013E+06    -3.52524E+06    -3.46515E+06     111.546E+06     103.013E+06     329.906E+03
             153     78.6318E-03     15.9866E-03     76.9896E-03     237.723E-03    -118.410E-03    -119.422E-03    -117.010E-03     236.323E-03    -119.422E-03     44.5756E-03     334.072E-03     111.115E+06     111.197E+06     102.520E+06    -4.00190E+06    -3.96543E+06     111.161E+06     102.520E+06    -247.953E+03
             154     79.8711E-03     15.9875E-03     78.2546E-03     238.357E-03    -118.902E-03    -119.662E-03    -117.849E-03     237.025E-03    -119.383E-03     43.5547E-03     334.654E-03     109.579E+06     110.226E+06     103.444E+06    -2.57480E+06    -2.52103E+06     110.172E+06     103.444E+06    -588.501E+03
             155     81.1186E-03     15.9870E-03     79.5276E-03     238.242E-03    -118.773E-03    -119.649E-03    -117.769E-03     236.959E-03    -119.370E-03     42.7481E-03     334.601E-03     108.301E+06     109.954E+06     103.901E+06    -1.24138E+06    -1.17509E+06     109.888E+06     103.901E+06    -264.625E+03
             156     82.3634E-03     15.9875E-03     80.7968E-03     237.409E-03    -118.135E-03    -119.398E-03    -116.755E-03     236.029E-03    -119.398E-03     44.1943E-03     334.164E-03     109.916E+06     111.436E+06     103.330E+06    -2.30653E+06    -2.26681E+06     111.397E+06     103.330E+06     337.348E+03
             157     83.6076E-03     15.9861E-03     82.0651E-03     237.691E-03    -118.385E-03    -119.400E-03    -116.941E-03     236.246E-03    -119.400E-03     45.2595E-03     334.160E-03     111.168E+06     112.073E+06     102.989E+06    -3.35823E+06    -3.32945E+06     112.044E+06     102.989E+06     63.6143E+03
             158     84.8536E-03     15.9876E-03     83.3339E-03     237.802E-03    -118.518E-03    -119.393E-03    -117.115E-03     236.399E-03    -119.393E-03     44.6294E-03     334.097E-03     110.249E+06     110.950E+06     103.312E+06    -2.91228E+06    -2.85549E+06     110.893E+06     103.312E+06    -578.360E+03
             159     86.0993E-03     15.9869E-03     84.6021E-03     237.575E-03    -118.381E-03    -119.382E-03    -117.004E-03     236.197E-03    -119.382E-03     44.2010E-03     334.152E-03     110.708E+06     110.495E+06     104.107E+06    -3.26826E+06    -3.19496E+06     110.422E+06     104.107E+06    -163.298E+03
             160     87.3460E-03     15.9886E-03     85.8702E-03     237.822E-03    -118.697E-03    -119.356E-03    -117.346E-03     236.470E-03    -119.356E-03     43.8138E-03     334.647E-03     111.446E+06     111.166E+06     104.224E+06    -3.58855E+06    -3.52764E+06     111.105E+06     104.224E+06     72.6316E+03
             161     88.5954E-03     15.9867E-03     87.1411E-03     237.822E-03    -118.659E-03    -119.367E-03    -117.288E-03     236.451E-03    -119.367E-03     44.1310E-03     334.870E-03     110.896E+06     111.056E+06     103.837E+06    -3.27278E+06    -3.23357E+06     111.017E+06     103.837E+06    -522.047E+03
             162     89.8444E-03     15.9878E-03     88.4105E-03     237.942E-03    -118.760E-03    -119.362E-03    -117.206E-03     236.389E-03    -119.362E-03     46.9175E-03     334.267E-03     109.822E+06     111.007E+06     104.983E+06    -1.69857E+06    -1.68840E+06     110.997E+06     104.983E+06     706.110E+03
             163     91.0941E-03     15.9882E-03     89.6800E-03     238.837E-03    -119.258E-03    -119.793E-03    -118.235E-03     237.357E-03    -119.337E-03     45.8287E-03     334.765E-03     113.059E+06     112.674E+06     105.641E+06    -3.72424E+06    -3.72038E+06     112.670E+06     105.641E+06     425.632E+03
             164     92.3440E-03     15.9866E-03     90.9497E-03     238.534E-03    -118.863E-03    -119.839E-03    -118.015E-03     237.229E-03    -119.382E-03     43.1252E-03     335.205E-03     113.269E+06     112.525E+06     104.717E+06    -4.44160E+06    -4.41282E+06     112.496E+06     104.717E+06    -697.086E+03
             165     93.5929E-03     15.9869E-03     92.2174E-03     237.549E-03    -118.233E-03    -119.429E-03    -116.820E-03     236.136E-03    -119.429E-03     44.7448E-03     334.263E-03     110.468E+06     111.515E+06     105.095E+06    -2.02355E+06    -1.97474E+06     111.466E+06     105.095E+06    -6.04575E+03
             166     94.8440E-03     15.9872E-03     93.4868E-03     237.866E-03    -118.605E-03    -119.397E-03    -117.117E-03     236.378E-03    -119.397E-03     45.9672E-03     334.365E-03     112.072E+06     111.749E+06     106.213E+06    -2.98567E+06    -2.94625E+06     111.709E+06     106.213E+06     231.549E+03
             167     96.0954E-03     15.9879E-03     94.7560E-03     238.452E-03    -119.251E-03    -119.368E-03    -117.862E-03     237.061E-03    -119.366E-03     44.4890E-03     335.286E-03     112.822E+06     112.647E+06     107.271E+06    -2.76500E+06    -2.73196E+06     112.614E+06     107.271E+06     67.8494E+03
             168     97.3486E-03     15.9861E-03     96.0271E-03     237.896E-03    -118.633E-03    -119.395E-03    -117.245E-03     236.506E-03    -119.394E-03     44.3953E-03     334.697E-03     114.009E+06     113.710E+06     106.492E+06    -3.73271E+06    -3.71136E+06     113.689E+06     106.492E+06     530.017E+03
             169     98.6002E-03     15.9878E-03     97.2954E-03     237.267E-03    -117.994E-03    -119.391E-03    -116.458E-03     235.732E-03    -119.391E-03     46.6131E-03     333.923E-03     114.960E+06     114.527E+06     106.610E+06    -4.18589E+06    -4.15011E+06     114.492E+06     106.610E+06     900.039E+03
             170     99.8509E-03     15.9881E-03     98.5626E-03     237.978E-03    -118.725E-03    -119.427E-03    -117.328E-03     236.515E-03    -119.362E-03     45.5645E-03     334.538E-03     115.327E+06     116.885E+06     109.688E+06    -1.87155E+06    -1.83707E+06     116.850E+06     109.688E+06     987.721E+03
             171     101.105E-03     15.9873E-03     99.8329E-03     238.186E-03    -118.991E-03    -119.431E-03    -117.656E-03     236.786E-03    -119.366E-03     44.6420E-03     334.854E-03     118.395E+06     119.823E+06     110.483E+06    -2.94883E+06    -2.92666E+06     119.800E+06     110.483E+06     724.827E+03
             172     102.358E-03     15.9885E-03     101.101E-03     237.276E-03    -118.090E-03    -119.373E-03    -116.709E-03     235.894E-03    -119.373E-03     44.2150E-03     334.306E-03     120.362E+06     121.535E+06     111.440E+06    -3.54821E+06    -3.51109E+06     121.498E+06     111.440E+06     79.5821E+03
             173     103.606E-03     15.9888E-03     102.365E-03     237.065E-03    -117.798E-03    -119.345E-03    -116.425E-03     235.692E-03    -119.345E-03     44.0490E-03     334.234E-03     121.160E+06     123.181E+06     113.100E+06    -2.69699E+06    -2.62328E+06     123.108E+06     113.100E+06     865.939E+03
             174     104.861E-03     15.9895E-03     103.635E-03     237.667E-03    -118.379E-03    -119.312E-03    -116.958E-03     236.246E-03    -119.312E-03     44.8928E-03     334.833E-03     124.942E+06     126.575E+06     113.004E+06    -4.59178E+06    -4.52523E+06     126.508E+06     113.004E+06     1.07138E+06
             175     106.115E-03     15.9888E-03     104.903E-03     238.054E-03    -118.727E-03    -119.319E-03    -117.259E-03     236.586E-03    -119.319E-03     45.6674E-03     335.188E-03     125.273E+06     128.444E+06     114.496E+06    -3.21537E+06    -3.20472E+06     128.433E+06     114.496E+06    -702.705E+03
             176     107.371E-03     15.9893E-03     106.174E-03     237.685E-03    -118.446E-03    -119.332E-03    -116.956E-03     236.194E-03    -119.332E-03     45.9813E-03     334.964E-03     124.462E+06     127.749E+06     115.346E+06    -2.45023E+06    -2.44975E+06     127.749E+06     115.346E+06     8.32384E+03
             177     108.622E-03     15.9905E-03     107.438E-03     237.022E-03    -117.924E-03    -119.335E-03    -116.444E-03     235.542E-03    -119.335E-03     45.7342E-03     334.770E-03     126.375E+06     128.355E+06     116.639E+06    -3.46851E+06    -3.44971E+06     128.336E+06     116.639E+06     991.744E+03
             178     109.880E-03     15.9917E-03     108.710E-03     236.521E-03    -117.438E-03    -119.304E-03    -115.804E-03     234.887E-03    -119.304E-03     47.9404E-03     334.135E-03     129.078E+06     130.907E+06     120.121E+06    -3.22482E+06    -3.19727E+06     130.879E+06     120.121E+06     1.89080E+06
             179     111.134E-03     15.9946E-03     109.977E-03     235.490E-03    -116.367E-03    -119.193E-03    -114.734E-03     233.857E-03    -119.193E-03     47.7830E-03     332.413E-03     132.051E+06     134.619E+06     122.705E+06    -2.97916E+06    -2.94745E+06     134.588E+06     122.705E+06     2.04077E+06
             180     112.384E-03     15.9970E-03     111.240E-03     234.308E-03    -115.390E-03    -119.019E-03    -113.851E-03     232.769E-03    -119.019E-03     46.2874E-03     331.341E-03     135.652E+06     138.021E+06     123.232E+06    -4.41622E+06    -4.39057E+06     137.996E+06     123.232E+06     804.053E+03
             181     113.638E-03     15.9995E-03     112.506E-03     233.592E-03    -114.973E-03    -118.805E-03    -113.362E-03     231.981E-03    -118.805E-03     47.2873E-03     330.630E-03     137.027E+06     140.367E+06     125.613E+06    -3.43518E+06    -3.43226E+06     140.365E+06     125.613E+06    -482.422E+03
             182     114.886E-03     16.0062E-03     113.765E-03     231.772E-03    -113.302E-03    -118.469E-03    -111.632E-03     230.102E-03    -118.469E-03     47.8924E-03     328.227E-03     136.247E+06     139.741E+06     128.633E+06    -1.70605E+06    -1.66538E+06     139.700E+06     128.633E+06     1.66194E+06
             183     116.137E-03     16.0154E-03     115.028E-03     228.440E-03    -110.423E-03    -117.977E-03    -108.490E-03     226.507E-03    -117.977E-03     50.9316E-03     324.720E-03     142.308E+06     142.136E+06     133.040E+06    -4.50187E+06    -4.41229E+06     142.046E+06     133.040E+06     3.62234E+06
             184     117.379E-03     16.0290E-03     116.279E-03     224.067E-03    -107.031E-03    -117.202E-03    -104.817E-03     221.852E-03    -117.202E-03     53.9605E-03     320.418E-03     148.493E+06     145.913E+06     139.465E+06    -5.67787E+06    -5.62814E+06     145.863E+06     139.465E+06     1.68919E+06
             185     118.616E-03     16.0486E-03     117.525E-03     218.693E-03    -102.874E-03    -115.988E-03    -100.290E-03     216.109E-03    -115.988E-03     57.2771E-03     314.929E-03     145.059E+06     144.085E+06     140.946E+06    -2.51749E+06    -2.49467E+06     142.672E+06     142.336E+06     996.179E+03
             186     119.846E-03     16.0782E-03     118.763E-03     213.603E-03    -99.4753E-03    -114.229E-03    -96.2391E-03     210.367E-03    -114.229E-03     63.2248E-03     309.460E-03     142.514E+06     138.714E+06     135.905E+06    -5.18425E+06    -5.16218E+06     135.883E+06     138.714E+06     1.17121E+06
             187     121.069E-03     16.1184E-03     119.991E-03     211.718E-03    -100.033E-03    -111.711E-03    -96.4889E-03     208.174E-03    -111.711E-03     66.1001E-03     307.930E-03     138.462E+06     137.516E+06     130.611E+06    -4.21898E+06    -4.17433E+06     130.566E+06     137.516E+06     1.61692E+06
             188     122.292E-03     16.1650E-03     121.219E-03     218.137E-03    -104.519E-03    -113.491E-03    -106.390E-03     215.278E-03    -108.762E-03     60.3350E-03     317.010E-03     134.987E+06     138.387E+06     129.650E+06    -741.530E+03    -669.495E+03     129.578E+06     138.387E+06     3.03858E+06
             189     123.541E-03     16.1953E-03     122.474E-03     238.211E-03    -106.266E-03    -131.792E-03    -129.895E-03     236.314E-03    -106.266E-03     52.4722E-03     340.126E-03     140.449E+06     138.443E+06     127.402E+06    -7.15352E+06    -7.09078E+06     127.339E+06     138.443E+06    -201.434E+03
             190     124.831E-03     16.2044E-03     123.775E-03     266.136E-03    -104.733E-03    -161.877E-03    -160.406E-03     264.665E-03    -104.733E-03     49.9530E-03     368.109E-03     130.021E+06     133.951E+06     119.127E+06    -2.84354E+06    -2.74784E+06     119.032E+06     133.951E+06    -3.35193E+06
             191     126.155E-03     16.2037E-03     125.110E-03     290.030E-03    -103.950E-03    -186.631E-03    -185.074E-03     288.473E-03    -103.950E-03     54.3463E-03     389.165E-03     123.989E+06     127.289E+06     108.975E+06    -4.81161E+06    -4.70528E+06     108.868E+06     127.289E+06    -3.46059E+06
             192     127.503E-03     16.2047E-03     126.469E-03     307.583E-03    -103.511E-03    -204.241E-03    -202.324E-03     305.667E-03    -103.511E-03     62.5074E-03     402.888E-03     122.400E+06     131.328E+06     97.1392E+06    -3.81156E+06    -3.65074E+06     96.9783E+06     131.328E+06    -3.82462E+06
             193     128.866E-03     16.2046E-03     127.843E-03     322.308E-03    -103.173E-03    -219.535E-03    -217.265E-03     320.039E-03    -103.173E-03     69.9516E-03     414.759E-03     117.187E+06     130.010E+06     85.3978E+06    -2.89284E+06    -2.76112E+06     85.2661E+06     130.010E+06    -3.05714E+06
             194     130.254E-03     16.2056E-03     129.242E-03     336.117E-03    -102.843E-03    -233.650E-03    -231.013E-03     333.479E-03    -102.843E-03     77.3334E-03     427.639E-03     118.776E+06     131.229E+06     73.0012E+06    -4.23640E+06    -4.17599E+06     72.9408E+06     131.229E+06    -2.03209E+06
             195     131.654E-03     16.2055E-03     130.653E-03     349.153E-03    -102.509E-03    -246.819E-03    -243.870E-03     346.204E-03    -102.509E-03     83.6337E-03     440.698E-03     121.268E+06     135.977E+06     58.8964E+06    -3.80477E+06    -3.41926E+06     58.5109E+06     135.977E+06    -4.47387E+06
             196     133.071E-03     16.2067E-03     132.081E-03     365.979E-03    -102.132E-03    -263.908E-03    -260.032E-03     362.104E-03    -102.132E-03     98.1605E-03     455.718E-03     124.769E+06     136.952E+06     45.7177E+06    -4.27575E+06    -3.02170E+06     44.4637E+06     136.952E+06    -7.18174E+06
             197     134.540E-03     16.2076E-03     133.561E-03     381.114E-03    -101.854E-03    -279.309E-03    -273.879E-03     375.684E-03    -101.854E-03     119.027E-03     467.089E-03     134.380E+06     145.538E+06     30.2472E+06    -1.93438E+06    -560.558E+03     28.8734E+06     145.538E+06    -6.44196E+06
             198     136.018E-03     16.2089E-03     135.049E-03     386.340E-03    -101.865E-03    -284.516E-03    -276.823E-03     378.647E-03    -101.865E-03     142.174E-03     474.053E-03     171.307E+06     176.094E+06     24.1685E+06    -9.56767E+06    -7.94070E+06     22.5415E+06     176.094E+06     1.92629E+06
             199     137.464E-03     16.2108E-03     136.505E-03     383.278E-03    -101.979E-03    -281.340E-03    -271.486E-03     373.424E-03    -101.979E-03     160.521E-03     479.704E-03     187.891E+06     201.677E+06      38.759E+06    -3.71404E+06     -26.292E+03     35.0713E+06     201.677E+06     11.8418E+06
             200     138.925E-03     16.2142E-03     137.976E-03     375.314E-03    -102.208E-03    -273.181E-03    -256.738E-03     358.871E-03    -102.208E-03     199.998E-03     490.501E-03     176.444E+06     197.702E+06     60.0131E+06    -558.996E+03     2.47300E+06     56.9811E+06     197.702E+06     3.02134E+06
             201     140.389E-03     16.2168E-03     139.449E-03     305.371E-03    -104.186E-03    -201.334E-03    -169.796E-03     273.833E-03    -104.186E-03     233.934E-03     418.308E-03     153.044E+06     132.912E+06     38.4634E+06    -42.4368E+06    -38.7965E+06     34.8231E+06     132.912E+06    -15.6257E+06
             202     141.557E-03     16.2147E-03     140.625E-03     154.286E-03    -25.9212E-03    -128.484E-03    -12.4033E-03     126.737E-03    -114.452E-03     118.509E-03     230.743E-03     103.926E+06     72.2093E+06     3.97646E+06    -43.1013E+06    -1.47829E+06     1.19620E+06     33.3666E+06    -7.79750E+06
             203     141.914E-03     14.7944E-03     141.140E-03     88.5065E-03     36.9039E-03    -125.540E-03     44.2271E-03     81.1832E-03    -125.540E-03    -2.77373E-03     160.189E-03     98.9580E+06     97.3337E+06     18.1460E+06    -11.9189E+06     27.7984E+06     17.2714E+06     58.4910E+06    -2.10089E+06
             204     141.380E-03     13.8184E-03     140.703E-03     130.848E-03    -2.70449E-03    -128.268E-03     547.255E-06     127.596E-03    -128.268E-03    -37.6181E-03     219.200E-03     142.107E+06     125.829E+06     26.2084E+06    -36.9014E+06    -414.114E+03    -10.2789E+06     125.829E+06    -455.743E+03
             205     140.781E-03     12.9902E-03     140.180E-03     140.484E-03    -12.6823E-03    -127.913E-03    -7.78063E-03     135.582E-03    -127.913E-03    -53.8299E-03     224.278E-03     147.233E+06     137.607E+06     21.7419E+06    -26.6854E+06     8.74877E+06    -13.6923E+06     137.607E+06     6.62398E+06
             206     140.210E-03     12.1002E-03     139.687E-03     138.284E-03    -11.4374E-03    -127.007E-03    -5.09496E-03     131.942E-03    -127.007E-03    -59.5449E-03     210.219E-03     122.757E+06     129.330E+06     18.2226E+06    -2.42313E+06    -109.977E+03     15.9094E+06     129.330E+06    -2.16269E+06
             207     139.668E-03     11.2231E-03     139.216E-03     166.288E-03    -41.6475E-03    -124.679E-03    -26.6007E-03     151.241E-03    -124.679E-03    -106.927E-03     225.550E-03     120.932E+06     119.394E+06     8.34491E+06    -9.44943E+06     1.57309E+06    -2.67760E+06     119.394E+06    -1.16784E+06
             208     139.147E-03     10.4057E-03     138.757E-03     191.762E-03    -72.1790E-03    -119.517E-03    -48.6877E-03     168.271E-03    -119.517E-03    -150.289E-03     237.610E-03     123.091E+06     126.513E+06     14.4203E+06    -5.20365E+06     7.92350E+06     1.29315E+06     126.513E+06    -2.52672E+06
             209     138.678E-03     9.60584E-03     138.344E-03     205.928E-03    -93.3033E-03    -112.605E-03    -66.9864E-03     179.611E-03    -112.605E-03    -169.455E-03     238.562E-03     117.103E+06     120.756E+06     20.3087E+06    -7.57314E+06     14.4706E+06    -1.73507E+06     120.756E+06    -4.46042E+06
             210     138.270E-03     8.80394E-03     137.990E-03     215.661E-03    -101.935E-03    -113.770E-03    -85.3028E-03     190.199E-03    -104.940E-03    -174.907E-03     237.823E-03     112.013E+06     112.423E+06     15.9432E+06    -10.0563E+06     15.1349E+06    -9.24793E+06     112.423E+06    -1.91029E+06
             211     137.922E-03     8.00021E-03     137.690E-03     217.677E-03    -96.7780E-03    -120.924E-03    -99.5014E-03     196.255E-03    -96.7780E-03    -164.424E-03     232.514E-03     107.162E+06     113.283E+06     21.0746E+06    -3.89540E+06     20.2269E+06    -3.04765E+06     113.283E+06    -3.37399E+06
             212     137.631E-03     7.18727E-03     137.443E-03     208.901E-03    -88.6902E-03    -120.199E-03    -104.709E-03     193.412E-03    -88.6902E-03    -138.853E-03     218.454E-03     102.355E+06     111.675E+06     25.7210E+06    -1.41686E+06     23.9335E+06     370.597E+03     111.675E+06    -4.81742E+06
             213     137.392E-03     6.34970E-03     137.246E-03     193.976E-03    -81.1242E-03    -112.812E-03    -102.607E-03     183.772E-03    -81.1242E-03    -109.549E-03     199.724E-03     95.6241E+06      103.36E+06     27.9186E+06    -3.46676E+06     25.3036E+06    -851.739E+03      103.36E+06    -8.08058E+06
             214     137.203E-03     5.49116E-03     137.093E-03     176.681E-03    -74.2140E-03    -102.430E-03    -96.1358E-03     170.387E-03    -74.2140E-03    -82.3765E-03     180.117E-03     91.4681E+06     99.2673E+06     38.6191E+06    -5.84988E+06     35.9763E+06    -3.20708E+06     99.2673E+06    -10.3935E+06
             215     137.052E-03     4.61298E-03     136.974E-03     157.992E-03    -68.2537E-03    -89.6675E-03    -86.1292E-03     154.453E-03    -68.2537E-03    -58.3315E-03     159.861E-03     88.0960E+06     93.8461E+06     47.2947E+06    -7.33023E+06     45.4262E+06    -5.46172E+06     93.8461E+06    -8.00578E+06
             216     136.936E-03     3.71412E-03     136.886E-03     140.805E-03    -63.4406E-03    -77.3222E-03    -75.4401E-03     138.923E-03    -63.4406E-03    -40.0232E-03     141.596E-03     75.4703E+06     85.3294E+06     53.7816E+06    -785.465E+03     53.3553E+06    -359.142E+03     85.3294E+06    -4.53905E+06
             217     136.853E-03     2.79674E-03     136.824E-03     127.106E-03    -59.7998E-03    -67.2884E-03    -66.2853E-03     126.103E-03    -59.7998E-03    -27.6379E-03     127.375E-03     68.8047E+06     74.2750E+06     58.6118E+06     -331.38E+03     57.7915E+06      488.83E+03     74.2750E+06    -6.90433E+06
             218     136.791E-03     1.86767E-03     136.778E-03     117.543E-03    -57.5285E-03    -59.9941E-03    -59.4680E-03     117.017E-03    -57.5285E-03    -19.0692E-03     117.622E-03     72.3054E+06     69.4638E+06     65.3388E+06    -4.79602E+06     64.1175E+06    -3.57470E+06     69.4638E+06    -9.12943E+06
             219     136.757E-03     935.348E-06     136.754E-03     113.479E-03    -56.1219E-03    -57.3575E-03    -57.1356E-03     113.257E-03    -56.1219E-03    -11.7538E-03     113.511E-03     76.7062E+06     76.9728E+06     74.8603E+06    -767.710E+03     73.8847E+06     207.935E+03     76.9728E+06    -8.16652E+06
             220     135.627E-03     2.02378E-09     135.627E-03     92.4800E-03    -45.4275E-03    -47.0499E-03    -46.4206E-03     92.4035E-03    -45.9804E-03    -6.51484E-03     92.5191E-03     59.4191E+06     45.5614E+06     42.5539E+06    -15.2729E+06     42.8263E+06    -13.6230E+06     43.6391E+06    -8.14059E+06
             221     134.554E-03    -1.06832E-06     134.554E-03     57.0001E-03    -28.1141E-03    -28.8853E-03    -28.0832E-03     56.9693E-03    -28.8853E-03    -3.03602E-03     57.0495E-03     25.0467E+06    -21.9499E+06    -30.9773E+06    -48.0047E+06    -28.2025E+06    -41.7520E+06    -30.9773E+06    -8.39860E+06
             222     133.512E-03     627.349E-09     133.512E-03     33.4377E-03    -16.5454E-03    -16.8927E-03    -16.6697E-03     33.4330E-03    -16.7638E-03    -963.857E-06     33.4822E-03     29.9181E+06    -67.9558E+06    -96.2371E+06    -99.2516E+06    -96.3526E+06    -70.8548E+06    -96.2371E+06    -6.53911E+06
             223     132.489E-03    -335.532E-09     132.489E-03     19.4648E-03    -9.62859E-03    -9.83653E-03    -9.75521E-03     19.4625E-03    -9.70758E-03    -275.540E-06     19.5421E-03     69.3545E+06    -99.9759E+06    -165.718E+06    -172.438E+06    -170.613E+06    -101.801E+06    -165.718E+06    -11.2579E+06
             224     131.475E-03     214.400E-09     131.475E-03     12.4605E-03    -6.14136E-03    -6.31887E-03    -6.12490E-03     12.4440E-03    -6.31887E-03     831.138E-06     12.5334E-03     108.314E+06    -140.474E+06    -245.861E+06    -251.430E+06    -247.696E+06    -142.601E+06    -247.467E+06    -14.6817E+06
             225     130.466E-03    -472.353E-09     130.466E-03     13.4416E-03    -6.62226E-03    -6.81961E-03    -6.65407E-03     13.3745E-03    -6.72078E-03     2.28822E-03     13.4826E-03     140.163E+06    -161.871E+06    -298.818E+06    -305.017E+06    -297.534E+06    -163.154E+06    -305.017E+06     177.693E+03
             226     129.451E-03     504.053E-09     129.451E-03     24.5385E-03    -12.1005E-03    -12.4443E-03    -12.3224E-03     24.4166E-03    -12.1005E-03     4.22199E-03     24.5713E-03     124.348E+06    -129.318E+06    -248.749E+06    -258.023E+06    -249.766E+06    -132.982E+06    -253.342E+06     18.4103E+06
             227     128.418E-03    -123.220E-09     128.418E-03     44.7594E-03    -22.1913E-03    -22.5740E-03    -22.4211E-03     44.6065E-03    -22.1913E-03     6.37918E-03     44.7814E-03     55.4541E+06    -77.7692E+06    -125.521E+06    -136.804E+06    -131.945E+06    -82.6282E+06    -125.521E+06     15.8198E+06
             228     127.360E-03     319.089E-09     127.360E-03     70.2833E-03    -34.9758E-03    -35.3074E-03    -35.1104E-03     70.0863E-03    -34.9758E-03     9.11267E-03     70.3004E-03     16.6625E+06    -51.1879E+06    -57.9474E+06    -70.1353E+06    -61.4070E+06    -59.9162E+06    -57.9474E+06     1.49131E+06
             229     126.270E-03    -165.394E-09     126.270E-03     97.9026E-03    -48.5727E-03    -49.3310E-03    -49.1458E-03     97.7174E-03    -48.5727E-03     10.2399E-03     97.9444E-03     40.5412E+06    -26.4912E+06    -29.1227E+06    -68.0558E+06    -27.4451E+06    -67.1019E+06    -29.1227E+06    -2.29134E+06
             230     125.153E-03     1.10933E-06     125.153E-03     126.104E-03    -62.6253E-03    -63.4774E-03    -63.3371E-03     125.964E-03    -62.6253E-03     10.2965E-03     126.201E-03     73.7668E+06    -5.98529E+06    -8.61860E+06    -81.0177E+06    -9.17287E+06    -80.1448E+06    -6.30385E+06    -5.48527E+06
             231     124.004E-03    -636.854E-09     124.004E-03     154.909E-03    -77.2840E-03    -77.6227E-03    -77.5208E-03     154.807E-03    -77.2840E-03     9.44652E-03     155.085E-03     101.512E+06     5.75655E+06    -2.28920E+06    -99.5275E+06     2.45408E+06    -98.5397E+06      25.554E+03    -8.49980E+06
             232     122.820E-03     623.462E-09     122.820E-03     180.715E-03    -89.5633E-03    -91.1515E-03    -91.1103E-03     180.673E-03    -89.5633E-03     6.37561E-03     180.947E-03     122.516E+06     7.40992E+06    -3.61143E+06    -120.244E+06     1.94777E+06    -120.072E+06     1.67893E+06    -4.51996E+06
             233     121.609E-03     2.23660E-06     121.609E-03     200.760E-03    -99.3542E-03    -101.400E-03    -100.860E-03     200.729E-03    -99.8628E-03     6.06155E-03     201.013E-03     125.106E+06    -7.82218E+06    -16.8096E+06    -137.170E+06    -13.2614E+06    -137.021E+06    -11.5193E+06    -4.27058E+06
             234     120.376E-03    -3.21237E-06     120.376E-03     215.592E-03    -107.235E-03    -108.352E-03    -107.821E-03     215.570E-03    -107.744E-03     3.37719E-03     215.878E-03     137.451E+06    -23.0105E+06    -27.4249E+06    -162.586E+06    -24.0045E+06    -162.309E+06    -26.7075E+06    -6.13572E+06
             235     119.130E-03     4.31137E-06     119.130E-03     225.699E-03    -111.999E-03    -113.707E-03    -113.696E-03     225.688E-03    -111.999E-03     2.39985E-03     226.028E-03     148.965E+06    -36.1907E+06    -40.1480E+06    -187.080E+06     -37.092E+06    -186.896E+06    -39.4306E+06    -3.30029E+06
             236     117.871E-03    -2.39880E-06     117.871E-03     231.939E-03    -115.315E-03    -116.634E-03    -116.403E-03     231.927E-03    -115.534E-03     1.86245E-03     232.288E-03     139.214E+06    -55.6828E+06    -64.5590E+06    -199.096E+06    -61.4083E+06    -199.007E+06    -58.9227E+06    -1.95717E+06
             237     116.610E-03     2.07618E-06     116.610E-03     234.756E-03    -116.818E-03    -117.944E-03    -117.723E-03     234.755E-03    -117.038E-03    -136.701E-06     235.078E-03     138.931E+06    -71.9583E+06    -83.1963E+06    -216.165E+06    -77.8519E+06    -215.907E+06    -77.5600E+06    -5.93467E+06
             238     115.345E-03    -532.958E-09     115.345E-03     235.941E-03    -117.377E-03    -118.568E-03    -118.282E-03     235.940E-03    -117.661E-03     461.540E-06     236.277E-03     139.751E+06    -90.8567E+06    -100.214E+06    -235.047E+06     -94.818E+06    -234.842E+06    -96.4584E+06    -5.13286E+06
             239     114.080E-03     78.3934E-09     114.080E-03     237.901E-03    -118.114E-03    -119.785E-03    -119.500E-03     237.901E-03    -118.399E-03     202.448E-06     238.278E-03     141.393E+06    -113.964E+06    -119.636E+06    -258.093E+06    -118.034E+06    -257.779E+06    -115.881E+06    -6.14273E+06
             240     112.810E-03     2.37349E-06     112.810E-03     238.730E-03    -118.588E-03    -120.146E-03    -120.146E-03     238.730E-03    -118.588E-03     424.018E-06     239.100E-03     155.801E+06    -123.984E+06    -126.619E+06    -281.082E+06    -124.281E+06    -280.785E+06    -126.619E+06    -5.87373E+06
             241     111.540E-03    -2.07710E-06     111.540E-03     237.043E-03    -118.391E-03    -118.656E-03    -118.563E-03     237.043E-03    -118.484E-03    -17.1647E-06     237.403E-03     166.653E+06    -136.865E+06    -138.016E+06    -304.090E+06    -137.380E+06    -304.007E+06    -137.584E+06    -3.60392E+06
             242     110.276E-03     1.92334E-06     110.276E-03     237.295E-03    -118.242E-03    -119.045E-03    -118.950E-03     237.294E-03    -118.335E-03     1.02874E-03     237.654E-03     183.108E+06    -143.558E+06    -144.166E+06    -326.969E+06    -144.122E+06    -326.836E+06    -143.735E+06    -4.92812E+06
             243     109.007E-03    -647.026E-09     109.007E-03     239.231E-03    -119.087E-03    -120.151E-03    -120.149E-03     239.229E-03    -119.087E-03     343.518E-06     239.705E-03     195.124E+06    -143.115E+06    -144.184E+06    -338.770E+06    -143.185E+06    -338.700E+06    -144.184E+06    -2.98489E+06
             244     107.740E-03     1.28197E-06     107.740E-03     240.046E-03    -119.054E-03    -121.007E-03    -121.006E-03     240.046E-03    -119.054E-03    -923.517E-06     240.604E-03     200.909E+06    -142.752E+06    -144.500E+06    -344.529E+06    -143.610E+06    -344.526E+06    -143.644E+06    -151.526E+03
             245     106.467E-03     1.57072E-06     106.467E-03     239.286E-03    -118.347E-03    -120.932E-03    -119.946E-03     239.286E-03    -119.333E-03    -464.585E-06     239.879E-03     203.597E+06    -141.577E+06    -144.242E+06    -346.493E+06    -142.434E+06    -346.491E+06    -143.387E+06     558.304E+03
             246     105.202E-03    -3.35067E-06     105.202E-03     237.845E-03    -118.416E-03    -119.424E-03    -118.436E-03     237.843E-03    -119.402E-03    -1.34730E-03     238.565E-03     206.034E+06    -137.814E+06    -139.811E+06    -344.834E+06    -138.006E+06    -344.829E+06    -139.623E+06     944.163E+03
             247     103.933E-03     3.37972E-06     103.933E-03     238.821E-03    -118.464E-03    -120.348E-03    -120.345E-03     238.818E-03    -118.464E-03    -485.980E-06     239.663E-03     207.533E+06    -131.284E+06    -133.708E+06    -340.011E+06    -133.714E+06    -340.004E+06    -131.284E+06     141.815E+03
             248     102.665E-03    -47.9261E-09     102.665E-03     239.971E-03    -118.927E-03    -121.047E-03    -121.045E-03     239.969E-03    -118.927E-03    -166.692E-06     240.943E-03     209.809E+06    -131.347E+06    -135.209E+06    -343.060E+06    -133.588E+06    -343.055E+06    -132.973E+06    -918.446E+03
             249     101.393E-03     495.916E-09     101.393E-03     238.780E-03    -119.109E-03    -119.693E-03    -119.367E-03     238.779E-03    -119.434E-03    -857.397E-06     239.811E-03     210.998E+06    -129.502E+06    -132.513E+06    -341.990E+06    -129.525E+06    -341.967E+06    -132.513E+06     1.10267E+06
             250     100.129E-03    -1.09275E-06     100.129E-03     238.882E-03    -119.276E-03    -119.616E-03    -119.276E-03     238.882E-03    -119.616E-03    -113.993E-06     240.004E-03     209.167E+06    -126.193E+06    -127.809E+06    -336.161E+06    -126.451E+06    -336.133E+06    -127.579E+06     662.845E+03
             251     98.8563E-03     1.07777E-06     98.8563E-03     239.224E-03    -119.406E-03    -119.826E-03    -119.809E-03     239.223E-03    -119.421E-03    -1.05772E-03     240.455E-03     209.063E+06    -127.929E+06    -128.353E+06    -337.204E+06    -128.169E+06    -337.193E+06    -128.123E+06    -183.717E+03
             252     97.5908E-03    -379.181E-09     97.5908E-03     238.963E-03    -118.957E-03    -120.014E-03    -120.012E-03     238.961E-03    -118.957E-03    -569.840E-06     240.119E-03     210.741E+06    -125.810E+06    -128.441E+06    -337.845E+06    -128.250E+06    -337.841E+06    -126.004E+06     593.649E+03
             253     96.3217E-03     1.56669E-06     96.3217E-03     240.133E-03    -118.936E-03    -121.201E-03    -121.199E-03     240.131E-03    -118.936E-03    -553.629E-06     241.290E-03     212.129E+06    -120.497E+06    -125.473E+06    -335.070E+06    -122.934E+06    -335.070E+06    -123.037E+06    -222.978E+03
             254     95.0497E-03     1.26489E-06     95.0497E-03     239.373E-03    -118.868E-03    -120.516E-03    -120.515E-03     239.371E-03    -118.868E-03    -689.667E-06     240.540E-03     211.067E+06    -121.553E+06    -126.455E+06    -335.028E+06    -123.920E+06    -335.023E+06    -124.094E+06     526.388E+03
             255     93.7834E-03    -1.16557E-06     93.7834E-03     238.399E-03    -118.822E-03    -119.598E-03    -119.597E-03     238.399E-03    -118.822E-03    -378.256E-06     239.504E-03     209.896E+06    -118.237E+06    -123.109E+06    -330.526E+06    -120.604E+06    -330.521E+06    -120.748E+06     1.05946E+06
             256     92.5147E-03     2.45517E-06     92.5147E-03     239.179E-03    -118.907E-03    -120.288E-03    -120.288E-03     239.179E-03    -118.907E-03    -571.224E-06     240.243E-03     210.700E+06    -115.607E+06    -119.374E+06    -328.163E+06    -116.866E+06    -328.160E+06    -118.118E+06    -26.8799E+03
             257     91.2463E-03    -1.30646E-06     91.2463E-03     239.337E-03    -119.314E-03    -120.032E-03    -119.954E-03     239.337E-03    -119.391E-03    -552.856E-06     240.386E-03     210.326E+06    -119.122E+06    -121.322E+06    -330.539E+06    -121.324E+06    -330.537E+06    -119.122E+06    -276.098E+03
             258     89.9753E-03     1.17487E-06     89.9753E-03     239.448E-03    -119.046E-03    -120.408E-03    -120.330E-03     239.448E-03    -119.122E-03    -1.08621E-03     240.431E-03     209.378E+06    -119.095E+06    -122.166E+06    -329.988E+06    -120.043E+06    -329.984E+06    -121.222E+06    -562.837E+03
             259     88.7080E-03     1.09538E-06     88.7080E-03     239.238E-03    -118.811E-03    -120.433E-03    -120.433E-03     239.238E-03    -118.811E-03    -840.403E-06     240.166E-03     209.938E+06    -117.021E+06    -122.386E+06    -329.588E+06    -120.269E+06    -329.578E+06    -119.148E+06     85.7242E+03
             260     87.4379E-03    -453.891E-09     87.4379E-03     238.934E-03    -119.112E-03    -119.835E-03    -119.835E-03     238.934E-03    -119.112E-03    -377.769E-06     239.922E-03     210.672E+06    -116.885E+06    -123.234E+06    -330.660E+06    -120.140E+06    -330.643E+06    -119.995E+06    -319.766E+03
             261     86.1696E-03     1.11430E-06     86.1696E-03     239.276E-03    -119.164E-03    -120.123E-03    -120.122E-03     239.275E-03    -119.164E-03    -498.333E-06     240.285E-03     210.889E+06    -117.488E+06    -121.664E+06    -330.427E+06    -118.588E+06    -330.393E+06    -120.598E+06     452.969E+03
             262     84.9015E-03    -81.6006E-09     84.9015E-03     239.401E-03    -119.284E-03    -120.129E-03    -120.128E-03     239.401E-03    -119.284E-03    -1.02109E-03     240.349E-03     211.552E+06    -117.085E+06    -118.857E+06    -329.517E+06    -118.200E+06    -329.468E+06    -117.791E+06    -117.048E+03
             263     83.6322E-03     568.772E-09     83.6322E-03     239.950E-03    -119.511E-03    -120.447E-03    -120.447E-03     239.949E-03    -119.511E-03    -527.052E-06     240.862E-03     212.067E+06    -121.149E+06    -121.857E+06    -333.568E+06    -121.178E+06    -333.539E+06    -121.857E+06    -1.11565E+06
             264     82.3612E-03     592.352E-09     82.3612E-03     239.871E-03    -119.343E-03    -120.538E-03    -120.537E-03     239.870E-03    -119.343E-03    -993.355E-06     240.818E-03     211.657E+06    -123.627E+06    -123.974E+06    -335.457E+06    -123.975E+06    -335.454E+06    -123.629E+06     626.638E+03
             265     81.0926E-03     347.103E-09     81.0926E-03     238.925E-03    -118.876E-03    -120.067E-03    -120.066E-03     238.924E-03    -118.876E-03    -901.416E-06     239.861E-03     211.025E+06    -122.512E+06    -125.324E+06    -334.921E+06    -122.858E+06    -334.920E+06    -124.979E+06     380.653E+03
             266     79.8250E-03     798.649E-09     79.8250E-03     239.733E-03    -119.391E-03    -120.337E-03    -120.051E-03     239.733E-03    -119.677E-03    -102.137E-06     240.651E-03     210.805E+06    -117.494E+06    -123.347E+06    -331.163E+06    -120.881E+06    -331.162E+06    -119.961E+06     450.238E+03
             267     78.5544E-03    -1.27230E-06     78.5544E-03     240.034E-03    -119.613E-03    -120.414E-03    -120.126E-03     240.032E-03    -119.899E-03    -1.46481E-03     240.929E-03     210.740E+06    -119.257E+06    -126.346E+06    -333.452E+06    -122.669E+06    -333.426E+06    -122.960E+06    -1.50540E+06
             268     77.2843E-03     2.11592E-06     77.2843E-03     239.362E-03    -118.793E-03    -120.589E-03    -120.586E-03     239.360E-03    -118.793E-03    -808.058E-06     240.254E-03     211.645E+06    -121.493E+06    -129.110E+06    -336.844E+06    -125.456E+06    -336.795E+06    -125.196E+06    -91.9795E+03
             269     76.0167E-03     172.576E-09     76.0167E-03     239.492E-03    -118.920E-03    -120.595E-03    -120.200E-03     239.491E-03    -119.314E-03    -83.7082E-06     240.418E-03     212.186E+06    -119.369E+06    -126.921E+06    -335.230E+06    -123.315E+06    -335.199E+06    -123.007E+06     607.008E+03
             270     74.7460E-03    -901.996E-09     74.7460E-03     239.696E-03    -119.508E-03    -120.199E-03    -119.804E-03     239.695E-03    -119.902E-03    -638.375E-06     240.628E-03     212.062E+06    -118.510E+06    -124.430E+06    -333.466E+06    -120.804E+06    -333.455E+06    -122.148E+06    -366.544E+03
             271     73.4775E-03     1.45011E-06     73.4775E-03     239.439E-03    -119.329E-03    -120.116E-03    -120.115E-03     239.437E-03    -119.329E-03    -1.22904E-03     240.288E-03     211.845E+06    -119.788E+06    -123.783E+06    -333.602E+06    -122.074E+06    -333.598E+06    -121.500E+06     556.879E+03
             272     72.2098E-03    -594.513E-09     72.2098E-03     238.812E-03    -118.864E-03    -119.950E-03    -119.948E-03     238.810E-03    -118.864E-03    -1.51577E-03     239.641E-03     210.951E+06    -121.109E+06    -124.440E+06    -333.706E+06    -122.742E+06    -333.692E+06    -122.821E+06     1.17830E+06
             273     70.9405E-03     1.66452E-06     70.9405E-03     239.284E-03    -118.935E-03    -120.350E-03    -120.350E-03     239.283E-03    -118.935E-03     317.956E-06     240.235E-03     209.272E+06    -121.602E+06    -123.628E+06    -331.877E+06    -123.270E+06    -331.827E+06    -122.010E+06    -716.766E+03
             274     70.9467E-03     15.0995E-03     69.3213E-03     252.510E-03    -119.223E-03    -133.352E-03    -119.234E-03     238.550E-03    -119.381E-03     123.464E-03     412.502E-03     109.541E+06     105.669E+06     101.076E+06    -6.08033E+06    -6.03932E+06     105.326E+06     101.378E+06     78.0795E+03
             275     70.5159E-03     14.2062E-03     69.0701E-03     256.124E-03    -119.418E-03    -136.656E-03    -118.919E-03     238.387E-03    -119.418E-03     158.277E-03     451.587E-03     109.868E+06     99.9864E+06     96.4490E+06    -11.5962E+06    -11.5472E+06     97.6273E+06     98.7591E+06     251.047E+03
             276     70.2069E-03     13.3207E-03     68.9316E-03     247.420E-03    -119.467E-03    -128.070E-03    -117.172E-03     236.522E-03    -119.467E-03     125.553E-03     423.683E-03     115.584E+06     99.0240E+06     94.3859E+06    -18.8018E+06    -18.7209E+06     94.3051E+06     99.0240E+06     1.04160E+06
             277     69.8799E-03     12.4337E-03     68.7648E-03     245.481E-03    -119.406E-03    -126.317E-03    -115.992E-03     235.156E-03    -119.406E-03     121.324E-03     421.453E-03     119.221E+06      95.354E+06     87.8423E+06    -27.4270E+06    -27.3773E+06     92.6743E+06     90.4723E+06     940.543E+03
             278     69.6102E-03     11.5441E-03     68.6463E-03     240.067E-03    -119.214E-03    -121.112E-03    -114.855E-03     233.973E-03    -119.377E-03     92.1250E-03     395.082E-03     115.313E+06     88.6354E+06     67.0660E+06    -35.3712E+06    -35.3640E+06     88.6283E+06     67.0660E+06     756.502E+03
             279     69.3788E-03     10.6532E-03     68.5560E-03     238.143E-03    -118.807E-03    -119.507E-03    -115.522E-03     234.746E-03    -119.395E-03     68.5112E-03     368.397E-03     109.704E+06     82.0648E+06     39.9283E+06    -42.0441E+06    -42.0214E+06     82.0422E+06     39.9283E+06     1.24527E+06
             280     69.1871E-03     9.76475E-03     68.4946E-03     237.719E-03    -118.313E-03    -119.449E-03    -116.608E-03     236.014E-03    -119.449E-03     48.1371E-03     342.655E-03     83.9037E+06     46.7771E+06     13.1741E+06    -48.3613E+06    -48.3156E+06     38.5771E+06     21.3283E+06      485.55E+03
             281     69.0266E-03     8.87681E-03     68.4535E-03     237.592E-03    -118.103E-03    -119.553E-03    -117.290E-03     236.779E-03    -119.553E-03     33.6469E-03     320.875E-03     63.9420E+06     8.63142E+06    -29.9928E+06    -61.1213E+06    -55.1789E+06    -35.9352E+06     8.63142E+06    -603.096E+03
             282     68.8886E-03     7.98960E-03     68.4238E-03     237.541E-03    -118.049E-03    -119.566E-03    -117.612E-03     237.104E-03    -119.566E-03     24.5064E-03     302.954E-03     84.7725E+06    -3.53120E+06    -62.6589E+06    -98.7527E+06    -62.6990E+06    -98.7126E+06    -3.53120E+06    -784.227E+03
             283     68.7717E-03     7.10107E-03     68.4041E-03     237.787E-03    -118.162E-03    -119.628E-03    -117.959E-03     237.584E-03    -119.628E-03     16.6575E-03     287.732E-03     117.775E+06    -14.6681E+06    -70.0113E+06    -149.535E+06    -70.0254E+06    -149.521E+06    -14.6681E+06    -504.859E+03
             284     68.6741E-03     6.21281E-03     68.3925E-03     238.355E-03    -118.694E-03    -119.705E-03    -118.610E-03     238.271E-03    -119.705E-03     10.6161E-03     275.544E-03     146.105E+06    -26.0005E+06    -77.1153E+06    -190.660E+06    -77.1192E+06    -190.656E+06    -26.0005E+06    -101.534E+03
             285     68.5941E-03     5.32520E-03     68.3870E-03     238.748E-03    -119.085E-03    -119.699E-03    -119.058E-03     238.721E-03    -119.699E-03     5.84443E-03     265.588E-03     175.483E+06    -36.6608E+06    -83.9826E+06    -230.861E+06    -83.9928E+06    -230.851E+06    -36.6608E+06     10.3603E+03
             286     68.5312E-03     4.43812E-03     68.3873E-03     238.749E-03    -119.025E-03    -119.758E-03    -119.019E-03     238.743E-03    -119.758E-03     2.46079E-03     257.109E-03     199.752E+06    -49.3597E+06    -92.0337E+06    -266.956E+06    -92.0492E+06    -266.941E+06    -49.3597E+06     279.267E+03
             287     68.4809E-03     3.54980E-03     68.3889E-03     238.820E-03    -119.072E-03    -119.814E-03    -119.071E-03     238.819E-03    -119.814E-03     93.3654E-06     250.462E-03     209.133E+06    -66.3893E+06    -101.279E+06    -290.725E+06    -101.291E+06    -290.713E+06    -66.3893E+06     651.731E+03
             288     68.4456E-03     2.66200E-03     68.3938E-03     239.125E-03    -119.325E-03    -119.846E-03    -119.373E-03     239.122E-03    -119.796E-03    -1.58807E-03     245.758E-03     211.333E+06    -86.5044E+06    -109.430E+06    -308.266E+06    -109.441E+06    -308.255E+06    -86.5044E+06     306.717E+03
             289     68.4218E-03     1.77499E-03     68.3988E-03     239.392E-03    -119.581E-03    -119.847E-03    -119.674E-03     239.390E-03    -119.752E-03    -1.75746E-03     242.653E-03     210.744E+06    -105.033E+06    -116.042E+06    -321.025E+06    -116.049E+06    -321.017E+06    -105.033E+06    -160.333E+03
             290     68.4057E-03     887.332E-06     68.4000E-03     239.405E-03    -119.474E-03    -119.954E-03    -119.843E-03     239.404E-03    -119.583E-03    -979.879E-06     240.840E-03     209.611E+06    -116.235E+06    -121.208E+06    -328.284E+06    -120.320E+06    -328.254E+06    -117.154E+06     450.127E+03
             291     69.7074E-03     15.0964E-03     68.0531E-03     252.767E-03    -118.910E-03    -133.932E-03    -119.587E-03     238.877E-03    -119.365E-03     123.479E-03     412.605E-03     109.708E+06     105.832E+06     99.9166E+06    -6.71101E+06    -6.67520E+06     105.797E+06     99.9166E+06    -449.958E+03
             292     69.2740E-03     14.2123E-03     67.8004E-03     256.598E-03    -119.381E-03    -137.220E-03    -119.448E-03     238.826E-03    -119.381E-03     158.950E-03     451.380E-03     111.458E+06     99.9821E+06     94.7058E+06    -14.0184E+06    -13.9778E+06     97.4068E+06     97.2405E+06    -254.787E+03
             293     68.9606E-03     13.3225E-03     67.6615E-03     246.578E-03    -119.451E-03    -127.247E-03    -116.146E-03     235.477E-03    -119.451E-03     126.376E-03     422.511E-03     115.741E+06     97.8481E+06     92.9468E+06    -20.2640E+06    -20.1804E+06     92.8632E+06     97.8481E+06     284.808E+03
             294     68.6342E-03     12.4306E-03     67.4991E-03     244.862E-03    -119.463E-03    -125.595E-03    -115.157E-03     234.425E-03    -119.463E-03     121.664E-03     420.885E-03     118.287E+06     95.0168E+06     87.5916E+06    -26.7835E+06    -26.7121E+06     92.5788E+06     89.9582E+06     678.690E+03
             295     68.3570E-03     11.5404E-03     67.3758E-03     240.538E-03    -119.413E-03    -121.436E-03    -115.418E-03     234.520E-03    -119.413E-03     91.5073E-03     395.492E-03     114.399E+06     89.1143E+06     66.2016E+06    -34.3833E+06    -34.3745E+06     89.1056E+06     66.2016E+06     711.195E+03
             296     68.1267E-03     10.6533E-03     67.2886E-03     238.558E-03    -119.001E-03    -119.791E-03    -116.167E-03     235.309E-03    -119.377E-03     67.0632E-03     368.896E-03     109.844E+06     81.9658E+06     39.2307E+06    -42.5694E+06    -42.5641E+06     81.9606E+06     39.2307E+06     573.031E+03
             297     67.9285E-03     9.76540E-03     67.2229E-03     237.723E-03    -118.340E-03    -119.430E-03    -116.714E-03     236.097E-03    -119.430E-03     47.0369E-03     342.722E-03     84.9297E+06     46.3164E+06     14.4917E+06    -49.4412E+06    -49.4307E+06     39.3622E+06     21.4354E+06     646.413E+03
             298     67.7685E-03     8.87858E-03     67.1844E-03     237.484E-03    -118.029E-03    -119.527E-03    -117.226E-03     236.681E-03    -119.527E-03     33.4950E-03     320.662E-03     64.6912E+06     8.12138E+06    -29.1339E+06    -62.0801E+06    -55.9740E+06    -35.2399E+06     8.12138E+06     284.547E+03
             299     67.6280E-03     7.98934E-03     67.1544E-03     237.583E-03    -118.115E-03    -119.542E-03    -117.659E-03     237.126E-03    -119.542E-03     25.0659E-03     303.084E-03     84.7500E+06    -3.36911E+06    -62.2853E+06    -98.6339E+06    -62.3115E+06    -98.6077E+06    -3.36911E+06    -209.812E+03
             300     67.5104E-03     7.10126E-03     67.1359E-03     237.865E-03    -118.294E-03    -119.590E-03    -118.082E-03     237.653E-03    -119.590E-03     17.0029E-03     287.749E-03     118.224E+06    -14.2079E+06    -69.2093E+06    -149.498E+06    -69.2123E+06    -149.495E+06    -14.2079E+06    -253.297E+03
             301     67.4101E-03     6.21333E-03     67.1232E-03     238.008E-03    -118.364E-03    -119.677E-03    -118.277E-03     237.921E-03    -119.677E-03     10.8322E-03     275.115E-03     146.699E+06    -25.5851E+06    -76.0323E+06    -190.720E+06    -76.0385E+06    -190.714E+06    -25.5851E+06    -334.472E+03
             302     67.3289E-03     5.32539E-03     67.1179E-03     238.408E-03    -118.715E-03    -119.724E-03    -118.687E-03     238.379E-03    -119.724E-03     5.93266E-03     265.254E-03     175.539E+06    -36.8762E+06    -83.8763E+06    -231.057E+06    -83.8872E+06    -231.047E+06    -36.8762E+06    -275.780E+03
             303     67.2646E-03     4.43758E-03     67.1180E-03     238.867E-03    -119.097E-03    -119.809E-03    -119.092E-03     238.862E-03    -119.809E-03     2.35352E-03     257.251E-03     199.841E+06    -49.9100E+06     -92.736E+06    -267.647E+06    -92.7491E+06    -267.634E+06    -49.9100E+06     234.914E+03
             304     67.2146E-03     3.55001E-03     67.1208E-03     238.999E-03    -119.211E-03    -119.854E-03    -119.210E-03     238.998E-03    -119.854E-03    -98.6763E-06     250.665E-03     209.327E+06    -66.2764E+06    -100.682E+06    -290.614E+06    -100.693E+06    -290.604E+06    -66.2764E+06     659.585E+03
             305     67.1771E-03     2.66215E-03     67.1243E-03     239.295E-03    -119.493E-03    -119.855E-03    -119.541E-03     239.292E-03    -119.805E-03    -1.78178E-03     245.913E-03     211.878E+06    -85.1833E+06    -108.455E+06    -307.674E+06    -108.463E+06    -307.667E+06    -85.1833E+06     457.760E+03
             306     67.1522E-03     1.77491E-03     67.1287E-03     239.453E-03    -119.655E-03    -119.838E-03    -119.803E-03     239.451E-03    -119.688E-03    -1.79351E-03     242.709E-03     211.293E+06    -103.029E+06    -115.595E+06    -320.280E+06    -115.602E+06    -320.272E+06    -103.029E+06     737.038E+03
             307     67.1377E-03     887.942E-06     67.1318E-03     239.147E-03    -119.279E-03    -119.887E-03    -119.704E-03     239.145E-03    -119.461E-03    -993.451E-06     240.629E-03     209.524E+06    -116.501E+06    -122.111E+06    -328.763E+06    -121.200E+06    -328.752E+06    -117.423E+06     321.074E+03
             308     68.4665E-03     15.0989E-03     66.7809E-03     252.846E-03    -118.957E-03    -133.935E-03    -119.306E-03     238.639E-03    -119.379E-03     124.911E-03     412.521E-03     109.951E+06     106.777E+06     101.233E+06    -5.83371E+06    -5.76105E+06     106.704E+06     101.233E+06     695.061E+03
             309     68.0301E-03     14.2083E-03     66.5298E-03     256.634E-03    -119.424E-03    -137.198E-03    -119.065E-03     238.502E-03    -119.424E-03     160.420E-03     451.576E-03     111.924E+06     101.481E+06     95.6017E+06    -13.2625E+06    -13.1634E+06     98.9367E+06     98.0466E+06     277.557E+03
             310     67.7174E-03     13.3191E-03     66.3947E-03     246.776E-03    -119.507E-03    -127.370E-03    -116.352E-03     235.758E-03    -119.507E-03     126.086E-03     423.515E-03     115.587E+06     96.9518E+06     92.2923E+06    -20.8927E+06    -20.8366E+06     92.2362E+06     96.9518E+06    -1.33599E+06
             311     67.3873E-03     12.4307E-03     66.2308E-03     245.491E-03    -119.484E-03    -126.169E-03    -115.947E-03     235.270E-03    -119.484E-03     120.646E-03     421.744E-03     118.937E+06     93.7647E+06     86.7746E+06    -28.4896E+06    -28.4489E+06     91.5095E+06     88.9892E+06    -1.16685E+06
             312     67.1067E-03     11.5434E-03     66.1064E-03     241.011E-03    -119.373E-03    -121.920E-03    -116.049E-03     235.139E-03    -119.373E-03     90.4929E-03     395.750E-03     115.172E+06     88.1475E+06     66.0416E+06    -35.8771E+06    -35.8592E+06     88.1297E+06     66.0416E+06     179.615E+03
             313     66.8717E-03     10.6553E-03     66.0173E-03     238.300E-03    -118.739E-03    -119.815E-03    -116.077E-03     235.129E-03    -119.307E-03     66.3478E-03     368.783E-03     109.985E+06     81.6380E+06     39.4941E+06    -42.9110E+06    -42.9046E+06     81.6316E+06     39.4941E+06     821.166E+03
             314     66.6746E-03     9.76683E-03     65.9554E-03     237.099E-03    -117.749E-03    -119.386E-03    -116.088E-03     235.438E-03    -119.386E-03     47.5839E-03     341.876E-03     85.2306E+06     46.3219E+06     15.2580E+06    -49.5129E+06    -49.5036E+06     40.0624E+06     21.5084E+06     864.785E+03
             315     66.5096E-03     8.87631E-03     65.9147E-03     237.217E-03    -117.735E-03    -119.525E-03    -116.906E-03     236.388E-03    -119.525E-03     33.9144E-03     320.350E-03     64.7144E+06     8.08023E+06    -28.2719E+06    -61.9032E+06    -55.8399E+06    -34.3352E+06     8.08023E+06     308.869E+03
             316     66.3690E-03     7.98877E-03     65.8865E-03     237.753E-03    -118.246E-03    -119.552E-03    -117.792E-03     237.300E-03    -119.552E-03     25.0233E-03     303.327E-03     84.8014E+06    -3.28256E+06    -61.9685E+06    -98.6164E+06    -61.9817E+06    -98.6032E+06    -3.28256E+06    -95.4107E+03
             317     66.2468E-03     7.10159E-03     65.8651E-03     237.953E-03    -118.368E-03    -119.593E-03    -118.152E-03     237.737E-03    -119.593E-03     17.1561E-03     287.914E-03     118.344E+06    -13.4304E+06    -68.6411E+06    -148.908E+06    -68.6422E+06    -148.907E+06    -13.4304E+06    -22.8675E+03
             318     66.1481E-03     6.21358E-03     65.8556E-03     237.956E-03    -118.332E-03    -119.669E-03    -118.242E-03     237.866E-03    -119.669E-03     11.0322E-03     275.088E-03     146.251E+06    -25.8324E+06    -77.0425E+06    -190.678E+06    -77.0520E+06    -190.668E+06    -25.8324E+06     159.529E+03
             319     66.0639E-03     5.32469E-03     65.8489E-03     238.229E-03    -118.529E-03    -119.727E-03    -118.499E-03     238.199E-03    -119.727E-03     6.05553E-03     265.033E-03     174.980E+06    -38.0465E+06    -84.9337E+06    -231.583E+06    -84.9474E+06    -231.570E+06    -38.0465E+06     153.142E+03
             320     65.9981E-03     4.43712E-03     65.8488E-03     238.898E-03    -119.104E-03    -119.841E-03    -119.099E-03     238.893E-03    -119.841E-03     2.20541E-03     257.288E-03     199.807E+06    -50.5985E+06    -92.4245E+06    -267.965E+06    -92.4296E+06    -267.959E+06    -50.5985E+06    -52.7743E+03
             321     65.9466E-03     3.54973E-03     65.8510E-03     239.275E-03    -119.475E-03    -119.866E-03    -119.474E-03     239.274E-03    -119.866E-03    -182.255E-06     250.958E-03     209.703E+06    -66.5596E+06    -100.643E+06    -291.165E+06    -100.648E+06    -291.160E+06    -66.5596E+06     216.923E+03
             322     65.9093E-03     2.66266E-03     65.8555E-03     239.296E-03    -119.553E-03    -119.782E-03    -119.552E-03     239.294E-03    -119.782E-03    -1.50494E-03     245.912E-03     211.195E+06    -86.0123E+06    -108.635E+06    -307.531E+06    -108.645E+06    -307.522E+06    -86.0123E+06     551.670E+03
             323     65.8831E-03     1.77497E-03     65.8592E-03     239.265E-03    -119.524E-03    -119.781E-03    -119.580E-03     239.263E-03    -119.723E-03    -1.70897E-03     242.560E-03     210.326E+06    -103.847E+06    -115.436E+06    -319.687E+06    -115.445E+06    -319.677E+06    -103.847E+06     609.543E+03
             324     65.8690E-03     887.437E-06     65.8630E-03     239.343E-03    -119.269E-03    -120.100E-03    -119.794E-03     239.341E-03    -119.574E-03    -1.24123E-03     240.807E-03     208.931E+06    -115.463E+06    -120.429E+06    -326.820E+06    -119.512E+06    -326.814E+06    -116.385E+06     743.958E+03
             325     67.2322E-03     15.0973E-03     65.5152E-03     252.375E-03    -119.111E-03    -133.292E-03    -118.887E-03     238.250E-03    -119.391E-03     123.859E-03     412.044E-03     109.806E+06     106.130E+06     101.443E+06    -5.93447E+06    -5.83476E+06     106.031E+06     101.443E+06     577.170E+03
             326     66.7889E-03     14.2076E-03     65.2602E-03     255.854E-03    -119.466E-03    -136.324E-03    -118.384E-03     237.914E-03    -119.466E-03     158.985E-03     450.996E-03     111.468E+06     102.377E+06     97.8114E+06    -11.2843E+06    -11.1645E+06     100.634E+06     99.4349E+06    -43.5742E+03
             327     66.4725E-03     13.3202E-03     65.1242E-03     247.112E-03    -119.552E-03    -127.703E-03    -116.851E-03     236.260E-03    -119.552E-03     125.245E-03     424.250E-03     115.053E+06     97.9449E+06     93.4110E+06    -19.2873E+06    -19.2478E+06     93.3714E+06     97.9449E+06    -924.814E+03
             328     66.1408E-03     12.4324E-03     64.9618E-03     246.431E-03    -119.472E-03    -127.168E-03    -116.816E-03     236.080E-03    -119.472E-03     121.870E-03     422.899E-03     117.951E+06     93.1675E+06     85.4385E+06    -28.4362E+06    -28.4069E+06     90.2278E+06     88.3490E+06    -605.135E+03
             329     65.8555E-03     11.5436E-03     64.8359E-03     241.155E-03    -119.319E-03    -122.117E-03    -116.024E-03     235.062E-03    -119.319E-03     92.2171E-03     395.726E-03     114.976E+06     87.1946E+06     64.6406E+06    -36.7578E+06    -36.7320E+06     87.1688E+06     64.6406E+06    -1.61017E+03
             330     65.6198E-03     10.6546E-03     64.7491E-03     237.965E-03    -118.625E-03    -119.581E-03    -115.657E-03     234.700E-03    -119.284E-03     67.2149E-03     368.500E-03     110.114E+06     81.4936E+06     39.1324E+06    -43.2776E+06    -43.2712E+06     81.4872E+06     39.1324E+06     198.459E+03
             331     65.4201E-03     9.76495E-03     64.6872E-03     237.082E-03    -117.711E-03    -119.396E-03    -116.026E-03     235.397E-03    -119.396E-03     47.8821E-03     341.896E-03     85.7253E+06     46.6920E+06     16.2360E+06    -49.4768E+06    -49.4697E+06     40.8545E+06     22.0664E+06     612.749E+03
             332     65.2530E-03     8.87782E-03     64.6462E-03     237.157E-03    -117.657E-03    -119.539E-03    -116.814E-03     236.314E-03    -119.539E-03     34.2259E-03     320.372E-03     64.8894E+06     8.12549E+06    -27.9348E+06    -61.7068E+06    -56.1527E+06    -33.4889E+06     8.12549E+06     496.869E+03
             333     65.1078E-03     7.98948E-03     64.6158E-03     237.665E-03    -118.130E-03    -119.577E-03    -117.661E-03     237.196E-03    -119.577E-03     25.4035E-03     303.227E-03     84.3202E+06    -4.47019E+06    -63.1086E+06    -99.0983E+06    -63.1445E+06    -99.0624E+06    -4.47019E+06     195.226E+03
             334     64.9868E-03     7.10086E-03     64.5977E-03     238.090E-03    -118.458E-03    -119.622E-03    -118.240E-03     237.872E-03    -119.622E-03     17.1966E-03     288.089E-03     117.673E+06    -14.7454E+06    -70.0528E+06    -149.534E+06    -70.0557E+06    -149.531E+06    -14.7454E+06     313.835E+03
             335     64.8838E-03     6.21262E-03     64.5857E-03     238.182E-03    -118.529E-03    -119.684E-03    -118.444E-03     238.097E-03    -119.684E-03     10.6829E-03     275.383E-03     145.676E+06    -25.8537E+06    -77.0136E+06    -190.060E+06    -77.0247E+06    -190.049E+06    -25.8537E+06     422.557E+03
             336     64.8005E-03     5.32567E-03     64.5812E-03     238.387E-03    -118.704E-03    -119.714E-03    -118.676E-03     238.358E-03    -119.714E-03     6.03834E-03     265.168E-03     174.611E+06    -38.0168E+06    -84.6149E+06    -231.099E+06    -84.6269E+06    -231.087E+06    -38.0168E+06     161.008E+03
             337     64.7312E-03     4.43708E-03     64.5790E-03     238.835E-03    -119.074E-03    -119.812E-03    -119.068E-03     238.828E-03    -119.812E-03     2.14642E-03     257.152E-03     199.229E+06    -51.6729E+06    -92.7271E+06    -268.170E+06    -92.7311E+06    -268.166E+06    -51.6729E+06    -36.5196E+03
             338     64.6792E-03     3.54984E-03     64.5817E-03     239.136E-03    -119.338E-03    -119.857E-03    -119.337E-03     239.135E-03    -119.857E-03    -515.890E-06     250.813E-03     209.228E+06    -67.9268E+06    -101.385E+06    -291.831E+06    -101.386E+06    -291.831E+06    -67.9268E+06    -170.988E+03
             339     64.6409E-03     2.66210E-03     64.5861E-03     239.280E-03    -119.507E-03    -119.801E-03    -119.505E-03     239.278E-03    -119.801E-03    -1.59740E-03     245.963E-03      210.58E+06    -86.4630E+06    -109.232E+06    -307.422E+06    -109.237E+06    -307.417E+06    -86.4630E+06     355.320E+03
             340     64.6150E-03     1.77482E-03     64.5906E-03     239.319E-03    -119.533E-03    -119.820E-03    -119.612E-03     239.316E-03    -119.738E-03    -2.00972E-03     242.629E-03     209.540E+06    -103.963E+06    -115.260E+06    -318.879E+06    -115.264E+06    -318.874E+06    -103.963E+06     374.402E+03
             341     64.6003E-03     886.911E-06     64.5942E-03     239.367E-03    -119.260E-03    -120.131E-03    -120.005E-03     239.364E-03    -119.384E-03    -1.55017E-03     240.819E-03     208.210E+06    -116.080E+06    -119.867E+06    -326.140E+06    -119.869E+06    -326.135E+06    -116.082E+06    -542.354E+03
             342     65.9961E-03     15.0988E-03     64.2457E-03     252.826E-03    -119.089E-03    -133.828E-03    -119.549E-03     238.837E-03    -119.380E-03     123.774E-03     412.681E-03     109.487E+06     105.775E+06     100.770E+06    -6.12047E+06    -6.04783E+06     105.702E+06     100.770E+06    -465.743E+03
             343     65.5524E-03     14.2100E-03     63.9936E-03     255.802E-03    -119.424E-03    -136.374E-03    -118.613E-03     238.041E-03    -119.424E-03     158.380E-03     450.626E-03     111.759E+06     101.521E+06     96.9862E+06    -12.4166E+06    -12.3485E+06     99.8943E+06     98.5452E+06    -415.127E+03
             344     65.2283E-03     13.3184E-03     63.8542E-03     246.407E-03    -119.525E-03    -127.054E-03    -116.144E-03     235.497E-03    -119.525E-03     125.293E-03     422.796E-03     115.404E+06     97.9865E+06     93.8431E+06    -19.4107E+06    -19.3801E+06     93.8125E+06     97.9865E+06    -40.4559E+03
             345     64.8921E-03     12.4297E-03     63.6906E-03     246.014E-03    -119.486E-03    -126.750E-03    -116.399E-03     235.662E-03    -119.486E-03     121.599E-03     422.422E-03     117.450E+06     93.3488E+06     86.2024E+06    -27.4809E+06    -27.4491E+06     90.7327E+06     88.7868E+06     67.4079E+03
             346     64.6059E-03     11.5425E-03     63.5664E-03     240.947E-03    -119.357E-03    -121.869E-03    -115.846E-03     234.924E-03    -119.357E-03     91.7205E-03     395.947E-03     114.203E+06     87.2407E+06     64.8708E+06    -35.8333E+06    -35.8078E+06     87.2152E+06     64.8708E+06     78.3223E+03
             347     64.3683E-03     10.6539E-03     63.4805E-03     238.353E-03    -118.954E-03    -119.598E-03    -115.990E-03     235.113E-03    -119.322E-03     66.9134E-03     368.629E-03     109.905E+06     80.7618E+06     38.5101E+06    -43.7843E+06    -43.7790E+06     80.7565E+06     38.5101E+06     46.3214E+03
             348     64.1651E-03     9.76662E-03     63.4175E-03     237.340E-03    -117.922E-03    -119.409E-03    -116.287E-03     235.706E-03    -119.409E-03     47.2629E-03     342.147E-03     85.9060E+06     45.5882E+06     15.9126E+06    -50.5226E+06    -50.5162E+06     40.3499E+06     21.1445E+06     454.245E+03
             349     63.9963E-03     8.87687E-03     63.3776E-03     236.947E-03    -117.451E-03    -119.545E-03    -116.603E-03     236.099E-03    -119.545E-03     34.3901E-03     320.189E-03     64.6860E+06     7.49340E+06    -27.5798E+06    -61.8939E+06    -56.4008E+06    -33.0729E+06     7.49340E+06     777.967E+03
             350     63.8490E-03     7.98782E-03     63.3473E-03     237.553E-03    -118.030E-03    -119.601E-03    -117.552E-03     237.076E-03    -119.601E-03     25.5474E-03     303.028E-03     83.2014E+06    -5.55251E+06    -63.7824E+06    -98.9341E+06    -63.8192E+06    -98.8972E+06    -5.55251E+06     685.416E+03
             351     63.7239E-03     7.10092E-03     63.3270E-03     238.199E-03    -118.541E-03    -119.651E-03    -118.328E-03     237.985E-03    -119.651E-03     17.0333E-03     288.255E-03     116.905E+06    -16.2086E+06    -70.9083E+06    -150.022E+06    -70.9191E+06    -150.012E+06    -16.2086E+06     338.789E+03
             352     63.6215E-03     6.21386E-03     63.3173E-03     238.472E-03    -118.791E-03    -119.700E-03    -118.706E-03     238.386E-03    -119.700E-03     10.7210E-03     275.750E-03     145.035E+06    -26.2008E+06    -77.1189E+06    -189.721E+06    -77.1307E+06    -189.709E+06    -26.2008E+06     142.477E+03
             353     63.5350E-03     5.32464E-03     63.3115E-03     238.598E-03    -118.952E-03    -119.692E-03    -118.924E-03     238.570E-03    -119.692E-03     5.95193E-03     265.401E-03     173.956E+06    -37.5772E+06    -84.6573E+06    -230.111E+06    -84.6661E+06    -230.102E+06    -37.5772E+06     327.689E+03
             354     63.4653E-03     4.43834E-03     63.3099E-03     238.688E-03    -119.003E-03    -119.756E-03    -118.997E-03     238.682E-03    -119.756E-03     2.21543E-03     256.989E-03     198.616E+06    -52.2487E+06    -93.1417E+06    -268.063E+06    -93.1439E+06    -268.061E+06    -52.2487E+06     31.9964E+03
             355     63.4126E-03     3.54996E-03     63.3131E-03     238.924E-03    -119.188E-03    -119.815E-03    -119.187E-03     238.923E-03    -119.815E-03    -342.902E-06     250.601E-03     209.231E+06    -68.8042E+06    -100.923E+06    -292.184E+06    -100.924E+06    -292.183E+06    -68.8042E+06    -421.318E+03
             356     63.3727E-03     2.66247E-03     63.3167E-03     239.210E-03    -119.455E-03    -119.789E-03    -119.453E-03     239.207E-03    -119.789E-03    -1.73360E-03     245.892E-03     212.150E+06    -85.4600E+06    -107.721E+06    -307.813E+06    -107.724E+06    -307.810E+06    -85.4600E+06    -530.918E+03
             357     63.3466E-03     1.77494E-03     63.3217E-03     239.328E-03    -119.535E-03    -119.818E-03    -119.615E-03     239.325E-03    -119.735E-03    -1.81706E-03     242.690E-03     210.637E+06    -102.586E+06    -114.577E+06    -318.915E+06    -114.580E+06    -318.912E+06    -102.586E+06    -70.2727E+03
             358     63.3308E-03     888.502E-06     63.3246E-03     239.360E-03    -119.483E-03    -119.896E-03    -119.808E-03     239.358E-03    -119.569E-03    -1.13697E-03     240.959E-03     208.005E+06    -115.824E+06    -119.786E+06    -325.764E+06    -119.266E+06    -325.750E+06    -116.358E+06     350.856E+03
             359     64.7581E-03     15.0960E-03     62.9740E-03     252.795E-03    -119.066E-03    -133.831E-03    -119.542E-03     238.823E-03    -119.384E-03     124.620E-03     412.948E-03     109.769E+06     106.388E+06     99.9580E+06    -6.44921E+06    -6.37472E+06     106.313E+06     99.9580E+06    -833.798E+03
             360     64.3121E-03     14.2100E-03     62.7226E-03     256.140E-03    -119.419E-03    -136.750E-03    -119.006E-03     238.396E-03    -119.419E-03     158.611E-03     451.253E-03     112.245E+06     101.524E+06     95.8323E+06    -13.4442E+06    -13.3630E+06     99.5120E+06     97.7631E+06    -440.978E+03
             361     63.9923E-03     13.3222E-03     62.5902E-03     246.884E-03    -119.506E-03    -127.538E-03    -116.373E-03     235.719E-03    -119.506E-03     126.814E-03     422.561E-03     116.068E+06     97.5497E+06     93.8096E+06    -20.3379E+06    -20.3092E+06     93.7808E+06     97.5497E+06     456.297E+03
             362     63.6443E-03     12.4318E-03     62.4184E-03     245.749E-03    -119.477E-03    -126.495E-03    -116.103E-03     235.358E-03    -119.477E-03     121.510E-03     421.702E-03     118.189E+06     92.5571E+06     86.2242E+06    -28.6407E+06    -28.6253E+06     90.7324E+06     88.0335E+06     50.6482E+03
             363     63.3600E-03     11.5422E-03     62.2998E-03     240.629E-03    -119.359E-03    -121.562E-03    -115.701E-03     234.768E-03    -119.359E-03     90.4999E-03     395.940E-03     114.065E+06     86.2506E+06     64.0638E+06    -36.6249E+06    -36.6104E+06     86.2360E+06     64.0638E+06    -291.286E+03
             364     63.1139E-03     10.6545E-03     62.2081E-03     238.213E-03    -118.785E-03    -119.663E-03    -115.906E-03     235.001E-03    -119.330E-03     66.6050E-03     368.401E-03     109.662E+06     80.2374E+06     37.4240E+06    -44.1015E+06    -44.0898E+06     80.2257E+06     37.4240E+06     549.935E+03
             365     62.9123E-03     9.76543E-03     62.1498E-03     237.391E-03    -118.007E-03    -119.423E-03    -116.385E-03     235.768E-03    -119.423E-03     47.0939E-03     342.596E-03     85.8245E+06     45.7212E+06     15.1600E+06    -50.4539E+06    -50.4418E+06     40.2982E+06     20.5709E+06     788.114E+03
             366     62.7408E-03     8.87674E-03     62.1096E-03     237.239E-03    -117.766E-03    -119.537E-03    -116.937E-03     236.410E-03    -119.537E-03     33.9945E-03     320.494E-03     64.1766E+06     6.71029E+06    -28.8446E+06    -61.6860E+06    -57.9172E+06    -32.6134E+06     6.71029E+06     1.01239E+06
             367     62.5897E-03     7.98995E-03     62.0776E-03     237.375E-03    -117.847E-03    -119.582E-03    -117.383E-03     236.911E-03    -119.582E-03     25.2366E-03     302.765E-03     82.4340E+06    -6.27973E+06    -64.2887E+06    -98.2973E+06    -64.6997E+06    -97.8863E+06    -6.27973E+06     723.487E+03
             368     62.4633E-03     7.10054E-03     62.0585E-03     237.989E-03    -118.303E-03    -119.656E-03    -118.088E-03     237.774E-03    -119.656E-03     17.0368E-03     288.152E-03     116.587E+06    -16.6588E+06    -70.8395E+06    -150.104E+06    -70.8545E+06    -150.089E+06    -16.6588E+06    -126.170E+03
             369     62.3575E-03     6.21172E-03     62.0474E-03     238.547E-03    -118.857E-03    -119.720E-03    -118.771E-03     238.461E-03    -119.720E-03     10.7494E-03     275.843E-03     144.803E+06    -27.1325E+06    -77.8786E+06    -190.365E+06    -77.8893E+06    -190.355E+06    -27.1325E+06    -43.9475E+03
             370     62.2697E-03     5.32680E-03     62.0415E-03     238.656E-03    -118.997E-03    -119.708E-03    -118.967E-03     238.627E-03    -119.708E-03     6.09009E-03     265.492E-03     173.542E+06    -37.7830E+06    -85.0364E+06    -229.952E+06    -85.0454E+06    -229.943E+06    -37.7830E+06     223.208E+03
             371     62.2007E-03     4.43708E-03     62.0423E-03     238.751E-03    -119.042E-03    -119.760E-03    -119.036E-03     238.745E-03    -119.760E-03     2.53952E-03     257.053E-03     197.818E+06    -51.8406E+06    -93.0972E+06    -266.958E+06    -93.0986E+06    -266.956E+06    -51.8406E+06     26.3835E+03
             372     62.1448E-03     3.55002E-03     62.0433E-03     238.917E-03    -119.170E-03    -119.812E-03    -119.169E-03     238.916E-03    -119.812E-03    -5.95555E-06     250.542E-03     208.287E+06    -69.4010E+06    -101.300E+06    -291.740E+06    -101.302E+06    -291.738E+06    -69.4010E+06    -553.683E+03
             373     62.1051E-03     2.66248E-03     62.0480E-03     239.132E-03    -119.356E-03    -119.804E-03    -119.354E-03     239.131E-03    -119.804E-03    -1.36984E-03     245.841E-03     211.531E+06    -88.3204E+06    -108.959E+06    -309.337E+06    -108.964E+06    -309.332E+06    -88.3204E+06    -659.601E+03
             374     62.0776E-03     1.77476E-03     62.0522E-03     239.323E-03    -119.513E-03    -119.830E-03    -119.511E-03     239.321E-03    -119.830E-03    -1.55446E-03     242.770E-03     209.953E+06    -104.807E+06    -114.927E+06    -319.600E+06    -114.933E+06    -319.594E+06    -104.807E+06    -319.011E+03
             375     62.0624E-03     885.993E-06     62.0561E-03     239.673E-03    -119.400E-03    -120.292E-03    -120.132E-03     239.671E-03    -119.558E-03    -1.26312E-03     241.262E-03     207.282E+06    -115.039E+06    -119.448E+06    -324.486E+06    -118.929E+06    -324.473E+06    -115.571E+06     325.864E+03
             376     63.5232E-03     15.0989E-03     61.7027E-03     252.055E-03    -119.153E-03    -132.826E-03    -118.705E-03     238.180E-03    -119.400E-03     124.219E-03     412.272E-03     109.507E+06     107.292E+06     100.374E+06    -5.50972E+06    -5.43924E+06     107.222E+06     100.374E+06    -371.938E+03
             377     63.0765E-03     14.2070E-03     61.4557E-03     255.502E-03    -119.477E-03    -135.966E-03    -118.216E-03     237.751E-03    -119.477E-03     158.581E-03     451.115E-03     111.681E+06     101.640E+06     96.0074E+06    -12.7383E+06    -12.6367E+06     99.4911E+06     98.0549E+06    -572.578E+03
             378     62.7464E-03     13.3183E-03     61.3167E-03     247.859E-03    -119.566E-03    -128.418E-03    -117.016E-03     236.458E-03    -119.566E-03     128.510E-03     423.872E-03     115.457E+06     96.7221E+06     92.5758E+06    -20.7469E+06    -20.6970E+06     92.5259E+06     96.7221E+06     399.062E+03
             379     62.4035E-03     12.4314E-03     61.1528E-03     246.807E-03    -119.489E-03    -127.565E-03    -117.048E-03     236.290E-03    -119.489E-03     122.571E-03     422.659E-03     118.496E+06     92.8800E+06     85.8022E+06    -28.9679E+06    -28.9527E+06     90.7660E+06     87.9010E+06     578.560E+03
             380     62.1091E-03     11.5432E-03     61.0270E-03     240.552E-03    -119.115E-03    -121.771E-03    -115.744E-03     234.746E-03    -119.336E-03     89.9407E-03     395.870E-03     114.567E+06     86.1538E+06     63.7378E+06    -37.3706E+06    -37.3558E+06     86.1390E+06     63.7378E+06     310.708E+03
             381     61.8668E-03     10.6540E-03     60.9425E-03     237.529E-03    -118.328E-03    -119.472E-03    -115.293E-03     234.347E-03    -119.325E-03     66.3879E-03     367.947E-03     109.714E+06     79.8548E+06     37.4543E+06    -44.4603E+06    -44.4400E+06     79.8346E+06     37.4543E+06     945.514E+03
             382     61.6571E-03     9.76450E-03     60.8790E-03     237.407E-03    -118.042E-03    -119.444E-03    -116.376E-03     235.741E-03    -119.444E-03     47.5361E-03     342.597E-03     86.6119E+06     44.5839E+06     15.1440E+06    -51.9908E+06    -51.9536E+06     40.0702E+06     19.6205E+06     1.30423E+06
             383     61.4843E-03     8.87860E-03     60.8399E-03     237.545E-03    -118.041E-03    -119.555E-03    -117.211E-03     236.715E-03    -119.555E-03     34.1091E-03     320.828E-03     64.8683E+06     6.43953E+06    -28.4472E+06    -62.0973E+06    -58.8257E+06    -31.7188E+06     6.43953E+06     983.726E+03
             384     61.3327E-03     7.98883E-03     60.8102E-03     237.541E-03    -117.987E-03    -119.578E-03    -117.499E-03     237.054E-03    -119.578E-03     25.9282E-03     302.976E-03     81.8847E+06    -6.07003E+06    -64.1883E+06    -97.2768E+06    -64.6515E+06    -96.8136E+06    -6.07003E+06     341.017E+03
             385     61.2026E-03     7.10057E-03     60.7893E-03     237.977E-03    -118.313E-03    -119.636E-03    -118.092E-03     237.756E-03    -119.636E-03     17.2313E-03     287.944E-03     115.958E+06    -17.3412E+06    -70.8619E+06    -149.975E+06    -70.8810E+06    -149.956E+06    -17.3412E+06    -146.382E+03
             386     61.0941E-03     6.21400E-03     60.7773E-03     238.176E-03    -118.478E-03    -119.731E-03    -118.396E-03     238.094E-03    -119.731E-03     10.5412E-03     275.440E-03     144.666E+06    -27.7560E+06    -77.6186E+06    -190.653E+06    -77.6267E+06    -190.645E+06    -27.7560E+06    -370.562E+03
             387     61.0060E-03     5.32361E-03     60.7733E-03     238.583E-03    -118.860E-03    -119.755E-03    -118.831E-03     238.554E-03    -119.755E-03     6.06723E-03     265.519E-03     173.155E+06    -38.9629E+06    -85.5844E+06    -230.559E+06    -85.5910E+06    -230.552E+06    -38.9629E+06    -249.794E+03
             388     60.9339E-03     4.43798E-03     60.7721E-03     238.999E-03    -119.215E-03    -119.808E-03    -119.208E-03     238.993E-03    -119.808E-03     2.38225E-03     257.323E-03     197.154E+06    -51.9643E+06    -93.5492E+06    -266.530E+06    -93.5539E+06    -266.525E+06    -51.9643E+06     161.799E+03
             389     60.8789E-03     3.54999E-03     60.7753E-03     238.963E-03    -119.151E-03    -119.863E-03    -119.151E-03     238.963E-03    -119.863E-03    -29.8415E-06     250.604E-03     207.275E+06    -69.4941E+06    -102.198E+06    -291.110E+06    -102.202E+06    -291.106E+06    -69.4941E+06     289.300E+03
             390     60.8373E-03     2.66182E-03     60.7790E-03     239.238E-03    -119.394E-03    -119.872E-03    -119.408E-03     239.237E-03    -119.856E-03    -1.29185E-03     245.973E-03     209.924E+06    -89.9873E+06    -110.419E+06    -309.290E+06    -110.423E+06    -309.286E+06    -89.9873E+06    -102.870E+03
             391     60.8093E-03     1.77442E-03     60.7834E-03     239.559E-03    -119.645E-03    -119.937E-03    -119.778E-03     239.556E-03    -119.800E-03    -1.98929E-03     242.924E-03     208.391E+06    -106.880E+06    -116.604E+06    -319.935E+06    -116.609E+06    -319.931E+06    -106.880E+06    -638.578E+03
             392     60.7927E-03     888.294E-06     60.7862E-03     239.484E-03    -119.278E-03    -120.231E-03    -120.083E-03     239.482E-03    -119.424E-03    -1.20181E-03     240.925E-03     206.639E+06    -116.324E+06    -121.023E+06    -325.270E+06    -120.243E+06    -325.264E+06    -117.109E+06    -1.00748E+06
             393     62.2934E-03     15.0976E-03     60.4362E-03     252.017E-03    -119.065E-03    -132.860E-03    -118.622E-03     238.119E-03    -119.405E-03     124.038E-03     412.089E-03     109.593E+06     107.389E+06     100.457E+06    -5.49588E+06    -5.44239E+06     107.336E+06     100.457E+06    -75.5453E+03
             394     61.8422E-03     14.2086E-03     60.1878E-03     255.526E-03    -119.483E-03    -135.968E-03    -118.317E-03     237.875E-03    -119.483E-03     157.871E-03     451.058E-03     110.694E+06     100.646E+06     95.9334E+06    -12.3164E+06    -12.2198E+06     98.6982E+06     97.7846E+06    -61.0463E+03
             395     61.5079E-03     13.3181E-03     60.0487E-03     247.565E-03    -119.554E-03    -128.105E-03    -117.092E-03     236.552E-03    -119.554E-03     126.274E-03     423.941E-03     115.119E+06     96.4796E+06     92.4140E+06    -20.6107E+06    -20.5461E+06     92.3493E+06     96.4796E+06     411.919E+03
             396     61.1547E-03     12.4302E-03     59.8781E-03     245.989E-03    -119.476E-03    -126.705E-03    -116.485E-03     235.769E-03    -119.476E-03     120.706E-03     421.958E-03     118.221E+06     92.5018E+06     85.1427E+06    -29.1964E+06    -29.1669E+06     90.2579E+06     87.3572E+06     795.978E+03
             397     60.8639E-03     11.5439E-03     59.7591E-03     240.295E-03    -119.135E-03    -121.451E-03    -115.365E-03     234.430E-03    -119.356E-03     90.4828E-03     395.554E-03     114.710E+06     86.0804E+06     63.2950E+06    -37.7166E+06    -37.6917E+06     86.0555E+06     63.2950E+06     1.03323E+06
             398     60.6187E-03     10.6541E-03     59.6751E-03     238.135E-03    -118.626E-03    -119.735E-03    -115.716E-03     234.840E-03    -119.349E-03     67.5032E-03     368.410E-03     109.946E+06     79.3474E+06     37.3365E+06    -45.1928E+06    -45.1736E+06     79.3282E+06     37.3365E+06     1.25005E+06
             399     60.4038E-03     9.76581E-03     59.6091E-03     237.170E-03    -117.746E-03    -119.471E-03    -116.054E-03     235.478E-03    -119.471E-03     47.9987E-03     341.897E-03     86.2137E+06     44.1189E+06     16.0207E+06    -51.7018E+06    -51.6568E+06     40.3459E+06     19.7487E+06     1.01682E+06
             400     60.2285E-03     8.87534E-03     59.5709E-03     237.467E-03    -117.906E-03    -119.611E-03    -117.048E-03     236.609E-03    -119.611E-03     34.6145E-03     320.702E-03     64.3616E+06     6.38648E+06    -27.2502E+06    -61.6778E+06    -57.3361E+06    -31.5920E+06     6.38648E+06     519.125E+03
             401     60.0745E-03     7.98847E-03     59.5410E-03     238.174E-03    -118.608E-03    -119.616E-03    -118.121E-03     237.687E-03    -119.616E-03     25.9334E-03     303.689E-03     81.3924E+06    -5.49845E+06    -63.4856E+06    -96.4776E+06    -63.6661E+06    -96.2971E+06    -5.49845E+06     629.852E+03
             402     59.9411E-03     7.10177E-03     59.5189E-03     237.986E-03    -118.350E-03    -119.639E-03    -118.125E-03     237.762E-03    -119.639E-03     17.4489E-03     287.876E-03     114.786E+06    -17.2963E+06    -70.7591E+06    -148.573E+06    -70.7787E+06    -148.553E+06    -17.2963E+06     555.120E+03
             403     59.8333E-03     6.21175E-03     59.5099E-03     238.137E-03    -118.457E-03    -119.729E-03    -118.369E-03     238.050E-03    -119.729E-03     10.7986E-03     275.440E-03     143.883E+06    -28.9598E+06    -78.1400E+06    -190.877E+06    -78.1544E+06    -190.863E+06    -28.9598E+06    -138.410E+03
             404     59.7409E-03     5.32586E-03     59.5030E-03     238.482E-03    -118.738E-03    -119.769E-03    -118.711E-03     238.455E-03    -119.769E-03     5.80586E-03     265.373E-03     173.044E+06    -39.1928E+06    -85.3399E+06    -230.538E+06    -85.3474E+06    -230.531E+06    -39.1928E+06    -275.793E+03
             405     59.6680E-03     4.43678E-03     59.5028E-03     238.760E-03    -118.906E-03    -119.875E-03    -118.901E-03     238.755E-03    -119.875E-03     2.39324E-03     257.100E-03     197.828E+06    -51.9925E+06    -93.6055E+06    -267.263E+06    -93.6103E+06    -267.258E+06    -51.9925E+06     245.888E+03
             406     59.6117E-03     3.54944E-03     59.5059E-03     239.289E-03    -119.332E-03    -120.015E-03    -119.393E-03     239.289E-03    -119.953E-03     344.038E-06     250.962E-03     207.823E+06    -68.3628E+06    -101.861E+06    -290.841E+06    -101.864E+06    -290.837E+06    -68.3628E+06     655.749E+03
             407     59.5692E-03     2.66215E-03     59.5097E-03     239.604E-03    -119.679E-03    -119.947E-03    -119.755E-03     239.602E-03    -119.870E-03    -1.28367E-03     246.221E-03     210.302E+06    -87.5330E+06    -109.783E+06    -308.002E+06    -109.790E+06    -307.994E+06    -87.5330E+06     547.589E+03
             408     59.5397E-03     1.77522E-03     59.5132E-03     239.453E-03    -119.593E-03    -119.882E-03    -119.727E-03     239.451E-03    -119.746E-03    -1.83311E-03     242.710E-03     208.520E+06    -105.840E+06    -116.454E+06    -319.413E+06    -116.461E+06    -319.407E+06    -105.840E+06    -93.7498E+03
             409     59.5241E-03     887.197E-06     59.5175E-03     239.364E-03    -119.322E-03    -120.064E-03    -119.853E-03     239.363E-03    -119.532E-03    -1.06731E-03     240.813E-03     207.316E+06    -118.236E+06    -121.998E+06    -327.402E+06    -121.215E+06    -327.400E+06    -119.022E+06    -686.771E+03
             410     61.0649E-03     15.0975E-03     59.1691E-03     252.504E-03    -119.019E-03    -133.474E-03    -119.128E-03     238.549E-03    -119.410E-03     123.171E-03     412.553E-03     110.468E+06     107.440E+06     100.901E+06    -6.13985E+06    -6.06452E+06     107.365E+06     100.901E+06    -184.296E+03
             411     60.6061E-03     14.2081E-03     58.9171E-03     256.808E-03    -119.447E-03    -137.276E-03    -119.414E-03     238.945E-03    -119.447E-03     159.259E-03     451.928E-03     111.752E+06     100.053E+06     95.1018E+06    -14.0768E+06    -13.9796E+06     98.0360E+06     97.0216E+06     354.484E+03
             412     60.2697E-03     13.3229E-03     58.7787E-03     247.524E-03    -119.490E-03    -128.116E-03    -116.902E-03     236.310E-03    -119.490E-03     127.275E-03     423.536E-03     115.326E+06     96.4107E+06     92.0074E+06    -21.0461E+06    -20.9700E+06     91.9313E+06     96.4107E+06     1.01998E+06
             413     59.9148E-03     12.4335E-03     58.6105E-03     244.740E-03    -119.468E-03    -125.503E-03    -115.045E-03     234.282E-03    -119.468E-03     121.609E-03     420.610E-03     117.448E+06      92.484E+06     85.2122E+06    -28.4089E+06    -28.3581E+06     89.9497E+06     87.6956E+06     1.49544E+06
             414     59.6208E-03     11.5390E-03     58.4935E-03     240.383E-03    -119.455E-03    -121.186E-03    -115.198E-03     234.396E-03    -119.455E-03     91.3824E-03     395.535E-03     114.119E+06     86.0454E+06     63.9576E+06    -36.9241E+06    -36.8986E+06     86.0198E+06     63.9576E+06     1.37358E+06
             415     59.3637E-03     10.6530E-03     58.4000E-03     238.759E-03    -118.907E-03    -120.004E-03    -116.188E-03     235.484E-03    -119.447E-03     67.2315E-03     369.382E-03     110.355E+06     80.3980E+06     38.7306E+06    -44.4822E+06    -44.4500E+06     80.3659E+06     38.7306E+06     528.954E+03
             416     59.1564E-03     9.76502E-03     58.3449E-03     237.419E-03    -117.961E-03    -119.500E-03    -116.322E-03     235.780E-03    -119.500E-03     47.4417E-03     342.445E-03     86.0261E+06     44.1392E+06     16.2951E+06    -51.3914E+06    -51.3382E+06     40.6100E+06     19.7711E+06     211.806E+03
             417     58.9726E-03     8.87622E-03     58.3007E-03     237.418E-03    -117.866E-03    -119.626E-03    -117.005E-03     236.557E-03    -119.626E-03     34.6171E-03     320.610E-03     63.8532E+06     5.36759E+06    -27.9187E+06    -61.9832E+06    -57.8302E+06    -32.0718E+06     5.36759E+06     740.576E+03
             418     58.8145E-03     7.98908E-03     58.2694E-03     237.902E-03    -118.307E-03    -119.660E-03    -117.831E-03     237.426E-03    -119.660E-03     25.6294E-03     303.544E-03     81.2318E+06    -5.46512E+06    -63.6834E+06    -96.2004E+06    -63.8158E+06    -96.0680E+06    -5.46512E+06     919.781E+03
             419     58.6838E-03     7.09983E-03     58.2527E-03     238.235E-03    -118.535E-03    -119.701E-03    -118.308E-03     238.008E-03    -119.701E-03     17.5887E-03     288.291E-03     114.511E+06    -16.3165E+06    -70.6078E+06    -147.402E+06    -70.6255E+06    -147.385E+06    -16.3165E+06     976.975E+03
             420     58.5695E-03     6.21359E-03     58.2390E-03     238.299E-03    -118.578E-03    -119.769E-03    -118.484E-03     238.205E-03    -119.769E-03     11.2190E-03     275.509E-03     143.084E+06    -28.9429E+06    -78.3238E+06    -190.040E+06    -78.3389E+06    -190.025E+06    -28.9429E+06     505.696E+03
             421     58.4780E-03     5.32468E-03     58.2351E-03     238.433E-03    -118.636E-03    -119.820E-03    -118.604E-03     238.402E-03    -119.820E-03     6.34308E-03     265.227E-03     173.334E+06    -39.6713E+06    -85.8112E+06    -231.323E+06    -85.8211E+06    -231.313E+06    -39.6713E+06     316.774E+03
             422     58.4035E-03     4.43683E-03     58.2348E-03     239.017E-03    -119.113E-03    -119.933E-03    -119.106E-03     239.010E-03    -119.933E-03     2.60085E-03     257.297E-03     198.181E+06    -51.8368E+06    -93.4527E+06    -267.463E+06    -93.4546E+06    -267.461E+06    -51.8368E+06     466.844E+03
             423     58.3440E-03     3.54866E-03     58.2359E-03     239.484E-03    -119.513E-03    -120.035E-03    -119.573E-03     239.482E-03    -119.974E-03    -242.915E-06     251.116E-03     207.221E+06    -68.6064E+06    -102.028E+06    -290.459E+06    -102.029E+06    -290.458E+06    -68.6064E+06     229.754E+03
             424     58.3004E-03     2.66236E-03     58.2396E-03     239.464E-03    -119.506E-03    -119.973E-03    -119.566E-03     239.462E-03    -119.911E-03    -1.47730E-03     246.062E-03     209.953E+06    -87.2341E+06    -109.865E+06    -307.512E+06    -109.870E+06    -307.507E+06    -87.2341E+06     309.354E+03
             425     58.2723E-03     1.77457E-03     58.2453E-03     239.453E-03    -119.561E-03    -119.909E-03    -119.560E-03     239.451E-03    -119.909E-03    -1.39973E-03     242.702E-03     208.587E+06    -104.266E+06    -116.008E+06    -318.434E+06    -116.016E+06    -318.427E+06    -104.266E+06     427.169E+03
             426     58.2548E-03     887.065E-06     58.2481E-03     239.823E-03    -119.572E-03    -120.265E-03    -120.115E-03     239.822E-03    -119.721E-03    -801.853E-06     241.266E-03     208.641E+06    -117.260E+06    -121.355E+06    -327.896E+06    -121.198E+06    -327.893E+06    -117.420E+06     258.843E+03
             427     59.8381E-03     15.0975E-03     57.9022E-03     252.811E-03    -119.107E-03    -133.758E-03    -119.514E-03     238.864E-03    -119.403E-03     122.937E-03     412.686E-03     109.786E+06     107.213E+06     100.657E+06    -5.69278E+06    -5.63072E+06     107.151E+06     100.657E+06     176.946E+03
             428     59.3717E-03     14.2090E-03     57.6463E-03     256.655E-03    -119.449E-03    -137.127E-03    -119.024E-03     238.552E-03    -119.449E-03     160.673E-03     451.365E-03     109.675E+06     99.5669E+06     94.4972E+06    -12.5424E+06    -12.4368E+06     97.4852E+06     96.4734E+06     939.572E+03
             429     59.0294E-03     13.3193E-03     57.5071E-03     246.902E-03    -119.540E-03    -127.477E-03    -116.194E-03     235.620E-03    -119.540E-03     127.604E-03     423.512E-03     113.004E+06     95.8003E+06     90.3497E+06    -19.8087E+06    -19.6917E+06     90.2328E+06     95.8003E+06     841.692E+03
             430     58.6788E-03     12.4276E-03     57.3477E-03     245.343E-03    -119.537E-03    -126.054E-03    -115.628E-03     234.917E-03    -119.537E-03     121.768E-03     421.585E-03     116.808E+06     93.1284E+06     85.8899E+06    -27.1198E+06    -27.0406E+06     89.5747E+06     89.3644E+06     1.24415E+06
             431     58.3724E-03     11.5432E-03     57.2197E-03     240.831E-03    -119.392E-03    -121.615E-03    -115.437E-03     234.801E-03    -119.541E-03     91.6321E-03     395.483E-03     113.939E+06     87.4422E+06     66.7674E+06    -34.7860E+06    -34.7483E+06     87.4045E+06     66.7674E+06     1.74669E+06
             432     58.1192E-03     10.6529E-03     57.1345E-03     238.512E-03    -118.938E-03    -119.711E-03    -115.875E-03     235.278E-03    -119.540E-03     66.9170E-03     369.146E-03     110.241E+06     81.0346E+06     40.2323E+06    -43.5657E+06    -43.4862E+06     80.9551E+06     40.2323E+06     1.48491E+06
             433     57.9011E-03     9.76380E-03     57.0719E-03     238.019E-03    -118.548E-03    -119.541E-03    -116.895E-03     236.366E-03    -119.541E-03     47.5612E-03     343.100E-03     86.9773E+06     44.6844E+06     17.6358E+06    -51.6155E+06    -51.5223E+06     41.4341E+06      20.793E+06     1.40892E+06
             434     57.7193E-03     8.87816E-03     57.0324E-03     237.479E-03    -117.925E-03    -119.627E-03    -117.072E-03     236.625E-03    -119.627E-03     34.5813E-03     320.837E-03     64.4444E+06     5.87947E+06    -27.2382E+06    -61.6751E+06    -58.1007E+06    -30.8126E+06     5.87947E+06     922.963E+03
             435     57.5586E-03     7.98690E-03     57.0018E-03     237.479E-03    -117.871E-03    -119.687E-03    -117.383E-03     236.990E-03    -119.687E-03     25.8700E-03     303.133E-03     81.3827E+06    -6.08308E+06    -64.2056E+06    -96.7605E+06    -64.2762E+06    -96.6900E+06    -6.08308E+06     392.615E+03
             436     57.4211E-03     7.10029E-03     56.9804E-03     238.281E-03    -118.521E-03    -119.766E-03    -118.302E-03     238.062E-03    -119.766E-03     17.2483E-03     288.289E-03     114.745E+06    -16.4812E+06    -71.2654E+06    -147.975E+06    -71.2841E+06    -147.957E+06    -16.4812E+06     641.466E+03
             437     57.3087E-03     6.21176E-03     56.9711E-03     238.317E-03    -118.487E-03    -119.854E-03    -118.399E-03     238.229E-03    -119.854E-03     10.8435E-03     275.455E-03     142.619E+06    -27.8019E+06    -78.0839E+06    -188.588E+06    -78.0950E+06    -188.577E+06    -27.8019E+06     905.853E+03
             438     57.2139E-03     5.32349E-03     56.9657E-03     238.814E-03    -118.937E-03    -119.896E-03    -118.906E-03     238.783E-03    -119.896E-03     6.32316E-03     265.534E-03     173.200E+06    -39.7088E+06    -85.4544E+06    -231.088E+06    -85.4593E+06    -231.083E+06    -39.7088E+06     551.883E+03
             439     57.1366E-03     4.43661E-03     56.9641E-03     239.524E-03    -119.624E-03    -119.945E-03    -119.617E-03     239.517E-03    -119.945E-03     2.56389E-03     257.739E-03     198.172E+06    -52.0083E+06    -93.3487E+06    -267.554E+06    -93.3500E+06    -267.553E+06    -52.0083E+06     429.200E+03
             440     57.0764E-03     3.55093E-03     56.9658E-03     239.306E-03    -119.430E-03    -119.949E-03    -119.429E-03     239.305E-03    -119.949E-03    -285.538E-06     250.902E-03     206.892E+06    -68.1957E+06    -101.487E+06    -289.656E+06    -101.490E+06    -289.654E+06    -68.1957E+06     517.707E+03
             441     57.0339E-03     2.66160E-03     56.9718E-03     239.273E-03    -119.363E-03    -119.939E-03    -119.360E-03     239.270E-03    -119.939E-03    -1.71598E-03     245.875E-03     209.360E+06    -87.6593E+06    -110.075E+06    -307.266E+06    -110.077E+06    -307.264E+06    -87.6593E+06    -84.8954E+03
             442     57.0022E-03     1.77387E-03     56.9746E-03     239.625E-03    -119.695E-03    -119.952E-03    -119.692E-03     239.622E-03    -119.952E-03    -1.90182E-03     242.850E-03     208.247E+06    -105.421E+06    -117.076E+06    -319.197E+06    -117.079E+06    -319.194E+06    -105.421E+06    -112.377E+03
             443     56.9852E-03     887.216E-06     56.9783E-03     239.861E-03    -119.748E-03    -120.128E-03    -120.065E-03     239.860E-03    -119.810E-03    -1.14303E-03     241.281E-03     207.895E+06    -117.130E+06    -120.614E+06    -326.720E+06    -120.409E+06    -326.716E+06    -117.338E+06     518.760E+03
             444     58.6053E-03     15.0971E-03     56.6274E-03     252.528E-03    -118.822E-03    -133.732E-03    -119.167E-03     238.552E-03    -119.411E-03     124.205E-03     412.374E-03     109.733E+06     105.947E+06     98.1283E+06    -7.47564E+06    -7.43978E+06     105.911E+06     98.1283E+06    -102.155E+03
             445     58.1438E-03     14.2092E-03     56.3808E-03     256.157E-03    -119.486E-03    -136.602E-03    -118.624E-03     238.179E-03    -119.486E-03     159.916E-03     451.202E-03     109.606E+06     99.0373E+06     94.7827E+06    -12.6131E+06    -12.5140E+06     97.9068E+06     95.8141E+06     251.566E+03
             446     57.7940E-03     13.3174E-03     56.2388E-03     246.682E-03    -119.599E-03    -127.242E-03    -116.160E-03     235.600E-03    -119.599E-03     126.484E-03     423.215E-03     112.403E+06     96.1247E+06     90.6412E+06    -18.8834E+06    -18.7707E+06     90.5286E+06     96.1247E+06     229.991E+03
             447     57.4381E-03     12.4324E-03     56.0765E-03     245.726E-03    -119.580E-03    -126.420E-03    -116.158E-03     235.464E-03    -119.580E-03     121.052E-03     421.808E-03     115.722E+06     92.2677E+06     84.6143E+06    -27.0841E+06    -27.0236E+06     87.7551E+06     89.0664E+06     853.132E+03
             448     57.1296E-03     11.5402E-03     55.9519E-03     240.981E-03    -119.419E-03    -121.740E-03    -115.571E-03     234.961E-03    -119.567E-03     91.6377E-03     395.550E-03     113.750E+06     86.5948E+06     67.4149E+06    -34.9190E+06    -34.8611E+06     86.5369E+06     67.4149E+06     2.08144E+06
             449     56.8722E-03     10.6514E-03     55.8659E-03     238.401E-03    -118.776E-03    -119.747E-03    -115.726E-03     235.171E-03    -119.567E-03     66.8108E-03     368.541E-03     109.810E+06     81.2713E+06     41.1964E+06    -42.6441E+06    -42.5506E+06     81.1777E+06     41.1964E+06     2.89775E+06
             450     56.6480E-03     9.76476E-03     55.8001E-03     237.498E-03    -117.941E-03    -119.599E-03    -116.269E-03     235.826E-03    -119.599E-03     47.8726E-03     342.521E-03     86.4203E+06     46.7122E+06     19.0729E+06    -49.2087E+06    -49.1040E+06     43.0644E+06     22.6160E+06     2.60528E+06
             451     56.4658E-03     8.87450E-03     55.7640E-03     237.962E-03    -118.223E-03    -119.773E-03    -117.408E-03     237.077E-03    -119.703E-03     35.1547E-03     321.508E-03     63.9378E+06     7.27469E+06    -26.0750E+06    -59.9806E+06    -56.3080E+06    -29.7476E+06     7.27469E+06     1.44903E+06
             452     56.3020E-03     7.98893E-03     55.7323E-03     238.185E-03    -118.484E-03    -119.775E-03    -118.064E-03     237.695E-03    -119.705E-03     25.9721E-03     303.665E-03     81.0738E+06    -6.11919E+06    -63.7336E+06    -96.4979E+06    -63.8510E+06    -96.3805E+06    -6.11919E+06     956.264E+03
             453     56.1622E-03     7.09935E-03     55.7117E-03     237.996E-03    -118.273E-03    -119.769E-03    -118.063E-03     237.786E-03    -119.769E-03     16.7079E-03     287.927E-03     115.158E+06    -16.4279E+06    -70.2754E+06    -148.230E+06    -70.3124E+06    -148.193E+06    -16.4279E+06     432.826E+03
             454     56.0470E-03     6.21194E-03     55.7017E-03     238.603E-03    -118.800E-03    -119.863E-03    -118.728E-03     238.532E-03    -119.863E-03     9.79402E-03     275.877E-03     143.526E+06    -26.5806E+06    -77.3015E+06    -188.466E+06    -77.3188E+06    -188.448E+06    -26.5806E+06     561.531E+03
             455     55.9502E-03     5.32447E-03     55.6963E-03     238.982E-03    -119.180E-03    -119.852E-03    -119.156E-03     238.958E-03    -119.852E-03     5.58139E-03     265.642E-03     172.219E+06    -38.7358E+06    -85.5935E+06    -229.401E+06    -85.6019E+06    -229.392E+06    -38.7358E+06     803.304E+03
             456     55.8696E-03     4.43741E-03     55.6931E-03     238.957E-03    -119.088E-03    -119.914E-03    -119.083E-03     238.952E-03    -119.914E-03     2.18692E-03     257.134E-03     197.624E+06    -52.9376E+06    -93.6515E+06    -267.689E+06    -93.6549E+06    -267.686E+06    -52.9376E+06     201.977E+03
             457     55.8112E-03     3.54828E-03     55.6983E-03     239.278E-03    -119.331E-03    -120.010E-03    -119.358E-03     239.278E-03    -119.983E-03    -134.980E-06     250.910E-03     206.847E+06    -68.8117E+06    -101.278E+06    -289.929E+06    -101.281E+06    -289.926E+06    -68.8117E+06     252.658E+03
             458     55.7647E-03     2.66231E-03     55.7011E-03     239.673E-03    -119.724E-03    -119.988E-03    -119.797E-03     239.670E-03    -119.912E-03    -1.54296E-03     246.261E-03     209.197E+06    -86.8264E+06    -108.677E+06    -306.019E+06    -108.679E+06    -306.017E+06    -86.8264E+06     232.132E+03
             459     55.7347E-03     1.77552E-03     55.7064E-03     239.562E-03    -119.728E-03    -119.868E-03    -119.802E-03     239.559E-03    -119.790E-03    -1.91754E-03     242.760E-03     210.365E+06    -103.777E+06    -114.932E+06    -319.449E+06    -114.934E+06    -319.447E+06    -103.777E+06     32.5502E+03
             460     55.7150E-03     887.306E-06     55.7079E-03     239.422E-03    -119.334E-03    -120.113E-03    -120.063E-03     239.421E-03    -119.383E-03    -1.32275E-03     240.810E-03     209.318E+06    -116.605E+06    -120.511E+06    -327.829E+06    -120.466E+06    -327.826E+06    -116.653E+06     133.716E+03
             461     57.3817E-03     15.0962E-03     55.3603E-03     252.512E-03    -118.746E-03    -133.666E-03    -118.759E-03     238.320E-03    -119.460E-03     125.541E-03     412.327E-03     109.731E+06     106.509E+06     98.8484E+06    -6.84729E+06    -6.77843E+06     106.440E+06     98.8484E+06     588.957E+03
             462     56.9102E-03     14.2066E-03     55.1085E-03     256.541E-03    -119.537E-03    -136.925E-03    -118.980E-03     238.596E-03    -119.537E-03     159.411E-03     452.047E-03     110.164E+06     99.8755E+06     94.7261E+06    -12.7538E+06    -12.6996E+06     98.3342E+06     96.2132E+06    -490.653E+03
             463     56.5647E-03     13.3207E-03     54.9739E-03     247.133E-03    -119.629E-03    -127.677E-03    -116.455E-03     235.911E-03    -119.629E-03     127.168E-03     423.484E-03     113.271E+06     95.7044E+06     90.3970E+06    -20.1075E+06    -20.0478E+06     90.3373E+06     95.7044E+06    -345.693E+03
             464     56.1949E-03     12.4276E-03     54.8035E-03     246.007E-03    -119.602E-03    -126.660E-03    -116.159E-03     235.506E-03    -119.602E-03     122.203E-03     422.142E-03     115.978E+06     90.6996E+06     83.8635E+06    -28.5412E+06    -28.5065E+06     86.8446E+06     87.6839E+06     670.404E+03
             465     55.8907E-03     11.5418E-03     54.6860E-03     241.234E-03    -119.484E-03    -121.957E-03    -115.949E-03     235.326E-03    -119.584E-03     90.9285E-03     396.250E-03     113.877E+06     84.7398E+06     66.7457E+06    -36.5481E+06    -36.5059E+06     84.6976E+06     66.7457E+06     1.29976E+06
             466     55.6214E-03     10.6542E-03     54.5915E-03     237.996E-03    -118.354E-03    -119.759E-03    -115.313E-03     234.774E-03    -119.578E-03     66.6848E-03     368.064E-03     109.963E+06     81.4232E+06     41.5662E+06    -42.4662E+06    -42.4038E+06     81.3608E+06     41.5662E+06     2.02401E+06
             467     55.4043E-03     9.76246E-03     54.5374E-03     237.354E-03    -117.771E-03    -119.628E-03    -116.092E-03     235.675E-03    -119.628E-03     47.9558E-03     342.373E-03     86.3108E+06     46.6908E+06     18.4846E+06    -49.1183E+06    -49.0192E+06     43.2641E+06     21.8123E+06     2.70567E+06
             468     55.2073E-03     8.87465E-03     54.4893E-03     238.241E-03    -118.473E-03    -119.809E-03    -117.697E-03     237.396E-03    -119.739E-03     34.1953E-03     321.651E-03     64.1620E+06     7.88877E+06    -25.1013E+06    -59.6988E+06    -55.9085E+06    -28.8915E+06     7.88877E+06     2.57868E+06
             469     55.0452E-03     7.98738E-03     54.4626E-03     238.374E-03    -118.639E-03    -119.781E-03    -118.272E-03     237.937E-03    -119.712E-03     24.6245E-03     303.988E-03     81.3280E+06    -4.42812E+06    -62.2239E+06    -95.2825E+06    -62.7286E+06    -94.7778E+06    -4.42812E+06      1.7726E+06
             470     54.9041E-03     7.10073E-03     54.4430E-03     238.340E-03    -118.658E-03    -119.733E-03    -118.450E-03     238.132E-03    -119.733E-03     16.7703E-03     288.337E-03     114.969E+06    -15.5259E+06    -69.7812E+06    -147.152E+06    -69.8414E+06    -147.092E+06    -15.5259E+06     1.16562E+06
             471     54.7849E-03     6.21242E-03     54.4316E-03     238.656E-03    -118.968E-03    -119.780E-03    -118.889E-03     238.577E-03    -119.780E-03     10.2834E-03     275.787E-03     143.801E+06    -26.9349E+06    -77.4490E+06    -189.028E+06    -77.4922E+06    -188.984E+06    -26.9349E+06     831.693E+03
             472     54.6853E-03     5.32595E-03     54.4253E-03     238.717E-03    -119.005E-03    -119.768E-03    -118.981E-03     238.692E-03    -119.768E-03     5.48893E-03     265.481E-03     172.788E+06    -37.5858E+06    -84.8299E+06    -228.973E+06    -84.8426E+06    -228.960E+06    -37.5858E+06     947.884E+03
             473     54.6076E-03     4.43688E-03     54.4270E-03     238.693E-03    -118.876E-03    -119.849E-03    -118.872E-03     238.689E-03    -119.849E-03     1.83884E-03     256.921E-03     197.702E+06    -51.9329E+06    -93.1379E+06    -266.909E+06    -93.1474E+06    -266.899E+06    -51.9329E+06     751.451E+03
             474     54.5425E-03     3.54976E-03     54.4268E-03     239.113E-03    -119.221E-03    -119.953E-03    -119.248E-03     239.112E-03    -119.925E-03    -558.535E-06     250.746E-03     205.533E+06    -70.5678E+06    -101.906E+06    -289.917E+06    -101.912E+06    -289.911E+06    -70.5678E+06    -49.6644E+03
             475     54.4971E-03     2.66187E-03     54.4320E-03     239.533E-03    -119.617E-03    -119.954E-03    -119.690E-03     239.531E-03    -119.879E-03    -1.69779E-03     246.180E-03     207.630E+06    -88.5358E+06    -109.331E+06    -305.723E+06    -109.333E+06    -305.722E+06    -88.5358E+06    -123.673E+03
             476     54.4652E-03     1.77437E-03     54.4363E-03     239.585E-03    -119.735E-03    -119.868E-03    -119.821E-03     239.583E-03    -119.780E-03    -1.68845E-03     242.811E-03     210.503E+06    -104.099E+06    -115.689E+06    -320.124E+06    -115.691E+06    -320.122E+06    -104.099E+06     259.401E+03
             477     54.4478E-03     887.881E-06     54.4406E-03     239.403E-03    -119.370E-03    -120.048E-03    -120.047E-03     239.402E-03    -119.370E-03    -669.496E-06     240.797E-03     207.985E+06    -115.971E+06    -121.303E+06    -326.560E+06    -120.385E+06    -326.550E+06    -116.898E+06     663.880E+03
             478     56.1610E-03     15.0961E-03     54.0940E-03     252.774E-03    -118.925E-03    -133.837E-03    -119.037E-03     238.546E-03    -119.498E-03     125.786E-03     412.512E-03     109.847E+06     107.126E+06     100.644E+06    -5.81530E+06    -5.72530E+06     107.036E+06     100.644E+06     971.784E+03
             479     55.6803E-03     14.2073E-03     53.8372E-03     256.454E-03    -119.572E-03    -136.823E-03    -118.896E-03     238.527E-03    -119.572E-03     159.206E-03     451.872E-03     110.478E+06     100.237E+06     94.9253E+06    -12.7891E+06    -12.7389E+06     98.4403E+06     96.6714E+06     477.431E+03
             480     55.3303E-03     13.3169E-03     53.7039E-03     247.294E-03    -119.654E-03    -127.776E-03    -116.753E-03     236.271E-03    -119.654E-03     126.157E-03     424.539E-03     113.404E+06      94.715E+06     89.3947E+06    -21.2455E+06    -21.2047E+06     89.3539E+06      94.715E+06     323.338E+03
             481     54.9624E-03     12.4304E-03     53.5383E-03     246.145E-03    -119.601E-03    -126.788E-03    -116.339E-03     235.696E-03    -119.601E-03     122.134E-03     422.552E-03     116.077E+06     90.2360E+06     83.0398E+06    -29.2699E+06    -29.2145E+06     86.6064E+06     86.6139E+06     53.2906E+03
             482     54.6415E-03     11.5419E-03     53.4086E-03     240.820E-03    -119.469E-03    -121.572E-03    -115.487E-03     234.861E-03    -119.595E-03     91.0319E-03     396.146E-03     113.535E+06     84.1409E+06     65.3171E+06    -37.1414E+06    -37.1130E+06     84.1125E+06     65.3171E+06    -110.342E+03
             483     54.3851E-03     10.6508E-03     53.3319E-03     238.659E-03    -118.890E-03    -119.926E-03    -116.015E-03     235.450E-03    -119.593E-03     66.7569E-03     368.758E-03     110.256E+06     79.3650E+06     40.6661E+06    -44.6934E+06    -44.6625E+06     79.3341E+06     40.6661E+06     1.24858E+06
             484     54.1487E-03     9.76343E-03     53.2612E-03     238.141E-03    -118.316E-03    -119.902E-03    -117.014E-03     236.506E-03    -119.569E-03     47.1138E-03     342.755E-03     88.2375E+06     45.8864E+06     19.8814E+06    -51.3104E+06    -51.2368E+06     43.3050E+06     22.3892E+06     2.40404E+06
             485     53.9587E-03     8.87760E-03     53.2234E-03     237.563E-03    -117.964E-03    -119.650E-03    -117.176E-03     236.775E-03    -119.650E-03     33.1666E-03     320.910E-03     65.6341E+06     8.17669E+06    -24.5592E+06    -60.0721E+06    -57.3485E+06    -27.2829E+06     8.17669E+06     2.16969E+06
             486     53.7875E-03     7.98800E-03     53.1911E-03     237.891E-03    -118.235E-03    -119.669E-03    -117.798E-03     237.455E-03    -119.669E-03     24.3481E-03     303.402E-03     81.3558E+06    -4.09982E+06    -62.8442E+06    -94.5370E+06    -63.3472E+06    -94.0340E+06    -4.09982E+06     1.84478E+06
             487     53.6457E-03     7.10000E-03     53.1738E-03     238.486E-03    -118.779E-03    -119.696E-03    -118.583E-03     238.290E-03    -119.696E-03     16.4940E-03     288.453E-03     114.505E+06    -14.9193E+06    -69.5736E+06    -146.064E+06    -69.6582E+06    -145.979E+06    -14.9193E+06     1.87752E+06
             488     53.5229E-03     6.21339E-03     53.1610E-03     238.397E-03    -118.703E-03    -119.748E-03    -118.616E-03     238.310E-03    -119.748E-03     10.8277E-03     275.386E-03     143.283E+06    -26.6760E+06    -76.5229E+06    -188.056E+06    -76.5645E+06    -188.014E+06    -26.6760E+06     1.35230E+06
             489     53.4234E-03     5.32427E-03     53.1574E-03     238.735E-03    -119.000E-03    -119.760E-03    -118.973E-03     238.708E-03    -119.760E-03     5.74561E-03     265.576E-03     173.817E+06    -37.6903E+06    -84.3028E+06    -229.979E+06    -84.3163E+06    -229.965E+06    -37.6903E+06     788.760E+03
             490     53.3413E-03     4.43813E-03     53.1563E-03     239.098E-03    -119.317E-03    -119.802E-03    -119.313E-03     239.093E-03    -119.802E-03     2.06126E-03     257.391E-03     197.928E+06    -49.9733E+06    -92.4351E+06    -265.633E+06    -92.4478E+06    -265.620E+06    -49.9733E+06     1.28085E+06
             491     53.2777E-03     3.55006E-03     53.1593E-03     238.895E-03    -119.134E-03    -119.822E-03    -119.133E-03     238.894E-03    -119.822E-03    -285.852E-06     250.477E-03     205.628E+06    -68.2997E+06    -101.122E+06    -288.280E+06    -101.135E+06    -288.267E+06    -68.2997E+06     980.963E+03
             492     53.2289E-03     2.66210E-03     53.1623E-03     239.036E-03    -119.243E-03    -119.828E-03    -119.241E-03     239.034E-03    -119.828E-03    -1.59730E-03     245.694E-03     208.194E+06    -89.0199E+06    -110.144E+06    -306.911E+06    -110.149E+06    -306.906E+06    -89.0199E+06     333.434E+03
             493     53.1968E-03     1.77487E-03     53.1671E-03     239.519E-03    -119.652E-03    -119.889E-03    -119.710E-03     239.516E-03    -119.829E-03    -2.03121E-03     242.801E-03     208.839E+06    -105.936E+06    -117.015E+06    -320.054E+06    -117.016E+06    -320.053E+06    -105.936E+06     147.873E+03
             494     53.1779E-03     886.853E-06     53.1705E-03     239.573E-03    -119.639E-03    -119.938E-03    -119.936E-03     239.570E-03    -119.639E-03    -1.45886E-03     241.027E-03     206.172E+06    -116.839E+06    -121.288E+06    -325.191E+06    -120.368E+06    -325.183E+06    -117.766E+06     518.244E+03
             495     54.9347E-03     15.0953E-03     52.8200E-03     252.406E-03    -119.024E-03    -133.414E-03    -118.919E-03     238.384E-03    -119.496E-03     125.464E-03     412.631E-03     109.745E+06     106.787E+06     100.896E+06    -5.76731E+06    -5.69493E+06     106.715E+06     100.896E+06     506.265E+03
             496     54.4578E-03     14.2068E-03     52.5720E-03     256.115E-03    -119.574E-03    -136.444E-03    -118.683E-03     238.354E-03    -119.574E-03     158.662E-03     451.510E-03     110.439E+06     99.5100E+06     95.3436E+06    -12.9389E+06    -12.8638E+06     97.8477E+06     96.9309E+06     821.685E+03
             497     54.0975E-03     13.3183E-03     52.4324E-03     247.540E-03    -119.661E-03    -127.976E-03    -116.893E-03     236.457E-03    -119.661E-03     126.646E-03     424.553E-03     112.312E+06     95.5193E+06     89.3665E+06    -19.7099E+06    -19.6591E+06     89.3157E+06     95.5193E+06     1.22100E+06
             498     53.7244E-03     12.4311E-03     52.2664E-03     245.910E-03    -119.607E-03    -126.587E-03    -116.145E-03     235.468E-03    -119.607E-03     122.100E-03     422.526E-03     115.058E+06     91.2122E+06     82.3958E+06    -27.9945E+06    -27.9126E+06     86.5647E+06     86.9614E+06     1.17619E+06
             499     53.4076E-03     11.5388E-03     52.1462E-03     241.096E-03    -119.571E-03    -121.742E-03    -115.753E-03     235.134E-03    -119.598E-03     91.0308E-03     396.136E-03     113.482E+06     84.0547E+06     64.5337E+06    -37.4769E+06    -37.4134E+06     83.9913E+06     64.5337E+06     905.564E+03
             500     53.1342E-03     10.6528E-03     52.0553E-03     239.596E-03    -119.327E-03    -120.410E-03    -117.047E-03     236.455E-03    -119.549E-03     66.1959E-03     369.220E-03     110.114E+06     78.2840E+06     40.1645E+06    -45.5575E+06    -45.5486E+06     78.2750E+06     40.1645E+06     996.352E+03
             501     52.9030E-03     9.76777E-03     51.9934E-03     238.030E-03    -118.260E-03    -119.812E-03    -116.974E-03     236.411E-03    -119.479E-03     47.0750E-03     342.656E-03     88.1429E+06     45.5048E+06     20.4301E+06    -51.3795E+06    -51.3463E+06     43.2462E+06     22.6555E+06     834.215E+03
             502     52.7070E-03     8.87615E-03     51.9542E-03     237.305E-03    -117.762E-03    -119.563E-03    -116.945E-03     236.488E-03    -119.563E-03     33.6940E-03     320.659E-03     66.0039E+06     8.70337E+06    -23.9175E+06    -59.9117E+06    -56.6962E+06    -27.1330E+06     8.70337E+06     1.04241E+06
             503     52.5342E-03     7.98877E-03     51.9232E-03     237.709E-03    -118.100E-03    -119.595E-03    -117.655E-03     237.265E-03    -119.595E-03     24.5977E-03     303.034E-03     81.3494E+06    -3.66268E+06    -62.3968E+06    -94.1590E+06    -62.6864E+06    -93.8694E+06    -3.66268E+06     1.43022E+06
             504     52.3865E-03     7.10121E-03     51.9030E-03     238.025E-03    -118.310E-03    -119.653E-03    -118.118E-03     237.834E-03    -119.653E-03     16.1090E-03     287.957E-03     114.586E+06    -14.2904E+06    -69.1323E+06    -145.553E+06    -69.2026E+06    -145.482E+06    -14.2904E+06     1.34708E+06
             505     52.2640E-03     6.21207E-03     51.8935E-03     238.288E-03    -118.567E-03    -119.734E-03    -118.490E-03     238.210E-03    -119.734E-03     10.2612E-03     275.444E-03     143.157E+06    -25.3847E+06    -76.0762E+06    -186.839E+06    -76.1053E+06    -186.810E+06    -25.3847E+06     1.61762E+06
             506     52.1588E-03     5.32526E-03     51.8863E-03     238.650E-03    -118.921E-03    -119.749E-03    -118.895E-03     238.624E-03    -119.749E-03     5.59904E-03     265.470E-03     173.972E+06    -37.4920E+06    -83.8942E+06    -229.844E+06    -83.9090E+06    -229.829E+06    -37.4920E+06     1.11690E+06
             507     52.0766E-03     4.43732E-03     51.8872E-03     239.021E-03    -119.240E-03    -119.815E-03    -119.236E-03     239.017E-03    -119.815E-03     2.14095E-03     257.386E-03     198.182E+06    -49.9751E+06    -91.9528E+06    -265.754E+06    -91.9620E+06    -265.745E+06    -49.9751E+06     1.04701E+06
             508     52.0110E-03     3.55029E-03     51.8897E-03     239.065E-03    -119.295E-03    -119.834E-03    -119.294E-03     239.065E-03    -119.834E-03    -34.8325E-06     250.675E-03     206.709E+06    -65.6481E+06    -100.352E+06    -287.454E+06    -100.369E+06    -287.437E+06    -65.6481E+06     1.73154E+06
             509     51.9625E-03     2.66252E-03     51.8943E-03     239.055E-03    -119.301E-03    -119.797E-03    -119.300E-03     239.054E-03    -119.797E-03    -1.20479E-03     245.672E-03     209.993E+06    -85.9784E+06    -108.406E+06    -306.181E+06    -108.416E+06    -306.171E+06    -85.9784E+06     1.27103E+06
             510     51.9267E-03     1.77432E-03     51.8964E-03     239.280E-03    -119.459E-03    -119.865E-03    -119.507E-03     239.278E-03    -119.815E-03    -1.62937E-03     242.548E-03     209.065E+06    -104.225E+06    -115.184E+06    -318.526E+06    -115.186E+06    -318.524E+06    -104.225E+06     261.014E+03
             511     51.9089E-03     888.132E-06     51.9013E-03     239.613E-03    -119.435E-03    -120.188E-03    -120.077E-03     239.611E-03    -119.543E-03    -1.56722E-03     241.084E-03     207.768E+06    -115.497E+06    -119.580E+06    -325.262E+06    -119.590E+06    -325.252E+06    -115.497E+06    -823.938E+03
             512     53.7186E-03     15.0976E-03     51.5533E-03     251.944E-03    -119.246E-03    -132.739E-03    -118.577E-03     237.987E-03    -119.452E-03     124.364E-03     412.069E-03     108.772E+06     106.817E+06     100.180E+06    -5.09701E+06    -5.00948E+06     106.730E+06     100.180E+06     958.008E+03
             513     53.2331E-03     14.2069E-03     51.3023E-03     255.605E-03    -119.554E-03    -135.957E-03    -117.998E-03     237.646E-03    -119.554E-03     159.600E-03     450.768E-03     109.577E+06     98.6461E+06     94.5017E+06    -12.9076E+06    -12.8041E+06     97.4543E+06     95.5899E+06     837.683E+03
             514     52.8677E-03     13.3183E-03     51.1627E-03     247.487E-03    -119.676E-03    -127.936E-03    -116.653E-03     236.203E-03    -119.676E-03     127.844E-03     424.150E-03     112.204E+06     94.2360E+06     88.4789E+06    -20.6891E+06    -20.6471E+06     88.4368E+06     94.2360E+06     558.112E+03
             515     52.4903E-03     12.4271E-03     50.9980E-03     246.415E-03    -119.621E-03    -127.067E-03    -116.857E-03     236.206E-03    -119.621E-03     120.697E-03     423.255E-03     115.810E+06     90.9320E+06     83.0205E+06    -28.6107E+06    -28.5603E+06     86.2127E+06     87.6893E+06     1.28271E+06
             516     52.1678E-03     11.5424E-03     50.8749E-03     241.893E-03    -119.540E-03    -122.505E-03    -116.702E-03     236.090E-03    -119.540E-03     90.3459E-03     396.609E-03     114.158E+06     85.3167E+06     67.0460E+06    -36.3590E+06    -36.2752E+06     85.2329E+06     67.0460E+06     2.19191E+06
             517     51.8891E-03     10.6547E-03     50.7834E-03     238.813E-03    -118.843E-03    -120.094E-03    -116.312E-03     235.647E-03    -119.460E-03     66.1937E-03     368.319E-03     109.823E+06     80.0823E+06     40.6034E+06    -43.6214E+06    -43.5729E+06     80.0338E+06     40.6034E+06     947.392E+03
             518     51.6564E-03     9.76329E-03     50.7254E-03     237.636E-03    -118.255E-03    -119.431E-03    -116.655E-03     236.036E-03    -119.431E-03     46.8384E-03     342.592E-03     87.0332E+06     45.9928E+06     17.9872E+06    -50.5688E+06    -50.5457E+06     42.4150E+06     21.5419E+06    -268.307E+03
             519     51.4551E-03     8.87832E-03     50.6833E-03     237.676E-03    -118.206E-03    -119.510E-03    -117.402E-03     236.873E-03    -119.510E-03     33.3644E-03     320.983E-03     65.4657E+06     8.80533E+06    -25.3836E+06    -59.8683E+06    -56.6281E+06    -28.6238E+06     8.80533E+06     479.770E+03
             520     51.2808E-03     7.99019E-03     50.6545E-03     237.368E-03    -117.860E-03    -119.527E-03    -117.429E-03     236.938E-03    -119.527E-03     24.4172E-03     302.836E-03     81.3698E+06    -3.15847E+06    -62.5350E+06     -93.655E+06    -62.8435E+06    -93.3465E+06    -3.15847E+06     1.02422E+06
             521     51.1297E-03     7.10050E-03     50.6343E-03     237.705E-03    -118.076E-03    -119.604E-03    -117.871E-03     237.501E-03    -119.604E-03     16.5723E-03     287.663E-03     114.466E+06    -14.1734E+06    -69.6962E+06    -145.325E+06    -69.7541E+06    -145.267E+06    -14.1734E+06     1.01265E+06
             522     51.0040E-03     6.21377E-03     50.6241E-03     238.200E-03    -118.521E-03    -119.681E-03    -118.444E-03     238.122E-03    -119.681E-03     10.2358E-03     275.438E-03     143.276E+06    -25.3698E+06    -76.6329E+06    -187.077E+06    -76.6542E+06    -187.056E+06    -25.3698E+06     1.09263E+06
             523     50.8973E-03     5.32519E-03     50.6180E-03     238.295E-03    -118.582E-03    -119.721E-03    -118.556E-03     238.269E-03    -119.721E-03     5.70031E-03     265.097E-03     173.773E+06    -36.6171E+06    -83.2781E+06    -228.827E+06    -83.2879E+06    -228.817E+06    -36.6171E+06     1.12400E+06
             524     50.8122E-03     4.43741E-03     50.6181E-03     238.695E-03    -118.894E-03    -119.854E-03    -118.889E-03     238.690E-03    -119.854E-03     2.34284E-03     257.041E-03     198.314E+06    -50.3802E+06    -91.1478E+06    -265.863E+06    -91.1538E+06    -265.857E+06    -50.3802E+06     808.821E+03
             525     50.7447E-03     3.54930E-03     50.6205E-03     239.290E-03    -119.450E-03    -119.913E-03    -119.450E-03     239.289E-03    -119.913E-03     138.218E-06     250.928E-03     207.775E+06    -64.8555E+06    -99.0974E+06    -287.601E+06    -99.1071E+06    -287.591E+06    -64.8555E+06     1.08460E+06
             526     50.6950E-03     2.66239E-03     50.6251E-03     239.418E-03    -119.619E-03    -119.839E-03    -119.617E-03     239.416E-03    -119.839E-03    -1.26129E-03     246.010E-03     210.774E+06    -81.9600E+06    -106.623E+06    -303.896E+06    -106.632E+06    -303.887E+06    -81.9600E+06     1.24331E+06
             527     50.6598E-03     1.77519E-03     50.6287E-03     239.213E-03    -119.420E-03    -119.837E-03    -119.418E-03     239.212E-03    -119.837E-03    -1.38101E-03     242.436E-03     209.794E+06    -101.720E+06    -113.665E+06    -317.160E+06    -113.668E+06    -317.157E+06    -101.720E+06     438.579E+03
             528     50.6392E-03     886.155E-06     50.6314E-03     239.678E-03    -119.422E-03    -120.271E-03    -119.985E-03     239.676E-03    -119.706E-03    -1.05707E-03     241.121E-03     208.372E+06    -115.220E+06    -119.040E+06    -325.467E+06    -118.476E+06    -325.456E+06    -115.796E+06    -1.00832E+06
             529     52.5049E-03     15.0984E-03     50.2872E-03     252.212E-03    -119.210E-03    -133.034E-03    -118.694E-03     238.105E-03    -119.443E-03     124.458E-03     412.016E-03     108.221E+06     106.083E+06     99.5009E+06    -5.26830E+06    -5.20228E+06     106.017E+06     99.5009E+06     1.64671E+06
             530     52.0138E-03     14.2071E-03     50.0359E-03     255.891E-03    -119.542E-03    -136.271E-03    -118.076E-03     237.696E-03    -119.542E-03     160.684E-03     450.710E-03     110.251E+06     99.0036E+06     94.7286E+06    -13.2818E+06    -13.1414E+06     98.5998E+06     94.9921E+06     2.34148E+06
             531     51.6389E-03     13.3161E-03     49.8925E-03     247.857E-03    -119.641E-03    -128.402E-03    -117.289E-03     236.744E-03    -119.641E-03     127.156E-03     424.696E-03     113.554E+06     93.8248E+06     88.9354E+06    -22.0524E+06    -21.9455E+06     89.1802E+06     93.4731E+06     672.797E+03
             532     51.2577E-03     12.4318E-03     49.7272E-03     246.861E-03    -119.533E-03    -127.576E-03    -117.618E-03     236.902E-03    -119.533E-03     119.505E-03     423.501E-03     116.208E+06     89.6759E+06     82.8453E+06    -29.7847E+06    -29.7650E+06     85.3819E+06     87.1195E+06    -389.968E+03
             533     50.9274E-03     11.5430E-03     49.6020E-03     241.284E-03    -119.401E-03    -121.992E-03    -116.261E-03     235.587E-03    -119.436E-03     89.3534E-03     396.247E-03     114.214E+06     85.0317E+06     68.4442E+06    -36.0886E+06    -36.0343E+06     84.9774E+06     68.4442E+06     259.739E+03
             534     50.6512E-03     10.6539E-03     49.5181E-03     238.100E-03    -118.748E-03    -119.492E-03    -115.749E-03     234.994E-03    -119.385E-03     65.5025E-03     367.958E-03     110.068E+06     81.5465E+06     42.7870E+06    -42.1344E+06    -42.0483E+06     81.4604E+06     42.7870E+06     791.109E+03
             535     50.4090E-03     9.76734E-03     49.4537E-03     237.365E-03    -118.051E-03    -119.376E-03    -116.456E-03     235.770E-03    -119.376E-03     46.7302E-03     342.009E-03     86.3070E+06     46.8447E+06     17.8200E+06    -49.3348E+06    -49.2954E+06     42.5090E+06     22.1163E+06     763.151E+03
             536     50.2053E-03     8.87801E-03     49.4141E-03     237.349E-03    -117.924E-03    -119.476E-03    -117.120E-03     236.545E-03    -119.476E-03     33.3891E-03     320.700E-03     64.7595E+06     8.67387E+06    -26.5794E+06    -59.3609E+06    -56.5174E+06    -29.4229E+06     8.67387E+06     336.619E+03
             537     50.0285E-03     7.98964E-03     49.3864E-03     237.289E-03    -117.852E-03    -119.507E-03    -117.412E-03     236.849E-03    -119.507E-03     24.6795E-03     302.877E-03     81.4716E+06    -3.16484E+06    -62.9563E+06    -93.5404E+06    -63.0512E+06    -93.4455E+06    -3.16484E+06     464.299E+03
             538     49.8741E-03     7.10184E-03     49.3659E-03     237.549E-03    -117.978E-03    -119.585E-03    -117.758E-03     237.329E-03    -119.585E-03     17.3162E-03     287.409E-03     114.638E+06    -13.9326E+06    -69.3063E+06    -145.242E+06    -69.3572E+06    -145.191E+06    -13.9326E+06     822.825E+03
             539     49.7433E-03     6.21272E-03     49.3538E-03     237.975E-03    -118.304E-03    -119.688E-03    -118.215E-03     237.886E-03    -119.688E-03     10.8864E-03     275.164E-03     143.451E+06    -25.1157E+06    -75.9300E+06    -186.912E+06    -75.9397E+06    -186.903E+06    -25.1157E+06     394.651E+03
             540     49.6369E-03     5.32541E-03     49.3504E-03     238.439E-03    -118.687E-03    -119.740E-03    -118.660E-03     238.412E-03    -119.740E-03     5.89803E-03     265.258E-03     173.608E+06    -36.2530E+06    -83.2129E+06    -228.402E+06    -83.2176E+06    -228.398E+06    -36.2530E+06     423.351E+03
             541     49.5480E-03     4.43679E-03     49.3489E-03     238.808E-03    -118.976E-03    -119.852E-03    -118.970E-03     238.803E-03    -119.852E-03     2.06358E-03     257.094E-03     198.045E+06    -49.9518E+06    -90.8240E+06    -265.176E+06    -90.8267E+06    -265.173E+06    -49.9518E+06     316.286E+03
             542     49.4790E-03     3.54942E-03     49.3515E-03     239.096E-03    -119.232E-03    -119.928E-03    -119.232E-03     239.096E-03    -119.928E-03    -171.799E-06     250.726E-03     207.176E+06    -65.9807E+06    -98.8882E+06    -287.611E+06    -98.8902E+06    -287.609E+06    -65.9807E+06     124.016E+03
             543     49.4261E-03     2.66204E-03     49.3544E-03     239.462E-03    -119.586E-03    -119.911E-03    -119.584E-03     239.461E-03    -119.911E-03    -1.43580E-03     246.126E-03     210.049E+06    -82.2437E+06    -106.172E+06    -303.171E+06    -106.175E+06    -303.168E+06    -82.2437E+06     480.337E+03
             544     49.3931E-03     1.77456E-03     49.3612E-03     239.548E-03    -119.650E-03    -119.937E-03    -119.703E-03     239.546E-03    -119.882E-03    -1.32033E-03     242.843E-03     209.835E+06    -99.3308E+06    -112.795E+06    -315.515E+06    -112.801E+06    -315.508E+06    -99.3308E+06     920.757E+03
             545     49.3692E-03     887.905E-06     49.3612E-03     239.631E-03    -119.651E-03    -120.005E-03    -119.828E-03     239.630E-03    -119.827E-03    -783.131E-06     241.036E-03     208.961E+06    -115.008E+06    -120.086E+06    -326.428E+06    -119.528E+06    -326.410E+06    -115.583E+06     1.04249E+06
             546     51.2892E-03     15.0950E-03     49.0176E-03     252.452E-03    -118.736E-03    -133.778E-03    -119.143E-03     238.548E-03    -119.467E-03     123.756E-03     412.743E-03     108.185E+06     104.142E+06     97.8397E+06    -7.04581E+06    -7.00453E+06     104.101E+06     97.8397E+06     1.09335E+06
             547     50.7952E-03     14.2073E-03     48.7678E-03     257.090E-03    -119.501E-03    -137.644E-03    -119.746E-03     239.193E-03    -119.501E-03     159.898E-03     452.134E-03     110.470E+06     100.484E+06     95.9030E+06    -12.1738E+06    -12.0731E+06     99.7387E+06     96.5474E+06     2.37906E+06
             548     50.4147E-03     13.3209E-03     48.6230E-03     248.134E-03    -119.523E-03    -128.835E-03    -117.642E-03     236.940E-03    -119.523E-03     127.572E-03     424.614E-03     112.891E+06     96.2151E+06     90.9755E+06    -19.1698E+06    -18.9977E+06     91.1552E+06     95.8634E+06     2.24107E+06
             549     50.0230E-03     12.4320E-03     48.4536E-03     246.215E-03    -119.420E-03    -127.006E-03    -116.780E-03     235.989E-03    -119.420E-03     120.801E-03     422.823E-03     114.625E+06     90.8678E+06     82.4556E+06    -27.7227E+06    -27.6266E+06     86.5284E+06     86.6989E+06     715.275E+03
             550     49.6956E-03     11.5443E-03     48.3361E-03     240.957E-03    -119.280E-03    -121.847E-03    -116.006E-03     235.151E-03    -119.315E-03     90.1043E-03     396.127E-03     112.933E+06     84.5855E+06     64.4372E+06    -36.4669E+06    -36.4503E+06     84.5689E+06     64.4372E+06    -717.047E+03
             551     49.4099E-03     10.6562E-03     48.2471E-03     238.210E-03    -118.652E-03    -119.704E-03    -115.909E-03     235.042E-03    -119.280E-03     66.1736E-03     367.926E-03     109.808E+06     79.9438E+06     39.9383E+06    -43.8878E+06    -43.8405E+06     79.8965E+06     39.9383E+06    -143.509E+03
             552     49.1663E-03     9.76628E-03     48.1866E-03     236.825E-03    -117.493E-03    -119.342E-03    -115.849E-03     235.181E-03    -119.342E-03     47.4546E-03     340.982E-03     87.0056E+06     47.0530E+06     19.7050E+06    -49.3462E+06    -49.3004E+06     43.6853E+06     23.0270E+06     954.036E+03
             553     48.9563E-03     8.87751E-03     48.1447E-03     236.890E-03    -117.403E-03    -119.502E-03    -116.556E-03     236.043E-03    -119.502E-03     34.2000E-03     319.965E-03     65.3506E+06     9.20593E+06    -24.4181E+06    -59.5997E+06    -55.3660E+06    -28.6518E+06     9.20593E+06     314.546E+03
             554     48.7759E-03     7.98976E-03     48.1171E-03     237.629E-03    -118.147E-03    -119.548E-03    -117.693E-03     237.175E-03    -119.548E-03     25.0384E-03     303.308E-03     81.8915E+06    -2.64496E+06    -61.7621E+06    -94.0706E+06    -61.8446E+06    -93.9882E+06    -2.64496E+06    -175.202E+03
             555     48.6187E-03     7.10084E-03     48.0973E-03     237.777E-03    -118.191E-03    -119.591E-03    -117.975E-03     237.560E-03    -119.591E-03     17.1360E-03     287.622E-03     114.965E+06    -13.5529E+06    -68.6331E+06    -145.186E+06    -68.6528E+06    -145.166E+06    -13.5529E+06     152.973E+03
             556     48.4855E-03     6.21288E-03     48.0858E-03     237.867E-03    -118.209E-03    -119.699E-03    -118.125E-03     237.782E-03    -119.699E-03     10.5955E-03     274.971E-03     143.782E+06    -24.7207E+06    -75.2326E+06    -186.803E+06    -75.2450E+06    -186.791E+06    -24.7207E+06     121.451E+03
             557     48.3741E-03     5.32444E-03     48.0802E-03     238.525E-03    -118.788E-03    -119.755E-03    -118.762E-03     238.499E-03    -119.755E-03     5.71838E-03     265.375E-03     173.802E+06    -35.4422E+06    -82.4952E+06    -227.828E+06    -82.4966E+06    -227.826E+06    -35.4422E+06        -281.706
             558     48.2847E-03     4.43821E-03     48.0803E-03     239.053E-03    -119.231E-03    -119.826E-03    -119.226E-03     239.048E-03    -119.826E-03     2.21068E-03     257.359E-03     198.156E+06    -49.5082E+06    -91.2034E+06    -265.135E+06    -91.2036E+06    -265.135E+06    -49.5082E+06     90.8926E+03
             559     48.2135E-03     3.55004E-03     48.0826E-03     239.016E-03    -119.211E-03    -119.856E-03    -119.209E-03     239.014E-03    -119.856E-03    -398.398E-06     250.610E-03     205.802E+06    -67.4633E+06    -99.4002E+06    -287.295E+06    -99.4010E+06    -287.295E+06    -67.4633E+06     94.6847E+03
             560     48.1596E-03     2.66161E-03     48.0860E-03     239.122E-03    -119.299E-03    -119.859E-03    -119.296E-03     239.119E-03    -119.859E-03    -1.82487E-03     245.788E-03     208.237E+06    -85.8372E+06    -106.522E+06    -303.585E+06    -106.524E+06    -303.583E+06    -85.8372E+06    -115.561E+03
             561     48.1227E-03     1.77451E-03     48.0900E-03     239.588E-03    -119.673E-03    -119.953E-03    -119.759E-03     239.586E-03    -119.864E-03    -1.68065E-03     242.995E-03     209.399E+06    -100.820E+06    -112.887E+06    -315.963E+06    -112.892E+06    -315.957E+06    -100.820E+06     451.400E+03
             562     48.1019E-03     887.028E-06     48.0937E-03     239.614E-03    -119.606E-03    -120.036E-03    -120.035E-03     239.612E-03    -119.606E-03    -647.569E-06     241.099E-03     209.749E+06    -112.267E+06    -117.624E+06    -324.611E+06    -116.960E+06    -324.594E+06    -112.948E+06     1.55269E+06
             563     50.0789E-03     15.0966E-03     47.7492E-03     253.067E-03    -118.934E-03    -134.213E-03    -119.949E-03     239.301E-03    -119.431E-03     123.486E-03     413.407E-03     108.409E+06     104.043E+06     98.0204E+06    -7.22634E+06    -7.15393E+06     103.970E+06     98.0204E+06     480.247E+03
             564     49.5742E-03     14.2094E-03     47.4941E-03     257.276E-03    -119.412E-03    -137.928E-03    -120.205E-03     239.553E-03    -119.412E-03     159.329E-03     452.245E-03     110.605E+06     100.358E+06     94.1684E+06    -13.1898E+06    -13.1246E+06     98.3745E+06     96.0868E+06     825.614E+03
             565     49.1926E-03     13.3217E-03     47.3545E-03     247.486E-03    -119.423E-03    -128.176E-03    -116.875E-03     236.186E-03    -119.423E-03     127.849E-03     423.485E-03     112.148E+06     96.2693E+06     90.4743E+06    -18.6500E+06    -18.5430E+06     90.3673E+06     96.2693E+06     2.14661E+06
             566     48.7965E-03     12.4315E-03     47.1864E-03     245.387E-03    -119.393E-03    -126.157E-03    -115.723E-03     234.953E-03    -119.393E-03     121.690E-03     421.657E-03     114.189E+06     92.2644E+06     83.9967E+06    -25.8271E+06    -25.7109E+06     88.2715E+06     87.8733E+06     2.25599E+06
             567     48.4591E-03     11.5424E-03     47.0644E-03     240.781E-03    -119.312E-03    -121.739E-03    -115.805E-03     234.847E-03    -119.312E-03     91.0738E-03     395.842E-03     111.994E+06     85.9250E+06     63.8527E+06    -34.7726E+06    -34.7299E+06     85.8823E+06     63.8527E+06     1.42503E+06
             568     48.1717E-03     10.6550E-03     46.9785E-03     238.436E-03    -118.729E-03    -119.899E-03    -116.113E-03     235.202E-03    -119.282E-03     66.8471E-03     368.184E-03     109.072E+06     80.3591E+06     38.4935E+06    -43.2433E+06    -43.2285E+06     80.3444E+06     38.4935E+06     132.619E+03
             569     47.9242E-03     9.76702E-03     46.9183E-03     236.991E-03    -117.638E-03    -119.371E-03    -115.997E-03     235.350E-03    -119.371E-03     47.4073E-03     341.501E-03     87.2894E+06     46.6919E+06     19.0652E+06    -50.0646E+06    -50.0056E+06     43.1905E+06     22.5076E+06    -749.768E+03
             570     47.7110E-03     8.87719E-03     46.8779E-03     236.930E-03    -117.431E-03    -119.523E-03    -116.576E-03     236.074E-03    -119.523E-03     34.4636E-03     319.941E-03     65.2882E+06     9.29399E+06    -24.2678E+06    -59.4045E+06    -55.3701E+06    -28.3022E+06     9.29399E+06    -455.193E+03
             571     47.5226E-03     7.98802E-03     46.8464E-03     237.720E-03    -118.224E-03    -119.563E-03    -117.772E-03     237.268E-03    -119.563E-03     24.8248E-03     303.348E-03     81.9836E+06    -2.75284E+06    -61.4392E+06    -94.2287E+06    -61.5521E+06    -94.1158E+06    -2.75284E+06    -422.517E+03
             572     47.3635E-03     7.10185E-03     46.8280E-03     238.146E-03    -118.572E-03    -119.585E-03    -118.377E-03     237.950E-03    -119.585E-03     16.3304E-03     288.226E-03     115.247E+06    -12.9362E+06    -68.0049E+06    -144.932E+06    -68.0389E+06    -144.898E+06    -12.9362E+06    -164.256E+03
             573     47.2277E-03     6.21360E-03     46.8172E-03     238.003E-03    -118.394E-03    -119.651E-03    -118.312E-03     237.922E-03    -119.651E-03     10.5038E-03     275.110E-03     143.707E+06    -24.4485E+06    -75.1339E+06    -186.469E+06    -75.1454E+06    -186.457E+06    -24.4485E+06     169.396E+03
             574     47.1131E-03     5.32563E-03     46.8112E-03     238.271E-03    -118.610E-03    -119.694E-03    -118.583E-03     238.244E-03    -119.694E-03     5.71186E-03     265.051E-03     173.707E+06    -36.2619E+06    -83.1092E+06    -228.488E+06    -83.1103E+06    -228.487E+06    -36.2619E+06     98.6949E+03
             575     47.0200E-03     4.43654E-03     46.8103E-03     238.834E-03    -119.072E-03    -119.792E-03    -119.067E-03     238.830E-03    -119.792E-03     2.04579E-03     257.141E-03     198.090E+06    -49.4196E+06    -90.9974E+06    -264.943E+06    -90.9980E+06    -264.942E+06    -49.4196E+06    -22.9727E+03
             576     46.9463E-03     3.55018E-03     46.8119E-03     239.084E-03    -119.319E-03    -119.821E-03    -119.317E-03     239.082E-03    -119.821E-03    -200.051E-06     250.704E-03     205.832E+06    -66.8956E+06    -99.1054E+06    -286.866E+06    -99.1071E+06    -286.864E+06    -66.8956E+06    -137.792E+03
             577     46.8934E-03     2.66324E-03     46.8177E-03     239.254E-03    -119.389E-03    -119.902E-03    -119.553E-03     239.252E-03    -119.737E-03    -1.29199E-03     245.880E-03     207.516E+06    -86.7393E+06    -106.213E+06    -303.205E+06    -106.217E+06    -303.200E+06    -86.7393E+06     28.7363E+03
             578     46.8537E-03     1.77467E-03     46.8200E-03     239.317E-03    -119.468E-03    -119.891E-03    -119.734E-03     239.314E-03    -119.621E-03    -2.06021E-03     242.726E-03     210.281E+06    -102.830E+06    -111.539E+06    -317.302E+06    -111.545E+06    -317.296E+06    -102.830E+06    -186.029E+03
             579     46.8322E-03     887.808E-06     46.8238E-03     239.080E-03    -119.321E-03    -119.788E-03    -119.725E-03     239.077E-03    -119.381E-03    -1.59968E-03     240.650E-03     211.272E+06    -111.306E+06    -114.682E+06    -324.239E+06    -114.005E+06    -324.235E+06    -111.987E+06    -183.265E+03
             580     48.8676E-03     15.0983E-03     46.4767E-03     253.739E-03    -119.387E-03    -134.345E-03    -120.287E-03     239.681E-03    -119.387E-03     125.626E-03     413.637E-03     108.342E+06     103.777E+06     99.4991E+06    -6.62228E+06    -6.50388E+06     103.658E+06     99.4991E+06     804.815E+03
             581     48.3597E-03     14.2108E-03     46.2246E-03     256.888E-03    -119.377E-03    -137.432E-03    -119.528E-03     238.985E-03    -119.377E-03     159.784E-03     451.578E-03     110.033E+06     100.207E+06     94.6628E+06    -12.4876E+06    -12.3815E+06     97.8025E+06     96.9617E+06     1.17365E+06
             582     47.9714E-03     13.3210E-03     46.0847E-03     247.104E-03    -119.415E-03    -127.731E-03    -116.398E-03     235.771E-03    -119.415E-03     127.859E-03     423.115E-03     112.712E+06     95.7118E+06     89.7693E+06    -19.8483E+06    -19.8038E+06     89.7248E+06     95.7118E+06     1.17916E+06
             583     47.5725E-03     12.4324E-03     45.9193E-03     245.599E-03    -119.407E-03    -126.315E-03    -115.817E-03     235.100E-03    -119.407E-03     122.081E-03     421.480E-03     115.649E+06     91.7776E+06     84.4347E+06    -27.3676E+06    -27.3150E+06     88.0813E+06     88.0784E+06     1.37505E+06
             584     47.2270E-03     11.5428E-03     45.7947E-03     240.390E-03    -119.222E-03    -121.361E-03    -115.318E-03     234.528E-03    -119.403E-03     90.3307E-03     395.253E-03     113.437E+06     86.6357E+06     68.3701E+06    -34.3633E+06    -34.3184E+06     86.5909E+06     68.3701E+06     1.44855E+06
             585     46.9332E-03     10.6534E-03     45.7081E-03     238.166E-03    -118.766E-03    -119.595E-03    -115.824E-03     235.031E-03    -119.402E-03     65.7627E-03     368.279E-03     109.514E+06     82.2125E+06     42.7706E+06    -41.0602E+06    -41.0498E+06     82.2020E+06     42.7706E+06     480.961E+03
             586     46.6820E-03     9.76528E-03     45.6492E-03     237.614E-03    -118.248E-03    -119.417E-03    -116.658E-03     236.024E-03    -119.417E-03     46.7004E-03     342.793E-03     86.3374E+06     48.2410E+06     19.0300E+06    -48.0021E+06    -47.9602E+06     43.8636E+06     23.3655E+06    -794.084E+03
             587     46.4652E-03     8.87771E-03     45.6093E-03     237.346E-03    -117.880E-03    -119.505E-03    -117.046E-03     236.511E-03    -119.505E-03     34.1422E-03     320.531E-03     64.0978E+06     9.09064E+06    -25.2602E+06    -58.4719E+06    -55.2537E+06    -28.4783E+06     9.09064E+06    -732.171E+03
             588     46.2720E-03     7.98999E-03     45.5770E-03     237.366E-03    -117.876E-03    -119.540E-03    -117.415E-03     236.905E-03    -119.540E-03     25.0519E-03     302.806E-03     81.9620E+06    -3.59178E+06    -61.9519E+06    -94.8216E+06    -62.0809E+06    -94.6926E+06    -3.59178E+06    -614.619E+03
             589     46.1088E-03     7.10099E-03     45.5587E-03     238.042E-03    -118.439E-03    -119.590E-03    -118.232E-03     237.835E-03    -119.590E-03     16.8455E-03     288.209E-03     115.908E+06    -13.3205E+06    -68.5792E+06    -146.157E+06    -68.6074E+06    -146.129E+06    -13.3205E+06    -341.515E+03
             590     45.9702E-03     6.21360E-03     45.5483E-03     238.453E-03    -118.840E-03    -119.634E-03    -118.752E-03     238.366E-03    -119.634E-03     10.8114E-03     275.601E-03     143.425E+06    -24.0620E+06    -75.2633E+06    -185.896E+06    -75.2756E+06    -185.883E+06    -24.0620E+06     310.956E+03
             591     45.8536E-03     5.32551E-03     45.5433E-03     238.401E-03    -118.784E-03    -119.625E-03    -118.756E-03     238.373E-03    -119.625E-03     5.87081E-03     265.106E-03     173.522E+06    -36.2945E+06    -82.9196E+06    -228.243E+06    -82.9227E+06    -228.240E+06    -36.2945E+06     80.1916E+03
             592     45.7571E-03     4.43895E-03     45.5413E-03     238.472E-03    -118.769E-03    -119.719E-03    -118.764E-03     238.467E-03    -119.719E-03     1.86617E-03     256.748E-03     198.203E+06    -49.1923E+06    -90.5858E+06    -264.775E+06    -90.5869E+06    -264.774E+06    -49.1923E+06    -223.122E+03
             593     45.6832E-03     3.54938E-03     45.5451E-03     238.881E-03    -119.131E-03    -119.797E-03    -119.131E-03     238.881E-03    -119.797E-03    -277.682E-06     250.520E-03     206.573E+06    -65.7720E+06    -98.6134E+06    -286.736E+06    -98.6149E+06    -286.735E+06    -65.7720E+06    -226.866E+03
             594     45.6252E-03     2.66164E-03     45.5475E-03     239.417E-03    -119.536E-03    -119.920E-03    -119.758E-03     239.416E-03    -119.697E-03    -1.09914E-03     246.043E-03     207.751E+06    -86.7669E+06    -107.386E+06    -303.962E+06    -107.390E+06    -303.957E+06    -86.7669E+06    -13.2789E+03
             595     45.5865E-03     1.77634E-03     45.5519E-03     239.197E-03    -119.453E-03    -119.791E-03    -119.745E-03     239.195E-03    -119.496E-03    -1.68099E-03     242.542E-03     209.068E+06    -103.871E+06    -113.273E+06    -317.438E+06    -113.280E+06    -317.430E+06    -103.871E+06     44.6861E+03
             596     45.5641E-03     888.106E-06     45.5554E-03     238.739E-03    -119.223E-03    -119.542E-03    -119.437E-03     238.737E-03    -119.326E-03    -1.30555E-03     240.253E-03     209.220E+06    -113.650E+06    -116.451E+06    -324.246E+06    -116.469E+06    -324.228E+06    -113.650E+06    -1.00212E+06
             597     47.6610E-03     15.0976E-03     45.2065E-03     253.242E-03    -119.131E-03    -134.108E-03    -119.338E-03     238.734E-03    -119.394E-03     127.551E-03     412.855E-03     105.322E+06     101.457E+06     98.6435E+06    -5.23440E+06    -5.12702E+06      101.35E+06     98.6435E+06     508.254E+03
             598     47.1458E-03     14.2093E-03     44.9536E-03     257.099E-03    -119.429E-03    -137.631E-03    -119.355E-03     238.823E-03    -119.429E-03     161.042E-03     451.966E-03     108.352E+06     98.3723E+06     95.6495E+06    -11.3009E+06    -11.1520E+06     97.0245E+06     96.8485E+06     1.67914E+06
             599     46.7574E-03     13.3208E-03     44.8198E-03     247.786E-03    -119.466E-03    -128.472E-03    -117.158E-03     236.472E-03    -119.466E-03     127.971E-03     424.232E-03     112.696E+06     96.6623E+06     91.2519E+06    -18.6031E+06    -18.5176E+06     91.1664E+06     96.6623E+06     1.94149E+06
             600     46.3459E-03     12.4310E-03     44.6477E-03     246.070E-03    -119.417E-03    -126.815E-03    -116.324E-03     235.579E-03    -119.417E-03     122.175E-03     421.918E-03     115.921E+06     93.4041E+06     84.5086E+06    -26.6995E+06    -26.6768E+06       89.17E+06     88.7201E+06     911.446E+03
             601     45.9998E-03     11.5440E-03     44.5277E-03     240.465E-03    -119.191E-03    -121.475E-03    -115.455E-03     234.626E-03    -119.372E-03     90.2054E-03     395.382E-03     114.135E+06     87.7848E+06     67.4359E+06    -34.6304E+06    -34.6172E+06     87.7716E+06     67.4359E+06    -183.966E+03
             602     45.6993E-03     10.6545E-03     44.4399E-03     237.959E-03    -118.583E-03    -119.591E-03    -115.680E-03     234.846E-03    -119.382E-03     65.4456E-03     368.184E-03     110.147E+06     82.3817E+06     42.7651E+06    -41.7126E+06    -41.7022E+06     82.3713E+06     42.7651E+06    -307.513E+03
             603     45.4408E-03     9.76559E-03     44.3791E-03     237.324E-03    -117.974E-03    -119.415E-03    -116.437E-03     235.787E-03    -119.415E-03     45.8109E-03     342.592E-03     86.9542E+06     48.4238E+06     20.4257E+06    -48.2267E+06    -48.2204E+06     44.3713E+06     24.4720E+06    -75.5296E+03
             604     45.2196E-03     8.87829E-03     44.3394E-03     237.195E-03    -117.729E-03    -119.514E-03    -116.900E-03     236.366E-03    -119.514E-03     34.1307E-03     320.617E-03     64.5095E+06     9.30362E+06    -25.0331E+06    -58.5825E+06    -55.4035E+06    -28.2122E+06     9.30362E+06     19.0022E+03
             605     45.0249E-03     7.98907E-03     44.3104E-03     237.425E-03    -117.906E-03    -119.557E-03    -117.412E-03     236.931E-03    -119.557E-03     25.9765E-03     302.798E-03     82.0684E+06    -3.89797E+06    -62.3226E+06    -95.2286E+06    -62.5130E+06    -95.0382E+06    -3.89797E+06    -320.925E+03
             606     44.8550E-03     7.10058E-03     44.2894E-03     238.068E-03    -118.466E-03    -119.597E-03    -118.253E-03     237.856E-03    -119.597E-03     16.9295E-03     288.119E-03     116.202E+06    -14.1186E+06    -68.9730E+06    -147.220E+06    -68.9882E+06    -147.205E+06    -14.1186E+06    -787.357E+03
             607     44.7117E-03     6.21291E-03     44.2779E-03     238.442E-03    -118.842E-03    -119.645E-03    -118.762E-03     238.362E-03    -119.645E-03     10.3596E-03     275.699E-03     143.901E+06    -24.3781E+06    -76.0908E+06    -186.878E+06    -76.0982E+06    -186.871E+06    -24.3781E+06    -343.815E+03
             608     44.5927E-03     5.32670E-03     44.2734E-03     238.408E-03    -118.788E-03    -119.640E-03    -118.761E-03     238.380E-03    -119.640E-03     6.08794E-03     265.162E-03     172.733E+06    -35.4806E+06    -83.1826E+06    -226.922E+06    -83.1868E+06    -226.918E+06    -35.4806E+06     78.1805E+03
             609     44.4951E-03     4.43717E-03     44.2733E-03     238.644E-03    -118.948E-03    -119.722E-03    -118.958E-03     238.637E-03    -119.704E-03     2.73327E-03     256.898E-03     197.858E+06    -49.2301E+06    -91.3564E+06    -264.702E+06    -91.3589E+06    -264.699E+06    -49.2301E+06    -260.488E+03
             610     44.4181E-03     3.55071E-03     44.2760E-03     239.041E-03    -119.351E-03    -119.737E-03    -119.368E-03     239.040E-03    -119.720E-03    -60.2933E-06     250.643E-03     206.683E+06    -66.4267E+06    -100.092E+06    -287.816E+06    -100.097E+06    -287.811E+06    -66.4267E+06     259.052E+03
             611     44.3582E-03     2.66338E-03     44.2782E-03     238.921E-03    -119.248E-03    -119.713E-03    -119.304E-03     238.919E-03    -119.654E-03    -1.54625E-03     245.569E-03     207.839E+06    -86.0128E+06    -107.743E+06    -303.771E+06    -107.748E+06    -303.767E+06    -86.0128E+06     180.026E+03
             612     44.3183E-03     1.77417E-03     44.2828E-03     238.883E-03    -119.180E-03    -119.751E-03    -119.235E-03     238.880E-03    -119.693E-03    -1.82912E-03     242.229E-03       208.4E+06    -103.703E+06    -114.086E+06    -317.059E+06    -114.092E+06    -317.052E+06    -103.703E+06    -411.728E+03
             613     44.2970E-03     887.023E-06     44.2882E-03     239.448E-03    -119.515E-03    -119.963E-03    -119.751E-03     239.446E-03    -119.725E-03    -517.603E-06     240.922E-03     207.329E+06    -114.838E+06    -118.546E+06    -323.987E+06    -117.835E+06    -323.960E+06    -115.575E+06    -315.868E+03
             614     46.4618E-03     15.0980E-03     43.9403E-03     252.636E-03    -119.099E-03    -133.600E-03    -118.856E-03     238.204E-03    -119.411E-03     126.788E-03     412.236E-03     104.581E+06     100.466E+06     96.9372E+06    -5.82233E+06    -5.75964E+06     100.404E+06     96.9372E+06     326.909E+03
             615     45.9345E-03     14.2056E-03     43.6827E-03     256.704E-03    -119.462E-03    -137.215E-03    -119.017E-03     238.506E-03    -119.462E-03     160.477E-03     451.537E-03     107.796E+06     95.7969E+06     93.1957E+06    -13.2615E+06    -13.1116E+06     94.6234E+06     94.2193E+06     475.270E+03
             616     45.5378E-03     13.3199E-03     43.5462E-03     247.857E-03    -119.503E-03    -128.471E-03    -117.365E-03     236.751E-03    -119.503E-03     126.904E-03     425.013E-03     113.428E+06     97.2134E+06     92.7112E+06    -18.3607E+06    -18.2563E+06     92.6068E+06     97.2134E+06     558.051E+03
             617     45.1276E-03     12.4330E-03     43.3812E-03     246.162E-03    -119.428E-03    -126.928E-03    -116.468E-03     235.702E-03    -119.428E-03     122.283E-03     422.371E-03     115.874E+06     93.9762E+06     85.9779E+06    -25.6642E+06    -25.6600E+06     90.4934E+06     89.4565E+06     483.049E+03
             618     44.7707E-03     11.5426E-03     43.2572E-03     240.844E-03    -119.328E-03    -121.826E-03    -115.892E-03     234.910E-03    -119.328E-03     90.7775E-03     395.636E-03     113.266E+06     87.5065E+06     65.0815E+06    -34.6161E+06    -34.5968E+06     87.4871E+06     65.0815E+06     358.147E+03
             619     44.4671E-03     10.6555E-03     43.1715E-03     237.929E-03    -118.459E-03    -119.741E-03    -115.718E-03     234.786E-03    -119.339E-03     66.0334E-03     368.004E-03     109.816E+06     82.7774E+06     40.9290E+06    -41.6221E+06    -41.6045E+06     82.7598E+06     40.9290E+06     104.801E+03
             620     44.2015E-03     9.76686E-03     43.1090E-03     236.915E-03    -117.562E-03    -119.420E-03    -115.909E-03     235.262E-03    -119.420E-03     47.3519E-03     341.913E-03     87.1031E+06     47.7536E+06     19.7181E+06    -49.0505E+06    -49.0436E+06     43.6542E+06     23.8107E+06     63.8250E+03
             621     43.9779E-03     8.87639E-03     43.0728E-03     237.297E-03    -117.804E-03    -119.525E-03    -116.977E-03     236.470E-03    -119.525E-03     33.9392E-03     320.925E-03     65.0936E+06     9.55301E+06    -25.3058E+06    -58.7895E+06    -55.8804E+06    -28.2149E+06     9.55301E+06     394.856E+03
             622     43.7754E-03     7.98838E-03     43.0404E-03     237.730E-03    -118.198E-03    -119.557E-03    -117.729E-03     237.261E-03    -119.557E-03     25.3734E-03     303.117E-03     81.7572E+06    -3.05941E+06    -62.0584E+06    -93.8345E+06    -62.1745E+06    -93.7185E+06    -3.05941E+06     194.292E+03
             623     43.6022E-03     7.10214E-03     43.0199E-03     237.920E-03    -118.329E-03    -119.602E-03    -118.110E-03     237.701E-03    -119.602E-03     17.2169E-03     287.823E-03     115.629E+06    -14.4414E+06    -69.1802E+06    -146.833E+06    -69.1996E+06    -146.814E+06    -14.4414E+06    -575.991E+03
             624     43.4554E-03     6.21388E-03     43.0088E-03     238.047E-03    -118.419E-03    -119.694E-03    -118.330E-03     237.958E-03    -119.694E-03     10.9273E-03     275.360E-03     144.310E+06    -25.4333E+06    -76.7875E+06    -188.284E+06    -76.7937E+06    -188.278E+06    -25.4333E+06    -801.175E+03
             625     43.3330E-03     5.32434E-03     43.0047E-03     238.577E-03    -118.847E-03    -119.754E-03    -118.847E-03     238.547E-03    -119.724E-03     6.09143E-03     265.359E-03     172.720E+06    -35.8412E+06    -84.0631E+06    -227.456E+06    -84.0659E+06    -227.453E+06    -35.8412E+06    -305.184E+03
             626     43.2330E-03     4.43788E-03     43.0046E-03     239.107E-03    -119.329E-03    -119.803E-03    -119.370E-03     239.101E-03    -119.755E-03     2.61257E-03     257.293E-03     197.493E+06    -49.1455E+06    -92.3063E+06    -264.587E+06    -92.3124E+06    -264.581E+06    -49.1455E+06     241.829E+03
             627     43.1510E-03     3.55030E-03     43.0047E-03     239.065E-03    -119.384E-03    -119.741E-03    -119.401E-03     239.064E-03    -119.724E-03     173.320E-06     250.628E-03     206.219E+06    -66.9725E+06    -101.223E+06    -288.111E+06    -101.238E+06    -288.096E+06    -66.9725E+06     45.1306E+03
             628     43.0928E-03     2.66286E-03     43.0104E-03     238.807E-03    -119.178E-03    -119.672E-03    -119.176E-03     238.806E-03    -119.672E-03    -1.38099E-03     245.501E-03     206.714E+06    -86.2233E+06    -108.299E+06    -302.995E+06    -108.309E+06    -302.985E+06    -86.2233E+06    -55.8077E+03
             629     43.0507E-03     1.77506E-03     43.0141E-03     238.919E-03    -119.213E-03    -119.751E-03    -119.211E-03     238.916E-03    -119.751E-03    -1.92677E-03     242.261E-03     208.091E+06    -103.131E+06    -114.728E+06    -316.745E+06    -114.732E+06    -316.741E+06    -103.131E+06    -297.667E+03
             630     43.0266E-03     886.789E-06     43.0174E-03     239.556E-03    -119.432E-03    -120.151E-03    -119.932E-03     239.553E-03    -119.648E-03    -1.00045E-03     241.019E-03     206.325E+06    -116.352E+06    -122.157E+06    -325.506E+06    -121.435E+06    -325.491E+06    -117.089E+06     695.502E+03
             631     45.2622E-03     15.0978E-03     42.6700E-03     253.231E-03    -119.348E-03    -133.999E-03    -119.931E-03     239.212E-03    -119.397E-03     125.266E-03     413.180E-03     105.961E+06     101.419E+06     96.9894E+06    -6.68249E+06    -6.61135E+06     100.808E+06     97.5284E+06     921.134E+03
             632     44.7354E-03     14.2111E-03     42.4181E-03     256.106E-03    -119.414E-03    -136.749E-03    -118.852E-03     238.209E-03    -119.414E-03     159.510E-03     450.582E-03     107.622E+06     97.5432E+06     94.0312E+06    -11.7862E+06    -11.6992E+06     95.3548E+06     96.1326E+06    -53.0015E+03
             633     44.3217E-03     13.3195E-03     42.2730E-03     246.620E-03    -119.479E-03    -127.225E-03    -116.215E-03     235.610E-03    -119.479E-03     126.064E-03     423.612E-03     113.074E+06     95.7939E+06     91.4828E+06    -19.3656E+06    -19.2953E+06     91.4124E+06     95.7939E+06    -1.09435E+06
             634     43.9095E-03     12.4300E-03     42.1135E-03     245.926E-03    -119.430E-03    -126.658E-03    -116.349E-03     235.617E-03    -119.430E-03     121.448E-03     422.352E-03     116.306E+06     91.7302E+06     84.3823E+06    -28.0544E+06    -28.0326E+06     88.9598E+06     87.1310E+06    -438.064E+03
             635     43.5433E-03     11.5433E-03     41.9854E-03     240.661E-03    -119.038E-03    -121.948E-03    -115.708E-03     234.739E-03    -119.356E-03     90.5541E-03     395.375E-03     113.393E+06     87.3907E+06     65.2306E+06    -34.8040E+06    -34.7776E+06     87.3642E+06     65.2306E+06     131.386E+03
             636     43.2366E-03     10.6547E-03     41.9032E-03     237.414E-03    -118.095E-03    -119.602E-03    -115.167E-03     234.294E-03    -119.409E-03     65.8108E-03     367.753E-03     109.476E+06     82.7812E+06     40.5453E+06    -41.2867E+06    -41.2524E+06     82.7470E+06     40.5453E+06     315.002E+03
             637     42.9665E-03     9.76363E-03     41.8424E-03     237.316E-03    -117.892E-03    -119.494E-03    -116.164E-03     235.587E-03    -119.494E-03     48.6058E-03     342.132E-03     86.6497E+06     47.8094E+06     19.1476E+06    -48.5943E+06    -48.5796E+06     43.8080E+06     23.1344E+06     765.388E+03
             638     42.7325E-03     8.87802E-03     41.8001E-03     237.997E-03    -118.479E-03    -119.544E-03    -117.627E-03     237.145E-03    -119.544E-03     34.3676E-03     321.229E-03     64.9178E+06     9.52920E+06    -25.6031E+06    -58.3931E+06    -55.9030E+06    -28.0931E+06     9.52920E+06     550.545E+03
             639     42.5304E-03     7.99072E-03     41.7730E-03     237.715E-03    -118.148E-03    -119.570E-03    -117.685E-03     237.252E-03    -119.570E-03     25.4195E-03     302.870E-03     81.2623E+06    -2.27153E+06    -61.9731E+06    -92.2704E+06    -62.0397E+06    -92.2038E+06    -2.27153E+06     528.712E+03
             640     42.3496E-03     7.09997E-03     41.7502E-03     237.602E-03    -117.961E-03    -119.660E-03    -117.725E-03     237.366E-03    -119.660E-03     17.7942E-03     287.315E-03     115.029E+06    -14.3837E+06    -68.8541E+06    -145.992E+06    -68.8626E+06    -145.983E+06    -14.3837E+06    -69.9024E+03
             641     42.2017E-03     6.21191E-03     41.7420E-03     238.332E-03    -118.628E-03    -119.766E-03    -118.540E-03     238.244E-03    -119.766E-03     10.8121E-03     275.569E-03     144.782E+06    -25.7603E+06    -76.0663E+06    -188.878E+06    -76.0745E+06    -188.870E+06    -25.7603E+06    -928.242E+03
             642     42.0735E-03     5.32534E-03     41.7351E-03     238.941E-03    -119.143E-03    -119.785E-03    -119.147E-03     238.914E-03    -119.755E-03     5.75834E-03     265.664E-03     173.426E+06    -36.4568E+06    -84.1096E+06    -228.646E+06    -84.1147E+06    -228.641E+06    -36.4568E+06    -533.550E+03
             643     41.9696E-03     4.43796E-03     41.7343E-03     239.041E-03    -119.224E-03    -119.806E-03    -119.249E-03     239.036E-03    -119.776E-03     2.30836E-03     257.258E-03     197.609E+06    -49.1419E+06    -92.0327E+06    -264.612E+06    -92.0383E+06    -264.607E+06    -49.1419E+06     196.860E+03
             644     41.8880E-03     3.55021E-03     41.7373E-03     238.906E-03    -119.156E-03    -119.801E-03    -119.155E-03     238.905E-03    -119.801E-03     29.1165E-06     250.473E-03     206.991E+06    -65.9207E+06    -99.7991E+06    -287.696E+06    -99.8117E+06    -287.684E+06    -65.9207E+06    -84.2424E+03
             645     41.8257E-03     2.66209E-03     41.7409E-03     239.169E-03    -119.429E-03    -119.796E-03    -119.471E-03     239.167E-03    -119.751E-03    -1.64822E-03     245.864E-03     207.669E+06    -85.8994E+06    -108.843E+06    -304.032E+06    -108.851E+06    -304.024E+06    -85.8994E+06     35.7162E+03
             646     41.7844E-03     1.77503E-03     41.7467E-03     239.302E-03    -119.556E-03    -119.792E-03    -119.721E-03     239.300E-03    -119.624E-03    -1.75867E-03     242.635E-03     206.834E+06    -103.324E+06    -116.324E+06    -316.314E+06    -116.330E+06    -316.309E+06    -103.324E+06     831.102E+03
             647     41.7573E-03     888.134E-06     41.7478E-03     238.970E-03    -119.152E-03    -119.837E-03    -119.787E-03     238.969E-03    -119.201E-03    -773.971E-06     240.441E-03     205.235E+06    -116.159E+06    -122.361E+06    -324.412E+06    -121.576E+06    -324.384E+06    -116.972E+06    -42.8862E+03
             648     44.0671E-03     15.0988E-03     41.3997E-03     253.662E-03    -119.377E-03    -134.436E-03    -120.358E-03     239.585E-03    -119.377E-03     125.802E-03     413.833E-03     104.594E+06     101.858E+06     99.0139E+06    -4.12248E+06    -4.06244E+06     101.259E+06     99.5529E+06     167.053E+03
             649     43.5326E-03     14.2105E-03     41.1479E-03     256.335E-03    -119.365E-03    -137.109E-03    -119.126E-03     238.351E-03    -119.365E-03     160.074E-03     450.907E-03     106.761E+06     99.1347E+06     95.6071E+06    -9.33815E+06    -9.30102E+06     96.3232E+06     98.3814E+06    -32.3091E+03
             650     43.1193E-03     13.3216E-03     41.0099E-03     246.937E-03    -119.436E-03    -127.566E-03    -116.311E-03     235.682E-03    -119.436E-03     127.471E-03     423.125E-03     111.224E+06     96.2188E+06     90.4121E+06    -17.7853E+06    -17.6890E+06     90.3158E+06     96.2188E+06     604.539E+03
             651     42.6911E-03     12.4325E-03     40.8407E-03     245.396E-03    -119.427E-03    -126.113E-03    -115.765E-03     235.049E-03    -119.427E-03     121.258E-03     421.574E-03     114.975E+06     92.7408E+06     84.2321E+06    -26.2445E+06    -26.1641E+06     89.0891E+06     87.8034E+06     427.372E+03
             652     42.3233E-03     11.5432E-03     40.7188E-03     239.594E-03    -118.986E-03    -120.950E-03    -114.636E-03     233.683E-03    -119.389E-03     90.5737E-03     394.568E-03     113.194E+06     88.0774E+06     64.2626E+06    -34.3901E+06    -34.3560E+06     88.0433E+06     64.2626E+06    -99.5721E+03
             653     42.0088E-03     10.6522E-03     40.6359E-03     237.994E-03    -118.639E-03    -119.655E-03    -115.616E-03     234.776E-03    -119.461E-03     66.5886E-03     368.081E-03     109.745E+06     81.6991E+06     38.6456E+06    -42.9079E+06    -42.8698E+06     81.6610E+06     38.6456E+06     352.747E+03
             654     41.7314E-03     9.76551E-03     40.5727E-03     237.852E-03    -118.255E-03    -119.709E-03    -116.782E-03     236.185E-03    -119.514E-03     47.9231E-03     342.419E-03     86.9008E+06     46.9347E+06     19.8113E+06    -49.2329E+06    -49.2146E+06     43.9692E+06     22.7586E+06     803.595E+03
             655     41.4902E-03     8.87595E-03     40.5296E-03     237.578E-03    -118.037E-03    -119.557E-03    -117.186E-03     236.727E-03    -119.557E-03     34.3263E-03     320.622E-03     65.1122E+06     9.68034E+06    -23.6546E+06    -58.5855E+06    -54.7212E+06    -27.5189E+06     9.68034E+06     188.154E+03
             656     41.2832E-03     7.98814E-03     40.5030E-03     238.092E-03    -118.416E-03    -119.682E-03    -118.047E-03     237.647E-03    -119.605E-03     24.7699E-03     303.515E-03     81.3988E+06    -1.78878E+06    -60.9779E+06    -92.5070E+06    -61.1331E+06    -92.3517E+06    -1.78878E+06     60.3142E+03
             657     41.1021E-03     7.10101E-03     40.4840E-03     238.079E-03    -118.451E-03    -119.734E-03    -118.324E-03     237.875E-03    -119.658E-03     16.4841E-03     288.042E-03     114.814E+06    -13.1461E+06    -68.0063E+06    -144.548E+06    -68.0117E+06    -144.543E+06    -13.1461E+06     134.444E+03
             658     40.9439E-03     6.21307E-03     40.4698E-03     238.112E-03    -118.515E-03    -119.728E-03    -118.440E-03     238.037E-03    -119.728E-03     9.98731E-03     275.347E-03     144.605E+06    -25.2826E+06    -75.2139E+06    -188.108E+06    -75.2179E+06    -188.104E+06    -25.2826E+06    -483.100E+03
             659     40.8151E-03     5.32576E-03     40.4661E-03     238.530E-03    -118.835E-03    -119.739E-03    -118.809E-03     238.505E-03    -119.739E-03     5.77566E-03     265.319E-03     173.986E+06    -36.6593E+06    -83.1321E+06    -229.078E+06    -83.1386E+06    -229.071E+06    -36.6593E+06    -591.505E+03
             660     40.7077E-03     4.43732E-03     40.4651E-03     238.849E-03    -119.029E-03    -119.810E-03    -119.023E-03     238.843E-03    -119.810E-03     2.22958E-03     257.187E-03     198.116E+06    -49.8692E+06    -91.4107E+06    -265.403E+06    -91.4152E+06    -265.398E+06    -49.8692E+06    -462.935E+03
             661     40.6239E-03     3.54973E-03     40.4685E-03     239.025E-03    -119.195E-03    -119.853E-03    -119.195E-03     239.025E-03    -119.853E-03    -56.4710E-06     250.605E-03     207.385E+06    -66.3015E+06    -99.6761E+06    -288.305E+06    -99.6791E+06    -288.302E+06    -66.3015E+06     204.224E+03
             662     40.5597E-03     2.66265E-03     40.4722E-03     239.326E-03    -119.533E-03    -119.856E-03    -119.589E-03     239.324E-03    -119.798E-03    -1.25334E-03     245.958E-03     209.375E+06    -85.1623E+06    -107.399E+06    -304.684E+06    -107.402E+06    -304.681E+06    -85.1623E+06     773.885E+03
             663     40.5155E-03     1.77530E-03     40.4766E-03     239.467E-03    -119.642E-03    -119.872E-03    -119.870E-03     239.464E-03    -119.642E-03    -1.68579E-03     242.861E-03     207.711E+06    -103.188E+06    -113.239E+06    -315.678E+06    -113.246E+06    -315.671E+06    -103.188E+06     661.984E+03
             664     40.4897E-03     887.791E-06     40.4800E-03     239.009E-03    -119.340E-03    -119.683E-03    -119.615E-03     239.007E-03    -119.406E-03    -949.135E-06     240.567E-03     206.984E+06    -113.414E+06    -116.751E+06    -322.037E+06    -115.972E+06    -322.003E+06    -114.228E+06    -82.1143E+03
             665     42.8751E-03     15.0981E-03     40.1288E-03     252.812E-03    -119.351E-03    -133.527E-03    -119.406E-03     238.692E-03    -119.351E-03     125.494E-03     412.853E-03     105.931E+06     101.187E+06     97.2013E+06    -6.65176E+06    -6.56016E+06     101.095E+06     97.2013E+06    -1.63543E+06
             666     42.3334E-03     14.2093E-03     39.8774E-03     256.252E-03    -119.360E-03    -136.911E-03    -118.834E-03     238.175E-03    -119.360E-03     160.332E-03     450.883E-03     106.969E+06     96.7104E+06     92.4044E+06    -12.3393E+06    -12.2470E+06     93.7473E+06     95.2751E+06    -1.11910E+06
             667     41.9138E-03     13.3201E-03     39.7409E-03     247.846E-03    -119.448E-03    -128.422E-03    -116.856E-03     236.280E-03    -119.448E-03     129.406E-03     423.744E-03     110.965E+06     95.9565E+06     89.9307E+06    -17.8966E+06    -17.8140E+06     89.8480E+06     95.9565E+06     536.130E+03
             668     41.4775E-03     12.4327E-03     39.5704E-03     245.234E-03    -119.469E-03    -125.957E-03    -115.417E-03     234.694E-03    -119.469E-03     122.103E-03     421.416E-03     115.034E+06     93.8289E+06     86.1537E+06    -24.8429E+06    -24.7485E+06     90.5794E+06     89.3088E+06     1.11959E+06
             669     41.1084E-03     11.5400E-03     39.4554E-03     239.976E-03    -119.377E-03    -120.831E-03    -114.851E-03     234.081E-03    -119.462E-03     90.6382E-03     395.031E-03     112.565E+06     87.9176E+06     66.0050E+06    -33.3326E+06    -33.2907E+06     87.8757E+06     66.0050E+06     1.33591E+06
             670     40.7775E-03     10.6519E-03     39.3617E-03     238.941E-03    -119.113E-03    -120.014E-03    -116.417E-03     235.715E-03    -119.484E-03     66.6706E-03     368.550E-03     109.284E+06     82.0227E+06     40.1136E+06    -41.7491E+06    -41.7245E+06     81.9981E+06     40.1136E+06     1.20132E+06
             671     40.4972E-03     9.76558E-03     39.3021E-03     237.897E-03    -118.345E-03    -119.650E-03    -116.971E-03     236.329E-03    -119.455E-03     46.4202E-03     342.593E-03     87.0669E+06     48.1344E+06     20.6333E+06    -48.2481E+06    -48.2110E+06     45.1127E+06     23.6178E+06     111.071E+03
             672     40.2539E-03     8.87706E-03     39.2629E-03     237.345E-03    -117.843E-03    -119.497E-03    -117.042E-03     236.543E-03    -119.497E-03     33.4013E-03     320.514E-03     64.8984E+06     10.0657E+06    -22.7472E+06    -58.0298E+06    -54.2077E+06    -26.5694E+06     10.0657E+06    -299.177E+03
             673     40.0360E-03     7.98868E-03     39.2309E-03     237.944E-03    -118.376E-03    -119.630E-03    -118.025E-03     237.517E-03    -119.554E-03     24.1591E-03     303.555E-03     81.5978E+06    -2.67536E+06    -61.0467E+06    -93.7181E+06    -61.3382E+06    -93.4266E+06    -2.67536E+06    -260.363E+03
             674     39.8511E-03     7.10252E-03     39.2131E-03     238.185E-03    -118.685E-03    -119.684E-03    -118.565E-03     237.988E-03    -119.608E-03     16.4439E-03     288.472E-03     114.959E+06    -12.7311E+06    -67.8788E+06    -144.431E+06    -67.9110E+06    -144.399E+06    -12.7311E+06     356.562E+03
             675     39.6927E-03     6.21446E-03     39.2032E-03     237.834E-03    -118.333E-03    -119.677E-03    -118.245E-03     237.746E-03    -119.677E-03     10.8178E-03     275.176E-03     143.618E+06    -24.7104E+06    -74.9776E+06    -186.531E+06    -74.9929E+06    -186.516E+06    -24.7104E+06     568.354E+03
             676     39.5568E-03     5.32448E-03     39.1968E-03     238.070E-03    -118.434E-03    -119.732E-03    -118.406E-03     238.042E-03    -119.732E-03     5.92099E-03     264.931E-03     174.023E+06    -37.1726E+06    -82.6011E+06    -229.303E+06    -82.6042E+06    -229.300E+06    -37.1726E+06    -321.264E+03
             677     39.4470E-03     4.43753E-03     39.1966E-03     238.787E-03    -118.941E-03    -119.848E-03    -118.936E-03     238.782E-03    -119.848E-03     2.15963E-03     257.131E-03     199.022E+06    -50.1229E+06    -90.5785E+06    -266.221E+06     -90.582E+06    -266.217E+06    -50.1229E+06    -424.149E+03
             678     39.3605E-03     3.54982E-03     39.2001E-03     239.167E-03    -119.302E-03    -119.876E-03    -119.301E-03     239.167E-03    -119.876E-03    -159.687E-06     250.745E-03     207.862E+06    -66.6857E+06    -99.1303E+06    -288.810E+06    -99.1313E+06    -288.809E+06    -66.6857E+06    -37.7721E+03
             679     39.2930E-03     2.66176E-03     39.2028E-03     239.286E-03    -119.502E-03    -119.854E-03    -119.513E-03     239.285E-03    -119.841E-03    -1.21902E-03     245.893E-03     209.966E+06    -85.1465E+06    -106.169E+06    -304.754E+06    -106.172E+06    -304.752E+06    -85.1465E+06     87.7817E+03
             680     39.2472E-03     1.77461E-03     39.2070E-03     239.471E-03    -119.636E-03    -119.883E-03    -119.697E-03     239.469E-03    -119.820E-03    -1.80913E-03     242.805E-03     208.963E+06    -101.521E+06    -111.825E+06    -315.398E+06    -111.828E+06    -315.395E+06    -101.521E+06    -97.4216E+03
             681     39.2216E-03     887.505E-06     39.2116E-03     239.498E-03    -119.504E-03    -120.002E-03    -119.896E-03     239.496E-03    -119.608E-03    -1.54167E-03     241.003E-03     207.525E+06    -111.940E+06    -115.316E+06    -321.103E+06    -115.264E+06    -321.091E+06    -112.003E+06     142.780E+03
             682     41.6901E-03     15.0990E-03     38.8599E-03     252.321E-03    -119.162E-03    -133.140E-03    -118.916E-03     238.280E-03    -119.345E-03     125.005E-03     412.308E-03     105.840E+06     102.266E+06     96.2504E+06    -6.43748E+06    -6.35704E+06     102.186E+06     96.2504E+06    -1.47589E+06
             683     41.1426E-03     14.2077E-03     38.6116E-03     255.971E-03    -119.370E-03    -136.516E-03    -118.484E-03     237.939E-03    -119.370E-03     160.096E-03     450.441E-03     105.505E+06     95.4440E+06     89.4301E+06    -12.9159E+06    -12.7814E+06     91.5740E+06     93.1656E+06    -1.82616E+06
             684     40.7084E-03     13.3194E-03     38.4678E-03     246.960E-03    -119.497E-03    -127.539E-03    -116.155E-03     235.577E-03    -119.497E-03     128.183E-03     423.293E-03     110.342E+06     93.6210E+06     87.6301E+06    -19.5715E+06    -19.4959E+06     87.5545E+06     93.6210E+06    -1.01292E+06
             685     40.2724E-03     12.4284E-03     38.3066E-03     245.627E-03    -119.538E-03    -126.364E-03    -116.001E-03     235.264E-03    -119.538E-03     121.312E-03     421.930E-03     116.644E+06     92.5398E+06     86.1075E+06    -27.1720E+06    -27.1130E+06     90.2254E+06     88.3629E+06    -213.191E+03
             686     39.8891E-03     11.5425E-03     38.1826E-03     241.687E-03    -119.494E-03    -122.336E-03    -116.492E-03     235.844E-03    -119.494E-03     90.5351E-03     396.310E-03     114.257E+06     88.0031E+06     68.9956E+06    -34.1431E+06    -34.0898E+06     87.9498E+06     68.9956E+06     805.480E+03
             687     39.5564E-03     10.6550E-03     38.0944E-03     238.813E-03    -118.727E-03    -120.148E-03    -116.271E-03     235.661E-03    -119.451E-03     66.0601E-03     368.339E-03     109.912E+06     83.8205E+06     44.4629E+06    -39.9244E+06    -39.9037E+06     83.7999E+06     44.4629E+06     1.05635E+06
             688     39.2653E-03     9.76507E-03     38.0317E-03     237.469E-03    -118.108E-03    -119.392E-03    -116.538E-03     235.899E-03    -119.392E-03     46.2851E-03     342.251E-03     86.7026E+06     49.2186E+06     21.4787E+06    -46.8879E+06    -46.8132E+06      45.931E+06     24.6915E+06     582.536E+03
             689     39.0174E-03     8.87807E-03     37.9939E-03     237.624E-03    -118.185E-03    -119.436E-03    -117.373E-03     236.812E-03    -119.436E-03     33.7536E-03     320.840E-03     64.5079E+06     9.94410E+06    -23.1279E+06    -57.7310E+06    -54.1691E+06    -26.6899E+06     9.94410E+06     364.340E+03
             690     38.7941E-03     7.99016E-03     37.9623E-03     237.317E-03    -117.907E-03    -119.504E-03    -117.445E-03     236.855E-03    -119.504E-03     25.1376E-03     302.653E-03     81.6179E+06    -2.80365E+06    -60.5293E+06    -93.7801E+06    -60.7867E+06    -93.5226E+06    -2.80365E+06     116.994E+03
             691     38.6019E-03     7.09998E-03     37.9433E-03     237.588E-03    -118.147E-03    -119.634E-03    -117.940E-03     237.381E-03    -119.634E-03     16.7662E-03     287.870E-03     115.284E+06    -13.3753E+06    -67.6569E+06    -145.415E+06    -67.6992E+06    -145.373E+06    -13.3753E+06     593.766E+03
             692     38.4388E-03     6.21275E-03     37.9334E-03     238.232E-03    -118.655E-03    -119.731E-03    -118.565E-03     238.143E-03    -119.731E-03     11.0659E-03     275.680E-03     143.359E+06    -24.5696E+06    -74.8888E+06    -186.150E+06    -74.9111E+06    -186.127E+06    -24.5696E+06     1.04377E+06
             693     38.3003E-03     5.32640E-03     37.9281E-03     238.392E-03    -118.726E-03    -119.748E-03    -118.693E-03     238.359E-03    -119.748E-03     6.33870E-03     265.196E-03     173.482E+06    -36.7491E+06    -82.5114E+06    -228.412E+06    -82.5186E+06    -228.404E+06    -36.7491E+06     546.152E+03
             694     38.1867E-03     4.43699E-03     37.9281E-03     238.786E-03    -118.983E-03    -119.830E-03    -118.978E-03     238.781E-03    -119.830E-03     2.32665E-03     257.089E-03     198.678E+06    -50.9426E+06    -90.9698E+06    -266.534E+06    -90.9703E+06    -266.534E+06    -50.9426E+06    -78.5348E+03
             695     38.0954E-03     3.54963E-03     37.9296E-03     239.245E-03    -119.425E-03    -119.838E-03    -119.423E-03     239.244E-03    -119.838E-03    -473.329E-06     250.837E-03     207.758E+06    -66.5691E+06    -98.7437E+06    -288.500E+06    -98.7464E+06    -288.497E+06    -66.5691E+06    -558.673E+03
             696     38.0275E-03     2.66280E-03     37.9342E-03     239.181E-03    -119.439E-03    -119.803E-03    -119.436E-03     239.178E-03    -119.803E-03    -1.83521E-03     245.815E-03     210.182E+06    -83.7601E+06    -106.552E+06    -304.353E+06    -106.555E+06    -304.350E+06    -83.7601E+06    -557.220E+03
             697     37.9796E-03     1.77460E-03     37.9381E-03     239.214E-03    -119.386E-03    -119.873E-03    -119.382E-03     239.211E-03    -119.873E-03    -2.11898E-03     242.442E-03     209.097E+06    -100.739E+06    -113.385E+06    -315.819E+06    -113.394E+06    -315.810E+06    -100.739E+06    -719.742E+03
             698     37.9519E-03     887.033E-06     37.9416E-03     239.731E-03    -119.552E-03    -120.188E-03    -119.895E-03     239.729E-03    -119.844E-03    -1.29413E-03     241.128E-03     206.584E+06    -113.527E+06    -117.700E+06    -322.137E+06    -117.398E+06    -322.126E+06    -113.839E+06    -1.08548E+06
             699     40.5110E-03     15.0962E-03     37.5932E-03     252.704E-03    -118.924E-03    -133.760E-03    -119.206E-03     238.619E-03    -119.393E-03     125.707E-03     412.706E-03     105.987E+06     103.443E+06     97.6526E+06    -5.31217E+06    -5.28683E+06     103.418E+06     97.6526E+06    -670.631E+03
             700     39.9525E-03     14.2101E-03     37.3400E-03     256.331E-03    -119.390E-03    -136.843E-03    -118.880E-03     238.368E-03    -119.390E-03     159.860E-03     450.979E-03     106.805E+06     95.5788E+06     90.2309E+06    -13.7667E+06    -13.6779E+06     92.5371E+06     93.1837E+06    -844.922E+03
             701     39.5151E-03     13.3194E-03     37.2026E-03     246.688E-03    -119.504E-03    -127.304E-03    -116.165E-03     235.549E-03    -119.504E-03     126.778E-03     423.305E-03     111.973E+06     92.6983E+06     87.2454E+06    -21.8688E+06    -21.7356E+06     87.1122E+06     92.6983E+06    -1.45996E+06
             702     39.0659E-03     12.4296E-03     37.0358E-03     246.076E-03    -119.522E-03    -126.823E-03    -116.543E-03     235.796E-03    -119.522E-03     121.147E-03     421.749E-03     117.260E+06     91.8359E+06     85.2057E+06    -28.5847E+06    -28.5003E+06     89.2514E+06     87.7058E+06    -1.63092E+06
             703     38.6725E-03     11.5426E-03     36.9097E-03     241.812E-03    -119.448E-03    -122.467E-03    -116.624E-03     235.969E-03    -119.448E-03     90.4148E-03     396.361E-03     115.400E+06     87.2160E+06     68.0865E+06    -36.1316E+06    -36.0239E+06     87.1084E+06     68.0865E+06    -1.66963E+06
             704     38.3357E-03     10.6547E-03     36.8254E-03     238.531E-03    -118.735E-03    -119.834E-03    -116.044E-03     235.408E-03    -119.402E-03     65.8769E-03     368.220E-03     111.195E+06     82.5899E+06     44.0144E+06    -42.4043E+06    -42.3148E+06     82.5004E+06     44.0144E+06    -1.06460E+06
             705     38.0387E-03     9.76595E-03     36.7637E-03     237.164E-03    -117.819E-03    -119.356E-03    -116.187E-03     235.533E-03    -119.356E-03     47.1652E-03     341.672E-03     87.2172E+06     48.2804E+06     21.9117E+06    -48.0495E+06    -48.0001E+06     45.4384E+06     24.7042E+06     566.526E+03
             706     37.7802E-03     8.87694E-03     36.7226E-03     237.215E-03    -117.772E-03    -119.431E-03    -116.955E-03     236.397E-03    -119.431E-03     33.7246E-03     320.705E-03     65.0318E+06     9.75271E+06    -22.4855E+06    -58.7648E+06    -54.0849E+06    -27.1655E+06     9.75271E+06     993.775E+03
             707     37.5546E-03     7.98891E-03     36.6951E-03     237.319E-03    -117.872E-03    -119.524E-03    -117.418E-03     236.865E-03    -119.524E-03     25.0003E-03     302.858E-03     81.4647E+06    -2.70078E+06    -60.1113E+06    -93.9627E+06    -60.4186E+06    -93.6554E+06    -2.70078E+06     919.958E+03
             708     37.3557E-03     7.10124E-03     36.6746E-03     237.563E-03    -118.104E-03    -119.661E-03    -117.895E-03     237.354E-03    -119.661E-03     16.7278E-03     287.819E-03     115.296E+06    -13.5704E+06    -67.4213E+06    -145.504E+06    -67.4389E+06    -145.487E+06    -13.5704E+06     760.925E+03
             709     37.1864E-03     6.21281E-03     36.6637E-03     238.247E-03    -118.631E-03    -119.770E-03    -118.551E-03     238.167E-03    -119.770E-03     10.3628E-03     275.749E-03     143.577E+06    -24.4123E+06    -74.5277E+06    -186.229E+06    -74.5375E+06    -186.219E+06    -24.4123E+06     724.574E+03
             710     37.0439E-03     5.32413E-03     36.6593E-03     238.805E-03    -119.107E-03    -119.770E-03    -119.079E-03     238.777E-03    -119.770E-03     5.80951E-03     265.638E-03     173.700E+06    -35.5159E+06    -82.2569E+06    -227.694E+06    -82.2714E+06    -227.680E+06    -35.5159E+06     1.09902E+06
             711     36.9266E-03     4.43811E-03     36.6589E-03     238.995E-03    -119.222E-03    -119.787E-03    -119.217E-03     238.990E-03    -119.787E-03     2.16309E-03     257.295E-03     198.035E+06    -49.7213E+06    -90.7619E+06    -265.006E+06    -90.7694E+06    -264.999E+06    -49.7213E+06     664.527E+03
             712     36.8310E-03     3.55027E-03     36.6595E-03     238.950E-03    -119.168E-03    -119.787E-03    -119.167E-03     238.949E-03    -119.787E-03    -296.604E-06     250.520E-03     206.947E+06    -66.6159E+06    -99.4226E+06    -287.964E+06    -99.4248E+06    -287.962E+06    -66.6159E+06    -304.362E+03
             713     36.7618E-03     2.66250E-03     36.6652E-03     239.024E-03    -119.279E-03    -119.802E-03    -119.277E-03     239.022E-03    -119.802E-03    -1.41664E-03     245.631E-03     210.195E+06    -83.9485E+06    -107.155E+06    -304.728E+06    -107.167E+06    -304.717E+06    -83.9485E+06    -1.00590E+06
             714     36.7123E-03     1.77523E-03     36.6694E-03     239.255E-03    -119.410E-03    -119.887E-03    -119.408E-03     239.253E-03    -119.887E-03    -1.35870E-03     242.533E-03     209.036E+06    -101.381E+06    -113.263E+06    -316.038E+06    -113.282E+06    -316.019E+06    -101.381E+06    -997.821E+03
             715     36.6828E-03     887.007E-06     36.6721E-03     239.764E-03    -119.638E-03    -120.140E-03    -119.838E-03     239.763E-03    -119.938E-03    -946.984E-06     241.258E-03     207.334E+06    -115.351E+06    -118.980E+06    -324.465E+06    -118.314E+06    -324.455E+06    -116.026E+06    -613.891E+03
             716     39.3331E-03     15.0971E-03     36.3204E-03     252.650E-03    -118.989E-03    -133.661E-03    -119.013E-03     238.448E-03    -119.434E-03     125.992E-03     412.604E-03     106.980E+06     103.194E+06     97.2015E+06    -6.64417E+06    -6.61640E+06     103.167E+06     97.2015E+06    -148.794E+03
             717     38.7685E-03     14.2069E-03     36.0716E-03     256.696E-03    -119.435E-03    -137.226E-03    -119.204E-03     238.674E-03    -119.435E-03     160.009E-03     451.731E-03     107.612E+06     96.4485E+06     92.0029E+06    -13.3046E+06    -13.2040E+06     94.0637E+06     94.2872E+06    -658.406E+03
             718     38.3231E-03     13.3195E-03     35.9340E-03     247.994E-03    -119.505E-03    -128.680E-03    -117.503E-03     236.817E-03    -119.505E-03     127.388E-03     424.749E-03     112.570E+06     95.1976E+06     89.5783E+06    -20.0637E+06    -19.9142E+06     89.4288E+06     95.1976E+06    -1.17514E+06
             719     37.8653E-03     12.4326E-03     35.7661E-03     246.548E-03    -119.461E-03    -127.295E-03    -116.893E-03     236.146E-03    -119.461E-03     122.010E-03     421.841E-03     117.166E+06     92.6202E+06     84.8529E+06    -28.2323E+06    -28.1270E+06     89.1799E+06     88.1879E+06    -1.43197E+06
             720     37.4633E-03     11.5438E-03     35.6404E-03     240.991E-03    -119.344E-03    -121.679E-03    -115.829E-03     235.181E-03    -119.384E-03     89.8460E-03     395.738E-03     114.625E+06     86.0611E+06     65.2299E+06    -37.0173E+06    -36.9095E+06     85.9533E+06     65.2299E+06    -2.28281E+06
             721     37.1177E-03     10.6541E-03     35.5558E-03     238.173E-03    -118.759E-03    -119.434E-03    -115.780E-03     235.122E-03    -119.362E-03     65.0685E-03     368.271E-03     110.640E+06     80.2046E+06     39.8920E+06    -44.6607E+06    -44.5315E+06     80.0754E+06     39.8920E+06    -2.54736E+06
             722     36.8130E-03     9.76600E-03     35.4940E-03     237.031E-03    -117.698E-03    -119.339E-03    -116.072E-03     235.405E-03    -119.339E-03     47.1652E-03     341.657E-03     87.6270E+06     46.4643E+06     19.4909E+06    -50.4467E+06    -50.3926E+06     43.3506E+06     22.5505E+06    -1.23144E+06
             723     36.5488E-03     8.87787E-03     35.4542E-03     236.878E-03    -117.416E-03    -119.441E-03    -116.594E-03     236.055E-03    -119.441E-03     33.7463E-03     320.296E-03     65.1416E+06     8.87632E+06    -24.3735E+06    -59.2068E+06    -56.0976E+06    -27.4827E+06     8.87632E+06     535.098E+03
             724     36.3148E-03     7.98891E-03     35.4252E-03     237.382E-03    -117.916E-03    -119.550E-03    -117.468E-03     236.935E-03    -119.550E-03     24.8679E-03     302.968E-03     80.9782E+06    -3.91844E+06    -62.2976E+06    -93.9828E+06    -62.5616E+06    -93.7188E+06    -3.91844E+06     1.26591E+06
             725     36.1112E-03     7.10056E-03     35.4062E-03     237.910E-03    -118.457E-03    -119.663E-03    -118.241E-03     237.694E-03    -119.663E-03     17.1609E-03     288.192E-03     114.404E+06    -14.3551E+06    -68.9818E+06    -145.409E+06    -69.0022E+06    -145.388E+06    -14.3551E+06     751.830E+03
             726     35.9361E-03     6.21304E-03     35.3949E-03     238.338E-03    -118.770E-03    -119.735E-03    -118.689E-03     238.257E-03    -119.735E-03     10.3015E-03     275.804E-03     142.734E+06    -24.9775E+06    -75.6984E+06    -186.018E+06    -75.7103E+06    -186.006E+06    -24.9775E+06     743.848E+03
             727     35.7877E-03     5.32629E-03     35.3891E-03     238.542E-03    -118.880E-03    -119.738E-03    -118.857E-03     238.518E-03    -119.738E-03     5.51704E-03     265.376E-03     173.000E+06    -35.9399E+06    -83.0338E+06    -227.508E+06    -83.0502E+06    -227.492E+06    -35.9399E+06     1.10987E+06
             728     35.6654E-03     4.43775E-03     35.3883E-03     238.813E-03    -119.020E-03    -119.790E-03    -119.014E-03     238.807E-03    -119.790E-03     2.42843E-03     257.158E-03     197.226E+06    -49.1050E+06    -90.7558E+06    -263.776E+06    -90.7641E+06    -263.768E+06    -49.1050E+06     822.446E+03
             729     35.5702E-03     3.55020E-03     35.3926E-03     238.911E-03    -119.107E-03    -119.812E-03    -119.106E-03     238.910E-03    -119.812E-03     61.7031E-06     250.460E-03     205.750E+06    -66.8835E+06    -98.7814E+06    -286.644E+06    -98.7864E+06    -286.639E+06    -66.8835E+06    -221.732E+03
             730     35.4951E-03     2.66185E-03     35.3951E-03     239.068E-03    -119.299E-03    -119.844E-03    -119.297E-03     239.066E-03    -119.844E-03    -1.49912E-03     245.650E-03     210.068E+06    -85.4319E+06    -106.114E+06    -305.017E+06    -106.127E+06    -305.003E+06    -85.4319E+06    -1.22267E+06
             731     35.4448E-03     1.77391E-03     35.4004E-03     239.514E-03    -119.640E-03    -119.915E-03    -119.666E-03     239.511E-03    -119.887E-03    -1.66142E-03     242.874E-03     210.673E+06    -101.932E+06    -112.755E+06    -317.774E+06    -112.767E+06    -317.762E+06    -101.932E+06    -611.241E+03
             732     35.4129E-03     887.416E-06     35.4018E-03     239.664E-03    -119.472E-03    -120.199E-03    -120.151E-03     239.663E-03    -119.519E-03    -857.646E-06     241.213E-03     209.192E+06    -113.748E+06    -118.076E+06    -325.063E+06    -117.665E+06    -325.048E+06    -114.174E+06     818.919E+03
             733     38.1690E-03     15.0968E-03     35.0566E-03     252.655E-03    -118.985E-03    -133.721E-03    -118.968E-03     238.367E-03    -119.450E-03     125.678E-03     412.375E-03     106.724E+06     103.672E+06     97.7543E+06    -5.88181E+06    -5.85493E+06     103.646E+06     97.7543E+06     284.785E+03
             734     37.5885E-03     14.2069E-03     34.8003E-03     256.786E-03    -119.450E-03    -137.367E-03    -119.354E-03     238.773E-03    -119.450E-03     159.623E-03     451.658E-03     107.284E+06     98.1598E+06     93.0703E+06    -11.5720E+06    -11.4929E+06     95.4351E+06     95.7159E+06    -1.10365E+06
             735     37.1336E-03     13.3192E-03     34.6627E-03     248.201E-03    -119.503E-03    -128.879E-03    -117.798E-03     237.121E-03    -119.503E-03     126.805E-03     425.192E-03     111.906E+06     96.2074E+06     89.5838E+06    -18.8516E+06    -18.7295E+06     89.4616E+06     96.2074E+06    -1.60079E+06
             736     36.6666E-03     12.4317E-03     34.4949E-03     246.601E-03    -119.447E-03    -127.350E-03    -116.904E-03     236.155E-03    -119.447E-03     122.248E-03     422.376E-03     116.413E+06     93.3421E+06     85.1785E+06    -26.9357E+06    -26.8243E+06     89.2526E+06     89.1566E+06    -658.375E+03
             737     36.2597E-03     11.5441E-03     34.3730E-03     240.891E-03    -119.328E-03    -121.631E-03    -115.694E-03     234.995E-03    -119.368E-03     90.6486E-03     395.453E-03     113.941E+06     87.4101E+06     66.5138E+06    -34.9482E+06    -34.8961E+06     87.3581E+06     66.5138E+06    -480.753E+03
             738     35.9052E-03     10.6553E-03     34.2877E-03     238.108E-03    -118.690E-03    -119.439E-03    -115.632E-03     234.960E-03    -119.349E-03     65.9452E-03     367.939E-03     109.524E+06     80.6088E+06     38.5226E+06    -43.3496E+06    -43.2887E+06     80.5480E+06     38.5226E+06    -1.09710E+06
             739     35.5935E-03     9.76612E-03     34.2275E-03     237.056E-03    -117.706E-03    -119.337E-03    -116.073E-03     235.423E-03    -119.337E-03     47.2891E-03     341.757E-03     86.3746E+06     44.5582E+06     15.1279E+06    -51.6444E+06    -51.5552E+06     40.4140E+06     19.1828E+06    -1.43010E+06
             740     35.3199E-03     8.87689E-03     34.1862E-03     236.974E-03    -117.510E-03    -119.445E-03    -116.676E-03     236.139E-03    -119.445E-03     33.9997E-03     320.234E-03     64.4695E+06     7.23293E+06    -28.1316E+06    -59.6919E+06    -58.3637E+06    -29.4597E+06     7.23293E+06    -641.861E+03
             741     35.0789E-03     7.98867E-03     34.1572E-03     237.436E-03    -118.002E-03    -119.541E-03    -117.553E-03     236.988E-03    -119.541E-03     24.8783E-03     302.919E-03     80.4413E+06    -4.19329E+06    -64.1726E+06    -92.7502E+06    -64.1973E+06    -92.7255E+06    -4.19329E+06     200.983E+03
             742     34.8680E-03     7.10082E-03     34.1373E-03     237.907E-03    -118.481E-03    -119.644E-03    -118.270E-03     237.696E-03    -119.644E-03     16.9633E-03     288.125E-03     113.181E+06    -15.6869E+06    -70.6314E+06    -145.364E+06    -70.6626E+06    -145.333E+06    -15.6869E+06     579.128E+03
             743     34.6860E-03     6.21345E-03     34.1250E-03     238.174E-03    -118.621E-03    -119.727E-03    -118.535E-03     238.088E-03    -119.727E-03     10.7591E-03     275.553E-03     142.085E+06    -26.3932E+06    -76.9450E+06    -186.708E+06    -76.9689E+06    -186.684E+06    -26.3932E+06     445.522E+03
             744     34.5347E-03     5.32518E-03     34.1216E-03     238.417E-03    -118.756E-03    -119.753E-03    -118.726E-03     238.387E-03    -119.753E-03     6.22222E-03     265.247E-03     171.853E+06    -36.9332E+06    -83.4500E+06    -227.147E+06    -83.4687E+06    -227.128E+06    -36.9332E+06     433.439E+03
             745     34.4077E-03     4.43708E-03     34.1204E-03     238.818E-03    -119.009E-03    -119.826E-03    -119.002E-03     238.811E-03    -119.826E-03     2.32749E-03     257.181E-03     195.530E+06    -50.7360E+06    -90.8336E+06    -263.138E+06    -90.8464E+06    -263.125E+06    -50.7360E+06    -82.8207E+03
             746     34.3069E-03     3.54945E-03     34.1228E-03     239.232E-03    -119.343E-03    -119.911E-03    -119.430E-03     239.231E-03    -119.823E-03    -481.363E-06     250.833E-03     204.712E+06    -67.4810E+06    -98.3562E+06    -285.819E+06    -98.3704E+06    -285.805E+06    -67.4810E+06    -730.674E+03
             747     34.2317E-03     2.66264E-03     34.1279E-03     239.372E-03    -119.556E-03    -119.888E-03    -119.713E-03     239.368E-03    -119.728E-03    -2.09973E-03     245.973E-03     209.710E+06    -85.8873E+06    -106.174E+06    -304.936E+06    -106.179E+06    -304.932E+06    -85.8873E+06    -290.668E+03
             748     34.1762E-03     1.77559E-03     34.1301E-03     239.200E-03    -119.506E-03    -119.737E-03    -119.604E-03     239.196E-03    -119.635E-03    -2.30445E-03     242.579E-03     211.168E+06    -103.019E+06    -112.838E+06    -318.885E+06    -112.839E+06    -318.884E+06    -103.019E+06     65.6609E+03
             749     34.1457E-03     887.581E-06     34.1341E-03     239.091E-03    -119.146E-03    -119.956E-03    -119.623E-03     239.089E-03    -119.478E-03    -722.601E-06     240.612E-03     210.428E+06    -113.476E+06    -117.256E+06    -325.765E+06    -116.742E+06    -325.751E+06    -114.005E+06     777.427E+03
             750     37.0070E-03     15.0966E-03     33.7878E-03     253.108E-03    -118.995E-03    -134.157E-03    -119.536E-03     238.917E-03    -119.426E-03     125.334E-03     412.841E-03     107.374E+06     104.476E+06     98.7094E+06    -5.66349E+06    -5.63151E+06     104.444E+06     98.7094E+06    -236.171E+03
             751     36.4155E-03     14.2091E-03     33.5290E-03     256.674E-03    -119.398E-03    -137.272E-03    -119.249E-03     238.651E-03    -119.398E-03     159.938E-03     451.174E-03     108.857E+06     97.8246E+06     93.3308E+06    -13.2050E+06    -13.1721E+06     96.0204E+06     95.1020E+06    -670.441E+03
             752     35.9513E-03     13.3206E-03     33.3924E-03     247.473E-03    -119.477E-03    -128.060E-03    -116.796E-03     236.208E-03    -119.477E-03     127.563E-03     424.086E-03     112.600E+06     94.2978E+06     88.5546E+06    -21.0481E+06    -20.9800E+06     88.4865E+06     94.2978E+06    -1.40399E+06
             753     35.4742E-03     12.4318E-03     33.2245E-03     246.170E-03    -119.480E-03    -126.874E-03    -116.357E-03     235.653E-03    -119.480E-03     122.412E-03     422.269E-03     116.613E+06     91.8984E+06     83.7733E+06    -28.5628E+06    -28.4302E+06     87.7939E+06     87.7452E+06    -1.45552E+06
             754     35.0572E-03     11.5423E-03     33.1026E-03     240.886E-03    -119.442E-03    -121.541E-03    -115.602E-03     234.947E-03    -119.442E-03     91.0842E-03     395.699E-03     114.480E+06     87.2256E+06     67.3287E+06    -35.4015E+06    -35.3117E+06     87.1358E+06     67.3287E+06    -607.915E+03
             755     34.6928E-03     10.6534E-03     33.0166E-03     238.611E-03    -119.056E-03    -119.571E-03    -115.975E-03     235.385E-03    -119.425E-03     66.7953E-03     368.211E-03      109.71E+06     81.0574E+06     40.3593E+06    -42.7720E+06    -42.7564E+06     81.0418E+06     40.3593E+06     393.651E+03
             756     34.3729E-03     9.76567E-03     32.9565E-03     237.556E-03    -118.162E-03    -119.374E-03    -116.538E-03     235.932E-03    -119.374E-03     47.1190E-03     342.230E-03     85.7816E+06     44.9005E+06     16.0914E+06    -50.5629E+06    -50.5084E+06     40.9913E+06     19.9461E+06     176.195E+03
             757     34.0913E-03     8.87767E-03     32.9151E-03     237.196E-03    -117.739E-03    -119.445E-03    -116.913E-03     236.369E-03    -119.445E-03     33.9279E-03     320.447E-03     63.9531E+06     7.03896E+06    -27.3425E+06    -59.8908E+06    -57.3299E+06    -29.9034E+06     7.03896E+06    -888.586E+03
             758     33.8427E-03     7.98916E-03     32.8862E-03     237.534E-03    -118.128E-03    -119.527E-03    -117.659E-03     237.064E-03    -119.527E-03     25.4514E-03     302.823E-03     80.7234E+06    -4.11933E+06    -63.4600E+06    -93.6024E+06    -63.6940E+06    -93.3684E+06    -4.11933E+06    -862.375E+03
             759     33.6234E-03     7.10154E-03     32.8649E-03     237.817E-03    -118.411E-03    -119.635E-03    -118.195E-03     237.600E-03    -119.635E-03     17.0429E-03     287.890E-03     113.598E+06    -14.7246E+06    -69.3003E+06    -144.774E+06    -69.3342E+06    -144.741E+06    -14.7246E+06    -433.539E+03
             760     33.4384E-03     6.21250E-03     32.8562E-03     238.051E-03    -118.485E-03    -119.730E-03    -118.406E-03     237.972E-03    -119.730E-03     10.2346E-03     275.447E-03     142.593E+06    -26.4764E+06    -75.4094E+06    -186.942E+06    -75.4455E+06    -186.906E+06    -26.4764E+06    -441.296E+03
             761     33.2775E-03     5.32436E-03     32.8488E-03     238.570E-03    -118.891E-03    -119.750E-03    -118.867E-03     238.546E-03    -119.750E-03     5.28690E-03     265.455E-03     171.743E+06    -38.0762E+06    -82.5616E+06    -227.592E+06    -82.5836E+06    -227.570E+06    -38.0762E+06    -484.244E+03
             762     33.1471E-03     4.43810E-03     32.8486E-03     238.974E-03    -119.194E-03    -119.798E-03    -119.191E-03     238.970E-03    -119.798E-03     1.79620E-03     257.364E-03     194.704E+06    -51.1096E+06    -90.4626E+06    -262.433E+06    -90.4961E+06    -262.400E+06    -51.1096E+06    -219.086E+03
             763     33.0417E-03     3.55021E-03     32.8504E-03     239.114E-03    -119.270E-03    -119.872E-03    -119.356E-03     239.113E-03    -119.785E-03    -209.363E-06     250.700E-03     204.774E+06    -67.1921E+06     -99.024E+06    -285.969E+06    -99.0448E+06    -285.949E+06    -67.1921E+06     283.939E+03
             764     32.9616E-03     2.66304E-03     32.8539E-03     239.250E-03    -119.449E-03    -119.863E-03    -119.608E-03     239.248E-03    -119.702E-03    -1.31029E-03     245.796E-03     210.095E+06    -85.4350E+06    -106.646E+06    -305.253E+06    -106.647E+06    -305.252E+06    -85.4350E+06     441.280E+03
             765     32.9086E-03     1.77569E-03     32.8607E-03     239.217E-03    -119.480E-03    -119.778E-03    -119.681E-03     239.215E-03    -119.575E-03    -1.41547E-03     242.460E-03     211.001E+06    -102.622E+06    -112.413E+06    -318.303E+06    -112.415E+06    -318.301E+06    -102.622E+06     276.081E+03
             766     32.8736E-03     887.829E-06     32.8616E-03     238.889E-03    -119.125E-03    -119.778E-03    -119.445E-03     238.888E-03    -119.457E-03    -797.852E-06     240.301E-03     210.268E+06    -114.068E+06    -117.405E+06    -325.980E+06    -116.882E+06    -325.974E+06    -114.597E+06     399.067E+03
             767     35.8481E-03     15.0981E-03     32.5136E-03     253.033E-03    -119.247E-03    -133.880E-03    -119.637E-03     238.915E-03    -119.371E-03     125.319E-03     412.915E-03     109.227E+06     105.426E+06     98.7158E+06    -6.99991E+06    -6.95597E+06     105.382E+06     98.7158E+06     146.002E+03
             768     35.2541E-03     14.2093E-03     32.2637E-03     256.064E-03    -119.352E-03    -136.727E-03    -118.709E-03     238.046E-03    -119.352E-03     159.917E-03     450.478E-03     109.606E+06     98.1533E+06     93.6616E+06    -13.6163E+06    -13.5804E+06     96.7943E+06     94.9848E+06    -364.572E+03
             769     34.7746E-03     13.3184E-03     32.1230E-03     247.002E-03    -119.476E-03    -127.567E-03    -116.186E-03     235.621E-03    -119.476E-03     128.096E-03     423.141E-03     112.859E+06     93.6999E+06     88.9300E+06    -21.4540E+06    -21.4084E+06     88.8843E+06     93.6999E+06    -752.037E+03
             770     34.2881E-03     12.4299E-03     31.9557E-03     245.721E-03    -119.518E-03    -126.371E-03    -115.878E-03     235.227E-03    -119.518E-03     122.059E-03     421.912E-03     116.564E+06     90.3637E+06     82.6283E+06    -29.8733E+06    -29.7860E+06     86.8296E+06     86.0750E+06    -1.89749E+06
             771     33.8617E-03     11.5417E-03     31.8341E-03     240.935E-03    -119.501E-03    -121.504E-03    -115.655E-03     235.086E-03    -119.501E-03     90.3395E-03     396.015E-03     114.975E+06     84.7806E+06     65.1955E+06    -38.2914E+06    -38.1944E+06     84.6837E+06     65.1955E+06    -2.01949E+06
             772     33.4877E-03     10.6530E-03     31.7481E-03     238.740E-03    -119.033E-03    -119.720E-03    -116.094E-03     235.573E-03    -119.492E-03     66.2627E-03     368.430E-03     110.681E+06     79.9098E+06     40.5990E+06    -44.7037E+06    -44.6687E+06     79.8748E+06     40.5990E+06    -634.852E+03
             773     33.1567E-03     9.76517E-03     31.6861E-03     237.778E-03    -118.338E-03    -119.427E-03    -116.716E-03     236.156E-03    -119.427E-03     47.1367E-03     342.617E-03     86.1969E+06     45.9863E+06     18.8710E+06    -49.5090E+06    -49.4533E+06     42.8295E+06     21.9719E+06    -346.427E+03
             774     32.8718E-03     8.87724E-03     31.6504E-03     237.734E-03    -118.260E-03    -119.459E-03    -117.422E-03     236.896E-03    -119.459E-03     34.2418E-03     321.071E-03     63.6905E+06     7.35563E+06    -24.7993E+06    -59.8980E+06    -55.3403E+06    -29.3570E+06     7.35563E+06    -593.010E+03
             775     32.6096E-03     7.98867E-03     31.6159E-03     237.693E-03    -118.274E-03    -119.518E-03    -117.806E-03     237.226E-03    -119.518E-03     25.3032E-03     302.956E-03     80.4659E+06    -4.10681E+06    -61.4657E+06    -94.2351E+06    -61.7889E+06    -93.9120E+06    -4.10681E+06    -805.228E+03
             776     32.3850E-03     7.10048E-03     31.5971E-03     237.796E-03    -118.363E-03    -119.622E-03    -118.159E-03     237.592E-03    -119.622E-03     16.5365E-03     287.872E-03     114.190E+06    -14.6350E+06    -68.6741E+06    -145.317E+06    -68.7224E+06    -145.269E+06    -14.6350E+06    -979.101E+03
             777     32.1919E-03     6.21385E-03     31.5865E-03     238.192E-03    -118.652E-03    -119.691E-03    -118.573E-03     238.113E-03    -119.691E-03     10.2617E-03     275.538E-03     141.680E+06    -27.8164E+06    -76.3392E+06    -187.245E+06    -76.3627E+06    -187.221E+06    -27.8164E+06    -243.307E+03
             778     32.0284E-03     5.32680E-03     31.5823E-03     238.430E-03    -118.818E-03    -119.695E-03    -118.791E-03     238.403E-03    -119.695E-03     5.65508E-03     265.240E-03     170.206E+06    -39.4697E+06    -84.0120E+06    -227.431E+06    -84.0289E+06    -227.414E+06    -39.4697E+06     2.03498E+03
             779     31.8919E-03     4.43717E-03     31.5817E-03     238.710E-03    -118.957E-03    -119.768E-03    -118.953E-03     238.705E-03    -119.768E-03     2.20594E-03     257.058E-03     194.520E+06    -51.7698E+06    -91.5052E+06    -263.024E+06    -91.5356E+06    -262.994E+06    -51.7698E+06     38.0959E+03
             780     31.7831E-03     3.55038E-03     31.5842E-03     238.878E-03    -119.066E-03    -119.814E-03    -119.066E-03     238.878E-03    -119.814E-03     187.602E-06     250.418E-03     205.454E+06    -66.7131E+06    -98.6944E+06    -286.235E+06    -98.7114E+06    -286.218E+06    -66.7131E+06     553.634E+03
             781     31.7003E-03     2.66151E-03     31.5883E-03     239.131E-03    -119.337E-03    -119.848E-03    -119.336E-03     239.130E-03    -119.848E-03    -1.09910E-03     245.713E-03     210.869E+06    -83.9380E+06    -106.023E+06    -304.914E+06    -106.027E+06    -304.911E+06    -83.9380E+06     200.971E+03
             782     31.6422E-03     1.77412E-03     31.5924E-03     239.579E-03    -119.659E-03    -119.963E-03    -119.785E-03     239.576E-03    -119.834E-03    -1.70680E-03     242.797E-03     211.425E+06    -101.218E+06    -113.494E+06    -318.478E+06    -113.502E+06    -318.470E+06    -101.218E+06     240.071E+03
             783     31.6104E-03     887.871E-06     31.5979E-03     239.429E-03    -119.198E-03    -120.244E-03    -120.221E-03     239.427E-03    -119.218E-03    -1.03676E-03     240.799E-03     208.645E+06    -113.844E+06    -118.615E+06    -324.803E+06    -118.640E+06    -324.778E+06    -113.844E+06    -95.5685E+03
             784     34.7042E-03     15.0988E-03     31.2475E-03     252.843E-03    -119.232E-03    -133.694E-03    -119.331E-03     238.611E-03    -119.363E-03     125.654E-03     412.642E-03     108.919E+06     104.953E+06     99.1580E+06    -6.73780E+06    -6.62881E+06     104.844E+06     99.1580E+06     935.718E+03
             785     34.0958E-03     14.2086E-03     30.9942E-03     256.184E-03    -119.357E-03    -136.775E-03    -118.647E-03     238.057E-03    -119.357E-03     160.298E-03     450.374E-03     109.743E+06     99.8817E+06     95.7632E+06    -11.8495E+06    -11.7704E+06     98.6947E+06     96.8710E+06     1.07696E+06
             786     33.6100E-03     13.3209E-03     30.8575E-03     247.118E-03    -119.482E-03    -127.674E-03    -116.358E-03     235.801E-03    -119.482E-03     127.797E-03     423.250E-03     112.674E+06     95.7437E+06     90.8324E+06    -19.2824E+06    -19.2539E+06     90.8040E+06     95.7437E+06    -361.983E+03
             787     33.1096E-03     12.4304E-03     30.6876E-03     245.518E-03    -119.511E-03    -126.192E-03    -115.789E-03     235.115E-03    -119.511E-03     121.490E-03     421.549E-03     115.299E+06     90.8096E+06     82.2343E+06    -28.5334E+06    -28.5068E+06     86.9796E+06     86.0378E+06    -965.036E+03
             788     32.6731E-03     11.5412E-03     30.5669E-03     240.759E-03    -119.446E-03    -121.404E-03    -115.616E-03     234.970E-03    -119.446E-03     89.8257E-03     395.497E-03     113.859E+06     85.2589E+06     63.9136E+06    -37.2326E+06    -37.1987E+06      85.225E+06     63.9136E+06    -1.41973E+06
             789     32.2879E-03     10.6538E-03     30.4796E-03     238.387E-03    -118.750E-03    -119.678E-03    -115.883E-03     235.285E-03    -119.443E-03     65.4905E-03     368.241E-03     109.974E+06     79.5606E+06     38.3365E+06    -44.7288E+06    -44.6157E+06     79.4476E+06     38.3365E+06    -2.61132E+06
             790     31.9484E-03     9.76391E-03     30.4199E-03     237.625E-03    -118.183E-03    -119.431E-03    -116.592E-03     236.034E-03    -119.431E-03     46.7279E-03     342.456E-03     86.1809E+06     45.0116E+06     16.9526E+06    -50.6579E+06    -50.5324E+06     41.4778E+06     20.3609E+06    -2.54052E+06
             791     31.6488E-03     8.87617E-03     30.3786E-03     237.959E-03    -118.484E-03    -119.462E-03    -117.672E-03     237.147E-03    -119.462E-03     33.6271E-03     321.275E-03     63.7550E+06     7.02542E+06    -25.1229E+06    -60.5058E+06    -55.8094E+06    -29.8193E+06     7.02542E+06    -1.38786E+06
             792     31.3856E-03     7.99046E-03     30.3515E-03     237.780E-03    -118.393E-03    -119.504E-03    -117.947E-03     237.334E-03    -119.504E-03     24.8606E-03     303.187E-03     79.7210E+06    -5.10135E+06    -60.9693E+06    -94.4755E+06    -61.3741E+06    -94.0707E+06    -5.10135E+06    -589.612E+03
             793     31.1509E-03     7.10205E-03     30.3305E-03     237.695E-03    -118.256E-03    -119.622E-03    -118.039E-03     237.477E-03    -119.622E-03     17.1025E-03     287.701E-03     116.324E+06    -14.4012E+06    -67.8458E+06    -147.402E+06    -67.8906E+06    -147.357E+06    -14.4012E+06     326.503E+03
             794     30.9510E-03     6.21314E-03     30.3210E-03     238.061E-03    -118.497E-03    -119.717E-03    -118.410E-03     237.974E-03    -119.717E-03     10.8195E-03     275.369E-03     143.392E+06    -26.1011E+06    -75.9615E+06    -187.681E+06    -75.9801E+06    -187.662E+06    -26.1011E+06     1.09723E+06
             795     30.7786E-03     5.32425E-03     30.3146E-03     238.395E-03    -118.771E-03    -119.731E-03    -118.740E-03     238.364E-03    -119.731E-03     6.11505E-03     265.126E-03     169.663E+06    -38.2581E+06    -83.7032E+06    -225.897E+06    -83.7324E+06    -225.868E+06    -38.2581E+06     351.780E+03
             796     30.6380E-03     4.43843E-03     30.3148E-03     238.777E-03    -119.004E-03    -119.809E-03    -118.999E-03     238.772E-03    -119.809E-03     2.41889E-03     257.092E-03     195.736E+06    -50.8728E+06    -90.7759E+06    -263.418E+06    -90.7988E+06    -263.396E+06    -50.8728E+06    -330.505E+03
             797     30.5239E-03     3.54902E-03     30.3169E-03     239.075E-03    -119.250E-03    -119.827E-03    -119.249E-03     239.074E-03    -119.827E-03    -323.389E-06     250.660E-03     205.236E+06    -66.9652E+06    -98.9373E+06    -286.269E+06    -98.9521E+06    -286.254E+06    -66.9652E+06    -381.670E+03
             798     30.4363E-03     2.66261E-03     30.3196E-03     239.137E-03    -119.352E-03    -119.836E-03    -119.349E-03     239.135E-03    -119.836E-03    -1.82080E-03     245.766E-03     210.295E+06    -84.3555E+06    -106.943E+06    -304.975E+06    -106.956E+06    -304.962E+06    -84.3555E+06    -97.4242E+03
             799     30.3766E-03     1.77497E-03     30.3247E-03     239.291E-03    -119.394E-03    -119.950E-03    -119.391E-03     239.288E-03    -119.950E-03    -2.01705E-03     242.521E-03     211.336E+06    -101.090E+06    -113.630E+06    -318.369E+06    -113.643E+06    -318.356E+06    -101.090E+06     386.543E+03
             800     30.3407E-03     886.707E-06     30.3277E-03     239.914E-03    -119.285E-03    -120.644E-03    -119.988E-03     239.912E-03    -119.939E-03    -582.425E-06     241.318E-03     208.243E+06    -113.744E+06    -118.390E+06    -324.242E+06    -117.837E+06    -324.219E+06    -114.321E+06    -850.568E+03
             801     33.5648E-03     15.0970E-03     29.9780E-03     252.765E-03    -119.003E-03    -133.751E-03    -119.110E-03     238.521E-03    -119.401E-03     125.916E-03     412.623E-03     105.856E+06     103.679E+06     99.3418E+06    -4.27539E+06    -4.15247E+06     103.557E+06     99.3418E+06     169.707E+03
             802     32.9463E-03     14.2085E-03     29.7250E-03     256.461E-03    -119.392E-03    -137.031E-03    -118.859E-03     238.289E-03    -119.392E-03     160.706E-03     450.709E-03     108.883E+06     99.9230E+06     96.7664E+06    -10.4893E+06    -10.3512E+06     99.1558E+06     97.3956E+06     1.29199E+06
             803     32.4454E-03     13.3187E-03     29.5857E-03     247.566E-03    -119.497E-03    -128.182E-03    -116.782E-03     236.166E-03    -119.497E-03     128.444E-03     423.871E-03     112.105E+06     96.4122E+06     92.4465E+06    -17.5949E+06    -17.5534E+06     92.4748E+06     96.3424E+06     1.29083E+06
             804     31.9387E-03     12.4314E-03     29.4201E-03     246.156E-03    -119.495E-03    -126.843E-03    -116.391E-03     235.704E-03    -119.495E-03     121.985E-03     421.920E-03     114.901E+06     92.2575E+06     84.5237E+06    -26.3026E+06    -26.2914E+06     88.9796E+06     87.7905E+06     463.816E+03
             805     31.4869E-03     11.5425E-03     29.2950E-03     240.460E-03    -119.260E-03    -121.386E-03    -115.506E-03     234.691E-03    -119.370E-03     89.5822E-03     394.968E-03     112.803E+06     86.6295E+06     64.3641E+06    -34.9676E+06    -34.9501E+06     86.6120E+06     64.3641E+06    -527.478E+03
             806     31.0919E-03     10.6529E-03     29.2099E-03     238.130E-03    -118.816E-03    -119.427E-03    -115.809E-03     235.061E-03    -119.364E-03     65.1286E-03     368.080E-03     108.921E+06     80.5767E+06     37.6001E+06    -43.0252E+06    -42.9333E+06     80.4847E+06     37.6001E+06    -2.20088E+06
             807     30.7421E-03     9.76628E-03     29.1495E-03     237.558E-03    -118.174E-03    -119.386E-03    -116.590E-03     235.974E-03    -119.386E-03     46.6147E-03     342.105E-03     85.1937E+06     44.3570E+06     15.3470E+06    -50.5620E+06    -50.4081E+06     40.3713E+06     19.1788E+06    -2.76620E+06
             808     30.4321E-03     8.87790E-03     29.1083E-03     237.388E-03    -117.939E-03    -119.440E-03    -117.121E-03     236.570E-03    -119.440E-03     33.7356E-03     320.431E-03     63.0096E+06     5.73629E+06    -27.6394E+06    -60.8284E+06    -56.9950E+06    -31.4728E+06     5.73629E+06    -2.02319E+06
             809     30.1576E-03     7.98864E-03     29.0802E-03     237.627E-03    -118.244E-03    -119.529E-03    -117.794E-03     237.177E-03    -119.529E-03     24.8387E-03     303.093E-03     80.4453E+06    -5.89258E+06    -63.1291E+06     -95.677E+06    -63.4586E+06    -95.3474E+06    -5.89258E+06    -950.004E+03
             810     29.9164E-03     7.10041E-03     29.0616E-03     237.849E-03    -118.437E-03    -119.654E-03    -118.224E-03     237.637E-03    -119.654E-03     16.9781E-03     287.884E-03     117.072E+06    -15.2321E+06    -69.7859E+06    -149.172E+06    -69.8247E+06    -149.133E+06    -15.2321E+06     445.161E+03
             811     29.7068E-03     6.21283E-03     29.0499E-03     238.161E-03    -118.575E-03    -119.729E-03    -118.493E-03     238.080E-03    -119.729E-03     10.2721E-03     275.476E-03     143.827E+06    -24.6323E+06    -75.3659E+06    -186.852E+06    -75.3968E+06    -186.821E+06    -24.6323E+06     580.538E+03
             812     29.5295E-03     5.32608E-03     29.0452E-03     238.487E-03    -118.832E-03    -119.730E-03    -118.811E-03     238.467E-03    -119.730E-03     5.07491E-03     265.287E-03     170.360E+06    -36.3766E+06    -81.8038E+06    -224.706E+06    -81.8524E+06    -224.657E+06    -36.3766E+06     81.4232E+03
             813     29.3821E-03     4.43625E-03     29.0453E-03     238.862E-03    -119.120E-03    -119.782E-03    -119.116E-03     238.858E-03    -119.782E-03     1.66137E-03     257.195E-03     196.569E+06    -50.6055E+06    -90.7218E+06    -264.097E+06    -90.7504E+06    -264.068E+06    -50.6055E+06     73.6609E+03
             814     29.2633E-03     3.55097E-03     29.0470E-03     239.008E-03    -119.260E-03    -119.766E-03    -119.258E-03     239.007E-03    -119.766E-03    -468.520E-06     250.554E-03     203.827E+06    -68.3575E+06    -99.4364E+06    -285.863E+06    -99.4552E+06    -285.844E+06    -68.3575E+06     88.6458E+03
             815     29.1729E-03     2.66255E-03     29.0512E-03     238.955E-03    -119.237E-03    -119.769E-03    -119.235E-03     238.953E-03    -119.769E-03    -1.43520E-03     245.546E-03     208.558E+06    -87.1970E+06    -106.943E+06    -304.857E+06    -106.968E+06    -304.832E+06    -87.1970E+06    -48.7104E+03
             816     29.1098E-03     1.77445E-03     29.0557E-03     239.213E-03    -119.357E-03    -119.899E-03    -119.355E-03     239.211E-03    -119.899E-03    -1.61674E-03     242.480E-03     210.862E+06    -103.331E+06    -112.811E+06    -318.724E+06    -112.827E+06    -318.707E+06    -103.331E+06     6.53087E+03
             817     29.0719E-03     886.818E-06     29.0584E-03     239.871E-03    -119.539E-03    -120.337E-03    -119.687E-03     239.870E-03    -120.188E-03    -829.081E-06     241.283E-03     209.188E+06    -113.843E+06    -116.864E+06    -324.521E+06    -116.107E+06    -324.507E+06    -114.614E+06     587.584E+03
             818     32.4354E-03     15.0968E-03     28.7078E-03     252.751E-03    -119.070E-03    -133.741E-03    -119.292E-03     238.657E-03    -119.426E-03     125.633E-03     412.821E-03     107.235E+06     103.915E+06     97.8312E+06    -6.21523E+06    -6.15905E+06     103.859E+06     97.8312E+06    -676.298E+03
             819     31.8045E-03     14.2081E-03     28.4545E-03     256.176E-03    -119.403E-03    -136.899E-03    -119.037E-03     238.314E-03    -119.403E-03     159.174E-03     450.746E-03     110.313E+06     98.6978E+06     93.8996E+06    -13.8952E+06    -13.7939E+06     97.4130E+06     95.0832E+06    -361.773E+03
             820     31.2928E-03     13.3192E-03     28.3168E-03     247.444E-03    -119.496E-03    -128.128E-03    -116.835E-03     236.152E-03    -119.496E-03     127.735E-03     423.630E-03     114.409E+06     95.0181E+06     92.4372E+06    -20.6435E+06    -20.5697E+06     92.4332E+06     94.9483E+06     993.110E+03
             821     30.7676E-03     12.4304E-03     28.1448E-03     246.323E-03    -119.485E-03    -127.002E-03    -116.543E-03     235.864E-03    -119.485E-03     122.031E-03     421.966E-03     116.602E+06     92.0300E+06     86.7639E+06    -27.0858E+06    -27.0478E+06     90.6645E+06     88.0914E+06     358.663E+03
             822     30.3112E-03     11.5433E-03     28.0271E-03     240.773E-03    -119.237E-03    -121.798E-03    -115.904E-03     234.989E-03    -119.347E-03     89.8582E-03     395.281E-03     112.953E+06     86.9495E+06     65.3917E+06    -34.5325E+06    -34.4951E+06     86.9121E+06     65.3917E+06    -669.599E+03
             823     29.9018E-03     10.6543E-03     27.9393E-03     238.189E-03    -118.652E-03    -119.712E-03    -115.923E-03     235.074E-03    -119.327E-03     65.6035E-03     367.777E-03     108.963E+06     81.5557E+06     39.0342E+06    -41.9995E+06    -41.9873E+06     81.5436E+06     39.0342E+06    -448.963E+03
             824     29.5392E-03     9.76568E-03     27.8782E-03     237.232E-03    -117.890E-03    -119.362E-03    -116.295E-03     235.637E-03    -119.362E-03     46.7416E-03     341.750E-03     84.7846E+06     45.1638E+06     15.9229E+06    -49.4940E+06    -49.4161E+06     40.7473E+06     20.2615E+06    -810.509E+03
             825     29.2209E-03     8.87651E-03     27.8401E-03     237.251E-03    -117.792E-03    -119.428E-03    -116.969E-03     236.428E-03    -119.428E-03     33.8198E-03     320.290E-03     63.0013E+06     5.52683E+06    -28.3893E+06    -61.3058E+06    -57.1017E+06    -32.5935E+06     5.52683E+06    -1.23303E+06
             826     28.9331E-03     7.98869E-03     27.8084E-03     237.714E-03    -118.328E-03    -119.522E-03    -117.899E-03     237.285E-03    -119.522E-03     24.1097E-03     303.223E-03     81.8242E+06    -5.98812E+06    -64.2701E+06    -97.4190E+06    -64.4221E+06    -97.2670E+06    -5.98812E+06    -757.792E+03
             827     28.6844E-03     7.10163E-03     27.7914E-03     237.988E-03    -118.649E-03    -119.613E-03    -118.467E-03     237.806E-03    -119.613E-03     15.7887E-03     288.202E-03     115.222E+06    -16.2838E+06    -71.5840E+06    -148.326E+06    -71.6498E+06    -148.260E+06    -16.2838E+06    -788.863E+03
             828     28.4637E-03     6.21390E-03     27.7772E-03     238.109E-03    -118.607E-03    -119.648E-03    -118.533E-03     238.035E-03    -119.648E-03     9.85610E-03     275.311E-03     141.872E+06    -26.9749E+06    -77.6931E+06    -187.105E+06    -77.7435E+06    -187.054E+06    -26.9749E+06    -1.50966E+06
             829     28.2807E-03     5.32510E-03     27.7748E-03     238.420E-03    -118.829E-03    -119.640E-03    -118.808E-03     238.399E-03    -119.640E-03     5.15205E-03     265.200E-03     170.545E+06    -37.6748E+06    -83.7111E+06    -226.396E+06    -83.7379E+06    -226.370E+06    -37.6748E+06    -293.312E+03
             830     28.1261E-03     4.43968E-03     27.7735E-03     238.673E-03    -118.999E-03    -119.679E-03    -118.995E-03     238.669E-03    -119.679E-03     1.61954E-03     256.962E-03     195.392E+06    -51.5627E+06    -90.5647E+06    -263.432E+06    -90.5874E+06    -263.409E+06    -51.5627E+06     845.550E+03
             831     28.0030E-03     3.54950E-03     27.7771E-03     238.640E-03    -118.931E-03    -119.697E-03    -118.930E-03     238.638E-03    -119.697E-03    -750.391E-06     250.181E-03     204.716E+06    -68.1309E+06    -98.3281E+06    -286.223E+06    -98.3493E+06    -286.201E+06    -68.1309E+06     424.590E+03
             832     27.9070E-03     2.66193E-03     27.7798E-03     238.848E-03    -119.149E-03    -119.750E-03    -119.146E-03     238.845E-03    -119.750E-03    -1.71081E-03     245.480E-03     208.953E+06    -86.2471E+06    -106.540E+06    -304.523E+06    -106.575E+06    -304.489E+06    -86.2471E+06     499.168E+03
             833     27.8411E-03     1.77490E-03     27.7844E-03     239.376E-03    -119.546E-03    -119.874E-03    -119.610E-03     239.374E-03    -119.807E-03    -1.48962E-03     242.648E-03     210.431E+06    -102.859E+06    -113.333E+06    -318.295E+06    -113.367E+06    -318.261E+06    -102.859E+06     200.344E+03
             834     27.8012E-03     887.859E-06     27.7870E-03     239.483E-03    -119.327E-03    -120.158E-03    -120.142E-03     239.482E-03    -119.343E-03    -475.380E-06     240.832E-03     209.152E+06    -113.821E+06    -118.159E+06    -325.094E+06    -117.985E+06    -325.074E+06    -114.014E+06     823.019E+03
             835     31.3181E-03     15.0971E-03     27.4390E-03     252.754E-03    -119.209E-03    -133.661E-03    -119.310E-03     238.612E-03    -119.418E-03     125.660E-03     412.894E-03     107.825E+06     103.675E+06     97.5274E+06    -7.07006E+06    -7.03044E+06     103.635E+06     97.5274E+06     249.826E+03
             836     30.6763E-03     14.2091E-03     27.1871E-03     256.628E-03    -119.393E-03    -137.350E-03    -119.409E-03     238.688E-03    -119.393E-03     159.633E-03     451.163E-03     110.070E+06     99.0725E+06     93.9408E+06    -13.4445E+06    -13.3914E+06     97.0586E+06     95.9016E+06    -47.4406E+03
             837     30.1498E-03     13.3201E-03     27.0478E-03     247.648E-03    -119.463E-03    -128.335E-03    -117.148E-03     236.461E-03    -119.463E-03     127.264E-03     423.714E-03     114.844E+06     96.6406E+06     92.9776E+06    -19.9762E+06    -19.8881E+06     92.8895E+06     96.6406E+06    -470.933E+03
             838     29.6137E-03     12.4312E-03     26.8781E-03     245.662E-03    -119.448E-03    -126.337E-03    -115.987E-03     235.312E-03    -119.448E-03     121.285E-03     421.200E-03     117.098E+06     92.4884E+06     85.9707E+06    -27.6828E+06    -27.6118E+06     90.7151E+06     87.6730E+06    -790.678E+03
             839     29.1385E-03     11.5415E-03     26.7553E-03     240.657E-03    -119.331E-03    -121.540E-03    -115.754E-03     234.871E-03    -119.331E-03     89.7863E-03     395.112E-03     113.123E+06     86.7128E+06      64.087E+06    -35.3674E+06    -35.3248E+06     86.6702E+06      64.087E+06    -766.215E+03
             840     28.7185E-03     10.6550E-03     26.6687E-03     238.412E-03    -118.765E-03    -119.790E-03    -116.147E-03     235.316E-03    -119.312E-03     65.4615E-03     367.937E-03     109.365E+06     81.0907E+06     38.9207E+06    -42.8805E+06    -42.8589E+06     81.0691E+06     38.9207E+06    -158.895E+03
             841     28.3481E-03     9.76567E-03     26.6129E-03     237.368E-03    -118.037E-03    -119.333E-03    -116.474E-03     235.805E-03    -119.333E-03     46.1838E-03     341.865E-03     85.7837E+06     45.9370E+06     17.1441E+06    -49.7317E+06    -49.7171E+06     41.4891E+06     21.5774E+06     462.312E+03
             842     28.0132E-03     8.87793E-03     26.5692E-03     237.388E-03    -117.994E-03    -119.374E-03    -117.210E-03     236.604E-03    -119.374E-03     33.0685E-03     320.374E-03     63.5457E+06     6.24808E+06    -27.1072E+06    -61.6451E+06    -56.4807E+06    -32.2716E+06     6.24808E+06     275.762E+03
             843     27.7176E-03     7.98972E-03     26.5411E-03     237.681E-03    -118.366E-03    -119.436E-03    -117.940E-03     237.254E-03    -119.436E-03     24.1865E-03     302.913E-03     81.6770E+06    -6.66872E+06    -63.1381E+06    -98.3776E+06    -63.4483E+06    -98.0675E+06    -6.66872E+06    -256.542E+03
             844     27.4530E-03     7.10185E-03     26.5185E-03     237.858E-03    -118.582E-03    -119.516E-03    -118.399E-03     237.676E-03    -119.516E-03     15.6245E-03     287.931E-03     114.365E+06    -15.5342E+06    -69.3913E+06    -146.573E+06    -69.4669E+06    -146.498E+06    -15.5342E+06    -958.014E+03
             845     27.2304E-03     6.21421E-03     26.5118E-03     237.972E-03    -118.570E-03    -119.555E-03    -118.502E-03     237.905E-03    -119.555E-03     9.57180E-03     275.096E-03     142.133E+06    -26.9040E+06    -76.9751E+06    -187.140E+06    -77.0229E+06    -187.092E+06    -26.9040E+06    -1.48755E+06
             846     27.0327E-03     5.32674E-03     26.5027E-03     238.079E-03    -118.591E-03    -119.554E-03    -118.569E-03     238.057E-03    -119.554E-03     5.07553E-03     264.726E-03     171.273E+06    -39.6559E+06    -85.5007E+06    -229.095E+06    -85.5132E+06    -229.083E+06    -39.6559E+06    -1.00618E+06
             847     26.8741E-03     4.43722E-03     26.5053E-03     238.314E-03    -118.709E-03    -119.625E-03    -118.705E-03     238.311E-03    -119.625E-03     1.70042E-03     256.561E-03     194.044E+06    -52.3726E+06    -93.0946E+06    -263.472E+06    -93.1033E+06    -263.463E+06    -52.3726E+06     269.933E+03
             848     26.7441E-03     3.55136E-03     26.5072E-03     238.707E-03    -119.045E-03    -119.660E-03    -119.058E-03     238.706E-03    -119.646E-03    -381.428E-06     250.224E-03     203.541E+06    -68.0190E+06    -100.852E+06    -285.907E+06    -100.883E+06    -285.877E+06    -68.0190E+06     946.771E+03
             849     26.6462E-03     2.66319E-03     26.5128E-03     238.985E-03    -119.302E-03    -119.731E-03    -119.431E-03     238.982E-03    -119.598E-03    -1.90064E-03     245.557E-03     208.114E+06    -85.7330E+06    -108.573E+06    -304.264E+06    -108.617E+06    -304.221E+06    -85.7330E+06     929.875E+03
             850     26.5739E-03     1.77470E-03     26.5146E-03     238.998E-03    -119.331E-03    -119.714E-03    -119.513E-03     238.994E-03    -119.528E-03    -2.03716E-03     242.166E-03     208.774E+06    -102.719E+06    -114.481E+06    -317.067E+06    -114.509E+06    -317.038E+06    -102.719E+06     57.0229E+03
             851     26.5322E-03     887.418E-06     26.5173E-03     238.830E-03    -118.966E-03    -119.874E-03    -119.815E-03     238.828E-03    -119.022E-03    -795.662E-06     240.151E-03     207.734E+06    -115.451E+06    -119.653E+06    -325.240E+06    -119.437E+06    -325.226E+06    -115.681E+06    -569.817E+03
             852     30.2126E-03     15.0975E-03     26.1700E-03     252.732E-03    -119.220E-03    -133.608E-03    -119.224E-03     238.539E-03    -119.410E-03     125.599E-03     412.713E-03     106.427E+06     103.355E+06     99.0833E+06    -5.13632E+06    -5.09315E+06     103.311E+06     99.0833E+06     445.141E+03
             853     29.5552E-03     14.2069E-03     25.9167E-03     256.860E-03    -119.401E-03    -137.498E-03    -119.350E-03     238.713E-03    -119.401E-03     160.771E-03     451.015E-03     108.779E+06     99.7673E+06     95.9093E+06    -10.8852E+06    -10.8281E+06     97.7848E+06     97.8346E+06     126.385E+03
             854     29.0136E-03     13.3210E-03     25.7748E-03     247.974E-03    -119.462E-03    -128.643E-03    -117.449E-03     236.781E-03    -119.462E-03     127.545E-03     424.291E-03     114.005E+06     97.9606E+06     93.4156E+06    -18.2443E+06    -18.1568E+06     93.3281E+06     97.9606E+06    -445.293E+03
             855     28.4711E-03     12.4325E-03     25.6132E-03     245.987E-03    -119.425E-03    -126.717E-03    -116.353E-03     235.623E-03    -119.425E-03     121.700E-03     421.487E-03     116.881E+06     93.5228E+06     86.1269E+06    -26.8592E+06    -26.8048E+06     90.8487E+06     88.7465E+06    -358.121E+03
             856     27.9780E-03     11.5441E-03     25.4853E-03     240.511E-03    -119.295E-03    -121.426E-03    -115.596E-03     234.680E-03    -119.295E-03     89.8083E-03     394.409E-03     113.437E+06     86.9684E+06     64.1210E+06    -35.4868E+06    -35.4422E+06     86.9238E+06     64.1210E+06     222.603E+03
             857     27.5468E-03     10.6536E-03     25.4033E-03     238.238E-03    -118.999E-03    -119.392E-03    -116.124E-03     235.241E-03    -119.271E-03     64.4820E-03     367.778E-03     109.459E+06     80.7056E+06     37.5741E+06    -43.4890E+06    -43.4403E+06     80.6570E+06     37.5741E+06     42.3664E+03
             858     27.1566E-03     9.76720E-03     25.3394E-03     237.705E-03    -118.454E-03    -119.266E-03    -116.907E-03     236.157E-03    -119.266E-03     45.9490E-03     342.082E-03     85.5078E+06     45.1000E+06     15.3985E+06    -50.4241E+06    -50.3988E+06     40.4335E+06     20.0396E+06     154.202E+03
             859     26.8165E-03     8.87869E-03     25.3040E-03     237.404E-03    -118.127E-03    -119.276E-03    -117.356E-03     236.633E-03    -119.276E-03     32.8396E-03     320.106E-03     63.2370E+06     6.74051E+06    -27.1277E+06      -60.56E+06    -56.2636E+06    -31.4241E+06     6.74051E+06     562.668E+03
             860     26.5033E-03     7.99007E-03     25.2702E-03     237.287E-03    -118.079E-03    -119.331E-03    -117.659E-03     236.867E-03    -119.331E-03     23.8903E-03     302.126E-03     81.3652E+06    -5.88534E+06    -61.6610E+06    -96.8809E+06    -61.9011E+06    -96.6407E+06    -5.88534E+06    -413.476E+03
             861     26.2326E-03     7.10279E-03     25.2527E-03     237.544E-03    -118.347E-03    -119.427E-03    -118.170E-03     237.368E-03    -119.427E-03     15.4437E-03     287.294E-03     114.168E+06    -15.8322E+06    -68.0450E+06    -146.509E+06    -68.1050E+06    -146.449E+06    -15.8322E+06    -1.27573E+06
             862     25.9944E-03     6.21483E-03     25.2405E-03     237.968E-03    -118.629E-03    -119.478E-03    -118.561E-03     237.901E-03    -119.478E-03     9.37127E-03     275.009E-03     145.306E+06    -24.5991E+06    -74.8735E+06    -188.226E+06    -74.9588E+06    -188.141E+06    -24.5991E+06     113.009E+03
             863     25.7945E-03     5.32681E-03     25.2385E-03     237.964E-03    -118.551E-03    -119.467E-03    -118.532E-03     237.945E-03    -119.467E-03     4.65469E-03     264.443E-03     174.464E+06    -36.3897E+06    -83.5688E+06    -229.518E+06    -83.6243E+06    -229.463E+06    -36.3897E+06     692.472E+03
             864     25.6241E-03     4.43922E-03     25.2367E-03     238.182E-03    -118.700E-03    -119.523E-03    -118.696E-03     238.179E-03    -119.523E-03     1.01781E-03     256.293E-03     195.298E+06    -51.0212E+06    -93.4616E+06    -264.000E+06    -93.4623E+06    -263.999E+06    -51.0212E+06    -209.248E+03
             865     25.4893E-03     3.54949E-03     25.2409E-03     238.627E-03    -119.137E-03    -119.517E-03    -119.148E-03     238.624E-03    -119.503E-03    -1.10930E-03     250.059E-03     203.760E+06    -67.6007E+06    -101.487E+06    -286.101E+06    -101.508E+06    -286.079E+06    -67.6007E+06     357.023E+03
             866     25.3836E-03     2.66305E-03     25.2435E-03     238.785E-03    -119.328E-03    -119.512E-03    -119.457E-03     238.781E-03    -119.379E-03    -2.05621E-03     245.311E-03     206.604E+06    -86.2215E+06    -108.087E+06    -302.809E+06    -108.113E+06    -302.783E+06    -86.2215E+06     186.455E+03
             867     25.3101E-03     1.77711E-03     25.2476E-03     238.584E-03    -119.156E-03    -119.468E-03    -119.403E-03     238.581E-03    -119.217E-03    -1.98972E-03     241.878E-03     207.784E+06    -103.595E+06    -114.821E+06    -316.719E+06    -114.827E+06    -316.713E+06    -103.595E+06     18.9211E+03
             868     25.2666E-03     888.248E-06     25.2510E-03     238.116E-03    -118.616E-03    -119.506E-03    -119.447E-03     238.114E-03    -118.673E-03    -1.39175E-03     239.580E-03     207.372E+06    -116.912E+06    -120.761E+06    -326.160E+06    -120.548E+06    -326.143E+06    -117.142E+06     581.785E+03
             869     29.1213E-03     15.0971E-03     24.9023E-03     253.102E-03    -119.332E-03    -133.887E-03    -119.736E-03     239.022E-03    -119.403E-03     125.266E-03     413.016E-03     106.982E+06     104.019E+06     99.0771E+06    -5.33966E+06    -5.30079E+06     103.980E+06     99.0771E+06    -530.342E+03
             870     28.4497E-03     14.2100E-03     24.6468E-03     256.541E-03    -119.382E-03    -137.193E-03    -119.124E-03     238.471E-03    -119.382E-03     160.511E-03     450.367E-03     109.008E+06     98.8421E+06     95.2057E+06    -11.9277E+06    -11.8592E+06     97.4227E+06     96.5566E+06    -316.670E+03
             871     27.8918E-03     13.3184E-03     24.5066E-03     247.540E-03    -119.461E-03    -128.159E-03    -117.011E-03     236.392E-03    -119.461E-03     127.188E-03     423.732E-03     113.655E+06     96.5958E+06     92.0934E+06    -19.2195E+06    -19.1531E+06     92.0270E+06     96.5958E+06    -219.115E+03
             872     27.3320E-03     12.4314E-03     24.3413E-03     246.367E-03    -119.417E-03    -127.120E-03    -116.888E-03     236.134E-03    -119.417E-03     121.046E-03     422.024E-03     116.990E+06     93.7962E+06     85.6975E+06    -27.0090E+06    -26.9503E+06      90.586E+06     88.8490E+06     452.068E+03
             873     26.8303E-03     11.5436E-03     24.2200E-03     240.830E-03    -119.233E-03    -121.847E-03    -116.032E-03     235.015E-03    -119.233E-03     89.9041E-03     394.435E-03     113.934E+06     87.3510E+06     64.4662E+06    -35.6377E+06    -35.5792E+06     87.2926E+06     64.4662E+06     949.514E+03
             874     26.3801E-03     10.6570E-03     24.1317E-03     238.093E-03    -118.849E-03    -119.420E-03    -116.041E-03     235.055E-03    -119.189E-03     64.8795E-03     367.069E-03     109.326E+06     80.7804E+06     37.3726E+06    -43.3006E+06    -43.2150E+06     80.6947E+06     37.3726E+06     1.12275E+06
             875     25.9768E-03     9.76657E-03     24.0709E-03     237.652E-03    -118.508E-03    -119.186E-03    -116.952E-03     236.096E-03    -119.186E-03     46.0828E-03     341.542E-03     85.5507E+06     45.0270E+06     15.2688E+06    -50.4551E+06    -50.3743E+06     40.6581E+06     19.5568E+06     718.185E+03
             876     25.6197E-03     8.87991E-03     24.0315E-03     237.582E-03    -118.396E-03    -119.168E-03    -117.641E-03     236.827E-03    -119.168E-03     32.4277E-03     319.863E-03     63.2730E+06     6.54987E+06    -27.5741E+06    -60.2403E+06    -56.8164E+06    -30.9980E+06     6.54987E+06    -153.623E+03
             877     25.3000E-03     7.99240E-03     24.0044E-03     237.211E-03    -118.104E-03    -119.202E-03    -117.709E-03     236.815E-03    -119.202E-03     23.2388E-03     301.746E-03     80.9904E+06    -4.97972E+06    -62.1695E+06    -95.1587E+06    -62.2945E+06    -95.0337E+06    -4.97972E+06    -900.995E+03
             878     25.0126E-03     7.10268E-03     23.9829E-03     237.216E-03    -118.154E-03    -119.294E-03    -117.987E-03     237.048E-03    -119.294E-03     14.9428E-03     286.660E-03     114.613E+06    -16.2108E+06    -69.1144E+06    -147.329E+06    -69.1913E+06    -147.252E+06    -16.2108E+06    -1.11112E+06
             879     24.7659E-03     6.21533E-03     23.9733E-03     237.674E-03    -118.465E-03    -119.338E-03    -118.410E-03     237.618E-03    -119.338E-03     8.30244E-03     274.521E-03     146.969E+06    -25.4233E+06    -76.4356E+06    -191.003E+06    -76.5503E+06    -190.889E+06    -25.4233E+06    -113.364E+03
             880     24.5552E-03     5.32728E-03     23.9704E-03     238.048E-03    -118.762E-03    -119.320E-03    -118.777E-03     238.035E-03    -119.293E-03     3.73319E-03     264.393E-03     174.963E+06    -34.5259E+06    -82.9007E+06    -228.507E+06    -82.9843E+06    -228.424E+06    -34.5259E+06     748.999E+03
             881     24.3778E-03     4.43925E-03     23.9702E-03     238.295E-03    -119.011E-03    -119.321E-03    -119.071E-03     238.292E-03    -119.258E-03     298.394E-06     256.311E-03     196.578E+06    -48.8358E+06    -90.4508E+06    -262.809E+06    -90.4578E+06    -262.802E+06    -48.8358E+06     202.527E+03
             882     24.2342E-03     3.55353E-03     23.9722E-03     238.002E-03    -118.829E-03    -119.207E-03    -118.862E-03     237.999E-03    -119.171E-03    -1.94019E-03     249.367E-03     206.349E+06    -66.0091E+06    -98.9891E+06    -286.826E+06    -98.9953E+06    -286.819E+06    -66.0091E+06    -383.733E+03
             883     24.1233E-03     2.66435E-03     23.9758E-03     237.731E-03    -118.659E-03    -119.139E-03    -118.655E-03     237.726E-03    -119.139E-03    -2.45548E-03     244.224E-03     207.635E+06    -84.8797E+06    -107.200E+06    -302.694E+06    -107.207E+06    -302.688E+06    -84.8797E+06     324.157E+03
             884     24.0464E-03     1.77480E-03     23.9808E-03     238.073E-03    -118.813E-03    -119.307E-03    -118.942E-03     238.070E-03    -119.175E-03    -1.80181E-03     241.329E-03     208.751E+06    -102.900E+06    -114.391E+06    -317.111E+06    -114.396E+06    -317.106E+06    -102.900E+06     899.419E+03
             885     24.0011E-03     888.520E-06     23.9846E-03     238.227E-03    -118.694E-03    -119.540E-03    -119.342E-03     238.226E-03    -118.891E-03    -724.030E-06     239.661E-03     207.796E+06    -114.493E+06    -118.770E+06    -324.376E+06    -118.810E+06    -324.335E+06    -114.493E+06     24.3432E+03
             886     28.0407E-03     15.0977E-03     23.6293E-03     253.231E-03    -119.237E-03    -134.099E-03    -119.782E-03     239.071E-03    -119.395E-03     125.866E-03     413.291E-03     107.413E+06     104.710E+06     97.8616E+06    -5.94856E+06    -5.92009E+06     104.682E+06     97.8616E+06    -881.127E+03
             887     27.3586E-03     14.2087E-03     23.3795E-03     256.953E-03    -119.359E-03    -137.629E-03    -119.534E-03     238.859E-03    -119.359E-03     160.689E-03     450.953E-03     109.199E+06     99.0416E+06     94.3258E+06    -12.4025E+06    -12.3325E+06     97.7489E+06     95.5486E+06    -862.653E+03
             888     26.7845E-03     13.3215E-03     23.2368E-03     247.628E-03    -119.419E-03    -128.298E-03    -117.120E-03     236.451E-03    -119.419E-03     127.336E-03     423.214E-03     113.133E+06     95.1144E+06     91.0294E+06    -19.9801E+06    -19.8989E+06     90.9481E+06     95.1144E+06    -262.363E+03
             889     26.2069E-03     12.4323E-03     23.0704E-03     245.936E-03    -119.375E-03    -126.700E-03    -116.542E-03     235.779E-03    -119.375E-03     120.308E-03     421.075E-03     115.980E+06     91.5040E+06     83.6046E+06    -28.1923E+06    -28.1265E+06     88.5758E+06     86.4669E+06     473.271E+03
             890     25.6886E-03     11.5448E-03     22.9483E-03     240.808E-03    -119.194E-03    -121.835E-03    -116.056E-03     235.029E-03    -119.194E-03     89.9208E-03     394.229E-03     113.296E+06     86.3620E+06     63.5212E+06    -36.0006E+06    -35.8936E+06     86.2549E+06     63.5212E+06     1.50823E+06
             891     25.2253E-03     10.6552E-03     22.8644E-03     238.868E-03    -118.953E-03    -120.104E-03    -116.835E-03     235.771E-03    -119.124E-03     65.3828E-03     367.096E-03     109.906E+06     81.3336E+06     39.0857E+06    -43.2237E+06    -43.0907E+06     81.2006E+06     39.0857E+06     1.72918E+06
             892     24.8058E-03     9.76862E-03     22.8014E-03     237.938E-03    -118.539E-03    -119.458E-03    -117.464E-03     236.463E-03    -119.058E-03     44.8333E-03     341.036E-03     86.5679E+06     46.1898E+06     18.7933E+06    -49.6822E+06    -49.5717E+06     43.1269E+06     21.7457E+06     1.07322E+06
             893     24.4335E-03     8.88056E-03     22.7626E-03     237.315E-03    -118.302E-03    -118.994E-03    -117.615E-03     236.628E-03    -118.994E-03     30.8249E-03     319.087E-03     64.1942E+06     7.18933E+06    -25.3310E+06    -60.3460E+06    -56.1541E+06    -29.5229E+06     7.18933E+06    -267.010E+03
             894     24.0990E-03     7.99242E-03     22.7351E-03     237.346E-03    -118.417E-03    -119.022E-03    -118.087E-03     236.995E-03    -119.002E-03     21.9038E-03     301.586E-03     81.0113E+06    -4.95109E+06    -62.7331E+06    -95.5100E+06    -63.1210E+06    -95.1221E+06    -4.95109E+06    -580.199E+03
             895     23.7999E-03     7.10613E-03     22.7143E-03     237.147E-03    -118.318E-03    -119.064E-03    -118.196E-03     237.004E-03    -119.044E-03     13.5604E-03     286.244E-03     115.145E+06    -16.3178E+06    -70.4473E+06    -148.074E+06    -70.5552E+06    -147.966E+06    -16.3178E+06    -31.3025E+03
             896     23.5414E-03     6.21699E-03     22.7057E-03     237.168E-03    -118.283E-03    -119.037E-03    -118.245E-03     237.130E-03    -119.037E-03     6.92339E-03     273.645E-03     144.562E+06    -27.9363E+06    -77.9750E+06    -190.759E+06    -78.0305E+06    -190.703E+06    -27.9363E+06    -896.716E+03
             897     23.3180E-03     5.32925E-03     22.7009E-03     237.496E-03    -118.564E-03    -118.994E-03    -118.584E-03     237.489E-03    -118.967E-03     2.76018E-03     263.622E-03     172.429E+06    -37.8862E+06    -85.0477E+06    -228.918E+06    -85.1127E+06    -228.854E+06    -37.8862E+06    -1.35289E+06
             898     23.1314E-03     4.44233E-03     22.7008E-03     237.567E-03    -118.595E-03    -118.995E-03    -118.657E-03     237.566E-03    -118.932E-03     6.12425E-06     255.372E-03     195.601E+06    -49.7562E+06    -91.5657E+06    -262.811E+06    -91.6040E+06    -262.773E+06    -49.7562E+06    -309.645E+03
             899     22.9819E-03     3.55284E-03     22.7056E-03     237.419E-03    -118.460E-03    -118.973E-03    -118.585E-03     237.416E-03    -118.845E-03    -1.79742E-03     248.641E-03     206.059E+06    -66.0856E+06    -99.2962E+06    -286.689E+06    -99.3098E+06    -286.675E+06    -66.0856E+06     58.4801E+03
             900     22.8665E-03     2.66472E-03     22.7107E-03     237.188E-03    -118.356E-03    -118.896E-03    -118.460E-03     237.182E-03    -118.785E-03    -2.83974E-03     243.668E-03     209.192E+06    -84.5739E+06    -107.154E+06    -304.064E+06    -107.164E+06    -304.054E+06    -84.5739E+06     362.735E+03
             901     22.7831E-03     1.77683E-03     22.7137E-03     237.201E-03    -118.377E-03    -118.877E-03    -118.388E-03     237.195E-03    -118.859E-03    -2.95621E-03     240.433E-03     208.841E+06    -101.708E+06    -112.533E+06    -315.693E+06    -112.542E+06    -315.683E+06    -101.708E+06     362.121E+03
             902     22.7344E-03     886.764E-06     22.7171E-03     237.741E-03    -118.635E-03    -119.114E-03    -118.787E-03     237.736E-03    -118.957E-03    -2.00480E-03     239.183E-03     208.257E+06    -113.229E+06    -118.241E+06    -323.941E+06    -116.534E+06    -323.904E+06    -114.973E+06    -1.03672E+06
             903     26.9811E-03     15.0966E-03     22.3623E-03     253.280E-03    -119.111E-03    -134.265E-03    -119.572E-03     238.894E-03    -119.418E-03     126.806E-03     413.184E-03     108.133E+06     105.320E+06     97.8307E+06    -6.35262E+06    -6.33772E+06     105.305E+06     97.8307E+06    -256.661E+03
             904     26.2771E-03     14.2087E-03     22.1042E-03     257.531E-03    -119.379E-03    -138.140E-03    -119.898E-03     239.288E-03    -119.379E-03     161.247E-03     451.376E-03     110.034E+06     98.8129E+06     93.8740E+06    -13.5673E+06    -13.5167E+06     97.7423E+06     94.8940E+06    -480.556E+03
             905     25.6920E-03     13.3211E-03     21.9688E-03     248.200E-03    -119.414E-03    -128.903E-03    -117.576E-03     236.873E-03    -119.414E-03     128.236E-03     423.235E-03     113.477E+06     94.0451E+06     90.1555E+06    -21.3017E+06    -21.2270E+06     90.1923E+06     93.9336E+06    -220.865E+03
             906     25.0945E-03     12.4330E-03     21.7980E-03     246.411E-03    -119.346E-03    -127.255E-03    -116.932E-03     236.088E-03    -119.346E-03     121.221E-03     420.704E-03     115.969E+06     90.5264E+06     82.8075E+06    -29.0798E+06    -29.0237E+06     87.7124E+06     85.5655E+06     460.212E+03
             907     24.5623E-03     11.5427E-03     21.6812E-03     241.671E-03    -119.116E-03    -122.785E-03    -117.179E-03     236.065E-03    -119.116E-03     88.6261E-03     394.288E-03     113.743E+06     85.8842E+06     63.9915E+06    -36.6740E+06    -36.5532E+06     85.7635E+06     63.9915E+06     960.882E+03
             908     24.0744E-03     10.6570E-03     21.5871E-03     239.463E-03    -118.952E-03    -120.719E-03    -117.864E-03     236.608E-03    -118.952E-03     62.6976E-03     366.652E-03     110.383E+06     81.8532E+06     40.9431E+06    -42.9207E+06    -42.7922E+06     81.7247E+06     40.9431E+06     932.533E+03
             909     23.6426E-03     9.77157E-03     21.5288E-03     237.859E-03    -118.575E-03    -119.341E-03    -117.824E-03     236.569E-03    -118.802E-03     41.9700E-03     340.138E-03     86.9670E+06     47.0447E+06     20.2658E+06    -49.1233E+06    -49.0059E+06     44.1266E+06     23.0664E+06     344.926E+03
             910     23.2551E-03     8.88373E-03     21.4913E-03     237.109E-03    -118.287E-03    -118.814E-03    -117.829E-03     236.515E-03    -118.678E-03     28.6504E-03     318.100E-03     64.2629E+06     7.99796E+06    -23.6774E+06    -59.9965E+06    -55.3786E+06    -28.2953E+06     7.99796E+06     403.397E+03
             911     22.9024E-03     7.99608E-03     21.4612E-03     236.935E-03    -118.379E-03    -118.693E-03    -118.145E-03     236.651E-03    -118.643E-03     19.5907E-03     300.425E-03     81.5153E+06    -4.68825E+06    -61.5937E+06    -96.2798E+06    -62.7134E+06    -95.1601E+06    -4.68825E+06     623.172E+03
             912     22.5910E-03     7.10770E-03     21.4438E-03     236.772E-03    -118.349E-03    -118.660E-03    -118.267E-03     236.668E-03    -118.638E-03     11.4702E-03     285.215E-03     115.185E+06    -16.0663E+06    -69.6390E+06    -147.837E+06    -69.7351E+06    -147.741E+06    -16.0663E+06     230.855E+03
             913     22.3207E-03     6.22046E-03     21.4364E-03     236.544E-03    -118.106E-03    -118.578E-03    -118.081E-03     236.518E-03    -118.576E-03     5.74886E-03     272.385E-03     143.189E+06    -27.2318E+06    -76.3324E+06    -188.402E+06    -76.3768E+06    -188.357E+06    -27.2318E+06    -496.064E+03
             914     22.0845E-03     5.33201E-03     21.4312E-03     236.423E-03    -117.986E-03    -118.509E-03    -117.980E-03     236.417E-03    -118.509E-03     1.77179E-03     262.092E-03     172.868E+06    -38.3134E+06    -84.1694E+06    -229.398E+06    -84.2132E+06    -229.354E+06    -38.3134E+06    -1.47711E+06
             915     21.8891E-03     4.44217E-03     21.4336E-03     236.515E-03    -118.036E-03    -118.504E-03    -118.031E-03     236.511E-03    -118.504E-03    -1.43998E-03     254.019E-03     196.651E+06    -50.8735E+06    -92.3630E+06    -264.918E+06    -92.4236E+06    -264.857E+06    -50.8735E+06    -1.61970E+06
             916     21.7289E-03     3.55428E-03     21.4363E-03     236.655E-03    -118.154E-03    -118.510E-03    -118.236E-03     236.645E-03    -118.417E-03    -3.38784E-03     247.712E-03     205.592E+06    -67.2695E+06    -100.183E+06    -287.263E+06    -100.224E+06    -287.222E+06    -67.2695E+06    -830.174E+03
             917     21.6062E-03     2.66656E-03     21.4410E-03     236.674E-03    -118.227E-03    -118.497E-03    -118.447E-03     236.664E-03    -118.266E-03    -3.78079E-03     243.127E-03     208.472E+06    -85.7951E+06    -107.289E+06    -304.113E+06    -107.300E+06    -304.101E+06    -85.7951E+06    -320.863E+03
             918     21.5204E-03     1.77783E-03     21.4468E-03     236.352E-03    -117.976E-03    -118.424E-03    -118.291E-03     236.344E-03    -118.101E-03    -3.36817E-03     239.682E-03     207.813E+06    -102.311E+06    -113.131E+06    -315.280E+06    -113.151E+06     -315.26E+06    -102.311E+06     110.080E+03
             919     21.4666E-03     889.975E-06     21.4482E-03     235.901E-03    -117.669E-03    -118.240E-03    -118.108E-03     235.894E-03    -117.794E-03    -1.97152E-03     237.429E-03     207.834E+06    -113.148E+06    -119.531E+06    -324.100E+06    -117.806E+06    -324.081E+06    -114.892E+06     840.004E+03
             920     25.9374E-03     15.0969E-03     21.0911E-03     253.406E-03    -119.291E-03    -134.207E-03    -119.692E-03     239.040E-03    -119.440E-03     127.051E-03     413.129E-03     107.538E+06     104.894E+06     97.7007E+06    -6.05499E+06    -6.03410E+06     104.873E+06     97.7007E+06     134.351E+03
             921     25.2169E-03     14.2077E-03     20.8334E-03     257.589E-03    -119.397E-03    -138.144E-03    -119.915E-03     239.361E-03    -119.397E-03     161.282E-03     450.649E-03     108.403E+06     98.5470E+06     93.7996E+06    -12.1250E+06    -12.0954E+06     97.1682E+06     95.1488E+06     440.519E+03
             922     24.6108E-03     13.3199E-03     20.6947E-03     248.572E-03    -119.402E-03    -129.271E-03    -118.324E-03     237.625E-03    -119.402E-03     126.396E-03     422.925E-03     112.355E+06     94.5100E+06     90.1086E+06    -19.9542E+06    -19.9075E+06     90.1734E+06     94.3984E+06     354.900E+03
             923     23.9992E-03     12.4314E-03     20.5285E-03     247.545E-03    -119.242E-03    -128.526E-03    -118.712E-03     237.731E-03    -119.242E-03     118.754E-03     420.681E-03     115.340E+06     90.7522E+06     83.9601E+06    -27.8031E+06    -27.7351E+06     87.7436E+06     86.9008E+06     197.768E+03
             924     23.4454E-03     11.5483E-03     20.4040E-03     242.799E-03    -118.877E-03    -124.160E-03    -118.845E-03     237.484E-03    -118.877E-03     86.4189E-03     393.629E-03     113.263E+06     86.4237E+06     65.6424E+06    -35.1508E+06    -35.0519E+06     86.3248E+06     65.6424E+06     267.450E+03
             925     22.9451E-03     10.6632E-03     20.3168E-03     239.358E-03    -118.589E-03    -120.939E-03    -118.347E-03     236.767E-03    -118.589E-03     59.9084E-03     364.935E-03     110.410E+06     81.9816E+06     40.9726E+06    -42.8278E+06    -42.7122E+06     81.8660E+06     40.9726E+06     100.156E+03
             926     22.4935E-03     9.77399E-03     20.2589E-03     237.527E-03    -118.364E-03    -119.182E-03    -118.029E-03     236.374E-03    -118.364E-03     39.3882E-03     338.044E-03     86.9494E+06     46.5045E+06     20.0275E+06    -49.4643E+06    -49.2402E+06     43.8826E+06     22.4253E+06     575.698E+03
             927     22.0893E-03     8.88772E-03     20.2223E-03     236.935E-03    -118.159E-03    -118.772E-03    -118.288E-03     236.450E-03    -118.159E-03     25.7930E-03     316.458E-03     63.8671E+06     6.95105E+06    -24.1922E+06    -60.2207E+06    -56.0389E+06    -28.3739E+06     6.95105E+06     1.29244E+06
             928     21.7231E-03     8.00058E-03     20.1962E-03     236.207E-03    -117.953E-03    -118.409E-03    -118.094E-03     235.991E-03    -118.052E-03     16.7307E-03     298.371E-03     80.4202E+06    -4.92814E+06    -61.3318E+06    -95.0909E+06    -62.3912E+06    -94.0315E+06    -4.92814E+06     1.20249E+06
             929     21.3943E-03     7.11255E-03     20.1774E-03     235.753E-03    -117.893E-03    -118.104E-03    -117.931E-03     235.691E-03    -118.004E-03     8.52531E-03     283.042E-03     114.109E+06    -15.3547E+06    -68.7641E+06    -145.967E+06    -68.9170E+06    -145.814E+06    -15.3547E+06     376.321E+03
             930     21.1084E-03     6.22378E-03     20.1701E-03     235.559E-03    -117.704E-03    -118.001E-03    -117.804E-03     235.546E-03    -117.887E-03     2.82248E-03     270.599E-03     142.910E+06    -26.6268E+06    -75.6727E+06    -187.461E+06    -75.7288E+06    -187.404E+06    -26.6268E+06    -588.865E+03
             931     20.8608E-03     5.33471E-03     20.1671E-03     235.258E-03    -117.464E-03    -117.889E-03    -117.569E-03     235.251E-03    -117.777E-03    -1.15498E-03     260.253E-03     172.513E+06    -38.1904E+06    -83.4246E+06    -228.730E+06    -83.4483E+06    -228.707E+06    -38.1904E+06    -781.259E+03
             932     20.6520E-03     4.44699E-03     20.1675E-03     235.115E-03    -117.453E-03    -117.727E-03    -117.441E-03     235.103E-03    -117.727E-03    -3.95235E-03     252.092E-03     196.258E+06    -52.6495E+06    -92.5552E+06    -265.726E+06    -92.5967E+06    -265.685E+06    -52.6495E+06    -904.717E+03
             933     20.4824E-03     3.55766E-03     20.1711E-03     235.061E-03    -117.442E-03    -117.630E-03    -117.441E-03     235.043E-03    -117.612E-03    -5.03500E-03     245.814E-03     204.249E+06    -70.2389E+06    -101.659E+06    -288.324E+06    -101.708E+06    -288.274E+06    -70.2389E+06    -957.102E+03
             934     20.3519E-03     2.66746E-03     20.1763E-03     235.039E-03    -117.445E-03    -117.630E-03    -117.572E-03     235.020E-03    -117.484E-03    -5.03265E-03     241.303E-03     206.966E+06    -88.3295E+06    -109.236E+06    -304.880E+06    -109.254E+06    -304.861E+06    -88.3295E+06    -485.350E+03
             935     20.2590E-03     1.77924E-03     20.1807E-03     234.823E-03    -117.203E-03    -117.666E-03    -117.502E-03     234.810E-03    -117.353E-03    -4.16780E-03     238.110E-03     207.659E+06    -104.386E+06    -114.926E+06    -317.076E+06    -114.951E+06    -317.052E+06    -104.386E+06     36.3259E+03
             936     20.2058E-03     889.676E-06     20.1862E-03     234.463E-03    -116.986E-03    -117.488E-03    -117.332E-03     234.459E-03    -117.137E-03    -1.27772E-03     235.996E-03     206.296E+06    -112.267E+06    -118.648E+06    -321.679E+06    -116.969E+06    -321.658E+06    -113.967E+06     124.354E+03
             937     24.9135E-03     15.0966E-03     19.8186E-03     253.640E-03    -119.422E-03    -134.260E-03    -120.090E-03     239.471E-03    -119.422E-03     127.140E-03     413.351E-03     106.869E+06     104.120E+06     96.8265E+06    -6.19646E+06    -6.15082E+06     104.075E+06     96.8265E+06    -84.1944E+03
             938     24.1822E-03     14.2086E-03     19.5677E-03     258.138E-03    -119.342E-03    -138.745E-03    -120.791E-03     240.184E-03    -119.342E-03     160.472E-03     450.020E-03     107.910E+06     97.6683E+06     93.2679E+06    -12.3447E+06    -12.2991E+06     96.2736E+06     94.6170E+06    -46.7697E+03
             939     23.5513E-03     13.3214E-03     19.4217E-03     249.869E-03    -119.255E-03    -130.631E-03    -120.049E-03     239.287E-03    -119.255E-03     124.947E-03     422.068E-03     112.171E+06     96.1177E+06     91.2301E+06    -18.3680E+06    -18.3137E+06     91.1881E+06     96.1054E+06     132.698E+03
             940     22.9281E-03     12.4391E-03     19.2605E-03     248.933E-03    -118.935E-03    -130.135E-03    -120.786E-03     239.584E-03    -118.935E-03     116.609E-03     419.198E-03     115.256E+06     92.2151E+06     85.3351E+06    -26.2954E+06    -26.1935E+06      88.587E+06     88.8613E+06     411.011E+03
             941     22.3499E-03     11.5520E-03     19.1330E-03     243.192E-03    -118.452E-03    -124.922E-03    -119.958E-03     238.227E-03    -118.452E-03     83.2263E-03     390.916E-03     113.193E+06     86.2389E+06     66.4123E+06    -34.9073E+06    -34.7699E+06     86.1016E+06     66.4123E+06     453.930E+03
             942     21.8351E-03     10.6658E-03     19.0529E-03     239.397E-03    -118.036E-03    -121.485E-03    -119.285E-03     237.197E-03    -118.036E-03     54.9462E-03     362.211E-03     109.673E+06     81.8632E+06     40.9493E+06    -42.0971E+06    -41.9032E+06     81.6692E+06     40.9493E+06     686.657E+03
             943     21.3635E-03     9.78169E-03     18.9926E-03     237.374E-03    -117.639E-03    -119.779E-03    -118.885E-03     236.480E-03    -117.639E-03     34.0960E-03     335.074E-03     86.4324E+06     45.6754E+06     19.5343E+06    -49.5007E+06    -49.1842E+06     43.6591E+06     21.2342E+06     1.13403E+06
             944     20.9399E-03     8.89433E-03     18.9571E-03     236.002E-03    -117.312E-03    -118.707E-03    -118.399E-03     235.693E-03    -117.312E-03     20.2777E-03     313.059E-03     62.7933E+06     5.87401E+06    -23.6044E+06    -59.9817E+06    -55.5003E+06    -28.0858E+06     5.87401E+06     1.08906E+06
             945     20.5548E-03     8.00724E-03     18.9310E-03     235.144E-03    -117.116E-03    -118.197E-03    -118.079E-03     235.026E-03    -117.116E-03     11.4172E-03     295.167E-03     78.3992E+06    -6.29829E+06    -60.7951E+06    -94.3130E+06    -61.7801E+06    -93.3280E+06    -6.29829E+06     1.40042E+06
             946     20.2112E-03     7.11908E-03     18.9159E-03     234.396E-03    -116.950E-03    -117.668E-03    -117.632E-03     234.373E-03    -116.963E-03     3.60906E-03     279.760E-03     111.407E+06    -16.2400E+06    -68.3180E+06    -143.790E+06    -68.5332E+06    -143.575E+06    -16.2400E+06     1.39179E+06
             947     19.9059E-03     6.23036E-03     18.9057E-03     233.945E-03    -116.729E-03    -117.345E-03    -117.320E-03     233.933E-03    -116.742E-03    -1.88827E-03     267.425E-03     140.440E+06    -28.6126E+06    -76.5621E+06    -186.586E+06    -76.6792E+06    -186.469E+06    -28.6126E+06     642.661E+03
             948     19.6447E-03     5.34223E-03     18.9043E-03     233.335E-03    -116.523E-03    -116.942E-03    -116.885E-03     233.310E-03    -116.555E-03    -5.42252E-03     257.187E-03     170.086E+06    -41.3814E+06    -84.8168E+06    -228.880E+06    -84.8616E+06    -228.835E+06    -41.3814E+06     739.158E+03
             949     19.4232E-03     4.45112E-03     18.9063E-03     232.750E-03    -116.307E-03    -116.520E-03    -116.335E-03     232.708E-03    -116.450E-03    -7.22079E-03     248.880E-03     193.663E+06    -54.4184E+06    -93.3529E+06    -264.535E+06    -93.4058E+06    -264.482E+06    -54.4184E+06     839.805E+03
             950     19.2425E-03     3.56089E-03     18.9101E-03     232.530E-03    -116.173E-03    -116.352E-03    -116.145E-03     232.484E-03    -116.334E-03    -7.70016E-03     242.761E-03     203.507E+06    -70.7832E+06    -102.189E+06    -288.099E+06    -102.220E+06    -288.068E+06    -70.7832E+06    -120.730E+03
             951     19.1022E-03     2.67187E-03     18.9144E-03     232.258E-03    -116.006E-03    -116.303E-03    -115.995E-03     232.222E-03    -116.278E-03    -6.95503E-03     238.216E-03     206.940E+06    -89.2491E+06    -109.824E+06    -305.632E+06    -109.859E+06    -305.597E+06    -89.2491E+06    -764.912E+03
             952     19.0043E-03     1.78055E-03     18.9207E-03     232.282E-03    -115.955E-03    -116.394E-03    -115.998E-03     232.260E-03    -116.329E-03    -5.44055E-03     235.376E-03     207.280E+06    -104.933E+06    -115.202E+06    -317.121E+06    -115.229E+06    -317.094E+06    -104.933E+06    -1.17683E+06
             953     18.9464E-03     889.505E-06     18.9255E-03     232.695E-03    -116.020E-03    -116.687E-03    -116.529E-03     232.688E-03    -116.171E-03    -2.78917E-03     234.101E-03     205.811E+06    -114.356E+06    -120.600E+06    -323.218E+06    -118.914E+06    -323.204E+06    -116.056E+06    -1.32882E+06
             954     23.9189E-03     15.0972E-03     18.5523E-03     255.038E-03    -119.373E-03    -135.728E-03    -121.542E-03     240.853E-03    -119.373E-03     127.946E-03     413.607E-03     107.562E+06     104.468E+06     97.1799E+06    -6.53544E+06    -6.49352E+06     104.426E+06     97.1799E+06     45.5653E+03
             955     23.1666E-03     14.2107E-03     18.2961E-03     260.219E-03    -119.169E-03    -141.069E-03    -123.454E-03     242.604E-03    -119.169E-03     159.239E-03     449.102E-03     108.546E+06     97.7877E+06     93.0258E+06    -13.0232E+06    -12.9349E+06     96.3631E+06     94.3620E+06    -779.892E+03
             956     22.5188E-03     13.3265E-03     18.1522E-03     251.353E-03    -118.895E-03    -132.536E-03    -122.478E-03     241.294E-03    -118.895E-03     122.311E-03     419.112E-03     112.381E+06     95.1051E+06     90.0631E+06    -19.6644E+06    -19.5710E+06     89.9820E+06     95.0928E+06    -686.356E+03
             957     21.8670E-03     12.4409E-03     17.9830E-03     249.781E-03    -118.371E-03    -131.536E-03    -122.857E-03     241.101E-03    -118.371E-03     112.190E-03     415.520E-03     115.744E+06     91.9942E+06     84.3715E+06    -27.3520E+06    -27.2247E+06     88.1735E+06     88.0650E+06    -118.276E+03
             958     21.2783E-03     11.5614E-03     17.8634E-03     243.715E-03    -117.676E-03    -126.224E-03    -122.078E-03     239.570E-03    -117.676E-03     75.9265E-03     386.777E-03     113.200E+06     86.6388E+06     66.3970E+06    -34.7388E+06    -34.5297E+06     86.4297E+06     66.3970E+06     538.310E+03
             959     20.7390E-03     10.6782E-03     17.7787E-03     239.442E-03    -117.028E-03    -122.573E-03    -120.944E-03     237.812E-03    -117.028E-03     46.9459E-03     357.333E-03     109.406E+06     81.2921E+06     39.9041E+06    -42.4124E+06    -42.1695E+06     81.0492E+06     39.9041E+06     1.11347E+06
             960     20.2500E-03     9.79285E-03     17.7247E-03     236.845E-03    -116.414E-03    -120.484E-03    -119.947E-03     236.308E-03    -116.414E-03     25.5419E-03     330.134E-03     85.9504E+06     45.8264E+06     18.9184E+06    -48.9838E+06    -48.5663E+06     44.5033E+06     19.8239E+06     1.53107E+06
             961     19.8061E-03     8.90701E-03     17.6903E-03     234.923E-03    -115.907E-03    -119.019E-03    -118.891E-03     234.795E-03    -115.907E-03     11.5143E-03     307.793E-03     61.0830E+06     5.10423E+06    -23.3035E+06    -58.9370E+06    -54.7779E+06    -26.5356E+06     4.17718E+06     1.60625E+06
             962     19.3995E-03     8.01924E-03     17.6645E-03     233.428E-03    -115.544E-03    -118.051E-03    -118.007E-03     233.384E-03    -115.544E-03     2.26827E-03     289.894E-03     76.0544E+06    -9.13499E+06    -60.4869E+06    -94.4381E+06    -61.5368E+06    -93.3883E+06    -9.13499E+06     1.67912E+06
             963     19.0359E-03     7.13071E-03     17.6499E-03     232.159E-03    -115.192E-03    -117.138E-03    -117.090E-03     232.112E-03    -115.192E-03    -5.28413E-03     274.525E-03     108.307E+06    -19.1203E+06    -67.1573E+06    -142.825E+06    -67.3954E+06    -142.587E+06    -19.1203E+06     1.96259E+06
             964     18.7160E-03     6.24175E-03     17.6446E-03     230.950E-03    -114.861E-03    -116.157E-03    -116.071E-03     230.865E-03    -114.861E-03    -9.48826E-03     262.088E-03     140.857E+06    -28.0401E+06    -74.1707E+06    -186.050E+06    -74.4281E+06    -185.792E+06    -28.0401E+06     2.99079E+06
             965     18.4360E-03     5.35058E-03     17.6425E-03     229.935E-03    -114.629E-03    -115.442E-03    -115.323E-03     229.817E-03    -114.629E-03    -11.9687E-03     252.243E-03     170.754E+06    -39.8387E+06    -83.7095E+06    -228.172E+06    -83.9079E+06    -227.973E+06    -39.8387E+06     3.47700E+06
             966     18.2014E-03     4.46043E-03     17.6464E-03     229.190E-03    -114.468E-03    -114.822E-03    -114.700E-03     229.068E-03    -114.468E-03    -12.5297E-03     244.304E-03     191.224E+06    -54.0930E+06    -93.0880E+06    -261.734E+06    -93.1563E+06    -261.666E+06    -54.0930E+06     2.01533E+06
             967     18.0078E-03     3.56911E-03     17.6506E-03     228.572E-03    -114.218E-03    -114.377E-03    -114.130E-03     228.469E-03    -114.361E-03    -11.6739E-03     238.036E-03     202.852E+06    -70.0058E+06    -101.622E+06    -286.744E+06    -101.664E+06    -286.703E+06    -70.0058E+06     632.516E+03
             968     17.8579E-03     2.67545E-03     17.6563E-03     228.243E-03    -113.967E-03    -114.335E-03    -113.888E-03     228.162E-03    -114.334E-03    -10.1755E-03     233.751E-03     206.813E+06    -88.6706E+06    -109.008E+06    -304.798E+06    -109.036E+06    -304.770E+06    -88.6706E+06    -491.802E+03
             969     17.7526E-03     1.78308E-03     17.6628E-03     228.520E-03    -114.149E-03    -114.437E-03    -114.163E-03     228.475E-03    -114.378E-03    -7.40977E-03     231.263E-03     206.589E+06    -106.453E+06    -116.121E+06    -317.674E+06    -116.141E+06    -317.653E+06    -106.453E+06    -809.388E+03
             970     17.6874E-03     892.711E-06     17.6648E-03     228.789E-03    -114.111E-03    -114.685E-03    -114.550E-03     228.774E-03    -114.232E-03    -4.14920E-03     229.979E-03     205.643E+06    -116.109E+06    -122.684E+06    -324.959E+06    -120.615E+06    -324.938E+06    -118.199E+06    -1.60382E+06
             971     22.9464E-03     15.0973E-03     17.2804E-03     257.742E-03    -119.257E-03    -138.662E-03    -124.631E-03     243.711E-03    -119.257E-03     129.076E-03     413.701E-03     108.672E+06     105.559E+06     99.3687E+06    -6.05027E+06    -6.02879E+06     105.538E+06     99.3687E+06     458.074E+03
             972     22.1720E-03     14.2152E-03     17.0154E-03     263.279E-03    -118.807E-03    -144.604E-03    -127.762E-03     246.437E-03    -118.807E-03     156.107E-03     446.999E-03     109.792E+06     99.3594E+06     94.7482E+06    -12.6322E+06    -12.5537E+06     97.9447E+06     96.0844E+06    -114.084E+03
             973     21.5095E-03     13.3348E-03     16.8773E-03     253.515E-03    -118.201E-03    -135.312E-03    -126.421E-03     244.624E-03    -118.201E-03     115.834E-03     415.114E-03     112.406E+06     94.5365E+06     88.7213E+06    -20.6141E+06    -20.4885E+06     89.0674E+06     94.0647E+06    -791.559E+03
             974     20.8392E-03     12.4564E-03     16.7066E-03     250.447E-03    -117.360E-03    -133.067E-03    -125.659E-03     243.039E-03    -117.360E-03     103.601E-03     409.247E-03     114.464E+06     90.3786E+06     81.9088E+06    -28.0474E+06    -27.9050E+06     86.2289E+06     85.9160E+06    -545.812E+03
             975     20.2244E-03     11.5749E-03     16.5846E-03     243.756E-03    -116.354E-03    -127.528E-03    -124.370E-03     240.598E-03    -116.354E-03     66.1208E-03     380.339E-03     112.404E+06     85.3610E+06     63.7436E+06    -35.6625E+06    -35.4398E+06     85.1383E+06     63.7436E+06     153.786E+03
             976     19.6686E-03     10.6939E-03     16.5074E-03     239.572E-03    -115.376E-03    -124.378E-03    -123.310E-03     238.503E-03    -115.376E-03     36.3702E-03     351.326E-03     108.670E+06     80.4816E+06     38.5237E+06    -42.6328E+06    -42.3579E+06     80.2067E+06     38.5237E+06     928.211E+03
             977     19.1577E-03     9.81112E-03     16.4548E-03     236.222E-03    -114.463E-03    -121.776E-03    -121.548E-03     235.993E-03    -114.463E-03     13.2274E-03     323.544E-03     86.5900E+06     46.2026E+06     18.2649E+06    -49.7390E+06    -49.3717E+06     45.8354E+06     18.2649E+06     2.20354E+06
             978     18.6927E-03     8.92626E-03     16.4237E-03     233.536E-03    -113.658E-03    -119.878E-03    -119.823E-03     233.481E-03    -113.658E-03    -1.23703E-03     301.019E-03     61.1429E+06     4.44285E+06    -23.3836E+06    -60.6150E+06    -56.5559E+06    -24.3080E+06     1.30813E+06     3.10047E+06
             979     18.2672E-03     8.03982E-03     16.4028E-03     230.881E-03    -112.975E-03    -118.054E-03    -117.925E-03     230.753E-03    -112.975E-03    -10.4083E-03     282.516E-03     72.6146E+06    -11.5682E+06    -60.7458E+06    -93.4426E+06    -63.1862E+06    -91.0022E+06    -11.5682E+06     2.82253E+06
             980     17.8818E-03     7.15108E-03     16.3897E-03     228.231E-03    -112.371E-03    -115.953E-03    -115.705E-03     227.983E-03    -112.371E-03    -17.1299E-03     266.621E-03     105.417E+06    -22.7861E+06    -70.1169E+06    -143.111E+06    -70.4738E+06    -142.755E+06    -22.7861E+06     3.00804E+06
             981     17.5432E-03     6.25939E-03     16.3885E-03     226.075E-03    -111.910E-03    -114.163E-03    -113.843E-03     225.754E-03    -111.910E-03    -20.0338E-03     254.259E-03     138.333E+06    -31.6849E+06    -77.5766E+06    -187.035E+06    -77.9702E+06    -186.642E+06    -31.6849E+06     4.68941E+06
             982     17.2446E-03     5.36718E-03     16.3881E-03     224.497E-03    -111.630E-03    -112.953E-03    -112.614E-03     224.158E-03    -111.630E-03    -20.8035E-03     244.621E-03     166.928E+06    -40.7567E+06    -85.0134E+06    -225.270E+06    -85.2487E+06    -225.034E+06    -40.7567E+06     4.76637E+06
             983     16.9936E-03     4.47311E-03     16.3943E-03     223.523E-03    -111.463E-03    -112.180E-03    -111.872E-03     223.215E-03    -111.463E-03    -19.7455E-03     237.125E-03     187.692E+06    -54.8868E+06    -92.9637E+06    -258.610E+06    -93.0738E+06    -258.500E+06    -54.8868E+06     3.84668E+06
             984     16.7853E-03     3.57809E-03     16.3995E-03     222.850E-03    -111.246E-03    -111.660E-03    -111.323E-03     222.607E-03    -111.340E-03    -17.4881E-03     231.280E-03     198.256E+06    -72.3879E+06    -101.931E+06    -283.699E+06    -101.999E+06    -283.630E+06    -72.3879E+06     2.51018E+06
             985     16.6240E-03     2.68445E-03     16.4058E-03     222.553E-03    -111.118E-03    -111.442E-03    -111.180E-03     222.385E-03    -111.212E-03    -14.6482E-03     227.363E-03     203.431E+06    -90.5606E+06    -111.081E+06    -303.387E+06    -111.108E+06    -303.360E+06    -90.5606E+06     653.707E+03
             986     16.5079E-03     1.79002E-03     16.4106E-03     222.265E-03    -111.027E-03    -111.242E-03    -111.054E-03     222.179E-03    -111.128E-03    -10.3160E-03     224.583E-03     205.677E+06    -107.407E+06    -117.727E+06    -317.972E+06    -117.732E+06    -317.968E+06    -107.407E+06    -109.048E+03
             987     16.4383E-03     893.888E-06     16.4140E-03     222.229E-03    -110.999E-03    -111.227E-03    -110.969E-03     222.199E-03    -111.227E-03    -5.88368E-03     223.297E-03     204.300E+06    -117.662E+06    -123.969E+06    -325.036E+06    -121.897E+06    -325.018E+06    -119.752E+06    -813.845E+03
             988     21.9999E-03     15.1009E-03     15.9987E-03     262.028E-03    -118.997E-03    -143.117E-03    -129.566E-03     248.477E-03    -118.997E-03     130.055E-03     414.723E-03     110.037E+06     105.920E+06     100.580E+06    -6.64940E+06    -6.63194E+06     105.902E+06     100.580E+06     392.589E+03
             989     21.2115E-03     14.2246E-03     15.7349E-03     266.716E-03    -118.200E-03    -148.639E-03    -132.822E-03     250.899E-03    -118.200E-03     152.413E-03     444.031E-03     110.317E+06     99.4392E+06     94.4293E+06    -13.2591E+06    -13.1479E+06     97.7214E+06     96.0358E+06    -539.494E+03
             990     20.5261E-03     13.3494E-03     15.5922E-03     256.621E-03    -117.192E-03    -139.249E-03    -131.212E-03     248.584E-03    -117.192E-03     111.304E-03     411.150E-03     112.017E+06     94.9777E+06     89.4418E+06    -19.6422E+06    -19.4517E+06     89.7231E+06     94.5059E+06    -575.409E+03
             991     19.8374E-03     12.4748E-03     15.4242E-03     253.154E-03    -115.902E-03    -136.978E-03    -130.494E-03     246.669E-03    -115.902E-03     97.3030E-03     404.075E-03     114.204E+06     90.4269E+06     82.5795E+06    -27.4423E+06    -27.2648E+06     86.7918E+06     86.0371E+06    -67.2444E+03
             992     19.2070E-03     11.5980E-03     15.3101E-03     245.348E-03    -114.397E-03    -130.785E-03    -128.451E-03     243.014E-03    -114.397E-03     56.1887E-03     374.417E-03     111.063E+06     83.5549E+06     61.6530E+06    -36.1632E+06    -35.8856E+06     83.2773E+06     61.6530E+06     525.142E+03
             993     18.6236E-03     10.7195E-03     15.2293E-03     240.003E-03    -112.924E-03    -127.016E-03    -126.472E-03     239.459E-03    -112.924E-03     22.5444E-03     344.913E-03     107.787E+06     78.7774E+06     36.4172E+06    -43.4911E+06    -43.1957E+06     78.4821E+06     36.4172E+06     1.88686E+06
             994     18.0961E-03     9.84078E-03     15.1864E-03     235.486E-03    -111.595E-03    -123.859E-03    -123.768E-03     235.395E-03    -111.595E-03    -1.73850E-03     316.557E-03     87.7386E+06     46.7182E+06     16.4503E+06    -51.2862E+06    -50.7194E+06     46.1514E+06     16.4503E+06     3.73576E+06
             995     17.6082E-03     8.95596E-03     15.1604E-03     231.319E-03    -110.355E-03    -120.940E-03    -120.703E-03     231.082E-03    -110.355E-03    -15.7820E-03     293.190E-03     61.1535E+06     4.17830E+06    -24.4261E+06    -61.8240E+06    -59.1360E+06    -21.6943E+06    -1.24153E+06     4.70645E+06
             996     17.1608E-03     8.07019E-03     15.1448E-03     227.081E-03    -109.255E-03    -117.856E-03    -117.336E-03     226.562E-03    -109.255E-03    -25.1904E-03     273.455E-03     69.6823E+06    -13.9633E+06    -61.5850E+06    -92.7144E+06    -66.1627E+06    -88.1368E+06    -13.9633E+06     4.97543E+06
             997     16.7570E-03     7.17904E-03     15.1413E-03     222.927E-03    -108.365E-03    -114.499E-03    -113.750E-03     222.178E-03    -108.365E-03    -30.7733E-03     256.986E-03     102.478E+06    -25.8240E+06    -72.8825E+06    -142.904E+06    -73.8143E+06    -141.972E+06    -25.8240E+06     5.89848E+06
             998     16.3921E-03     6.28589E-03     15.1390E-03     219.502E-03    -107.686E-03    -111.712E-03    -110.882E-03     218.673E-03    -107.686E-03    -32.3137E-03     244.291E-03     130.777E+06    -38.0680E+06    -80.9730E+06    -184.752E+06    -81.3343E+06    -184.391E+06    -38.0680E+06     5.40202E+06
             999     16.0756E-03     5.38947E-03     15.1453E-03     217.037E-03    -107.262E-03    -109.744E-03    -108.946E-03     216.239E-03    -107.262E-03    -31.5213E-03     234.471E-03     159.157E+06    -47.1525E+06    -87.6290E+06    -222.556E+06    -87.8170E+06    -222.368E+06    -47.1525E+06     4.64595E+06
            1000     15.8022E-03     4.49208E-03     15.1503E-03     215.506E-03    -107.016E-03    -108.492E-03    -107.807E-03     214.821E-03    -107.016E-03    -29.1680E-03     227.169E-03     183.672E+06    -58.0736E+06    -95.1067E+06    -257.385E+06    -95.2973E+06    -257.195E+06    -58.0736E+06     5.26197E+06
            1001     15.5778E-03     3.59515E-03     15.1573E-03     214.478E-03    -106.828E-03    -107.678E-03    -107.172E-03     213.973E-03    -106.828E-03    -25.0208E-03     221.675E-03     191.904E+06    -74.4416E+06    -103.354E+06    -279.098E+06    -103.506E+06    -278.947E+06    -74.4416E+06     4.81366E+06
            1002     15.4013E-03     2.69613E-03     15.1635E-03     213.816E-03    -106.657E-03    -107.151E-03    -106.834E-03     213.500E-03    -106.657E-03    -19.6772E-03     217.801E-03     198.593E+06    -91.5959E+06    -111.940E+06    -299.510E+06    -111.986E+06    -299.464E+06    -91.5959E+06     2.13931E+06
            1003     15.2762E-03     1.79760E-03     15.1700E-03     213.278E-03    -106.413E-03    -106.836E-03    -106.581E-03     213.118E-03    -106.509E-03    -13.6960E-03     215.129E-03     204.372E+06    -106.242E+06    -118.819E+06    -316.542E+06    -118.824E+06    -316.537E+06    -106.242E+06     42.5203E+03
            1004     15.1992E-03     899.342E-06     15.1726E-03     212.881E-03    -106.260E-03    -106.611E-03    -106.451E-03     212.829E-03    -106.368E-03    -7.54472E-03     213.759E-03     203.890E+06    -118.437E+06    -126.061E+06    -326.004E+06    -124.495E+06    -325.994E+06    -120.013E+06     769.755E+03
            1005     21.0879E-03     15.1083E-03     14.7119E-03     267.826E-03    -118.607E-03    -149.250E-03    -136.037E-03     254.614E-03    -118.607E-03     132.568E-03     416.606E-03     109.976E+06     105.976E+06     101.406E+06    -6.17282E+06    -6.16623E+06     105.970E+06     101.406E+06     154.025E+03
            1006     20.2812E-03     14.2365E-03     14.4446E-03     270.709E-03    -117.410E-03    -153.462E-03    -138.493E-03     255.741E-03    -117.410E-03     149.834E-03     441.058E-03     109.735E+06     99.5317E+06     94.7119E+06    -12.4904E+06    -12.3295E+06     97.7642E+06     96.3184E+06     346.038E+03
            1007     19.5777E-03     13.3644E-03     14.3066E-03     259.813E-03    -115.972E-03    -144.050E-03    -136.801E-03     252.564E-03    -115.972E-03     106.896E-03     407.805E-03     112.070E+06     94.5333E+06     89.2296E+06    -20.0457E+06    -19.7914E+06     89.5377E+06     93.9708E+06     23.8169E+03
            1008     18.8679E-03     12.4936E-03     14.1388E-03     256.756E-03    -114.130E-03    -142.633E-03    -137.100E-03     251.223E-03    -114.130E-03     90.2869E-03     401.455E-03     113.916E+06     89.3457E+06     81.7189E+06    -28.1417E+06    -27.8816E+06     85.9509E+06     84.8536E+06     587.034E+03
            1009     18.2195E-03     11.6269E-03     14.0273E-03     248.760E-03    -111.939E-03    -136.534E-03    -134.861E-03     247.087E-03    -111.939E-03     46.7601E-03     371.453E-03     110.773E+06     83.2772E+06     60.7040E+06    -36.3094E+06    -35.9687E+06     82.9365E+06     60.7040E+06     1.39435E+06
            1010     17.6184E-03     10.7557E-03     13.9543E-03     241.244E-03    -109.812E-03    -131.167E-03    -130.896E-03     240.973E-03    -109.812E-03     11.1116E-03     340.051E-03     106.683E+06     76.0287E+06     32.8836E+06     -45.227E+06    -44.6758E+06     75.4776E+06     32.8836E+06     3.54711E+06
            1011     17.0656E-03     9.87609E-03     13.9175E-03     234.992E-03    -107.929E-03    -127.008E-03    -126.769E-03     234.753E-03    -107.929E-03    -14.6790E-03     310.705E-03     88.8942E+06     46.9818E+06     13.4570E+06    -53.2049E+06    -52.3821E+06     46.1589E+06     13.4570E+06     5.96542E+06
            1012     16.5564E-03     8.99630E-03     13.8990E-03     228.849E-03    -106.136E-03    -122.669E-03    -121.954E-03     228.134E-03    -106.136E-03    -30.1707E-03     285.862E-03     62.1998E+06     6.30613E+06    -22.4190E+06    -62.1980E+06    -58.8944E+06    -17.2618E+06    -2.15465E+06     6.62640E+06
            1013     16.0841E-03     8.10818E-03     13.8909E-03     222.468E-03    -104.532E-03    -117.819E-03    -116.599E-03     221.247E-03    -104.532E-03    -39.8067E-03     264.489E-03     67.8710E+06    -15.8719E+06    -59.4503E+06    -93.0543E+06    -66.0954E+06    -86.4093E+06    -15.8719E+06     7.30482E+06
            1014     15.6555E-03     7.21725E-03     13.8927E-03     216.917E-03    -103.263E-03    -113.481E-03    -111.919E-03     215.355E-03    -103.263E-03    -44.7217E-03     247.339E-03     99.1704E+06    -26.9571E+06    -71.3159E+06    -140.119E+06    -72.4499E+06    -138.985E+06    -26.9571E+06     7.50216E+06
            1015     15.2705E-03     6.32033E-03     13.9011E-03     211.901E-03    -102.249E-03    -109.541E-03    -107.888E-03     210.249E-03    -102.249E-03    -45.4173E-03     233.569E-03     126.279E+06    -38.9064E+06    -78.7355E+06    -180.169E+06    -79.2773E+06    -179.627E+06    -38.9064E+06     6.62374E+06
            1016     14.9274E-03     5.42160E-03     13.9081E-03     207.889E-03    -101.507E-03    -106.300E-03    -104.761E-03     206.350E-03    -101.507E-03    -43.3509E-03     222.759E-03     155.856E+06    -49.8156E+06    -86.7355E+06    -220.712E+06    -87.0966E+06    -220.351E+06    -49.8156E+06     6.49416E+06
            1017     14.6334E-03     4.52012E-03     13.9178E-03     204.971E-03    -101.019E-03    -103.837E-03    -102.573E-03     203.707E-03    -101.019E-03    -38.9053E-03     214.704E-03     180.146E+06    -60.5207E+06    -95.2630E+06    -255.460E+06    -95.6034E+06     -255.12E+06    -60.5207E+06     6.82781E+06
            1018     14.3880E-03     3.61622E-03     13.9262E-03     202.942E-03    -100.708E-03    -102.177E-03    -101.275E-03     202.040E-03    -100.708E-03    -32.5671E-03     208.895E-03     186.582E+06    -74.7712E+06    -103.310E+06    -273.918E+06    -103.509E+06    -273.719E+06    -74.7712E+06     5.65184E+06
            1019     14.1967E-03     2.71310E-03     13.9350E-03     201.856E-03    -100.533E-03    -101.281E-03    -100.725E-03     201.299E-03    -100.533E-03    -25.4135E-03     205.074E-03     194.067E+06    -91.2065E+06    -110.234E+06    -294.011E+06    -110.317E+06    -293.928E+06    -91.2065E+06     3.57084E+06
            1020     14.0561E-03     1.80869E-03     13.9393E-03     201.257E-03    -100.383E-03    -100.837E-03    -100.562E-03     200.982E-03    -100.383E-03    -17.5686E-03     202.706E-03     202.265E+06    -107.339E+06    -117.971E+06    -314.640E+06    -118.001E+06    -314.610E+06    -107.339E+06     1.80881E+06
            1021     13.9745E-03     904.516E-06     13.9452E-03     200.630E-03    -99.8515E-03    -100.762E-03    -100.670E-03     200.538E-03    -99.8515E-03    -9.66997E-03     201.244E-03     203.578E+06    -118.881E+06    -126.090E+06    -325.925E+06    -124.534E+06    -325.904E+06    -120.457E+06     1.22383E+06
            1022     20.2098E-03     15.1139E-03     13.4167E-03     274.334E-03    -118.235E-03    -156.269E-03    -143.060E-03     261.125E-03    -118.235E-03     137.420E-03     419.811E-03     110.256E+06     106.275E+06     101.869E+06    -6.06613E+06    -6.06099E+06     106.269E+06     101.870E+06    -314.484E+03
            1023     19.3954E-03     14.2489E-03     13.1586E-03     276.652E-03    -116.583E-03    -160.351E-03    -145.950E-03     262.250E-03    -116.583E-03     149.114E-03     441.597E-03     109.953E+06     101.041E+06     94.7201E+06    -11.8424E+06    -11.7133E+06     97.9769E+06     97.6550E+06     293.298E+03
            1024     18.6696E-03     13.3839E-03     13.0164E-03     265.231E-03    -114.607E-03    -151.318E-03    -144.716E-03     258.629E-03    -114.607E-03     103.901E-03     408.142E-03     110.949E+06     95.3780E+06     88.7466E+06    -18.6437E+06    -18.2728E+06     88.9382E+06     94.8155E+06     1.59222E+06
            1025     17.9444E-03     12.5231E-03     12.8519E-03     260.517E-03    -112.146E-03    -148.880E-03    -144.071E-03     255.707E-03    -112.146E-03     85.1996E-03     400.656E-03     113.312E+06     88.7852E+06     81.1836E+06    -28.0856E+06    -27.7097E+06     85.2752E+06     84.3177E+06     2.23930E+06
            1026     17.2684E-03     11.6585E-03     12.7387E-03     251.387E-03    -109.303E-03    -141.903E-03    -140.615E-03     250.100E-03    -109.303E-03     39.9030E-03     370.084E-03     109.836E+06     81.1889E+06     58.6404E+06    -37.4350E+06    -36.8891E+06     80.6429E+06     58.6404E+06     3.12968E+06
            1027     16.6509E-03     10.7909E-03     12.6810E-03     243.476E-03    -106.495E-03    -136.661E-03    -136.483E-03     243.298E-03    -106.495E-03     2.94476E-03     338.603E-03     105.710E+06     74.1980E+06     30.6841E+06    -46.0269E+06    -45.2508E+06     73.4219E+06     30.6841E+06     5.28203E+06
            1028     16.0756E-03     9.91980E-03     12.6500E-03     235.446E-03    -103.879E-03    -131.466E-03    -130.968E-03     234.948E-03    -103.879E-03    -24.0839E-03     307.823E-03     88.5665E+06     47.5461E+06     11.3101E+06    -53.0159E+06    -51.9399E+06     46.4701E+06     11.3101E+06     7.18330E+06
            1029     15.5435E-03     9.03963E-03     12.6446E-03     226.655E-03    -101.454E-03    -125.200E-03    -123.947E-03     225.401E-03    -101.454E-03    -41.1833E-03     280.925E-03     61.5327E+06     6.73745E+06    -20.8411E+06    -62.7247E+06    -58.4989E+06    -14.2637E+06    -4.06569E+06     9.13957E+06
            1030     15.0482E-03     8.15423E-03     12.6474E-03     218.267E-03    -99.2657E-03    -118.905E-03    -116.943E-03     216.305E-03    -99.2657E-03    -50.8698E-03     257.886E-03     64.4208E+06    -17.6381E+06    -55.7766E+06    -91.8344E+06    -65.6851E+06    -81.9258E+06    -17.6381E+06     9.78298E+06
            1031     14.5926E-03     7.26024E-03     12.6583E-03     210.870E-03    -97.4057E-03    -113.284E-03    -110.832E-03     208.418E-03    -97.4057E-03    -55.8939E-03     239.068E-03     94.1609E+06    -29.3523E+06    -71.5819E+06    -136.901E+06    -73.4238E+06    -135.059E+06    -29.3523E+06     9.28064E+06
            1032     14.1790E-03     6.36332E-03     12.6709E-03     203.845E-03    -95.8425E-03    -107.923E-03    -105.326E-03     201.248E-03    -95.8425E-03    -56.3942E-03     223.461E-03     121.584E+06    -40.7238E+06    -79.8826E+06    -176.898E+06    -80.8567E+06    -175.924E+06    -40.7238E+06     9.16378E+06
            1033     13.8111E-03     5.46037E-03     12.6859E-03     197.489E-03    -94.6423E-03    -102.787E-03    -100.396E-03     195.098E-03    -94.6423E-03    -53.0700E-03     210.642E-03     152.043E+06    -52.0734E+06    -87.8331E+06    -218.704E+06    -88.5994E+06    -217.937E+06    -52.0734E+06     9.47370E+06
            1034     13.4903E-03     4.55332E-03     12.6987E-03     192.646E-03    -93.8023E-03    -98.7567E-03    -96.8186E-03     190.708E-03    -93.8023E-03    -47.0244E-03     201.032E-03     172.335E+06    -64.1065E+06    -95.8197E+06    -250.024E+06    -96.3424E+06    -249.502E+06    -64.1065E+06     8.67842E+06
            1035     13.2225E-03     3.64479E-03     12.7102E-03     189.303E-03    -93.2284E-03    -95.9829E-03    -94.5882E-03     187.908E-03    -93.2284E-03    -39.3746E-03     194.314E-03     178.518E+06    -78.4683E+06    -103.342E+06    -268.057E+06    -103.592E+06    -267.807E+06    -78.4683E+06     5.80847E+06
            1036     13.0089E-03     2.73349E-03     12.7185E-03     187.268E-03    -92.9126E-03    -94.2596E-03    -93.3974E-03     186.406E-03    -92.9126E-03    -30.5687E-03     189.889E-03     189.386E+06    -93.6802E+06    -110.059E+06    -290.645E+06    -110.203E+06    -290.500E+06    -93.6802E+06     4.78510E+06
            1037     12.8545E-03     1.82290E-03     12.7246E-03     186.143E-03    -92.7207E-03    -93.3742E-03    -92.9478E-03     185.717E-03    -92.7207E-03    -21.1196E-03     187.350E-03     198.812E+06    -107.917E+06    -116.024E+06    -310.599E+06    -116.141E+06    -310.482E+06    -107.917E+06     4.36517E+06
            1038     12.7628E-03     911.349E-06     12.7302E-03     185.410E-03    -92.2377E-03    -93.1647E-03    -93.0192E-03     185.265E-03    -92.2377E-03    -11.8271E-03     185.893E-03     202.796E+06    -116.278E+06    -122.842E+06    -322.252E+06    -120.761E+06    -322.220E+06    -118.390E+06     2.07822E+06
            1039     19.3732E-03     15.1170E-03     12.1159E-03     280.874E-03    -117.912E-03    -163.163E-03    -150.226E-03     267.937E-03    -117.912E-03     139.880E-03     423.506E-03     109.928E+06     106.742E+06     99.9787E+06    -6.36106E+06    -6.34275E+06     105.537E+06     101.165E+06    -977.093E+03
            1040     18.5407E-03     14.2584E-03     11.8513E-03     282.924E-03    -115.785E-03    -167.375E-03    -153.587E-03     269.136E-03    -115.785E-03     148.344E-03     443.684E-03     108.320E+06     100.694E+06     93.3180E+06    -11.0600E+06    -10.9132E+06     96.4272E+06     97.4380E+06    -68.0232E+03
            1041     17.8014E-03     13.4035E-03     11.7149E-03     271.658E-03    -113.265E-03    -159.169E-03    -152.779E-03     265.267E-03    -113.265E-03     104.020E-03     410.397E-03     110.757E+06     95.2047E+06     88.0356E+06    -18.8441E+06    -18.4792E+06     88.2322E+06     94.6432E+06     1.80524E+06
            1042     17.0543E-03     12.5471E-03     11.5508E-03     264.986E-03    -110.226E-03    -155.412E-03    -150.870E-03     260.444E-03    -110.226E-03     83.5518E-03     401.930E-03     111.482E+06     87.9361E+06     80.6302E+06    -26.9591E+06    -26.1680E+06     83.4723E+06     84.3029E+06     4.55366E+06
            1043     16.3641E-03     11.6891E-03     11.4520E-03     254.024E-03    -106.778E-03    -147.209E-03    -146.101E-03     252.916E-03    -106.778E-03     36.6119E-03     370.442E-03     108.130E+06     79.8338E+06     58.8615E+06    -36.5037E+06    -35.5846E+06     78.9147E+06     58.8615E+06     6.73554E+06
            1044     15.7203E-03     10.8272E-03     11.3973E-03     245.112E-03    -103.345E-03    -141.515E-03    -141.332E-03     244.930E-03    -103.345E-03    -1.41512E-03     338.798E-03     103.588E+06     72.5105E+06     29.2566E+06    -45.3072E+06    -44.1618E+06     71.3651E+06     29.2566E+06     8.14921E+06
            1045     15.1249E-03     9.95838E-03     11.3839E-03     235.842E-03    -100.044E-03    -135.711E-03    -135.060E-03     235.191E-03    -100.044E-03    -28.8708E-03     307.524E-03     89.3759E+06     47.5739E+06     7.02619E+06    -54.6164E+06    -52.9260E+06     45.8836E+06     7.02619E+06     10.4805E+06
            1046     14.5686E-03     9.08262E-03     11.3908E-03     225.551E-03    -96.9395E-03    -128.583E-03    -127.031E-03     223.999E-03    -96.9395E-03    -46.1386E-03     279.495E-03     63.3477E+06     6.57583E+06    -20.9546E+06    -65.2681E+06    -61.0833E+06    -10.5064E+06    -8.05711E+06     12.0717E+06
            1047     14.0473E-03     8.19736E-03     11.4075E-03     215.291E-03    -94.0842E-03    -121.134E-03    -118.720E-03     212.877E-03    -94.0842E-03    -56.5129E-03     255.046E-03     61.8814E+06    -19.7294E+06    -54.0066E+06    -90.6346E+06    -68.0039E+06    -76.6374E+06    -19.7294E+06     12.0958E+06
            1048     13.5664E-03     7.30649E-03     11.4308E-03     205.273E-03    -91.5284E-03    -113.663E-03    -110.681E-03     202.291E-03    -91.5284E-03    -61.3161E-03     233.635E-03     90.0408E+06    -30.8658E+06    -72.0192E+06    -133.532E+06    -74.7823E+06    -130.769E+06    -30.8658E+06     11.7184E+06
            1049     13.1246E-03     6.40663E-03     11.4547E-03     195.918E-03    -89.3457E-03    -106.513E-03    -103.349E-03     192.754E-03    -89.3457E-03    -61.5160E-03     215.576E-03     117.958E+06    -41.9845E+06    -79.9136E+06    -174.098E+06    -81.4959E+06    -172.515E+06    -41.9845E+06     11.5897E+06
            1050     12.7288E-03     5.50136E-03     11.4785E-03     187.692E-03    -87.5597E-03    -100.034E-03    -97.0712E-03     184.730E-03    -87.5597E-03    -58.0384E-03     200.725E-03     149.254E+06    -52.3423E+06    -87.4819E+06    -215.894E+06    -88.6876E+06    -214.688E+06    -52.3423E+06     12.0928E+06
            1051     12.3799E-03     4.59029E-03     11.4974E-03     180.656E-03    -86.1344E-03    -94.4224E-03    -91.9715E-03     178.205E-03    -86.1344E-03    -51.5652E-03     188.778E-03     163.318E+06    -66.5688E+06    -95.5379E+06    -242.360E+06    -96.3875E+06    -241.510E+06    -66.5688E+06     10.7467E+06
            1052     12.0857E-03     3.67503E-03     11.5134E-03     175.212E-03    -85.0927E-03    -90.0446E-03    -88.2320E-03     173.400E-03    -85.0927E-03    -43.4463E-03     179.973E-03     170.144E+06    -81.9948E+06    -103.504E+06    -261.816E+06    -103.913E+06    -261.406E+06    -81.9948E+06     7.47547E+06
            1053     11.8514E-03     2.75835E-03     11.5260E-03     171.469E-03    -84.4554E-03    -86.9293E-03    -85.7925E-03     170.332E-03    -84.4554E-03    -33.7532E-03     173.899E-03     185.685E+06    -95.7616E+06    -111.295E+06    -288.657E+06    -111.564E+06    -288.387E+06    -95.7616E+06     6.51317E+06
            1054     11.6785E-03     1.83883E-03     11.5329E-03     169.238E-03    -84.0798E-03    -85.0972E-03    -84.5325E-03     168.673E-03    -84.0798E-03    -23.3454E-03     170.300E-03     191.249E+06    -108.775E+06    -117.453E+06    -304.152E+06    -117.220E+06    -303.970E+06    -109.191E+06     5.63231E+06
            1055     11.5757E-03     919.967E-06     11.5391E-03     168.116E-03    -83.7116E-03    -84.3899E-03    -83.9199E-03     167.917E-03    -83.9824E-03    -13.1755E-03     168.516E-03     196.036E+06    -115.639E+06    -122.147E+06    -314.833E+06    -119.675E+06    -314.776E+06    -118.167E+06     2.43240E+06
            1056     18.5857E-03     15.1247E-03     10.8015E-03     287.973E-03    -117.619E-03    -170.435E-03    -157.529E-03     275.067E-03    -117.619E-03     142.679E-03     427.546E-03     108.587E+06     107.998E+06     99.6467E+06    -4.49158E+06    -4.47665E+06     106.068E+06     101.562E+06    -876.515E+03
            1057     17.7423E-03     14.2712E-03     10.5414E-03     288.611E-03    -115.068E-03    -173.680E-03    -160.008E-03     274.939E-03    -115.068E-03     150.089E-03     445.380E-03     108.088E+06     99.0454E+06     90.5163E+06    -12.9534E+06    -12.7106E+06     94.3884E+06     94.9306E+06    -792.062E+03
            1058     16.9755E-03     13.4183E-03     10.3980E-03     276.434E-03    -112.103E-03    -165.079E-03    -158.784E-03     270.138E-03    -112.103E-03     104.614E-03     411.784E-03     109.135E+06     91.8445E+06     84.1007E+06    -20.8209E+06    -20.1514E+06     83.9927E+06     91.2831E+06     2.26806E+06
            1059     16.2181E-03     12.5694E-03     10.2488E-03     268.219E-03    -108.631E-03    -160.295E-03    -155.912E-03     263.836E-03    -108.631E-03     83.1069E-03     403.632E-03     111.924E+06     85.1791E+06     77.9844E+06    -30.1111E+06    -29.1055E+06     80.2204E+06     81.9375E+06     5.54784E+06
            1060     15.5055E-03     11.7155E-03     10.1571E-03     256.030E-03    -104.763E-03    -151.507E-03    -150.371E-03     254.894E-03    -104.763E-03     38.3244E-03     372.158E-03     107.765E+06     77.6882E+06     58.0775E+06    -37.8275E+06    -36.3703E+06     76.2310E+06     58.0775E+06     8.44033E+06
            1061     14.8389E-03     10.8563E-03     10.1159E-03     245.681E-03    -100.895E-03    -144.684E-03    -144.481E-03     245.478E-03    -100.895E-03     772.487E-06     340.532E-03     102.088E+06     69.4571E+06     28.3270E+06    -46.4073E+06    -44.4388E+06     67.4886E+06     28.3270E+06     12.9291E+06
            1062     14.2164E-03     9.98922E-03     10.1154E-03     235.466E-03    -97.1477E-03    -138.250E-03    -137.674E-03     234.889E-03    -97.1477E-03    -27.0464E-03     309.593E-03     92.6472E+06     49.6181E+06     7.70736E+06    -56.4470E+06    -53.6077E+06     46.7788E+06     7.70736E+06     15.8247E+06
            1063     13.6334E-03     9.11562E-03     10.1378E-03     224.481E-03    -93.5192E-03    -130.844E-03    -129.495E-03     223.132E-03    -93.5192E-03    -42.9354E-03     281.642E-03     68.5172E+06     10.6342E+06    -16.0657E+06    -67.1596E+06    -62.0619E+06    -4.01369E+06    -6.51550E+06     15.2318E+06
            1064     13.0862E-03     8.23504E-03     10.1703E-03     212.763E-03    -90.1096E-03    -122.536E-03    -120.481E-03     210.708E-03    -90.1096E-03    -51.7424E-03     256.349E-03     62.3621E+06    -18.9132E+06    -50.0834E+06    -90.2318E+06    -68.8491E+06    -71.4661E+06    -18.9132E+06     13.1255E+06
            1065     12.5741E-03     7.34294E-03     10.2073E-03     201.009E-03    -86.9836E-03    -114.016E-03    -111.462E-03     198.454E-03    -86.9836E-03    -56.1183E-03     233.069E-03     89.0474E+06    -29.1672E+06    -70.6927E+06    -130.774E+06    -73.9247E+06    -127.542E+06    -29.1672E+06     12.4961E+06
            1066     12.1030E-03     6.44330E-03     10.2453E-03     190.084E-03    -84.1750E-03    -105.906E-03    -103.114E-03     187.292E-03    -84.1750E-03    -57.0045E-03     212.926E-03     116.684E+06    -40.5556E+06    -77.7365E+06    -171.099E+06    -79.6993E+06    -169.136E+06    -40.5556E+06     13.0208E+06
            1067     11.6761E-03     5.53620E-03     10.2802E-03     180.268E-03    -81.6989E-03    -98.5173E-03    -95.7867E-03     177.537E-03    -81.6989E-03    -54.7926E-03     195.732E-03     147.656E+06    -51.0833E+06    -85.0730E+06    -212.638E+06    -86.6453E+06    -211.066E+06    -51.0833E+06     13.7626E+06
            1068     11.2992E-03     4.62351E-03     10.3099E-03     171.153E-03    -79.5505E-03    -91.5242E-03    -89.1712E-03     168.800E-03    -79.5505E-03    -49.3999E-03     180.945E-03     159.482E+06    -64.4978E+06    -92.8407E+06    -236.188E+06    -94.1342E+06    -234.894E+06    -64.4978E+06     13.2041E+06
            1069     10.9766E-03     3.70498E-03     10.3324E-03     163.372E-03    -77.8419E-03    -85.4572E-03    -83.6585E-03     161.574E-03    -77.8419E-03    -42.0209E-03     169.084E-03     166.427E+06    -79.0619E+06    -101.182E+06    -255.384E+06    -102.063E+06    -254.503E+06    -79.0619E+06     10.9929E+06
            1070     10.7166E-03     2.78132E-03     10.3494E-03     157.523E-03    -76.5999E-03    -80.8448E-03    -79.6674E-03     156.346E-03    -76.5999E-03    -33.1252E-03     160.418E-03     183.691E+06    -93.0442E+06    -109.269E+06    -284.196E+06    -109.776E+06    -283.689E+06    -93.0442E+06     9.23239E+06
            1071     10.5246E-03     1.85593E-03     10.3597E-03     153.310E-03    -75.7464E-03    -77.5006E-03    -76.8944E-03     152.703E-03    -75.7464E-03    -23.1469E-03     154.491E-03     184.226E+06    -108.072E+06    -116.372E+06    -296.242E+06    -116.235E+06    -295.963E+06    -108.487E+06     6.62585E+06
            1072     10.4068E-03     927.698E-06     10.3654E-03     151.114E-03    -75.1049E-03    -75.9847E-03    -75.4935E-03     150.894E-03    -75.3757E-03    -13.2892E-03     151.472E-03     186.740E+06    -115.728E+06    -122.666E+06    -305.818E+06    -119.682E+06    -305.741E+06    -118.789E+06     3.03606E+06
            1073     17.8519E-03     15.1251E-03     9.48261E-03     295.014E-03    -117.507E-03    -177.375E-03    -164.021E-03     281.660E-03    -117.507E-03     147.680E-03     430.764E-03     109.884E+06     107.866E+06     97.4780E+06    -6.77572E+06    -6.76595E+06     105.942E+06     99.3925E+06    -662.343E+03
            1074     16.9938E-03     14.2769E-03     9.21741E-03     294.050E-03    -114.637E-03    -179.429E-03    -165.237E-03     279.858E-03    -114.637E-03     155.265E-03     447.438E-03     106.944E+06     97.3138E+06     88.3439E+06    -13.7507E+06    -13.1044E+06     92.2543E+06     92.7571E+06     2.29213E+06
            1075     16.2152E-03     13.4317E-03     9.08415E-03     279.436E-03    -111.400E-03    -168.719E-03    -161.829E-03     272.546E-03    -111.400E-03     110.058E-03     413.046E-03     109.299E+06     89.2189E+06     80.6384E+06    -23.9772E+06    -22.8222E+06     80.4868E+06     88.2154E+06     4.14925E+06
            1076     15.4353E-03     12.5823E-03     8.94067E-03     269.373E-03    -107.748E-03    -162.409E-03    -157.403E-03     264.367E-03    -107.748E-03     89.5853E-03     405.032E-03     110.851E+06     81.6450E+06     75.4239E+06    -32.0939E+06    -30.7841E+06     75.9874E+06     79.7716E+06     5.69105E+06
            1077     14.7015E-03     11.7287E-03     8.86417E-03     255.868E-03    -103.794E-03    -152.386E-03    -150.844E-03     254.325E-03    -103.794E-03     46.5420E-03     374.073E-03     107.523E+06     72.8770E+06     55.8231E+06    -41.4584E+06    -39.6636E+06     71.0822E+06     55.8231E+06     10.6401E+06
            1078     14.0064E-03     10.8693E-03     8.83391E-03     244.022E-03    -99.8854E-03    -144.007E-03    -143.713E-03     243.728E-03    -99.8854E-03     12.0401E-03     343.267E-03     102.697E+06     65.1815E+06     27.7776E+06    -50.6766E+06    -47.9619E+06     62.4668E+06     27.7776E+06     16.0306E+06
            1079     13.3588E-03     10.0051E-03     8.85183E-03     232.527E-03    -96.1367E-03    -136.292E-03    -136.049E-03     232.283E-03    -96.1367E-03    -11.1502E-03     313.895E-03     96.9400E+06     52.4263E+06     10.3441E+06    -58.2948E+06    -54.5707E+06     48.7022E+06     10.3441E+06     18.7567E+06
            1080     12.7427E-03     9.13058E-03     8.88870E-03     221.386E-03    -92.5177E-03    -128.766E-03    -128.206E-03     220.827E-03    -92.5177E-03    -22.6301E-03     287.578E-03     72.5307E+06     17.9564E+06    -11.5568E+06    -64.5527E+06    -59.7821E+06     3.53143E+06    -1.90250E+06     16.2024E+06
            1081     12.1622E-03     8.24704E-03     8.93893E-03     210.673E-03    -89.0105E-03    -121.599E-03    -120.739E-03     209.813E-03    -89.0105E-03    -29.5350E-03     263.554E-03     64.2652E+06    -12.7241E+06    -45.5265E+06    -86.2004E+06    -65.1126E+06    -66.6142E+06    -12.7241E+06     13.1425E+06
            1082     11.6181E-03     7.35795E-03     8.99111E-03     199.721E-03    -85.5512E-03    -114.170E-03    -113.022E-03     198.573E-03    -85.5512E-03    -34.2794E-03     240.378E-03     91.6366E+06    -23.2026E+06    -67.8076E+06    -127.993E+06    -71.1125E+06    -124.688E+06    -23.2026E+06     12.5322E+06
            1083     11.1143E-03     6.46069E-03     9.04369E-03     188.580E-03    -82.1981E-03    -106.370E-03    -105.011E-03     187.220E-03    -82.1981E-03    -36.8357E-03     218.810E-03     119.532E+06    -35.8371E+06    -74.8185E+06    -169.737E+06    -76.6962E+06    -167.859E+06    -35.8371E+06     12.9437E+06
            1084     10.6543E-03     5.55557E-03     9.09116E-03     177.706E-03    -79.0871E-03    -98.5814E-03    -97.1448E-03     176.270E-03    -79.0871E-03    -37.3243E-03     199.045E-03     150.232E+06    -46.2529E+06    -81.4954E+06    -210.892E+06    -83.2601E+06    -209.127E+06    -46.2529E+06     14.6939E+06
            1085     10.2443E-03     4.64268E-03     9.13192E-03     167.310E-03    -76.2378E-03    -91.0308E-03    -89.6874E-03     165.967E-03    -76.2378E-03    -35.5425E-03     181.388E-03     159.627E+06    -57.4301E+06    -89.0330E+06    -230.413E+06    -90.6004E+06    -228.845E+06    -57.4301E+06     14.5959E+06
            1086     9.89179E-03     3.72308E-03     9.16440E-03     157.790E-03    -73.7254E-03    -83.9940E-03    -82.8935E-03     156.689E-03    -73.7254E-03    -31.5450E-03     166.240E-03     167.385E+06    -71.2296E+06    -95.9077E+06    -249.423E+06    -97.0790E+06    -248.252E+06    -71.2296E+06     13.0424E+06
            1087     9.60447E-03     2.79845E-03     9.18774E-03     149.603E-03    -71.6490E-03    -77.8789E-03    -77.0929E-03     148.817E-03    -71.6490E-03    -26.0180E-03     154.059E-03     184.271E+06    -84.8850E+06    -102.397E+06    -277.164E+06    -103.153E+06    -276.408E+06    -84.8850E+06     11.3281E+06
            1088     9.39252E-03     1.86825E-03     9.20484E-03     143.051E-03    -70.0498E-03    -72.9631E-03    -72.5234E-03     142.612E-03    -70.0498E-03    -18.8145E-03     144.993E-03     182.601E+06    -100.072E+06    -108.970E+06    -286.836E+06    -109.373E+06    -286.434E+06    -100.072E+06     8.08683E+06
            1089     9.26216E-03     935.154E-06     9.21483E-03     138.963E-03    -68.7845E-03    -70.1684E-03    -70.0106E-03     138.806E-03    -68.7845E-03    -10.6019E-03     139.550E-03     183.319E+06    -109.136E+06    -118.083E+06    -296.692E+06    -115.581E+06    -296.548E+06    -111.781E+06     4.76929E+06
            1090     17.1799E-03     15.1230E-03     8.15135E-03     300.990E-03    -117.873E-03    -182.979E-03    -168.290E-03     286.302E-03    -117.873E-03     156.467E-03     433.015E-03     107.155E+06     105.781E+06     95.6841E+06    -5.99944E+06    -5.89336E+06     103.996E+06     97.3635E+06     1.81160E+06
            1091     16.3134E-03     14.2784E-03     7.89031E-03     297.285E-03    -114.922E-03    -182.429E-03    -166.280E-03     281.135E-03    -114.922E-03     167.629E-03     449.575E-03     106.562E+06     94.8221E+06     85.9180E+06    -15.8248E+06    -15.0634E+06     89.6578E+06     90.3209E+06     3.91016E+06
            1092     15.5118E-03     13.4295E-03     7.76298E-03     280.689E-03    -111.771E-03    -169.531E-03    -160.538E-03     271.696E-03    -111.771E-03     125.311E-03     415.212E-03     107.466E+06     88.2245E+06     79.5113E+06    -23.1890E+06    -21.3911E+06     78.7169E+06     87.2211E+06     5.96512E+06
            1093     14.7107E-03     12.5778E-03     7.62925E-03     268.705E-03    -108.346E-03    -161.052E-03    -153.884E-03     261.537E-03    -108.346E-03     107.417E-03     406.739E-03     109.787E+06     79.2424E+06     72.8717E+06    -33.5037E+06    -31.5979E+06     71.8137E+06     78.3945E+06     9.31001E+06
            1094     13.9525E-03     11.7230E-03     7.56595E-03     252.540E-03    -104.843E-03    -147.887E-03    -144.718E-03     249.371E-03    -104.843E-03     67.3325E-03     375.758E-03     108.029E+06     68.5735E+06     57.1491E+06    -44.3195E+06    -41.9193E+06     65.1412E+06     58.1812E+06     13.6810E+06
            1095     13.2292E-03     10.8591E-03     7.55592E-03     237.809E-03    -101.612E-03    -136.088E-03    -134.653E-03     236.373E-03    -101.612E-03     40.0328E-03     345.567E-03     105.442E+06     62.6802E+06     33.1602E+06    -53.7467E+06    -50.4468E+06     59.3803E+06     33.1602E+06     17.3311E+06
            1096     12.5406E-03     9.98388E-03     7.58868E-03     226.606E-03    -98.6500E-03    -128.011E-03    -127.058E-03     225.653E-03    -98.6500E-03     26.4129E-03     320.358E-03     100.155E+06     55.6764E+06     15.2039E+06    -58.2567E+06    -55.5496E+06     52.9693E+06     15.2039E+06     16.5013E+06
            1097     11.8877E-03     9.10442E-03     7.64376E-03     219.119E-03    -95.7496E-03    -123.399E-03    -122.557E-03     218.277E-03    -95.7496E-03     20.2272E-03     298.574E-03     76.2120E+06     24.9755E+06    -9.07081E+06    -62.0395E+06    -58.6356E+06     8.02220E+06     4.47852E+06     13.1447E+06
            1098     11.2674E-03     8.22174E-03     7.70431E-03     211.949E-03    -92.7001E-03    -119.268E-03    -118.526E-03     211.207E-03    -92.7001E-03     14.2015E-03     277.468E-03     69.4196E+06    -4.38883E+06    -44.1823E+06    -84.1062E+06    -62.4020E+06    -65.8866E+06    -4.38883E+06     11.6993E+06
            1099     10.6864E-03     7.33372E-03     7.77276E-03     203.782E-03    -89.4304E-03    -114.383E-03    -113.731E-03     203.130E-03    -89.4304E-03     8.88645E-03     256.317E-03     98.3878E+06    -13.4667E+06    -65.2417E+06    -126.337E+06    -68.0272E+06    -123.552E+06    -13.4667E+06     12.0011E+06
            1100     10.1447E-03     6.44039E-03     7.83812E-03     194.747E-03    -85.9883E-03    -108.774E-03    -108.218E-03     194.190E-03    -85.9883E-03     3.87231E-03     235.086E-03     128.639E+06    -25.2384E+06    -73.3322E+06    -170.668E+06    -75.1049E+06    -168.896E+06    -25.2384E+06     12.7497E+06
            1101     9.64931E-03     5.54041E-03     7.90019E-03     184.834E-03    -82.5030E-03    -102.311E-03    -101.857E-03     184.380E-03    -82.5030E-03    -1.44019E-03     214.310E-03     155.658E+06    -36.2773E+06    -79.0545E+06    -208.672E+06    -80.5146E+06    -207.212E+06    -36.2773E+06     12.8976E+06
            1102     9.20589E-03     4.63350E-03     7.95481E-03     174.230E-03    -79.0677E-03    -95.1420E-03    -94.7568E-03     173.845E-03    -79.0677E-03    -5.87289E-03     194.462E-03     163.683E+06    -45.8822E+06    -82.5700E+06    -224.686E+06    -83.7004E+06    -223.555E+06    -45.8822E+06     11.9306E+06
            1103     8.82205E-03     3.71983E-03     7.99946E-03     163.540E-03    -75.8378E-03    -87.6888E-03    -87.3705E-03     163.222E-03    -75.8378E-03    -8.38748E-03     176.205E-03     174.278E+06    -56.7685E+06    -87.5922E+06    -244.198E+06    -88.4800E+06    -243.310E+06    -56.7685E+06     11.5841E+06
            1104     8.50649E-03     2.79791E-03     8.03319E-03     153.502E-03    -73.0049E-03    -80.4962E-03    -80.2583E-03     153.264E-03    -73.0049E-03    -8.83825E-03     160.517E-03     189.393E+06    -69.9872E+06    -94.0672E+06    -270.084E+06    -94.6999E+06    -269.452E+06    -69.9872E+06     10.2073E+06
            1105     8.27323E-03     1.86988E-03     8.05915E-03     145.149E-03    -70.6719E-03    -74.4751E-03    -74.3332E-03     145.007E-03    -70.6719E-03    -7.45914E-03     148.344E-03     185.030E+06    -85.7369E+06    -100.050E+06    -277.364E+06    -100.397E+06    -277.017E+06    -85.7369E+06     7.73116E+06
            1106     8.12795E-03     936.436E-06     8.07383E-03     139.302E-03    -68.7715E-03    -70.5258E-03    -70.4744E-03     139.251E-03    -68.7715E-03    -4.38579E-03     140.296E-03     186.155E+06    -94.8153E+06    -106.546E+06    -286.449E+06    -103.672E+06    -286.297E+06    -97.8419E+06     4.37471E+06
            1107     16.5755E-03     15.1081E-03     6.81870E-03     304.512E-03    -119.244E-03    -185.367E-03    -167.795E-03     286.939E-03    -119.244E-03     172.149E-03     436.115E-03     108.233E+06     105.727E+06     91.3847E+06    -8.81287E+06    -8.67221E+06     101.768E+06     95.2032E+06     3.30917E+06
            1108     15.6934E-03     14.2539E-03     6.56575E-03     297.817E-03    -116.601E-03    -181.378E-03    -160.947E-03     277.386E-03    -116.601E-03     189.805E-03     453.941E-03     101.535E+06     92.4471E+06     81.3795E+06    -14.0125E+06    -12.8163E+06     84.7089E+06     87.9215E+06     4.91463E+06
            1109     14.8726E-03     13.4028E-03     6.44664E-03     280.065E-03    -114.008E-03    -166.602E-03    -153.173E-03     266.637E-03    -114.008E-03     151.346E-03     418.571E-03     104.402E+06     84.9234E+06     75.1267E+06    -23.8009E+06    -21.6777E+06     74.0313E+06     83.8956E+06     9.37729E+06
            1110     14.0493E-03     12.5444E-03     6.32628E-03     264.454E-03    -111.455E-03    -153.552E-03    -141.978E-03     252.879E-03    -111.455E-03     135.039E-03     403.653E-03     107.578E+06     77.2384E+06     70.1884E+06    -33.4781E+06    -30.4001E+06     67.1104E+06     77.2384E+06     14.0791E+06
            1111     13.2573E-03     11.6759E-03     6.27923E-03     244.325E-03    -109.236E-03    -135.325E-03    -127.865E-03     236.864E-03    -109.236E-03     102.185E-03     370.600E-03     109.632E+06     68.7406E+06     60.0963E+06    -44.8137E+06    -41.0609E+06     63.4877E+06     61.5965E+06     16.9615E+06
            1112     12.4990E-03     10.7971E-03     6.29652E-03     231.246E-03    -107.544E-03    -123.730E-03    -118.005E-03     225.521E-03    -107.544E-03     84.8701E-03     344.734E-03     107.326E+06     65.8544E+06     43.3282E+06    -50.5089E+06    -48.2199E+06     63.5654E+06     43.3282E+06     14.6483E+06
            1113     11.7651E-03     9.90979E-03     6.34135E-03     224.984E-03    -106.151E-03    -118.879E-03    -113.841E-03     219.946E-03    -106.151E-03     77.7436E-03     325.090E-03     101.094E+06     59.5560E+06     31.4794E+06    -52.2749E+06    -51.0574E+06     58.3385E+06     31.4794E+06     10.7500E+06
            1114     11.0614E-03     9.02303E-03     6.39831E-03     222.439E-03    -104.659E-03    -117.791E-03    -113.084E-03     217.732E-03    -104.659E-03     74.4279E-03     308.145E-03     82.1544E+06     33.5390E+06    -4.46959E+06    -57.3288E+06    -54.7781E+06     5.67442E+06     20.8443E+06     8.29827E+06
            1115     10.3952E-03     8.13829E-03     6.46754E-03     220.590E-03    -102.818E-03    -117.817E-03    -113.456E-03     216.230E-03    -102.818E-03     70.8901E-03     292.533E-03     82.5832E+06     10.2683E+06    -47.7157E+06    -83.3875E+06    -58.9321E+06    -72.1711E+06     10.2683E+06     7.76385E+06
            1116     9.76805E-03     7.25250E-03     6.54340E-03     217.644E-03    -100.519E-03    -117.190E-03    -113.398E-03     213.852E-03    -100.519E-03     65.3784E-03     276.642E-03     114.436E+06     4.04530E+06    -61.2267E+06    -127.531E+06    -62.8711E+06    -125.886E+06     4.04530E+06     8.95002E+06
            1117     9.18252E-03     6.36554E-03     6.61805E-03     212.762E-03    -97.7124E-03    -115.127E-03    -112.042E-03     209.677E-03    -97.7124E-03     57.7174E-03     259.218E-03     145.555E+06    -3.91570E+06    -65.8922E+06    -169.871E+06    -66.9428E+06    -168.820E+06    -3.91570E+06     8.02312E+06
            1118     8.64438E-03     5.47616E-03     6.68857E-03     205.842E-03    -94.5057E-03    -111.445E-03    -109.085E-03     203.482E-03    -94.5057E-03     48.4775E-03     240.799E-03     168.622E+06    -15.2722E+06    -70.5620E+06    -204.466E+06    -71.1540E+06    -203.874E+06    -15.2722E+06     5.16327E+06
            1119     8.16229E-03     4.58134E-03     6.75531E-03     196.902E-03    -91.0411E-03    -105.911E-03    -104.275E-03     195.267E-03    -91.0411E-03     38.1198E-03     221.541E-03     177.851E+06    -25.7190E+06    -73.5681E+06    -222.447E+06    -73.8756E+06    -222.139E+06    -25.7190E+06     4.22526E+06
            1120     7.74245E-03     3.67864E-03     6.81272E-03     186.537E-03    -87.5901E-03    -98.9685E-03    -97.9729E-03     185.541E-03    -87.5901E-03     27.7460E-03     202.489E-03     190.101E+06    -35.2573E+06    -76.1842E+06    -242.297E+06    -76.5454E+06    -241.936E+06    -35.2573E+06     5.03047E+06
            1121     7.39964E-03     2.76850E-03     6.86222E-03     176.197E-03    -84.4509E-03    -91.8019E-03    -91.2609E-03     175.656E-03    -84.4509E-03     18.8555E-03     185.366E-03     200.793E+06    -48.7330E+06    -80.8232E+06    -263.494E+06    -81.0412E+06    -263.275E+06    -48.7330E+06     3.79491E+06
            1122     7.14090E-03     1.85077E-03     6.89689E-03     167.328E-03    -81.8428E-03    -85.5090E-03    -85.2610E-03     167.080E-03    -81.8428E-03     11.5696E-03     171.590E-03     198.140E+06    -64.9197E+06    -84.2706E+06    -271.833E+06    -84.4376E+06    -271.666E+06    -64.9197E+06     1.58120E+06
            1123     6.98284E-03     927.650E-06     6.92095E-03     161.151E-03    -79.6704E-03    -81.4774E-03    -81.3986E-03     161.072E-03    -79.6704E-03     5.90568E-03     162.608E-03     196.806E+06    -77.5206E+06    -90.7923E+06    -280.573E+06    -87.8613E+06    -280.477E+06    -80.5472E+06     1.57528E+06
            1124     16.0314E-03     15.0667E-03     5.47740E-03     304.050E-03    -122.259E-03    -181.968E-03    -158.581E-03     280.664E-03    -122.259E-03     198.270E-03     444.395E-03     106.256E+06     107.897E+06     89.4237E+06    -6.34211E+06    -5.33870E+06     100.735E+06     95.5822E+06     6.31807E+06
            1125     15.1448E-03     14.2066E-03     5.24735E-03     299.479E-03    -120.422E-03    -179.150E-03    -151.077E-03     271.405E-03    -120.422E-03     221.875E-03     462.916E-03     102.843E+06     90.6476E+06     75.8313E+06    -18.4707E+06    -17.2123E+06     80.8889E+06     84.3315E+06     5.98337E+06
            1126     14.2913E-03     13.3393E-03     5.12867E-03     277.705E-03    -118.833E-03    -159.280E-03    -139.669E-03     258.094E-03    -118.833E-03     180.042E-03     413.566E-03     101.685E+06     79.7380E+06     68.2002E+06    -26.7644E+06    -23.4238E+06     65.8874E+06     78.7102E+06     12.0871E+06
            1127     13.4446E-03     12.4666E-03     5.03399E-03     255.514E-03    -115.939E-03    -139.913E-03    -121.153E-03     238.618E-03    -117.804E-03     158.575E-03     383.406E-03     108.648E+06     76.0409E+06     68.4859E+06    -35.9752E+06    -31.6489E+06     64.1596E+06     76.0409E+06     16.8002E+06
            1128     12.6172E-03     11.5752E-03     5.02096E-03     236.330E-03    -111.744E-03    -124.760E-03    -105.554E-03     223.014E-03    -117.634E-03     133.778E-03     351.589E-03     111.069E+06     74.3736E+06     67.2731E+06    -39.9088E+06    -37.2325E+06     69.1014E+06     69.8689E+06     14.0945E+06
            1129     11.8068E-03     10.6749E-03     5.04443E-03     230.543E-03    -109.749E-03    -120.901E-03    -100.738E-03     218.675E-03    -118.044E-03     124.267E-03     332.920E-03     109.509E+06     74.6682E+06     58.4476E+06    -41.7699E+06    -40.8139E+06     73.3385E+06     58.8213E+06     7.88691E+06
            1130     11.0294E-03     9.78342E-03     5.09240E-03     231.426E-03    -110.795E-03    -120.634E-03    -101.571E-03     220.185E-03    -118.617E-03     121.180E-03     319.885E-03     103.044E+06     66.2298E+06     43.5196E+06    -46.1561E+06    -45.7103E+06     58.4013E+06     50.9022E+06     4.13560E+06
            1131     10.2751E-03     8.88969E-03     5.15284E-03     233.814E-03    -112.500E-03    -121.286E-03    -104.078E-03     223.116E-03    -119.010E-03     119.178E-03     309.438E-03     91.6293E+06     46.7093E+06    -5.00855E+06    -51.8679E+06    -49.7232E+06    -3.16795E+06     42.7240E+06     2.87618E+06
            1132     9.55105E-03     7.99936E-03     5.21851E-03     237.222E-03    -114.154E-03    -123.106E-03    -108.095E-03     227.145E-03    -119.090E-03     117.047E-03     301.107E-03     103.743E+06     32.3201E+06    -50.2785E+06    -82.5771E+06    -53.8349E+06    -79.0207E+06     32.3201E+06     402.961E+03
            1133     8.86915E-03     7.11700E-03     5.29247E-03     240.625E-03    -116.142E-03    -124.538E-03    -112.698E-03     231.295E-03    -118.651E-03     113.746E-03     293.578E-03     136.786E+06     27.3972E+06    -54.2459E+06    -129.804E+06    -55.3967E+06    -128.654E+06     27.3972E+06    -2.67783E+06
            1134     8.23059E-03     6.23755E-03     5.36987E-03     241.854E-03    -116.930E-03    -124.894E-03    -116.118E-03     233.610E-03    -117.462E-03     107.401E-03     284.373E-03     168.530E+06     22.2783E+06    -53.6060E+06    -170.555E+06    -54.7185E+06    -169.443E+06     22.2783E+06    -5.17338E+06
            1135     7.64071E-03     5.35750E-03     5.44772E-03     240.077E-03    -115.624E-03    -124.452E-03    -117.665E-03     233.289E-03    -115.624E-03     97.2509E-03     272.820E-03     192.930E+06     12.7470E+06    -54.9529E+06    -204.745E+06    -55.4756E+06    -204.223E+06     12.7470E+06    -6.50303E+06
            1136     7.10960E-03     4.47700E-03     5.52294E-03     235.492E-03    -113.286E-03    -122.294E-03    -117.161E-03     230.360E-03    -113.286E-03     83.7333E-03     259.263E-03     200.459E+06    -3.41188E+06    -59.4201E+06    -225.748E+06    -59.8456E+06    -225.322E+06    -3.41188E+06    -5.91784E+06
            1137     6.64733E-03     3.59312E-03     5.59253E-03     229.020E-03    -110.701E-03    -118.420E-03    -114.891E-03     225.491E-03    -110.701E-03     68.1204E-03     244.963E-03     205.350E+06    -22.8125E+06    -64.3119E+06    -245.485E+06    -64.5510E+06    -245.246E+06    -22.8125E+06    -4.73670E+06
            1138     6.26538E-03     2.70273E-03     5.65246E-03     221.499E-03    -108.129E-03    -113.430E-03    -111.346E-03     219.415E-03    -108.129E-03     51.1044E-03     231.074E-03     208.017E+06    -41.9905E+06    -69.0413E+06    -261.961E+06    -69.2287E+06    -261.774E+06    -41.9905E+06    -4.19018E+06
            1139     5.97852E-03     1.80618E-03     5.69916E-03     214.402E-03    -105.950E-03    -108.460E-03    -107.478E-03     213.420E-03    -105.950E-03     33.9913E-03     219.177E-03     207.183E+06    -59.2882E+06    -74.6200E+06    -273.464E+06    -74.6834E+06    -273.400E+06    -59.2882E+06    -3.31210E+06
            1140     5.79914E-03     903.730E-06     5.72829E-03     209.644E-03    -103.936E-03    -105.710E-03    -104.788E-03     209.313E-03    -104.527E-03     18.8733E-03     211.686E-03     206.416E+06    -70.4288E+06    -83.3106E+06    -282.955E+06    -79.4773E+06    -282.880E+06    -74.3370E+06    -1.42286E+06
            1141     15.5497E-03     14.9859E-03     4.14923E-03     306.056E-03    -127.324E-03    -178.828E-03    -144.856E-03     272.084E-03    -127.324E-03     242.131E-03     472.696E-03     109.632E+06     108.252E+06     80.3263E+06    -8.88376E+06    -7.92048E+06     93.6090E+06     94.0064E+06     5.56858E+06
            1142     14.6440E-03     14.1085E-03     3.92371E-03     304.702E-03    -126.533E-03    -178.254E-03    -144.619E-03     271.066E-03    -126.533E-03     243.411E-03     454.028E-03     101.003E+06     91.2191E+06     66.4572E+06    -15.8731E+06    -10.9527E+06     70.2768E+06     82.4791E+06     12.8648E+06
            1143     13.7804E-03     13.2417E-03     3.81514E-03     271.332E-03    -123.141E-03    -148.493E-03    -124.014E-03     249.831E-03    -126.119E-03     184.339E-03     381.611E-03     107.251E+06     82.4087E+06     70.0823E+06    -30.1636E+06    -23.1459E+06     66.5163E+06     78.9570E+06     17.5697E+06
            1144     12.9093E-03     12.3464E-03     3.77028E-03     246.024E-03    -114.208E-03    -131.964E-03    -100.742E-03     227.451E-03    -126.857E-03     160.464E-03     343.816E-03     109.363E+06     81.2681E+06     72.3362E+06    -32.2152E+06    -29.5476E+06     69.6685E+06     81.2681E+06     11.2570E+06
            1145     12.0416E-03     11.4364E-03     3.76971E-03     234.503E-03    -105.707E-03    -128.798E-03    -89.7776E-03     218.573E-03    -128.798E-03     143.715E-03     320.534E-03     111.287E+06     84.1717E+06     75.2450E+06    -31.2233E+06    -30.3045E+06     77.6447E+06     80.8532E+06     5.80929E+06
            1146     11.1934E-03     10.5302E-03     3.79563E-03     234.892E-03    -103.663E-03    -131.253E-03    -89.1834E-03     220.412E-03    -131.253E-03     136.940E-03     308.947E-03     112.295E+06     83.7629E+06     69.2236E+06    -34.8521E+06    -34.3259E+06     82.8630E+06     69.5973E+06     946.669E+03
            1147     10.3584E-03     9.62161E-03     3.83686E-03     240.716E-03    -106.791E-03    -133.918E-03    -93.0186E-03     226.943E-03    -133.918E-03     135.553E-03     303.704E-03     99.5343E+06     69.7977E+06     42.9857E+06    -40.0656E+06    -39.4400E+06     53.2073E+06     58.9505E+06    -2.63468E+06
            1148     9.55420E-03     8.72596E-03     3.89107E-03     249.275E-03    -112.683E-03    -136.613E-03    -99.3042E-03     235.896E-03    -136.613E-03     136.518E-03     302.699E-03     92.5950E+06     51.5682E+06    -7.96974E+06    -50.1392E+06    -44.4523E+06    -13.6567E+06     51.5682E+06    -5.56445E+06
            1149     8.77715E-03     7.83652E-03     3.95314E-03     257.731E-03    -118.823E-03    -139.046E-03    -106.032E-03     244.941E-03    -139.046E-03     136.384E-03     302.412E-03     114.647E+06     42.2134E+06    -40.6687E+06    -85.7324E+06    -46.5820E+06    -79.8190E+06     42.2134E+06    -12.2469E+06
            1150     8.02733E-03     6.94977E-03     4.01730E-03     266.368E-03    -125.375E-03    -141.063E-03    -113.299E-03     254.292E-03    -141.063E-03     135.330E-03     303.718E-03     150.170E+06     34.8692E+06    -42.0972E+06    -137.180E+06    -47.1803E+06    -132.096E+06     34.8692E+06    -19.8390E+06
            1151     7.31936E-03     6.07199E-03     4.08705E-03     274.919E-03    -131.719E-03    -143.051E-03    -121.320E-03     263.961E-03    -142.493E-03     131.631E-03     305.214E-03     186.154E+06     28.8565E+06    -43.6165E+06    -182.012E+06    -47.5560E+06    -178.072E+06     28.8565E+06    -21.6196E+06
            1152     6.66168E-03     5.20257E-03     4.16068E-03     280.831E-03    -135.819E-03    -144.913E-03    -128.039E-03     271.457E-03    -143.320E-03     123.585E-03     304.645E-03     208.347E+06     16.4571E+06    -46.5531E+06    -215.735E+06    -48.9047E+06    -213.383E+06     16.4571E+06    -18.3572E+06
            1153     6.06232E-03     4.33576E-03     4.23709E-03     283.907E-03    -138.278E-03    -145.784E-03    -133.095E-03     276.439E-03    -143.500E-03     111.313E-03     302.037E-03     212.037E+06    -6.18112E+06    -51.9084E+06    -236.942E+06    -52.9576E+06    -235.893E+06    -6.18112E+06    -13.4138E+06
            1154     5.53188E-03     3.47019E-03     4.30807E-03     285.303E-03    -139.939E-03    -145.545E-03    -136.936E-03     279.884E-03    -143.129E-03     95.1493E-03     298.208E-03     209.599E+06    -31.9246E+06    -59.7825E+06    -253.815E+06    -60.2500E+06    -253.348E+06    -31.9246E+06    -8.45143E+06
            1155     5.09067E-03     2.60592E-03     4.37311E-03     285.001E-03    -140.877E-03    -144.222E-03    -139.352E-03     281.631E-03    -142.376E-03     74.8140E-03     293.331E-03     208.024E+06    -52.3737E+06    -67.2331E+06    -267.270E+06    -67.4247E+06    -267.078E+06    -52.3737E+06    -5.17330E+06
            1156     4.75431E-03     1.73931E-03     4.42474E-03     283.344E-03    -141.001E-03    -142.370E-03    -140.228E-03     281.686E-03    -141.484E-03     51.6137E-03     288.006E-03     209.020E+06    -67.4352E+06    -75.5154E+06    -280.338E+06    -75.2999E+06    -280.291E+06    -67.6979E+06    -2.64066E+06
            1157     4.54295E-03     871.146E-06     4.45864E-03     281.631E-03    -140.026E-03    -141.579E-03    -139.672E-03     281.070E-03    -141.372E-03     28.8732E-03     284.090E-03     208.201E+06    -74.8257E+06    -83.8212E+06    -287.319E+06    -79.7095E+06    -287.260E+06    -78.9966E+06    -486.336E+03
            1158     15.1190E-03     14.8583E-03     2.79554E-03     316.495E-03    -133.375E-03    -183.030E-03    -145.178E-03     278.644E-03    -133.375E-03     258.279E-03     480.117E-03     120.139E+06     111.524E+06     84.3955E+06    -15.8885E+06     176.673E+03     82.1859E+06     97.6681E+06     21.8041E+06
            1159     14.2405E-03     14.0052E-03     2.57794E-03     296.580E-03    -127.668E-03    -168.993E-03    -140.242E-03     273.414E-03    -133.253E-03     194.119E-03     393.545E-03     121.580E+06     96.7334E+06     75.2770E+06    -29.8797E+06    -18.0837E+06     74.0928E+06     86.1216E+06     24.7812E+06
            1160     13.3672E-03     13.1247E-03     2.53443E-03     255.756E-03    -115.874E-03    -140.103E-03    -107.321E-03     241.157E-03    -134.057E-03     143.447E-03     325.048E-03     112.916E+06     94.0945E+06     80.4148E+06    -24.9502E+06    -19.4770E+06     80.6554E+06     88.3807E+06     9.68316E+06
            1161     12.4727E-03     12.2165E-03     2.51476E-03     239.596E-03    -103.373E-03    -136.441E-03    -89.8853E-03     226.108E-03    -136.441E-03     131.691E-03     300.304E-03     103.563E+06     89.6017E+06     77.3104E+06    -19.4167E+06    -18.5437E+06     77.2825E+06     88.7566E+06     2.59925E+06
            1162     11.5798E-03     11.3021E-03     2.52082E-03     235.316E-03    -95.3849E-03    -139.891E-03    -83.5438E-03     223.475E-03    -139.891E-03     121.260E-03     286.992E-03     108.340E+06     90.6504E+06     74.3864E+06    -24.3977E+06    -23.7388E+06     86.5111E+06     77.8667E+06    -750.777E+03
            1163     10.6890E-03     10.3837E-03     2.53648E-03     239.358E-03    -95.2678E-03    -143.961E-03    -84.4255E-03     228.516E-03    -143.961E-03     116.974E-03     283.087E-03     104.976E+06     85.6694E+06     51.0688E+06    -29.4931E+06    -29.3179E+06     85.4942E+06     51.0688E+06    -2.96079E+06
            1164     9.81944E-03     9.47644E-03     2.57265E-03     248.898E-03    -100.356E-03    -148.523E-03    -90.1227E-03     238.665E-03    -148.523E-03     116.355E-03     285.527E-03     84.6056E+06     58.6760E+06     16.6682E+06    -35.9886E+06    -35.0411E+06     49.1463E+06     25.2503E+06    -6.35552E+06
            1165     8.95575E-03     8.56790E-03     2.60700E-03     261.302E-03    -107.990E-03    -153.389E-03    -98.1145E-03     251.427E-03    -153.389E-03     117.278E-03     291.653E-03     70.9095E+06     26.9615E+06    -15.8195E+06    -52.4893E+06    -38.4124E+06    -15.6472E+06     12.7123E+06    -14.8948E+06
            1166     8.12017E-03     7.67356E-03     2.65587E-03     275.151E-03    -117.002E-03    -158.270E-03    -107.398E-03     265.547E-03    -158.270E-03     119.231E-03     300.154E-03     92.7762E+06     9.90513E+06    -31.1504E+06    -92.3542E+06    -39.4617E+06    -79.4406E+06     5.30290E+06    -24.4952E+06
            1167     7.30931E-03     6.78948E-03     2.70721E-03     289.659E-03    -126.822E-03    -162.930E-03    -117.598E-03     280.435E-03    -162.930E-03     120.699E-03     310.418E-03     137.530E+06     232.106E+03    -34.0421E+06    -148.844E+06    -41.5816E+06    -140.188E+06    -884.556E+03    -29.5148E+06
            1168     6.52275E-03     5.91230E-03     2.75517E-03     304.161E-03    -136.732E-03    -167.385E-03    -128.392E-03     295.821E-03    -167.385E-03     118.164E-03     320.943E-03     182.335E+06    -5.22286E+06    -40.9804E+06    -201.344E+06    -46.5614E+06    -195.763E+06    -5.22286E+06    -28.8549E+06
            1169     5.77868E-03     5.04547E-03     2.81715E-03     318.532E-03    -146.935E-03    -171.560E-03    -139.674E-03     311.271E-03    -171.560E-03     113.307E-03     331.855E-03     206.893E+06    -14.7754E+06    -49.7715E+06    -236.347E+06    -52.8283E+06    -233.290E+06    -14.7754E+06    -22.5867E+06
            1170     5.08355E-03     4.18920E-03     2.87978E-03     331.869E-03    -156.871E-03    -175.073E-03    -150.882E-03     325.880E-03    -175.073E-03     105.460E-03     342.433E-03     212.343E+06    -33.0050E+06    -58.6696E+06    -256.751E+06    -59.7091E+06    -255.712E+06    -33.0050E+06    -13.1462E+06
            1171     4.45271E-03     3.34207E-03     2.94231E-03     343.367E-03    -165.571E-03    -177.842E-03    -161.117E-03     338.913E-03    -177.842E-03     92.7440E-03     351.465E-03     207.963E+06    -51.8896E+06    -65.5643E+06    -266.243E+06    -65.8254E+06    -265.981E+06    -51.8896E+06    -4.81994E+06
            1172     3.90488E-03     2.50013E-03     2.99957E-03     352.672E-03    -172.700E-03    -180.004E-03    -169.826E-03     349.798E-03    -180.004E-03     75.4765E-03     358.424E-03     206.438E+06    -63.7890E+06    -71.7043E+06    -274.057E+06    -71.7469E+06    -274.015E+06    -63.7890E+06    -231.615E+03
            1173     3.47219E-03     1.66523E-03     3.04683E-03     359.580E-03    -178.046E-03    -181.528E-03    -176.559E-03     358.093E-03    -181.528E-03     54.3042E-03     363.302E-03     210.052E+06    -70.3686E+06    -77.1193E+06    -283.685E+06    -76.9283E+06    -283.614E+06    -70.6314E+06     1.16285E+06
            1174     3.19163E-03     831.598E-06     3.08139E-03     363.787E-03    -180.651E-03    -183.096E-03    -180.990E-03     363.264E-03    -182.233E-03     31.2898E-03     366.408E-03     207.382E+06    -78.7490E+06    -83.6369E+06    -288.510E+06    -82.8568E+06    -288.418E+06    -79.6204E+06     1.08045E+06
            1175     14.8607E-03     14.7979E-03     1.36531E-03     352.130E-03    -139.098E-03    -212.916E-03    -186.534E-03     325.749E-03    -139.098E-03     220.845E-03     450.030E-03     140.739E+06     117.238E+06     104.485E+06    -29.3732E+06     562.519E+03     82.5194E+06     109.268E+06     15.2762E+06
            1176     14.0094E-03     13.9502E-03     1.28661E-03     275.607E-03    -123.945E-03    -151.880E-03    -129.854E-03     268.072E-03    -138.436E-03     104.656E-03     322.988E-03     137.525E+06     115.966E+06     99.5613E+06    -28.8200E+06    -10.4108E+06     91.3846E+06     105.733E+06    -1.52868E+06
            1177     13.0955E-03     13.0345E-03     1.26219E-03     242.215E-03    -102.198E-03    -140.168E-03    -96.7797E-03     236.797E-03    -140.168E-03     79.6608E-03     280.152E-03     102.077E+06     103.414E+06     86.6582E+06    -5.83181E+06    -4.40595E+06     87.4944E+06     101.152E+06    -557.558E+03
            1178     12.1852E-03     12.1207E-03     1.25275E-03     234.187E-03    -90.8717E-03    -143.564E-03    -85.7180E-03     229.033E-03    -143.564E-03     73.3931E-03     268.285E-03     97.6892E+06     92.4384E+06     78.5170E+06    -11.2670E+06    -10.6237E+06     83.4736E+06     86.8385E+06    -1.01864E+06
            1179     11.2722E-03     11.2019E-03     1.25776E-03     234.609E-03    -86.8267E-03    -147.935E-03    -82.2509E-03     230.033E-03    -147.935E-03     69.2637E-03     263.552E-03     98.5700E+06     90.0644E+06     58.9368E+06    -17.5483E+06    -17.2814E+06     89.7975E+06     58.9368E+06    -2.89056E+06
            1180     10.3615E-03     10.2831E-03     1.27166E-03     241.807E-03    -88.7381E-03    -153.125E-03    -84.4805E-03     237.549E-03    -153.125E-03     67.5410E-03     265.849E-03     95.5928E+06     82.6134E+06     17.7140E+06    -23.3277E+06    -23.1784E+06     82.4642E+06     17.7140E+06    -2.41000E+06
            1181     9.45117E-03     9.36363E-03     1.28336E-03     253.690E-03    -94.7807E-03    -158.975E-03    -90.7344E-03     249.644E-03    -158.975E-03     67.1133E-03     272.922E-03     83.0878E+06     51.5182E+06    -13.5783E+06    -40.5689E+06    -27.9603E+06     51.0315E+06    -25.7002E+06    -4.51374E+06
            1182     8.56121E-03     8.46082E-03     1.30723E-03     268.344E-03    -103.172E-03    -165.227E-03    -99.4154E-03     264.587E-03    -165.227E-03     67.2849E-03     283.503E-03     67.7385E+06     6.35326E+06    -31.5046E+06    -70.7123E+06    -31.8757E+06    -8.68625E+06    -55.3017E+06    -14.3020E+06
            1183     7.67505E-03     7.55871E-03     1.33123E-03     285.922E-03    -113.887E-03    -171.944E-03    -110.247E-03     282.282E-03    -171.944E-03     68.7928E-03     297.993E-03     73.5802E+06    -25.7115E+06    -54.0037E+06    -106.568E+06    -37.3270E+06    -83.2770E+06    -65.6789E+06    -21.9973E+06
            1184     6.80750E-03     6.67085E-03     1.35715E-03     305.089E-03    -126.046E-03    -178.838E-03    -122.449E-03     301.492E-03    -178.838E-03     70.4435E-03     314.478E-03     112.921E+06    -38.5099E+06    -64.2296E+06    -158.461E+06    -44.4732E+06    -153.032E+06    -63.6957E+06    -22.7877E+06
            1185     5.95991E-03     5.79547E-03     1.39036E-03     324.711E-03    -138.794E-03    -185.807E-03    -135.511E-03     321.428E-03    -185.807E-03     70.0162E-03     331.785E-03     163.706E+06    -45.6717E+06    -62.9892E+06    -216.813E+06    -53.2879E+06    -213.795E+06    -58.3915E+06    -19.2595E+06
            1186     5.13192E-03     4.93036E-03     1.42413E-03     345.828E-03    -152.962E-03    -192.706E-03    -150.112E-03     342.978E-03    -192.706E-03     67.7098E-03     351.095E-03     200.090E+06    -52.1229E+06    -64.9414E+06    -258.221E+06    -62.6243E+06    -256.845E+06    -55.8160E+06    -14.4088E+06
            1187     4.33330E-03     4.08010E-03     1.45956E-03     367.431E-03    -168.041E-03    -199.122E-03    -165.664E-03     365.054E-03    -199.122E-03     63.7365E-03     371.605E-03     210.286E+06    -59.9763E+06    -69.3370E+06    -274.704E+06    -69.8746E+06    -274.167E+06    -59.9763E+06    -7.28587E+06
            1188     3.57212E-03     3.24330E-03     1.49703E-03     387.786E-03    -182.743E-03    -204.848E-03    -180.936E-03     385.978E-03    -204.848E-03     57.3086E-03     391.256E-03     207.730E+06    -66.5458E+06    -74.1048E+06    -277.939E+06    -74.1584E+06    -277.885E+06    -66.5458E+06    -1.32597E+06
            1189     2.86325E-03     2.41980E-03     1.53060E-03     405.768E-03    -195.888E-03    -209.756E-03    -194.697E-03     404.577E-03    -209.756E-03     47.3571E-03     408.656E-03     206.860E+06    -70.7645E+06    -76.0004E+06    -280.188E+06    -76.1115E+06    -280.077E+06    -70.7645E+06     1.93860E+06
            1190     2.23789E-03     1.60457E-03     1.55997E-03     420.393E-03    -206.709E-03    -213.589E-03    -206.083E-03     419.767E-03    -213.589E-03     34.0224E-03     422.999E-03     205.557E+06    -72.9116E+06    -77.5374E+06    -280.721E+06    -77.6755E+06    -280.583E+06    -72.9116E+06     3.26641E+06
            1191     1.76981E-03     800.057E-06     1.57865E-03     430.244E-03    -213.742E-03    -216.468E-03    -214.381E-03     430.012E-03    -215.597E-03     19.8225E-03     432.875E-03     207.027E+06    -76.5234E+06    -79.7868E+06    -285.135E+06    -79.3616E+06    -284.952E+06    -77.1321E+06     1.54246E+06
            1192     70.9450E-03     886.952E-06     70.9395E-03     238.983E-03    -119.025E-03    -119.978E-03    -119.767E-03     238.981E-03    -119.235E-03    -791.793E-06     240.423E-03     211.020E+06    -117.040E+06    -121.861E+06    -330.413E+06    -121.684E+06    -330.386E+06    -117.243E+06    -86.3042E+03
            1193     70.9568E-03     1.77633E-03     70.9346E-03     238.890E-03    -119.304E-03    -119.629E-03    -119.384E-03     238.888E-03    -119.547E-03    -1.65594E-03     242.084E-03     213.174E+06    -103.543E+06    -116.162E+06    -322.696E+06    -116.176E+06    -322.682E+06    -103.543E+06     1.10893E+06
            1194     70.9818E-03     2.66262E-03     70.9319E-03     239.121E-03    -119.464E-03    -119.698E-03    -119.533E-03     239.120E-03    -119.628E-03    -1.33624E-03     245.659E-03     212.702E+06    -85.6021E+06    -108.813E+06    -308.888E+06    -108.828E+06    -308.873E+06    -85.6021E+06     1.02623E+06
            1195     71.0164E-03     3.54978E-03     70.9276E-03     239.173E-03    -119.469E-03    -119.768E-03    -119.492E-03     239.172E-03    -119.744E-03    -236.835E-06     250.820E-03     208.119E+06    -67.9423E+06    -101.189E+06    -290.630E+06    -101.197E+06    -290.623E+06    -67.9423E+06     464.888E+03
            1196     71.0630E-03     4.43772E-03     70.9243E-03     239.024E-03    -119.302E-03    -119.766E-03    -119.296E-03     239.018E-03    -119.766E-03     2.36962E-03     257.376E-03     198.326E+06    -50.7968E+06    -92.7498E+06    -266.680E+06    -92.7551E+06    -266.675E+06    -50.7968E+06     320.084E+03
            1197     71.1260E-03     5.32497E-03     70.9264E-03     238.512E-03    -118.829E-03    -119.713E-03    -118.800E-03     238.483E-03    -119.713E-03     6.00214E-03     265.323E-03     175.004E+06    -36.4870E+06    -84.1703E+06    -230.300E+06    -84.1734E+06    -230.296E+06    -36.4870E+06     214.258E+03
            1198     71.2037E-03     6.21337E-03     70.9320E-03     238.210E-03    -118.552E-03    -119.691E-03    -118.469E-03     238.126E-03    -119.691E-03     10.5848E-03     275.394E-03     145.698E+06    -25.4319E+06     -76.603E+06    -189.694E+06    -76.6073E+06    -189.690E+06    -25.4319E+06     276.178E+03
            1199     71.2967E-03     7.10087E-03     70.9422E-03     238.040E-03    -118.427E-03    -119.624E-03    -118.208E-03     237.821E-03    -119.624E-03     17.1856E-03     288.107E-03     117.492E+06    -15.0501E+06    -70.2290E+06    -149.579E+06    -70.2366E+06    -149.571E+06    -15.0501E+06     431.638E+03
            1200     71.4096E-03     7.98946E-03     70.9612E-03     237.598E-03    -118.061E-03    -119.580E-03    -117.585E-03     237.122E-03    -119.580E-03     25.6148E-03     303.141E-03     84.0978E+06    -4.48259E+06    -64.2053E+06    -98.2760E+06    -64.3357E+06    -98.1457E+06    -4.48259E+06     764.402E+03
            1201     71.5452E-03     8.87770E-03     70.9923E-03     237.192E-03    -117.690E-03    -119.545E-03    -116.865E-03     236.367E-03    -119.545E-03     33.9422E-03     320.734E-03     65.1584E+06     7.17369E+06    -30.9030E+06    -62.7385E+06    -58.7065E+06    -34.9350E+06     7.17369E+06    -207.211E+03
            1202     71.6991E-03     9.76576E-03     71.0309E-03     237.119E-03    -117.791E-03    -119.401E-03    -116.137E-03     235.466E-03    -119.401E-03     47.3918E-03     342.570E-03     85.7326E+06     44.4648E+06     12.5722E+06    -52.1190E+06    -52.0763E+06     37.4818E+06     19.5125E+06    -1.94938E+06
            1203     71.8883E-03     10.6548E-03     71.0943E-03     238.297E-03    -118.710E-03    -119.754E-03    -115.911E-03     235.104E-03    -119.360E-03     66.5898E-03     368.693E-03     109.956E+06     79.4344E+06     37.7215E+06    -44.8912E+06    -44.8448E+06     79.3879E+06     37.7215E+06    -2.01673E+06
            1204     72.1114E-03     11.5430E-03     71.1816E-03     241.227E-03    -119.416E-03    -122.027E-03    -116.178E-03     235.378E-03    -119.416E-03     90.4185E-03     396.253E-03     114.524E+06     86.1049E+06     64.9975E+06    -36.8764E+06    -36.8392E+06     86.0676E+06     64.9975E+06     335.038E+03
            1205     72.3816E-03     12.4302E-03     71.3063E-03     245.653E-03    -119.487E-03    -126.380E-03    -116.093E-03     235.366E-03    -119.487E-03     120.997E-03     422.036E-03     118.891E+06     94.2885E+06     87.5219E+06    -27.8202E+06    -27.7707E+06     91.8192E+06     89.9416E+06     2.18688E+06
            1206     72.7022E-03     13.3208E-03     71.4714E-03     246.566E-03    -119.520E-03    -127.112E-03    -116.189E-03     235.644E-03    -119.520E-03     125.355E-03     423.279E-03     117.160E+06     99.1307E+06     95.3676E+06    -19.8608E+06    -19.7577E+06     95.2644E+06     99.1307E+06     2.02684E+06
            1207     73.0021E-03     14.2079E-03     71.6061E-03     256.132E-03    -119.437E-03    -136.604E-03    -118.873E-03     238.401E-03    -119.437E-03     158.278E-03     451.197E-03     113.004E+06     101.440E+06     98.2591E+06    -13.1187E+06    -13.0181E+06     99.9958E+06     99.6024E+06     1.28649E+06
            1208     73.4300E-03     15.0974E-03     71.8612E-03     252.611E-03    -118.988E-03    -133.654E-03    -119.232E-03     238.605E-03    -119.404E-03     124.134E-03     412.205E-03     111.064E+06     106.806E+06     102.126E+06    -6.51780E+06    -6.46920E+06     106.757E+06     102.126E+06     185.512E+03
            1209     72.2124E-03     888.686E-06     72.2069E-03     239.016E-03    -119.197E-03    -119.833E-03    -119.831E-03     239.013E-03    -119.197E-03    -1.74070E-03     240.378E-03     212.006E+06    -117.073E+06    -122.019E+06    -331.503E+06    -121.170E+06    -331.496E+06    -117.929E+06     535.744E+03
            1210     72.2258E-03     1.77438E-03     72.2040E-03     239.124E-03    -119.442E-03    -119.714E-03    -119.579E-03     239.122E-03    -119.575E-03    -1.85475E-03     242.317E-03     212.958E+06    -105.290E+06    -116.521E+06    -323.599E+06    -116.522E+06    -323.599E+06    -105.290E+06     151.097E+03
            1211     72.2498E-03     2.66271E-03     72.2008E-03     238.988E-03    -119.311E-03    -119.710E-03    -119.355E-03     238.987E-03    -119.664E-03    -1.42225E-03     245.543E-03     212.842E+06    -86.0940E+06    -109.062E+06    -309.397E+06    -109.066E+06    -309.393E+06    -86.0940E+06     530.153E+03
            1212     72.2832E-03     3.55107E-03     72.1959E-03     239.076E-03    -119.401E-03    -119.736E-03    -119.400E-03     239.075E-03    -119.736E-03     75.5697E-06     250.705E-03     208.634E+06    -66.9634E+06    -100.650E+06    -290.354E+06    -100.654E+06    -290.350E+06    -66.9634E+06     370.046E+03
            1213     72.3317E-03     4.43746E-03     72.1954E-03     239.063E-03    -119.368E-03    -119.743E-03    -119.362E-03     239.057E-03    -119.743E-03     2.61340E-03     257.410E-03     197.616E+06    -51.3890E+06    -92.4065E+06    -266.242E+06    -92.4084E+06    -266.241E+06    -51.3890E+06     261.442E+03
            1214     72.3908E-03     5.32481E-03     72.1947E-03     238.439E-03    -118.773E-03    -119.692E-03    -118.742E-03     238.408E-03    -119.692E-03     6.20435E-03     265.255E-03     174.478E+06    -37.5599E+06    -84.6072E+06    -230.630E+06    -84.6105E+06    -230.627E+06    -37.5599E+06     467.825E+03
            1215     72.4676E-03     6.21299E-03     72.2008E-03     238.006E-03    -118.351E-03    -119.660E-03    -118.267E-03     237.921E-03    -119.660E-03     10.7292E-03     275.137E-03     145.663E+06    -26.0282E+06    -77.4945E+06    -190.310E+06    -77.5021E+06    -190.303E+06    -26.0282E+06     773.844E+03
            1216     72.5591E-03     7.10165E-03     72.2108E-03     238.096E-03    -118.482E-03    -119.597E-03    -118.270E-03     237.884E-03    -119.597E-03     16.9209E-03     288.140E-03     117.364E+06    -14.8520E+06    -70.3394E+06    -149.286E+06    -70.3481E+06    -149.277E+06    -14.8520E+06     808.740E+03
            1217     72.6721E-03     7.98885E-03     72.2317E-03     237.730E-03    -118.204E-03    -119.570E-03    -117.760E-03     237.286E-03    -119.570E-03     24.8012E-03     303.380E-03     84.2377E+06    -4.16273E+06    -62.7307E+06    -98.9444E+06    -62.8539E+06    -98.8213E+06    -4.16273E+06     743.891E+03
            1218     72.8032E-03     8.87751E-03     72.2599E-03     237.314E-03    -117.807E-03    -119.555E-03    -116.988E-03     236.495E-03    -119.555E-03     33.7063E-03     320.762E-03     65.4897E+06     8.49674E+06    -26.8465E+06    -62.0649E+06    -55.8653E+06    -33.0461E+06     8.49674E+06     564.585E+03
            1219     72.9580E-03     9.76616E-03     72.3014E-03     237.605E-03    -118.209E-03    -119.445E-03    -116.599E-03     235.995E-03    -119.445E-03     47.0177E-03     343.020E-03     86.4887E+06     45.6961E+06     16.5508E+06    -50.9936E+06    -50.9597E+06      40.167E+06     22.0459E+06    -683.248E+03
            1220     73.1423E-03     10.6542E-03     72.3622E-03     238.755E-03    -119.076E-03    -119.802E-03    -116.195E-03     235.538E-03    -119.466E-03     66.6545E-03     369.034E-03     110.892E+06     78.5003E+06     40.0516E+06    -46.1354E+06    -46.0957E+06     78.4606E+06     40.0516E+06    -1.05529E+06
            1221     73.3674E-03     11.5415E-03     72.4540E-03     240.986E-03    -119.504E-03    -121.730E-03    -115.779E-03     235.034E-03    -119.504E-03     91.2332E-03     396.021E-03     115.091E+06     83.9816E+06     64.6650E+06    -39.1554E+06    -39.0910E+06     83.9173E+06     64.6650E+06    -734.233E+03
            1222     73.6304E-03     12.4308E-03     72.5735E-03     245.450E-03    -119.512E-03    -126.188E-03    -115.889E-03     235.151E-03    -119.512E-03     121.034E-03     421.920E-03     118.094E+06     91.9671E+06     84.7558E+06    -29.5513E+06    -29.5074E+06     89.2300E+06     87.4490E+06     102.396E+03
            1223     73.9490E-03     13.3196E-03     72.7395E-03     246.963E-03    -119.541E-03    -127.456E-03    -116.431E-03     235.939E-03    -119.541E-03     126.111E-03     423.324E-03     116.223E+06     97.9219E+06     94.4058E+06    -20.0082E+06    -19.9308E+06     94.3284E+06     97.9219E+06     1.48578E+06
            1224     74.2501E-03     14.2090E-03     72.8779E-03     256.055E-03    -119.455E-03    -136.513E-03    -118.703E-03     238.244E-03    -119.455E-03     158.749E-03     451.387E-03     112.696E+06     102.692E+06     99.4536E+06    -11.5729E+06    -11.4697E+06     101.766E+06     100.276E+06     1.37384E+06
            1225     74.6694E-03     15.0977E-03     73.1272E-03     252.283E-03    -118.944E-03    -133.334E-03    -118.868E-03     238.278E-03    -119.405E-03     124.271E-03     412.132E-03     110.560E+06     108.028E+06     103.189E+06    -4.86599E+06    -4.82758E+06     107.989E+06     103.189E+06     934.965E+03
            1226     73.4809E-03     886.525E-06     73.4755E-03     239.419E-03    -119.445E-03    -119.986E-03    -119.895E-03     239.417E-03    -119.535E-03    -1.33583E-03     240.859E-03     212.807E+06    -115.822E+06    -120.763E+06    -331.054E+06    -119.911E+06    -331.049E+06    -116.678E+06     733.286E+03
            1227     73.4952E-03     1.77527E-03     73.4737E-03     239.262E-03    -119.499E-03    -119.791E-03    -119.554E-03     239.260E-03    -119.733E-03    -1.80041E-03     242.564E-03     213.359E+06    -104.690E+06    -115.497E+06    -323.202E+06    -115.501E+06    -323.198E+06    -104.690E+06     421.944E+03
            1228     73.5163E-03     2.66270E-03     73.4681E-03     239.108E-03    -119.399E-03    -119.753E-03    -119.397E-03     239.106E-03    -119.753E-03    -1.59599E-03     245.694E-03     212.360E+06    -87.9587E+06    -109.434E+06    -310.177E+06    -109.434E+06    -310.176E+06    -87.9587E+06    -83.8350E+03
            1229     73.5522E-03     3.54947E-03     73.4665E-03     238.917E-03    -119.206E-03    -119.782E-03    -119.205E-03     238.916E-03    -119.782E-03    -56.6372E-06     250.532E-03     207.714E+06    -68.7923E+06    -101.513E+06    -290.853E+06    -101.514E+06    -290.852E+06    -68.7923E+06     201.265E+03
            1230     73.5972E-03     4.43807E-03     73.4633E-03     238.660E-03    -118.990E-03    -119.733E-03    -118.984E-03     238.654E-03    -119.733E-03     2.39619E-03     257.017E-03     197.199E+06    -51.4796E+06    -93.2483E+06    -266.168E+06    -93.2496E+06    -266.166E+06    -51.4796E+06     387.256E+03
            1231     73.6575E-03     5.32589E-03     73.4647E-03     238.463E-03    -118.857E-03    -119.660E-03    -118.829E-03     238.436E-03    -119.660E-03     5.88165E-03     265.272E-03     174.255E+06    -38.0571E+06    -85.3638E+06    -230.982E+06    -85.3664E+06    -230.979E+06    -38.0571E+06     371.779E+03
            1232     73.7306E-03     6.21372E-03     73.4683E-03     238.350E-03    -118.732E-03    -119.658E-03    -118.649E-03     238.267E-03    -119.658E-03     10.5403E-03     275.522E-03     145.543E+06    -26.4731E+06    -77.7905E+06    -190.602E+06    -77.7959E+06    -190.596E+06    -26.4731E+06     418.113E+03
            1233     73.8236E-03     7.10089E-03     73.4813E-03     238.106E-03    -118.485E-03    -119.613E-03    -118.277E-03     237.898E-03    -119.613E-03     16.8282E-03     288.134E-03     117.382E+06    -14.9967E+06    -70.1820E+06    -149.422E+06    -70.1884E+06    -149.416E+06    -14.9967E+06     460.147E+03
            1234     73.9333E-03     7.98922E-03     73.5004E-03     237.791E-03    -118.238E-03    -119.584E-03    -117.802E-03     237.355E-03    -119.584E-03     24.5633E-03     303.360E-03     84.1280E+06    -4.31384E+06    -63.1712E+06    -98.6118E+06    -63.1801E+06    -98.6028E+06    -4.31384E+06     107.292E+03
            1235     74.0630E-03     8.87714E-03     73.5291E-03     237.670E-03    -118.123E-03    -119.587E-03    -117.306E-03     236.853E-03    -119.587E-03     33.6846E-03     320.987E-03     65.5842E+06     8.03470E+06    -27.7983E+06    -62.2609E+06    -56.8607E+06    -33.1985E+06     8.03470E+06     297.736E+03
            1236     74.2162E-03     9.76474E-03     73.5710E-03     237.708E-03    -118.261E-03    -119.490E-03    -116.625E-03     236.072E-03    -119.490E-03     47.3510E-03     343.058E-03      86.053E+06     45.8049E+06     15.9782E+06    -50.4770E+06    -50.4158E+06     40.2528E+06     21.4690E+06     1.49287E+06
            1237     74.3995E-03     10.6520E-03     73.6331E-03     238.476E-03    -119.009E-03    -119.583E-03    -115.817E-03     235.192E-03    -119.491E-03     67.2726E-03     368.831E-03     109.941E+06     79.6612E+06     40.3137E+06    -44.1053E+06    -44.0491E+06     79.6050E+06     40.3137E+06     1.45328E+06
            1238     74.6185E-03     11.5423E-03     73.7204E-03     240.655E-03    -119.504E-03    -121.369E-03    -115.318E-03     234.604E-03    -119.504E-03     91.9083E-03     395.449E-03     114.937E+06     85.0683E+06     66.8004E+06    -37.4052E+06    -37.3591E+06     85.0222E+06     66.8004E+06    -28.7459E+03
            1239     74.8834E-03     12.4312E-03     73.8444E-03     245.790E-03    -119.501E-03    -126.472E-03    -116.124E-03     235.442E-03    -119.501E-03     121.504E-03     421.925E-03     117.776E+06     90.6757E+06     84.3539E+06    -30.1308E+06    -30.0645E+06     87.5439E+06     87.4194E+06    -880.890E+03
            1240     75.1971E-03     13.3196E-03     74.0081E-03     247.176E-03    -119.533E-03    -127.683E-03    -116.645E-03     236.138E-03    -119.533E-03     126.302E-03     423.582E-03     116.121E+06     96.1667E+06     92.7456E+06    -21.6026E+06    -21.5667E+06     92.8392E+06     96.0372E+06    -691.422E+03
            1241     75.4960E-03     14.2086E-03     74.1469E-03     255.693E-03    -119.448E-03    -136.221E-03    -118.457E-03     237.929E-03    -119.448E-03     158.512E-03     451.191E-03     113.676E+06     101.964E+06     98.2428E+06    -13.4960E+06    -13.4433E+06     101.685E+06     98.4689E+06    -136.457E+03
            1242     75.9126E-03     15.0980E-03     74.3960E-03     252.292E-03    -119.093E-03    -133.217E-03    -118.976E-03     238.353E-03    -119.395E-03     124.022E-03     412.376E-03     111.701E+06     108.109E+06     101.397E+06    -6.79116E+06    -6.72731E+06     108.045E+06     101.397E+06     929.731E+03
            1243     74.7514E-03     888.005E-06     74.7461E-03     239.502E-03    -119.528E-03    -119.994E-03    -119.675E-03     239.501E-03    -119.845E-03    -1.19880E-03     240.989E-03     212.760E+06    -115.536E+06    -121.637E+06    -331.279E+06    -119.828E+06    -331.268E+06    -117.355E+06        -61.6719
            1244     74.7626E-03     1.77448E-03     74.7415E-03     239.330E-03    -119.580E-03    -119.780E-03    -119.578E-03     239.328E-03    -119.780E-03    -1.62225E-03     242.634E-03     213.505E+06    -104.575E+06    -115.462E+06    -323.277E+06    -115.467E+06    -323.272E+06    -104.575E+06     231.314E+03
            1245     74.7861E-03     2.66176E-03     74.7387E-03     239.306E-03    -119.547E-03    -119.813E-03    -119.545E-03     239.304E-03    -119.813E-03    -1.14031E-03     245.894E-03     212.697E+06    -87.4484E+06    -109.204E+06    -310.110E+06    -109.206E+06    -310.108E+06    -87.4484E+06     280.197E+03
            1246     74.8183E-03     3.55012E-03     74.7340E-03     239.015E-03    -119.227E-03    -119.859E-03    -119.226E-03     239.015E-03    -119.859E-03    -76.7132E-06     250.639E-03     207.587E+06    -69.0874E+06    -102.211E+06    -291.178E+06    -102.214E+06    -291.175E+06    -69.0874E+06     613.454E+03
            1247     74.8643E-03     4.43742E-03     74.7327E-03     238.691E-03    -118.938E-03    -119.798E-03    -118.935E-03     238.687E-03    -119.798E-03     1.93240E-03     256.993E-03     196.979E+06    -51.7231E+06    -94.1539E+06    -266.397E+06    -94.1564E+06    -266.395E+06    -51.7231E+06     570.992E+03
            1248     74.9225E-03     5.32565E-03     74.7330E-03     238.535E-03    -118.875E-03    -119.707E-03    -118.852E-03     238.511E-03    -119.707E-03     5.37389E-03     265.294E-03     173.993E+06    -38.0208E+06    -85.8349E+06    -230.843E+06    -85.8357E+06    -230.842E+06    -38.0208E+06     94.1127E+03
            1249     74.9973E-03     6.21268E-03     74.7395E-03     238.347E-03    -118.707E-03    -119.695E-03    -118.624E-03     238.265E-03    -119.695E-03     10.4442E-03     275.618E-03     145.396E+06    -26.8075E+06    -77.7206E+06    -190.700E+06    -77.7211E+06    -190.700E+06    -26.8075E+06    -157.787E+03
            1250     75.0859E-03     7.10068E-03     74.7494E-03     238.027E-03    -118.407E-03    -119.632E-03    -118.194E-03     237.814E-03    -119.632E-03     17.0293E-03     288.019E-03     117.255E+06    -15.5393E+06    -70.3820E+06    -149.768E+06    -70.3837E+06    -149.766E+06    -15.5393E+06    -96.3291E+03
            1251     75.1951E-03     7.98904E-03     74.7695E-03     237.844E-03    -118.270E-03    -119.593E-03    -117.818E-03     237.392E-03    -119.593E-03     24.9769E-03     303.322E-03     83.7637E+06    -5.16553E+06    -64.1521E+06    -98.8532E+06    -64.1667E+06    -98.8386E+06    -5.16553E+06     55.4972E+03
            1252     75.3245E-03     8.87612E-03     74.7997E-03     237.716E-03    -118.145E-03    -119.593E-03    -117.295E-03     236.867E-03    -119.593E-03     34.3392E-03     320.875E-03     64.8734E+06     6.91165E+06    -29.4141E+06    -62.5571E+06    -57.7685E+06    -34.2027E+06     6.91165E+06     700.196E+03
            1253     75.4743E-03     9.76458E-03     74.8400E-03     237.387E-03    -117.950E-03    -119.479E-03    -116.267E-03     235.704E-03    -119.479E-03     48.0075E-03     342.425E-03     85.4056E+06     45.4268E+06     14.4585E+06     -50.426E+06    -50.3377E+06     39.5720E+06     20.2250E+06     1.08009E+06
            1254     75.6557E-03     10.6547E-03     74.9017E-03     238.262E-03    -118.706E-03    -119.677E-03    -115.636E-03     234.970E-03    -119.455E-03     67.4209E-03     368.502E-03     109.209E+06     80.1633E+06     39.7358E+06    -43.0301E+06    -42.9334E+06     80.0666E+06     39.7358E+06     1.39544E+06
            1255     75.8729E-03     11.5423E-03     74.9898E-03     240.768E-03    -119.465E-03    -121.506E-03    -115.530E-03     234.791E-03    -119.465E-03     91.3936E-03     395.806E-03     113.952E+06     85.6528E+06     67.0847E+06    -35.9166E+06    -35.8747E+06     85.6109E+06     67.0847E+06     1.64374E+06
            1256     76.1343E-03     12.4315E-03     75.1125E-03     245.729E-03    -119.475E-03    -126.440E-03    -116.044E-03     235.333E-03    -119.475E-03     121.637E-03     421.917E-03     118.325E+06     92.3083E+06     86.0702E+06    -29.0061E+06    -28.9572E+06     89.3637E+06     88.9659E+06     609.389E+03
            1257     76.4486E-03     13.3197E-03     75.2793E-03     247.196E-03    -119.520E-03    -127.785E-03    -116.755E-03     236.165E-03    -119.520E-03     126.157E-03     423.639E-03     117.115E+06     96.7740E+06     93.2411E+06    -22.0481E+06    -21.9747E+06     93.2971E+06     96.6446E+06    -907.146E+03
            1258     76.7403E-03     14.2087E-03     75.4134E-03     256.054E-03    -119.452E-03    -136.623E-03    -118.901E-03     238.332E-03    -119.452E-03     158.245E-03     451.526E-03     113.436E+06     100.396E+06     96.5073E+06    -14.9102E+06    -14.8453E+06     99.8235E+06     97.0151E+06    -954.116E+03
            1259     77.1582E-03     15.0977E-03     75.6667E-03     252.521E-03    -119.060E-03    -133.459E-03    -119.126E-03     238.535E-03    -119.408E-03     124.056E-03     412.341E-03     111.688E+06     107.932E+06     100.384E+06    -7.33522E+06    -7.27431E+06     107.871E+06     100.384E+06      9.6185E+03
            1260     76.0194E-03     886.736E-06     76.0142E-03     239.507E-03    -119.328E-03    -120.202E-03    -119.973E-03     239.505E-03    -119.555E-03    -974.720E-06     240.924E-03     212.589E+06    -115.666E+06    -123.033E+06    -331.841E+06    -121.232E+06    -331.823E+06    -117.485E+06    -132.035E+03
            1261     76.0321E-03     1.77515E-03     76.0114E-03     239.431E-03    -119.648E-03    -119.813E-03    -119.652E-03     239.428E-03    -119.807E-03    -1.73306E-03     242.618E-03     213.498E+06    -104.182E+06    -116.895E+06    -323.695E+06    -116.898E+06    -323.693E+06    -104.182E+06    -168.018E+03
            1262     76.0536E-03     2.66294E-03     76.0070E-03     239.348E-03    -119.534E-03    -119.858E-03    -119.532E-03     239.346E-03    -119.858E-03    -1.25375E-03     245.908E-03     213.915E+06    -86.0973E+06    -110.388E+06    -311.053E+06    -110.392E+06    -311.049E+06    -86.0973E+06     844.324E+03
            1263     76.0871E-03     3.54921E-03     76.0043E-03     239.262E-03    -119.424E-03    -119.919E-03    -119.424E-03     239.261E-03    -119.919E-03    -205.271E-06     250.908E-03     208.855E+06    -67.4824E+06    -101.801E+06    -291.328E+06    -101.807E+06    -291.323E+06    -67.4824E+06     952.380E+03
            1264     76.1305E-03     4.43715E-03     76.0011E-03     239.031E-03    -119.194E-03    -119.886E-03    -119.189E-03     239.026E-03    -119.886E-03     2.10742E-03     257.292E-03     196.932E+06    -51.3990E+06    -93.3593E+06    -265.874E+06    -93.3619E+06    -265.871E+06    -51.3990E+06     584.911E+03
            1265     76.1897E-03     5.32444E-03     76.0034E-03     238.439E-03    -118.687E-03    -119.784E-03    -118.661E-03     238.414E-03    -119.784E-03     5.71101E-03     265.265E-03     173.762E+06    -38.2670E+06    -85.4961E+06    -230.673E+06    -85.4978E+06    -230.671E+06    -38.2670E+06    -25.4705E+03
            1266     76.2613E-03     6.21305E-03     76.0078E-03     237.969E-03    -118.292E-03    -119.721E-03    -118.205E-03     237.882E-03    -119.721E-03     10.7475E-03     275.196E-03     145.307E+06    -27.0599E+06    -77.8371E+06    -190.825E+06    -77.8382E+06    -190.824E+06    -27.0599E+06    -150.217E+03
            1267     76.3503E-03     7.10127E-03     76.0193E-03     237.936E-03    -118.312E-03    -119.624E-03    -118.090E-03     237.713E-03    -119.624E-03     17.4153E-03     287.787E-03     116.626E+06    -16.0197E+06    -71.0292E+06    -149.534E+06    -71.0339E+06    -149.529E+06    -16.0197E+06     199.996E+03
            1268     76.4575E-03     7.98848E-03     76.0390E-03     237.791E-03    -118.239E-03    -119.576E-03    -117.763E-03     237.316E-03    -119.576E-03     25.5989E-03     303.304E-03     83.4082E+06    -5.88859E+06    -64.7797E+06    -99.4388E+06    -64.7948E+06    -99.4237E+06    -5.88859E+06     329.031E+03
            1269     76.5848E-03     8.87736E-03     76.0686E-03     237.550E-03    -118.021E-03    -119.565E-03    -117.165E-03     236.694E-03    -119.565E-03     34.5465E-03     320.806E-03     65.0856E+06     6.50046E+06    -29.1432E+06    -63.3340E+06    -57.8452E+06    -34.6320E+06     6.50046E+06     562.769E+03
            1270     76.7336E-03     9.76586E-03     76.1096E-03     237.650E-03    -118.184E-03    -119.461E-03    -116.571E-03     236.037E-03    -119.461E-03     47.0947E-03     342.749E-03     85.9489E+06     44.9552E+06     15.1234E+06    -51.2615E+06    -51.2103E+06     39.4990E+06     20.5283E+06     62.9851E+03
            1271     76.9113E-03     10.6531E-03     76.1699E-03     238.369E-03    -118.878E-03    -119.582E-03    -115.871E-03     235.201E-03    -119.421E-03     66.1150E-03     368.887E-03     109.120E+06     78.8429E+06     37.3489E+06    -44.6839E+06    -44.6158E+06     78.7748E+06     37.3489E+06     94.5456E+03
            1272     77.1286E-03     11.5424E-03     76.2600E-03     240.578E-03    -119.375E-03    -121.409E-03    -115.493E-03     234.722E-03    -119.435E-03     90.3973E-03     395.839E-03     112.841E+06     85.1502E+06     63.4186E+06    -36.3716E+06    -36.3105E+06     85.0890E+06     63.4186E+06     1.28412E+06
            1273     77.3855E-03     12.4308E-03     76.3806E-03     245.285E-03    -119.486E-03    -125.967E-03    -115.694E-03     235.013E-03    -119.486E-03     120.746E-03     421.749E-03     117.391E+06     93.8114E+06     86.1094E+06    -27.2214E+06    -27.1867E+06     90.7390E+06     89.1470E+06     1.37480E+06
            1274     77.6999E-03     13.3210E-03     76.5495E-03     246.638E-03    -119.513E-03    -127.167E-03    -116.097E-03     235.568E-03    -119.513E-03     126.249E-03     422.834E-03     116.251E+06     98.3220E+06     94.5357E+06    -19.7544E+06    -19.6589E+06     94.4401E+06     98.3220E+06     629.662E+03
            1275     77.9894E-03     14.2085E-03     76.6842E-03     256.622E-03    -119.433E-03    -137.209E-03    -119.287E-03     238.700E-03    -119.433E-03     159.556E-03     451.385E-03     112.481E+06     100.934E+06     97.6885E+06    -13.1209E+06    -12.9958E+06     100.060E+06     98.4372E+06    -257.191E+03
            1276     78.4014E-03     15.0966E-03     76.9342E-03     252.989E-03    -118.895E-03    -134.190E-03    -119.625E-03     238.930E-03    -119.401E-03     124.431E-03     412.604E-03     111.278E+06     107.736E+06     100.901E+06    -6.78757E+06    -6.72174E+06     107.670E+06     100.901E+06    -539.439E+03
            1277     77.2891E-03     888.111E-06     77.2840E-03     239.603E-03    -119.319E-03    -120.299E-03    -120.297E-03     239.601E-03    -119.319E-03    -1.13147E-03     240.986E-03     212.700E+06    -116.908E+06    -124.546E+06    -333.323E+06    -122.728E+06    -333.290E+06    -118.759E+06     414.246E+03
            1278     77.3005E-03     1.77421E-03     77.2802E-03     239.761E-03    -119.810E-03    -119.976E-03    -119.889E-03     239.758E-03    -119.894E-03    -1.88313E-03     242.978E-03     213.708E+06    -104.048E+06    -117.247E+06    -323.994E+06    -117.256E+06    -323.984E+06    -104.048E+06     701.729E+03
            1279     77.3225E-03     2.66135E-03     77.2767E-03     239.424E-03    -119.495E-03    -119.956E-03    -119.493E-03     239.422E-03    -119.956E-03    -1.59786E-03     246.020E-03     214.253E+06    -86.1951E+06    -110.080E+06    -311.341E+06    -110.086E+06    -311.335E+06    -86.1951E+06     242.149E+03
            1280     77.3548E-03     3.55002E-03     77.2733E-03     239.083E-03    -119.198E-03    -119.954E-03    -119.198E-03     239.083E-03    -119.954E-03    -13.4723E-06     250.713E-03     209.635E+06    -67.8981E+06    -101.163E+06    -292.126E+06    -101.171E+06    -292.118E+06    -67.8981E+06     395.430E+03
            1281     77.3988E-03     4.43685E-03     77.2715E-03     238.842E-03    -119.009E-03    -119.872E-03    -119.002E-03     238.834E-03    -119.872E-03     2.70353E-03     257.129E-03     197.313E+06    -51.2200E+06    -92.5557E+06    -265.867E+06    -92.5599E+06    -265.863E+06    -51.2200E+06     803.563E+03
            1282     77.4551E-03     5.32486E-03     77.2718E-03     238.478E-03    -118.736E-03    -119.769E-03    -118.706E-03     238.449E-03    -119.769E-03     6.24237E-03     265.288E-03     173.907E+06    -37.3441E+06    -84.6257E+06    -229.900E+06    -84.6323E+06    -229.894E+06    -37.3441E+06     593.892E+03
            1283     77.5251E-03     6.21296E-03     77.2758E-03     238.221E-03    -118.526E-03    -119.731E-03    -118.442E-03     238.136E-03    -119.731E-03     10.6375E-03     275.413E-03     145.373E+06    -26.2029E+06    -77.5987E+06    -190.170E+06    -77.6034E+06    -190.165E+06    -26.2029E+06     298.299E+03
            1284     77.6143E-03     7.10097E-03     77.2887E-03     237.913E-03    -118.261E-03    -119.648E-03    -118.055E-03     237.707E-03    -119.648E-03     16.7457E-03     287.906E-03     117.195E+06    -15.9955E+06    -71.1564E+06    -150.216E+06    -71.1604E+06    -150.212E+06    -15.9955E+06     367.583E+03
            1285     77.7195E-03     7.98987E-03     77.3077E-03     237.768E-03    -118.224E-03    -119.603E-03    -117.777E-03     237.321E-03    -119.603E-03     24.7723E-03     303.322E-03     83.8763E+06    -5.27394E+06    -64.5065E+06    -98.9862E+06    -64.5119E+06    -98.9807E+06    -5.27394E+06     342.183E+03
            1286     77.8465E-03     8.87707E-03     77.3388E-03     237.511E-03    -117.989E-03    -119.585E-03    -117.189E-03     236.711E-03    -119.585E-03     33.4433E-03     320.939E-03     64.8756E+06     6.63855E+06    -30.2758E+06    -62.8688E+06    -58.3760E+06    -34.7686E+06     6.63855E+06    -63.5258E+03
            1287     77.9926E-03     9.76463E-03     77.3789E-03     237.666E-03    -118.222E-03    -119.469E-03    -116.555E-03     235.999E-03    -119.469E-03     47.5298E-03     342.811E-03     85.6737E+06     44.4438E+06     13.5911E+06    -51.7825E+06    -51.7717E+06     38.2909E+06     19.7332E+06     248.291E+03
            1288     78.1707E-03     10.6527E-03     77.4415E-03     238.698E-03    -119.087E-03    -119.738E-03    -116.153E-03     235.471E-03    -119.445E-03     67.0045E-03     369.240E-03     109.373E+06     79.2591E+06     38.4861E+06    -44.2586E+06    -44.2356E+06     79.2361E+06     38.4861E+06     147.708E+03
            1289     78.3808E-03     11.5409E-03     77.5265E-03     240.694E-03    -119.407E-03    -121.448E-03    -115.426E-03     234.732E-03    -119.467E-03     91.0284E-03     395.811E-03     113.342E+06     85.0642E+06     64.6467E+06    -36.5322E+06    -36.4782E+06     85.0103E+06     64.6467E+06    -389.389E+03
            1290     78.6410E-03     12.4301E-03     77.6525E-03     245.098E-03    -119.494E-03    -125.684E-03    -115.325E-03     234.739E-03    -119.494E-03     121.320E-03     421.397E-03     116.929E+06     92.4722E+06     85.4245E+06    -27.7939E+06    -27.7475E+06     89.7332E+06     88.1171E+06     94.8603E+03
            1291     78.9448E-03     13.3191E-03     77.8131E-03     246.450E-03    -119.502E-03    -126.889E-03    -115.781E-03     235.343E-03    -119.502E-03     126.454E-03     422.542E-03     115.147E+06     97.7813E+06     94.5407E+06    -18.9289E+06    -18.8743E+06     94.4861E+06     97.7813E+06     1.16589E+06
            1292     79.2404E-03     14.2119E-03     77.9556E-03     256.225E-03    -119.404E-03    -136.754E-03    -118.724E-03     238.194E-03    -119.404E-03     159.972E-03     450.627E-03     112.210E+06     102.234E+06     98.9480E+06    -11.5612E+06    -11.4344E+06     101.559E+06     99.4961E+06     1.08498E+06
            1293     79.6513E-03     15.0984E-03     78.2073E-03     252.960E-03    -119.122E-03    -133.967E-03    -119.683E-03     238.916E-03    -119.362E-03     123.808E-03     412.507E-03     110.767E+06     108.195E+06     102.066E+06    -5.49621E+06    -5.38823E+06     108.087E+06     102.066E+06    -142.810E+03
            1294     78.5573E-03     886.825E-06     78.5523E-03     239.851E-03    -119.597E-03    -120.262E-03    -119.929E-03     239.849E-03    -119.928E-03    -1.32919E-03     241.220E-03     212.991E+06    -116.077E+06    -122.610E+06    -332.257E+06    -120.790E+06    -332.226E+06    -117.928E+06    -837.675E+03
            1295     78.5714E-03     1.77473E-03     78.5513E-03     239.611E-03    -119.631E-03    -120.014E-03    -119.705E-03     239.609E-03    -119.939E-03    -1.48243E-03     242.863E-03     214.650E+06    -105.363E+06    -115.528E+06    -324.873E+06    -115.547E+06    -324.854E+06    -105.363E+06    -82.9494E+03
            1296     78.5905E-03     2.66193E-03     78.5454E-03     239.352E-03    -119.451E-03    -119.935E-03    -119.450E-03     239.351E-03    -119.935E-03    -1.11953E-03     245.978E-03     214.250E+06    -86.9328E+06    -108.672E+06    -311.117E+06    -108.682E+06    -311.106E+06    -86.9328E+06     204.431E+03
            1297     78.6228E-03     3.54895E-03     78.5426E-03     238.888E-03    -119.029E-03    -119.915E-03    -119.028E-03     238.888E-03    -119.915E-03     361.867E-06     250.514E-03     209.762E+06    -68.3873E+06    -101.543E+06    -292.708E+06    -101.557E+06    -292.694E+06    -68.3873E+06     152.667E+03
            1298     78.6653E-03     4.43800E-03     78.5400E-03     238.668E-03    -118.897E-03    -119.810E-03    -118.892E-03     238.662E-03    -119.810E-03     2.48837E-03     256.998E-03     197.790E+06    -51.9279E+06    -93.0319E+06    -266.979E+06    -93.0390E+06    -266.972E+06    -51.9279E+06     424.607E+03
            1299     78.7205E-03     5.32585E-03     78.5401E-03     238.755E-03    -119.055E-03    -119.736E-03    -119.027E-03     238.726E-03    -119.736E-03     5.94861E-03     265.513E-03     173.903E+06    -36.9379E+06    -84.3502E+06    -229.516E+06    -84.3583E+06    -229.508E+06    -36.9379E+06     1.04527E+06
            1300     78.7921E-03     6.21253E-03     78.5468E-03     238.670E-03    -118.941E-03    -119.759E-03    -118.862E-03     238.591E-03    -119.759E-03     10.3655E-03     275.875E-03     145.625E+06    -25.7891E+06    -77.4615E+06    -190.094E+06    -77.4707E+06    -190.085E+06    -25.7891E+06     933.082E+03
            1301     78.8768E-03     7.10014E-03     78.5566E-03     238.204E-03    -118.489E-03    -119.716E-03    -118.285E-03     238.000E-03    -119.716E-03     16.5710E-03     288.280E-03     117.917E+06    -15.1765E+06    -70.3934E+06    -150.205E+06    -70.3979E+06    -150.201E+06    -15.1765E+06     481.397E+03
            1302     78.9826E-03     7.98770E-03     78.5776E-03     237.689E-03    -118.084E-03    -119.669E-03    -117.621E-03     237.226E-03    -119.669E-03     25.1762E-03     303.188E-03     84.2692E+06    -4.59004E+06    -63.4205E+06    -99.0173E+06    -63.4814E+06    -98.9564E+06    -4.59004E+06     595.142E+03
            1303     79.1083E-03     8.87584E-03     78.6087E-03     237.158E-03    -117.579E-03    -119.616E-03    -116.760E-03     236.339E-03    -119.616E-03     33.7946E-03     320.573E-03     64.4045E+06     7.11713E+06    -29.7335E+06    -62.3008E+06    -57.1326E+06    -34.9017E+06     7.11713E+06     544.123E+03
            1304     79.2501E-03     9.76585E-03     78.6461E-03     237.243E-03    -117.829E-03    -119.452E-03    -116.087E-03     235.501E-03    -119.452E-03     48.4560E-03     342.012E-03     84.9090E+06     45.1583E+06     13.8042E+06    -50.4147E+06    -50.4138E+06     38.6920E+06     20.2696E+06     127.652E+03
            1305     79.4302E-03     10.6549E-03     78.7124E-03     238.389E-03    -118.896E-03    -119.678E-03    -115.888E-03     235.088E-03    -119.385E-03     67.8485E-03     368.299E-03     109.322E+06     79.7949E+06     38.9897E+06    -43.6478E+06    -43.6370E+06     79.7840E+06     38.9897E+06    -17.0031E+03
            1306     79.6373E-03     11.5418E-03     78.7965E-03     240.580E-03    -119.382E-03    -121.421E-03    -115.360E-03     234.534E-03    -119.398E-03     91.5887E-03     395.692E-03     113.499E+06     84.5618E+06     65.3193E+06     -36.709E+06    -36.6687E+06     84.5215E+06     65.3193E+06    -419.097E+03
            1307     79.8912E-03     12.4319E-03     78.9181E-03     245.499E-03    -119.441E-03    -126.216E-03    -115.676E-03     234.959E-03    -119.441E-03     122.543E-03     421.675E-03     117.934E+06     91.4376E+06     85.8075E+06    -29.2027E+06    -29.1462E+06     89.0771E+06     88.1116E+06    -635.366E+03
            1308     80.1984E-03     13.3217E-03     79.0842E-03     247.332E-03    -119.478E-03    -127.835E-03    -116.679E-03     236.176E-03    -119.478E-03     126.978E-03     423.545E-03     116.308E+06     97.0441E+06     94.1207E+06    -20.6856E+06    -20.6513E+06     94.0864E+06     97.0441E+06    -53.3353E+03
            1309     80.4844E-03     14.2066E-03     79.2206E-03     256.188E-03    -119.409E-03    -136.635E-03    -118.680E-03     238.233E-03    -119.409E-03     159.442E-03     451.167E-03     112.314E+06     102.503E+06     98.0982E+06    -11.9147E+06    -11.8512E+06     101.820E+06     98.7175E+06     843.659E+03
            1310     80.8963E-03     15.1000E-03     79.4745E-03     252.444E-03    -119.063E-03    -133.415E-03    -119.118E-03     238.446E-03    -119.361E-03     123.065E-03     412.141E-03     110.086E+06     108.889E+06     102.077E+06    -4.44064E+06    -4.35165E+06     108.800E+06     102.077E+06     471.977E+03
            1311     79.8280E-03     886.911E-06     79.8230E-03     239.512E-03    -119.402E-03    -120.124E-03    -119.792E-03     239.511E-03    -119.734E-03    -405.390E-06     240.914E-03     212.852E+06    -115.177E+06    -121.443E+06    -331.089E+06    -120.223E+06    -331.076E+06    -116.411E+06    -164.985E+03
            1312     79.8388E-03     1.77452E-03     79.8191E-03     239.258E-03    -119.457E-03    -119.827E-03    -119.516E-03     239.257E-03    -119.767E-03    -1.08691E-03     242.474E-03     213.983E+06    -105.991E+06    -116.652E+06    -325.063E+06    -116.666E+06    -325.050E+06    -105.991E+06    -534.182E+03
            1313     79.8601E-03     2.66254E-03     79.8157E-03     239.292E-03    -119.526E-03    -119.795E-03    -119.525E-03     239.291E-03    -119.795E-03    -1.28322E-03     245.897E-03     213.258E+06    -88.5113E+06    -110.056E+06    -311.624E+06    -110.068E+06    -311.612E+06    -88.5113E+06    -83.0525E+03
            1314     79.8895E-03     3.55052E-03     79.8106E-03     239.228E-03    -119.429E-03    -119.872E-03    -119.427E-03     239.227E-03    -119.872E-03    -225.104E-06     250.904E-03     209.659E+06    -68.2757E+06    -101.634E+06    -292.554E+06    -101.650E+06    -292.538E+06    -68.2757E+06    -45.0699E+03
            1315     79.9322E-03     4.43729E-03     79.8089E-03     238.958E-03    -119.171E-03    -119.844E-03    -119.167E-03     238.953E-03    -119.844E-03     2.00418E-03     257.362E-03     198.457E+06    -51.6892E+06    -93.1473E+06    -267.555E+06    -93.1544E+06    -267.548E+06    -51.6892E+06    -171.759E+03
            1316     79.9879E-03     5.32424E-03     79.8105E-03     238.564E-03    -118.831E-03    -119.769E-03    -118.800E-03     238.533E-03    -119.769E-03     6.07251E-03     265.346E-03     174.493E+06    -37.9961E+06    -84.7024E+06    -230.987E+06    -84.7102E+06    -230.979E+06    -37.9961E+06     460.065E+03
            1317     80.0576E-03     6.21264E-03     79.8162E-03     238.463E-03    -118.726E-03    -119.756E-03    -118.635E-03     238.372E-03    -119.756E-03     11.1161E-03     275.554E-03     146.203E+06    -25.5358E+06    -76.6561E+06    -190.307E+06    -76.6650E+06    -190.298E+06    -25.5358E+06     977.210E+03
            1318     80.1414E-03     7.09997E-03     79.8263E-03     238.321E-03    -118.613E-03    -119.700E-03    -118.385E-03     238.093E-03    -119.700E-03     17.5344E-03     288.305E-03     118.103E+06    -14.5070E+06    -69.9530E+06    -149.729E+06    -69.9784E+06    -149.704E+06    -14.5070E+06     1.09971E+06
            1319     80.2450E-03     7.98830E-03     79.8464E-03     237.452E-03    -117.851E-03    -119.647E-03    -117.364E-03     236.965E-03    -119.647E-03     25.9094E-03     302.946E-03     84.4477E+06    -3.95856E+06    -62.5987E+06    -99.0027E+06    -62.7141E+06    -98.8873E+06    -3.95856E+06     747.101E+03
            1320     80.3680E-03     8.87787E-03     79.8762E-03     237.052E-03    -117.489E-03    -119.578E-03    -116.641E-03     236.203E-03    -119.578E-03     34.3800E-03     320.457E-03     64.0563E+06     8.18393E+06    -28.5475E+06    -61.4260E+06    -55.1352E+06    -34.8383E+06     8.18393E+06     374.198E+03
            1321     80.5104E-03     9.76576E-03     79.9159E-03     237.286E-03    -117.889E-03    -119.422E-03    -116.177E-03     235.574E-03    -119.422E-03     48.2329E-03     342.198E-03     84.2667E+06     45.8264E+06     14.4669E+06    -49.1577E+06    -49.1502E+06     39.0179E+06     21.2679E+06     523.267E+03
            1322     80.6866E-03     10.6541E-03     79.9801E-03     237.554E-03    -118.486E-03    -119.292E-03    -115.228E-03     234.296E-03    -119.292E-03     67.1584E-03     367.486E-03     108.773E+06     79.1193E+06     37.9356E+06    -43.9285E+06    -43.9212E+06     79.1121E+06     37.9356E+06    -171.394E+03
            1323     80.8938E-03     11.5453E-03     80.0657E-03     240.088E-03    -119.096E-03    -121.298E-03    -115.248E-03     234.220E-03    -119.279E-03     90.3503E-03     395.410E-03     113.349E+06     84.6501E+06     63.9293E+06    -37.0158E+06    -36.9935E+06     84.6278E+06     63.9293E+06    -459.715E+03
            1324     81.1451E-03     12.4330E-03     80.1869E-03     245.935E-03    -119.405E-03    -126.756E-03    -116.441E-03     235.620E-03    -119.405E-03     121.271E-03     422.316E-03     117.869E+06     92.6369E+06     86.0666E+06    -28.3668E+06    -28.3162E+06     90.1116E+06     88.5413E+06    -130.412E+03
            1325     81.4503E-03     13.3197E-03     80.3538E-03     247.526E-03    -119.480E-03    -128.136E-03    -117.106E-03     236.497E-03    -119.480E-03     126.331E-03     423.637E-03     116.796E+06     97.8753E+06     94.6895E+06    -20.4697E+06    -20.4043E+06     94.6240E+06     97.8753E+06    -497.926E+03
            1326     81.7346E-03     14.2109E-03     80.4897E-03     256.421E-03    -119.429E-03    -136.922E-03    -119.165E-03     238.665E-03    -119.429E-03     158.645E-03     451.565E-03     113.185E+06     101.445E+06     96.8591E+06    -13.9289E+06    -13.8766E+06     100.681E+06     97.5701E+06    -391.360E+03
            1327     82.1413E-03     15.0956E-03     80.7423E-03     252.326E-03    -118.760E-03    -133.561E-03    -118.993E-03     238.391E-03    -119.391E-03     123.539E-03     412.342E-03     110.852E+06     108.107E+06     100.178E+06    -6.49559E+06    -6.45435E+06     108.065E+06     100.178E+06     185.209E+03
            1328     81.0964E-03     888.566E-06     81.0915E-03     239.134E-03    -119.236E-03    -119.916E-03    -119.914E-03     239.131E-03    -119.236E-03    -1.28120E-03     240.553E-03     212.784E+06    -117.174E+06    -122.487E+06    -332.550E+06    -121.257E+06    -332.546E+06    -118.408E+06     819.900E+03
            1329     81.1080E-03     1.77560E-03     81.0886E-03     239.346E-03    -119.614E-03    -119.740E-03    -119.695E-03     239.343E-03    -119.656E-03    -1.80723E-03     242.571E-03     213.386E+06    -104.905E+06    -117.461E+06    -324.250E+06    -117.466E+06    -324.245E+06    -104.905E+06     382.687E+03
            1330     81.1279E-03     2.66248E-03     81.0842E-03     239.402E-03    -119.634E-03    -119.782E-03    -119.631E-03     239.399E-03    -119.782E-03    -1.55024E-03     245.997E-03     212.528E+06    -87.7527E+06    -110.546E+06    -310.701E+06    -110.553E+06    -310.694E+06    -87.7527E+06    -919.155E+03
            1331     81.1584E-03     3.54911E-03     81.0808E-03     239.364E-03    -119.550E-03    -119.885E-03    -119.548E-03     239.363E-03    -119.885E-03    -117.632E-06     251.035E-03     209.442E+06    -68.4645E+06    -101.613E+06    -292.447E+06    -101.624E+06    -292.436E+06    -68.4645E+06    -855.021E+03
            1332     81.1999E-03     4.43653E-03     81.0786E-03     238.926E-03    -119.112E-03    -119.864E-03    -119.105E-03     238.920E-03    -119.864E-03     2.54452E-03     257.300E-03     198.782E+06    -51.6899E+06    -93.3214E+06    -267.938E+06    -93.3286E+06    -267.930E+06    -51.6899E+06    -421.604E+03
            1333     81.2535E-03     5.32533E-03     81.0788E-03     238.286E-03    -118.541E-03    -119.760E-03    -118.506E-03     238.251E-03    -119.760E-03     6.57309E-03     265.065E-03     175.403E+06    -38.2489E+06    -85.2064E+06    -232.265E+06    -85.2133E+06    -232.258E+06    -38.2489E+06    -193.184E+03
            1334     81.3228E-03     6.21346E-03     81.0851E-03     238.069E-03    -118.376E-03    -119.702E-03    -118.280E-03     237.973E-03    -119.702E-03     11.4571E-03     275.126E-03     147.111E+06    -25.6608E+06    -76.7916E+06    -191.380E+06    -76.8025E+06    -191.369E+06    -25.6608E+06     558.543E+03
            1335     81.4069E-03     7.10140E-03     81.0966E-03     237.962E-03    -118.340E-03    -119.617E-03    -118.117E-03     237.740E-03    -119.617E-03     17.4312E-03     288.011E-03     118.711E+06    -13.7158E+06    -69.0356E+06    -149.623E+06    -69.0692E+06    -149.589E+06    -13.7158E+06     729.675E+03
            1336     81.5069E-03     7.98902E-03     81.1145E-03     237.522E-03    -118.001E-03    -119.567E-03    -117.541E-03     237.061E-03    -119.567E-03     25.2071E-03     303.167E-03     84.9718E+06    -3.43482E+06    -62.0659E+06    -99.0366E+06    -62.2288E+06    -98.8737E+06    -3.43482E+06     436.973E+03
            1337     81.6280E-03     8.87731E-03     81.1438E-03     237.381E-03    -117.894E-03    -119.535E-03    -117.031E-03     236.518E-03    -119.535E-03     34.5989E-03     320.794E-03     65.3374E+06     8.41625E+06    -28.2979E+06    -62.4039E+06    -56.2057E+06    -34.4961E+06     8.41625E+06     399.919E+03
            1338     81.7718E-03     9.76574E-03     81.1866E-03     237.328E-03    -117.966E-03    -119.409E-03    -116.309E-03     235.671E-03    -119.409E-03     47.7042E-03     342.612E-03     85.3280E+06     45.7354E+06     14.6691E+06    -50.2370E+06    -50.2291E+06     39.1241E+06     21.2725E+06     349.330E+03
            1339     81.9421E-03     10.6551E-03     81.2464E-03     237.556E-03    -118.413E-03    -119.367E-03    -115.305E-03     234.380E-03    -119.299E-03     66.1266E-03     367.797E-03     108.550E+06     79.7547E+06     39.4004E+06    -42.8589E+06    -42.8561E+06     79.7519E+06     39.4004E+06     438.803E+03
            1340     82.1492E-03     11.5434E-03     81.3342E-03     240.396E-03    -119.135E-03    -121.591E-03    -115.551E-03     234.524E-03    -119.302E-03     90.4786E-03     395.516E-03     112.969E+06     85.2575E+06     65.5644E+06    -35.7012E+06    -35.6804E+06     85.2367E+06     65.5644E+06     305.020E+03
            1341     82.4002E-03     12.4310E-03     81.4571E-03     246.180E-03    -119.440E-03    -126.986E-03    -116.781E-03     235.976E-03    -119.440E-03     120.772E-03     422.423E-03     118.021E+06     92.1999E+06     86.5762E+06    -28.5137E+06    -28.4759E+06     90.3403E+06     88.3981E+06     352.425E+03
            1342     82.7016E-03     13.3206E-03     81.6218E-03     247.284E-03    -119.528E-03    -127.863E-03    -116.965E-03     236.386E-03    -119.528E-03     125.554E-03     423.391E-03     117.045E+06     97.5777E+06     95.3515E+06    -20.5578E+06    -20.5069E+06     95.3059E+06     97.5723E+06    -56.5366E+03
            1343     82.9852E-03     14.2065E-03     81.7601E-03     255.900E-03    -119.459E-03    -136.421E-03    -118.706E-03     238.185E-03    -119.459E-03     158.234E-03     451.332E-03     112.185E+06     100.396E+06     97.4103E+06    -13.2255E+06    -13.1544E+06     99.9257E+06     97.8092E+06    -681.546E+03
            1344     83.3892E-03     15.0987E-03     82.0109E-03     252.221E-03    -118.891E-03    -133.351E-03    -118.897E-03     238.275E-03    -119.399E-03     123.876E-03     412.378E-03     110.613E+06     107.355E+06     100.232E+06    -6.62520E+06    -6.57173E+06     107.301E+06     100.232E+06    -276.578E+03
            1345     82.3651E-03     886.542E-06     82.3603E-03     239.664E-03    -119.457E-03    -120.223E-03    -120.076E-03     239.661E-03    -119.601E-03    -1.48698E-03     241.105E-03     212.524E+06    -118.217E+06    -121.799E+06    -332.491E+06    -121.806E+06    -332.483E+06    -118.218E+06     81.7706E+03
            1346     82.3771E-03     1.77424E-03     82.3579E-03     239.392E-03    -119.550E-03    -119.870E-03    -119.571E-03     239.389E-03    -119.846E-03    -2.02375E-03     242.658E-03     213.606E+06    -104.228E+06    -115.521E+06    -323.221E+06    -115.529E+06    -323.213E+06    -104.228E+06    -667.239E+03
            1347     82.3964E-03     2.66210E-03     82.3534E-03     239.222E-03    -119.407E-03    -119.851E-03    -119.405E-03     239.220E-03    -119.851E-03    -1.33202E-03     245.829E-03     213.912E+06    -85.5181E+06    -108.495E+06    -309.898E+06    -108.498E+06    -309.895E+06    -85.5181E+06    -355.143E+03
            1348     82.4272E-03     3.55013E-03     82.3507E-03     238.974E-03    -119.174E-03    -119.863E-03    -119.173E-03     238.973E-03    -119.863E-03     265.189E-06     250.598E-03     210.232E+06    -67.4110E+06    -101.612E+06    -292.606E+06    -101.617E+06    -292.601E+06    -67.4110E+06    -396.988E+03
            1349     82.4665E-03     4.43809E-03     82.3470E-03     238.836E-03    -119.071E-03    -119.802E-03    -119.065E-03     238.830E-03    -119.802E-03     2.52893E-03     257.156E-03     199.030E+06    -51.3458E+06    -93.3640E+06    -267.972E+06    -93.3700E+06    -267.966E+06    -51.3458E+06    -710.656E+03
            1350     82.5200E-03     5.32527E-03     82.3480E-03     238.544E-03    -118.829E-03    -119.731E-03    -118.800E-03     238.515E-03    -119.731E-03     6.09646E-03     265.372E-03     176.053E+06    -37.3449E+06    -85.0197E+06    -232.239E+06    -85.0241E+06    -232.234E+06    -37.3449E+06    -392.516E+03
            1351     82.5877E-03     6.21293E-03     82.3537E-03     237.904E-03    -118.251E-03    -119.688E-03    -118.163E-03     237.816E-03    -119.688E-03     10.8557E-03     275.115E-03     148.100E+06    -25.6300E+06    -76.8111E+06    -192.428E+06    -76.8321E+06    -192.407E+06    -25.6300E+06    -379.524E+03
            1352     82.6709E-03     7.10147E-03     82.3653E-03     237.531E-03    -117.986E-03    -119.574E-03    -117.771E-03     237.317E-03    -119.574E-03     17.0740E-03     287.562E-03     119.130E+06    -13.9147E+06    -68.9183E+06    -150.200E+06    -68.9558E+06    -150.163E+06    -13.9147E+06    -139.608E+03
            1353     82.7701E-03     7.99018E-03     82.3836E-03     237.753E-03    -118.271E-03    -119.526E-03    -117.820E-03     237.302E-03    -119.526E-03     24.9586E-03     303.442E-03     85.5424E+06    -3.14243E+06    -62.4024E+06    -99.3180E+06    -62.5532E+06    -99.1672E+06    -3.14243E+06     318.587E+03
            1354     82.8899E-03     8.87784E-03     82.4131E-03     237.597E-03    -118.097E-03    -119.521E-03    -117.248E-03     236.748E-03    -119.521E-03     34.3035E-03     321.015E-03     66.1332E+06     8.87130E+06    -28.2031E+06    -62.6829E+06    -56.4842E+06    -34.4017E+06     8.87130E+06     769.385E+03
            1355     83.0312E-03     9.76572E-03     82.4549E-03     237.239E-03    -117.857E-03    -119.404E-03    -116.217E-03     235.599E-03    -119.404E-03     47.4552E-03     342.356E-03     86.0566E+06     46.5350E+06     16.1673E+06    -50.0757E+06    -50.0432E+06     40.0995E+06     22.5704E+06     697.184E+03
            1356     83.1993E-03     10.6535E-03     82.5144E-03     238.062E-03    -118.644E-03    -119.637E-03    -115.778E-03     234.862E-03    -119.305E-03     66.4143E-03     368.253E-03     109.014E+06     79.8262E+06     39.0628E+06    -43.4672E+06    -43.4643E+06     79.8233E+06     39.0628E+06     495.788E+03
            1357     83.4055E-03     11.5428E-03     82.6029E-03     240.997E-03    -119.339E-03    -121.978E-03    -115.956E-03     234.974E-03    -119.339E-03     91.7009E-03     395.668E-03     112.863E+06     85.0147E+06     65.2035E+06    -35.7300E+06    -35.7176E+06     85.0023E+06     65.2035E+06     835.652E+03
            1358     83.6558E-03     12.4317E-03     82.7270E-03     246.251E-03    -119.491E-03    -127.027E-03    -116.731E-03     235.954E-03    -119.491E-03     121.447E-03     422.342E-03     117.804E+06     93.0075E+06     87.7827E+06    -27.3182E+06    -27.2962E+06     90.7732E+06     89.9950E+06     636.311E+03
            1359     83.9550E-03     13.3174E-03     82.8921E-03     247.051E-03    -119.563E-03    -127.582E-03    -116.656E-03     236.125E-03    -119.563E-03     125.668E-03     423.700E-03     116.524E+06     98.6444E+06     95.8784E+06    -19.2267E+06    -19.2022E+06     95.8594E+06     98.6390E+06     214.133E+03
            1360     84.2344E-03     14.2099E-03     83.0272E-03     255.784E-03    -119.470E-03    -136.208E-03    -118.319E-03     237.895E-03    -119.470E-03     158.949E-03     451.264E-03     112.143E+06     100.938E+06     98.0291E+06    -12.6120E+06    -12.5517E+06     100.329E+06     98.5773E+06    -29.5387E+03
            1361     84.6373E-03     15.0971E-03     83.2799E-03     252.305E-03    -118.957E-03    -133.342E-03    -118.859E-03     238.260E-03    -119.394E-03     123.995E-03     412.151E-03     110.517E+06     107.065E+06     100.892E+06    -6.39199E+06    -6.31586E+06     106.989E+06     100.892E+06    -402.269E+03
            1362     83.6354E-03     887.268E-06     83.6307E-03     239.738E-03    -119.561E-03    -120.196E-03    -120.051E-03     239.738E-03    -119.706E-03    -914.366E-06     241.180E-03     212.430E+06    -117.059E+06    -119.969E+06    -330.918E+06    -119.637E+06    -330.897E+06    -117.413E+06    -1.43028E+06
            1363     83.6450E-03     1.77473E-03     83.6261E-03     239.387E-03    -119.533E-03    -119.897E-03    -119.554E-03     239.386E-03    -119.875E-03    -1.36771E-03     242.652E-03     213.404E+06    -104.459E+06    -115.266E+06    -323.001E+06    -115.275E+06    -322.992E+06    -104.459E+06    -1.26208E+06
            1364     83.6655E-03     2.66220E-03     83.6231E-03     239.102E-03    -119.299E-03    -119.847E-03    -119.298E-03     239.101E-03    -119.847E-03    -1.30571E-03     245.731E-03     214.568E+06    -86.0941E+06    -108.688E+06    -310.997E+06    -108.691E+06    -310.994E+06    -86.0941E+06    -349.103E+03
            1365     83.6935E-03     3.54997E-03     83.6182E-03     238.932E-03    -119.142E-03    -119.842E-03    -119.141E-03     238.931E-03    -119.842E-03    -239.413E-06     250.566E-03     210.705E+06    -66.6042E+06    -100.499E+06    -292.136E+06    -100.501E+06    -292.134E+06    -66.6042E+06    -15.3440E+03
            1366     83.7347E-03     4.43759E-03     83.6171E-03     238.916E-03    -119.146E-03    -119.794E-03    -119.142E-03     238.911E-03    -119.794E-03     2.09432E-03     257.225E-03     199.994E+06    -49.4385E+06    -91.8598E+06    -267.195E+06    -91.8619E+06    -267.193E+06    -49.4385E+06    -339.940E+03
            1367     83.7866E-03     5.32513E-03     83.6172E-03     238.592E-03    -118.876E-03    -119.729E-03    -118.848E-03     238.563E-03    -119.729E-03     5.87774E-03     265.405E-03     176.766E+06    -36.3654E+06    -83.9027E+06    -231.943E+06    -83.9070E+06    -231.939E+06    -36.3654E+06    -445.719E+03
            1368     83.8530E-03     6.21298E-03     83.6225E-03     238.043E-03    -118.394E-03    -119.693E-03    -118.313E-03     237.961E-03    -119.693E-03     10.5471E-03     275.287E-03     147.811E+06    -25.4211E+06    -76.6168E+06    -191.916E+06    -76.6344E+06    -191.899E+06    -25.4211E+06    -537.742E+03
            1369     83.9335E-03     7.10168E-03     83.6326E-03     237.633E-03    -118.057E-03    -119.591E-03    -117.850E-03     237.426E-03    -119.591E-03     16.7066E-03     287.596E-03     119.699E+06    -14.0208E+06    -69.2599E+06    -150.974E+06    -69.3033E+06    -150.930E+06    -14.0208E+06    -477.291E+03
            1370     84.0343E-03     7.98984E-03     83.6536E-03     237.665E-03    -118.146E-03    -119.540E-03    -117.689E-03     237.209E-03    -119.540E-03     25.0742E-03     303.173E-03     86.0223E+06    -2.72279E+06    -62.0576E+06    -99.4565E+06    -62.1715E+06    -99.3425E+06    -2.72279E+06    -6.78053E+03
            1371     84.1530E-03     8.87678E-03     83.6835E-03     237.421E-03    -117.902E-03    -119.516E-03    -117.090E-03     236.609E-03    -119.516E-03     33.6721E-03     320.870E-03     65.3386E+06     8.66839E+06    -29.3513E+06    -62.4156E+06    -56.1602E+06    -35.6068E+06     8.66839E+06     754.137E+03
            1372     84.2901E-03     9.76612E-03     83.7224E-03     237.140E-03    -117.764E-03    -119.388E-03    -116.102E-03     235.478E-03    -119.388E-03     47.4803E-03     342.097E-03     85.3366E+06     46.6733E+06     14.8617E+06    -49.5959E+06    -49.5488E+06     39.2307E+06     22.2572E+06     1.48770E+06
            1373     84.4598E-03     10.6557E-03     83.7849E-03     238.517E-03    -118.692E-03    -120.085E-03    -116.234E-03     235.279E-03    -119.305E-03     67.0992E-03     368.580E-03     109.676E+06     80.7448E+06     39.9941E+06    -43.1614E+06    -43.1433E+06     80.7266E+06     39.9941E+06     1.14726E+06
            1374     84.6618E-03     11.5426E-03     83.8713E-03     241.263E-03    -119.370E-03    -122.229E-03    -116.253E-03     235.287E-03    -119.370E-03     91.3635E-03     396.139E-03     113.788E+06     85.5906E+06     65.3941E+06    -36.3560E+06    -36.3539E+06     85.5884E+06     65.3941E+06     242.131E+03
            1375     84.9121E-03     12.4299E-03     83.9974E-03     245.592E-03    -119.505E-03    -126.304E-03    -115.896E-03     235.184E-03    -119.505E-03     121.743E-03     421.936E-03     118.108E+06     93.0264E+06     86.5519E+06    -28.1767E+06    -28.1622E+06     90.3995E+06     89.1644E+06    -40.6192E+03
            1376     85.2080E-03     13.3212E-03     84.1603E-03     246.615E-03    -119.532E-03    -127.138E-03    -116.102E-03     235.579E-03    -119.532E-03     126.044E-03     423.365E-03     116.339E+06     98.0714E+06     94.5684E+06    -19.9704E+06    -19.9417E+06     94.5397E+06     98.0714E+06     167.862E+03
            1377     85.4845E-03     14.2076E-03     84.2956E-03     256.213E-03    -119.436E-03    -136.667E-03    -118.681E-03     238.227E-03    -119.436E-03     159.455E-03     451.266E-03     112.430E+06     102.121E+06     98.5748E+06    -12.0260E+06    -11.9875E+06     101.192E+06     99.4653E+06     533.938E+03
            1378     85.8876E-03     15.0986E-03     84.5501E-03     252.566E-03    -118.877E-03    -133.721E-03    -119.070E-03     238.415E-03    -119.377E-03     124.400E-03     412.179E-03     111.225E+06     108.185E+06     102.334E+06    -5.84568E+06    -5.78492E+06     108.124E+06     102.334E+06     320.962E+03
            1379     84.9038E-03     887.689E-06     84.8992E-03     239.381E-03    -119.453E-03    -119.950E-03    -119.896E-03     239.380E-03    -119.504E-03    -1.43141E-03     240.907E-03     212.542E+06    -114.230E+06    -118.361E+06    -328.791E+06    -118.035E+06    -328.764E+06    -114.583E+06    -477.429E+03
            1380     84.9144E-03     1.77485E-03     84.8958E-03     239.260E-03    -119.541E-03    -119.755E-03    -119.562E-03     239.258E-03    -119.733E-03    -1.69002E-03     242.571E-03     213.779E+06    -103.946E+06    -115.233E+06    -323.096E+06    -115.237E+06    -323.091E+06    -103.946E+06    -420.910E+03
            1381     84.9331E-03     2.66236E-03     84.8914E-03     239.252E-03    -119.507E-03    -119.781E-03    -119.506E-03     239.251E-03    -119.781E-03    -1.15100E-03     245.852E-03     213.743E+06    -86.7390E+06    -109.058E+06    -310.691E+06    -109.066E+06    -310.683E+06    -86.7390E+06    -725.792E+03
            1382     84.9623E-03     3.54982E-03     84.8881E-03     239.190E-03    -119.402E-03    -119.848E-03    -119.401E-03     239.190E-03    -119.848E-03     56.8344E-06     250.838E-03     210.360E+06    -67.4778E+06    -100.775E+06    -292.446E+06    -100.781E+06    -292.439E+06    -67.4778E+06    -831.249E+03
            1383     85.0016E-03     4.43727E-03     84.8857E-03     238.903E-03    -119.115E-03    -119.823E-03    -119.110E-03     238.898E-03    -119.823E-03     2.29538E-03     257.205E-03     199.966E+06    -49.6924E+06    -91.8056E+06    -267.293E+06    -91.8059E+06    -267.292E+06    -49.6924E+06    -100.618E+03
            1384     85.0532E-03     5.32548E-03     84.8863E-03     238.519E-03    -118.799E-03    -119.741E-03    -118.774E-03     238.495E-03    -119.741E-03     5.58333E-03     265.348E-03     176.443E+06    -36.3121E+06    -83.8893E+06    -231.583E+06    -83.8914E+06    -231.581E+06    -36.3121E+06    -310.142E+03
            1385     85.1183E-03     6.21341E-03     84.8912E-03     238.234E-03    -118.566E-03    -119.710E-03    -118.487E-03     238.155E-03    -119.710E-03     10.1766E-03     275.435E-03     147.885E+06    -24.9324E+06    -76.4332E+06    -191.543E+06    -76.4378E+06    -191.538E+06    -24.9324E+06    -237.963E+03
            1386     85.1984E-03     7.10028E-03     84.9020E-03     237.980E-03    -118.357E-03    -119.641E-03    -118.148E-03     237.771E-03    -119.641E-03     16.8031E-03     288.014E-03     119.892E+06    -13.6044E+06    -69.3939E+06    -150.879E+06    -69.4193E+06    -150.854E+06    -13.6044E+06    -127.765E+03
            1387     85.2964E-03     7.98874E-03     84.9215E-03     237.369E-03    -117.839E-03    -119.580E-03    -117.374E-03     236.904E-03    -119.580E-03     25.2782E-03     302.799E-03     86.3554E+06    -3.53807E+06    -62.9926E+06    -100.632E+06    -63.0880E+06    -100.536E+06    -3.53807E+06    -36.2226E+03
            1388     85.4160E-03     8.87819E-03     84.9534E-03     237.081E-03    -117.605E-03    -119.527E-03    -116.798E-03     236.274E-03    -119.527E-03     33.5906E-03     320.443E-03     65.1159E+06     8.72806E+06    -30.2583E+06    -62.3824E+06    -56.1944E+06    -36.4463E+06     8.72806E+06     413.043E+03
            1389     85.5488E-03     9.76591E-03     84.9895E-03     237.444E-03    -118.091E-03    -119.396E-03    -116.462E-03     235.815E-03    -119.396E-03     47.0257E-03     342.509E-03     84.8554E+06     46.6782E+06     13.0911E+06    -49.4763E+06    -49.4559E+06     38.3532E+06     21.3957E+06     1.09900E+06
            1390     85.7191E-03     10.6541E-03     85.0544E-03     238.466E-03    -118.867E-03    -119.827E-03    -116.060E-03     235.139E-03    -119.308E-03     67.7722E-03     368.385E-03     109.260E+06     80.7345E+06     38.7346E+06    -42.9434E+06    -42.9023E+06     80.6934E+06     38.7346E+06     1.93556E+06
            1391     85.9228E-03     11.5410E-03     85.1442E-03     240.911E-03    -119.362E-03    -121.822E-03    -115.757E-03     234.846E-03    -119.362E-03     92.0999E-03     395.953E-03     114.320E+06     86.5617E+06     65.7844E+06    -36.0976E+06    -36.0665E+06     86.5307E+06     65.7844E+06     1.48240E+06
            1392     86.1641E-03     12.4315E-03     85.2626E-03     245.233E-03    -119.469E-03    -125.912E-03    -115.462E-03     234.783E-03    -119.469E-03     121.797E-03     421.617E-03     118.914E+06     93.2666E+06     86.4928E+06    -28.8810E+06    -28.8603E+06     90.5321E+06     89.2066E+06     441.232E+03
            1393     86.4626E-03     13.3204E-03     85.4304E-03     246.451E-03    -119.462E-03    -127.013E-03    -115.850E-03     235.289E-03    -119.462E-03     126.691E-03     422.818E-03     116.792E+06     97.0772E+06     93.5833E+06    -21.4116E+06    -21.3686E+06     93.5403E+06     97.0772E+06    -192.721E+03
            1394     86.7373E-03     14.2110E-03     85.5652E-03     256.383E-03    -119.374E-03    -136.899E-03    -118.895E-03     238.379E-03    -119.374E-03     159.767E-03     451.266E-03     113.199E+06     101.964E+06     98.2309E+06    -13.0338E+06    -12.9916E+06     101.142E+06     99.0110E+06    -64.5527E+03
            1395     87.1370E-03     15.0984E-03     85.8190E-03     252.778E-03    -119.011E-03    -133.817E-03    -119.396E-03     238.686E-03    -119.340E-03     124.092E-03     412.502E-03     112.003E+06     109.208E+06     102.784E+06    -5.86197E+06    -5.81785E+06     109.164E+06     102.784E+06     202.345E+03
            1396     86.1733E-03     887.118E-06     86.1688E-03     239.254E-03    -119.361E-03    -119.917E-03    -119.864E-03     239.253E-03    -119.413E-03    -1.27589E-03     240.885E-03     212.502E+06    -113.694E+06    -118.791E+06    -328.684E+06    -117.253E+06    -328.667E+06    -115.249E+06     259.820E+03
            1397     86.1827E-03     1.77510E-03     86.1644E-03     239.283E-03    -119.563E-03    -119.757E-03    -119.627E-03     239.281E-03    -119.690E-03    -1.92506E-03     242.686E-03     214.136E+06    -102.825E+06    -113.473E+06    -322.040E+06    -113.475E+06    -322.038E+06    -102.825E+06    -14.3211E+03
            1398     86.2019E-03     2.66287E-03     86.1608E-03     239.327E-03    -119.542E-03    -119.818E-03    -119.582E-03     239.325E-03    -119.777E-03    -1.38364E-03     245.932E-03     214.161E+06    -85.7667E+06    -107.536E+06    -309.902E+06    -107.544E+06    -309.894E+06    -85.7667E+06    -464.914E+03
            1399     86.2315E-03     3.54975E-03     86.1584E-03     239.174E-03    -119.368E-03    -119.855E-03    -119.367E-03     239.173E-03    -119.855E-03    -87.3729E-06     250.784E-03     210.994E+06    -67.0262E+06    -100.125E+06    -292.556E+06    -100.133E+06    -292.549E+06    -67.0262E+06    -765.142E+03
            1400     86.2687E-03     4.43753E-03     86.1545E-03     238.926E-03    -119.139E-03    -119.824E-03    -119.133E-03     238.920E-03    -119.824E-03     2.41840E-03     257.231E-03     200.366E+06    -50.2296E+06    -91.9950E+06    -268.121E+06    -91.9970E+06    -268.119E+06    -50.2296E+06    -504.183E+03
            1401     86.3209E-03     5.32463E-03     86.1566E-03     238.533E-03    -118.823E-03    -119.751E-03    -118.797E-03     238.506E-03    -119.751E-03     5.84817E-03     265.369E-03     176.739E+06    -35.8524E+06    -83.6863E+06    -231.472E+06    -83.6873E+06    -231.471E+06    -35.8524E+06    -114.136E+03
            1402     86.3838E-03     6.21226E-03     86.1602E-03     238.192E-03    -118.488E-03    -119.723E-03    -118.402E-03     238.106E-03    -119.723E-03     10.6578E-03     275.334E-03     148.468E+06    -24.0695E+06    -76.1605E+06    -191.442E+06    -76.1647E+06    -191.438E+06    -24.0695E+06     191.401E+03
            1403     86.4635E-03     7.10145E-03     86.1714E-03     237.968E-03    -118.319E-03    -119.639E-03    -118.094E-03     237.742E-03    -119.639E-03     17.5021E-03     287.893E-03     120.345E+06    -13.6460E+06    -69.7695E+06    -151.423E+06    -69.7796E+06    -151.413E+06    -13.6460E+06     499.621E+03
            1404     86.5604E-03     7.98873E-03     86.1910E-03     237.398E-03    -117.881E-03    -119.580E-03    -117.414E-03     236.931E-03    -119.580E-03     25.3992E-03     302.780E-03     86.8541E+06    -3.30015E+06    -63.0567E+06    -101.152E+06    -63.1535E+06    -101.055E+06    -3.30015E+06     632.663E+03
            1405     86.6751E-03     8.87724E-03     86.2193E-03     237.273E-03    -117.787E-03    -119.537E-03    -116.941E-03     236.427E-03    -119.537E-03     34.2731E-03     320.265E-03     65.7409E+06     8.83119E+06    -30.1115E+06    -63.1367E+06    -56.2776E+06    -36.9707E+06     8.83119E+06     653.314E+03
            1406     86.8136E-03     9.76584E-03     86.2625E-03     237.868E-03    -118.450E-03    -119.425E-03    -116.811E-03     236.229E-03    -119.425E-03     47.4797E-03     342.946E-03     85.2101E+06     46.1214E+06     13.0460E+06    -50.3365E+06    -50.3256E+06     37.8545E+06     21.3019E+06     908.797E+03
            1407     86.9765E-03     10.6535E-03     86.3215E-03     237.993E-03    -118.874E-03    -119.325E-03    -115.586E-03     234.702E-03    -119.322E-03     67.2040E-03     368.232E-03     109.274E+06     79.8670E+06     37.5493E+06    -43.9915E+06    -43.9633E+06     79.8388E+06     37.5493E+06     1.36338E+06
            1408     87.1807E-03     11.5454E-03     86.4128E-03     239.762E-03    -119.126E-03    -120.894E-03    -114.653E-03     233.703E-03    -119.307E-03     91.7855E-03     394.467E-03     114.154E+06     86.2781E+06     64.7428E+06    -36.4122E+06    -36.3735E+06     86.2394E+06     64.7428E+06     1.79982E+06
            1409     87.4224E-03     12.4317E-03     86.5340E-03     245.110E-03    -119.379E-03    -125.850E-03    -115.484E-03     234.744E-03    -119.379E-03     121.357E-03     421.245E-03     119.062E+06     94.3210E+06     87.7885E+06    -27.8618E+06    -27.8365E+06     91.8003E+06     90.2839E+06     1.22572E+06
            1410     87.7134E-03     13.3222E-03     86.6958E-03     247.139E-03    -119.405E-03    -127.776E-03    -116.596E-03     235.958E-03    -119.405E-03     127.130E-03     423.118E-03     117.122E+06     99.3424E+06     95.3516E+06    -19.7178E+06    -19.6368E+06     95.2706E+06     99.3424E+06     716.867E+03
            1411     87.9912E-03     14.2096E-03     86.8363E-03     256.270E-03    -119.357E-03    -136.820E-03    -119.198E-03     238.648E-03    -119.357E-03     158.508E-03     451.321E-03     113.493E+06     102.854E+06     98.0769E+06    -12.9360E+06    -12.8315E+06     101.254E+06     99.5723E+06     170.206E+03
            1412     88.3859E-03     15.0995E-03     87.0865E-03     252.288E-03    -118.990E-03    -133.322E-03    -119.344E-03     238.662E-03    -119.344E-03     122.286E-03     412.678E-03     111.841E+06     108.625E+06     101.734E+06    -6.49913E+06    -6.44644E+06     108.573E+06     101.734E+06    -556.161E+03
            1413     87.4418E-03     888.085E-06     87.4373E-03     239.178E-03    -119.367E-03    -119.835E-03    -119.834E-03     239.177E-03    -119.367E-03    -1.07359E-03     240.718E-03     211.831E+06    -113.903E+06    -119.705E+06    -328.570E+06    -118.166E+06    -328.553E+06    -115.458E+06    -712.972E+03
            1414     87.4517E-03     1.77492E-03     87.4337E-03     239.508E-03    -119.694E-03    -119.852E-03    -119.839E-03     239.506E-03    -119.704E-03    -1.70323E-03     242.855E-03     213.751E+06    -102.600E+06    -113.194E+06    -321.396E+06    -113.203E+06    -321.387E+06    -102.600E+06    -733.175E+03
            1415     87.4713E-03     2.66153E-03     87.4308E-03     239.335E-03    -119.498E-03    -119.866E-03    -119.538E-03     239.333E-03    -119.824E-03    -1.42092E-03     245.962E-03     215.043E+06    -84.7503E+06    -106.497E+06    -309.781E+06    -106.502E+06    -309.776E+06    -84.7503E+06    -481.081E+03
            1416     87.4978E-03     3.54997E-03     87.4258E-03     238.947E-03    -119.144E-03    -119.855E-03    -119.143E-03     238.946E-03    -119.855E-03    -45.9943E-06     250.567E-03     211.456E+06    -66.3802E+06    -98.9144E+06    -292.157E+06    -98.9193E+06    -292.152E+06    -66.3802E+06    -520.946E+03
            1417     87.5371E-03     4.43736E-03     87.4245E-03     238.667E-03    -118.928E-03    -119.780E-03    -118.921E-03     238.660E-03    -119.780E-03     2.69463E-03     256.947E-03     201.191E+06    -49.3924E+06    -91.0614E+06    -268.089E+06    -91.0632E+06    -268.087E+06    -49.3924E+06    -339.116E+03
            1418     87.5866E-03     5.32558E-03     87.4245E-03     238.330E-03    -118.679E-03    -119.684E-03    -118.647E-03     238.298E-03    -119.684E-03     6.39889E-03     265.104E-03     178.258E+06    -35.4774E+06    -83.3194E+06    -232.663E+06    -83.3208E+06    -232.662E+06    -35.4774E+06     113.465E+03
            1419     87.6500E-03     6.21402E-03     87.4294E-03     238.250E-03    -118.616E-03    -119.666E-03    -118.525E-03     238.159E-03    -119.666E-03     11.1262E-03     275.428E-03     149.296E+06    -23.9976E+06    -76.0767E+06    -192.227E+06    -76.0837E+06    -192.220E+06    -23.9976E+06     794.658E+03
            1420     87.7278E-03     7.10064E-03     87.4400E-03     237.921E-03    -118.320E-03    -119.599E-03    -118.104E-03     237.705E-03    -119.599E-03     17.1853E-03     287.797E-03     121.196E+06    -12.7608E+06    -68.9924E+06    -151.498E+06    -69.0134E+06    -151.477E+06    -12.7608E+06     1.08628E+06
            1421     87.8244E-03     7.98989E-03     87.4602E-03     237.585E-03    -118.091E-03    -119.555E-03    -117.629E-03     237.123E-03    -119.555E-03     25.1956E-03     302.973E-03     87.6046E+06    -2.39606E+06    -62.1204E+06    -101.247E+06    -62.2307E+06    -101.136E+06    -2.39606E+06     1.33612E+06
            1422     87.9386E-03     8.87781E-03     87.4894E-03     237.576E-03    -118.086E-03    -119.536E-03    -117.220E-03     236.709E-03    -119.536E-03     34.7007E-03     320.702E-03     66.1342E+06     8.97831E+06    -30.3002E+06    -63.6697E+06    -56.2634E+06    -37.7065E+06     8.97831E+06     1.77267E+06
            1423     88.0745E-03     9.76566E-03     87.5314E-03     237.649E-03    -118.245E-03    -119.423E-03    -116.547E-03     235.951E-03    -119.423E-03     48.2616E-03     342.704E-03     85.7063E+06     46.1722E+06     13.1017E+06    -50.8708E+06    -50.8086E+06     37.4762E+06     21.7355E+06     1.57257E+06
            1424     88.2375E-03     10.6541E-03     87.5919E-03     237.941E-03    -118.720E-03    -119.478E-03    -115.674E-03     234.730E-03    -119.314E-03     66.6525E-03     368.531E-03     110.044E+06     80.2106E+06     38.7889E+06    -44.2863E+06    -44.2738E+06     80.1981E+06     38.7889E+06     1.03631E+06
            1425     88.4328E-03     11.5413E-03     87.6765E-03     239.576E-03    -119.110E-03    -120.762E-03    -114.627E-03     233.623E-03    -119.291E-03     90.7585E-03     394.266E-03     114.358E+06     86.7830E+06     65.2254E+06    -36.2359E+06    -36.2200E+06     86.7671E+06     65.2254E+06     874.876E+03
            1426     88.6789E-03     12.4351E-03     87.8027E-03     245.086E-03    -119.379E-03    -125.837E-03    -115.702E-03     234.951E-03    -119.379E-03     120.201E-03     421.117E-03     119.531E+06     94.7127E+06     88.0266E+06    -28.0003E+06    -27.9841E+06     92.5830E+06     90.1400E+06     603.807E+03
            1427     88.9688E-03     13.3218E-03     87.9658E-03     247.430E-03    -119.453E-03    -128.008E-03    -117.237E-03     236.659E-03    -119.453E-03     124.942E-03     423.881E-03     117.174E+06     99.6842E+06     95.3387E+06    -19.6015E+06    -19.5155E+06     95.2526E+06     99.6842E+06     493.177E+03
            1428     89.2455E-03     14.2094E-03     88.1070E-03     255.724E-03    -119.412E-03    -136.214E-03    -118.663E-03     238.173E-03    -119.412E-03     157.535E-03     451.455E-03     113.044E+06     103.388E+06     97.9079E+06    -12.2908E+06    -12.1631E+06     101.028E+06     100.140E+06     378.198E+03
            1429     89.6353E-03     15.0963E-03     88.3549E-03     251.801E-03    -119.060E-03    -132.762E-03    -118.654E-03     237.994E-03    -119.361E-03     123.710E-03     412.345E-03     111.458E+06     108.932E+06     102.672E+06    -5.51890E+06    -5.46555E+06     108.879E+06     102.672E+06     391.543E+03
            1430     88.7097E-03     887.306E-06     88.7053E-03     239.302E-03    -119.167E-03    -120.152E-03    -120.059E-03     239.302E-03    -119.260E-03    -908.677E-06     240.724E-03     211.303E+06    -112.689E+06    -119.655E+06    -327.382E+06    -118.612E+06    -327.361E+06    -113.753E+06     65.3171E+03
            1431     88.7221E-03     1.77475E-03     88.7043E-03     239.236E-03    -119.476E-03    -119.796E-03    -119.555E-03     239.234E-03    -119.715E-03    -1.35455E-03     242.489E-03     213.493E+06    -101.200E+06    -114.112E+06    -320.820E+06    -114.133E+06    -320.798E+06    -101.200E+06    -408.439E+03
            1432     88.7390E-03     2.66288E-03     88.6990E-03     239.129E-03    -119.416E-03    -119.750E-03    -119.415E-03     239.128E-03    -119.750E-03    -990.181E-06     245.728E-03     214.827E+06    -84.2539E+06    -107.007E+06    -309.497E+06    -107.017E+06    -309.487E+06    -84.2539E+06    -587.958E+03
            1433     88.7661E-03     3.54965E-03     88.6951E-03     238.936E-03    -119.212E-03    -119.787E-03    -119.212E-03     238.936E-03    -119.787E-03     260.822E-06     250.612E-03     212.035E+06    -65.8190E+06    -98.8569E+06    -292.380E+06    -98.8627E+06    -292.374E+06    -65.8190E+06    -361.476E+03
            1434     88.8035E-03     4.43810E-03     88.6925E-03     238.463E-03    -118.780E-03    -119.720E-03    -118.775E-03     238.458E-03    -119.720E-03     2.28892E-03     256.779E-03     201.938E+06    -49.1363E+06    -91.0064E+06    -268.661E+06    -91.0087E+06    -268.658E+06    -49.1363E+06     61.5826E+03
            1435     88.8534E-03     5.32644E-03     88.6936E-03     238.272E-03    -118.672E-03    -119.624E-03    -118.642E-03     238.242E-03    -119.624E-03     6.06774E-03     265.014E-03     179.061E+06    -35.0728E+06    -83.2288E+06    -233.176E+06    -83.2339E+06    -233.171E+06    -35.0728E+06     719.775E+03
            1436     88.9164E-03     6.21372E-03     88.6990E-03     238.283E-03    -118.724E-03    -119.621E-03    -118.640E-03     238.199E-03    -119.621E-03     10.7080E-03     275.498E-03     150.963E+06    -23.3763E+06    -75.5217E+06    -193.386E+06    -75.5312E+06    -193.376E+06    -23.3763E+06     1.00113E+06
            1437     88.9942E-03     7.10162E-03     88.7104E-03     238.012E-03    -118.468E-03    -119.579E-03    -118.265E-03     237.810E-03    -119.579E-03     16.6123E-03     288.095E-03     122.252E+06    -12.2486E+06    -68.3057E+06    -152.077E+06    -68.3461E+06    -152.037E+06    -12.2486E+06     1.59221E+06
            1438     89.0865E-03     7.98893E-03     88.7275E-03     237.683E-03    -118.186E-03    -119.553E-03    -117.720E-03     237.217E-03    -119.553E-03     25.2220E-03     303.312E-03     88.4703E+06    -1.84994E+06    -62.1311E+06    -101.704E+06    -62.3042E+06    -101.530E+06    -1.84994E+06     2.01778E+06
            1439     89.2037E-03     8.87707E-03     88.7609E-03     237.427E-03    -117.934E-03    -119.534E-03    -117.071E-03     236.564E-03    -119.534E-03     34.6988E-03     320.834E-03     66.8871E+06     9.64826E+06    -30.6958E+06    -64.0315E+06    -56.3501E+06    -38.3772E+06     9.64826E+06     2.10599E+06
            1440     89.3339E-03     9.76614E-03     88.7984E-03     237.175E-03    -117.833E-03    -119.393E-03    -116.129E-03     235.471E-03    -119.393E-03     48.1921E-03     342.239E-03     85.5488E+06     47.1616E+06     13.4763E+06    -49.8796E+06    -49.7784E+06     37.8865E+06     22.6503E+06     2.44360E+06
            1441     89.5001E-03     10.6553E-03     88.8636E-03     237.967E-03    -118.557E-03    -119.686E-03    -115.733E-03     234.729E-03    -119.272E-03     67.0087E-03     368.604E-03     110.100E+06     81.0056E+06     40.0120E+06    -43.4141E+06    -43.3683E+06     80.9598E+06     40.0120E+06     1.87788E+06
            1442     89.6910E-03     11.5452E-03     88.9449E-03     240.833E-03    -119.320E-03    -121.806E-03    -115.974E-03     235.001E-03    -119.320E-03     90.2830E-03     396.206E-03     115.561E+06     87.6702E+06     66.6910E+06    -36.3939E+06    -36.3841E+06     87.6603E+06     66.6910E+06     784.507E+03
            1443     89.9332E-03     12.4299E-03     89.0700E-03     245.992E-03    -119.482E-03    -126.656E-03    -116.364E-03     235.700E-03    -119.482E-03     121.021E-03     422.192E-03     120.678E+06     94.8661E+06     88.5551E+06    -28.8191E+06    -28.8109E+06     93.0438E+06     90.3692E+06     507.557E+03
            1444     90.2276E-03     13.3179E-03     89.2393E-03     246.606E-03    -119.516E-03    -127.114E-03    -116.018E-03     235.510E-03    -119.516E-03     126.335E-03     423.339E-03     117.791E+06     98.3112E+06     94.2669E+06    -21.4477E+06    -21.3893E+06     94.2084E+06     98.3112E+06     283.179E+03
            1445     90.4943E-03     14.2071E-03     89.3721E-03     255.328E-03    -119.393E-03    -135.810E-03    -117.720E-03     237.239E-03    -119.393E-03     159.525E-03     450.871E-03     113.609E+06     102.428E+06     96.9038E+06    -13.8359E+06    -13.7447E+06     100.107E+06     99.1339E+06     234.250E+03
            1446     90.8876E-03     15.1018E-03     89.6241E-03     252.732E-03    -119.286E-03    -133.475E-03    -119.168E-03     238.465E-03    -119.325E-03     125.204E-03     412.352E-03     113.212E+06     109.597E+06     102.786E+06    -6.85897E+06    -6.81930E+06     109.557E+06     102.786E+06     454.293E+03
            1447     89.9789E-03     887.278E-06     89.9745E-03     239.235E-03    -119.213E-03    -120.039E-03    -119.855E-03     239.234E-03    -119.396E-03    -960.949E-06     240.787E-03     210.636E+06    -114.469E+06    -119.349E+06    -327.489E+06    -118.296E+06    -327.478E+06    -115.532E+06     393.702E+03
            1448     89.9889E-03     1.77514E-03     89.9714E-03     238.982E-03    -119.365E-03    -119.653E-03    -119.370E-03     238.981E-03    -119.646E-03    -1.49067E-03     242.342E-03     212.186E+06    -102.177E+06    -114.024E+06    -319.982E+06    -114.037E+06    -319.968E+06    -102.177E+06     256.579E+03
            1449     90.0066E-03     2.66286E-03     89.9672E-03     238.911E-03    -119.310E-03    -119.662E-03    -119.315E-03     238.909E-03    -119.655E-03    -1.36840E-03     245.542E-03     214.151E+06    -84.3095E+06    -107.530E+06    -309.055E+06    -107.537E+06    -309.048E+06    -84.3095E+06    -416.137E+03
            1450     90.0343E-03     3.55084E-03     89.9643E-03     238.831E-03    -119.198E-03    -119.700E-03    -119.197E-03     238.831E-03    -119.700E-03     53.9481E-06     250.470E-03     213.057E+06    -64.9817E+06    -99.2060E+06    -293.027E+06    -99.2108E+06    -293.023E+06    -64.9817E+06     9.54820E+03
            1451     90.0697E-03     4.43765E-03     89.9603E-03     238.829E-03    -119.116E-03    -119.722E-03    -119.148E-03     238.823E-03    -119.684E-03     2.26713E-03     257.155E-03     203.626E+06    -48.3805E+06    -90.8381E+06    -269.839E+06    -90.8423E+06    -269.834E+06    -48.3805E+06     425.786E+03
            1452     90.1195E-03     5.32553E-03     89.9620E-03     238.530E-03    -118.858E-03    -119.678E-03    -118.867E-03     238.502E-03    -119.641E-03     5.97217E-03     265.319E-03     180.343E+06    -34.4686E+06    -82.7610E+06    -233.924E+06    -82.7785E+06    -233.907E+06    -34.4686E+06     1.38521E+06
            1453     90.1836E-03     6.21339E-03     89.9693E-03     238.024E-03    -118.428E-03    -119.631E-03    -118.349E-03     237.945E-03    -119.631E-03     10.3863E-03     275.202E-03     152.014E+06    -22.8260E+06    -75.5774E+06    -194.066E+06    -75.6126E+06    -194.031E+06    -22.8260E+06     1.89436E+06
            1454     90.2577E-03     7.10147E-03     89.9779E-03     237.879E-03    -118.335E-03    -119.562E-03    -118.121E-03     237.665E-03    -119.562E-03     16.9168E-03     287.933E-03     123.595E+06    -12.3077E+06    -69.2235E+06    -153.711E+06    -69.3095E+06    -153.625E+06    -12.3077E+06     2.35708E+06
            1455     90.3542E-03     7.98946E-03     90.0003E-03     237.794E-03    -118.295E-03    -119.534E-03    -117.821E-03     237.320E-03    -119.534E-03     25.5706E-03     303.471E-03     89.4605E+06    -1.38737E+06    -62.4470E+06    -102.312E+06    -62.7653E+06    -101.993E+06    -1.38737E+06     2.79221E+06
            1456     90.4644E-03     8.87835E-03     90.0277E-03     237.443E-03    -117.936E-03    -119.524E-03    -117.080E-03     236.588E-03    -119.524E-03     34.5143E-03     320.929E-03     67.6152E+06     10.3101E+06    -30.8469E+06    -64.1985E+06    -56.6862E+06    -38.3592E+06     10.3101E+06     2.65720E+06
            1457     90.6000E-03     9.76600E-03     90.0721E-03     237.123E-03    -117.777E-03    -119.390E-03    -116.163E-03     235.509E-03    -119.390E-03     47.0654E-03     342.422E-03     86.1994E+06     47.7650E+06     13.4612E+06    -50.0970E+06    -49.9744E+06     38.0395E+06     23.0641E+06     2.31087E+06
            1458     90.7565E-03     10.6553E-03     90.1288E-03     237.938E-03    -118.545E-03    -119.677E-03    -115.744E-03     234.734E-03    -119.274E-03     66.3784E-03     368.404E-03     110.146E+06     81.5959E+06     40.5070E+06    -42.8841E+06    -42.8072E+06     81.5190E+06     40.5070E+06     2.24139E+06
            1459     90.9568E-03     11.5415E-03     90.2216E-03     241.006E-03    -119.324E-03    -122.029E-03    -116.086E-03     235.063E-03    -119.324E-03     91.2005E-03     396.315E-03     115.362E+06     87.1681E+06     66.4868E+06    -36.5741E+06    -36.5252E+06     87.1191E+06     66.4868E+06     1.97240E+06
            1460     91.1902E-03     12.4301E-03     90.3391E-03     245.768E-03    -119.458E-03    -126.490E-03    -115.859E-03     235.136E-03    -119.458E-03     122.766E-03     422.046E-03     121.055E+06     94.8881E+06     88.6410E+06    -29.1499E+06    -29.1008E+06     92.8852E+06     90.5948E+06     1.74861E+06
            1461     91.4824E-03     13.3217E-03     90.5073E-03     246.111E-03    -119.442E-03    -126.697E-03    -115.296E-03     234.710E-03    -119.442E-03     127.774E-03     422.380E-03     118.742E+06     99.2375E+06     95.3646E+06    -21.3927E+06    -21.3063E+06     95.2783E+06     99.2375E+06     1.09677E+06
            1462     91.7466E-03     14.2145E-03     90.6388E-03     256.087E-03    -119.330E-03    -136.661E-03    -118.834E-03     238.259E-03    -119.330E-03     159.074E-03     451.052E-03     114.901E+06     103.161E+06     97.9944E+06    -14.2291E+06    -14.1628E+06     101.175E+06     99.9134E+06    -84.1289E+03
            1463     92.1408E-03     15.0980E-03     90.8954E-03     253.416E-03    -119.073E-03    -134.367E-03    -120.212E-03     239.522E-03    -119.332E-03     123.271E-03     413.037E-03     114.030E+06     109.936E+06     102.785E+06    -7.49548E+06    -7.46150E+06     109.902E+06     102.785E+06    -528.431E+03
            1464     91.2476E-03     887.721E-06     91.2433E-03     239.238E-03    -119.408E-03    -119.843E-03    -119.726E-03     239.236E-03    -119.523E-03    -1.19982E-03     240.819E-03     211.585E+06    -114.481E+06    -118.317E+06    -327.951E+06    -118.321E+06    -327.948E+06    -114.481E+06    -503.998E+03
            1465     91.2581E-03     1.77529E-03     91.2409E-03     239.034E-03    -119.410E-03    -119.646E-03    -119.415E-03     239.032E-03    -119.638E-03    -1.83235E-03     242.424E-03     213.066E+06    -101.858E+06    -112.496E+06    -319.995E+06    -112.499E+06    -319.992E+06    -101.858E+06    -324.361E+03
            1466     91.2758E-03     2.66246E-03     91.2370E-03     238.819E-03    -119.213E-03    -119.650E-03    -119.219E-03     238.817E-03    -119.642E-03    -1.42595E-03     245.490E-03     214.017E+06    -84.5264E+06    -106.772E+06    -308.721E+06    -106.775E+06    -308.718E+06    -84.5264E+06     48.3711E+03
            1467     91.3012E-03     3.55039E-03     91.2322E-03     238.871E-03    -119.244E-03    -119.693E-03    -119.244E-03     238.871E-03    -119.693E-03    -136.664E-06     250.469E-03     213.205E+06    -65.1800E+06    -99.5671E+06    -293.418E+06    -99.5714E+06    -293.414E+06    -65.1800E+06     393.500E+03
            1468     91.3387E-03     4.43903E-03     91.2308E-03     239.066E-03    -119.325E-03    -119.753E-03    -119.358E-03     239.061E-03    -119.715E-03     2.09446E-03     257.430E-03     205.408E+06    -47.6546E+06    -91.1999E+06    -271.296E+06    -91.2063E+06    -271.289E+06    -47.6546E+06     988.567E+03
            1469     91.3871E-03     5.32502E-03     91.2318E-03     238.485E-03    -118.764E-03    -119.711E-03    -118.774E-03     238.458E-03    -119.673E-03     5.78396E-03     265.347E-03     182.537E+06    -34.5004E+06    -83.0417E+06    -236.318E+06    -83.0749E+06    -236.285E+06    -34.5004E+06     1.98451E+06
            1470     91.4484E-03     6.21348E-03     91.2371E-03     237.915E-03    -118.274E-03    -119.634E-03    -118.188E-03     237.829E-03    -119.634E-03     10.7489E-03     275.054E-03     153.492E+06    -22.4900E+06    -75.6294E+06    -195.332E+06    -75.7163E+06    -195.246E+06    -22.4900E+06     3.09073E+06
            1471     91.5239E-03     7.10190E-03     91.2479E-03     237.903E-03    -118.342E-03    -119.554E-03    -118.128E-03     237.689E-03    -119.554E-03     17.0349E-03     287.923E-03     125.011E+06    -11.1469E+06    -68.9402E+06    -154.270E+06    -69.0736E+06    -154.137E+06    -11.1469E+06     3.27085E+06
            1472     91.6167E-03     7.99036E-03     91.2676E-03     237.873E-03    -118.400E-03    -119.526E-03    -117.942E-03     237.415E-03    -119.526E-03     25.1292E-03     303.518E-03     90.5861E+06    -1.34916E+06    -62.1953E+06    -103.766E+06    -62.7577E+06    -103.204E+06    -1.34916E+06     3.50206E+06
            1473     91.7299E-03     8.87672E-03     91.2994E-03     237.411E-03    -117.927E-03    -119.523E-03    -117.104E-03     236.587E-03    -119.523E-03     33.8750E-03     320.938E-03     67.8171E+06     10.8580E+06    -30.2646E+06    -64.1781E+06    -56.1668E+06    -38.2759E+06     10.8580E+06     3.57833E+06
            1474     91.8583E-03     9.76578E-03     91.3377E-03     237.319E-03    -117.965E-03    -119.402E-03    -116.291E-03     235.645E-03    -119.402E-03     47.6831E-03     342.453E-03     86.7926E+06     48.2492E+06     13.8435E+06    -50.3165E+06    -50.1378E+06     38.1010E+06     23.8131E+06     3.03622E+06
            1475     92.0197E-03     10.6531E-03     91.4010E-03     238.144E-03    -118.866E-03    -119.548E-03    -115.828E-03     234.850E-03    -119.291E-03     67.4731E-03     368.522E-03     111.073E+06     80.9959E+06     39.6076E+06    -44.5840E+06    -44.4773E+06     80.8891E+06     39.6076E+06     2.40924E+06
            1476     92.2128E-03     11.5446E-03     91.4873E-03     239.926E-03    -119.289E-03    -120.990E-03    -114.971E-03     233.907E-03    -119.289E-03     91.4465E-03     395.015E-03     115.377E+06     86.9713E+06     65.9237E+06    -36.8640E+06    -36.7982E+06     86.9054E+06     65.9237E+06     2.24447E+06
            1477     92.4522E-03     12.4341E-03     91.6122E-03     244.697E-03    -119.368E-03    -125.533E-03    -115.250E-03     234.414E-03    -119.368E-03     120.813E-03     420.929E-03     120.586E+06     95.9110E+06     88.8810E+06    -28.0290E+06    -27.9629E+06     92.9104E+06     91.8156E+06     2.30962E+06
            1478     92.7331E-03     13.3230E-03     91.7710E-03     247.196E-03    -119.416E-03    -127.831E-03    -116.945E-03     236.311E-03    -119.416E-03     125.410E-03     423.465E-03     119.500E+06     102.156E+06     98.2110E+06    -19.2515E+06    -19.1536E+06     98.2603E+06     102.009E+06     1.37443E+06
            1479     93.0053E-03     14.2080E-03     91.9136E-03     256.857E-03    -119.394E-03    -137.403E-03    -119.894E-03     239.347E-03    -119.394E-03     157.855E-03     452.152E-03     115.429E+06     104.668E+06     101.229E+06    -12.4202E+06    -12.3420E+06     103.727E+06     102.093E+06     122.470E+03
            1480     93.3933E-03     15.0970E-03     92.1650E-03     252.493E-03    -118.800E-03    -133.712E-03    -119.384E-03     238.763E-03    -119.398E-03     123.076E-03     412.786E-03     112.365E+06     109.069E+06     103.431E+06    -5.99521E+06    -5.95112E+06     109.025E+06     103.431E+06    -177.761E+03
            1481     92.5175E-03     887.138E-06     92.5133E-03     239.170E-03    -119.228E-03    -119.959E-03    -119.917E-03     239.169E-03    -119.268E-03    -1.00641E-03     240.714E-03     211.537E+06    -112.435E+06    -118.197E+06    -326.785E+06    -116.947E+06    -326.780E+06    -113.690E+06    -185.073E+03
            1482     92.5272E-03     1.77452E-03     92.5101E-03     239.059E-03    -119.438E-03    -119.644E-03    -119.450E-03     239.057E-03    -119.629E-03    -1.63725E-03     242.407E-03     213.768E+06    -101.323E+06    -113.662E+06    -320.957E+06    -113.669E+06    -320.949E+06    -101.323E+06     238.793E+03
            1483     92.5435E-03     2.66326E-03     92.5052E-03     239.101E-03    -119.423E-03    -119.693E-03    -119.436E-03     239.099E-03    -119.678E-03    -1.56460E-03     245.765E-03     214.898E+06    -83.6242E+06    -106.786E+06    -309.089E+06    -106.794E+06    -309.081E+06    -83.6242E+06     1.03299E+06
            1484     92.5696E-03     3.55070E-03     92.5015E-03     239.126E-03    -119.392E-03    -119.773E-03    -119.390E-03     239.125E-03    -119.773E-03    -127.325E-06     250.766E-03     214.303E+06    -64.2317E+06    -99.3531E+06    -293.857E+06    -99.3596E+06    -293.850E+06    -64.2317E+06     1.08844E+06
            1485     92.6071E-03     4.43634E-03     92.5007E-03     238.692E-03    -118.959E-03    -119.763E-03    -118.954E-03     238.687E-03    -119.763E-03     2.27120E-03     257.056E-03     207.820E+06    -47.0301E+06    -91.1980E+06    -273.340E+06    -91.2109E+06    -273.327E+06    -47.0301E+06     1.40880E+06
            1486     92.6537E-03     5.32610E-03     92.5005E-03     238.242E-03    -118.592E-03    -119.662E-03    -118.566E-03     238.215E-03    -119.662E-03     5.71017E-03     265.076E-03     185.136E+06    -34.1015E+06    -83.2475E+06    -238.768E+06    -83.2951E+06    -238.720E+06    -34.1015E+06     2.54002E+06
            1487     92.7135E-03     6.21387E-03     92.5051E-03     238.143E-03    -118.523E-03    -119.625E-03    -118.437E-03     238.057E-03    -119.625E-03     10.7011E-03     275.196E-03     155.459E+06    -22.3017E+06    -75.4402E+06    -197.230E+06    -75.5780E+06    -197.092E+06    -22.3017E+06     3.89681E+06
            1488     92.7890E-03     7.10153E-03     92.5169E-03     238.073E-03    -118.496E-03    -119.572E-03    -118.278E-03     237.856E-03    -119.572E-03     17.1806E-03     288.068E-03     126.339E+06    -10.7015E+06    -68.3997E+06    -155.232E+06    -68.6640E+06    -154.968E+06    -10.7015E+06     4.49673E+06
            1489     92.8819E-03     7.98861E-03     92.5377E-03     237.691E-03    -118.214E-03    -119.544E-03    -117.738E-03     237.215E-03    -119.544E-03     25.5699E-03     303.377E-03     91.9349E+06    -766.985E+03    -61.7845E+06    -105.021E+06    -62.5177E+06    -104.288E+06    -766.985E+03     4.44033E+06
            1490     92.9928E-03     8.87801E-03     92.5680E-03     237.373E-03    -117.920E-03    -119.528E-03    -117.092E-03     236.545E-03    -119.528E-03     34.0458E-03     320.768E-03     69.2533E+06     10.9936E+06    -29.6454E+06    -65.7927E+06    -56.6051E+06    -38.8329E+06     10.9936E+06     4.57190E+06
            1491     93.1194E-03     9.76641E-03     92.6058E-03     237.568E-03    -118.178E-03    -119.414E-03    -116.520E-03     235.910E-03    -119.414E-03     47.4361E-03     342.668E-03     87.7767E+06     48.2541E+06     14.5573E+06    -51.1961E+06    -50.8770E+06     38.3554E+06     24.1369E+06     4.29971E+06
            1492     93.2820E-03     10.6563E-03     92.6713E-03     237.924E-03    -118.720E-03    -119.414E-03    -115.627E-03     234.727E-03    -119.310E-03     66.5130E-03     368.639E-03     111.995E+06     81.9408E+06     40.7433E+06    -44.5923E+06    -44.4730E+06     81.8215E+06     40.7433E+06     3.05479E+06
            1493     93.4706E-03     11.5419E-03     92.7553E-03     239.590E-03    -119.151E-03    -120.761E-03    -114.810E-03     233.789E-03    -119.300E-03     89.6899E-03     395.110E-03     116.613E+06      88.029E+06     67.2912E+06    -36.9054E+06    -36.8398E+06     87.9633E+06     67.2912E+06     1.61550E+06
            1494     93.7053E-03     12.4331E-03     92.8768E-03     245.428E-03    -119.407E-03    -126.217E-03    -116.072E-03     235.282E-03    -119.407E-03     120.196E-03     421.540E-03     121.216E+06     96.1493E+06     89.5421E+06    -28.2309E+06    -28.1946E+06     93.1633E+06     92.4919E+06     1.17086E+06
            1495     93.9951E-03     13.3202E-03     93.0465E-03     247.982E-03    -119.504E-03    -128.522E-03    -117.604E-03     237.064E-03    -119.504E-03     125.909E-03     424.170E-03     120.236E+06     101.953E+06     98.7289E+06    -19.8394E+06    -19.7862E+06     98.8229E+06     101.806E+06     1.49571E+06
            1496     94.2616E-03     14.2075E-03     93.1847E-03     256.351E-03    -119.461E-03    -136.836E-03    -118.886E-03     238.401E-03    -119.461E-03     159.279E-03     451.592E-03     115.868E+06     104.981E+06     102.220E+06    -12.2148E+06    -12.1191E+06     104.758E+06     102.347E+06     1.39559E+06
            1497     94.6433E-03     15.0977E-03     93.4313E-03     252.161E-03    -119.001E-03    -133.208E-03    -118.647E-03     237.997E-03    -119.397E-03     124.852E-03     412.102E-03     112.990E+06     109.700E+06     104.445E+06    -5.81231E+06    -5.73613E+06     109.623E+06     104.445E+06     654.684E+03
            1498     93.7857E-03     888.157E-06     93.7815E-03     238.756E-03    -119.107E-03    -119.679E-03    -119.662E-03     238.755E-03    -119.122E-03    -714.675E-06     240.383E-03     209.844E+06    -114.929E+06    -120.796E+06    -327.641E+06    -119.554E+06    -327.627E+06    -116.185E+06     1.46631E+06
            1499     93.7952E-03     1.77596E-03     93.7784E-03     239.389E-03    -119.543E-03    -119.887E-03    -119.869E-03     239.387E-03    -119.559E-03    -1.63640E-03     242.787E-03     212.247E+06    -103.304E+06    -115.872E+06    -321.498E+06    -115.887E+06    -321.482E+06    -103.304E+06     1.31155E+06
            1500     93.8122E-03     2.66202E-03     93.7744E-03     239.447E-03    -119.546E-03    -119.930E-03    -119.703E-03     239.444E-03    -119.770E-03    -1.60476E-03     246.172E-03     214.677E+06    -84.5468E+06    -108.598E+06    -310.171E+06    -108.608E+06    -310.161E+06    -84.5468E+06     1.18027E+06
            1501     93.8397E-03     3.54900E-03     93.7726E-03     238.728E-03    -118.960E-03    -119.829E-03    -118.959E-03     238.726E-03    -119.829E-03    -3.37018E-06     250.475E-03     215.272E+06    -64.5832E+06    -100.125E+06    -295.351E+06    -100.142E+06    -295.334E+06    -64.5832E+06     1.72755E+06
            1502     93.8740E-03     4.43916E-03     93.7690E-03     238.361E-03    -118.687E-03    -119.731E-03    -118.680E-03     238.354E-03    -119.731E-03     2.63627E-03     256.642E-03     209.849E+06    -46.5083E+06    -91.8277E+06    -275.258E+06    -91.8670E+06    -275.219E+06    -46.5083E+06     2.45346E+06
            1503     93.9213E-03     5.32594E-03     93.7702E-03     238.518E-03    -118.906E-03    -119.631E-03    -118.880E-03     238.492E-03    -119.631E-03     5.87633E-03     265.288E-03     187.501E+06    -33.0383E+06    -83.5407E+06    -240.549E+06    -83.6069E+06    -240.483E+06    -33.0383E+06     3.12900E+06
            1504     93.9808E-03     6.21340E-03     93.7752E-03     238.300E-03    -118.680E-03    -119.634E-03    -118.598E-03     238.218E-03    -119.634E-03     10.4125E-03     275.439E-03     158.037E+06    -22.3877E+06    -75.7404E+06    -200.087E+06    -75.8948E+06    -199.933E+06    -22.3877E+06     4.12917E+06
            1505     94.0549E-03     7.10140E-03     93.7864E-03     237.885E-03    -118.332E-03    -119.586E-03    -118.107E-03     237.660E-03    -119.586E-03     17.4074E-03     287.784E-03     128.040E+06    -10.6397E+06    -68.3892E+06    -156.973E+06    -68.7540E+06    -156.608E+06    -10.6397E+06     5.41426E+06
            1506     94.1470E-03     7.99051E-03     93.8073E-03     237.749E-03    -118.262E-03    -119.558E-03    -117.802E-03     237.288E-03    -119.558E-03     25.2751E-03     303.293E-03     93.5501E+06     698.587E+03    -61.1640E+06    -105.524E+06    -62.3214E+06    -104.366E+06     698.587E+03     5.74001E+06
            1507     94.2549E-03     8.87804E-03     93.8358E-03     237.763E-03    -118.256E-03    -119.559E-03    -117.454E-03     236.962E-03    -119.559E-03     33.4465E-03     321.128E-03     70.3123E+06     11.9043E+06    -29.8238E+06    -66.3492E+06    -56.5332E+06    -39.6398E+06     11.9043E+06     5.70603E+06
            1508     94.3840E-03     9.76477E-03     93.8775E-03     237.615E-03    -118.194E-03    -119.460E-03    -116.583E-03     236.004E-03    -119.460E-03     46.8566E-03     343.027E-03     88.2071E+06     49.2814E+06     15.0671E+06    -50.7686E+06    -50.3672E+06     38.8054E+06     25.1416E+06     4.88042E+06
            1509     94.5385E-03     10.6517E-03     93.9365E-03     237.528E-03    -118.389E-03    -119.347E-03    -115.216E-03     234.354E-03    -119.347E-03     66.0960E-03     368.238E-03     112.798E+06     84.3671E+06     43.3412E+06    -42.9739E+06    -42.8470E+06     84.2402E+06     43.3412E+06     3.53192E+06
            1510     94.7311E-03     11.5447E-03     94.0250E-03     240.307E-03    -119.015E-03    -121.593E-03    -115.402E-03     234.442E-03    -119.340E-03     90.3949E-03     395.221E-03     117.579E+06     89.7460E+06     69.4250E+06    -36.0108E+06    -35.8822E+06     89.6174E+06     69.4250E+06     2.82609E+06
            1511     94.9616E-03     12.4309E-03     94.1444E-03     246.431E-03    -119.472E-03    -127.146E-03    -116.744E-03     236.030E-03    -119.472E-03     121.868E-03     422.101E-03     122.288E+06     96.0565E+06     90.3208E+06    -28.9940E+06    -28.8981E+06     93.6597E+06     92.6217E+06     1.96301E+06
            1512     95.2545E-03     13.3185E-03     94.3189E-03     246.849E-03    -119.522E-03    -127.372E-03    -116.174E-03     235.651E-03    -119.522E-03     127.057E-03     423.058E-03     120.239E+06     100.275E+06     97.3315E+06    -21.4001E+06    -21.3596E+06     97.2910E+06     100.275E+06     1.28760E+06
            1513     95.5114E-03     14.2098E-03     94.4484E-03     255.662E-03    -119.408E-03    -136.207E-03    -118.117E-03     237.571E-03    -119.408E-03     159.840E-03     450.541E-03     116.236E+06     105.319E+06     101.222E+06    -12.8835E+06    -12.8117E+06     104.605E+06     101.864E+06     1.53499E+06
            1514     95.9001E-03     15.1000E-03     94.7039E-03     252.946E-03    -119.290E-03    -133.718E-03    -119.472E-03     238.757E-03    -119.348E-03     124.637E-03     412.501E-03     114.070E+06     111.658E+06     105.515E+06    -5.35556E+06    -5.29372E+06     111.596E+06     105.515E+06     918.630E+03
            1515     95.0541E-03     888.043E-06     95.0499E-03     239.297E-03    -119.047E-03    -120.272E-03    -120.038E-03     239.295E-03    -119.279E-03    -1.21742E-03     240.938E-03     211.269E+06    -116.460E+06    -122.593E+06    -330.722E+06    -121.336E+06    -330.710E+06    -117.730E+06     936.845E+03
            1516     95.0651E-03     1.77449E-03     95.0485E-03     239.256E-03    -119.271E-03    -120.023E-03    -119.582E-03     239.254E-03    -119.710E-03    -1.60566E-03     242.669E-03     212.307E+06    -104.343E+06    -116.096E+06    -322.237E+06    -116.123E+06    -322.210E+06    -104.343E+06     1.50978E+06
            1517     95.0818E-03     2.66206E-03     95.0445E-03     239.051E-03    -119.199E-03    -119.891E-03    -119.342E-03     239.050E-03    -119.746E-03    -1.15897E-03     245.863E-03     212.691E+06    -88.4758E+06    -110.518E+06    -311.258E+06    -110.541E+06    -311.235E+06    -88.4758E+06     1.63898E+06
            1518     95.1066E-03     3.55081E-03     95.0403E-03     238.707E-03    -119.017E-03    -119.772E-03    -119.016E-03     238.706E-03    -119.772E-03    -175.661E-06     250.526E-03     214.183E+06    -67.4628E+06    -102.705E+06    -296.993E+06    -102.729E+06    -296.969E+06    -67.4628E+06     2.09554E+06
            1519     95.1412E-03     4.43768E-03     95.0376E-03     238.622E-03    -118.959E-03    -119.730E-03    -118.953E-03     238.616E-03    -119.730E-03     2.25114E-03     256.921E-03     211.143E+06    -46.5434E+06    -93.3192E+06    -277.098E+06    -93.3765E+06    -277.041E+06    -46.5434E+06     3.15829E+06
            1520     95.1903E-03     5.32597E-03     95.0411E-03     238.546E-03    -118.906E-03    -119.663E-03    -118.879E-03     238.519E-03    -119.663E-03     5.90083E-03     265.309E-03     189.297E+06     -32.096E+06    -84.3025E+06    -241.943E+06    -84.3953E+06    -241.850E+06     -32.096E+06     3.74657E+06
            1521     95.2474E-03     6.21330E-03     95.0446E-03     238.390E-03    -118.744E-03    -119.661E-03    -118.665E-03     238.311E-03    -119.661E-03     10.3128E-03     275.674E-03     160.251E+06    -21.8824E+06    -76.4159E+06    -202.207E+06    -76.5482E+06    -202.075E+06    -21.8824E+06     3.92741E+06
            1522     95.3205E-03     7.10167E-03     95.0556E-03     238.114E-03    -118.535E-03    -119.615E-03    -118.324E-03     237.903E-03    -119.615E-03     16.8779E-03     288.023E-03     130.488E+06    -10.9015E+06    -68.5522E+06    -159.923E+06    -68.9283E+06    -159.547E+06    -10.9015E+06     5.24939E+06
            1523     95.4120E-03     7.98895E-03     95.0769E-03     237.934E-03    -118.408E-03    -119.600E-03    -117.956E-03     237.482E-03    -119.600E-03     25.0045E-03     303.315E-03     95.0678E+06     1.22812E+06    -60.0142E+06    -106.985E+06    -61.3397E+06    -105.659E+06     1.22812E+06     6.44857E+06
            1524     95.5211E-03     8.87583E-03     95.1079E-03     237.458E-03    -117.893E-03    -119.586E-03    -117.062E-03     236.626E-03    -119.586E-03     33.9439E-03     320.799E-03     70.4356E+06     13.4953E+06    -29.1355E+06    -65.5140E+06    -54.4134E+06    -40.2361E+06     13.4953E+06     6.40350E+06
            1525     95.6454E-03     9.76543E-03     95.1456E-03     237.031E-03    -117.644E-03    -119.441E-03    -115.941E-03     235.327E-03    -119.441E-03     48.1293E-03     342.017E-03     87.7630E+06     51.5638E+06     16.0164E+06    -48.3269E+06    -47.7664E+06     39.7956E+06     27.2241E+06     5.84635E+06
            1526     95.8018E-03     10.6561E-03     95.2073E-03     238.054E-03    -118.415E-03    -119.902E-03    -115.778E-03     234.839E-03    -119.325E-03     66.8186E-03     368.305E-03     113.560E+06     85.8692E+06     45.1714E+06    -42.1446E+06    -41.9196E+06     85.6441E+06     45.1714E+06     4.86876E+06
            1527     95.9871E-03     11.5426E-03     95.2905E-03     241.089E-03    -119.185E-03    -122.199E-03    -116.072E-03     235.138E-03    -119.360E-03     91.0804E-03     396.031E-03     118.313E+06     90.5993E+06     70.1603E+06    -36.0567E+06    -35.8580E+06     90.4006E+06     70.1603E+06     4.28875E+06
            1528     96.2278E-03     12.4308E-03     95.4215E-03     245.322E-03    -119.475E-03    -126.019E-03    -115.641E-03     234.943E-03    -119.475E-03     121.493E-03     421.419E-03     122.553E+06     97.0259E+06     90.9563E+06    -28.4330E+06    -28.2767E+06     94.8808E+06     92.9450E+06     3.53216E+06
            1529     96.5039E-03     13.3217E-03     95.5800E-03     246.261E-03    -119.476E-03    -126.875E-03    -115.707E-03     235.092E-03    -119.476E-03     126.765E-03     422.440E-03     120.433E+06     102.092E+06     98.9907E+06    -19.8598E+06    -19.7644E+06     98.8954E+06     102.092E+06     1.99903E+06
            1530     96.7695E-03     14.2120E-03     95.7202E-03     256.201E-03    -119.381E-03    -136.791E-03    -119.080E-03     238.490E-03    -119.381E-03     158.903E-03     451.360E-03     116.753E+06     106.083E+06     101.267E+06    -12.9791E+06    -12.9347E+06     104.926E+06     102.379E+06     981.256E+03
            1531     97.1517E-03     15.0980E-03     95.9713E-03     252.617E-03    -118.982E-03    -133.657E-03    -119.568E-03     238.908E-03    -119.363E-03     122.842E-03     412.828E-03     115.182E+06     111.627E+06     104.314E+06    -7.03348E+06    -7.00610E+06     111.600E+06     104.314E+06     670.919E+03
            1532     96.3236E-03     885.538E-06     96.3195E-03     239.669E-03    -119.151E-03    -120.534E-03    -120.282E-03     239.668E-03    -119.402E-03    -675.798E-06     241.317E-03     212.762E+06    -117.845E+06    -123.002E+06    -333.124E+06    -121.738E+06    -333.117E+06    -119.115E+06     411.073E+03
            1533     96.3327E-03     1.77488E-03     96.3163E-03     238.826E-03    -119.099E-03    -119.752E-03    -119.097E-03     238.824E-03    -119.752E-03    -1.11475E-03     242.259E-03     213.093E+06    -106.589E+06    -117.385E+06    -324.799E+06    -117.408E+06    -324.775E+06    -106.589E+06     1.63741E+06
            1534     96.3502E-03     2.66352E-03     96.3134E-03     238.697E-03    -119.092E-03    -119.636E-03    -119.091E-03     238.696E-03    -119.636E-03    -1.31295E-03     245.460E-03     213.640E+06    -88.1905E+06    -110.746E+06    -312.136E+06    -110.776E+06    -312.105E+06    -88.1905E+06     2.22295E+06
            1535     96.3737E-03     3.55024E-03     96.3083E-03     239.126E-03    -119.487E-03    -119.703E-03    -119.486E-03     239.125E-03    -119.703E-03    -117.655E-06     250.882E-03     215.405E+06    -67.5964E+06    -102.930E+06    -298.412E+06    -102.961E+06    -298.381E+06    -67.5964E+06     2.37572E+06
            1536     96.4102E-03     4.43771E-03     96.3080E-03     238.973E-03    -119.266E-03    -119.752E-03    -119.260E-03     238.967E-03    -119.752E-03     2.48362E-03     257.322E-03     212.128E+06    -47.6087E+06    -94.0304E+06    -279.044E+06    -94.0908E+06    -278.984E+06    -47.6087E+06     3.22344E+06
            1537     96.4555E-03     5.32539E-03     96.3083E-03     238.454E-03    -118.784E-03    -119.712E-03    -118.755E-03     238.425E-03    -119.712E-03     6.09052E-03     265.214E-03     190.436E+06    -32.5261E+06    -85.2354E+06    -243.670E+06     -85.345E+06    -243.561E+06    -32.5261E+06     4.09457E+06
            1538     96.5160E-03     6.21377E-03     96.3158E-03     238.480E-03    -118.806E-03    -119.706E-03    -118.728E-03     238.401E-03    -119.706E-03     10.3414E-03     275.686E-03     161.373E+06    -21.3987E+06    -76.8886E+06    -203.125E+06    -77.0267E+06    -202.987E+06    -21.3987E+06     4.11379E+06
            1539     96.5868E-03     7.10029E-03     96.3255E-03     238.248E-03    -118.585E-03    -119.654E-03    -118.362E-03     238.025E-03    -119.654E-03     17.1673E-03     288.254E-03     132.474E+06    -10.9845E+06    -68.5810E+06    -162.239E+06    -68.8718E+06    -161.948E+06    -10.9845E+06     4.59930E+06
            1540     96.6781E-03     7.98834E-03     96.3475E-03     237.327E-03    -117.783E-03    -119.591E-03    -117.280E-03     236.824E-03    -119.591E-03     26.3112E-03     302.721E-03     96.4036E+06    -93.3051E+03    -60.0886E+06    -110.059E+06    -61.1090E+06    -109.039E+06    -93.3051E+03     5.74230E+06
            1541     96.7842E-03     8.87809E-03     96.3762E-03     236.985E-03    -117.510E-03    -119.522E-03    -116.638E-03     236.114E-03    -119.522E-03     34.8744E-03     320.275E-03     70.8079E+06     13.2042E+06    -28.8751E+06    -66.5415E+06    -53.8496E+06    -41.5670E+06     13.2042E+06     6.72324E+06
            1542     96.9074E-03     9.76728E-03     96.4139E-03     237.379E-03    -118.059E-03    -119.391E-03    -116.440E-03     235.760E-03    -119.391E-03     47.1463E-03     342.258E-03     88.9021E+06     52.6574E+06     16.2308E+06    -48.6030E+06    -47.8384E+06     40.5090E+06     27.6146E+06     7.17804E+06
            1543     97.0628E-03     10.6547E-03     96.4763E-03     238.570E-03    -118.877E-03    -119.972E-03    -116.364E-03     235.402E-03    -119.317E-03     66.1836E-03     368.714E-03     114.725E+06     86.8671E+06     44.8458E+06    -42.6636E+06    -42.2885E+06     86.4921E+06     44.8458E+06     6.69766E+06
            1544     97.2535E-03     11.5416E-03     96.5662E-03     240.698E-03    -119.371E-03    -121.624E-03    -115.659E-03     234.733E-03    -119.371E-03     91.1248E-03     396.210E-03     118.292E+06     91.4045E+06     70.2707E+06    -35.4341E+06    -35.1695E+06     91.1398E+06     70.2707E+06     5.40352E+06
            1545     97.4802E-03     12.4313E-03     96.6843E-03     244.875E-03    -119.478E-03    -125.580E-03    -115.371E-03     234.666E-03    -119.478E-03     120.465E-03     421.588E-03     123.135E+06     99.1835E+06     92.9323E+06    -26.9417E+06    -26.7637E+06     96.9096E+06     95.0282E+06     4.02173E+06
            1546     97.7620E-03     13.3224E-03     96.8500E-03     247.140E-03    -119.510E-03    -127.706E-03    -116.755E-03     236.189E-03    -119.510E-03     125.863E-03     423.305E-03     121.774E+06     104.038E+06     101.333E+06    -19.0569E+06    -18.8876E+06     101.177E+06     104.025E+06     3.15693E+06
            1547     98.0273E-03     14.2069E-03     96.9923E-03     256.420E-03    -119.447E-03    -136.908E-03    -119.210E-03     238.721E-03    -119.447E-03     158.624E-03     451.811E-03     117.281E+06     106.403E+06     102.567E+06    -12.7170E+06    -12.6036E+06     105.693E+06     103.163E+06     1.97783E+06
            1548     98.4042E-03     15.0965E-03     97.2393E-03     251.839E-03    -118.693E-03    -133.162E-03    -118.619E-03     237.995E-03    -119.392E-03     123.921E-03     412.323E-03     115.626E+06     112.013E+06     104.827E+06    -7.02929E+06    -6.99673E+06     111.980E+06     104.827E+06     1.01396E+06
            1549     97.5925E-03     889.325E-06     97.5884E-03     239.014E-03    -119.232E-03    -119.796E-03    -119.775E-03     239.011E-03    -119.251E-03    -1.00712E-03     240.683E-03     211.728E+06    -121.117E+06    -125.412E+06    -334.931E+06    -125.324E+06    -334.922E+06    -121.214E+06     612.355E+03
            1550     97.6007E-03     1.77500E-03     97.5846E-03     239.021E-03    -119.354E-03    -119.688E-03    -119.470E-03     239.018E-03    -119.569E-03    -1.68843E-03     242.472E-03     213.559E+06    -107.887E+06    -119.125E+06    -326.767E+06    -119.136E+06    -326.756E+06    -107.887E+06     831.718E+03
            1551     97.6162E-03     2.66266E-03     97.5799E-03     238.984E-03    -119.270E-03    -119.746E-03    -119.371E-03     238.982E-03    -119.643E-03    -1.46867E-03     245.706E-03     215.759E+06    -88.0856E+06    -111.695E+06    -314.583E+06    -111.717E+06    -314.561E+06    -88.0856E+06     1.90430E+06
            1552     97.6436E-03     3.55074E-03     97.5791E-03     238.928E-03    -119.251E-03    -119.722E-03    -119.250E-03     238.927E-03    -119.722E-03    -122.633E-06     250.613E-03     216.719E+06    -67.6419E+06    -103.626E+06    -300.047E+06    -103.675E+06    -299.999E+06    -67.6419E+06     3.00675E+06
            1553     97.6759E-03     4.43805E-03     97.5750E-03     238.907E-03    -119.212E-03    -119.733E-03    -119.205E-03     238.899E-03    -119.733E-03     2.58862E-03     257.249E-03     212.518E+06    -49.0164E+06    -94.7204E+06    -280.616E+06    -94.7883E+06    -280.548E+06    -49.0164E+06     3.44751E+06
            1554     97.7235E-03     5.32544E-03     97.5783E-03     238.646E-03    -118.991E-03    -119.708E-03    -118.959E-03     238.613E-03    -119.708E-03     6.49254E-03     265.424E-03     191.232E+06    -33.6428E+06    -85.5541E+06    -245.376E+06    -85.6493E+06    -245.280E+06    -33.6428E+06     3.82047E+06
            1555     97.7808E-03     6.21256E-03     97.5832E-03     238.249E-03    -118.583E-03    -119.703E-03    -118.489E-03     238.155E-03    -119.703E-03     11.2405E-03     275.427E-03     161.760E+06    -22.0347E+06    -77.2532E+06    -204.086E+06    -77.3835E+06    -203.955E+06    -22.0347E+06     3.99666E+06
            1556     97.8538E-03     7.10139E-03     97.5958E-03     237.844E-03    -118.200E-03    -119.625E-03    -117.976E-03     237.620E-03    -119.625E-03     17.4503E-03     287.941E-03     133.323E+06    -11.2906E+06    -69.1534E+06    -163.523E+06    -69.3858E+06    -163.290E+06    -11.2906E+06     4.33811E+06
            1557     97.9398E-03     7.99024E-03     97.6134E-03     237.263E-03    -117.751E-03    -119.541E-03    -117.286E-03     236.798E-03    -119.541E-03     25.2641E-03     302.814E-03     97.2934E+06    -1.58239E+06    -61.7723E+06    -112.558E+06    -62.5714E+06    -111.758E+06    -1.58239E+06     5.08680E+06
            1558     98.0478E-03     8.87924E-03     97.6449E-03     237.312E-03    -117.863E-03    -119.494E-03    -117.034E-03     236.484E-03    -119.494E-03     33.9581E-03     320.601E-03     71.0422E+06     10.7415E+06    -31.9760E+06    -69.3763E+06    -56.4200E+06    -44.9323E+06     10.7415E+06     6.55954E+06
            1559     98.1728E-03     9.76524E-03     97.6859E-03     237.862E-03    -118.510E-03    -119.401E-03    -116.882E-03     236.235E-03    -119.401E-03     47.2100E-03     342.936E-03     89.6047E+06     52.1185E+06     13.7546E+06    -50.1851E+06    -49.2865E+06     39.2059E+06     25.7686E+06     7.94268E+06
            1560     98.3258E-03     10.6528E-03     97.7470E-03     238.270E-03    -119.071E-03    -119.465E-03    -115.919E-03     234.979E-03    -119.325E-03     67.3185E-03     368.591E-03     115.433E+06     88.1861E+06     43.9321E+06    -42.5244E+06    -42.0716E+06     87.7333E+06     43.9321E+06     7.50716E+06
            1561     98.5133E-03     11.5436E-03     97.8346E-03     240.348E-03    -119.364E-03    -121.215E-03    -115.355E-03     234.488E-03    -119.364E-03     90.5829E-03     395.658E-03     119.314E+06     92.8991E+06     70.9324E+06    -35.1858E+06    -34.8736E+06     92.5869E+06     70.9324E+06     6.06917E+06
            1562     98.7396E-03     12.4329E-03     97.9538E-03     245.858E-03    -119.505E-03    -126.517E-03    -116.412E-03     235.752E-03    -119.505E-03     119.953E-03     422.421E-03     124.993E+06     100.093E+06     94.1042E+06    -27.7694E+06    -27.4867E+06      97.884E+06     96.0304E+06     5.20482E+06
            1563     99.0221E-03     13.3169E-03     98.1226E-03     247.390E-03    -119.563E-03    -127.931E-03    -116.745E-03     236.205E-03    -119.563E-03     127.300E-03     423.594E-03     123.543E+06     104.430E+06     102.139E+06    -20.2342E+06    -19.9779E+06     102.247E+06     104.065E+06     4.55105E+06
            1564     99.2819E-03     14.2091E-03     98.2598E-03     255.834E-03    -119.450E-03    -136.306E-03    -118.149E-03     237.677E-03    -119.450E-03     160.406E-03     450.993E-03     118.381E+06     107.411E+06     103.877E+06    -12.6649E+06    -12.5207E+06     107.266E+06     103.877E+06     3.11764E+06
            1565     99.6597E-03     15.0996E-03     98.5091E-03     252.167E-03    -119.041E-03    -133.181E-03    -118.731E-03     238.036E-03    -119.359E-03     124.554E-03     412.315E-03     116.195E+06     113.896E+06     107.129E+06    -5.52736E+06    -5.46599E+06     113.834E+06     107.129E+06     1.56635E+06
            1566     98.8611E-03     886.273E-06     98.8571E-03     239.077E-03    -119.366E-03    -119.723E-03    -119.581E-03     239.074E-03    -119.505E-03    -1.86315E-03     240.761E-03     211.170E+06    -121.641E+06    -126.087E+06    -334.966E+06    -126.002E+06    -334.954E+06    -121.738E+06     189.169E+03
            1567     98.8697E-03     1.77575E-03     98.8537E-03     239.117E-03    -119.407E-03    -119.732E-03    -119.523E-03     239.114E-03    -119.613E-03    -2.00467E-03     242.531E-03     213.876E+06    -108.980E+06    -121.211E+06    -328.675E+06    -121.222E+06    -328.664E+06    -108.980E+06     937.516E+03
            1568     98.8866E-03     2.66230E-03     98.8507E-03     239.181E-03    -119.413E-03    -119.800E-03    -119.515E-03     239.180E-03    -119.697E-03    -1.19531E-03     245.912E-03     215.204E+06    -91.9700E+06    -114.598E+06    -317.505E+06    -114.616E+06    -317.487E+06    -91.9700E+06     1.82914E+06
            1569     98.9094E-03     3.54974E-03     98.8457E-03     238.860E-03    -119.159E-03    -119.773E-03    -119.158E-03     238.859E-03    -119.773E-03    -213.605E-06     250.604E-03     216.150E+06    -70.7170E+06    -105.936E+06    -302.243E+06    -105.979E+06    -302.200E+06    -70.7170E+06     2.78761E+06
            1570     98.9444E-03     4.43834E-03     98.8448E-03     238.576E-03    -118.903E-03    -119.738E-03    -118.897E-03     238.570E-03    -119.738E-03     2.40867E-03     256.943E-03     211.648E+06    -51.0923E+06    -96.7500E+06    -281.786E+06    -96.8084E+06    -281.727E+06    -51.0923E+06     3.22035E+06
            1571     98.9900E-03     5.32572E-03     98.8466E-03     238.277E-03    -118.653E-03    -119.651E-03    -118.619E-03     238.243E-03    -119.651E-03     6.54084E-03     265.043E-03     190.416E+06    -35.9825E+06    -87.1958E+06    -246.702E+06    -87.2624E+06    -246.635E+06    -35.9825E+06     3.18282E+06
            1572     99.0470E-03     6.21414E-03     98.8519E-03     238.080E-03    -118.490E-03    -119.620E-03    -118.392E-03     237.982E-03    -119.620E-03     11.5208E-03     275.284E-03     161.637E+06    -23.9397E+06    -78.3399E+06    -205.654E+06    -78.4490E+06    -205.545E+06    -23.9397E+06     3.55510E+06
            1573     99.1182E-03     7.10198E-03     98.8634E-03     238.059E-03    -118.495E-03    -119.564E-03    -118.286E-03     237.850E-03    -119.564E-03     16.9858E-03     288.148E-03     133.317E+06    -12.9984E+06    -70.7812E+06    -165.213E+06    -70.9947E+06    -165.000E+06    -12.9984E+06     4.08386E+06
            1574     99.2059E-03     7.98944E-03     98.8837E-03     237.992E-03    -118.471E-03    -119.549E-03    -118.024E-03     237.545E-03    -119.549E-03     24.7198E-03     303.577E-03     97.9707E+06    -2.72247E+06    -62.7956E+06    -114.596E+06    -63.6950E+06    -113.696E+06    -2.72247E+06     5.17217E+06
            1575     99.3112E-03     8.87584E-03     98.9138E-03     237.514E-03    -117.988E-03    -119.542E-03    -117.144E-03     236.670E-03    -119.542E-03     34.2581E-03     320.716E-03     70.4762E+06     9.23027E+06    -34.3045E+06    -70.6459E+06    -56.9245E+06    -48.0259E+06     9.23027E+06     6.89343E+06
            1576     99.4364E-03     9.76646E-03     98.9556E-03     237.119E-03    -117.728E-03    -119.405E-03    -116.058E-03     235.448E-03    -119.405E-03     47.7455E-03     342.177E-03     88.9694E+06     50.7088E+06     10.5441E+06    -51.2320E+06    -50.3405E+06     36.8286E+06     23.5328E+06     7.58702E+06
            1577     99.5882E-03     10.6559E-03     99.0165E-03     237.987E-03    -118.599E-03    -119.644E-03    -115.694E-03     234.729E-03    -119.291E-03     67.0912E-03     368.226E-03     116.582E+06     88.3747E+06     42.8501E+06    -43.7711E+06    -43.3401E+06     87.9436E+06     42.8501E+06     7.49731E+06
            1578     99.7731E-03     11.5429E-03     99.1032E-03     240.818E-03    -119.335E-03    -121.724E-03    -115.793E-03     234.887E-03    -119.335E-03     91.0301E-03     395.744E-03     121.400E+06     93.4040E+06     69.9222E+06    -37.3844E+06    -36.9719E+06     92.9915E+06     69.9222E+06     7.03355E+06
            1579     100.002E-03     12.4290E-03     99.2261E-03     245.900E-03    -119.477E-03    -126.567E-03    -116.188E-03     235.521E-03    -119.477E-03     121.543E-03     422.524E-03     126.325E+06     99.9341E+06     93.1905E+06    -29.5863E+06    -29.2133E+06     97.9507E+06     94.8008E+06     6.36260E+06
            1580     100.278E-03     13.3219E-03     99.3895E-03     246.864E-03    -119.516E-03    -127.374E-03    -116.113E-03     235.603E-03    -119.516E-03     127.429E-03     423.201E-03     125.587E+06     105.950E+06     102.689E+06    -21.2309E+06    -20.9103E+06     104.019E+06     104.299E+06     5.54535E+06
            1581     100.536E-03     14.2105E-03     99.5269E-03     255.796E-03    -119.402E-03    -136.277E-03    -118.307E-03     237.826E-03    -119.402E-03     159.607E-03     450.620E-03     121.847E+06     110.069E+06     105.369E+06    -14.0393E+06    -13.8520E+06     109.881E+06     105.369E+06     3.75389E+06
            1582     100.914E-03     15.0987E-03     99.7786E-03     252.508E-03    -119.156E-03    -133.448E-03    -119.279E-03     238.526E-03    -119.344E-03     123.805E-03     412.468E-03     119.133E+06     116.180E+06     108.461E+06    -6.59852E+06    -6.54338E+06     116.125E+06     108.461E+06     1.63775E+06
            1583     100.129E-03     888.116E-06     100.125E-03     239.133E-03    -119.310E-03    -119.841E-03    -119.539E-03     239.132E-03    -119.611E-03    -754.656E-06     240.745E-03     211.588E+06    -123.135E+06    -126.706E+06    -336.478E+06    -126.033E+06    -336.458E+06    -123.828E+06     1.00578E+06
            1584     100.138E-03     1.77420E-03     100.122E-03     239.233E-03    -119.392E-03    -119.880E-03    -119.620E-03     239.232E-03    -119.650E-03    -1.41897E-03     242.614E-03     214.016E+06    -111.271E+06    -122.913E+06    -330.804E+06    -122.931E+06    -330.786E+06    -111.271E+06     1.71504E+06
            1585     100.154E-03     2.66297E-03     100.119E-03     238.954E-03    -119.305E-03    -119.712E-03    -119.304E-03     238.953E-03    -119.712E-03    -1.22487E-03     245.693E-03     215.213E+06    -92.9927E+06    -116.061E+06    -318.759E+06    -116.080E+06    -318.740E+06    -92.9927E+06     1.86819E+06
            1586     100.178E-03     3.55032E-03     100.115E-03     238.830E-03    -119.189E-03    -119.750E-03    -119.187E-03     238.829E-03    -119.750E-03     376.512E-06     250.593E-03     216.708E+06    -72.6851E+06    -107.171E+06    -304.499E+06    -107.193E+06    -304.478E+06    -72.6851E+06     1.98181E+06
            1587     100.212E-03     4.43706E-03     100.113E-03     238.584E-03    -118.935E-03    -119.717E-03    -118.928E-03     238.577E-03    -119.717E-03     2.79017E-03     256.962E-03     210.893E+06    -53.2498E+06    -97.6326E+06    -282.750E+06    -97.6637E+06    -282.719E+06    -53.2498E+06     2.09000E+06
            1588     100.256E-03     5.32632E-03     100.114E-03     238.183E-03    -118.570E-03    -119.624E-03    -118.541E-03     238.154E-03    -119.624E-03     5.98914E-03     264.982E-03     188.865E+06    -38.8001E+06    -88.6738E+06    -247.518E+06    -88.7124E+06    -247.479E+06    -38.8001E+06     2.15872E+06
            1589     100.313E-03     6.21434E-03     100.121E-03     238.158E-03    -118.581E-03    -119.599E-03    -118.497E-03     238.074E-03    -119.599E-03     10.6395E-03     275.256E-03     161.236E+06    -26.6164E+06    -79.6331E+06    -207.607E+06    -79.7051E+06    -207.535E+06    -26.6164E+06     2.63794E+06
            1590     100.386E-03     7.10149E-03     100.134E-03     238.091E-03    -118.546E-03    -119.557E-03    -118.339E-03     237.884E-03    -119.557E-03     16.7739E-03     288.099E-03     133.297E+06    -15.0396E+06    -71.1237E+06    -166.956E+06    -71.2919E+06    -166.788E+06    -15.0396E+06     3.38232E+06
            1591     100.470E-03     7.98931E-03     100.152E-03     237.971E-03    -118.466E-03    -119.541E-03    -117.981E-03     237.487E-03    -119.541E-03     25.7231E-03     303.503E-03     98.0086E+06    -4.83649E+06    -63.5328E+06    -116.948E+06    -64.3635E+06    -116.117E+06    -4.83649E+06     4.98096E+06
            1592     100.576E-03     8.87811E-03     100.183E-03     237.675E-03    -118.170E-03    -119.541E-03    -117.320E-03     236.826E-03    -119.541E-03     34.5273E-03     320.933E-03     69.7225E+06     7.15254E+06    -36.3545E+06    -72.2613E+06    -57.3893E+06    -51.2266E+06     7.15254E+06     6.69062E+06
            1593     100.696E-03     9.76540E-03     100.222E-03     237.014E-03    -117.653E-03    -119.412E-03    -116.034E-03     235.395E-03    -119.412E-03     46.9458E-03     342.375E-03     87.9225E+06     49.4639E+06     8.63237E+06    -51.4357E+06    -50.5001E+06     34.8615E+06     22.2992E+06     7.79162E+06
            1594     100.850E-03     10.6544E-03     100.285E-03     237.485E-03    -118.184E-03    -119.561E-03    -115.204E-03     234.214E-03    -119.271E-03     67.0119E-03     367.758E-03     116.479E+06     86.7580E+06     40.6246E+06    -45.4282E+06    -44.8608E+06     86.1905E+06     40.6246E+06     8.48982E+06
            1595     101.035E-03     11.5432E-03     100.373E-03     240.338E-03    -119.098E-03    -121.571E-03    -115.315E-03     234.252E-03    -119.269E-03     92.0716E-03     394.891E-03     122.168E+06     93.0772E+06     67.8258E+06    -39.1406E+06    -38.5367E+06     92.4732E+06     67.8258E+06     8.76286E+06
            1596     101.261E-03     12.4348E-03     100.495E-03     245.762E-03    -119.395E-03    -126.549E-03    -116.182E-03     235.395E-03    -119.395E-03     121.654E-03     422.231E-03     129.300E+06     101.697E+06     93.8648E+06    -31.2701E+06    -30.8708E+06     100.415E+06     94.7467E+06     6.93702E+06
            1597     101.537E-03     13.3201E-03     100.659E-03     247.106E-03    -119.472E-03    -127.626E-03    -116.707E-03     236.187E-03    -119.472E-03     125.569E-03     423.775E-03     128.483E+06     107.209E+06     104.249E+06    -22.7209E+06    -22.4723E+06     105.965E+06     105.243E+06     5.00584E+06
            1598     101.792E-03     14.2094E-03     100.796E-03     256.227E-03    -119.409E-03    -136.727E-03    -118.845E-03     238.345E-03    -119.409E-03     158.958E-03     450.907E-03     123.908E+06     112.564E+06     106.604E+06    -14.1374E+06    -13.9046E+06     112.218E+06     106.717E+06     4.29443E+06
            1599     102.173E-03     15.0983E-03     101.051E-03     252.307E-03    -118.718E-03    -133.664E-03    -118.926E-03     238.211E-03    -119.359E-03     124.163E-03     412.072E-03     121.547E+06     119.127E+06     109.530E+06    -6.88898E+06    -6.78037E+06     119.018E+06     109.530E+06     1.87781E+06
            1600     101.398E-03     888.078E-06     101.394E-03     238.980E-03    -119.169E-03    -119.846E-03    -119.526E-03     238.979E-03    -119.487E-03    -1.07148E-03     240.527E-03     211.873E+06    -125.170E+06    -130.087E+06    -339.448E+06    -128.597E+06    -339.432E+06    -126.676E+06     1.16332E+06
            1601     101.407E-03     1.77561E-03     101.392E-03     239.121E-03    -119.364E-03    -119.816E-03    -119.592E-03     239.120E-03    -119.586E-03    -1.48930E-03     242.470E-03     213.537E+06    -112.231E+06    -123.981E+06    -331.354E+06    -123.995E+06    -331.339E+06    -112.231E+06     1.45672E+06
            1602     101.422E-03     2.66192E-03     101.387E-03     238.892E-03    -119.292E-03    -119.664E-03    -119.290E-03     238.891E-03    -119.664E-03    -1.24947E-03     245.605E-03     215.063E+06    -93.7126E+06    -117.014E+06    -319.401E+06    -117.026E+06    -319.389E+06    -93.7126E+06     1.32214E+06
            1603     101.446E-03     3.55072E-03     101.384E-03     238.640E-03    -119.028E-03    -119.692E-03    -119.026E-03     238.638E-03    -119.692E-03     254.118E-06     250.316E-03     215.671E+06    -74.1888E+06    -108.470E+06    -304.911E+06    -108.480E+06    -304.902E+06    -74.1888E+06     888.848E+03
            1604     101.480E-03     4.43916E-03     101.383E-03     238.679E-03    -119.076E-03    -119.659E-03    -119.069E-03     238.671E-03    -119.659E-03     2.72581E-03     256.954E-03     208.775E+06    -56.4311E+06    -98.7282E+06    -283.068E+06    -98.7375E+06    -283.058E+06    -56.4311E+06     776.890E+03
            1605     101.523E-03     5.32515E-03     101.383E-03     238.639E-03    -119.047E-03    -119.630E-03    -119.015E-03     238.607E-03    -119.630E-03     6.36361E-03     265.430E-03     187.023E+06    -41.8848E+06    -89.1335E+06    -247.940E+06    -89.1509E+06    -247.922E+06    -41.8848E+06     630.826E+03
            1606     101.580E-03     6.21277E-03     101.390E-03     238.177E-03    -118.576E-03    -119.636E-03    -118.487E-03     238.088E-03    -119.636E-03     10.9789E-03     275.256E-03     160.139E+06    -30.0060E+06    -80.5116E+06    -209.217E+06    -80.5540E+06    -209.174E+06    -30.0060E+06     1.35107E+06
            1607     101.650E-03     7.10146E-03     101.402E-03     237.842E-03    -118.283E-03    -119.572E-03    -118.072E-03     237.631E-03    -119.572E-03     16.9438E-03     287.791E-03     132.432E+06    -18.8829E+06    -73.1595E+06    -169.587E+06    -73.2887E+06    -169.458E+06    -18.8829E+06     2.67715E+06
            1608     101.736E-03     7.99032E-03     101.421E-03     237.793E-03    -118.297E-03    -119.532E-03    -117.834E-03     237.330E-03    -119.532E-03     25.2277E-03     303.320E-03     97.6445E+06    -7.92789E+06    -65.3673E+06    -119.627E+06    -65.9108E+06    -119.084E+06    -7.92789E+06     4.11210E+06
            1609     101.841E-03     8.87711E-03     101.453E-03     237.398E-03    -117.899E-03    -119.516E-03    -117.073E-03     236.572E-03    -119.516E-03     33.9589E-03     320.659E-03     68.8696E+06     4.37536E+06    -39.4656E+06    -74.2668E+06    -58.7704E+06    -54.9620E+06     4.37536E+06     6.05848E+06
            1610     101.961E-03     9.76549E-03     101.492E-03     237.290E-03    -117.930E-03    -119.382E-03    -116.245E-03     235.605E-03    -119.382E-03     47.7988E-03     342.301E-03     87.8593E+06     47.1142E+06     4.18904E+06    -53.9510E+06    -52.8805E+06     31.6019E+06     18.6308E+06     8.63705E+06
            1611     102.110E-03     10.6545E-03     101.552E-03     237.718E-03    -118.606E-03    -119.344E-03    -115.441E-03     234.469E-03    -119.260E-03     67.0250E-03     368.051E-03     117.582E+06     85.7891E+06     37.0799E+06    -48.0164E+06    -47.2575E+06     85.0302E+06     37.0799E+06     9.93527E+06
            1612     102.295E-03     11.5460E-03     101.641E-03     239.926E-03    -119.102E-03    -121.132E-03    -115.069E-03     234.033E-03    -119.273E-03     90.4429E-03     394.557E-03     122.665E+06     93.4417E+06     66.2252E+06    -39.8851E+06    -39.2550E+06     92.8117E+06     66.2252E+06     9.06621E+06
            1613     102.521E-03     12.4316E-03     101.765E-03     245.422E-03    -119.396E-03    -126.238E-03    -116.035E-03     235.219E-03    -119.396E-03     120.561E-03     421.522E-03     130.620E+06     103.382E+06     95.5133E+06    -30.8762E+06    -30.4498E+06     102.956E+06     95.5133E+06     7.47906E+06
            1614     102.797E-03     13.3212E-03     101.930E-03     247.196E-03    -119.470E-03    -127.796E-03    -116.852E-03     236.252E-03    -119.470E-03     125.819E-03     423.963E-03     129.796E+06     108.393E+06     106.457E+06    -22.3549E+06    -22.1059E+06     108.031E+06     106.570E+06     5.27817E+06
            1615     103.049E-03     14.2094E-03     102.065E-03     256.415E-03    -119.404E-03    -136.918E-03    -118.836E-03     238.332E-03    -119.404E-03     159.939E-03     451.157E-03     124.962E+06     114.248E+06     107.134E+06    -14.0328E+06    -13.8483E+06     113.951E+06     107.247E+06     3.51390E+06
            1616     103.424E-03     15.0988E-03     102.316E-03     252.185E-03    -118.569E-03    -133.597E-03    -118.614E-03     237.976E-03    -119.343E-03     124.479E-03     411.935E-03     122.962E+06     121.746E+06     110.649E+06    -6.37550E+06    -6.24682E+06     121.617E+06     110.649E+06     1.91761E+06
            1617     102.667E-03     886.452E-06     102.663E-03     239.365E-03    -119.002E-03    -120.388E-03    -120.060E-03     239.363E-03    -119.328E-03    -1.03366E-03     240.842E-03     210.916E+06    -126.144E+06    -131.404E+06    -339.633E+06    -130.603E+06    -339.621E+06    -126.957E+06    -505.086E+03
            1618     102.676E-03     1.77489E-03     102.661E-03     238.695E-03    -119.104E-03    -119.641E-03    -119.102E-03     238.692E-03    -119.641E-03    -1.79224E-03     241.968E-03     212.939E+06    -113.835E+06    -124.981E+06    -332.089E+06    -124.992E+06    -332.078E+06    -113.835E+06     296.999E+03
            1619     102.691E-03     2.66365E-03     102.656E-03     238.827E-03    -119.289E-03    -119.594E-03    -119.288E-03     238.826E-03    -119.594E-03    -1.20928E-03     245.436E-03     213.682E+06    -96.7329E+06    -118.483E+06    -320.389E+06    -118.487E+06    -320.385E+06    -96.7329E+06     873.957E+03
            1620     102.714E-03     3.54990E-03     102.653E-03     238.834E-03    -119.263E-03    -119.660E-03    -119.262E-03     238.833E-03    -119.660E-03     194.095E-06     250.461E-03     211.697E+06    -77.0916E+06    -110.154E+06    -303.315E+06    -110.160E+06    -303.310E+06    -77.0916E+06     86.0526E+03
            1621     102.746E-03     4.43772E-03     102.650E-03     238.664E-03    -119.096E-03    -119.654E-03    -119.088E-03     238.656E-03    -119.654E-03     2.73530E-03     256.921E-03     204.638E+06    -59.8796E+06    -100.446E+06    -281.731E+06    -100.485E+06    -281.692E+06    -59.8796E+06    -1.38868E+06
            1622     102.793E-03     5.32639E-03     102.655E-03     238.478E-03    -118.927E-03    -119.613E-03    -118.895E-03     238.446E-03    -119.613E-03     6.36157E-03     265.218E-03     184.421E+06    -46.5431E+06    -91.2508E+06    -249.134E+06    -91.2926E+06    -249.092E+06    -46.5431E+06    -1.14722E+06
            1623     102.847E-03     6.21371E-03     102.659E-03     238.175E-03    -118.589E-03    -119.611E-03    -118.499E-03     238.085E-03    -119.611E-03     10.9987E-03     275.279E-03     158.185E+06    -34.2009E+06    -82.7774E+06    -210.894E+06    -82.8266E+06    -210.845E+06    -34.2009E+06    -98.7943E+03
            1624     102.916E-03     7.10177E-03     102.671E-03     238.072E-03    -118.511E-03    -119.569E-03    -118.285E-03     237.847E-03    -119.569E-03     17.4751E-03     287.948E-03     131.608E+06    -22.4767E+06    -74.5511E+06    -171.947E+06    -74.6177E+06    -171.880E+06    -22.4767E+06     944.204E+03
            1625     103.003E-03     7.98817E-03     102.692E-03     237.553E-03    -118.047E-03    -119.532E-03    -117.577E-03     237.084E-03    -119.532E-03     25.4612E-03     303.135E-03     97.9439E+06    -11.4277E+06    -66.3143E+06    -123.656E+06    -66.6992E+06    -123.271E+06    -11.4277E+06     3.10351E+06
            1626     103.104E-03     8.87760E-03     102.721E-03     236.903E-03    -117.419E-03    -119.472E-03    -116.583E-03     236.066E-03    -119.472E-03     34.0838E-03     320.049E-03     68.7656E+06     411.909E+03    -42.0920E+06    -78.4577E+06    -60.3562E+06    -60.1935E+06     411.909E+03     6.43999E+06
            1627     103.223E-03     9.76816E-03     102.760E-03     237.386E-03    -118.069E-03    -119.329E-03    -116.400E-03     235.717E-03    -119.329E-03     47.7287E-03     341.933E-03     86.8870E+06     42.7919E+06    -74.9225E+03    -57.1968E+06    -55.6786E+06     26.8870E+06     14.3117E+06     9.68745E+06
            1628     103.376E-03     10.6551E-03     102.825E-03     238.518E-03    -119.039E-03    -119.649E-03    -116.249E-03     235.344E-03    -119.264E-03     66.4098E-03     368.854E-03     119.232E+06     85.8561E+06     34.1651E+06    -50.3069E+06    -49.4859E+06     85.0351E+06     34.1651E+06     10.4656E+06
            1629     103.551E-03     11.5401E-03     102.906E-03     240.474E-03    -119.330E-03    -121.371E-03    -115.429E-03     234.531E-03    -119.330E-03     90.7883E-03     395.530E-03     126.256E+06     95.8972E+06     64.3794E+06    -42.3147E+06    -41.7805E+06     95.3630E+06     64.3794E+06     8.16307E+06
            1630     103.785E-03     12.4327E-03     103.038E-03     244.741E-03    -119.429E-03    -125.502E-03    -115.124E-03     234.363E-03    -119.429E-03     121.340E-03     420.786E-03     131.308E+06     102.899E+06     94.1520E+06    -32.3776E+06    -32.0591E+06     102.580E+06     94.1520E+06     6.30975E+06
            1631     104.051E-03     13.3218E-03     103.195E-03     246.539E-03    -119.433E-03    -127.158E-03    -116.008E-03     235.389E-03    -119.433E-03     126.752E-03     422.753E-03     131.072E+06     110.332E+06     106.857E+06    -22.4155E+06    -22.1641E+06     110.080E+06     106.857E+06     5.56909E+06
            1632     104.307E-03     14.2111E-03     103.334E-03     256.197E-03    -119.344E-03    -136.742E-03    -118.779E-03     238.234E-03    -119.344E-03     159.722E-03     450.986E-03     127.229E+06     116.973E+06     108.465E+06    -14.2679E+06    -14.1280E+06     116.833E+06     108.465E+06     3.23656E+06
            1633     104.676E-03     15.0999E-03     103.581E-03     252.274E-03    -118.833E-03    -133.390E-03    -118.932E-03     238.282E-03    -119.300E-03     123.935E-03     412.329E-03     124.994E+06     123.171E+06     110.912E+06    -7.49060E+06    -7.42411E+06     123.104E+06     110.912E+06     1.30393E+06
            1634     103.937E-03     887.617E-06     103.933E-03     238.913E-03    -118.806E-03    -120.117E-03    -119.945E-03     238.911E-03    -118.976E-03    -872.294E-06     240.242E-03     208.898E+06    -128.924E+06    -132.710E+06    -339.682E+06    -132.719E+06    -339.672E+06    -128.924E+06    -618.764E+03
            1635     103.942E-03     1.77495E-03     103.927E-03     238.866E-03    -119.140E-03    -119.757E-03    -119.388E-03     238.865E-03    -119.507E-03    -1.26102E-03     241.992E-03     210.761E+06    -118.282E+06    -128.515E+06    -333.927E+06    -128.522E+06    -333.920E+06    -118.282E+06    -534.650E+03
            1636     103.959E-03     2.66253E-03     103.925E-03     238.699E-03    -119.151E-03    -119.605E-03    -119.201E-03     238.699E-03    -119.554E-03    -994.921E-06     245.214E-03     210.328E+06    -99.6566E+06    -120.669E+06    -319.642E+06    -120.690E+06    -319.620E+06    -99.6566E+06    -422.900E+03
            1637     103.982E-03     3.55112E-03     103.921E-03     238.886E-03    -119.354E-03    -119.627E-03    -119.361E-03     238.885E-03    -119.619E-03     537.185E-06     250.473E-03     206.206E+06    -80.0831E+06    -110.972E+06    -299.937E+06    -111.022E+06    -299.886E+06    -80.0831E+06    -2.00168E+06
            1638     104.015E-03     4.43813E-03     103.920E-03     238.848E-03    -119.284E-03    -119.659E-03    -119.284E-03     238.840E-03    -119.651E-03     3.14317E-03     257.133E-03     200.305E+06    -63.2358E+06    -101.833E+06    -279.981E+06    -101.909E+06    -279.905E+06    -63.2358E+06    -3.33640E+06
            1639     104.059E-03     5.32500E-03     103.923E-03     238.293E-03    -118.751E-03    -119.610E-03    -118.721E-03     238.264E-03    -119.610E-03     6.24794E-03     265.034E-03     182.379E+06    -49.7431E+06    -92.4832E+06    -249.638E+06    -92.6532E+06    -249.468E+06    -49.7431E+06    -3.84545E+06
            1640     104.113E-03     6.21375E-03     103.928E-03     238.181E-03    -118.624E-03    -119.588E-03    -118.535E-03     238.092E-03    -119.588E-03     10.8748E-03     275.234E-03     156.373E+06    -37.9384E+06    -83.0616E+06    -211.829E+06    -83.2146E+06    -211.676E+06    -37.9384E+06    -3.20304E+06
            1641     104.183E-03     7.10082E-03     103.941E-03     237.883E-03    -118.370E-03    -119.548E-03    -118.142E-03     237.655E-03    -119.548E-03     17.5869E-03     287.762E-03     131.521E+06    -26.0125E+06    -74.6733E+06    -174.752E+06    -74.7514E+06    -174.674E+06    -26.0125E+06    -1.42376E+06
            1642     104.267E-03     7.99018E-03     103.960E-03     237.309E-03    -117.859E-03    -119.488E-03    -117.398E-03     236.848E-03    -119.488E-03     25.2592E-03     302.791E-03     98.6671E+06    -15.4558E+06    -67.0044E+06    -128.508E+06    -67.1664E+06    -128.346E+06    -15.4558E+06     1.32715E+06
            1643     104.365E-03     8.87917E-03     103.986E-03     237.475E-03    -118.028E-03    -119.449E-03    -117.214E-03     236.661E-03    -119.449E-03     33.6613E-03     320.679E-03     67.1871E+06    -3.36508E+06    -46.4559E+06    -80.4376E+06    -59.7873E+06    -67.1062E+06    -3.36508E+06     5.39673E+06
            1644     104.488E-03     9.76486E-03     104.031E-03     237.516E-03    -118.182E-03    -119.353E-03    -116.555E-03     235.889E-03    -119.353E-03     47.1366E-03     342.309E-03     81.4333E+06     39.5178E+06    -4.19615E+06    -53.9926E+06    -52.2582E+06     21.0252E+06     12.5621E+06     9.77484E+06
            1645     104.636E-03     10.6541E-03     104.092E-03     238.024E-03    -118.526E-03    -119.601E-03    -115.575E-03     234.772E-03    -119.299E-03     66.9478E-03     368.217E-03     115.753E+06     85.2479E+06     35.3639E+06    -46.8484E+06    -45.7896E+06     84.1892E+06     35.3639E+06     11.6527E+06
            1646     104.814E-03     11.5457E-03     104.176E-03     240.443E-03    -119.156E-03    -121.392E-03    -115.177E-03     234.387E-03    -119.314E-03     91.8207E-03     395.531E-03     128.021E+06     99.4309E+06     66.3676E+06    -41.2284E+06    -40.3996E+06     98.6021E+06     66.3676E+06     10.1419E+06
            1647     105.034E-03     12.4306E-03     104.296E-03     245.207E-03    -119.375E-03    -125.914E-03    -115.435E-03     234.728E-03    -119.375E-03     122.024E-03     421.203E-03     134.897E+06     105.800E+06     94.1412E+06    -34.3218E+06    -33.8974E+06     105.376E+06     94.1412E+06     6.50868E+06
            1648     105.306E-03     13.3228E-03     104.460E-03     246.690E-03    -119.406E-03    -127.327E-03    -116.142E-03     235.505E-03    -119.406E-03     126.938E-03     422.550E-03     134.642E+06     111.974E+06     106.646E+06    -25.2298E+06     -25.109E+06     111.853E+06     106.646E+06      3.8001E+06
            1649     105.562E-03     14.2120E-03     104.600E-03     255.533E-03    -119.324E-03    -136.130E-03    -118.532E-03     237.935E-03    -119.324E-03     157.967E-03     450.653E-03     130.379E+06     118.820E+06     108.090E+06    -16.5561E+06    -16.4849E+06     118.749E+06     108.090E+06     2.53939E+06
            1650     105.932E-03     15.1002E-03     104.850E-03     252.006E-03    -118.995E-03    -132.940E-03    -118.933E-03     238.296E-03    -119.291E-03     122.997E-03     412.433E-03     126.818E+06     125.250E+06     111.350E+06     -7.9387E+06    -7.90180E+06     125.213E+06     111.350E+06     548.635E+03
            1651     105.203E-03     889.001E-06     105.199E-03     238.308E-03    -118.810E-03    -119.520E-03    -119.025E-03     238.307E-03    -119.303E-03    -1.34345E-03     239.517E-03     205.409E+06    -132.536E+06    -137.565E+06    -340.389E+06    -136.669E+06    -340.379E+06    -133.441E+06     863.530E+03
            1652     105.213E-03     1.77596E-03     105.198E-03     238.952E-03    -119.332E-03    -119.659E-03    -119.657E-03     238.950E-03    -119.332E-03    -1.55307E-03     242.015E-03     206.395E+06    -119.548E+06    -131.934E+06    -331.818E+06    -131.969E+06    -331.783E+06    -119.548E+06    -824.006E+03
            1653     105.226E-03     2.66304E-03     105.192E-03     239.023E-03    -119.338E-03    -119.722E-03    -119.531E-03     239.021E-03    -119.527E-03    -1.08870E-03     245.508E-03     203.454E+06    -103.495E+06    -123.570E+06    -316.206E+06    -123.674E+06    -316.102E+06    -103.495E+06    -3.76343E+06
            1654     105.250E-03     3.55044E-03     105.190E-03     238.843E-03    -119.209E-03    -119.705E-03    -119.289E-03     238.843E-03    -119.624E-03     402.638E-06     250.413E-03     197.314E+06    -86.7868E+06    -114.736E+06    -296.529E+06    -114.927E+06    -296.338E+06    -86.7868E+06    -5.61146E+06
            1655     105.283E-03     4.43791E-03     105.189E-03     238.556E-03    -118.997E-03    -119.638E-03    -119.000E-03     238.549E-03    -119.629E-03     2.66093E-03     256.821E-03     193.725E+06    -68.6859E+06    -104.676E+06    -277.832E+06    -105.016E+06    -277.493E+06    -68.6859E+06    -6.72036E+06
            1656     105.325E-03     5.32626E-03     105.190E-03     238.269E-03    -118.755E-03    -119.576E-03    -118.720E-03     238.233E-03    -119.576E-03     6.65406E-03     264.961E-03     177.361E+06    -53.7433E+06    -93.7569E+06    -247.644E+06    -94.2218E+06    -247.179E+06    -53.7433E+06    -7.73502E+06
            1657     105.379E-03     6.21324E-03     105.196E-03     238.096E-03    -118.577E-03    -119.554E-03    -118.476E-03     237.995E-03    -119.554E-03     11.7303E-03     275.150E-03     154.112E+06    -42.4870E+06    -84.1976E+06    -213.117E+06    -84.6718E+06    -212.643E+06    -42.4870E+06    -7.19485E+06
            1658     105.447E-03     7.10165E-03     105.208E-03     237.768E-03    -118.292E-03    -119.501E-03    -118.072E-03     237.548E-03    -119.501E-03     17.4079E-03     287.606E-03     131.025E+06    -30.7311E+06    -75.3188E+06    -178.076E+06    -75.6441E+06    -177.751E+06    -30.7311E+06    -5.07214E+06
            1659     105.527E-03     7.99002E-03     105.224E-03     237.763E-03    -118.339E-03    -119.467E-03    -117.884E-03     237.307E-03    -119.467E-03     25.0373E-03     303.012E-03     99.2329E+06    -19.6892E+06    -67.1662E+06    -133.213E+06    -67.3781E+06    -133.001E+06    -19.6892E+06    -2.04497E+06
            1660     105.631E-03     8.87652E-03     105.257E-03     237.695E-03    -118.258E-03    -119.463E-03    -117.419E-03     236.856E-03    -119.463E-03     34.1874E-03     320.968E-03     65.4657E+06    -7.53462E+06    -50.9914E+06    -82.4388E+06    -59.2393E+06    -74.1909E+06    -7.53462E+06     2.05461E+06
            1661     105.748E-03     9.76595E-03     105.296E-03     237.144E-03    -117.808E-03    -119.354E-03    -116.139E-03     235.475E-03    -119.354E-03     47.7198E-03     342.182E-03     74.2447E+06     32.3901E+06    -10.7694E+06    -52.4398E+06    -51.3404E+06     12.1799E+06     8.34132E+06     7.52023E+06
            1662     105.896E-03     10.6549E-03     105.358E-03     237.419E-03    -118.241E-03    -119.249E-03    -114.950E-03     234.128E-03    -119.249E-03     67.2690E-03     367.512E-03     110.593E+06     81.4815E+06     31.4740E+06    -45.0428E+06    -43.8194E+06     80.2581E+06     31.4740E+06     12.2295E+06
            1663     106.071E-03     11.5436E-03     105.440E-03     239.952E-03    -119.043E-03    -120.964E-03    -114.814E-03     233.986E-03    -119.227E-03     91.1406E-03     394.860E-03     126.217E+06     102.632E+06     65.5968E+06    -36.9222E+06    -35.7676E+06     101.477E+06     65.5968E+06     12.4323E+06
            1664     106.293E-03     12.4357E-03     105.563E-03     246.090E-03    -119.331E-03    -126.778E-03    -116.450E-03     235.762E-03    -119.331E-03     121.421E-03     421.985E-03     134.762E+06     112.178E+06     97.7794E+06    -29.0102E+06    -28.2375E+06     111.406E+06     97.7794E+06     9.46127E+06
            1665     106.562E-03     13.3208E-03     105.726E-03     247.433E-03    -119.444E-03    -127.977E-03    -117.031E-03     236.487E-03    -119.444E-03     125.792E-03     424.038E-03     135.177E+06     115.967E+06     109.456E+06    -22.3453E+06    -22.0006E+06     115.622E+06     109.456E+06     5.36673E+06
            1666     106.818E-03     14.2095E-03     105.869E-03     255.197E-03    -119.378E-03    -135.658E-03    -118.020E-03     237.559E-03    -119.378E-03     157.450E-03     450.760E-03     130.344E+06     120.811E+06     109.773E+06    -14.6357E+06    -14.6001E+06     120.775E+06     109.773E+06     1.60038E+06
            1667     107.184E-03     15.1001E-03     106.115E-03     251.724E-03    -118.871E-03    -132.771E-03    -118.374E-03     237.770E-03    -119.314E-03     123.906E-03     411.895E-03     126.935E+06     126.999E+06     112.948E+06    -6.37131E+06    -6.36894E+06     126.997E+06     112.948E+06     120.285E+03
            1668     106.471E-03     886.775E-06     106.467E-03     239.038E-03    -118.804E-03    -120.253E-03    -119.608E-03     239.037E-03    -119.447E-03    -1.05910E-03     240.166E-03     200.593E+06    -136.356E+06    -140.918E+06    -339.170E+06    -140.028E+06    -339.155E+06    -137.261E+06     225.926E+03
            1669     106.480E-03     1.77530E-03     106.465E-03     238.940E-03    -119.342E-03    -119.641E-03    -119.417E-03     238.937E-03    -119.563E-03    -2.07833E-03     242.001E-03     197.395E+06    -123.559E+06    -134.273E+06    -326.041E+06    -134.366E+06    -325.947E+06    -123.559E+06    -2.75800E+06
            1670     106.495E-03     2.66282E-03     106.462E-03     239.068E-03    -119.363E-03    -119.755E-03    -119.505E-03     239.065E-03    -119.611E-03    -1.46524E-03     245.587E-03     192.703E+06    -108.567E+06    -127.150E+06    -309.844E+06    -127.427E+06    -309.567E+06    -108.567E+06    -6.76420E+06
            1671     106.517E-03     3.54956E-03     106.458E-03     238.632E-03    -118.983E-03    -119.727E-03    -119.055E-03     238.631E-03    -119.655E-03     564.170E-06     250.229E-03     188.177E+06    -91.6332E+06    -117.744E+06    -291.450E+06    -118.304E+06    -290.891E+06    -91.6332E+06    -9.40315E+06
            1672     106.549E-03     4.43796E-03     106.457E-03     238.167E-03    -118.654E-03    -119.594E-03    -118.646E-03     238.160E-03    -119.594E-03     2.97898E-03     256.432E-03     184.783E+06    -74.6783E+06    -107.532E+06    -273.643E+06    -108.411E+06    -272.764E+06    -74.6783E+06    -11.7344E+06
            1673     106.591E-03     5.32590E-03     106.457E-03     238.034E-03    -118.606E-03    -119.508E-03    -118.570E-03     237.998E-03    -119.508E-03     6.77204E-03     264.721E-03     169.862E+06    -59.9927E+06    -97.3563E+06    -245.375E+06    -98.5407E+06    -244.191E+06    -59.9927E+06    -12.6560E+06
            1674     106.646E-03     6.21429E-03     106.465E-03     237.898E-03    -118.449E-03    -119.476E-03    -118.352E-03     237.802E-03    -119.476E-03     11.4755E-03     274.918E-03     150.513E+06    -47.7165E+06    -87.1047E+06    -213.987E+06    -88.3990E+06    -212.693E+06    -47.7165E+06    -12.2593E+06
            1675     106.711E-03     7.10229E-03     106.474E-03     237.921E-03    -118.469E-03    -119.435E-03    -118.236E-03     237.688E-03    -119.435E-03     17.7592E-03     287.572E-03     129.699E+06    -36.4785E+06    -77.3616E+06    -181.594E+06    -78.5042E+06    -180.451E+06    -36.4785E+06    -10.3610E+06
            1676     106.795E-03     7.98908E-03     106.496E-03     237.856E-03    -118.451E-03    -119.429E-03    -117.951E-03     237.356E-03    -119.429E-03     26.2639E-03     303.002E-03     99.6329E+06    -24.9119E+06    -68.2296E+06    -138.478E+06    -69.0379E+06    -137.670E+06    -24.9119E+06    -6.95391E+06
            1677     106.893E-03     8.87835E-03     106.524E-03     237.450E-03    -118.051E-03    -119.416E-03    -117.181E-03     236.580E-03    -119.416E-03     34.8875E-03     320.638E-03     65.2786E+06    -12.5778E+06    -55.4691E+06    -86.4330E+06    -60.9713E+06    -80.9309E+06    -12.5778E+06    -2.25296E+06
            1678     107.011E-03     9.76632E-03     106.565E-03     237.036E-03    -117.756E-03    -119.299E-03    -116.140E-03     235.421E-03    -119.299E-03     47.0604E-03     342.351E-03     67.5469E+06     22.2149E+06    -18.1499E+06    -53.9433E+06    -53.2167E+06     897.478E+03     2.44093E+06     4.24987E+06
            1679     107.154E-03     10.6554E-03     106.623E-03     237.567E-03    -118.408E-03    -119.237E-03    -115.239E-03     234.356E-03    -119.195E-03     66.3828E-03     367.808E-03     105.143E+06     74.3924E+06     23.8064E+06    -46.4539E+06    -45.5938E+06     73.5323E+06     23.8064E+06     9.83118E+06
            1680     107.332E-03     11.5460E-03     106.709E-03     240.516E-03    -119.210E-03    -121.413E-03    -115.532E-03     234.660E-03    -119.236E-03     90.4968E-03     395.363E-03     127.881E+06     105.321E+06     60.5850E+06    -37.7107E+06    -36.8501E+06     104.460E+06     60.5850E+06     10.6342E+06
            1681     107.552E-03     12.4315E-03     106.831E-03     246.057E-03    -119.397E-03    -126.661E-03    -116.450E-03     235.846E-03    -119.397E-03     120.610E-03     422.249E-03     134.867E+06     113.643E+06     96.6608E+06    -28.5240E+06    -27.7741E+06     112.893E+06     96.6608E+06     10.1629E+06
            1682     107.827E-03     13.3202E-03     107.002E-03     246.650E-03    -119.480E-03    -127.065E-03    -116.121E-03     235.705E-03    -119.480E-03     125.518E-03     423.652E-03     136.937E+06     121.588E+06     112.802E+06    -19.4732E+06    -18.9128E+06     121.028E+06     112.802E+06     8.09645E+06
            1683     108.069E-03     14.2101E-03     107.131E-03     255.319E-03    -119.386E-03    -135.764E-03    -117.792E-03     237.347E-03    -119.386E-03     158.848E-03     450.697E-03     132.900E+06     126.876E+06     114.920E+06    -11.5471E+06    -11.4185E+06     126.747E+06     114.920E+06     3.34557E+06
            1684     108.446E-03     15.1004E-03     107.389E-03     251.843E-03    -118.612E-03    -133.239E-03    -118.279E-03     237.590E-03    -119.317E-03     125.111E-03     411.768E-03     127.718E+06     127.164E+06     115.079E+06    -6.14977E+06    -6.13245E+06     127.147E+06     115.079E+06     1.18891E+06
            1685     107.739E-03     887.220E-06     107.735E-03     239.724E-03    -119.303E-03    -120.441E-03    -120.278E-03     239.723E-03    -119.465E-03    -1.15241E-03     240.847E-03     193.728E+06    -140.285E+06    -142.649E+06    -335.183E+06    -142.273E+06    -335.112E+06    -140.732E+06    -2.33498E+06
            1686     107.748E-03     1.77412E-03     107.733E-03     239.086E-03    -119.328E-03    -119.788E-03    -119.326E-03     239.084E-03    -119.788E-03    -1.27391E-03     242.159E-03     184.769E+06    -130.194E+06    -137.349E+06    -318.399E+06    -137.600E+06    -318.148E+06    -130.194E+06    -6.15207E+06
            1687     107.763E-03     2.66172E-03     107.731E-03     238.533E-03    -118.937E-03    -119.657E-03    -118.936E-03     238.532E-03    -119.657E-03    -676.512E-06     245.091E-03     180.917E+06    -112.395E+06    -129.492E+06    -301.178E+06    -130.060E+06    -300.610E+06    -112.395E+06    -9.48190E+06
            1688     107.785E-03     3.55067E-03     107.727E-03     238.240E-03    -118.752E-03    -119.583E-03    -118.751E-03     238.239E-03    -119.583E-03     792.197E-06     249.876E-03     177.863E+06    -94.2014E+06    -120.251E+06    -283.605E+06    -121.310E+06    -282.546E+06    -94.2014E+06    -12.8442E+06
            1689     107.817E-03     4.43857E-03     107.725E-03     238.211E-03    -118.760E-03    -119.520E-03    -118.750E-03     238.202E-03    -119.520E-03     3.34322E-03     256.485E-03     174.709E+06    -78.2111E+06    -110.162E+06    -266.644E+06    -111.899E+06    -264.906E+06    -78.2111E+06    -15.9673E+06
            1690     107.859E-03     5.32608E-03     107.727E-03     238.009E-03    -118.617E-03    -119.461E-03    -118.581E-03     237.973E-03    -119.461E-03     6.91369E-03     264.701E-03     162.942E+06    -64.4476E+06    -99.2658E+06    -241.970E+06    -101.781E+06    -239.455E+06    -64.4476E+06    -18.3290E+06
            1691     107.911E-03     6.21403E-03     107.731E-03     237.823E-03    -118.434E-03    -119.422E-03    -118.339E-03     237.728E-03    -119.422E-03     11.3840E-03     274.814E-03     146.413E+06    -52.8016E+06    -88.7000E+06    -213.802E+06    -91.6349E+06    -210.867E+06    -52.8016E+06    -18.5667E+06
            1692     107.979E-03     7.10190E-03     107.745E-03     237.650E-03    -118.266E-03    -119.379E-03    -118.030E-03     237.414E-03    -119.379E-03     17.8578E-03     287.409E-03     128.353E+06    -41.7599E+06    -78.9313E+06    -184.539E+06    -81.8445E+06    -181.626E+06    -41.7599E+06    -16.8745E+06
            1693     108.059E-03     7.99135E-03     107.763E-03     237.403E-03    -118.104E-03    -119.355E-03    -117.611E-03     236.910E-03    -119.355E-03     26.1038E-03     302.534E-03     100.836E+06    -31.2855E+06    -69.6702E+06    -145.377E+06    -72.3433E+06    -142.704E+06    -31.2855E+06    -13.5105E+06
            1694     108.159E-03     8.87855E-03     107.794E-03     237.348E-03    -118.058E-03    -119.331E-03    -117.193E-03     236.482E-03    -119.331E-03     34.7542E-03     320.382E-03     66.1045E+06    -18.8691E+06    -59.4275E+06    -93.2256E+06    -62.9523E+06    -89.7007E+06    -18.8691E+06    -7.53068E+06
            1695     108.274E-03     9.76626E-03     107.833E-03     237.684E-03    -118.238E-03    -119.446E-03    -116.812E-03     236.066E-03    -119.253E-03     47.2204E-03     342.755E-03     62.8523E+06     12.9052E+06    -24.9067E+06    -57.6018E+06    -54.6900E+06    -10.9395E+06    -3.97381E+06     590.853E+03
            1696     108.417E-03     10.6549E-03     107.892E-03     238.865E-03    -118.894E-03    -120.044E-03    -116.552E-03     235.751E-03    -119.272E-03     65.7258E-03     369.128E-03     101.287E+06     68.4872E+06     19.6968E+06    -47.8735E+06    -47.4050E+06     68.0187E+06     19.6968E+06     7.09030E+06
            1697     108.594E-03     11.5422E-03     107.979E-03     241.078E-03    -119.390E-03    -121.838E-03    -116.016E-03     235.256E-03    -119.390E-03     90.1441E-03     396.023E-03     130.458E+06     105.638E+06     56.7482E+06    -41.1884E+06    -40.6293E+06     105.079E+06     56.7482E+06     8.98372E+06
            1698     108.816E-03     12.4303E-03     108.103E-03     244.889E-03    -119.483E-03    -125.431E-03    -115.153E-03     234.611E-03    -119.483E-03     120.617E-03     421.299E-03     136.470E+06     112.046E+06     92.6509E+06    -32.4823E+06    -32.0211E+06     111.585E+06     92.6509E+06     8.01685E+06
            1699     109.078E-03     13.3221E-03     108.262E-03     245.478E-03    -119.477E-03    -125.856E-03    -114.824E-03     234.446E-03    -119.477E-03     125.619E-03     422.386E-03     140.214E+06     123.817E+06     113.403E+06    -21.2358E+06    -20.8969E+06     123.479E+06     113.403E+06     6.75656E+06
            1700     109.333E-03     14.2128E-03     108.405E-03     254.782E-03    -119.354E-03    -135.304E-03    -117.455E-03     236.933E-03    -119.354E-03     158.407E-03     450.012E-03     137.498E+06     132.018E+06     118.303E+06    -11.8088E+06    -11.5260E+06     131.735E+06     118.303E+06     5.79378E+06
            1701     109.697E-03     15.1009E-03     108.653E-03     251.218E-03    -118.356E-03    -132.940E-03    -117.880E-03     237.092E-03    -119.289E-03     125.318E-03     411.399E-03     130.153E+06     129.775E+06     118.666E+06    -5.56954E+06    -5.41621E+06     129.621E+06     118.666E+06     3.57049E+06
            1702     109.011E-03     887.198E-06     109.007E-03     239.091E-03    -119.255E-03    -119.854E-03    -119.785E-03     239.090E-03    -119.323E-03    -376.868E-06     240.194E-03     184.516E+06    -141.317E+06    -142.698E+06    -326.517E+06    -142.322E+06    -326.339E+06    -141.870E+06    -4.98831E+06
            1703     109.017E-03     1.77469E-03     109.002E-03     238.654E-03    -119.171E-03    -119.511E-03    -119.171E-03     238.653E-03    -119.511E-03    -638.053E-06     241.749E-03     173.360E+06    -131.497E+06    -138.475E+06    -308.172E+06    -138.891E+06    -307.738E+06    -131.515E+06    -8.39775E+06
            1704     109.031E-03     2.66327E-03     108.998E-03     238.301E-03    -118.919E-03    -119.444E-03    -118.919E-03     238.301E-03    -119.444E-03    -83.9937E-06     244.836E-03     168.844E+06    -114.925E+06    -131.831E+06    -291.522E+06    -132.767E+06    -290.587E+06    -114.925E+06    -11.8174E+06
            1705     109.052E-03     3.55082E-03     108.995E-03     238.292E-03    -118.960E-03    -119.444E-03    -118.958E-03     238.291E-03    -119.444E-03     984.737E-06     249.942E-03     165.108E+06    -97.0637E+06    -122.828E+06    -273.492E+06    -124.709E+06    -271.611E+06    -97.0637E+06    -16.2366E+06
            1706     109.083E-03     4.43830E-03     108.993E-03     238.281E-03    -118.900E-03    -119.456E-03    -118.890E-03     238.272E-03    -119.456E-03     3.36500E-03     256.531E-03     163.762E+06    -79.9694E+06    -111.444E+06    -257.169E+06    -114.541E+06    -254.071E+06    -79.9694E+06    -20.6278E+06
            1707     109.126E-03     5.32644E-03     108.996E-03     238.084E-03    -118.691E-03    -119.427E-03    -118.655E-03     238.048E-03    -119.427E-03     6.85080E-03     264.731E-03     154.761E+06    -67.3750E+06    -99.8769E+06    -235.799E+06    -104.414E+06    -231.261E+06    -67.3750E+06    -23.9472E+06
            1708     109.180E-03     6.21419E-03     109.003E-03     237.866E-03    -118.497E-03    -119.397E-03    -118.401E-03     237.770E-03    -119.397E-03     11.4058E-03     274.946E-03     142.434E+06    -57.1553E+06    -89.1054E+06    -212.835E+06    -94.6103E+06    -207.330E+06    -57.1553E+06    -25.1960E+06
            1709     109.244E-03     7.10250E-03     109.013E-03     237.641E-03    -118.294E-03    -119.358E-03    -118.067E-03     237.415E-03    -119.358E-03     17.5470E-03     287.398E-03     127.414E+06    -46.7990E+06    -78.8700E+06    -187.136E+06    -84.6127E+06    -181.393E+06    -46.7990E+06    -23.9701E+06
            1710     109.325E-03     7.99007E-03     109.033E-03     237.262E-03    -118.005E-03    -119.336E-03    -117.534E-03     236.792E-03    -119.336E-03     25.4800E-03     302.354E-03     102.821E+06    -37.2015E+06    -69.6703E+06    -152.192E+06    -75.4267E+06    -146.436E+06    -37.2015E+06    -20.6984E+06
            1711     109.424E-03     8.87919E-03     109.063E-03     237.177E-03    -117.940E-03    -119.310E-03    -117.103E-03     236.340E-03    -119.310E-03     34.1467E-03     320.008E-03     70.1980E+06    -26.2899E+06    -59.4145E+06    -105.723E+06    -66.1206E+06    -99.0172E+06    -26.2899E+06    -15.0821E+06
            1712     109.541E-03     9.76812E-03     109.104E-03     238.160E-03    -118.642E-03    -119.519E-03    -117.275E-03     236.527E-03    -119.254E-03     47.3807E-03     342.584E-03     57.2122E+06    -1.25563E+06    -28.8752E+06    -65.7792E+06    -56.9457E+06    -26.8848E+06    -12.0796E+06    -4.69440E+06
            1713     109.684E-03     10.6534E-03     109.165E-03     239.607E-03    -119.305E-03    -120.383E-03    -117.145E-03     236.369E-03    -119.305E-03     67.0807E-03     369.635E-03     95.8000E+06     58.6340E+06     9.88139E+06    -50.9050E+06    -50.4567E+06     58.1857E+06     9.88139E+06     6.62910E+06
            1714     109.859E-03     11.5400E-03     109.251E-03     240.471E-03    -119.403E-03    -121.238E-03    -115.229E-03     234.461E-03    -119.403E-03     91.4198E-03     395.710E-03     134.336E+06     106.450E+06     47.6724E+06    -45.7428E+06    -45.1386E+06     105.846E+06     47.6724E+06     9.36390E+06
            1715     110.073E-03     12.4321E-03     109.368E-03     244.334E-03    -119.448E-03    -124.946E-03    -114.377E-03     233.764E-03    -119.448E-03     122.117E-03     420.459E-03     141.839E+06     115.210E+06     90.0651E+06    -36.6677E+06    -36.4187E+06     114.961E+06     90.0651E+06     5.53357E+06
            1716     110.339E-03     13.3211E-03     109.532E-03     245.947E-03    -119.436E-03    -126.381E-03    -115.119E-03     234.685E-03    -119.436E-03     126.979E-03     422.361E-03     144.398E+06     122.777E+06     112.233E+06    -26.5751E+06    -26.4653E+06     122.668E+06     112.233E+06     3.63425E+06
            1717     110.588E-03     14.2108E-03     109.671E-03     254.368E-03    -119.328E-03    -134.937E-03    -116.964E-03     236.395E-03    -119.328E-03     158.686E-03     449.565E-03     141.098E+06     131.450E+06     117.082E+06    -16.2534E+06    -16.0504E+06     131.247E+06     117.082E+06     4.93201E+06
            1718     110.956E-03     15.1035E-03     109.923E-03     250.138E-03    -117.808E-03    -132.361E-03    -116.730E-03     235.921E-03    -119.221E-03     125.269E-03     410.032E-03     134.841E+06     134.619E+06     120.543E+06    -6.68997E+06    -6.52261E+06     134.452E+06     120.543E+06     4.01317E+06
            1719     110.280E-03     888.198E-06     110.276E-03     237.630E-03    -118.486E-03    -119.151E-03    -119.048E-03     237.629E-03    -118.589E-03     197.666E-06     238.629E-03     171.809E+06    -141.046E+06    -142.269E+06    -313.459E+06    -142.474E+06    -313.147E+06    -141.153E+06    -6.78304E+06
            1720     110.285E-03     1.77654E-03     110.271E-03     238.253E-03    -118.871E-03    -119.422E-03    -119.320E-03     238.253E-03    -118.973E-03    -723.884E-06     241.276E-03     161.740E+06    -131.299E+06    -137.973E+06    -296.210E+06    -138.695E+06    -295.470E+06    -131.317E+06    -10.4243E+06
            1721     110.299E-03     2.66359E-03     110.267E-03     238.490E-03    -119.125E-03    -119.434E-03    -119.366E-03     238.490E-03    -119.193E-03    -425.964E-06     244.995E-03     157.539E+06    -114.871E+06    -130.283E+06    -279.491E+06    -131.897E+06    -277.877E+06    -114.871E+06    -14.8179E+06
            1722     110.321E-03     3.55110E-03     110.264E-03     238.349E-03    -119.141E-03    -119.331E-03    -119.140E-03     238.348E-03    -119.331E-03     1.08279E-03     249.950E-03     153.842E+06    -96.8507E+06    -119.692E+06    -260.805E+06    -122.664E+06    -257.833E+06    -96.8507E+06    -19.9510E+06
            1723     110.352E-03     4.43891E-03     110.263E-03     238.263E-03    -118.988E-03    -119.390E-03    -118.977E-03     238.252E-03    -119.390E-03     3.68721E-03     256.496E-03     153.794E+06    -80.4496E+06    -109.478E+06    -246.665E+06    -114.067E+06    -242.077E+06    -80.4496E+06    -24.4007E+06
            1724     110.394E-03     5.32609E-03     110.265E-03     238.103E-03    -118.768E-03    -119.386E-03    -118.730E-03     238.065E-03    -119.386E-03     7.11317E-03     264.714E-03     146.819E+06    -67.8649E+06    -98.6823E+06    -227.645E+06    -105.472E+06    -220.856E+06    -67.8649E+06    -28.4568E+06
            1725     110.446E-03     6.21412E-03     110.271E-03     237.937E-03    -118.595E-03    -119.369E-03    -118.496E-03     237.839E-03    -119.369E-03     11.5815E-03     274.934E-03     138.423E+06    -59.0325E+06    -87.9589E+06    -209.633E+06    -96.5348E+06    -201.057E+06    -59.0325E+06    -30.9432E+06
            1726     110.512E-03     7.10182E-03     110.284E-03     237.750E-03    -118.406E-03    -119.346E-03    -118.173E-03     237.516E-03    -119.346E-03     17.8334E-03     287.299E-03     126.237E+06    -50.5524E+06    -78.2887E+06    -188.332E+06    -87.6343E+06    -178.987E+06    -50.5524E+06    -30.4107E+06
            1727     110.593E-03     7.99008E-03     110.304E-03     237.559E-03    -118.258E-03    -119.346E-03    -117.773E-03     237.074E-03    -119.346E-03     25.8935E-03     302.473E-03     105.213E+06    -41.7919E+06    -68.4555E+06    -157.702E+06    -78.5827E+06    -147.575E+06    -41.7919E+06    -27.9546E+06
            1728     110.690E-03     8.87828E-03     110.333E-03     237.695E-03    -118.378E-03    -119.354E-03    -117.533E-03     236.850E-03    -119.354E-03     34.3924E-03     320.226E-03     76.6547E+06    -32.1720E+06    -57.6195E+06    -118.048E+06    -69.5018E+06    -106.165E+06    -32.1720E+06    -23.1434E+06
            1729     110.809E-03     9.76476E-03     110.378E-03     237.864E-03    -118.470E-03    -119.378E-03    -116.858E-03     236.181E-03    -119.306E-03     47.9327E-03     342.156E-03     52.2752E+06    -17.8801E+06    -36.5031E+06    -76.7257E+06    -61.2784E+06    -48.9177E+06    -20.9127E+06    -11.0781E+06
            1730     110.950E-03     10.6544E-03     110.437E-03     237.973E-03    -118.483E-03    -119.567E-03    -115.491E-03     234.634E-03    -119.220E-03     67.8596E-03     367.857E-03     87.9314E+06     45.3215E+06    -7.76221E+06    -54.1085E+06    -53.4334E+06     41.6235E+06    -4.73931E+06     3.72447E+06
            1731     111.124E-03     11.5449E-03     110.522E-03     239.493E-03    -118.869E-03    -120.833E-03    -114.492E-03     233.489E-03    -119.206E-03     91.3380E-03     394.583E-03     136.077E+06     108.650E+06     34.2189E+06    -46.0300E+06    -45.4911E+06     108.111E+06     34.2189E+06     8.91686E+06
            1732     111.331E-03     12.4336E-03     110.634E-03     244.590E-03    -119.297E-03    -125.409E-03    -114.725E-03     233.906E-03    -119.297E-03     122.733E-03     420.650E-03     145.392E+06     120.331E+06     84.7757E+06    -38.2714E+06    -38.0163E+06     120.076E+06     84.7757E+06     5.67672E+06
            1733     111.606E-03     13.3245E-03     110.808E-03     245.902E-03    -119.331E-03    -126.557E-03    -115.069E-03     234.414E-03    -119.331E-03     128.216E-03     421.935E-03     147.702E+06     123.655E+06     111.063E+06    -29.8784E+06    -29.8151E+06     123.592E+06     111.063E+06     2.40704E+06
            1734     111.847E-03     14.2142E-03     110.940E-03     254.234E-03    -119.220E-03    -135.039E-03    -116.852E-03     236.048E-03    -119.220E-03     159.604E-03     449.556E-03     143.716E+06     129.667E+06     116.512E+06    -20.1184E+06    -20.0828E+06     129.631E+06     116.512E+06     1.54884E+06
            1735     112.212E-03     15.1043E-03     111.191E-03     249.611E-03    -117.259E-03    -132.426E-03    -116.284E-03     235.284E-03    -119.074E-03     125.133E-03     409.824E-03     138.880E+06     136.578E+06     120.469E+06    -9.64675E+06    -9.61560E+06     136.547E+06     120.469E+06     1.15546E+06
            1736     111.545E-03     889.572E-06     111.541E-03     237.415E-03    -118.513E-03    -118.914E-03    -118.806E-03     237.414E-03    -118.620E-03    -672.832E-06     238.384E-03     161.262E+06    -134.036E+06    -136.623E+06    -296.570E+06    -136.666E+06    -296.168E+06    -134.395E+06    -7.05082E+06
            1737     111.555E-03     1.77652E-03     111.541E-03     238.051E-03    -118.776E-03    -119.312E-03    -119.224E-03     238.049E-03    -118.863E-03    -1.24650E-03     241.030E-03     152.746E+06    -125.708E+06    -131.553E+06    -281.282E+06    -132.895E+06    -279.939E+06    -125.708E+06    -13.4938E+06
            1738     111.569E-03     2.66358E-03     111.537E-03     238.284E-03    -119.029E-03    -119.325E-03    -119.283E-03     238.284E-03    -119.070E-03    -445.040E-06     244.799E-03     146.826E+06    -112.429E+06    -123.468E+06    -264.424E+06    -126.271E+06    -261.620E+06    -112.429E+06    -19.1615E+06
            1739     111.590E-03     3.55135E-03     111.533E-03     238.254E-03    -119.130E-03    -119.244E-03    -119.141E-03     238.252E-03    -119.230E-03     1.36741E-03     249.784E-03     145.364E+06    -94.7267E+06    -113.894E+06    -248.662E+06    -118.248E+06    -244.309E+06    -94.7267E+06    -23.5786E+06
            1740     111.622E-03     4.43888E-03     111.534E-03     238.097E-03    -118.906E-03    -119.302E-03    -118.894E-03     238.084E-03    -119.302E-03     3.93373E-03     256.257E-03     146.457E+06    -77.0035E+06    -102.988E+06    -234.697E+06    -109.335E+06    -228.350E+06    -77.0035E+06    -27.8966E+06
            1741     111.663E-03     5.32688E-03     111.536E-03     237.925E-03    -118.672E-03    -119.308E-03    -118.626E-03     237.879E-03    -119.308E-03     7.74619E-03     264.508E-03     142.363E+06    -63.4025E+06    -91.7219E+06    -217.790E+06    -100.302E+06    -209.210E+06    -63.4025E+06    -31.6010E+06
            1742     111.714E-03     6.21445E-03     111.541E-03     237.953E-03    -118.689E-03    -119.300E-03    -118.573E-03     237.838E-03    -119.300E-03     12.5826E-03     274.841E-03     136.074E+06    -54.8564E+06      -82.31E+06    -202.561E+06    -92.8260E+06    -192.045E+06    -54.8564E+06    -33.9038E+06
            1743     111.780E-03     7.10229E-03     111.554E-03     237.950E-03    -118.672E-03    -119.293E-03    -118.425E-03     237.704E-03    -119.293E-03     18.4361E-03     287.499E-03     126.421E+06    -49.4384E+06    -73.6842E+06    -186.203E+06    -86.2855E+06    -173.602E+06    -49.4384E+06    -35.3299E+06
            1744     111.858E-03     7.99064E-03     111.572E-03     238.043E-03    -118.742E-03    -119.341E-03    -118.236E-03     237.536E-03    -119.341E-03     26.4585E-03     302.789E-03     109.084E+06    -42.6572E+06    -63.1965E+06    -160.501E+06    -78.1268E+06    -145.571E+06    -42.6572E+06    -34.8141E+06
            1745     111.960E-03     8.87730E-03     111.608E-03     237.811E-03    -118.458E-03    -119.380E-03    -117.568E-03     236.921E-03    -119.380E-03     35.2974E-03     320.463E-03     85.9944E+06    -34.8290E+06    -54.7690E+06    -128.884E+06    -70.1554E+06    -113.498E+06    -34.8290E+06    -29.8684E+06
            1746     112.074E-03     9.76625E-03     111.648E-03     237.116E-03    -117.794E-03    -119.303E-03    -116.049E-03     235.372E-03    -119.303E-03     48.7385E-03     341.694E-03     57.2278E+06    -25.9927E+06    -41.1456E+06    -89.1494E+06    -61.1311E+06    -69.1639E+06    -25.9927E+06    -19.4239E+06
            1747     112.214E-03     10.6554E-03     111.707E-03     236.824E-03    -117.790E-03    -119.112E-03    -114.499E-03     233.533E-03    -119.112E-03     67.3467E-03     366.748E-03     77.1080E+06     31.1883E+06    -18.1131E+06    -54.7867E+06    -49.4083E+06     21.1455E+06    -13.4487E+06    -5.53861E+06
            1748     112.384E-03     11.5464E-03     111.789E-03     239.094E-03    -118.545E-03    -120.751E-03    -114.330E-03     233.145E-03    -119.017E-03     90.7246E-03     393.830E-03     125.229E+06     103.081E+06     22.5249E+06    -39.4269E+06    -39.0109E+06     102.665E+06     22.5249E+06     5.83504E+06
            1749     112.602E-03     12.4352E-03     111.913E-03     244.358E-03    -119.144E-03    -125.326E-03    -114.935E-03     233.967E-03    -119.144E-03     121.222E-03     420.552E-03     142.234E+06     125.626E+06     77.8977E+06    -32.0802E+06    -31.6314E+06     125.177E+06     77.8977E+06     8.18914E+06
            1750     112.861E-03     13.3251E-03     112.072E-03     244.828E-03    -119.216E-03    -125.643E-03    -114.447E-03     233.633E-03    -119.216E-03     126.432E-03     421.348E-03     145.071E+06     128.022E+06     111.823E+06    -24.3180E+06    -24.1346E+06     127.839E+06     111.823E+06     4.40452E+06
            1751     113.112E-03     14.2170E-03     112.215E-03     252.971E-03    -119.056E-03    -133.940E-03    -115.817E-03     234.848E-03    -119.056E-03     158.951E-03     448.507E-03     141.512E+06     130.324E+06     119.129E+06    -16.4277E+06    -16.3989E+06     130.295E+06     119.129E+06     869.744E+03
            1752     113.466E-03     15.1079E-03     112.456E-03     248.631E-03    -116.947E-03    -131.767E-03    -115.579E-03     234.359E-03    -118.862E-03     125.003E-03     409.165E-03     138.353E+06     136.655E+06     122.474E+06    -8.23171E+06    -8.22997E+06     136.653E+06     122.474E+06    -383.342E+03
            1753     112.813E-03     886.165E-06     112.810E-03     238.332E-03    -118.666E-03    -119.680E-03    -119.444E-03     238.331E-03    -118.901E-03    -192.744E-06     239.326E-03     154.612E+06    -120.566E+06    -123.714E+06    -276.725E+06    -122.911E+06    -276.211E+06    -121.884E+06    -8.18722E+06
            1754     112.822E-03     1.77547E-03     112.808E-03     237.732E-03    -118.642E-03    -119.121E-03    -118.641E-03     237.731E-03    -119.121E-03    -874.708E-06     240.746E-03     147.845E+06    -111.951E+06    -117.923E+06    -262.670E+06    -119.453E+06    -261.140E+06    -111.951E+06    -14.1205E+06
            1755     112.838E-03     2.66440E-03     112.807E-03     237.719E-03    -118.721E-03    -119.051E-03    -118.734E-03     237.719E-03    -119.037E-03    -141.366E-06     244.219E-03     140.131E+06    -101.949E+06    -112.769E+06    -247.149E+06    -116.181E+06    -243.738E+06    -101.949E+06    -20.7790E+06
            1756     112.860E-03     3.55195E-03     112.804E-03     237.847E-03    -118.857E-03    -119.088E-03    -118.868E-03     237.843E-03    -119.075E-03     1.87599E-03     249.320E-03     138.342E+06    -89.3177E+06    -106.157E+06    -235.270E+06    -111.722E+06    -229.706E+06    -89.3177E+06    -26.0378E+06
            1757     112.892E-03     4.43946E-03     112.805E-03     237.704E-03    -118.656E-03    -119.120E-03    -118.639E-03     237.687E-03    -119.120E-03     4.60818E-03     255.760E-03     137.920E+06    -73.6034E+06    -96.7050E+06    -221.587E+06    -104.778E+06    -213.514E+06    -73.6034E+06    -30.4651E+06
            1758     112.931E-03     5.32780E-03     112.805E-03     237.721E-03    -118.601E-03    -119.147E-03    -118.546E-03     237.666E-03    -119.147E-03     8.51810E-03     264.202E-03     135.601E+06    -60.9264E+06    -87.4886E+06    -207.839E+06    -97.9859E+06    -197.341E+06    -60.9264E+06    -33.7738E+06
            1759     112.985E-03     6.21589E-03     112.814E-03     237.936E-03    -118.807E-03    -119.166E-03    -118.685E-03     237.815E-03    -119.166E-03     12.9970E-03     274.691E-03     131.392E+06    -52.0779E+06    -77.9851E+06    -194.491E+06    -90.8724E+06    -181.604E+06    -52.0779E+06    -36.2499E+06
            1760     113.048E-03     7.10349E-03     112.824E-03     238.139E-03    -118.964E-03    -119.199E-03    -118.699E-03     237.875E-03    -119.199E-03     19.0100E-03     287.668E-03     124.668E+06    -46.2179E+06    -67.0311E+06    -179.947E+06    -83.3267E+06    -163.652E+06    -46.2179E+06    -39.3585E+06
            1761     113.127E-03     7.98974E-03     112.845E-03     237.975E-03    -118.746E-03    -119.263E-03    -118.190E-03     237.419E-03    -119.263E-03     27.7170E-03     302.793E-03     112.618E+06    -42.4354E+06    -57.2553E+06    -161.699E+06    -76.0451E+06    -142.909E+06    -42.4354E+06    -39.9908E+06
            1762     113.226E-03     8.87832E-03     112.877E-03     237.369E-03    -118.098E-03    -119.280E-03    -117.164E-03     236.435E-03    -119.280E-03     36.1866E-03     320.079E-03     95.8039E+06    -36.7846E+06    -48.6264E+06    -137.760E+06    -68.1150E+06    -118.272E+06    -36.7846E+06    -36.7121E+06
            1763     113.339E-03     9.76685E-03     112.917E-03     236.877E-03    -117.662E-03    -119.200E-03    -115.946E-03     235.161E-03    -119.200E-03     48.4409E-03     341.509E-03     71.3133E+06    -28.0401E+06    -36.8545E+06    -103.165E+06    -58.1673E+06    -80.2291E+06    -29.6632E+06    -31.0622E+06
            1764     113.478E-03     10.6569E-03     112.977E-03     237.082E-03    -118.124E-03    -119.045E-03    -114.881E-03     233.824E-03    -119.030E-03     66.9812E-03     366.947E-03     68.7852E+06     13.6109E+06    -21.2462E+06    -61.9414E+06    -46.6506E+06    -3.32140E+06    -19.6047E+06    -18.2239E+06
            1765     113.648E-03     11.5467E-03     113.060E-03     239.195E-03    -118.773E-03    -120.534E-03    -114.367E-03     233.164E-03    -118.908E-03     91.3028E-03     393.780E-03     107.769E+06     85.3079E+06     11.0169E+06    -37.8666E+06    -36.9248E+06     84.3661E+06     11.0169E+06    -360.586E+03
            1766     113.864E-03     12.4367E-03     113.183E-03     243.726E-03    -118.987E-03    -124.777E-03    -114.357E-03     233.306E-03    -118.987E-03     121.281E-03     419.861E-03     138.893E+06     127.675E+06     67.0931E+06    -28.4699E+06    -28.0614E+06     127.266E+06     67.0931E+06     7.79596E+06
            1767     114.126E-03     13.3262E-03     113.346E-03     244.077E-03    -119.063E-03    -125.026E-03    -113.778E-03     232.829E-03    -119.063E-03     126.540E-03     420.709E-03     143.025E+06     133.432E+06     111.287E+06    -18.7581E+06    -18.5003E+06     133.174E+06     111.287E+06     6.10095E+06
            1768     114.366E-03     14.2179E-03     113.479E-03     251.684E-03    -118.878E-03    -132.753E-03    -114.261E-03     233.192E-03    -118.878E-03     159.864E-03     446.976E-03     140.008E+06     134.002E+06     124.217E+06    -10.6345E+06    -10.5211E+06     133.888E+06     124.217E+06     3.42022E+06
            1769     114.724E-03     15.1127E-03     113.725E-03     246.737E-03    -116.004E-03    -130.678E-03    -113.522E-03     232.165E-03    -118.588E-03     125.728E-03     406.674E-03     137.190E+06     137.901E+06     126.823E+06    -4.48529E+06    -4.43048E+06     137.846E+06     126.823E+06     1.87756E+06
            1770     114.082E-03     888.577E-06     114.079E-03     237.723E-03    -118.333E-03    -119.403E-03    -119.086E-03     237.723E-03    -118.650E-03     297.358E-06     238.714E-03     140.969E+06    -111.074E+06    -116.097E+06    -254.475E+06    -115.871E+06    -253.743E+06    -112.032E+06    -9.17579E+06
            1771     114.091E-03     1.77573E-03     114.077E-03     237.428E-03    -118.483E-03    -118.974E-03    -118.582E-03     237.427E-03    -118.875E-03     330.355E-06     240.443E-03     138.566E+06    -101.959E+06    -108.794E+06    -243.795E+06    -110.703E+06    -241.886E+06    -101.959E+06    -15.2871E+06
            1772     114.105E-03     2.66402E-03     114.074E-03     237.255E-03    -118.405E-03    -118.891E-03    -118.443E-03     237.253E-03    -118.852E-03     919.001E-06     243.722E-03     136.606E+06    -87.6162E+06    -100.518E+06    -230.175E+06    -103.894E+06    -226.798E+06    -87.6162E+06    -20.3916E+06
            1773     114.129E-03     3.55256E-03     114.074E-03     237.163E-03    -118.389E-03    -118.845E-03    -118.384E-03     237.158E-03    -118.845E-03     2.38914E-03     248.547E-03     135.406E+06    -74.5943E+06    -92.2997E+06    -217.972E+06    -97.8955E+06    -212.376E+06    -74.5943E+06    -25.6021E+06
            1774     114.159E-03     4.44161E-03     114.072E-03     237.342E-03    -118.535E-03    -118.878E-03    -118.529E-03     237.321E-03    -118.864E-03     5.06885E-03     255.241E-03     134.277E+06    -63.6404E+06    -84.1145E+06    -206.942E+06    -92.5727E+06    -198.484E+06    -63.6404E+06    -30.9521E+06
            1775     114.199E-03     5.32914E-03     114.075E-03     237.655E-03    -118.737E-03    -118.946E-03    -118.691E-03     237.594E-03    -118.932E-03     9.03053E-03     263.925E-03     133.730E+06    -52.8476E+06    -76.0571E+06    -196.620E+06    -87.0807E+06    -185.596E+06    -52.8476E+06    -34.6157E+06
            1776     114.250E-03     6.21652E-03     114.081E-03     237.749E-03    -118.739E-03    -119.002E-03    -118.597E-03     237.607E-03    -119.002E-03     13.8976E-03     274.233E-03     129.199E+06    -45.1224E+06    -66.9060E+06    -183.774E+06    -81.4126E+06    -169.267E+06    -45.1224E+06    -38.3031E+06
            1777     114.318E-03     7.10359E-03     114.097E-03     237.662E-03    -118.619E-03    -119.036E-03    -118.312E-03     237.355E-03    -119.036E-03     20.5053E-03     286.866E-03     122.849E+06    -39.6341E+06    -57.0407E+06    -170.218E+06    -75.5529E+06    -151.705E+06    -39.6341E+06    -41.7725E+06
            1778     114.396E-03     7.99297E-03     114.116E-03     237.295E-03    -118.246E-03    -119.056E-03    -117.644E-03     236.693E-03    -119.056E-03     28.8665E-03     301.911E-03     115.432E+06    -38.1585E+06    -49.5084E+06    -158.786E+06    -70.6155E+06    -137.679E+06    -38.1585E+06    -43.0930E+06
            1779     114.493E-03     8.88082E-03     114.148E-03     236.938E-03    -117.903E-03    -119.032E-03    -116.878E-03     235.913E-03    -119.032E-03     37.8001E-03     319.076E-03     103.271E+06    -36.0787E+06    -40.6619E+06    -141.534E+06    -64.9195E+06    -117.277E+06    -36.0787E+06    -42.8745E+06
            1780     114.604E-03     9.76905E-03     114.187E-03     237.324E-03    -118.107E-03    -119.202E-03    -116.472E-03     235.480E-03    -118.993E-03     50.4055E-03     341.253E-03     84.5661E+06    -27.2457E+06    -30.8042E+06    -113.508E+06    -58.0874E+06    -83.7101E+06    -29.7602E+06    -40.0108E+06
            1781     114.742E-03     10.6573E-03     114.246E-03     237.833E-03    -118.574E-03    -119.338E-03    -115.638E-03     234.454E-03    -118.896E-03     68.3891E-03     367.389E-03     68.2484E+06    -2.07215E+06    -24.5726E+06    -76.0882E+06    -51.2357E+06    -26.9247E+06    -24.5726E+06    -28.7083E+06
            1782     114.911E-03     11.5476E-03     114.329E-03     239.176E-03    -118.718E-03    -120.533E-03    -114.316E-03     232.959E-03    -118.718E-03     92.6569E-03     393.559E-03     96.6216E+06     62.9176E+06    -7.75582E+06    -45.8840E+06    -42.0524E+06     59.0860E+06    -7.75582E+06    -10.5316E+06
            1783     115.127E-03     12.4374E-03     114.453E-03     242.571E-03    -118.680E-03    -123.912E-03    -113.254E-03     231.913E-03    -118.680E-03     122.292E-03     418.536E-03     135.890E+06     121.209E+06     42.2441E+06    -31.8211E+06    -31.5510E+06     120.939E+06     42.2441E+06     2.27877E+06
            1784     115.385E-03     13.3308E-03     114.613E-03     242.410E-03    -118.730E-03    -123.731E-03    -112.237E-03     230.916E-03    -118.730E-03     127.372E-03     418.726E-03     145.260E+06     135.385E+06     99.7913E+06    -22.7500E+06    -22.5701E+06     135.205E+06     99.7913E+06     5.24216E+06
            1785     115.621E-03     14.2232E-03     114.743E-03     249.944E-03    -118.535E-03    -131.425E-03    -112.475E-03     230.994E-03    -118.535E-03     161.067E-03     444.720E-03     146.093E+06     136.492E+06     124.975E+06    -14.9282E+06    -14.7982E+06     136.362E+06     124.975E+06     4.34588E+06
            1786     115.972E-03     15.1182E-03     114.982E-03     244.089E-03    -114.376E-03    -129.691E-03    -110.886E-03     229.061E-03    -118.154E-03     127.887E-03     403.642E-03     142.973E+06     139.155E+06     130.407E+06    -7.97974E+06    -7.88394E+06     139.060E+06     130.407E+06     3.72005E+06
            1787     115.348E-03     888.626E-06     115.344E-03     236.200E-03    -117.760E-03    -118.456E-03    -118.313E-03     236.199E-03    -117.903E-03     472.210E-06     237.168E-03     138.182E+06    -89.5781E+06    -96.8457E+06    -231.237E+06    -94.7580E+06    -230.524E+06    -92.3790E+06    -8.83025E+06
            1788     115.357E-03     1.77782E-03     115.344E-03     236.613E-03    -118.229E-03    -118.414E-03    -118.413E-03     236.612E-03    -118.229E-03     726.823E-06     239.596E-03     136.556E+06    -83.6747E+06    -91.0754E+06    -223.765E+06    -93.0686E+06    -221.772E+06    -83.6747E+06    -15.6295E+06
            1789     115.373E-03     2.66568E-03     115.342E-03     236.579E-03    -118.184E-03    -118.445E-03    -118.266E-03     236.576E-03    -118.360E-03     1.73141E-03     242.998E-03     135.672E+06    -72.9913E+06    -84.9016E+06    -214.188E+06    -88.5751E+06    -210.514E+06    -72.9913E+06    -21.1316E+06
            1790     115.394E-03     3.55445E-03     115.340E-03     236.486E-03    -118.133E-03    -118.420E-03    -118.122E-03     236.475E-03    -118.420E-03     3.59809E-03     247.756E-03     133.192E+06    -61.0415E+06    -76.5974E+06    -201.292E+06    -82.3354E+06    -195.554E+06    -61.0415E+06    -25.8668E+06
            1791     115.428E-03     4.44210E-03     115.342E-03     236.709E-03    -118.307E-03    -118.483E-03    -118.285E-03     236.672E-03    -118.468E-03     6.72759E-03     254.405E-03     131.598E+06    -51.5342E+06    -68.8792E+06    -190.935E+06    -77.0565E+06    -182.758E+06    -51.5342E+06    -30.3957E+06
            1792     115.468E-03     5.33030E-03     115.345E-03     236.822E-03    -118.336E-03    -118.549E-03    -118.256E-03     236.728E-03    -118.535E-03     11.1412E-03     262.745E-03     132.353E+06    -42.4629E+06     -61.181E+06    -183.169E+06    -72.0447E+06    -172.305E+06    -42.4629E+06    -34.6285E+06
            1793     115.520E-03     6.21841E-03     115.352E-03     236.756E-03    -118.169E-03    -118.579E-03    -117.970E-03     236.557E-03    -118.579E-03     16.4426E-03     272.789E-03     127.324E+06    -35.6329E+06    -53.4343E+06    -170.904E+06    -67.5321E+06    -156.807E+06    -35.6329E+06    -37.9767E+06
            1794     115.584E-03     7.10786E-03     115.365E-03     236.581E-03    -117.983E-03    -118.577E-03    -117.592E-03     236.190E-03    -118.577E-03     23.1612E-03     285.178E-03     120.389E+06    -31.0260E+06    -47.0412E+06    -158.615E+06    -64.7843E+06    -140.872E+06    -31.0260E+06    -40.7086E+06
            1795     115.664E-03     7.99500E-03     115.387E-03     236.452E-03    -117.856E-03    -118.588E-03    -117.157E-03     235.752E-03    -118.588E-03     31.0971E-03     300.197E-03     115.780E+06    -28.5706E+06    -40.5335E+06    -149.802E+06    -62.1080E+06    -128.228E+06    -28.5706E+06    -43.4055E+06
            1796     115.756E-03     8.88490E-03     115.415E-03     236.417E-03    -117.822E-03    -118.571E-03    -116.678E-03     235.273E-03    -118.571E-03     39.8896E-03     317.467E-03     105.996E+06    -28.9154E+06    -33.4118E+06    -137.035E+06     -59.309E+06    -111.138E+06    -28.9154E+06    -44.6844E+06
            1797     115.871E-03     9.77441E-03     115.458E-03     236.988E-03    -118.189E-03    -118.795E-03    -116.378E-03     234.921E-03    -118.540E-03     53.3298E-03     339.449E-03     89.7910E+06    -24.8728E+06    -28.1060E+06    -116.205E+06    -56.6355E+06    -85.0202E+06    -27.5282E+06    -42.6554E+06
            1798     116.009E-03     10.6617E-03     115.518E-03     238.071E-03    -118.474E-03    -119.654E-03    -115.937E-03     234.354E-03    -118.474E-03     71.8607E-03     366.114E-03     70.6224E+06    -9.58782E+06    -27.0944E+06    -86.0551E+06    -52.8680E+06    -42.7748E+06    -27.0944E+06    -35.3813E+06
            1799     116.174E-03     11.5505E-03     115.599E-03     239.252E-03    -118.285E-03    -121.012E-03    -114.364E-03     232.604E-03    -118.285E-03     95.8752E-03     392.558E-03     89.7716E+06     44.0584E+06    -22.5738E+06    -55.6013E+06    -45.9635E+06     34.4206E+06    -22.5738E+06    -20.8286E+06
            1800     116.388E-03     12.4422E-03     115.721E-03     241.833E-03    -118.132E-03    -123.749E-03    -112.506E-03     230.590E-03    -118.132E-03     125.335E-03     416.844E-03     128.920E+06     106.015E+06     11.4617E+06    -38.2354E+06    -37.5816E+06     105.361E+06     11.4617E+06    -5.28952E+06
            1801     116.639E-03     13.3340E-03     115.875E-03     240.786E-03    -118.107E-03    -122.759E-03    -110.741E-03     228.768E-03    -118.107E-03     129.623E-03     416.366E-03     145.367E+06     132.497E+06     74.9295E+06    -29.1117E+06    -29.0045E+06     132.390E+06     74.9295E+06     2.72202E+06
            1802     116.874E-03     14.2308E-03     116.005E-03     247.254E-03    -117.924E-03    -129.441E-03    -109.893E-03     227.706E-03    -117.924E-03     162.397E-03     441.355E-03     149.091E+06     136.569E+06     119.093E+06    -20.0354E+06    -19.9351E+06     136.469E+06     119.093E+06     3.93841E+06
            1803     117.221E-03     15.1292E-03     116.241E-03     240.360E-03    -112.378E-03    -128.143E-03    -107.473E-03     224.774E-03    -117.463E-03     130.022E-03     399.473E-03     147.755E+06     140.028E+06     134.123E+06    -10.5795E+06    -10.5166E+06     139.965E+06     134.123E+06     2.52976E+06
            1804     116.612E-03     889.757E-06     116.609E-03     234.695E-03    -117.011E-03    -117.701E-03    -117.503E-03     234.693E-03    -117.208E-03     470.289E-06     235.654E-03     135.479E+06    -72.4228E+06    -79.1999E+06    -211.105E+06    -76.8869E+06    -210.617E+06    -75.2236E+06    -7.79492E+06
            1805     116.623E-03     1.77832E-03     116.610E-03     234.697E-03    -117.244E-03    -117.488E-03    -117.326E-03     234.694E-03    -117.403E-03     1.59741E-03     237.609E-03     131.923E+06    -68.4170E+06    -74.0706E+06    -203.037E+06    -75.5314E+06    -201.576E+06    -68.4170E+06    -13.1179E+06
            1806     116.638E-03     2.66784E-03     116.607E-03     234.868E-03    -117.375E-03    -117.553E-03    -117.452E-03     234.858E-03    -117.466E-03     3.20045E-03     241.121E-03     130.287E+06    -60.4145E+06    -69.4974E+06    -195.003E+06    -73.2289E+06    -191.272E+06    -60.4145E+06    -20.7785E+06
            1807     116.659E-03     3.55662E-03     116.605E-03     235.014E-03    -117.506E-03    -117.586E-03    -117.517E-03     234.982E-03    -117.544E-03     6.14174E-03     246.076E-03     128.971E+06    -51.9411E+06    -63.1485E+06    -186.137E+06    -69.2971E+06    -179.988E+06    -51.9411E+06    -26.7123E+06
            1808     116.692E-03     4.44613E-03     116.607E-03     234.928E-03    -117.382E-03    -117.621E-03    -117.308E-03     234.853E-03    -117.620E-03     9.98135E-03     252.359E-03     128.430E+06    -42.1142E+06    -56.5609E+06    -177.144E+06    -64.8372E+06    -168.868E+06    -42.1142E+06    -30.3674E+06
            1809     116.732E-03     5.33515E-03     116.610E-03     234.804E-03    -117.201E-03    -117.663E-03    -117.032E-03     234.635E-03    -117.663E-03     15.0058E-03     260.116E-03     127.989E+06    -32.5123E+06    -49.8266E+06    -168.256E+06    -60.6597E+06    -157.422E+06    -32.5123E+06    -34.0439E+06
            1810     116.785E-03     6.22448E-03     116.619E-03     234.964E-03    -117.318E-03    -117.674E-03    -117.000E-03     234.646E-03    -117.674E-03     20.7928E-03     270.168E-03     126.109E+06    -25.1465E+06    -43.3819E+06    -159.371E+06    -56.5353E+06    -146.218E+06    -25.1465E+06    -36.6771E+06
            1811     116.849E-03     7.11259E-03     116.632E-03     235.022E-03    -117.355E-03    -117.675E-03    -116.800E-03     234.467E-03    -117.675E-03     27.5051E-03     282.563E-03     118.426E+06    -20.6680E+06    -36.5134E+06    -146.213E+06    -52.7582E+06    -129.968E+06    -20.6680E+06    -38.7238E+06
            1812     116.925E-03     8.00379E-03     116.650E-03     235.228E-03    -117.418E-03    -117.812E-03    -116.588E-03     234.289E-03    -117.703E-03     35.9563E-03     297.492E-03     113.743E+06    -17.6969E+06    -31.2237E+06    -137.591E+06    -50.6179E+06    -118.196E+06    -17.6969E+06    -40.9488E+06
            1813     117.020E-03     8.89126E-03     116.682E-03     235.661E-03    -117.558E-03    -118.049E-03    -116.405E-03     234.180E-03    -117.721E-03     45.2264E-03     314.841E-03     105.292E+06    -19.1864E+06    -25.9358E+06    -127.578E+06    -48.8390E+06    -104.675E+06    -19.1864E+06    -42.1047E+06
            1814     117.132E-03     9.77934E-03     116.723E-03     235.971E-03    -117.606E-03    -118.336E-03    -115.691E-03     233.410E-03    -117.690E-03     59.1164E-03     336.212E-03     90.3742E+06    -19.3867E+06    -22.0475E+06    -111.027E+06    -47.6362E+06    -83.0979E+06    -21.7275E+06    -41.7071E+06
            1815     117.273E-03     10.6710E-03     116.787E-03     237.113E-03    -117.605E-03    -119.534E-03    -115.095E-03     232.674E-03    -117.605E-03     78.3180E-03     362.302E-03     74.1172E+06    -7.96815E+06    -22.6201E+06    -87.4140E+06    -46.0389E+06    -49.3432E+06    -22.6201E+06    -37.8765E+06
            1816     117.438E-03     11.5602E-03     116.868E-03     238.928E-03    -117.458E-03    -121.479E-03    -114.036E-03     231.485E-03    -117.458E-03     101.586E-03     389.999E-03     76.2596E+06     27.6839E+06    -20.9438E+06    -57.7622E+06    -42.5414E+06     12.4631E+06    -20.9438E+06    -26.4486E+06
            1817     117.644E-03     12.4509E-03     116.983E-03     241.612E-03    -117.246E-03    -124.432E-03    -112.030E-03     229.211E-03    -117.246E-03     131.386E-03     414.452E-03     114.208E+06     87.3536E+06    -5.46130E+06    -39.6602E+06    -37.5670E+06     85.2603E+06    -5.46130E+06    -10.8801E+06
            1818     117.897E-03     13.3461E-03     117.139E-03     239.893E-03    -117.070E-03    -122.933E-03    -109.647E-03     226.607E-03    -117.070E-03     135.840E-03     413.538E-03     141.243E+06     127.477E+06     45.4579E+06    -30.5182E+06    -30.4247E+06     127.384E+06     45.4579E+06    -1.44688E+06
            1819     118.121E-03     14.2413E-03     117.259E-03     245.168E-03    -116.874E-03    -128.394E-03    -107.419E-03     224.193E-03    -116.874E-03     167.255E-03     438.325E-03     145.183E+06     136.393E+06     105.951E+06    -20.0100E+06    -19.9202E+06     136.303E+06     105.951E+06     418.386E+03
            1820     118.465E-03     15.1444E-03     117.493E-03     236.341E-03    -109.796E-03    -126.680E-03    -103.408E-03     219.627E-03    -116.354E-03     134.063E-03     394.746E-03     146.181E+06     141.137E+06     134.646E+06    -8.12309E+06    -8.07607E+06     140.395E+06     135.342E+06     659.172E+03
            1821     117.875E-03     889.706E-06     117.871E-03     231.723E-03    -115.483E-03    -116.253E-03    -116.024E-03     231.715E-03    -115.703E-03     2.15718E-03     232.653E-03     134.726E+06    -56.2669E+06    -61.5228E+06    -193.495E+06    -60.3296E+06    -193.068E+06    -57.8869E+06    -5.91989E+06
            1822     117.885E-03     1.78144E-03     117.871E-03     231.453E-03    -115.628E-03    -115.853E-03    -115.616E-03     231.441E-03    -115.853E-03     3.70447E-03     234.237E-03     129.290E+06    -52.3492E+06    -55.0153E+06    -182.926E+06    -56.6383E+06    -181.303E+06    -52.3492E+06    -13.7065E+06
            1823     117.901E-03     2.67214E-03     117.870E-03     231.546E-03    -115.696E-03    -115.902E-03    -115.705E-03     231.514E-03    -115.861E-03     6.36314E-03     237.552E-03     129.567E+06    -42.2114E+06    -48.8890E+06    -174.943E+06    -52.4544E+06    -171.378E+06    -42.2114E+06    -20.6119E+06
            1824     117.922E-03     3.56266E-03     117.868E-03     231.650E-03    -115.762E-03    -115.957E-03    -115.719E-03     231.565E-03    -115.915E-03     10.2574E-03     242.265E-03     132.660E+06    -32.6539E+06    -43.9007E+06    -170.572E+06    -49.4160E+06    -165.057E+06    -32.6539E+06    -25.6957E+06
            1825     117.955E-03     4.45232E-03     117.871E-03     231.562E-03    -115.677E-03    -115.949E-03    -115.501E-03     231.384E-03    -115.949E-03     15.0629E-03     248.276E-03     131.546E+06    -25.5465E+06    -38.5272E+06    -163.100E+06    -46.2617E+06    -155.366E+06    -25.5465E+06    -29.8273E+06
            1826     117.993E-03     5.34371E-03     117.872E-03     231.564E-03    -115.630E-03    -115.960E-03    -115.295E-03     231.229E-03    -115.960E-03     20.8556E-03     255.879E-03     128.900E+06    -19.0674E+06    -33.8350E+06    -154.670E+06    -43.3376E+06    -145.167E+06    -19.0674E+06    -32.4415E+06
            1827     118.047E-03     6.23416E-03     117.882E-03     231.758E-03    -115.797E-03    -115.974E-03    -115.220E-03     231.177E-03    -115.970E-03     27.8251E-03     265.489E-03     126.398E+06    -13.3733E+06    -30.0202E+06    -147.232E+06    -41.2834E+06    -135.968E+06    -13.3733E+06    -34.3628E+06
            1828     118.110E-03     7.12544E-03     117.895E-03     232.319E-03    -115.956E-03    -116.386E-03    -115.404E-03     231.367E-03    -115.987E-03     35.6798E-03     277.720E-03     116.578E+06    -11.8839E+06    -25.8330E+06    -134.790E+06    -39.5605E+06    -121.063E+06    -11.8839E+06    -35.9547E+06
            1829     118.187E-03     8.01382E-03     117.915E-03     232.978E-03    -116.016E-03    -116.968E-03    -115.434E-03     231.461E-03    -116.034E-03     45.1760E-03     292.794E-03     109.756E+06    -9.67740E+06    -22.4467E+06    -125.244E+06    -38.4154E+06    -109.275E+06    -9.67740E+06    -37.0864E+06
            1830     118.282E-03     8.90536E-03     117.947E-03     233.651E-03    -116.088E-03    -117.530E-03    -115.293E-03     231.415E-03    -116.088E-03     55.2776E-03     309.846E-03     101.839E+06    -10.8656E+06    -18.9044E+06    -116.355E+06    -38.2887E+06    -96.9703E+06    -10.8656E+06    -38.6659E+06
            1831     118.395E-03     9.79629E-03     117.989E-03     234.468E-03    -116.103E-03    -118.359E-03    -114.851E-03     230.961E-03    -116.103E-03     69.1990E-03     331.203E-03     88.3496E+06    -13.3333E+06    -15.0254E+06    -102.514E+06    -38.1791E+06    -78.7834E+06    -13.9100E+06    -38.8590E+06
            1832     118.532E-03     10.6852E-03     118.050E-03     235.602E-03    -116.040E-03    -119.603E-03    -113.805E-03     229.803E-03    -116.040E-03     89.0915E-03     356.738E-03     72.5551E+06    -6.39997E+06    -16.3605E+06    -82.9212E+06    -37.9449E+06    -51.7154E+06    -16.0214E+06    -36.3435E+06
            1833     118.699E-03     11.5779E-03     118.133E-03     237.821E-03    -115.894E-03    -121.937E-03    -112.790E-03     228.674E-03    -115.894E-03     112.364E-03     384.369E-03     65.2794E+06     16.4180E+06    -17.9707E+06    -57.0752E+06    -36.8425E+06    -3.81471E+06    -17.9707E+06    -28.7410E+06
            1834     118.903E-03     12.4698E-03     118.247E-03     241.026E-03    -115.648E-03    -125.409E-03    -110.991E-03     226.608E-03    -115.648E-03     141.351E-03     409.755E-03     98.7540E+06     71.9257E+06    -11.7341E+06    -36.2768E+06    -31.9022E+06     67.5512E+06    -11.7341E+06    -16.1742E+06
            1835     119.149E-03     13.3652E-03     118.397E-03     239.017E-03    -115.342E-03    -123.780E-03    -108.162E-03     223.399E-03    -115.342E-03     146.793E-03     408.860E-03     131.468E+06     120.748E+06     22.4131E+06    -25.0070E+06    -24.5485E+06     120.289E+06     22.4131E+06    -5.98834E+06
            1836     119.372E-03     14.2649E-03     118.516E-03     243.695E-03    -115.058E-03    -128.668E-03    -105.291E-03     220.319E-03    -115.058E-03     176.578E-03     434.130E-03     138.463E+06     135.715E+06     85.6593E+06    -16.7248E+06    -16.6724E+06     135.663E+06     85.6593E+06    -2.78455E+06
            1837     119.702E-03     15.1696E-03     118.737E-03     232.856E-03    -107.198E-03    -125.674E-03    -100.049E-03     214.608E-03    -114.575E-03     140.398E-03     390.248E-03     142.813E+06     139.180E+06     127.738E+06    -8.76628E+06    -8.73113E+06     137.740E+06     129.142E+06    -762.850E+03
            1838     119.133E-03     893.834E-06     119.129E-03     225.711E-03    -112.392E-03    -113.327E-03    -113.288E-03     225.695E-03    -112.416E-03     3.67824E-03     226.595E-03     138.225E+06    -35.0454E+06    -39.9221E+06    -175.619E+06    -36.8478E+06    -174.956E+06    -38.7828E+06    -7.64110E+06
            1839     119.142E-03     1.78584E-03     119.128E-03     225.596E-03    -112.719E-03    -112.896E-03    -112.732E-03     225.551E-03    -112.839E-03     7.05908E-03     228.226E-03     127.419E+06    -33.1163E+06    -36.8981E+06    -162.355E+06    -36.6212E+06    -160.514E+06    -35.2337E+06    -14.8586E+06
            1840     119.158E-03     2.67899E-03     119.128E-03     225.448E-03    -112.637E-03    -112.841E-03    -112.519E-03     225.330E-03    -112.841E-03     11.6827E-03     231.075E-03     127.996E+06    -28.1565E+06    -32.4971E+06    -158.225E+06    -35.7865E+06    -154.936E+06    -28.1565E+06    -19.9180E+06
            1841     119.180E-03     3.57229E-03     119.127E-03     225.457E-03    -112.627E-03    -112.863E-03    -112.421E-03     225.225E-03    -112.838E-03     16.8767E-03     235.363E-03     130.250E+06    -21.1914E+06    -29.4474E+06    -155.335E+06    -34.3761E+06    -150.406E+06    -21.1914E+06    -24.2951E+06
            1842     119.211E-03     4.46674E-03     119.127E-03     225.694E-03    -112.739E-03    -112.984E-03    -112.459E-03     225.271E-03    -112.841E-03     23.1279E-03     241.226E-03     127.679E+06    -16.5539E+06    -26.2690E+06    -148.790E+06    -32.8106E+06    -142.249E+06    -16.5539E+06    -27.3761E+06
            1843     119.252E-03     5.35887E-03     119.132E-03     226.042E-03    -112.821E-03    -113.237E-03    -112.474E-03     225.330E-03    -112.872E-03     30.2784E-03     248.815E-03     125.503E+06    -12.8361E+06    -23.0702E+06    -143.135E+06    -31.1221E+06    -135.083E+06    -12.8361E+06    -29.9283E+06
            1844     119.302E-03     6.25246E-03     119.138E-03     226.385E-03    -112.855E-03    -113.534E-03    -112.341E-03     225.242E-03    -112.905E-03     38.4443E-03     257.858E-03     121.766E+06    -8.82240E+06    -20.0342E+06    -135.773E+06    -29.8385E+06    -125.968E+06    -8.82240E+06    -32.0731E+06
            1845     119.368E-03     7.14529E-03     119.154E-03     227.280E-03    -112.957E-03    -114.330E-03    -112.569E-03     225.519E-03    -112.957E-03     48.0571E-03     269.581E-03     114.224E+06    -5.54643E+06    -17.2725E+06    -125.146E+06    -28.5033E+06    -113.915E+06    -5.54643E+06    -32.8777E+06
            1846     119.446E-03     8.03893E-03     119.175E-03     228.635E-03    -113.035E-03    -115.597E-03    -112.993E-03     226.030E-03    -113.035E-03     58.8542E-03     284.532E-03     106.783E+06    -3.80914E+06    -14.7465E+06    -115.602E+06    -27.5762E+06    -102.772E+06    -3.80914E+06    -33.3611E+06
            1847     119.541E-03     8.93000E-03     119.207E-03     229.936E-03    -113.147E-03    -116.780E-03    -113.078E-03     226.235E-03    -113.147E-03     70.3578E-03     301.349E-03     96.5152E+06    -2.97134E+06    -12.9940E+06    -103.962E+06    -28.4277E+06    -88.5279E+06    -2.97134E+06    -33.8459E+06
            1848     119.655E-03     9.82065E-03     119.252E-03     231.460E-03    -113.225E-03    -118.267E-03    -112.816E-03     226.009E-03    -113.225E-03     85.3701E-03     322.324E-03     84.0638E+06    -6.10823E+06    -11.9393E+06    -92.7677E+06    -30.2474E+06    -73.8854E+06    -6.68248E+06    -33.9798E+06
            1849     119.791E-03     10.7142E-03     119.311E-03     233.560E-03    -113.228E-03    -120.372E-03    -112.017E-03     225.205E-03    -113.228E-03     106.249E-03     347.976E-03     68.5966E+06    -4.87218E+06    -11.2715E+06    -76.1777E+06    -30.6273E+06    -50.7617E+06    -10.9323E+06    -33.2032E+06
            1850     119.956E-03     11.6079E-03     119.393E-03     236.243E-03    -113.099E-03    -123.160E-03    -110.682E-03     223.765E-03    -113.099E-03     130.474E-03     374.864E-03     60.3710E+06     12.6239E+06    -15.8630E+06    -53.8784E+06    -29.0317E+06    -12.2228E+06    -15.8630E+06    -29.5461E+06
            1851     120.159E-03     12.5028E-03     119.507E-03     240.602E-03    -112.858E-03    -127.745E-03    -109.458E-03     222.316E-03    -112.858E-03     158.929E-03     401.632E-03     88.4791E+06     62.8697E+06    -12.2169E+06    -34.1696E+06    -26.0508E+06     54.7508E+06    -12.2169E+06    -21.1894E+06
            1852     120.399E-03     13.4020E-03     119.651E-03     239.167E-03    -112.562E-03    -126.642E-03    -107.566E-03     220.091E-03    -112.562E-03     162.152E-03     402.670E-03     122.275E+06     113.115E+06     10.7112E+06    -21.6354E+06    -20.2788E+06     111.758E+06     10.7112E+06    -11.8249E+06
            1853     120.620E-03     14.3015E-03     119.769E-03     242.795E-03    -112.285E-03    -130.531E-03    -104.018E-03     216.282E-03    -112.285E-03     188.336E-03     428.413E-03     129.345E+06     130.832E+06     62.1830E+06    -13.2279E+06    -12.8889E+06     130.493E+06     62.1830E+06    -4.58411E+06
            1854     120.940E-03     15.2097E-03     119.980E-03     231.233E-03    -106.113E-03    -125.111E-03    -99.1985E-03     211.159E-03    -111.952E-03     146.610E-03     387.190E-03     134.886E+06     136.587E+06     114.804E+06     -6.8656E+06    -6.83308E+06     133.102E+06     118.256E+06     96.1492E+03
            1855     120.379E-03     896.946E-06     120.376E-03     215.566E-03    -107.456E-03    -108.110E-03    -107.776E-03     215.524E-03    -107.748E-03     5.99582E-03     216.359E-03     128.144E+06    -23.6255E+06    -29.1147E+06    -154.399E+06    -25.8084E+06    -153.740E+06    -27.5915E+06    -8.57055E+06
            1856     120.389E-03     1.79524E-03     120.375E-03     215.517E-03    -107.659E-03    -107.864E-03    -107.658E-03     215.403E-03    -107.752E-03     11.5034E-03     217.916E-03     118.548E+06    -23.0977E+06    -28.5535E+06    -144.269E+06    -26.9890E+06    -142.353E+06    -26.5774E+06    -14.4584E+06
            1857     120.405E-03     2.69307E-03     120.375E-03     215.488E-03    -107.635E-03    -107.862E-03    -107.477E-03     215.215E-03    -107.746E-03     18.1257E-03     220.581E-03     120.135E+06    -20.1399E+06    -24.0041E+06    -142.158E+06    -25.2566E+06    -138.579E+06    -22.4662E+06    -20.2753E+06
            1858     120.426E-03     3.59107E-03     120.373E-03     215.793E-03    -107.712E-03    -108.089E-03    -107.500E-03     215.262E-03    -107.770E-03     25.4313E-03     224.748E-03     125.449E+06    -14.6475E+06    -18.0825E+06    -141.769E+06    -22.1790E+06    -136.709E+06    -15.6116E+06    -24.5037E+06
            1859     120.458E-03     4.48737E-03     120.375E-03     216.348E-03    -107.830E-03    -108.522E-03    -107.598E-03     215.423E-03    -107.830E-03     33.6157E-03     230.401E-03     127.029E+06    -8.29115E+06    -12.7343E+06    -137.464E+06    -18.9057E+06    -131.292E+06    -8.29115E+06    -26.9876E+06
            1860     120.500E-03     5.38561E-03     120.379E-03     217.160E-03    -107.918E-03    -109.251E-03    -107.758E-03     215.667E-03    -107.918E-03     42.9783E-03     237.704E-03     126.337E+06    -2.81356E+06    -9.23067E+06    -132.219E+06    -16.4417E+06    -125.007E+06    -2.81356E+06    -28.7761E+06
            1861     120.551E-03     6.28177E-03     120.387E-03     218.281E-03    -108.023E-03    -110.266E-03    -108.000E-03     216.014E-03    -108.023E-03     53.2536E-03     246.708E-03     123.277E+06     1.37723E+06    -6.25774E+06    -125.531E+06    -14.5514E+06    -117.237E+06     1.37723E+06    -30.1817E+06
            1862     120.617E-03     7.17893E-03     120.403E-03     219.607E-03    -108.149E-03    -111.455E-03    -108.098E-03     216.251E-03    -108.149E-03     65.0464E-03     257.781E-03     117.572E+06     5.27101E+06    -3.86170E+06    -116.575E+06    -13.1989E+06    -107.238E+06     5.27101E+06    -30.9529E+06
            1863     120.697E-03     8.07455E-03     120.426E-03     221.584E-03    -108.270E-03    -113.307E-03    -108.514E-03     216.790E-03    -108.270E-03     78.0980E-03     271.804E-03     110.941E+06     6.77328E+06    -2.93872E+06    -108.673E+06    -12.5976E+06    -99.0141E+06     6.77328E+06    -30.2836E+06
            1864     120.795E-03     8.97071E-03     120.462E-03     223.862E-03    -108.423E-03    -115.440E-03    -108.944E-03     217.366E-03    -108.423E-03     91.6792E-03     288.227E-03     97.5214E+06     8.45109E+06    -2.46505E+06    -93.9899E+06    -12.7608E+06    -83.6942E+06     8.45109E+06    -28.4676E+06
            1865     120.909E-03     9.86760E-03     120.505E-03     226.910E-03    -108.573E-03    -118.346E-03    -109.340E-03     217.904E-03    -108.573E-03     108.742E-03     309.318E-03     84.3010E+06     7.94051E+06    -2.15227E+06    -80.8449E+06    -13.6048E+06    -68.8181E+06     7.36626E+06    -27.9591E+06
            1866     121.047E-03     10.7622E-03     120.567E-03     230.779E-03    -108.672E-03    -122.100E-03    -109.490E-03     218.169E-03    -108.672E-03     129.858E-03     335.354E-03     66.2929E+06     5.02182E+06    -697.595E+03    -63.8928E+06    -15.5643E+06    -46.4048E+06     2.40051E+06    -27.4446E+06
            1867     121.211E-03     11.6588E-03     120.649E-03     235.015E-03    -108.707E-03    -126.308E-03    -109.108E-03     217.814E-03    -108.707E-03     152.988E-03     362.902E-03     52.4468E+06     12.9275E+06    -3.39016E+06    -43.4444E+06    -18.6228E+06    -11.8941E+06    -3.39016E+06    -26.4304E+06
            1868     121.410E-03     12.5589E-03     120.759E-03     241.005E-03    -108.655E-03    -132.354E-03    -109.054E-03     217.705E-03    -108.655E-03     179.923E-03     391.658E-03     79.7176E+06     58.3755E+06    -2.99067E+06    -29.1192E+06    -19.4194E+06     48.6757E+06    -2.99067E+06    -21.9438E+06
            1869     121.656E-03     13.4555E-03     120.909E-03     240.204E-03    -108.607E-03    -131.608E-03    -108.515E-03     217.112E-03    -108.607E-03     178.818E-03     395.908E-03     114.736E+06     106.681E+06     10.7191E+06    -20.1013E+06    -18.1192E+06     104.699E+06     10.7191E+06    -15.1635E+06
            1870     121.861E-03     14.3544E-03     121.012E-03     244.370E-03    -108.580E-03    -135.822E-03    -106.618E-03     215.166E-03    -108.580E-03     199.799E-03     425.686E-03     119.509E+06     119.517E+06     42.9992E+06    -15.7234E+06    -15.0910E+06     118.885E+06     42.9992E+06    -7.66809E+06
            1871     122.179E-03     15.2639E-03     121.221E-03     235.562E-03    -106.546E-03    -128.966E-03    -105.900E-03     214.617E-03    -108.667E-03     148.439E-03     391.539E-03     126.158E+06     130.123E+06     98.1031E+06    -6.60564E+06    -6.51450E+06     125.664E+06     102.472E+06     88.0212E+03
            1872     121.612E-03     904.724E-06     121.609E-03     200.744E-03    -99.8151E-03    -100.929E-03    -100.556E-03     200.664E-03    -100.107E-03     9.19425E-03     201.446E-03     122.320E+06    -6.99205E+06    -14.2354E+06    -132.759E+06    -11.4997E+06    -132.061E+06    -10.4256E+06    -8.08928E+06
            1873     121.621E-03     1.80853E-03     121.608E-03     200.862E-03    -100.305E-03    -100.559E-03    -100.276E-03     200.618E-03    -100.343E-03     16.3262E-03     202.956E-03     116.403E+06    -5.57616E+06    -11.2175E+06    -124.695E+06    -9.26464E+06    -122.171E+06    -10.0530E+06    -16.2410E+06
            1874     121.637E-03     2.71235E-03     121.607E-03     201.228E-03    -100.377E-03    -100.852E-03    -100.280E-03     200.657E-03    -100.377E-03     25.1960E-03     205.641E-03     119.965E+06    -3.99452E+06    -8.63551E+06    -126.206E+06    -8.23840E+06    -121.962E+06    -8.63551E+06    -22.3081E+06
            1875     121.661E-03     3.61621E-03     121.607E-03     201.788E-03    -100.442E-03    -101.347E-03    -100.243E-03     200.684E-03    -100.442E-03     35.4061E-03     209.489E-03     125.849E+06    -1.78313E+06    -5.52874E+06    -129.448E+06    -7.41786E+06    -124.076E+06    -5.26537E+06    -25.4686E+06
            1876     121.693E-03     4.52096E-03     121.609E-03     202.741E-03    -100.520E-03    -102.227E-03    -100.369E-03     200.883E-03    -100.520E-03     46.3373E-03     214.829E-03     126.567E+06     1.06090E+06    -2.82601E+06    -127.389E+06    -6.67036E+06    -120.798E+06    -1.68605E+06    -28.1318E+06
            1877     121.734E-03     5.42378E-03     121.613E-03     204.150E-03    -100.641E-03    -103.518E-03    -100.591E-03     201.223E-03    -100.641E-03     58.4518E-03     221.706E-03     126.594E+06     4.08910E+06     538.428E+03    -124.238E+06    -5.51371E+06    -117.172E+06     3.07516E+06    -28.9422E+06
            1878     121.789E-03     6.32745E-03     121.624E-03     206.036E-03    -100.787E-03    -105.252E-03    -100.900E-03     201.684E-03    -100.787E-03     71.6832E-03     230.274E-03     123.003E+06     7.16093E+06     2.82661E+06    -117.932E+06    -4.36172E+06    -110.744E+06     7.16093E+06     -28.535E+06
            1879     121.854E-03     7.22930E-03     121.639E-03     208.597E-03    -100.976E-03    -107.622E-03    -101.371E-03     202.346E-03    -100.976E-03     86.5046E-03     241.156E-03     116.266E+06     10.2041E+06     2.59894E+06    -109.627E+06    -4.80048E+06    -102.227E+06     10.2041E+06    -27.8011E+06
            1880     121.937E-03     8.13264E-03     121.665E-03     211.745E-03    -101.185E-03    -110.558E-03    -102.025E-03     203.211E-03    -101.185E-03     102.163E-03     254.624E-03     110.975E+06     13.3767E+06     1.20478E+06    -103.133E+06    -6.09122E+06    -95.8369E+06     13.3767E+06    -26.5800E+06
            1881     122.035E-03     9.03481E-03     121.700E-03     215.695E-03    -101.439E-03    -114.248E-03    -103.335E-03     204.782E-03    -101.439E-03     116.841E-03     271.072E-03     98.0301E+06     15.0660E+06    -237.880E+03    -89.5271E+06    -7.17778E+06    -82.5872E+06     15.0660E+06    -23.8039E+06
            1882     122.151E-03     9.93468E-03     121.747E-03     221.359E-03    -101.803E-03    -119.561E-03    -105.400E-03     207.199E-03    -101.803E-03     134.857E-03     293.213E-03     83.3487E+06     18.4383E+06    -2.56661E+06    -72.5520E+06    -9.80015E+06    -65.3184E+06     18.4383E+06    -21.1570E+06
            1883     122.294E-03     10.8346E-03     121.813E-03     227.811E-03    -102.226E-03    -125.577E-03    -107.607E-03     209.841E-03    -102.226E-03     154.579E-03     320.860E-03     65.2777E+06     18.0011E+06    -4.65606E+06    -53.9602E+06    -14.8403E+06    -42.9830E+06     17.2082E+06    -19.1789E+06
            1884     122.460E-03     11.7335E-03     121.897E-03     235.108E-03    -102.711E-03    -132.367E-03    -109.890E-03     212.631E-03    -102.711E-03     175.574E-03     351.766E-03     53.6721E+06     23.7501E+06     6.62678E+06    -35.2555E+06    -19.5963E+06    -4.85465E+06     19.5723E+06    -18.3084E+06
            1885     122.662E-03     12.6276E-03     122.010E-03     242.801E-03    -103.169E-03    -139.647E-03    -111.662E-03     214.817E-03    -103.169E-03     198.845E-03     383.893E-03     81.5962E+06     61.7902E+06     16.6490E+06    -28.8823E+06    -22.8198E+06     51.7045E+06     20.6723E+06    -18.8813E+06
            1886     122.904E-03     13.5287E-03     122.157E-03     242.994E-03    -103.721E-03    -139.305E-03    -113.527E-03     217.216E-03    -103.721E-03     190.848E-03     392.663E-03     110.863E+06     100.918E+06     28.7438E+06    -23.9527E+06    -21.7768E+06     98.7423E+06     28.7438E+06    -15.8144E+06
            1887     123.114E-03     14.4236E-03     122.266E-03     250.357E-03    -104.463E-03    -145.911E-03    -117.231E-03     221.677E-03    -104.463E-03     203.627E-03     430.305E-03     111.672E+06     109.163E+06     53.2165E+06    -17.1442E+06    -16.4158E+06     108.434E+06     53.2165E+06    -8.65616E+06
            1888     123.426E-03     15.3161E-03     122.472E-03     249.591E-03    -105.551E-03    -143.974E-03    -124.746E-03     230.363E-03    -105.551E-03     143.994E-03     407.550E-03     123.752E+06     122.546E+06     95.5203E+06    -10.5042E+06    -10.3918E+06     116.913E+06     101.041E+06    -2.28525E+06
            1889     122.823E-03     912.918E-06     122.819E-03     180.638E-03    -89.8933E-03    -90.7470E-03    -90.5992E-03     180.490E-03    -89.8933E-03     11.3021E-03     181.229E-03     112.186E+06     5.19556E+06    -4.21513E+06    -111.381E+06     1.32332E+06    -110.154E+06    -1.56995E+06    -9.77374E+06
            1890     122.832E-03     1.82652E-03     122.819E-03     180.874E-03    -90.2352E-03    -90.6426E-03    -90.1468E-03     180.378E-03    -90.2352E-03     21.9833E-03     182.572E-03     102.251E+06     2.15195E+06    -5.52075E+06    -103.696E+06    -847.267E+03    -100.697E+06    -5.52075E+06    -17.2555E+06
            1891     122.850E-03     2.74002E-03     122.819E-03     181.746E-03    -90.3127E-03    -91.4363E-03    -90.3282E-03     180.638E-03    -90.3127E-03     33.6680E-03     185.329E-03     108.524E+06     143.928E+03    -6.36130E+06    -111.458E+06    -4.09931E+06    -107.214E+06    -6.36130E+06    -21.2353E+06
            1892     122.873E-03     3.65298E-03     122.819E-03     182.813E-03    -90.4155E-03    -92.3931E-03    -90.3471E-03     180.767E-03    -90.4155E-03     46.1577E-03     188.989E-03     112.269E+06    -1.14276E+06    -8.48650E+06    -116.859E+06    -6.76829E+06    -111.233E+06    -8.48650E+06    -24.7180E+06
            1893     122.905E-03     4.56543E-03     122.821E-03     184.287E-03    -90.5233E-03    -93.7617E-03    -90.3537E-03     180.879E-03    -90.5233E-03     59.8929E-03     193.923E-03     112.342E+06    -2.30618E+06    -9.62061E+06    -118.093E+06    -8.94351E+06    -111.455E+06    -9.62061E+06    -26.9030E+06
            1894     122.949E-03     5.47810E-03     122.827E-03     186.480E-03    -90.6710E-03    -95.8223E-03    -90.5784E-03     181.236E-03    -90.6710E-03     74.8401E-03     200.454E-03     113.051E+06    -3.86156E+06    -7.22027E+06    -118.536E+06    -10.9469E+06    -111.806E+06    -6.86464E+06    -26.8904E+06
            1895     123.004E-03     6.38989E-03     122.838E-03     189.675E-03    -90.8881E-03    -98.7951E-03    -91.2027E-03     182.083E-03    -90.8881E-03     90.9866E-03     208.842E-03     108.987E+06    -2.31300E+06    -7.96916E+06    -113.813E+06    -13.7986E+06    -107.684E+06    -2.61285E+06    -24.7443E+06
            1896     123.074E-03     7.30232E-03     122.857E-03     194.228E-03    -91.2074E-03    -103.029E-03    -92.6316E-03     183.831E-03    -91.2074E-03     107.989E-03     220.120E-03     101.985E+06     2.77170E+06    -12.8521E+06    -105.615E+06    -18.1097E+06    -100.357E+06     2.77170E+06    -21.4370E+06
            1897     123.158E-03     8.21142E-03     122.884E-03     199.943E-03    -91.6468E-03    -108.301E-03    -94.8055E-03     186.447E-03    -91.6468E-03     125.072E-03     234.584E-03     98.2028E+06     9.93453E+06    -17.9802E+06    -97.7851E+06    -22.8295E+06    -92.9358E+06     9.93453E+06    -19.0407E+06
            1898     123.263E-03     9.11967E-03     122.926E-03     207.094E-03    -92.2551E-03    -114.814E-03    -98.3669E-03     190.647E-03    -92.2551E-03     140.968E-03     252.912E-03     91.7680E+06     14.5669E+06    -22.5469E+06    -88.1042E+06    -27.1640E+06    -83.4870E+06     14.5669E+06    -16.7106E+06
            1899     123.385E-03     10.0252E-03     122.977E-03     215.978E-03    -93.1102E-03    -122.821E-03    -103.134E-03     196.292E-03    -93.1102E-03     158.012E-03     277.080E-03     80.3717E+06     21.6225E+06    -24.2783E+06    -68.9958E+06    -30.2357E+06    -63.0384E+06     21.6225E+06    -13.8449E+06
            1900     123.533E-03     10.9262E-03     123.049E-03     225.920E-03    -94.2109E-03    -131.693E-03    -108.627E-03     202.855E-03    -94.2109E-03     175.443E-03     308.245E-03     68.5535E+06     27.8290E+06    -20.1309E+06    -49.6816E+06    -30.5917E+06    -39.2208E+06     27.8290E+06    -12.7335E+06
            1901     123.706E-03     11.8212E-03     123.139E-03     236.350E-03    -95.4947E-03    -140.834E-03    -114.275E-03     209.791E-03    -95.4947E-03     192.842E-03     344.054E-03     68.8079E+06     40.9214E+06     10.7702E+06    -35.6474E+06    -28.2075E+06     3.33032E+06     40.9214E+06    -12.3039E+06
            1902     123.915E-03     12.7175E-03     123.261E-03     246.587E-03    -96.8834E-03    -149.677E-03    -119.633E-03     216.543E-03    -96.8834E-03     209.731E-03     381.129E-03     90.4624E+06     72.5746E+06     42.5308E+06    -28.2570E+06    -25.9135E+06     61.9612E+06     50.8007E+06    -13.8320E+06
            1903     124.158E-03     13.6040E-03     123.411E-03     250.818E-03    -98.5334E-03    -152.275E-03    -126.595E-03     225.138E-03    -98.5334E-03     195.386E-03     397.357E-03     109.618E+06     97.0489E+06     60.4356E+06    -24.8474E+06    -23.0292E+06     95.2307E+06     60.4356E+06    -14.5676E+06
            1904     124.375E-03     14.4834E-03     123.529E-03     263.773E-03    -100.555E-03    -163.235E-03    -137.384E-03     237.921E-03    -100.555E-03     202.519E-03     443.443E-03     108.525E+06     101.652E+06     74.7721E+06    -17.1763E+06    -16.1557E+06     100.631E+06     74.7721E+06    -10.3057E+06
            1905     124.698E-03     15.3562E-03     123.749E-03     271.758E-03    -103.179E-03    -168.848E-03    -152.179E-03     255.090E-03    -103.179E-03     140.635E-03     429.994E-03     116.093E+06     116.974E+06     97.5224E+06    -7.44831E+06    -7.07702E+06     109.191E+06     104.934E+06    -5.40535E+06
            1906     124.007E-03     925.257E-06     124.003E-03     155.233E-03    -77.3711E-03    -77.8613E-03    -77.5907E-03     154.963E-03    -77.3711E-03     14.7278E-03     155.659E-03     88.3913E+06     2.23495E+06    -5.96653E+06    -89.9570E+06    -365.442E+03    -88.5140E+06    -4.80915E+06    -10.1832E+06
            1907     124.017E-03     1.85050E-03     124.003E-03     156.111E-03    -77.5493E-03    -78.5616E-03    -77.7355E-03     155.285E-03    -77.5493E-03     26.7033E-03     157.338E-03     79.4448E+06    -3.02038E+06    -10.9867E+06    -86.1450E+06    -5.72243E+06    -83.4429E+06    -10.9867E+06    -14.4123E+06
            1908     124.034E-03     2.77509E-03     124.003E-03     157.384E-03    -77.7164E-03    -79.6687E-03    -77.8458E-03     155.561E-03    -77.7164E-03     40.3666E-03     160.001E-03     87.2111E+06    -6.20272E+06    -15.2319E+06    -97.5456E+06    -10.4325E+06    -93.3159E+06    -15.2319E+06    -19.0701E+06
            1909     124.059E-03     3.69905E-03     124.004E-03     159.149E-03    -77.8690E-03    -81.2769E-03    -77.9113E-03     155.784E-03    -77.8690E-03     55.2795E-03     163.647E-03     91.2631E+06    -9.71285E+06    -20.1005E+06    -105.699E+06    -14.7802E+06    -100.632E+06    -20.1005E+06    -21.4556E+06
            1910     124.093E-03     4.62314E-03     124.007E-03     161.546E-03    -78.0447E-03    -83.5024E-03    -77.9585E-03     156.002E-03    -78.0447E-03     71.6444E-03     168.480E-03     92.1100E+06    -15.7671E+06    -23.0831E+06    -111.273E+06    -20.6507E+06    -106.389E+06    -23.0831E+06    -20.8435E+06
            1911     124.139E-03     5.54719E-03     124.015E-03     165.276E-03    -78.2850E-03    -86.9920E-03    -78.6685E-03     156.953E-03    -78.2850E-03     88.9481E-03     175.323E-03     90.3346E+06    -20.2841E+06    -28.3641E+06    -113.950E+06    -29.8516E+06    -109.993E+06    -22.7537E+06    -17.6542E+06
            1912     124.196E-03     6.47036E-03     124.028E-03     171.017E-03    -78.7163E-03    -92.3000E-03    -80.7160E-03     159.433E-03    -78.7163E-03     106.981E-03     185.016E-03     87.1179E+06    -16.5021E+06    -37.3091E+06    -110.808E+06    -39.9583E+06    -107.858E+06    -16.8020E+06    -13.8667E+06
            1913     124.270E-03     7.39017E-03     124.050E-03     178.440E-03    -79.3882E-03    -99.0339E-03    -83.9461E-03     163.352E-03    -79.3882E-03     125.041E-03     197.877E-03     86.0024E+06    -6.30556E+06    -44.8539E+06    -102.580E+06    -47.1704E+06    -100.264E+06    -6.30556E+06    -10.9185E+06
            1914     124.362E-03     8.30854E-03     124.084E-03     187.824E-03    -80.3608E-03    -107.467E-03    -88.8498E-03     169.207E-03    -80.3608E-03     143.006E-03     215.023E-03     87.5697E+06     6.12393E+06    -48.1645E+06    -93.0744E+06     -50.231E+06    -91.0079E+06     6.12393E+06    -9.17743E+06
            1915     124.473E-03     9.22127E-03     124.131E-03     199.282E-03    -81.6875E-03    -117.624E-03    -96.0382E-03     177.696E-03    -81.6875E-03     159.406E-03     237.156E-03     88.3437E+06     15.5047E+06    -48.4644E+06    -84.3374E+06    -50.9442E+06    -81.8575E+06     15.5047E+06    -8.98203E+06
            1916     124.609E-03     10.1263E-03     124.196E-03     211.997E-03    -83.3608E-03    -128.604E-03    -104.484E-03     187.876E-03    -83.3608E-03     174.588E-03     265.028E-03     81.5942E+06     24.1584E+06    -40.6594E+06    -66.7573E+06    -48.3202E+06    -59.0964E+06     24.1584E+06    -9.60515E+06
            1917     124.766E-03     11.0255E-03     124.278E-03     225.964E-03    -85.4409E-03    -140.503E-03    -113.868E-03     199.329E-03    -85.4409E-03     190.235E-03     300.497E-03     74.1987E+06     32.1455E+06    -26.7943E+06    -50.9998E+06    -42.7870E+06    -35.0071E+06     32.1455E+06    -10.8044E+06
            1918     124.955E-03     11.9180E-03     124.386E-03     240.192E-03    -87.8780E-03    -152.331E-03    -124.093E-03     211.954E-03    -87.8780E-03     202.812E-03     341.914E-03     84.1228E+06     49.7846E+06     17.0143E+06    -41.5379E+06    -36.5304E+06     13.0762E+06     48.7152E+06    -12.4008E+06
            1919     125.170E-03     12.7982E-03     124.514E-03     254.472E-03    -90.6095E-03    -163.868E-03    -134.704E-03     225.309E-03    -90.6095E-03     212.944E-03     385.913E-03     102.330E+06     79.7849E+06     61.9441E+06    -30.0118E+06    -27.7035E+06       73.23E+06     66.1907E+06    -15.2207E+06
            1920     125.431E-03     13.6754E-03     124.684E-03     264.466E-03    -93.7763E-03    -170.675E-03    -147.139E-03     240.929E-03    -93.7763E-03     194.474E-03     409.823E-03     108.292E+06     95.1218E+06     79.1442E+06    -19.9303E+06    -17.9581E+06     93.1495E+06     79.1442E+06    -14.6280E+06
            1921     125.657E-03     14.5344E-03     124.814E-03     283.439E-03    -97.3763E-03    -186.152E-03    -163.149E-03     260.435E-03    -97.3763E-03     201.406E-03     461.794E-03     102.927E+06     94.6835E+06     83.6535E+06    -13.0435E+06    -11.8622E+06     93.5021E+06     83.6535E+06    -11.1638E+06
            1922     126.010E-03     15.3755E-03     125.069E-03     294.944E-03    -101.598E-03    -193.729E-03    -178.642E-03     279.857E-03    -101.598E-03     143.260E-03     450.725E-03     111.185E+06     110.367E+06     93.6324E+06    -8.05412E+06    -7.50046E+06     100.656E+06     102.789E+06    -6.81679E+06
            1923     125.159E-03     939.638E-06     125.155E-03     126.823E-03    -62.9254E-03    -63.8978E-03    -63.5098E-03     126.435E-03    -62.9254E-03     16.0687E-03     127.092E-03     63.8657E+06    -7.47634E+06    -11.1630E+06    -73.0734E+06    -10.2128E+06    -72.0007E+06    -9.49925E+06    -6.74421E+06
            1924     125.170E-03     1.87705E-03     125.156E-03     128.181E-03    -63.3345E-03    -64.8452E-03    -63.6569E-03     126.992E-03    -63.3345E-03     29.0409E-03     128.962E-03     57.0952E+06    -12.2225E+06    -18.0098E+06    -71.9691E+06    -14.7751E+06    -69.9228E+06    -17.5035E+06    -10.4862E+06
            1925     125.187E-03     2.81487E-03     125.155E-03     129.716E-03    -63.5038E-03    -66.2108E-03    -63.5497E-03     127.055E-03    -63.5038E-03     44.2247E-03     131.340E-03     62.7386E+06    -20.0279E+06    -28.7384E+06    -86.6418E+06    -22.9174E+06    -83.7523E+06    -28.7384E+06    -13.4032E+06
            1926     125.214E-03     3.75325E-03     125.157E-03     132.220E-03    -63.6451E-03    -68.5739E-03    -63.6881E-03     127.334E-03    -63.6451E-03     60.8062E-03     135.009E-03     64.1382E+06    -32.8249E+06    -41.3021E+06    -100.754E+06    -35.3744E+06    -98.2044E+06    -41.3021E+06    -10.9939E+06
            1927     125.249E-03     4.69062E-03     125.162E-03     136.457E-03    -63.9337E-03    -72.5276E-03    -64.6706E-03     128.600E-03    -63.9337E-03     78.5478E-03     140.731E-03     63.5611E+06    -43.4380E+06    -52.7658E+06    -110.463E+06    -51.3796E+06    -108.185E+06    -47.1025E+06    -5.46362E+06
            1928     125.298E-03     5.62677E-03     125.171E-03     143.022E-03    -64.4798E-03    -78.5119E-03    -66.9932E-03     131.503E-03    -64.4798E-03     97.5485E-03     149.414E-03     66.8151E+06    -41.1036E+06    -63.9740E+06    -114.538E+06    -65.4172E+06    -112.614E+06    -41.5841E+06    -1.05947E+06
            1929     125.362E-03     6.55957E-03     125.190E-03     151.982E-03    -65.3598E-03    -86.5783E-03    -71.0760E-03     136.479E-03    -65.3598E-03     116.997E-03     161.569E-03     72.8897E+06    -27.7689E+06    -71.3797E+06    -109.868E+06    -73.9216E+06    -107.326E+06    -27.7689E+06     589.088E+03
            1930     125.443E-03     7.48878E-03     125.219E-03     163.245E-03    -66.6445E-03    -96.5689E-03    -77.2528E-03     143.929E-03    -66.6445E-03     135.933E-03     177.728E-03     79.9681E+06    -11.0335E+06    -73.3522E+06    -99.7181E+06    -75.3432E+06    -97.7271E+06    -11.0335E+06    -1.01949E+06
            1931     125.545E-03     8.41118E-03     125.263E-03     177.185E-03    -68.4319E-03    -108.737E-03    -85.9575E-03     154.405E-03    -68.4319E-03     154.641E-03     199.158E-03     85.2873E+06     3.24053E+06    -69.2818E+06    -90.2573E+06    -72.0808E+06    -87.4583E+06     3.24053E+06    -3.95409E+06
            1932     125.671E-03     9.32556E-03     125.325E-03     192.794E-03    -70.7250E-03    -122.101E-03    -96.8036E-03     167.496E-03    -70.7250E-03     171.082E-03     225.330E-03     87.7754E+06     15.0631E+06    -57.3008E+06    -81.9254E+06    -64.0359E+06    -75.1904E+06     15.0631E+06    -8.65017E+06
            1933     125.821E-03     10.2305E-03     125.404E-03     210.002E-03    -73.4750E-03    -136.555E-03    -109.487E-03     182.934E-03    -73.4750E-03     185.951E-03     257.864E-03     82.3876E+06     25.5080E+06    -39.9270E+06    -66.7141E+06    -53.0555E+06    -53.5855E+06     25.5080E+06    -11.5703E+06
            1934     125.996E-03     11.1243E-03     125.504E-03     229.089E-03    -76.8218E-03    -152.288E-03    -123.972E-03     200.772E-03    -76.8218E-03     199.924E-03     298.760E-03     76.2939E+06     35.0777E+06    -21.2757E+06    -51.4072E+06    -42.9209E+06    -29.7620E+06     35.0777E+06    -13.0720E+06
            1935     126.205E-03     12.0052E-03     125.633E-03     248.007E-03    -80.7180E-03    -167.342E-03    -139.071E-03     219.736E-03    -80.7180E-03     209.079E-03     345.814E-03     89.0440E+06     56.9240E+06     27.1087E+06    -39.3048E+06    -33.1714E+06     24.5961E+06     53.3032E+06    -15.3324E+06
            1936     126.442E-03     12.8748E-03     125.785E-03     268.058E-03    -85.0464E-03    -183.019E-03    -155.294E-03     240.333E-03    -85.0464E-03     216.463E-03     397.402E-03     107.711E+06     85.4564E+06     72.0246E+06    -28.2055E+06    -25.6665E+06     82.9174E+06     72.0246E+06    -16.6238E+06
            1937     126.718E-03     13.7257E-03     125.972E-03     282.978E-03    -89.9031E-03    -193.058E-03    -171.364E-03     261.284E-03    -89.9031E-03     196.212E-03     427.466E-03     109.231E+06     91.9552E+06     80.5216E+06    -22.3237E+06    -19.7931E+06     89.4246E+06     80.5216E+06    -16.5561E+06
            1938     126.970E-03     14.5615E-03     126.132E-03     304.244E-03    -95.1437E-03    -209.187E-03    -187.138E-03     282.195E-03    -95.1437E-03     206.729E-03     479.640E-03     102.057E+06     87.6138E+06     84.4998E+06    -15.9534E+06    -14.3106E+06     85.8028E+06     84.6678E+06    -12.4447E+06
            1939     127.345E-03     15.3883E-03     126.412E-03     314.546E-03    -100.658E-03    -214.049E-03    -198.943E-03     299.441E-03    -100.658E-03     152.208E-03     465.758E-03     110.933E+06     109.781E+06     91.1952E+06    -8.23899E+06    -7.72328E+06     92.0028E+06     108.458E+06    -6.56984E+06
            1940     126.276E-03     952.081E-06     126.273E-03     97.9345E-03    -48.6379E-03    -49.2963E-03    -48.7906E-03     97.4287E-03    -48.6379E-03     16.0225E-03     98.0635E-03     32.9920E+06    -29.4226E+06    -33.2598E+06    -63.5496E+06    -30.8274E+06    -61.5467E+06    -33.8579E+06    -2.76383E+06
            1941     126.289E-03     1.90545E-03     126.274E-03     98.6516E-03    -48.6658E-03    -49.9851E-03    -48.4515E-03     97.1179E-03    -48.6658E-03     28.9657E-03     99.0456E-03     29.0095E+06    -37.9569E+06    -45.7927E+06    -68.6157E+06    -40.8708E+06    -64.6782E+06    -46.8164E+06    -2.30768E+06
            1942     126.307E-03     2.85821E-03     126.275E-03     100.804E-03    -48.6886E-03    -52.1094E-03    -48.6902E-03     97.3844E-03    -48.6886E-03     44.2513E-03     101.608E-03     37.1604E+06    -52.1351E+06    -63.3183E+06    -92.4903E+06    -58.2284E+06    -85.9715E+06    -63.7439E+06     2.40578E+06
            1943     126.335E-03     3.80997E-03     126.277E-03     104.892E-03    -48.9498E-03    -55.9388E-03    -49.7112E-03     98.6642E-03    -48.9498E-03     61.2238E-03     106.280E-03     44.6935E+06    -68.2298E+06    -75.8252E+06    -115.908E+06    -78.9675E+06    -105.981E+06    -75.0146E+06     9.60553E+06
            1944     126.373E-03     4.76091E-03     126.283E-03     111.784E-03    -49.5562E-03    -62.2313E-03    -52.3586E-03     101.911E-03    -49.5562E-03     79.8376E-03     114.092E-03     50.5171E+06    -70.8837E+06    -83.7846E+06    -125.949E+06    -94.6004E+06    -114.217E+06    -71.7997E+06     14.2869E+06
            1945     126.427E-03     5.70750E-03     126.298E-03     121.751E-03    -50.6137E-03    -71.1005E-03    -57.0019E-03     107.652E-03    -50.6137E-03     99.9357E-03     125.765E-03     59.7834E+06    -55.7920E+06    -89.8466E+06    -124.147E+06    -100.989E+06    -113.005E+06    -55.7920E+06     13.1077E+06
            1946     126.501E-03     6.64983E-03     126.326E-03     134.246E-03    -52.1601E-03    -82.0287E-03    -63.6653E-03     115.882E-03    -52.1601E-03     120.319E-03     141.158E-03      69.378E+06    -33.9816E+06    -89.7806E+06    -110.796E+06    -97.8316E+06    -102.745E+06    -33.9816E+06     8.30042E+06
            1947     126.594E-03     7.58488E-03     126.367E-03     149.741E-03    -54.2598E-03    -95.4899E-03    -73.1193E-03     127.370E-03    -54.2598E-03     141.070E-03     161.357E-03     76.6497E+06    -14.1041E+06    -83.3512E+06    -96.4309E+06    -89.6092E+06    -90.1729E+06    -14.1041E+06     1.48965E+06
            1948     126.712E-03     8.51022E-03     126.426E-03     168.282E-03    -56.9756E-03    -111.309E-03    -85.4109E-03     142.383E-03    -56.9756E-03     162.017E-03     187.235E-03     81.6533E+06     1.14663E+06    -69.0890E+06    -87.7526E+06    -77.9310E+06    -78.9105E+06     1.14663E+06    -6.75612E+06
            1949     126.857E-03     9.42437E-03     126.507E-03     188.402E-03    -60.3218E-03    -128.088E-03    -100.135E-03     160.448E-03    -60.3218E-03     179.530E-03     217.695E-03     83.5630E+06     14.0098E+06    -49.5729E+06    -79.8408E+06    -64.6283E+06    -64.7854E+06     14.0098E+06    -14.2955E+06
            1950     127.028E-03     10.3266E-03     126.608E-03     210.874E-03    -64.3183E-03    -146.559E-03    -117.602E-03     181.916E-03    -64.3183E-03     194.996E-03     255.337E-03     82.2692E+06     23.9042E+06    -30.8134E+06    -69.9743E+06    -52.0144E+06    -48.7733E+06     23.9042E+06    -18.6683E+06
            1951     127.233E-03     11.2121E-03     126.738E-03     235.159E-03    -69.0216E-03    -166.115E-03    -136.769E-03     205.812E-03    -69.0216E-03     208.842E-03     300.984E-03     79.5651E+06     35.9412E+06    -6.90173E+06    -54.4150E+06    -38.9661E+06    -22.3506E+06     35.9412E+06    -20.7373E+06
            1952     127.465E-03     12.0812E-03     126.891E-03     259.747E-03    -74.4140E-03    -185.342E-03    -156.678E-03     231.083E-03    -74.4140E-03     218.353E-03     353.334E-03     87.0357E+06     58.0657E+06     36.1519E+06    -36.1915E+06    -27.7303E+06     31.8034E+06     53.9530E+06    -20.1906E+06
            1953     127.729E-03     12.9327E-03     127.073E-03     285.118E-03    -80.3755E-03    -204.699E-03    -176.828E-03     257.247E-03    -80.3755E-03     226.833E-03     410.849E-03     102.057E+06     85.6969E+06     73.6690E+06    -21.8031E+06    -19.3578E+06     83.2516E+06     73.6690E+06    -14.4589E+06
            1954     128.039E-03     13.7668E-03     127.297E-03     302.186E-03    -86.7873E-03    -215.382E-03    -193.275E-03     280.078E-03    -86.7873E-03     207.359E-03     444.222E-03     105.730E+06     92.5966E+06     82.5670E+06    -17.6814E+06    -16.1278E+06     89.8301E+06     83.7798E+06    -12.1314E+06
            1955     128.304E-03     14.5877E-03     127.472E-03     323.564E-03    -93.3572E-03    -230.224E-03    -207.020E-03     300.360E-03    -93.3572E-03     220.276E-03     494.660E-03     99.0383E+06     87.7386E+06     80.6921E+06    -14.3944E+06    -12.7209E+06     79.9202E+06     86.8369E+06    -12.0342E+06
            1956     128.705E-03     15.4009E-03     127.781E-03     331.527E-03    -99.9001E-03    -231.814E-03    -215.771E-03     315.484E-03    -99.9001E-03     163.617E-03     477.937E-03     106.489E+06     109.773E+06     82.5350E+06    -6.64511E+06    -5.92157E+06     81.8114E+06     109.773E+06    -6.78785E+06
            1957     127.363E-03     965.875E-06     127.359E-03     70.0624E-03    -34.8433E-03    -35.2178E-03    -34.6606E-03     69.5052E-03    -34.8433E-03     14.2818E-03     70.1083E-03     21.3774E+06    -55.4014E+06    -70.8417E+06    -78.5436E+06    -69.2794E+06    -63.0577E+06    -72.4496E+06     4.40802E+06
            1958     127.374E-03     1.93253E-03     127.359E-03     70.6586E-03    -34.6276E-03    -36.0302E-03    -34.2828E-03     68.9113E-03    -34.6276E-03     26.1261E-03     70.7913E-03     32.7986E+06    -65.2961E+06    -94.9028E+06    -100.341E+06    -88.0164E+06    -75.5873E+06    -96.9362E+06     13.3293E+06
            1959     127.393E-03     2.89908E-03     127.360E-03     73.8564E-03    -34.7224E-03    -39.1256E-03    -35.2183E-03     69.9491E-03    -34.7224E-03     40.5322E-03     74.1443E-03     44.7253E+06    -79.4923E+06    -106.108E+06    -129.086E+06    -107.445E+06    -100.708E+06    -106.534E+06     23.4860E+06
            1960     127.422E-03     3.86427E-03     127.364E-03     80.2845E-03    -35.3380E-03    -44.9378E-03    -37.8354E-03     73.1820E-03    -35.3380E-03     57.3548E-03     80.9330E-03     54.6949E+06    -88.5427E+06    -100.382E+06    -147.763E+06    -119.532E+06    -117.585E+06    -99.5711E+06     28.8211E+06
            1961     127.467E-03     4.82519E-03     127.376E-03     89.9601E-03    -36.4470E-03    -53.5404E-03    -42.3608E-03     78.7805E-03    -36.4470E-03     76.5427E-03     91.4198E-03     59.1452E+06    -80.8723E+06    -93.9785E+06    -145.068E+06    -121.732E+06    -115.356E+06    -82.8310E+06     25.8427E+06
            1962     127.531E-03     5.78166E-03     127.400E-03     102.953E-03    -38.1061E-03    -64.8611E-03    -49.1127E-03     87.2043E-03    -38.1061E-03     97.6360E-03     106.006E-03     60.3022E+06    -60.5525E+06    -93.2199E+06    -128.981E+06    -114.967E+06    -107.233E+06    -60.5525E+06     17.0359E+06
            1963     127.617E-03     6.73002E-03     127.440E-03     119.085E-03    -40.3564E-03    -78.7112E-03    -58.4776E-03     98.8516E-03    -40.3564E-03     119.740E-03     124.934E-03     64.2774E+06    -36.9292E+06    -86.7335E+06    -108.859E+06    -102.926E+06    -92.6657E+06    -36.9292E+06     6.31302E+06
            1964     127.726E-03     7.66957E-03     127.496E-03     138.367E-03    -43.2519E-03    -95.1203E-03    -70.5571E-03     113.804E-03    -43.2519E-03     143.183E-03     148.694E-03     69.6301E+06    -16.3913E+06    -73.6987E+06    -93.1935E+06    -87.7593E+06    -79.1329E+06    -16.3913E+06    -4.09518E+06
            1965     127.866E-03     8.59790E-03     127.576E-03     160.891E-03    -46.8483E-03    -114.052E-03    -85.7890E-03     132.628E-03    -46.8483E-03     166.924E-03     178.135E-03     75.9978E+06     -50.757E+03    -54.6374E+06    -85.8237E+06    -73.7986E+06    -66.6626E+06     -50.757E+03    -13.0835E+06
            1966     128.034E-03     9.51309E-03     127.680E-03     186.406E-03    -51.2180E-03    -135.222E-03    -104.944E-03     156.128E-03    -51.2180E-03     187.718E-03     213.491E-03     80.4614E+06     12.4422E+06    -35.3128E+06    -79.8640E+06    -62.5827E+06     -52.594E+06     12.4422E+06    -20.4099E+06
            1967     128.236E-03     10.4082E-03     127.812E-03     214.372E-03    -56.4193E-03    -157.954E-03    -126.779E-03     183.198E-03    -56.4193E-03     206.135E-03     255.996E-03     84.4901E+06     22.2582E+06    -17.5979E+06    -73.9407E+06    -50.9947E+06    -40.5438E+06     22.2582E+06    -27.2640E+06
            1968     128.470E-03     11.2866E-03     127.973E-03     243.456E-03    -62.3604E-03    -181.031E-03    -149.774E-03     212.199E-03    -62.3604E-03     221.561E-03     305.209E-03     85.1310E+06     33.5501E+06     5.95173E+06    -61.6298E+06    -39.7095E+06    -15.9686E+06     33.5501E+06    -30.2599E+06
            1969     128.736E-03     12.1464E-03     128.162E-03     273.347E-03    -69.0552E-03    -204.278E-03    -173.594E-03     242.663E-03    -69.0552E-03     234.062E-03     361.729E-03     86.1837E+06     50.2816E+06     37.2995E+06    -41.2595E+06    -30.2738E+06     27.8751E+06     48.7204E+06    -24.9808E+06
            1970     129.040E-03     12.9832E-03     128.385E-03     301.671E-03    -76.3660E-03    -225.319E-03    -195.311E-03     271.664E-03    -76.3660E-03     244.127E-03     422.705E-03     98.5174E+06     77.6005E+06     64.0003E+06    -26.6489E+06    -23.3087E+06     73.5837E+06     64.6770E+06    -16.6910E+06
            1971     129.373E-03     13.8059E-03     128.634E-03     319.071E-03    -83.9894E-03    -235.095E-03    -211.310E-03     295.286E-03    -83.9894E-03     222.627E-03     458.133E-03     103.835E+06     92.2708E+06     79.2664E+06    -17.0204E+06    -15.7679E+06     89.8055E+06     80.4792E+06    -11.0555E+06
            1972     129.665E-03     14.6130E-03     128.839E-03     340.614E-03    -91.6269E-03    -249.025E-03    -224.801E-03     316.390E-03    -91.6269E-03     232.662E-03     508.698E-03     95.4748E+06     88.8417E+06     79.4334E+06    -10.7734E+06    -9.71713E+06     78.8064E+06     88.4125E+06    -9.47287E+06
            1973     130.079E-03     15.4125E-03     129.163E-03     346.965E-03    -99.1230E-03    -248.052E-03    -231.490E-03     330.403E-03    -99.1230E-03     172.746E-03     490.897E-03     104.698E+06     109.608E+06     72.7278E+06    -6.77990E+06    -6.16653E+06     72.1144E+06     109.608E+06    -5.67882E+06
            1974     128.420E-03     978.301E-06     128.417E-03     45.1659E-03    -22.2612E-03    -22.9069E-03    -22.3776E-03     44.6366E-03    -22.2612E-03     10.9802E-03     45.2009E-03     63.4536E+06    -79.4232E+06    -134.305E+06    -147.765E+06    -139.675E+06    -87.0096E+06    -134.809E+06     20.9869E+06
            1975     128.430E-03     1.95647E-03     128.415E-03     47.1109E-03    -22.4713E-03    -24.6434E-03    -22.8644E-03     45.3320E-03    -22.4713E-03     21.5582E-03     47.2178E-03     75.2073E+06    -84.6872E+06    -146.442E+06    -167.778E+06    -152.931E+06    -99.0312E+06    -146.945E+06     30.6581E+06
            1976     128.451E-03     2.93419E-03     128.418E-03     52.0101E-03    -23.0255E-03    -28.9838E-03    -24.9063E-03     47.9326E-03    -23.0255E-03     34.9106E-03     52.2805E-03     72.5881E+06    -95.7653E+06    -140.780E+06     -177.73E+06    -156.455E+06    -117.041E+06    -140.780E+06     34.7035E+06
            1977     128.485E-03     3.90826E-03     128.426E-03     60.4821E-03    -24.1290E-03    -36.3453E-03    -28.9094E-03     53.0462E-03    -24.1290E-03     51.2298E-03     61.1512E-03     60.4682E+06    -100.909E+06    -119.126E+06    -167.711E+06    -146.089E+06    -122.532E+06    -119.126E+06     30.1051E+06
            1978     128.537E-03     4.87805E-03     128.445E-03     72.3387E-03    -25.7643E-03    -46.5877E-03    -34.8889E-03     60.6399E-03    -25.7643E-03     70.6324E-03     73.8431E-03     50.1042E+06    -87.9440E+06    -99.5364E+06    -142.628E+06    -127.751E+06    -110.463E+06    -91.8942E+06     21.1751E+06
            1979     128.612E-03     5.84077E-03     128.479E-03     87.5927E-03    -27.9720E-03    -59.6315E-03    -43.0974E-03     71.0587E-03    -27.9720E-03     92.8581E-03     90.6457E-03     47.2494E+06    -64.1206E+06    -90.0064E+06    -117.553E+06    -109.906E+06    -97.6530E+06    -64.1206E+06     11.0317E+06
            1980     128.711E-03     6.79610E-03     128.532E-03     106.406E-03    -30.7906E-03    -75.6205E-03    -54.0596E-03     84.8452E-03    -30.7906E-03     117.559E-03     112.100E-03     52.0304E+06    -39.4237E+06    -77.9481E+06    -98.5677E+06    -95.9993E+06    -80.5165E+06    -39.4237E+06     1.15627E+06
            1981     128.841E-03     7.73918E-03     128.609E-03     129.017E-03    -34.2857E-03    -94.7291E-03    -68.2850E-03     102.573E-03    -34.2857E-03     144.391E-03     138.871E-03     63.3346E+06    -19.8777E+06    -58.7649E+06    -91.5336E+06    -85.4881E+06    -64.8104E+06    -19.8777E+06    -9.90791E+06
            1982     129.002E-03     8.67031E-03     128.710E-03     155.990E-03    -38.5787E-03    -117.401E-03    -86.7022E-03     125.291E-03    -38.5787E-03     172.537E-03     172.280E-03     74.1104E+06    -3.27030E+06    -39.9205E+06    -87.5545E+06    -73.7342E+06    -53.7408E+06    -3.27030E+06    -19.6871E+06
            1983     129.204E-03     9.58310E-03     128.848E-03     186.099E-03    -43.7678E-03    -142.372E-03    -109.106E-03     152.832E-03    -43.7678E-03     198.009E-03     211.545E-03     81.1576E+06     11.6660E+06    -21.1736E+06    -80.3766E+06    -60.4683E+06    -41.0820E+06     11.6660E+06    -27.2557E+06
            1984     129.438E-03     10.4780E-03     129.013E-03     218.602E-03    -49.8654E-03    -168.748E-03    -134.290E-03     184.145E-03    -49.8654E-03     220.356E-03     257.255E-03     86.5849E+06     22.6946E+06    -5.20790E+06    -74.2092E+06    -49.9863E+06    -29.4309E+06     22.6946E+06    -32.7386E+06
            1985     129.711E-03     11.3505E-03     129.213E-03     253.163E-03    -56.8066E-03    -196.285E-03    -161.525E-03     218.403E-03    -56.8066E-03     239.871E-03     310.454E-03     87.8739E+06     30.4907E+06     8.83085E+06    -66.0759E+06    -44.5240E+06    -12.7210E+06     30.4907E+06    -33.1484E+06
            1986     130.016E-03     12.1986E-03     129.443E-03     286.594E-03    -64.5577E-03    -222.043E-03    -187.858E-03     252.408E-03    -64.5577E-03     254.514E-03     369.909E-03     92.0388E+06     42.8038E+06     32.1676E+06    -53.8784E+06    -40.7421E+06     20.4378E+06     41.3973E+06    -29.1830E+06
            1987     130.359E-03     13.0303E-03     129.707E-03     316.804E-03    -72.8829E-03    -243.981E-03    -211.044E-03     283.867E-03    -72.8829E-03     263.511E-03     432.858E-03     104.381E+06     71.2789E+06     55.7476E+06    -39.5723E+06    -33.4454E+06     64.4753E+06     56.4243E+06    -24.2284E+06
            1988     130.725E-03     13.8400E-03     129.991E-03     335.011E-03    -81.5123E-03    -253.517E-03    -227.887E-03     309.381E-03    -81.5123E-03     238.025E-03     470.817E-03     108.603E+06     89.1734E+06     70.2425E+06    -27.2641E+06    -23.8780E+06     80.7338E+06     75.2960E+06    -18.4876E+06
            1989     131.042E-03     14.6354E-03     130.222E-03     356.152E-03    -90.0908E-03    -266.134E-03    -240.882E-03     330.901E-03    -90.0908E-03     244.331E-03     519.691E-03     97.7124E+06     85.3892E+06     73.9779E+06    -17.3663E+06    -15.7627E+06     72.8035E+06     84.9600E+06    -11.3321E+06
            1990     131.478E-03     15.4223E-03     130.570E-03     361.260E-03    -98.4008E-03    -263.010E-03    -245.889E-03     344.139E-03    -98.4008E-03     181.250E-03     501.488E-03     106.232E+06     109.489E+06     65.0198E+06    -8.67450E+06    -8.07528E+06     64.4206E+06     109.489E+06    -6.33026E+06
            1991     129.453E-03     988.261E-06     129.450E-03     25.7561E-03    -12.4085E-03    -13.3499E-03    -12.8661E-03     25.2723E-03    -12.4085E-03     7.91891E-03     25.8682E-03     123.684E+06    -118.346E+06    -234.536E+06    -247.614E+06    -239.279E+06    -124.385E+06    -236.833E+06     22.5310E+06
            1992     129.465E-03     1.97536E-03     129.450E-03     29.7372E-03    -13.2026E-03    -16.5384E-03    -14.7958E-03     27.9946E-03    -13.2026E-03     17.0848E-03     30.0891E-03     106.398E+06    -110.549E+06    -204.826E+06    -224.021E+06    -214.523E+06    -119.406E+06    -205.468E+06     26.3574E+06
            1993     129.489E-03     2.95904E-03     129.455E-03     36.7063E-03    -14.3940E-03    -22.3130E-03    -18.2331E-03     32.6263E-03    -14.3940E-03     29.6222E-03     37.3819E-03     75.1190E+06    -114.235E+06    -173.246E+06    -196.358E+06    -185.057E+06    -123.381E+06    -175.401E+06     21.4563E+06
            1994     129.530E-03     3.93966E-03     129.470E-03     46.5108E-03    -16.0214E-03    -30.4871E-03    -23.0567E-03     39.0804E-03    -16.0214E-03     45.3001E-03     47.6600E-03     47.6121E+06    -112.414E+06    -142.749E+06    -164.379E+06    -156.607E+06    -118.672E+06    -144.263E+06     11.8489E+06
            1995     129.591E-03     4.91470E-03     129.498E-03     59.4827E-03    -18.0942E-03    -41.3809E-03    -29.6203E-03     47.7220E-03    -18.0942E-03     64.6390E-03     61.4458E-03     35.8811E+06    -97.8613E+06    -114.734E+06    -137.332E+06    -133.086E+06    -104.924E+06    -111.918E+06     4.41099E+06
            1996     129.677E-03     5.88336E-03     129.544E-03     76.0842E-03    -20.6796E-03    -55.3832E-03    -38.4881E-03     59.1892E-03    -20.6796E-03     87.9268E-03     79.5163E-03     37.4527E+06    -75.2043E+06    -91.4945E+06    -116.979E+06    -114.072E+06    -89.4712E+06    -80.1352E+06    -851.002E+03
            1997     129.793E-03     6.84204E-03     129.613E-03     96.4509E-03    -23.8548E-03    -72.5695E-03    -50.1494E-03     74.0307E-03    -23.8548E-03     114.615E-03     102.332E-03     47.2091E+06    -48.4463E+06    -67.2579E+06    -99.3376E+06    -96.4123E+06    -69.2919E+06    -49.3378E+06    -8.35542E+06
            1998     129.942E-03     7.79168E-03     129.708E-03     121.768E-03    -27.7326E-03    -94.0056E-03    -65.9844E-03     93.7469E-03    -27.7326E-03     145.014E-03     131.544E-03     60.9591E+06    -20.8742E+06    -42.7085E+06    -87.9440E+06    -78.2843E+06    -51.4768E+06    -21.7656E+06    -16.5722E+06
            1999     130.132E-03     8.72402E-03     129.839E-03     152.472E-03    -32.4629E-03    -120.013E-03    -86.7216E-03     119.181E-03    -32.4629E-03     178.384E-03     168.184E-03     72.0686E+06    -1.07774E+06    -23.8437E+06    -81.4785E+06    -64.6109E+06    -40.7113E+06    -1.07774E+06    -24.3876E+06
            2000     130.365E-03     9.63893E-03     130.009E-03     186.093E-03    -38.1258E-03    -148.000E-03    -111.252E-03     149.345E-03    -38.1258E-03     208.865E-03     210.027E-03     81.6999E+06     13.2958E+06     -9.4405E+06    -77.1219E+06    -56.7483E+06    -29.8141E+06     13.2958E+06    -30.5611E+06
            2001     130.637E-03     10.5320E-03     130.212E-03     222.914E-03    -44.7709E-03    -178.126E-03    -139.585E-03     184.373E-03    -44.7709E-03     236.171E-03     258.610E-03     87.9220E+06     22.8729E+06     328.206E+03    -74.0512E+06    -51.9182E+06    -21.8048E+06     22.8729E+06    -33.7477E+06
            2002     130.953E-03     11.4019E-03     130.455E-03     261.793E-03    -52.3940E-03    -209.345E-03    -170.272E-03     222.720E-03    -52.3940E-03     259.570E-03     314.578E-03     89.5297E+06     31.6153E+06     8.27983E+06    -66.9425E+06    -45.6883E+06    -12.9744E+06     31.6153E+06    -32.7258E+06
            2003     131.306E-03     12.2479E-03     130.733E-03     298.386E-03    -60.9000E-03    -237.522E-03    -199.512E-03     260.376E-03    -60.9000E-03     274.878E-03     375.932E-03     93.4572E+06     47.6475E+06     33.0274E+06    -51.5055E+06    -36.5669E+06     20.3822E+06     45.3542E+06    -30.5097E+06
            2004     131.684E-03     13.0679E-03     131.034E-03     331.277E-03    -69.9969E-03    -261.330E-03    -225.075E-03     295.022E-03    -69.9969E-03     283.824E-03     440.497E-03     99.0748E+06     67.9820E+06     58.8465E+06    -35.1569E+06    -27.4151E+06     59.4337E+06     59.6530E+06    -26.5650E+06
            2005     132.096E-03     13.8692E-03     131.366E-03     349.484E-03    -79.3932E-03    -270.079E-03    -241.883E-03     321.288E-03    -79.3932E-03     255.908E-03     479.454E-03     100.686E+06     81.9616E+06     68.6522E+06    -24.5164E+06    -20.5205E+06     70.6919E+06     75.9259E+06    -19.2100E+06
            2006     132.432E-03     14.6540E-03     131.619E-03     369.602E-03    -88.7154E-03    -280.934E-03    -253.580E-03     342.248E-03    -88.7154E-03     259.871E-03     525.527E-03     99.2580E+06     89.1189E+06     66.6090E+06    -18.2411E+06    -15.8573E+06     64.2253E+06     89.1189E+06    -13.6189E+06
            2007     132.894E-03     15.4336E-03     131.994E-03     376.472E-03    -97.7058E-03    -278.846E-03    -260.110E-03     357.737E-03    -97.7058E-03     196.512E-03     510.375E-03     110.516E+06     114.271E+06     52.6115E+06    -9.74198E+06    -8.13926E+06     51.0087E+06     114.271E+06    -9.26115E+06
            2008     130.470E-03     994.037E-06     130.466E-03     14.8321E-03    -6.96634E-03    -7.86481E-03    -7.48565E-03     14.5022E-03    -7.01559E-03     4.94600E-03     15.0058E-03     142.716E+06    -141.304E+06    -280.349E+06    -287.385E+06    -282.798E+06    -142.791E+06    -283.449E+06    -513.711E+03
            2009     130.486E-03     1.98585E-03     130.471E-03     19.3355E-03    -7.87201E-03    -11.4630E-03    -9.97695E-03     17.8494E-03    -7.87201E-03     12.8061E-03     19.9014E-03     132.219E+06    -119.097E+06    -248.885E+06    -253.545E+06    -249.876E+06    -122.043E+06    -249.608E+06    -4.68821E+06
            2010     130.516E-03     2.97456E-03     130.482E-03     27.0501E-03    -9.21786E-03    -17.8311E-03    -13.9621E-03     23.1811E-03    -9.21786E-03     25.0164E-03     28.1032E-03     111.077E+06    -112.209E+06    -219.373E+06    -226.572E+06    -214.964E+06    -116.618E+06    -226.572E+06    -12.7774E+06
            2011     130.563E-03     3.95779E-03     130.503E-03     37.7902E-03    -11.0467E-03    -26.7418E-03    -19.3786E-03     30.4270E-03    -11.0467E-03     40.9359E-03     39.3885E-03     92.0122E+06    -102.532E+06    -189.250E+06    -199.016E+06    -182.718E+06    -109.418E+06    -198.662E+06    -20.3319E+06
            2012     130.633E-03     4.93629E-03     130.540E-03     51.6414E-03    -13.4063E-03    -38.2374E-03    -26.4477E-03     39.8517E-03    -13.4063E-03     60.6365E-03     54.0612E-03     70.7489E+06    -90.1883E+06    -152.915E+06    -164.853E+06    -151.111E+06    -100.995E+06    -155.851E+06    -23.0606E+06
            2013     130.731E-03     5.90755E-03     130.597E-03     68.8900E-03    -16.2778E-03    -52.6117E-03    -35.5885E-03     51.8668E-03    -16.2778E-03     84.3296E-03     72.6745E-03     56.7024E+06    -71.5283E+06    -107.711E+06    -133.689E+06    -120.323E+06    -85.7604E+06    -106.846E+06    -22.8133E+06
            2014     130.863E-03     6.87113E-03     130.682E-03     90.2747E-03    -19.6841E-03    -70.5590E-03    -47.7588E-03     67.4745E-03    -19.6841E-03     112.193E-03     96.2528E-03     56.1399E+06    -47.2091E+06    -63.7998E+06    -108.253E+06    -95.1020E+06    -61.2258E+06    -62.9341E+06    -23.5998E+06
            2015     131.033E-03     7.82106E-03     130.799E-03     117.297E-03    -23.7749E-03    -93.4702E-03    -64.3204E-03     88.1476E-03    -23.7749E-03     145.501E-03     126.828E-03     68.5936E+06    -20.9232E+06    -34.4985E+06    -94.8530E+06    -79.2997E+06    -42.1949E+06    -28.7800E+06    -27.0199E+06
            2016     131.250E-03     8.75745E-03     130.957E-03     149.632E-03    -28.7028E-03    -120.935E-03    -85.7106E-03     114.408E-03    -28.7028E-03     182.028E-03     164.445E-03     78.7486E+06    -1.22183E+06    -16.1832E+06    -86.0371E+06    -67.3894E+06    -31.3377E+06    -4.71518E+06    -30.5468E+06
            2017     131.515E-03     9.67430E-03     131.159E-03     185.637E-03    -34.5660E-03    -151.076E-03    -111.758E-03     146.318E-03    -34.5660E-03     216.101E-03     207.597E-03     83.1169E+06     14.4546E+06    -1.99876E+06    -75.5268E+06    -55.0910E+06    -22.4346E+06     14.4546E+06    -32.7549E+06
            2018     131.828E-03     10.5697E-03     131.404E-03     226.140E-03    -41.5048E-03    -184.605E-03    -142.799E-03     184.334E-03    -41.5048E-03     248.180E-03     258.440E-03     87.5896E+06     30.7634E+06     5.57059E+06    -66.1192E+06    -43.7697E+06    -16.7789E+06     30.7634E+06    -32.6845E+06
            2019     132.191E-03     11.4383E-03     131.695E-03     267.499E-03    -49.4968E-03    -217.979E-03    -175.743E-03     225.262E-03    -49.4968E-03     273.322E-03     314.842E-03     91.1249E+06     42.8078E+06     14.0014E+06    -58.6256E+06    -34.1369E+06    -10.4873E+06     42.8078E+06    -33.6519E+06
            2020     132.590E-03     12.2806E-03     132.020E-03     306.567E-03    -58.3818E-03    -248.266E-03    -207.386E-03     265.687E-03    -58.3818E-03     289.625E-03     375.373E-03     91.7906E+06     55.0667E+06     35.3189E+06    -44.3881E+06    -26.0625E+06     17.8802E+06     54.1798E+06    -31.4996E+06
            2021     133.025E-03     13.0989E-03     132.378E-03     340.939E-03    -67.9134E-03    -273.121E-03    -234.203E-03     302.021E-03    -67.9134E-03     298.983E-03     438.518E-03     92.7951E+06     68.0418E+06     58.9027E+06    -28.8202E+06    -21.3745E+06     52.3439E+06     67.1549E+06    -24.0907E+06
            2022     133.472E-03     13.8950E-03     132.747E-03     359.240E-03    -77.7597E-03    -281.462E-03    -250.931E-03     328.708E-03    -77.7597E-03     270.840E-03     479.373E-03     99.9633E+06     84.7917E+06     69.0534E+06    -21.2802E+06    -17.2405E+06     65.0137E+06     84.7917E+06    -18.3098E+06
            2023     133.842E-03     14.6765E-03     133.035E-03     378.345E-03    -87.5832E-03    -290.763E-03    -262.763E-03     350.346E-03    -87.5832E-03     267.241E-03     527.377E-03     104.119E+06     103.746E+06     59.7073E+06    -12.3365E+06    -10.0709E+06     57.4417E+06     103.746E+06    -12.1109E+06
            2024     134.313E-03     15.4536E-03     133.421E-03     387.634E-03    -97.1453E-03    -290.530E-03    -271.517E-03     368.621E-03    -97.1453E-03     206.411E-03     516.359E-03     119.180E+06     128.314E+06     38.6596E+06    -4.99963E+06    -3.50001E+06     37.1600E+06     128.314E+06    -7.60180E+06
            2025     131.481E-03     993.815E-06     131.477E-03     13.4582E-03    -6.41925E-03    -7.03882E-03    -6.82293E-03     13.3311E-03    -6.50801E-03     2.52912E-03     13.6535E-03     118.946E+06    -123.169E+06    -237.396E+06    -246.247E+06    -242.150E+06    -126.463E+06    -238.200E+06    -18.5771E+06
            2026     131.498E-03     1.98700E-03     131.483E-03     16.7058E-03    -7.12332E-03    -9.58239E-03    -8.76377E-03     15.8871E-03    -7.12332E-03     8.26659E-03     17.3410E-03     133.292E+06    -98.0563E+06    -224.222E+06    -236.952E+06    -229.879E+06    -105.047E+06    -224.304E+06    -28.5505E+06
            2027     131.533E-03     2.97746E-03     131.499E-03     22.9382E-03    -8.18478E-03    -14.7541E-03    -12.0476E-03     20.2317E-03    -8.18478E-03     18.8663E-03     24.2609E-03     140.846E+06    -83.6966E+06    -211.161E+06    -233.681E+06    -215.336E+06    -96.9967E+06    -216.206E+06    -40.1595E+06
            2028     131.589E-03     3.96469E-03     131.530E-03     32.9678E-03    -9.74266E-03    -23.2235E-03    -17.1560E-03     26.9003E-03    -9.74266E-03     34.6110E-03     35.0209E-03     141.109E+06    -72.8614E+06    -194.924E+06    -226.258E+06    -197.408E+06    -93.8127E+06    -202.822E+06    -49.8720E+06
            2029     131.669E-03     4.94453E-03     131.576E-03     47.0961E-03    -11.8936E-03    -35.2040E-03    -24.4066E-03     36.2987E-03    -11.8936E-03     55.4900E-03     49.9436E-03     130.918E+06    -63.0190E+06    -174.667E+06    -205.937E+06    -174.056E+06    -91.9648E+06    -177.602E+06    -56.1874E+06
            2030     131.779E-03     5.91705E-03     131.647E-03     65.2733E-03    -14.6701E-03    -50.6045E-03    -34.1805E-03     48.8493E-03    -14.6701E-03     80.8229E-03     69.2091E-03     119.071E+06    -46.4550E+06    -142.456E+06    -178.740E+06    -143.610E+06    -81.5847E+06    -142.456E+06    -58.1789E+06
            2031     131.925E-03     6.87959E-03     131.745E-03     87.9489E-03    -18.1718E-03    -69.7695E-03    -47.2582E-03     65.4377E-03    -18.1718E-03     110.336E-03     93.7904E-03     100.245E+06    -30.7684E+06    -94.5805E+06    -144.193E+06    -110.759E+06    -64.2024E+06    -94.5805E+06    -51.5618E+06
            2032     132.115E-03     7.83171E-03     131.883E-03     116.072E-03    -22.4594E-03    -93.5955E-03    -64.5016E-03     86.9777E-03    -22.4594E-03     144.945E-03     125.130E-03     84.8078E+06    -15.0045E+06    -43.4982E+06    -109.259E+06    -83.1913E+06    -41.0727E+06    -43.4982E+06    -41.1838E+06
            2033     132.357E-03     8.76718E-03     132.066E-03     148.858E-03    -27.5734E-03    -121.255E-03    -86.0376E-03     113.641E-03    -27.5734E-03     181.839E-03     162.375E-03     84.7974E+06     1.33138E+06    -10.7938E+06    -88.6810E+06    -64.9179E+06    -26.2928E+06    -6.93272E+06    -37.6034E+06
            2034     132.655E-03     9.68552E-03     132.301E-03     185.894E-03    -33.6145E-03    -152.209E-03    -112.665E-03     146.350E-03    -33.6145E-03     217.150E-03     205.328E-03     89.8439E+06     18.7977E+06     2.17211E+06    -77.7989E+06     -55.061E+06    -20.5658E+06     18.7977E+06    -35.8949E+06
            2035     133.005E-03     10.5803E-03     132.584E-03     227.422E-03    -40.7088E-03    -186.666E-03    -144.455E-03     185.211E-03    -40.7088E-03     250.366E-03     255.263E-03     100.291E+06     37.9121E+06     11.8112E+06    -71.9398E+06    -48.4615E+06    -11.6671E+06     37.9121E+06    -36.8383E+06
            2036     133.419E-03     11.4494E-03     132.926E-03     269.004E-03    -48.8434E-03    -220.143E-03    -177.798E-03     226.658E-03    -48.8434E-03     274.726E-03     308.695E-03     107.837E+06     50.4330E+06     23.3139E+06    -67.5443E+06    -39.7041E+06    -4.52643E+06     50.4330E+06    -41.2445E+06
            2037     133.866E-03     12.2924E-03     133.300E-03     308.298E-03    -57.8318E-03    -250.434E-03    -209.423E-03     267.286E-03    -57.8318E-03     291.188E-03     364.928E-03     104.742E+06     62.4340E+06     33.3203E+06    -53.6237E+06    -26.8665E+06     6.56309E+06     62.4340E+06    -38.8399E+06
            2038     134.353E-03     13.1093E-03     133.711E-03     341.320E-03    -67.4013E-03    -273.962E-03    -235.007E-03     302.365E-03    -67.4013E-03     299.403E-03     422.381E-03     96.6077E+06     80.1390E+06     48.4042E+06    -25.6973E+06    -10.9661E+06     33.6729E+06     80.1390E+06    -25.9656E+06
            2039     134.841E-03     13.9085E-03     134.122E-03     360.447E-03    -77.2351E-03    -283.249E-03    -252.029E-03     329.228E-03    -77.2351E-03     274.899E-03     465.117E-03     93.5110E+06     100.145E+06     59.7299E+06    -3.61586E+06     583.946E+03     55.5301E+06     100.145E+06    -10.1505E+06
            2040     135.260E-03     14.6843E-03     134.461E-03     383.435E-03    -87.0776E-03    -296.339E-03    -267.860E-03     354.956E-03    -87.0776E-03     272.113E-03     524.354E-03     91.1816E+06     104.348E+06     56.3135E+06     735.936E+03     3.04094E+06     54.0085E+06     104.348E+06     155.432E+03
            2041     135.733E-03     15.4455E-03     134.851E-03     393.604E-03    -96.9168E-03    -296.706E-03    -276.926E-03     373.824E-03    -96.9168E-03     218.027E-03     521.421E-03     129.264E+06     137.981E+06     37.9952E+06    -4.09409E+06    -2.63516E+06     36.5363E+06     137.981E+06     2.80536E+06
            2042     132.496E-03     990.996E-06     132.492E-03     20.3086E-03    -9.90154E-03    -10.4071E-03    -10.3434E-03     20.2845E-03    -9.94104E-03     378.374E-06     20.5108E-03     82.4991E+06    -87.2934E+06    -163.500E+06    -174.727E+06    -169.586E+06    -92.4344E+06    -163.500E+06    -19.4870E+06
            2043     132.516E-03     1.98025E-03     132.501E-03     22.7565E-03    -10.5834E-03    -12.1668E-03    -11.9570E-03     22.5467E-03    -10.5834E-03     3.35588E-03     23.4138E-03     102.428E+06    -65.0949E+06    -153.522E+06    -176.839E+06    -165.024E+06    -76.9100E+06    -153.522E+06    -33.7033E+06
            2044     132.554E-03     2.96846E-03     132.521E-03     26.9828E-03    -11.5423E-03    -15.4348E-03    -14.4549E-03     26.0029E-03    -11.5423E-03     10.2808E-03     28.4947E-03     114.598E+06    -50.8307E+06    -140.880E+06    -179.330E+06    -159.771E+06    -70.3895E+06    -140.880E+06    -45.7078E+06
            2045     132.614E-03     3.95319E-03     132.555E-03     33.9834E-03    -12.8016E-03    -21.1783E-03    -18.1958E-03     31.0009E-03    -12.8016E-03     22.7128E-03     36.5845E-03     126.743E+06    -42.0858E+06    -135.423E+06    -186.039E+06    -157.641E+06    -70.4843E+06    -135.423E+06    -57.0832E+06
            2046     132.702E-03     4.93487E-03     132.610E-03     45.4221E-03    -14.4937E-03    -30.9202E-03    -24.1633E-03     38.6652E-03    -14.4937E-03     41.8463E-03     49.0717E-03     143.418E+06    -30.4548E+06    -131.752E+06    -193.669E+06    -154.037E+06    -70.0873E+06    -131.752E+06    -69.5139E+06
            2047     132.824E-03     5.90881E-03     132.692E-03     62.4879E-03    -16.8274E-03    -45.6620E-03    -33.4091E-03     50.2350E-03    -16.8274E-03     67.7274E-03     67.0726E-03     156.660E+06    -17.6362E+06    -123.460E+06    -195.511E+06    -145.580E+06    -67.5673E+06    -123.460E+06    -79.5679E+06
            2048     132.986E-03     6.87207E-03     132.808E-03     85.8998E-03    -19.9970E-03    -65.9059E-03    -46.9354E-03     66.9293E-03    -19.9970E-03     100.055E-03     91.8407E-03     150.830E+06    -12.3153E+06    -103.641E+06    -184.711E+06    -129.691E+06    -67.3351E+06    -103.641E+06    -80.1278E+06
            2049     133.194E-03     7.82003E-03     132.965E-03     115.660E-03    -24.1417E-03    -91.5105E-03    -65.3516E-03     89.5014E-03    -24.1417E-03     137.473E-03     123.978E-03     132.246E+06    -2.20605E+06    -71.7304E+06    -154.154E+06    -104.907E+06    -51.4530E+06    -71.7304E+06    -70.7688E+06
            2050     133.461E-03     8.75270E-03     133.174E-03     149.870E-03    -29.4090E-03    -120.429E-03    -88.2957E-03     117.737E-03    -29.4090E-03     174.752E-03     161.637E-03     115.356E+06     8.29445E+06    -26.0336E+06    -117.400E+06    -78.1505E+06    -32.5756E+06    -24.4134E+06    -57.3949E+06
            2051     133.785E-03     9.66622E-03     133.436E-03     187.912E-03    -35.7757E-03    -152.064E-03    -115.939E-03     151.787E-03    -35.7757E-03     209.195E-03     204.396E-03     104.230E+06     23.4666E+06     3.15386E+06    -88.6190E+06    -55.9238E+06    -27.9384E+06     21.8636E+06    -43.5835E+06
            2052     134.178E-03     10.5570E-03     133.762E-03     228.260E-03    -43.1314E-03    -185.081E-03    -146.887E-03     190.066E-03    -43.1314E-03     238.925E-03     251.182E-03     104.184E+06     52.0055E+06     17.9076E+06    -63.0621E+06    -38.5244E+06    -6.63002E+06     52.0055E+06    -35.8643E+06
            2053     134.626E-03     11.4230E-03     134.141E-03     266.762E-03    -51.4201E-03    -215.326E-03    -177.346E-03     228.782E-03    -51.4201E-03     259.234E-03     297.878E-03     110.732E+06     72.2869E+06     32.9201E+06    -50.4808E+06    -26.2001E+06     8.63947E+06     72.2869E+06    -37.5778E+06
            2054     135.124E-03     12.2636E-03     134.566E-03     302.276E-03    -60.3684E-03    -241.838E-03    -204.844E-03     265.282E-03    -60.3684E-03     273.642E-03     345.362E-03     116.162E+06     82.2712E+06     31.6549E+06    -49.8564E+06    -20.5812E+06     2.37973E+06     82.2712E+06    -38.9187E+06
            2055     135.650E-03     13.0855E-03     135.017E-03     331.411E-03    -69.5679E-03    -261.835E-03    -226.338E-03     295.915E-03    -69.5679E-03     281.162E-03     392.781E-03     115.239E+06     84.3847E+06     33.1074E+06    -45.3363E+06    -21.1686E+06     8.93965E+06     84.3847E+06    -35.4815E+06
            2056     136.187E-03     13.8891E-03     135.477E-03     348.605E-03    -78.7984E-03    -269.857E-03    -239.901E-03     318.649E-03    -78.7984E-03     264.637E-03     432.340E-03     114.603E+06     95.5560E+06     35.2782E+06    -33.9904E+06    -20.6271E+06     21.9148E+06     95.5560E+06    -21.5406E+06
            2057     136.658E-03     14.6812E-03     135.867E-03     375.348E-03    -87.8813E-03    -287.468E-03    -257.181E-03     345.061E-03    -87.8813E-03     276.369E-03     502.236E-03     99.4325E+06     95.4459E+06     39.4586E+06    -18.5080E+06    -13.6184E+06     34.5689E+06     95.4459E+06    -2.36110E+06
            2058     137.185E-03     15.4516E-03     136.312E-03     390.069E-03    -97.1613E-03    -292.925E-03    -270.513E-03     367.656E-03    -97.1613E-03     232.836E-03     517.523E-03     134.682E+06     142.179E+06     41.9908E+06    -6.81754E+06    -4.41412E+06     39.5874E+06     142.179E+06     8.71978E+06
            2059     133.521E-03     983.870E-06     133.517E-03     34.8794E-03    -17.0165E-03    -17.8613E-03    -17.7312E-03     34.8586E-03    -17.1257E-03    -1.79832E-03     35.0373E-03     44.6905E+06    -53.8607E+06    -91.7720E+06    -102.639E+06    -96.8276E+06    -59.6716E+06    -91.7720E+06    -14.4210E+06
            2060     133.543E-03     1.96684E-03     133.529E-03     38.0516E-03    -18.0478E-03    -19.9949E-03    -19.9217E-03     37.9784E-03    -18.0478E-03    -2.69793E-03     38.6044E-03     68.3925E+06    -33.9736E+06    -85.4830E+06    -111.153E+06    -98.1233E+06    -47.0031E+06    -85.4830E+06    -28.4682E+06
            2061     133.585E-03     2.94621E-03     133.552E-03     41.7776E-03    -19.2431E-03    -22.5262E-03    -22.3492E-03     41.6006E-03    -19.2431E-03    -791.748E-06     43.1567E-03     84.9161E+06    -22.6725E+06    -79.3605E+06    -119.936E+06    -98.4752E+06    -44.1329E+06    -79.3605E+06    -39.7899E+06
            2062     133.646E-03     3.92406E-03     133.589E-03     46.6950E-03    -20.6365E-03    -26.0446E-03    -25.4263E-03     46.0767E-03    -20.6365E-03     5.60991E-03     49.3760E-03     100.896E+06    -12.3076E+06    -70.7212E+06    -127.937E+06    -96.3119E+06    -43.9330E+06    -70.7212E+06    -50.6903E+06
            2063     133.739E-03     4.89786E-03     133.649E-03     53.9212E-03    -22.3258E-03    -31.5714E-03    -29.6296E-03     51.9795E-03    -22.3258E-03     17.8420E-03     58.2027E-03     116.992E+06    -3.10186E+06    -61.4749E+06    -136.684E+06    -95.8329E+06    -43.9531E+06    -61.4749E+06    -61.1101E+06
            2064     133.869E-03     5.86713E-03     133.740E-03     65.4107E-03    -24.4212E-03    -40.9798E-03    -36.1580E-03     60.5889E-03    -24.4212E-03     37.8984E-03     71.1671E-03     132.848E+06     3.17189E+06    -56.7980E+06    -148.482E+06    -100.829E+06    -44.4808E+06    -56.7980E+06    -70.3908E+06
            2065     134.042E-03     6.82871E-03     133.868E-03     84.2470E-03    -27.1446E-03    -57.0804E-03    -47.3030E-03     74.4696E-03    -27.1446E-03     67.2321E-03     91.2622E-03     147.077E+06     3.75932E+06    -60.1087E+06    -163.822E+06    -107.383E+06    -52.6806E+06    -60.1087E+06    -79.1305E+06
            2066     134.272E-03     7.77777E-03     134.046E-03     111.415E-03    -30.8649E-03    -80.5050E-03    -64.3384E-03     95.2480E-03    -30.8649E-03     103.638E-03     119.836E-03     157.661E+06     11.1395E+06    -59.2854E+06    -168.273E+06    -106.604E+06    -50.5297E+06    -59.2854E+06    -84.5923E+06
            2067     134.561E-03     8.70703E-03     134.279E-03     145.474E-03    -35.9171E-03    -109.533E-03    -87.4223E-03     123.363E-03    -35.9171E-03     141.578E-03     155.769E-03     151.959E+06     14.3550E+06    -34.4586E+06    -153.557E+06    -94.9730E+06    -44.2291E+06    -34.4586E+06    -79.3852E+06
            2068     134.916E-03     9.61220E-03     134.573E-03     184.779E-03    -42.2942E-03    -142.469E-03    -116.026E-03     158.336E-03    -42.2942E-03     176.994E-03     198.101E-03     139.318E+06     20.3908E+06    -8.88083E+06    -130.768E+06    -75.2294E+06    -44.2386E+06     210.162E+03    -69.0314E+06
            2069     135.338E-03     10.4918E-03     134.930E-03     224.510E-03    -49.8546E-03    -174.645E-03    -146.012E-03     195.876E-03    -49.8546E-03     204.822E-03     242.183E-03     132.022E+06     43.1654E+06     10.2636E+06    -99.5758E+06    -55.3803E+06    -24.9468E+06     34.1803E+06    -56.8765E+06
            2070     135.821E-03     11.3473E-03     135.346E-03     259.319E-03    -58.3221E-03    -201.007E-03    -172.058E-03     230.369E-03    -58.3221E-03     222.549E-03     282.065E-03     134.988E+06     74.7756E+06     29.3903E+06    -73.8772E+06    -46.0317E+06     1.54484E+06     74.7756E+06    -44.7444E+06
            2071     136.346E-03     12.1867E-03     135.800E-03     289.445E-03    -67.0905E-03    -222.349E-03    -193.735E-03     260.831E-03    -67.0905E-03     234.324E-03     320.074E-03     142.056E+06     94.1235E+06     27.3159E+06    -68.6315E+06    -45.3308E+06     4.01522E+06     94.1235E+06    -40.1649E+06
            2072     136.915E-03     13.0099E-03     136.295E-03     310.177E-03    -75.6946E-03    -234.550E-03    -206.758E-03     282.385E-03    -75.6946E-03     239.101E-03     353.118E-03     147.642E+06     100.344E+06     21.2382E+06    -65.2508E+06    -45.3121E+06     1.29949E+06     100.344E+06    -34.6767E+06
            2073     137.481E-03     13.8256E-03     136.784E-03     319.034E-03    -83.6906E-03    -235.423E-03    -209.254E-03     292.866E-03    -83.6906E-03     234.809E-03     380.137E-03     148.258E+06     110.901E+06     19.6607E+06    -55.0786E+06    -38.8261E+06     3.40820E+06     110.901E+06    -28.9563E+06
            2074     138.001E-03     14.6365E-03     137.223E-03     346.506E-03    -90.8694E-03    -255.655E-03    -222.283E-03     313.135E-03    -90.8694E-03     273.588E-03     448.120E-03     128.277E+06     98.4695E+06     8.39227E+06    -47.5433E+06    -32.8343E+06    -6.31671E+06     98.4695E+06    -18.4458E+06
            2075     138.582E-03     15.4367E-03     137.719E-03     373.441E-03    -98.2447E-03    -275.253E-03    -246.238E-03     344.426E-03    -98.2447E-03     258.179E-03     496.557E-03     145.233E+06     140.213E+06     29.6751E+06    -23.2656E+06    -15.1868E+06     21.5963E+06     140.213E+06    -2.96440E+06
            2076     134.565E-03     974.256E-06     134.562E-03     58.6095E-03    -28.7232E-03    -29.8820E-03    -29.4142E-03     58.5273E-03    -29.1089E-03    -4.97231E-03     58.7144E-03     31.2452E+06    -13.4103E+06    -27.5163E+06    -47.6834E+06    -27.3880E+06    -33.7057E+06    -27.5163E+06    -11.5150E+06
            2077     134.593E-03     1.94335E-03     134.579E-03     62.8924E-03    -30.0905E-03    -32.7801E-03    -32.5391E-03     62.6514E-03    -30.0905E-03    -9.31803E-03     63.2555E-03     42.6272E+06    -1.70417E+06    -21.1257E+06    -49.3497E+06    -28.2052E+06    -22.8487E+06    -21.1257E+06    -19.2148E+06
            2078     134.636E-03     2.91086E-03     134.605E-03     68.5355E-03    -31.8150E-03    -36.6998E-03    -36.2576E-03     68.0933E-03    -31.8150E-03    -13.1390E-03     69.5084E-03     57.8345E+06     6.45070E+06    -15.3745E+06    -57.4378E+06     -32.154E+06    -19.8100E+06    -14.3976E+06    -29.1807E+06
            2079     134.702E-03     3.87348E-03     134.647E-03     74.5339E-03    -33.8830E-03    -40.6227E-03    -40.0464E-03     73.9576E-03    -33.8830E-03    -14.4585E-03     76.5724E-03     74.8291E+06     13.9287E+06    -8.81456E+06    -68.5047E+06    -36.5119E+06    -21.1108E+06    -5.76790E+06    -38.3172E+06
            2080     134.797E-03     4.83131E-03     134.711E-03     80.8454E-03    -36.1721E-03    -44.6229E-03    -43.9543E-03     80.1768E-03    -36.1721E-03    -11.9069E-03     84.4687E-03     85.8448E+06     16.6774E+06    -6.58424E+06    -78.0408E+06    -42.8242E+06    -23.7393E+06    -1.38416E+06    -43.0642E+06
            2081     134.929E-03     5.78494E-03     134.805E-03     88.9916E-03    -38.7777E-03    -50.1654E-03    -49.1020E-03     87.9283E-03    -38.7777E-03    -4.11741E-03     94.5850E-03     96.6407E+06     19.2339E+06    -5.83989E+06    -87.0452E+06    -50.0057E+06    -23.1190E+06    -526.462E+03    -47.9096E+06
            2082     135.107E-03     6.73193E-03     134.940E-03     101.068E-03    -41.9899E-03    -59.0326E-03    -56.7087E-03     98.7444E-03    -41.9899E-03     9.74354E-03     108.873E-03     112.450E+06     23.7578E+06    -4.32778E+06    -99.6470E+06    -55.4763E+06    -26.9772E+06     2.23656E+06    -56.1369E+06
            2083     135.347E-03     7.66706E-03     135.130E-03     117.944E-03    -46.0007E-03    -71.9074E-03    -67.3995E-03     113.436E-03    -46.0007E-03     29.9746E-03     127.901E-03     128.137E+06     25.9568E+06    -2.51436E+06    -113.421E+06    -62.7061E+06    -30.8004E+06     3.52805E+06    -64.0429E+06
            2084     135.653E-03     8.58761E-03     135.381E-03     141.223E-03    -51.0780E-03    -90.1705E-03    -82.9159E-03     133.969E-03    -51.0780E-03     55.2346E-03     153.110E-03     138.195E+06     24.0287E+06    -3.73251E+06    -125.475E+06    -71.8169E+06    -36.5142E+06     3.15227E+06    -68.7373E+06
            2085     136.034E-03     9.48749E-03     135.703E-03     170.361E-03    -57.3638E-03    -113.046E-03    -103.194E-03     160.510E-03    -57.3638E-03     81.6769E-03     184.229E-03     145.557E+06     23.1027E+06    -5.93343E+06    -134.730E+06    -80.2001E+06    -41.8856E+06     4.52509E+06    -70.9586E+06
            2086     136.488E-03     10.3594E-03     136.095E-03     200.011E-03    -64.7318E-03    -135.308E-03    -123.708E-03     188.411E-03    -64.7318E-03     104.776E-03     215.938E-03     151.147E+06     26.2848E+06     3.76161E+06    -134.495E+06    -83.2044E+06    -38.5440E+06     17.2997E+06    -69.9366E+06
            2087     136.993E-03     11.2106E-03     136.534E-03     226.809E-03    -72.7588E-03    -154.085E-03    -141.575E-03     214.299E-03    -72.7588E-03     122.023E-03     245.664E-03     152.617E+06     49.9190E+06     15.4865E+06    -115.844E+06    -75.7260E+06    -24.6312E+06     49.9190E+06    -58.8413E+06
            2088     137.546E-03     12.0435E-03     137.018E-03     249.879E-03    -80.8287E-03    -169.036E-03    -155.837E-03     236.681E-03    -80.8287E-03     136.943E-03     273.701E-03     150.142E+06     84.9189E+06     21.3173E+06    -85.9316E+06    -60.3458E+06    -4.26845E+06     84.9189E+06    -44.3093E+06
            2089     138.131E-03     12.8620E-03     137.530E-03     259.293E-03    -88.1493E-03    -171.223E-03    -156.738E-03     244.808E-03    -88.1493E-03     151.085E-03     290.456E-03     148.042E+06     106.944E+06     18.1912E+06    -61.1218E+06    -40.9249E+06    -2.00571E+06     106.944E+06    -31.7774E+06
            2090     138.700E-03     13.6938E-03     138.022E-03     261.485E-03    -93.9313E-03    -167.648E-03    -150.308E-03     244.145E-03    -93.9313E-03     167.884E-03     306.185E-03     150.699E+06     123.745E+06     12.1118E+06    -45.2959E+06    -30.5940E+06    -2.59010E+06     123.745E+06    -19.3315E+06
            2091     139.250E-03     14.5540E-03     138.488E-03     285.435E-03    -98.4442E-03    -186.996E-03    -160.232E-03     258.672E-03    -98.4442E-03     216.474E-03     366.010E-03     150.354E+06     126.791E+06     9.33760E+06    -42.3655E+06    -17.0234E+06    -16.0044E+06     126.791E+06    -17.0062E+06
            2092     139.892E-03     15.4123E-03     139.040E-03     305.789E-03    -102.348E-03    -203.535E-03    -170.662E-03     272.916E-03    -102.348E-03     244.226E-03     415.854E-03     150.290E+06     127.200E+06      22.875E+06    -43.5955E+06    -20.9993E+06     278.744E+03     127.200E+06    -17.8688E+06
            2093     135.639E-03     955.390E-06     135.636E-03     93.2637E-03    -46.0356E-03    -47.2258E-03    -46.7749E-03     93.0892E-03    -46.3120E-03    -9.45540E-03     93.3196E-03     55.8255E+06     44.2507E+06     39.5527E+06    -13.5534E+06     40.9339E+06    -11.2928E+06     40.6090E+06    -9.56453E+06
            2094     135.670E-03     1.91221E-03     135.657E-03     97.6077E-03    -47.4397E-03    -50.1383E-03    -49.6999E-03     97.1693E-03    -47.4397E-03    -15.8266E-03     97.7744E-03     54.1665E+06     43.2108E+06     37.8598E+06    -13.2420E+06     36.1720E+06    -8.26569E+06     39.9223E+06    -12.1955E+06
            2095     135.721E-03     2.86020E-03     135.691E-03     106.035E-03    -49.5930E-03    -56.4135E-03    -55.5483E-03     105.169E-03    -49.5930E-03    -23.4498E-03     106.531E-03     57.6983E+06     47.9342E+06     38.5177E+06    -13.4169E+06     29.5712E+06    -3.86242E+06     47.3263E+06    -14.6751E+06
            2096     135.795E-03     3.80144E-03     135.741E-03     116.511E-03    -52.6781E-03    -63.7940E-03    -62.3094E-03     115.027E-03    -52.6781E-03    -32.3973E-03     117.690E-03     69.0311E+06     54.8565E+06     36.0359E+06    -20.9021E+06     20.8270E+06    -5.69321E+06     54.8565E+06    -16.9876E+06
            2097     135.894E-03     4.73683E-03     135.812E-03     128.737E-03    -56.4527E-03    -72.2138E-03    -69.8304E-03     126.354E-03    -56.4527E-03    -42.8741E-03     131.117E-03     78.5943E+06     59.6983E+06     31.2225E+06    -27.7277E+06     14.0983E+06    -10.6034E+06     59.6983E+06    -19.7381E+06
            2098     136.029E-03     5.66199E-03     135.911E-03     142.362E-03    -61.0073E-03    -81.3002E-03    -77.5913E-03     138.653E-03    -61.0073E-03    -54.8540E-03     146.534E-03     84.7504E+06     64.7704E+06     29.1328E+06    -29.1634E+06     8.51119E+06    -8.54176E+06     64.7704E+06    -23.0314E+06
            2099     136.212E-03     6.57315E-03     136.053E-03     155.864E-03    -66.3787E-03    -89.4474E-03    -83.9306E-03     150.348E-03    -66.3787E-03    -66.9823E-03     162.626E-03     94.7721E+06     71.0884E+06     26.8034E+06    -32.1964E+06     1.84077E+06    -7.23381E+06     71.0884E+06    -25.5213E+06
            2100     136.449E-03     7.47139E-03     136.244E-03     168.481E-03    -72.3925E-03    -96.0872E-03    -88.1461E-03     160.540E-03    -72.3925E-03    -77.6789E-03     178.718E-03     107.392E+06     72.2401E+06     23.2210E+06    -43.2196E+06    -10.4682E+06    -9.53045E+06     72.2401E+06    -27.5003E+06
            2101     136.753E-03     8.35527E-03     136.497E-03     179.891E-03    -79.1052E-03    -100.847E-03    -90.0972E-03     169.141E-03    -79.1052E-03    -83.9847E-03     194.265E-03     114.551E+06     70.8928E+06     17.9037E+06    -51.7302E+06    -19.6408E+06    -14.1857E+06     70.8928E+06    -28.7179E+06
            2102     137.133E-03     9.21793E-03     136.823E-03     188.120E-03    -84.8827E-03    -103.319E-03    -88.9872E-03     175.291E-03    -86.3855E-03    -81.4827E-03     207.226E-03     119.025E+06     71.3440E+06     12.6455E+06    -57.4872E+06    -24.4158E+06    -20.4258E+06     71.3440E+06    -28.1743E+06
            2103     137.580E-03     10.0674E-03     137.211E-03     192.877E-03    -84.1566E-03    -108.742E-03    -85.5345E-03     179.320E-03    -93.8074E-03    -70.1664E-03     217.728E-03     124.562E+06     77.5393E+06     15.0649E+06    -57.8825E+06    -26.4415E+06    -16.3761E+06     77.5393E+06    -30.2013E+06
            2104     138.092E-03     10.9061E-03     137.661E-03     195.872E-03    -77.3540E-03    -118.499E-03    -82.2373E-03     183.280E-03    -101.023E-03    -52.1805E-03     228.343E-03     128.019E+06     85.3539E+06     12.2450E+06    -53.7982E+06    -25.5029E+06    -16.0504E+06     85.3539E+06    -28.6445E+06
            2105     138.652E-03     11.7338E-03     138.155E-03     192.323E-03    -65.8305E-03    -126.507E-03    -75.8678E-03     183.199E-03    -107.346E-03    -20.6660E-03     233.301E-03     127.327E+06     97.0184E+06     12.7529E+06    -43.2736E+06    -23.4034E+06    -7.11738E+06     97.0184E+06    -21.6522E+06
            2106     139.242E-03     12.5709E-03     138.673E-03     180.211E-03    -53.8984E-03    -126.421E-03    -62.2811E-03     173.857E-03    -111.683E-03     16.0293E-03     229.861E-03     130.532E+06     110.481E+06     18.2924E+06    -35.1195E+06    -20.2149E+06     3.38778E+06     110.481E+06    -20.3593E+06
            2107     139.805E-03     13.4548E-03     139.156E-03     182.032E-03    -56.7125E-03    -125.407E-03    -59.8056E-03     174.047E-03    -114.328E-03     33.6672E-03     243.641E-03     153.117E+06     124.339E+06     12.6333E+06    -47.6616E+06    -19.8373E+06    -15.1910E+06     124.339E+06    -9.03598E+06
            2108     140.387E-03     14.3298E-03     139.654E-03     186.818E-03    -53.3038E-03    -133.574E-03    -60.3999E-03     176.426E-03    -116.086E-03     60.8255E-03     268.951E-03     154.405E+06     139.315E+06     24.6681E+06    -35.8946E+06    -3.39529E+06    -7.83115E+06     139.315E+06    -6.53609E+06
            2109     141.007E-03     15.1835E-03     140.187E-03     168.344E-03    -34.3660E-03    -134.095E-03    -33.6747E-03     149.145E-03    -115.588E-03     102.343E-03     254.201E-03     122.546E+06     107.697E+06     22.9146E+06    -30.5713E+06     5.06600E+06     6.69862E+06     88.2753E+06    -12.2917E+06


