********************************************************************************
Field Output Report, written Mon Apr 21 02:07:30 2025

Source 1
---------

   ODB: F:/Abaqus_calc/Vel_20/odb/Correct/1020_2a_40_rd_1500_cal_100_v_20_f_050.odb
   Step: Step-1
   Frame: Increment   8015659: Step Time =   0.8763

Loc 1 : Nodal values from source 1

Output sorted by column "Nodal Label".

Field Output reported at nodes for region: DIE_2A_40_D0_36-1.Region_1
   Computation algorithm: EXTRAPOLATE_COMPUTE_AVERAGE
   Averaged at nodes
   Averaging regions: ODB_REGIONS

      Node Label  COORD.Magnitude     COORD.COOR1     COORD.COOR2
                          @Loc 1          @Loc 1          @Loc 1
------------------------------------------------------------------
               1     187.741E-03     20.5329E-03     186.615E-03


Field Output reported at nodes for region: DIE_2A_40_D0_36-1.Region_2
   Computation algorithm: EXTRAPOLATE_COMPUTE_AVERAGE
   Averaged at nodes
   Averaging regions: ODB_REGIONS

      Node Label  COORD.Magnitude     COORD.COOR1     COORD.COOR2
                          @Loc 1          @Loc 1          @Loc 1
------------------------------------------------------------------
               1     187.741E-03     20.5329E-03     186.615E-03


Field Output reported at nodes for part: WIRE_1-1
   Computation algorithm: EXTRAPOLATE_COMPUTE_AVERAGE
   Averaged at nodes
   Averaging regions: ODB_REGIONS

      Node Label  COORD.Magnitude     COORD.COOR1     COORD.COOR2    PE.Max. Prin    PE.Mid. Prin    PE.Min. Prin         PE.PE11         PE.PE22         PE.PE33         PE.PE12            PEEQ         S.Mises     S.Max. Prin     S.Mid. Prin     S.Min. Prin           S.S11           S.S22           S.S33           S.S12
                          @Loc 1          @Loc 1          @Loc 1          @Loc 1          @Loc 1          @Loc 1          @Loc 1          @Loc 1          @Loc 1          @Loc 1          @Loc 1          @Loc 1          @Loc 1          @Loc 1          @Loc 1          @Loc 1          @Loc 1          @Loc 1          @Loc 1
----------------------------------------------------------------------------------------------------------------------------------------------------------------------------------------------------------------------------------------------------------------------------------------------------------------------------------
               1     83.1970E-03     14.8942E-03     81.8530E-03     384.824E-03    -190.298E-03    -194.209E-03    -189.561E-03     380.175E-03    -190.298E-03     103.334E-03     487.949E-03     78.8702E+06     84.1620E+06     62.7850E+06    -3.19266E+06    -3.19185E+06     62.7842E+06     84.1620E+06    -226.821E+03
               2     80.1505E-03     24.2663E-09     80.1505E-03     381.009E-03    -189.914E-03    -191.114E-03    -190.441E-03     381.004E-03    -190.581E-03    -3.52841E-03     381.530E-03     185.277E+06    -119.839E+06    -130.605E+06    -310.262E+06    -125.830E+06    -310.229E+06    -124.647E+06    -480.909E+03
               3     5.77019E-06    -5.72569E-06     715.256E-09     626.961E-03    -311.062E-03    -315.863E-03    -311.023E-03     626.923E-03    -315.863E-03     12.0457E-03     628.104E-03     126.515E+06    -43.6392E+06    -45.4986E+06    -171.073E+06    -45.7667E+06    -170.805E+06    -43.6392E+06    -5.79647E+06
               4     14.2908E-03     14.2908E-03     715.256E-09     795.794E-03    -211.152E-03    -583.833E-03    -547.051E-03     759.012E-03    -211.152E-03     444.491E-03     894.490E-03     240.657E+06     139.278E+06     9.18119E+06    -138.424E+06     22.0463E+06    -21.1929E+06     9.18119E+06     137.158E+06
               5     163.446E-03     14.5796E-03     162.795E-03     106.676E-03     84.9513E-03    -191.611E-03     105.927E-03     85.6996E-03    -191.611E-03     7.92332E-03     193.414E-03     113.493E+06     71.4918E+06     61.3282E+06    -46.7409E+06     35.8008E+06    -21.2135E+06     71.4918E+06     45.9029E+06
               6     156.101E-03     2.16761E-06     156.101E-03     180.883E-03    -89.3969E-03    -91.4739E-03    -91.2462E-03     180.655E-03    -89.3969E-03    -15.7412E-03     180.900E-03     46.7032E+06     38.2781E+06     34.2171E+06    -10.3230E+06     32.4085E+06    -8.51439E+06     38.2781E+06    -8.79117E+06
               7     82.9109E-03     14.0664E-03     81.7089E-03     405.424E-03    -190.296E-03    -215.030E-03    -194.436E-03     384.829E-03    -190.296E-03     202.828E-03     570.221E-03     79.0082E+06     81.8580E+06     61.7179E+06    -5.26112E+06    -5.26037E+06     61.7172E+06     81.8580E+06    -188.018E+03
               8     82.3579E-03     13.2425E-03     81.2863E-03     408.513E-03    -190.014E-03    -218.503E-03    -193.625E-03     383.635E-03    -190.014E-03     238.627E-03     605.569E-03     79.2895E+06     76.5649E+06     56.6990E+06    -10.7626E+06    -10.7488E+06     56.6852E+06     76.5649E+06     562.379E+03
               9     81.9925E-03     12.4131E-03     81.0474E-03     393.671E-03    -189.867E-03    -203.655E-03    -187.295E-03     377.311E-03    -189.867E-03     194.098E-03     574.214E-03     80.8701E+06     73.1103E+06     50.7748E+06    -16.5726E+06    -16.5451E+06     50.7473E+06     73.1103E+06     1.12569E+06
              10     81.5993E-03     11.5837E-03     80.7729E-03     390.736E-03    -190.049E-03    -200.651E-03    -184.876E-03     374.961E-03    -190.049E-03     189.362E-03     576.797E-03     85.2865E+06     73.6833E+06     47.5831E+06    -21.5917E+06    -21.5664E+06     47.5578E+06     73.6833E+06     1.11821E+06
              11     81.2739E-03     10.7573E-03     80.5588E-03     383.446E-03    -190.182E-03    -193.377E-03    -182.727E-03     372.796E-03    -190.182E-03     154.976E-03     557.648E-03       90.16E+06     72.9722E+06     42.6739E+06    -28.4243E+06    -28.4067E+06     42.6563E+06     72.9722E+06     833.062E+03
              12     80.9933E-03     9.92918E-03     80.3824E-03     380.216E-03    -189.652E-03    -190.919E-03    -182.715E-03     372.609E-03    -190.250E-03     130.098E-03     540.203E-03     90.9476E+06     64.2786E+06     35.4905E+06    -37.5312E+06    -37.5055E+06     35.4649E+06     64.2786E+06     357.045E+03
              13     80.7589E-03     9.10004E-03     80.2446E-03     377.245E-03    -187.519E-03    -190.280E-03    -183.168E-03     372.894E-03    -190.280E-03     97.0153E-03     513.677E-03     86.9349E+06     48.9051E+06     27.5085E+06    -46.6789E+06    -46.6575E+06     27.4871E+06     48.9051E+06     210.808E+03
              14     80.5912E-03     8.27150E-03     80.1656E-03     376.284E-03    -186.182E-03    -190.266E-03    -184.102E-03     374.204E-03    -190.266E-03     67.3763E-03     487.944E-03     80.6718E+06     31.1692E+06     17.5234E+06    -55.4030E+06    -55.3900E+06     17.5104E+06     31.1692E+06    -365.166E+03
              15     80.4582E-03     7.44387E-03     80.1132E-03     376.926E-03    -186.724E-03    -190.249E-03    -185.668E-03     375.871E-03    -190.249E-03     47.9749E-03     467.503E-03     76.7333E+06     16.5686E+06     7.34365E+06    -64.3562E+06    -64.3347E+06     7.32210E+06     16.5686E+06    -34.4362E+03
              16     80.3540E-03     6.61749E-03     80.0811E-03     377.288E-03    -187.373E-03    -190.310E-03    -186.900E-03     376.814E-03    -190.310E-03     31.7097E-03     448.225E-03     70.3153E+06     1.82315E+06    -30.7151E+06    -73.2662E+06    -73.2211E+06    -30.7602E+06     1.82315E+06     779.348E+03
              17     80.2764E-03     5.79142E-03     80.0672E-03     377.278E-03    -187.470E-03    -190.321E-03    -187.302E-03     377.111E-03    -190.321E-03     18.7344E-03     430.960E-03     73.0772E+06    -17.3322E+06    -75.8085E+06    -98.8163E+06    -82.5930E+06    -92.0318E+06    -17.3322E+06     570.101E+03
              18     80.2253E-03     4.96230E-03     80.0717E-03     377.552E-03    -187.464E-03    -190.425E-03    -187.415E-03     377.503E-03    -190.425E-03     9.88484E-03     416.666E-03     93.5265E+06    -36.9516E+06    -92.1441E+06    -143.914E+06    -92.1565E+06    -143.902E+06    -36.9516E+06     423.015E+03
              19     80.1879E-03     4.13331E-03     80.0813E-03     379.071E-03    -188.599E-03    -190.574E-03    -188.590E-03     379.062E-03    -190.574E-03     2.50760E-03     406.023E-03     116.833E+06    -56.4573E+06    -100.685E+06    -188.552E+06    -100.692E+06    -188.546E+06    -56.4573E+06     262.608E+03
              20     80.1643E-03     3.30717E-03     80.0960E-03     380.575E-03    -189.951E-03    -190.709E-03    -190.034E-03     380.569E-03    -190.619E-03    -3.03488E-03     397.610E-03     137.643E+06    -75.9130E+06    -108.775E+06    -226.828E+06    -108.776E+06    -226.826E+06    -75.9130E+06     164.772E+03
              21     80.1548E-03     2.48187E-03     80.1164E-03     380.927E-03    -190.348E-03    -190.681E-03    -190.451E-03     380.915E-03    -190.566E-03    -5.07857E-03     390.470E-03     155.621E+06    -94.9774E+06    -115.957E+06    -259.890E+06    -115.966E+06    -259.880E+06    -94.9774E+06     525.742E+03
              22     80.1497E-03     1.65291E-03     80.1327E-03     380.664E-03    -190.257E-03    -190.494E-03    -190.291E-03     380.653E-03    -190.448E-03    -5.07002E-03     385.266E-03     169.065E+06    -112.094E+06    -122.203E+06    -285.905E+06    -122.054E+06    -285.884E+06    -112.264E+06    -99.2483E+03
              23     80.1498E-03     826.622E-06     80.1456E-03     380.757E-03    -190.043E-03    -190.774E-03    -190.322E-03     380.749E-03    -190.486E-03    -4.19985E-03     382.305E-03     179.581E+06    -119.925E+06    -128.020E+06    -303.378E+06    -125.474E+06    -303.348E+06    -122.500E+06    -719.068E+03
              24     78.6901E-03     902.105E-09     78.6901E-03     380.924E-03    -189.368E-03    -191.615E-03    -191.611E-03     380.920E-03    -189.368E-03    -3.20348E-03     381.434E-03     186.984E+06    -125.112E+06    -136.300E+06    -317.437E+06    -131.094E+06    -317.413E+06    -130.342E+06    -1.12398E+06
              25     77.2249E-03     1.89638E-06     77.2249E-03     381.568E-03    -189.449E-03    -192.151E-03    -192.149E-03     381.566E-03    -189.449E-03    -1.78552E-03     382.054E-03     185.877E+06    -125.807E+06    -134.209E+06    -315.736E+06    -129.011E+06    -315.703E+06    -131.038E+06     1.99094E+06
              26     75.7602E-03    -255.876E-09     75.7602E-03     382.410E-03    -190.139E-03    -192.313E-03    -191.126E-03     382.410E-03    -191.326E-03    -128.708E-06     382.905E-03     185.479E+06    -123.478E+06    -128.238E+06    -311.286E+06    -126.700E+06    -311.236E+06    -125.067E+06     336.905E+03
              27     74.2919E-03    -1.81534E-06     74.2919E-03     381.719E-03    -190.210E-03    -191.561E-03    -190.370E-03     381.714E-03    -191.397E-03    -2.02258E-03     382.206E-03     186.210E+06    -122.523E+06    -126.295E+06    -310.590E+06    -122.554E+06    -310.558E+06    -126.295E+06    -267.307E+03
              28     72.8354E-03     1.96923E-06     72.8354E-03     380.023E-03    -189.823E-03    -190.299E-03    -190.293E-03     380.017E-03    -189.823E-03    -3.25553E-03     380.559E-03     184.645E+06    -123.739E+06    -128.845E+06    -310.883E+06    -126.682E+06    -310.863E+06    -125.923E+06     216.585E+03
              29     71.3732E-03    -1.35888E-06     71.3732E-03     380.141E-03    -189.212E-03    -190.967E-03    -190.961E-03     380.136E-03    -189.212E-03    -3.37546E-03     380.670E-03     181.588E+06    -126.553E+06    -131.155E+06    -310.395E+06    -129.493E+06    -310.378E+06    -128.232E+06     57.1913E+03
              30     69.9113E-03     3.75793E-06     69.9113E-03     380.751E-03    -189.526E-03    -191.188E-03    -190.964E-03     380.746E-03    -189.745E-03    -2.72312E-03     381.218E-03     179.117E+06    -125.821E+06    -127.638E+06    -305.834E+06    -125.969E+06    -305.824E+06    -127.499E+06     1.15572E+06
              31     68.4482E-03    -4.14002E-06     68.4482E-03     380.820E-03    -189.707E-03    -191.113E-03    -190.887E-03     380.813E-03    -189.926E-03    -3.34183E-03     381.342E-03     177.840E+06    -126.984E+06    -128.194E+06    -305.424E+06    -128.194E+06    -305.423E+06    -126.984E+06     143.168E+03
              32     66.9865E-03     6.12419E-06     66.9865E-03     381.026E-03    -189.137E-03    -191.898E-03    -191.891E-03     381.018E-03    -189.137E-03    -3.15988E-03     381.578E-03     178.964E+06    -126.681E+06    -128.980E+06    -306.784E+06    -127.759E+06    -306.776E+06    -127.909E+06    -920.542E+03
              33     65.5228E-03    -3.50732E-06     65.5228E-03     381.182E-03    -188.889E-03    -192.295E-03    -190.462E-03     381.180E-03    -190.721E-03    -1.49784E-03     381.794E-03     182.579E+06    -123.724E+06    -125.970E+06    -307.415E+06    -124.756E+06    -307.400E+06    -124.952E+06    -2.89894E+03
              34     64.0592E-03     429.271E-09     64.0592E-03     381.682E-03    -189.588E-03    -192.110E-03    -189.586E-03     381.680E-03    -192.110E-03    -2.43493E-03     382.327E-03     182.063E+06    -124.743E+06    -128.566E+06    -308.681E+06    -125.803E+06    -308.639E+06    -127.549E+06    -962.132E+03
              35     62.5944E-03    -1.62555E-06     62.5944E-03     381.515E-03    -190.412E-03    -191.122E-03    -190.428E-03     381.511E-03    -191.102E-03    -2.88440E-03     382.136E-03     179.616E+06    -128.216E+06    -132.367E+06    -309.867E+06    -129.640E+06    -309.789E+06    -131.021E+06     187.960E+03
              36     61.1323E-03     1.64379E-06     61.1323E-03     380.942E-03    -189.317E-03    -191.626E-03    -191.620E-03     380.936E-03    -189.317E-03    -3.63420E-03     381.524E-03     179.349E+06    -124.334E+06    -126.249E+06    -304.632E+06    -125.724E+06    -304.588E+06    -124.904E+06     2.15988E+06
              37     59.6718E-03     2.18982E-06     59.6718E-03     381.124E-03    -188.529E-03    -192.595E-03    -192.591E-03     381.121E-03    -188.529E-03    -2.60846E-03     381.766E-03     178.786E+06    -123.086E+06    -127.665E+06    -304.093E+06    -127.106E+06    -304.083E+06    -123.656E+06    -720.583E+03
              38     58.2043E-03     813.440E-09     58.2043E-03     380.833E-03    -189.235E-03    -191.602E-03    -191.011E-03     380.831E-03    -189.825E-03    -1.94648E-03     381.481E-03     177.124E+06    -124.336E+06    -132.877E+06    -305.575E+06    -128.359E+06    -305.562E+06    -128.867E+06    -341.322E+03
              39     56.7465E-03    -1.86003E-06     56.7465E-03     380.524E-03    -189.783E-03    -190.759E-03    -189.781E-03     380.522E-03    -190.759E-03    -1.93718E-03     381.107E-03     172.945E+06    -125.813E+06    -133.553E+06    -302.495E+06    -129.035E+06    -302.482E+06    -130.344E+06     1.46284E+06
              40     55.2794E-03     1.18300E-06     55.2794E-03     380.647E-03    -190.018E-03    -190.652E-03    -190.262E-03     380.644E-03    -190.404E-03    -2.43230E-03     381.275E-03     167.682E+06    -125.128E+06    -132.836E+06    -296.527E+06    -128.347E+06    -296.516E+06    -129.627E+06     593.998E+03
              41     53.8225E-03    -905.142E-09     53.8225E-03     380.939E-03    -189.493E-03    -191.521E-03    -191.517E-03     380.935E-03    -189.493E-03    -2.95291E-03     381.515E-03     167.173E+06    -119.347E+06    -129.429E+06    -291.331E+06    -124.933E+06    -291.327E+06    -123.847E+06     162.400E+03
              42     52.3555E-03     3.99676E-06     52.3555E-03     381.345E-03    -189.184E-03    -192.230E-03    -192.228E-03     381.343E-03    -189.184E-03    -2.47807E-03     382.000E-03     170.968E+06    -119.466E+06    -130.451E+06    -295.661E+06    -125.053E+06    -295.657E+06    -124.868E+06     27.0685E+03
              43     50.8919E-03    -2.00987E-06     50.8919E-03     380.965E-03    -189.629E-03    -191.351E-03    -190.894E-03     380.963E-03    -190.084E-03    -2.09953E-03     381.682E-03     168.166E+06    -121.111E+06    -131.844E+06    -294.386E+06    -126.464E+06    -294.363E+06    -126.514E+06     859.694E+03
              44     49.4320E-03     1.24813E-06     49.4320E-03     381.081E-03    -189.791E-03    -191.320E-03    -190.860E-03     381.077E-03    -190.246E-03    -2.88692E-03     381.809E-03     164.811E+06    -124.729E+06    -135.721E+06    -294.761E+06    -130.128E+06    -294.691E+06    -130.391E+06    -754.461E+03
              45     47.9649E-03     461.433E-09     47.9649E-03     380.419E-03    -189.529E-03    -190.926E-03    -190.599E-03     380.415E-03    -189.852E-03    -2.47458E-03     381.114E-03     166.629E+06    -125.753E+06    -136.292E+06      -297.4E+06    -130.696E+06    -297.333E+06    -131.416E+06    -845.155E+03
              46     46.5067E-03    -988.710E-09     46.5067E-03     381.353E-03    -190.157E-03    -191.228E-03    -190.904E-03     381.353E-03    -190.480E-03    -1.16944E-03     381.976E-03     169.031E+06    -124.005E+06    -133.716E+06    -297.682E+06    -128.917E+06    -297.646E+06    -128.840E+06    -69.5181E+03
              47     45.0398E-03     2.18878E-06     45.0398E-03     382.967E-03    -190.904E-03    -192.084E-03    -191.650E-03     382.964E-03    -191.335E-03    -2.18577E-03     383.628E-03     170.528E+06    -124.507E+06    -131.499E+06    -298.408E+06    -126.704E+06    -298.367E+06    -129.343E+06     99.7572E+03
              48     43.5755E-03    -2.87325E-06     43.5755E-03     380.818E-03    -190.168E-03    -190.644E-03    -190.159E-03     380.810E-03    -190.644E-03    -4.15335E-03     381.440E-03     167.929E+06    -126.086E+06    -129.220E+06    -295.557E+06    -128.286E+06    -295.514E+06    -127.064E+06     53.8173E+03
              49     42.1157E-03     2.83562E-06     42.1157E-03     379.640E-03    -188.460E-03    -191.210E-03    -191.159E-03     379.634E-03    -188.505E-03    -3.31159E-03     380.227E-03     167.047E+06    -129.268E+06    -131.234E+06    -297.290E+06    -130.295E+06    -297.252E+06    -130.245E+06    -125.838E+03
              50     40.6514E-03     1.76474E-06     40.6514E-03     380.722E-03    -188.887E-03    -191.907E-03    -191.592E-03     380.722E-03    -189.202E-03    -858.578E-06     381.328E-03     166.904E+06    -126.701E+06    -128.838E+06    -294.663E+06    -128.867E+06    -294.634E+06    -126.701E+06     2.18167E+06
              51     39.1887E-03    -2.27386E-06     39.1887E-03     380.973E-03    -189.866E-03    -191.151E-03    -190.833E-03     380.970E-03    -190.181E-03    -2.13143E-03     381.692E-03     160.026E+06    -130.512E+06    -131.746E+06    -291.149E+06    -131.759E+06    -291.137E+06    -130.512E+06     1.10865E+06
              52     37.7274E-03     3.82517E-06     37.7274E-03     380.544E-03    -189.247E-03    -191.310E-03    -191.307E-03     380.541E-03    -189.247E-03    -2.29346E-03     381.295E-03     159.397E+06    -130.004E+06    -131.158E+06    -289.972E+06    -130.104E+06    -289.960E+06    -131.071E+06    -908.604E+03
              53     36.2674E-03    -2.00012E-06     36.2674E-03     380.748E-03    -189.442E-03    -191.297E-03    -190.533E-03     380.746E-03    -190.204E-03    -1.88390E-03     381.347E-03     166.323E+06    -123.174E+06    -125.607E+06    -290.700E+06    -123.188E+06    -290.686E+06    -125.607E+06    -1.42813E+06
              54     34.8000E-03     706.626E-09     34.8000E-03     379.762E-03    -189.446E-03    -190.310E-03    -189.541E-03     379.755E-03    -190.208E-03    -3.89239E-03     380.370E-03     163.467E+06    -128.931E+06    -130.836E+06    -293.341E+06    -128.934E+06    -293.338E+06    -130.836E+06    -112.787E+03
              55     33.3463E-03    -550.182E-09     33.3463E-03     380.255E-03    -189.667E-03    -190.620E-03    -190.614E-03     380.249E-03    -189.667E-03    -2.25135E-03     380.995E-03     166.291E+06    -130.023E+06    -132.795E+06    -297.677E+06    -132.259E+06    -297.676E+06    -130.561E+06     372.013E+03
              56     31.8783E-03     1.99766E-06     31.8783E-03     382.515E-03    -189.546E-03    -193.002E-03    -192.997E-03     382.510E-03    -189.546E-03    -2.33136E-03     383.153E-03     170.540E+06    -121.527E+06    -127.248E+06    -294.851E+06    -123.762E+06    -294.851E+06    -125.013E+06     196.410E+03
              57     30.4106E-03     2.23275E-06     30.4106E-03     379.682E-03    -188.083E-03    -191.610E-03    -190.684E-03     379.677E-03    -189.004E-03    -2.72325E-03     380.440E-03     164.331E+06    -120.961E+06    -126.683E+06    -288.075E+06    -123.243E+06    -288.029E+06    -124.447E+06     2.01614E+06
              58     28.9595E-03    -3.76646E-06     28.9595E-03     378.801E-03    -188.571E-03    -190.254E-03    -188.570E-03     378.799E-03    -190.254E-03    -1.38034E-03     379.813E-03     153.562E+06    -132.003E+06    -134.687E+06    -286.883E+06    -134.315E+06    -286.807E+06    -132.451E+06     425.119E+03
              59     27.4918E-03     2.47782E-06     27.4918E-03     380.719E-03    -189.512E-03    -191.229E-03    -190.461E-03     380.713E-03    -190.274E-03    -3.57190E-03     381.479E-03     155.885E+06    -129.776E+06    -131.421E+06    -286.476E+06    -129.807E+06    -286.446E+06    -131.421E+06    -1.66423E+06
              60     26.0320E-03    -953.647E-09     26.0320E-03     379.607E-03    -189.150E-03    -190.472E-03    -190.466E-03     379.601E-03    -189.150E-03    -2.67419E-03     380.388E-03     157.623E+06    -124.649E+06    -127.691E+06    -283.770E+06    -126.558E+06    -283.707E+06    -125.845E+06     1.95976E+06
              61     24.5667E-03     1.58551E-06     24.5667E-03     377.983E-03    -188.308E-03    -189.702E-03    -189.695E-03     377.976E-03    -188.308E-03    -3.06417E-03     378.955E-03     143.952E+06    -129.074E+06    -131.983E+06    -274.457E+06    -130.995E+06    -274.383E+06    -130.136E+06     1.25213E+06
              62     23.1183E-03     29.7510E-09     23.1183E-03     374.582E-03    -186.506E-03    -188.088E-03    -187.524E-03     374.572E-03    -187.061E-03    -4.52419E-03     375.326E-03     144.574E+06    -131.334E+06    -132.766E+06    -276.617E+06    -131.779E+06    -276.543E+06    -132.396E+06    -3.06556E+06
              63     21.6666E-03    -903.535E-09     21.6666E-03     372.585E-03    -185.709E-03    -186.884E-03    -185.705E-03     372.581E-03    -186.884E-03    -2.79759E-03     373.199E-03     148.636E+06    -133.895E+06    -138.054E+06    -284.536E+06    -134.387E+06    -284.414E+06    -137.684E+06     -68.216E+03
              64     20.2101E-03    -130.919E-09     20.2101E-03     370.863E-03    -184.834E-03    -186.055E-03    -185.427E-03     370.855E-03    -185.455E-03    -3.85370E-03     371.568E-03     140.089E+06    -132.018E+06    -139.646E+06    -275.765E+06    -135.945E+06    -275.677E+06    -135.806E+06     3.47716E+06
              65     18.7673E-03     1.15178E-06     18.7673E-03     365.951E-03    -182.427E-03    -183.539E-03    -183.531E-03     365.944E-03    -182.427E-03    -3.57164E-03     366.510E-03     136.136E+06    -134.027E+06    -140.699E+06    -273.373E+06    -137.903E+06    -273.337E+06    -136.859E+06     667.131E+03
              66     17.3289E-03    -357.793E-09     17.3289E-03     360.052E-03    -179.758E-03    -180.297E-03    -180.258E-03     360.041E-03    -179.786E-03    -4.17086E-03     360.411E-03     136.720E+06    -129.926E+06    -135.362E+06    -269.283E+06    -132.578E+06    -269.235E+06    -132.758E+06     928.965E+03
              67     15.9058E-03     303.201E-09     15.9058E-03     351.077E-03    -175.148E-03    -175.940E-03    -175.887E-03     351.052E-03    -175.176E-03    -7.28875E-03     351.386E-03     128.855E+06    -127.542E+06    -133.243E+06    -259.152E+06    -130.189E+06    -259.109E+06    -130.639E+06     1.27372E+06
              68     14.4945E-03     849.200E-09     14.4945E-03     336.560E-03    -167.705E-03    -168.863E-03    -168.829E-03     336.526E-03    -167.705E-03    -8.29938E-03     336.788E-03     122.188E+06    -125.012E+06    -130.179E+06    -249.699E+06    -127.194E+06    -249.586E+06    -128.109E+06     2.20494E+06
              69     13.1040E-03    -203.485E-09     13.1040E-03     316.503E-03    -157.511E-03    -159.008E-03    -158.957E-03     316.453E-03    -157.511E-03    -9.70968E-03     316.694E-03     122.315E+06    -116.191E+06    -118.275E+06    -239.522E+06    -118.401E+06    -239.396E+06    -116.191E+06     3.52843E+06
              70     11.7483E-03     1.90896E-06     11.7483E-03     293.133E-03    -145.553E-03    -147.572E-03    -147.505E-03     293.066E-03    -145.553E-03    -10.8736E-03     293.346E-03     120.952E+06    -107.256E+06    -110.258E+06    -229.653E+06    -110.273E+06    -229.638E+06    -107.256E+06     1.03253E+06
              71     10.4251E-03    -415.443E-09     10.4251E-03     269.241E-03    -133.824E-03    -135.357E-03    -135.270E-03     269.154E-03    -133.824E-03    -11.8025E-03     269.464E-03     120.361E+06    -97.3156E+06    -104.837E+06    -221.254E+06    -100.330E+06    -221.227E+06    -101.849E+06     1.37789E+06
              72     9.13174E-03     1.29840E-06     9.13174E-03     251.743E-03    -125.068E-03    -126.633E-03    -126.570E-03     251.680E-03    -125.068E-03    -9.29248E-03     252.120E-03     111.568E+06    -97.9618E+06    -106.785E+06    -213.678E+06    -102.324E+06    -213.604E+06    -102.496E+06     2.80710E+06
              73     7.85853E-03     373.744E-09     7.85853E-03     256.295E-03    -127.392E-03    -128.901E-03    -128.882E-03     256.276E-03    -127.392E-03    -742.561E-06     257.028E-03     95.6557E+06    -109.175E+06    -113.548E+06    -206.881E+06    -113.846E+06    -206.499E+06    -109.259E+06    -2.37312E+06
              74     6.55317E-03     707.308E-09     6.55317E-03     298.311E-03    -148.649E-03    -149.641E-03    -149.122E-03     298.223E-03    -149.080E-03     11.2471E-03     299.300E-03     90.4028E+06    -115.154E+06    -117.296E+06    -206.593E+06    -115.763E+06    -205.984E+06    -117.296E+06    -323.426E+03
              75     5.16459E-03    -1.27131E-06     5.16459E-03     382.278E-03    -190.771E-03    -191.448E-03    -190.539E-03     382.045E-03    -191.448E-03     23.0067E-03     383.406E-03     92.7494E+06    -102.895E+06    -105.931E+06    -197.120E+06    -103.269E+06    -196.746E+06    -105.931E+06     5.74419E+06
              76     3.62269E-03     1.20973E-06     3.62269E-03     493.805E-03    -245.793E-03    -248.085E-03    -247.558E-03     493.524E-03    -246.038E-03     28.7307E-03     495.137E-03     102.029E+06    -73.1984E+06    -74.6702E+06    -175.954E+06    -73.4334E+06    -175.719E+06    -74.6702E+06     4.90513E+06
              77     1.87612E-03     2.07383E-06     1.87612E-03     590.067E-03    -292.855E-03    -297.302E-03    -294.753E-03     589.918E-03    -295.256E-03     20.7123E-03     591.379E-03     117.943E+06    -47.6594E+06    -49.0822E+06    -166.307E+06    -48.8573E+06    -166.039E+06    -48.1525E+06    -187.025E+03
              78     725.356E-06     725.356E-06     715.256E-09     622.368E-03    -308.751E-03    -313.517E-03    -308.673E-03     622.290E-03    -313.517E-03     16.4016E-03     623.401E-03     126.795E+06    -38.4484E+06    -43.3438E+06    -167.593E+06    -43.5067E+06    -167.431E+06    -38.4484E+06    -1.56587E+06
              79     1.45439E-03     1.45439E-03     715.256E-09     608.433E-03    -299.162E-03    -308.784E-03    -298.912E-03     608.183E-03    -308.784E-03     28.8784E-03     609.104E-03     141.164E+06    -31.1005E+06    -40.0624E+06    -176.532E+06    -40.0931E+06    -176.501E+06    -31.1005E+06     1.70048E+06
              80     2.19219E-03     2.19219E-03     715.256E-09     586.289E-03    -282.384E-03    -303.071E-03    -281.862E-03     585.767E-03    -303.071E-03     42.0998E-03     586.675E-03     154.899E+06    -28.6911E+06    -37.8549E+06    -187.967E+06    -37.8610E+06    -187.961E+06    -28.6911E+06     932.712E+03
              81     2.95145E-03     2.95145E-03     715.256E-09     557.872E-03    -261.874E-03    -295.355E-03    -261.125E-03     557.123E-03    -295.355E-03     49.3832E-03     558.540E-03     135.929E+06    -28.1793E+06    -32.8214E+06    -166.343E+06    -33.3411E+06    -165.824E+06    -28.1793E+06    -4.89856E+06
              82     3.72645E-03     3.72645E-03     715.256E-09     526.300E-03    -239.536E-03    -286.225E-03    -238.622E-03     525.387E-03    -286.225E-03     52.7729E-03     527.727E-03     91.5436E+06    -24.5488E+06    -28.9610E+06    -118.120E+06    -26.0657E+06    -117.077E+06    -28.4866E+06    -9.70596E+06
              83     4.52219E-03     4.52219E-03     715.256E-09     494.310E-03    -217.199E-03    -276.353E-03    -216.139E-03     493.249E-03    -276.353E-03     54.8125E-03     496.930E-03     48.3174E+06    -8.19764E+06    -27.4833E+06    -58.3873E+06    -16.9882E+06    -49.4342E+06    -27.6459E+06    -11.8941E+06
              84     5.33381E-03     5.33381E-03     715.256E-09     462.469E-03    -195.510E-03    -266.147E-03    -194.343E-03     461.302E-03    -266.147E-03     55.3407E-03     466.575E-03     34.8615E+06     21.4199E+06    -12.3429E+06    -14.4001E+06    -6.54441E+06     13.7267E+06    -12.5054E+06    -11.1144E+06
              85     6.16609E-03     6.16609E-03     715.256E-09     432.124E-03    -175.561E-03    -255.758E-03    -174.357E-03     430.920E-03    -255.758E-03     54.0232E-03     438.386E-03     39.3035E+06     45.4137E+06     13.7851E+06     2.25104E+06     3.37618E+06     44.2886E+06     13.7851E+06    -6.85931E+06
              86     7.01472E-03     7.01472E-03     715.256E-09     404.691E-03    -158.785E-03    -245.597E-03    -157.567E-03     403.473E-03    -245.597E-03     52.3236E-03     413.749E-03     38.9930E+06     54.1941E+06     30.7602E+06     9.28162E+06     9.88634E+06     53.5894E+06     30.7602E+06    -2.00305E+06
              87     7.87428E-03     7.87428E-03     715.256E-09     379.911E-03    -144.118E-03    -235.821E-03    -142.932E-03     378.725E-03    -235.821E-03     49.8078E-03     391.408E-03     40.7827E+06     56.4432E+06     44.8540E+06     12.0702E+06     12.2926E+06     56.2209E+06     44.8540E+06     3.11717E+06
              88     8.75032E-03     8.75032E-03     715.256E-09     358.725E-03    -132.194E-03    -226.395E-03    -131.123E-03     357.654E-03    -226.395E-03     45.8115E-03     373.372E-03     49.2864E+06     63.8328E+06     53.5555E+06     10.5393E+06     11.1157E+06     54.3481E+06     62.4638E+06     4.81736E+06
              89     9.63408E-03     9.63408E-03     715.256E-09     343.702E-03    -125.841E-03    -218.075E-03    -124.835E-03     342.696E-03    -218.075E-03     43.4180E-03     362.321E-03     57.1192E+06     73.8859E+06     44.6053E+06     9.08426E+06     9.98433E+06     43.7052E+06     73.8859E+06     5.53178E+06
              90     10.5165E-03     10.5165E-03     715.256E-09     335.089E-03    -125.081E-03    -210.836E-03    -124.177E-03     334.185E-03    -210.836E-03     40.6778E-03     357.031E-03     61.1638E+06     73.8390E+06     35.4616E+06     3.44994E+06     14.7984E+06     24.1132E+06     73.8390E+06    -6.70207E+06
              91     11.4090E-03     11.4090E-03     715.256E-09     339.018E-03    -135.097E-03    -204.689E-03    -134.391E-03     338.312E-03    -204.689E-03     36.4286E-03     362.353E-03     72.8573E+06     68.3234E+06     40.1672E+06    -13.5582E+06     15.6600E+06     10.9490E+06     68.3234E+06     8.42527E+06
              92     12.2804E-03     12.2804E-03     715.256E-09     366.136E-03    -166.182E-03    -200.706E-03    -165.382E-03     365.336E-03    -200.706E-03     41.1256E-03     393.710E-03     134.295E+06     94.3044E+06     28.8576E+06    -58.5064E+06     28.2931E+06    -2.64619E+06     39.0086E+06    -34.1265E+06
              93     13.1081E-03     13.1081E-03     715.256E-09     434.026E-03    -194.840E-03    -239.522E-03    -232.891E-03     433.080E-03    -200.525E-03     50.0339E-03     471.211E-03     130.266E+06     100.929E+06     42.9127E+06    -45.0116E+06      61.315E+06    -5.39735E+06     42.9127E+06    -46.9671E+06
              94     13.8930E-03     13.8930E-03     715.256E-09     638.707E-03    -206.374E-03    -431.712E-03    -412.868E-03     619.862E-03    -206.374E-03     248.500E-03     709.311E-03     157.487E+06     109.435E+06     41.6662E+06    -67.8602E+06     50.2297E+06    -8.65459E+06     41.6662E+06     73.3040E+06
              95     14.8887E-03     14.6623E-03     2.58709E-03     658.613E-03    -207.778E-03    -450.658E-03    -396.369E-03     604.324E-03    -207.778E-03     456.926E-03     838.969E-03     140.847E+06     63.2470E+06    -18.5948E+06    -98.4754E+06    -15.4709E+06    -36.5509E+06    -1.80139E+06     71.6057E+06
              96     15.2178E-03     14.7115E-03     3.89259E-03     493.470E-03    -201.628E-03    -291.948E-03    -231.481E-03     433.002E-03    -201.628E-03     417.852E-03     768.399E-03     86.2679E+06     19.1192E+06    -44.3371E+06    -78.9474E+06    -24.5070E+06    -52.1146E+06    -27.5436E+06    -31.8375E+06
              97     15.7327E-03     14.7997E-03     5.33728E-03     453.607E-03    -196.367E-03    -257.026E-03    -223.304E-03     419.886E-03    -196.367E-03     293.996E-03     662.642E-03     118.284E+06     61.2861E+06    -4.61084E+06    -73.3502E+06     24.1883E+06    -36.2524E+06    -4.61084E+06    -9.91266E+06
              98     16.3381E-03     14.8367E-03     6.84148E-03     441.891E-03    -192.608E-03    -249.090E-03    -233.662E-03     426.463E-03    -192.608E-03     203.219E-03     553.527E-03     93.0880E+06     55.3613E+06     17.3689E+06    -50.6163E+06    -3.32330E+06    -10.6900E+06     36.1272E+06     18.8220E+06
              99     17.0482E-03     14.8638E-03     8.34927E-03     446.750E-03    -190.582E-03    -255.351E-03    -245.740E-03     437.139E-03    -190.582E-03     160.961E-03     539.583E-03     64.5665E+06     47.8518E+06     21.5209E+06    -25.5713E+06    -5.54592E+06     1.49554E+06     47.8518E+06    -2.48503E+06
             100     17.8674E-03     14.8600E-03     9.92094E-03     446.521E-03    -189.639E-03    -256.077E-03    -248.141E-03     438.585E-03    -189.639E-03     147.927E-03     541.023E-03     61.6807E+06     56.5150E+06     30.1408E+06    -13.7389E+06     4.86156E+06     11.5404E+06     56.5150E+06     3.49986E+06
             101     18.7929E-03     14.8919E-03     11.4633E-03     434.632E-03    -189.122E-03    -245.376E-03    -235.935E-03     425.191E-03    -189.122E-03     159.091E-03     532.378E-03     56.0707E+06     60.6267E+06     25.3155E+06    -2.58195E+06    -2.56819E+06     25.3018E+06     60.6267E+06     62.1652E+03
             102     19.7606E-03     14.8933E-03     12.9874E-03     428.503E-03    -188.761E-03    -239.464E-03    -230.309E-03     419.348E-03    -188.761E-03     155.253E-03     529.206E-03     57.8129E+06     68.2006E+06     33.6180E+06     3.15428E+06     3.16806E+06     33.6042E+06     68.2006E+06     360.080E+03
             103     20.7953E-03     14.8943E-03     14.5122E-03     422.755E-03    -188.839E-03    -233.518E-03    -225.148E-03     414.385E-03    -188.839E-03     147.284E-03     526.490E-03     69.7244E+06     73.9785E+06     39.9587E+06    -6.18598E+06    -6.18386E+06     39.9566E+06     73.9785E+06     307.435E+03
             104     21.8625E-03     14.8938E-03     16.0046E-03     410.004E-03    -189.103E-03    -220.515E-03    -212.804E-03     402.292E-03    -189.103E-03     138.585E-03     516.009E-03     67.8344E+06     78.0832E+06     44.7651E+06     66.2957E+03     193.907E+03     44.6375E+06     78.0832E+06     1.95145E+06
             105     22.9643E-03     14.8923E-03     17.4808E-03     399.693E-03    -189.355E-03    -209.948E-03    -203.201E-03     392.946E-03    -189.355E-03     127.480E-03     506.660E-03     72.0352E+06     76.4892E+06     46.1282E+06    -5.69366E+06    -5.51071E+06     45.9453E+06     76.4892E+06     582.273E+03
             106     24.0966E-03     14.8908E-03     18.9449E-03     392.181E-03    -189.505E-03    -202.290E-03    -196.291E-03     386.182E-03    -189.505E-03     118.829E-03     499.223E-03     71.9110E+06     77.1387E+06      49.006E+06    -4.57902E+06    -4.33081E+06     48.7578E+06     77.1387E+06     1.07052E+06
             107     25.2664E-03     14.8947E-03     20.4093E-03     387.146E-03    -189.548E-03    -197.091E-03    -191.505E-03     381.559E-03    -189.548E-03     113.689E-03     493.484E-03     72.7729E+06     79.7713E+06     52.2690E+06    -2.71983E+06    -2.44609E+06     51.9953E+06     79.7713E+06     783.763E+03
             108     26.4584E-03     14.8940E-03     21.8681E-03     385.204E-03    -189.596E-03    -194.933E-03    -189.646E-03     379.918E-03    -189.596E-03     110.254E-03     490.580E-03     73.1247E+06     78.9471E+06     54.0912E+06    -3.36281E+06    -3.14406E+06     53.8725E+06     78.9471E+06     515.439E+03
             109     27.6845E-03     14.8947E-03     23.3362E-03     384.929E-03    -189.685E-03    -194.588E-03    -189.370E-03     379.711E-03    -189.685E-03     109.484E-03     489.677E-03     72.6422E+06     80.0847E+06     55.5677E+06    -1.64235E+06    -1.42775E+06     55.3531E+06     80.0847E+06     560.282E+03
             110     28.9301E-03     14.8950E-03     24.8010E-03     384.705E-03    -189.697E-03    -194.440E-03    -189.334E-03     379.598E-03    -189.697E-03     108.277E-03     489.198E-03     73.3580E+06     79.3237E+06     56.6740E+06    -2.65246E+06    -2.48183E+06     56.5034E+06     79.3237E+06     263.501E+03
             111     30.1933E-03     14.8953E-03     26.2634E-03     384.277E-03    -189.731E-03    -193.900E-03    -188.822E-03     379.198E-03    -189.731E-03     107.898E-03     488.689E-03     73.6535E+06     80.7468E+06     58.1593E+06    -1.52437E+06    -1.38981E+06     58.0247E+06     80.7468E+06     644.723E+03
             112     31.4763E-03     14.8976E-03     27.7276E-03     384.634E-03    -189.816E-03    -194.223E-03    -189.074E-03     379.485E-03    -189.816E-03     108.702E-03     488.659E-03     76.6536E+06     81.5913E+06     58.7898E+06    -3.82728E+06    -3.70152E+06     58.6641E+06     81.5913E+06     634.731E+03
             113     32.7765E-03     14.8957E-03     29.1962E-03     386.809E-03    -189.954E-03    -196.353E-03    -191.193E-03     381.649E-03    -189.954E-03     109.222E-03     490.123E-03     77.1446E+06     83.3434E+06     59.8348E+06    -2.75036E+06    -2.64447E+06     59.7290E+06     83.3434E+06     930.660E+03
             114     34.0887E-03     14.8942E-03     30.6628E-03     385.791E-03    -190.159E-03    -195.269E-03    -190.331E-03     380.853E-03    -190.159E-03     106.654E-03     489.233E-03     76.1617E+06     83.1100E+06     60.2796E+06    -1.77034E+06    -1.72719E+06     60.2365E+06     83.1100E+06     72.9266E+03
             115     35.4024E-03     14.8969E-03     32.1156E-03     383.238E-03    -190.239E-03    -192.919E-03    -188.242E-03     378.561E-03    -190.239E-03     103.400E-03     487.141E-03     76.8927E+06     82.4802E+06     60.8834E+06    -2.87034E+06    -2.81399E+06     60.8270E+06     82.4802E+06    -163.121E+03
             116     36.7359E-03     14.8951E-03     33.5807E-03     383.885E-03    -190.160E-03    -193.582E-03    -188.823E-03     379.126E-03    -190.160E-03     104.407E-03     486.920E-03     75.9412E+06     84.2876E+06     62.6226E+06    -108.046E+03    -52.4565E+03     62.5670E+06     84.2876E+06    -191.025E+03
             117     38.0820E-03     14.8982E-03     35.0468E-03     385.833E-03    -190.108E-03    -195.318E-03    -190.426E-03     380.941E-03    -190.108E-03     106.194E-03     488.349E-03     77.7689E+06     81.9872E+06     60.3086E+06    -4.30774E+06    -4.27377E+06     60.2746E+06     81.9872E+06     173.224E+03
             118     39.4301E-03     14.8935E-03     36.5091E-03     387.627E-03    -190.226E-03    -197.048E-03    -192.447E-03     383.027E-03    -190.226E-03     103.251E-03     489.911E-03     77.8833E+06     83.3178E+06     60.7801E+06    -3.34588E+06    -3.30699E+06     60.7412E+06     83.3178E+06     260.711E+03
             119     40.7940E-03     14.8923E-03     37.9785E-03     385.719E-03    -190.464E-03    -194.946E-03    -190.556E-03     381.329E-03    -190.464E-03     100.583E-03     487.579E-03     77.0189E+06     83.2860E+06     60.0843E+06    -2.65089E+06    -2.61407E+06     60.0475E+06     83.2860E+06     326.189E+03
             120     42.1514E-03     14.8931E-03     39.4327E-03     383.865E-03    -190.545E-03    -192.891E-03    -188.397E-03     379.371E-03    -190.545E-03     101.421E-03     485.937E-03     76.3331E+06     82.7728E+06     59.0581E+06    -2.59747E+06    -2.57129E+06     59.0319E+06     82.7728E+06     97.1332E+03
             121     43.5270E-03     14.8921E-03     40.9002E-03     383.397E-03    -190.438E-03    -192.654E-03    -188.071E-03     378.814E-03    -190.438E-03     102.346E-03     485.770E-03     75.7752E+06     82.6890E+06     60.8255E+06    -1.61130E+06    -1.59440E+06     60.8086E+06     82.6890E+06     421.495E+03
             122     44.8998E-03     14.8960E-03     42.3568E-03     381.936E-03    -190.359E-03    -191.422E-03    -186.771E-03     377.285E-03    -190.359E-03     102.861E-03     484.726E-03     75.1698E+06     80.6243E+06     60.4981E+06    -2.55639E+06    -2.55397E+06     60.4957E+06     80.6243E+06    -183.870E+03
             123     46.2789E-03     14.8936E-03     43.8168E-03     383.299E-03    -190.324E-03    -192.669E-03    -188.044E-03     378.675E-03    -190.324E-03     102.802E-03     486.159E-03     75.7386E+06     82.5092E+06     61.0487E+06    -1.62220E+06    -1.61724E+06     61.0437E+06     82.5092E+06    -302.106E+03
             124     47.6682E-03     14.8931E-03     45.2820E-03     385.230E-03    -190.324E-03    -194.506E-03    -189.795E-03     380.519E-03    -190.324E-03     104.096E-03     487.572E-03     77.1464E+06     83.9367E+06     61.9192E+06    -1.80672E+06    -1.77903E+06     61.8915E+06     83.9367E+06     496.200E+03
             125     49.0613E-03     14.8943E-03     46.7458E-03     384.841E-03    -190.354E-03    -194.117E-03    -189.408E-03     380.132E-03    -190.354E-03     103.999E-03     487.263E-03     76.2385E+06     82.3587E+06     61.1811E+06    -2.22147E+06    -2.18061E+06     61.1402E+06     82.3587E+06     144.030E+03
             126     50.4557E-03     14.8936E-03     48.2075E-03     384.923E-03    -190.361E-03    -194.180E-03    -189.528E-03     380.272E-03    -190.361E-03     103.381E-03     487.629E-03     75.5574E+06     81.3407E+06     60.3815E+06    -2.47501E+06    -2.44647E+06     60.3529E+06     81.3407E+06    -140.957E+03
             127     51.8564E-03     14.8926E-03     49.6718E-03     385.315E-03    -190.328E-03    -194.665E-03    -189.934E-03     380.585E-03    -190.328E-03     104.329E-03     487.775E-03     76.1133E+06     82.0289E+06     59.9716E+06    -2.64987E+06    -2.62679E+06     59.9485E+06     82.0289E+06    -17.0792E+03
             128     53.2604E-03     14.8953E-03     51.1351E-03     384.518E-03    -190.294E-03    -193.871E-03    -189.165E-03     379.811E-03    -190.294E-03     103.924E-03     487.308E-03     75.3845E+06     82.0370E+06     60.7209E+06    -1.66873E+06    -1.65262E+06     60.7048E+06     82.0370E+06    -263.331E+03
             129     54.6682E-03     14.8939E-03     52.6002E-03     384.746E-03    -190.297E-03    -194.046E-03    -189.295E-03     379.995E-03    -190.297E-03     104.430E-03     487.630E-03     75.9515E+06     81.4864E+06     61.4427E+06    -2.46751E+06    -2.46386E+06     61.4391E+06     81.4864E+06     365.753E+03
             130     56.0777E-03     14.8943E-03     54.0635E-03     384.882E-03    -190.314E-03    -194.223E-03    -189.508E-03     380.167E-03    -190.314E-03     104.068E-03     487.451E-03     76.5988E+06     82.0945E+06     61.0243E+06    -2.83309E+06    -2.83219E+06     61.0234E+06     82.0945E+06     191.574E+03
             131     57.4881E-03     14.8933E-03     55.5254E-03     384.067E-03    -190.304E-03    -193.514E-03    -188.697E-03     379.249E-03    -190.304E-03     105.017E-03     487.127E-03     75.6904E+06     82.5123E+06     60.3150E+06    -1.77538E+06    -1.77129E+06     60.3110E+06     82.5123E+06    -135.731E+03
             132     58.9011E-03     14.8955E-03     56.9865E-03     384.001E-03    -190.261E-03    -193.543E-03    -188.643E-03     379.102E-03    -190.261E-03     105.922E-03     487.298E-03     75.4595E+06     81.5408E+06     59.5434E+06    -2.45069E+06    -2.44298E+06     59.5357E+06     81.5408E+06     77.6817E+03
             133     60.3165E-03     14.8957E-03     58.4483E-03     384.652E-03    -190.216E-03    -194.135E-03    -189.352E-03     379.870E-03    -190.216E-03     104.792E-03     487.962E-03     75.7369E+06     80.7168E+06     60.9731E+06    -2.93580E+06    -2.92537E+06     60.9627E+06     80.7168E+06    -46.0493E+03
             134     61.7364E-03     14.8944E-03     59.9128E-03     385.626E-03    -190.217E-03    -195.051E-03    -190.232E-03     380.807E-03    -190.217E-03     105.360E-03     488.766E-03     76.1151E+06     81.8010E+06     62.4609E+06    -2.11843E+06    -2.11227E+06     62.4547E+06     81.8010E+06    -522.375E+03
             135     63.1578E-03     14.8949E-03     61.3763E-03     385.357E-03    -190.223E-03    -194.815E-03    -190.052E-03     380.594E-03    -190.223E-03     104.705E-03     488.220E-03     76.2368E+06     82.9654E+06     62.1121E+06    -1.51373E+06    -1.51202E+06     62.1104E+06     82.9654E+06    -302.272E+03
             136     64.5788E-03     14.8954E-03     62.8375E-03     384.754E-03    -190.196E-03    -194.241E-03    -189.426E-03     379.938E-03    -190.196E-03     105.164E-03     487.123E-03     75.9358E+06     82.1543E+06     60.3215E+06    -2.30428E+06    -2.27924E+06     60.2965E+06     82.1543E+06     661.933E+03
             137     66.0064E-03     14.8956E-03     64.3037E-03     385.195E-03    -190.248E-03    -194.542E-03    -189.760E-03     380.412E-03    -190.248E-03     104.871E-03     487.912E-03     76.1778E+06     81.7058E+06     59.7696E+06    -3.03110E+06    -2.99890E+06     59.7374E+06     81.7058E+06     359.232E+03
             138     67.4289E-03     14.8924E-03     65.7637E-03     385.191E-03    -190.329E-03    -194.452E-03    -189.758E-03     380.497E-03    -190.329E-03     103.900E-03     488.856E-03     75.8188E+06     82.1707E+06     61.4571E+06    -1.83591E+06    -1.82585E+06     61.4471E+06     82.1707E+06    -294.800E+03
             139     68.8530E-03     14.8956E-03     67.2225E-03     384.968E-03    -190.270E-03    -194.517E-03    -189.735E-03     380.186E-03    -190.270E-03     104.841E-03     487.856E-03     76.4914E+06     81.6213E+06     60.7198E+06    -3.13205E+06    -3.12878E+06     60.7166E+06     81.6213E+06    -20.1953E+03
             140     70.2905E-03     14.8949E-03     68.6942E-03     385.410E-03    -190.252E-03    -194.929E-03    -190.193E-03     380.674E-03    -190.252E-03     104.420E-03     487.811E-03     77.0064E+06     83.2113E+06     60.9303E+06    -2.47750E+06    -2.47518E+06     60.9279E+06     83.2113E+06    -110.667E+03
             141     71.7172E-03     14.8930E-03     70.1538E-03     384.932E-03    -190.321E-03    -194.285E-03    -189.500E-03     380.147E-03    -190.321E-03     104.836E-03     487.845E-03     76.2964E+06     83.1355E+06     61.1312E+06    -1.74385E+06    -1.72336E+06     61.1107E+06     83.1355E+06     908.888E+03
             142     73.1483E-03     14.8951E-03     71.6157E-03     384.542E-03    -190.330E-03    -193.905E-03    -189.093E-03     379.730E-03    -190.330E-03     105.066E-03     487.360E-03     76.1424E+06     82.1180E+06     60.2544E+06    -2.56284E+06    -2.53814E+06     60.2297E+06     82.1180E+06     391.751E+03
             143     74.5815E-03     14.8934E-03     73.0793E-03     384.745E-03    -190.297E-03    -194.071E-03    -189.353E-03     380.027E-03    -190.297E-03     104.085E-03     487.292E-03     76.8001E+06     83.6351E+06     61.2776E+06    -1.85910E+06    -1.85272E+06     61.2713E+06     83.6351E+06    -162.670E+03
             144     76.0121E-03     14.8952E-03     74.5384E-03     383.821E-03    -190.204E-03    -193.341E-03    -188.625E-03     379.105E-03    -190.204E-03     103.918E-03     486.784E-03     76.9337E+06     82.8904E+06     60.5089E+06    -2.74825E+06    -2.74624E+06     60.5069E+06     82.8904E+06     121.019E+03
             145     77.4456E-03     14.8968E-03     75.9994E-03     383.775E-03    -190.135E-03    -193.394E-03    -188.707E-03     379.088E-03    -190.135E-03     103.594E-03     486.941E-03     77.2961E+06     83.1661E+06     60.8736E+06    -2.82410E+06    -2.81319E+06     60.8627E+06     83.1661E+06    -681.177E+03
             146     78.8841E-03     14.8946E-03     77.4652E-03     385.444E-03    -190.157E-03    -194.935E-03    -190.162E-03     380.671E-03    -190.157E-03     104.823E-03     488.167E-03     77.2226E+06     83.8862E+06     60.9192E+06    -2.21445E+06    -2.20286E+06     60.9076E+06     83.8862E+06    -394.096E+03
             147     80.3222E-03     14.8946E-03     78.9292E-03     385.700E-03    -190.191E-03    -195.145E-03    -190.325E-03     380.880E-03    -190.191E-03     105.387E-03     488.332E-03     76.9793E+06     83.3739E+06     61.2622E+06    -2.23795E+06    -2.22880E+06     61.2530E+06     83.3739E+06     688.244E+03
             148     81.7585E-03     14.8959E-03     80.3901E-03     384.522E-03    -190.264E-03    -193.953E-03    -189.309E-03     379.878E-03    -190.264E-03     103.234E-03     487.458E-03     77.6737E+06     83.7316E+06     62.6147E+06    -2.31625E+06    -2.30788E+06     62.6064E+06     83.7316E+06     415.839E+03
             149     84.6366E-03     14.8949E-03     83.3156E-03     385.474E-03    -190.249E-03    -194.897E-03    -190.169E-03     380.746E-03    -190.249E-03     104.331E-03     488.322E-03     77.7138E+06     84.8097E+06     62.9911E+06    -1.48014E+06    -1.47879E+06     62.9897E+06     84.8097E+06    -293.073E+03
             150     86.0815E-03     14.8954E-03     84.7830E-03     384.642E-03    -190.258E-03    -194.127E-03    -189.372E-03     379.887E-03    -190.258E-03     104.485E-03     487.476E-03     77.6950E+06     84.0696E+06     62.6607E+06    -2.08117E+06    -2.07779E+06     62.6573E+06     84.0696E+06     135.471E+03
             151     87.5183E-03     14.8952E-03     86.2414E-03     383.977E-03    -190.253E-03    -193.479E-03    -188.721E-03     379.219E-03    -190.253E-03     104.398E-03     487.192E-03     77.3988E+06     83.4363E+06     61.5606E+06    -2.53512E+06    -2.52837E+06     61.5538E+06     83.4363E+06    -66.0617E+03
             152     88.9595E-03     14.8947E-03     87.7037E-03     384.414E-03    -190.219E-03    -193.870E-03    -189.037E-03     379.581E-03    -190.219E-03     105.282E-03     487.428E-03     78.6201E+06     84.2024E+06     61.4744E+06    -3.27333E+06    -3.26856E+06     61.4696E+06     84.2024E+06    -215.020E+03
             153     90.4059E-03     14.8956E-03     89.1703E-03     385.309E-03    -190.214E-03    -194.763E-03    -189.779E-03     380.325E-03    -190.214E-03     107.073E-03     488.271E-03     77.3724E+06     84.5918E+06     62.1547E+06    -1.51403E+06    -1.48958E+06     62.1302E+06     84.5918E+06     989.310E+03
             154     91.8432E-03     14.8942E-03     90.6275E-03     384.563E-03    -190.250E-03    -194.126E-03    -189.324E-03     379.761E-03    -190.250E-03     104.979E-03     488.029E-03     78.6741E+06     82.7373E+06     62.8274E+06    -3.90710E+06    -3.85626E+06     62.7765E+06     82.7373E+06    -150.534E+03
             155     93.2845E-03     14.8958E-03     92.0876E-03     383.511E-03    -190.240E-03    -193.030E-03    -188.287E-03     378.768E-03    -190.240E-03     104.148E-03     487.105E-03     77.0652E+06     83.0077E+06     62.1851E+06    -2.18658E+06    -2.15005E+06     62.1485E+06     83.0077E+06    -482.662E+03
             156     94.7242E-03     14.8965E-03     93.5456E-03     384.113E-03    -190.141E-03    -193.772E-03    -189.055E-03     379.396E-03    -190.141E-03     103.986E-03     487.376E-03     76.1348E+06     83.3526E+06     60.9463E+06    -1.40523E+06    -1.36738E+06     60.9084E+06     83.3526E+06    -478.091E+03
             157     96.1711E-03     14.8966E-03     95.0104E-03     384.526E-03    -190.140E-03    -194.466E-03    -189.728E-03     379.787E-03    -190.140E-03     104.314E-03     487.324E-03     77.8411E+06     82.6501E+06     61.1375E+06    -3.66387E+06    -3.59847E+06     61.0721E+06     82.6501E+06     64.3973E+03
             158     97.6135E-03     14.8955E-03     96.4703E-03     385.110E-03    -190.218E-03    -195.066E-03    -190.169E-03     380.213E-03    -190.218E-03     106.151E-03     487.861E-03     77.6171E+06     84.5830E+06     62.0437E+06    -1.80429E+06    -1.74931E+06     61.9887E+06     84.5830E+06     278.199E+03
             159     99.0565E-03     14.8945E-03     97.9303E-03     384.954E-03    -190.157E-03    -194.996E-03    -190.213E-03     380.171E-03    -190.157E-03     104.897E-03     488.111E-03     78.7634E+06     84.9637E+06     62.0944E+06    -2.69879E+06    -2.64992E+06     62.0455E+06     84.9637E+06     202.410E+03
             160     100.501E-03     14.8951E-03     99.3911E-03     383.255E-03    -190.090E-03    -193.604E-03    -188.849E-03     378.500E-03    -190.090E-03     104.307E-03     487.114E-03     77.3466E+06     83.5528E+06     60.8480E+06    -2.60240E+06    -2.53858E+06     60.7842E+06     83.5528E+06    -51.7529E+03
             161     101.942E-03     14.8953E-03     100.848E-03     383.005E-03    -190.001E-03    -193.443E-03    -188.672E-03     378.234E-03    -190.001E-03     104.439E-03     487.304E-03     77.2799E+06     83.4191E+06     60.9734E+06    -2.59776E+06    -2.54906E+06     60.9247E+06     83.4191E+06    -329.076E+03
             162     103.389E-03     14.8958E-03     102.310E-03     383.639E-03    -189.873E-03    -194.053E-03    -189.349E-03     378.935E-03    -189.873E-03     103.834E-03     488.003E-03     77.3612E+06     83.4608E+06     61.3446E+06    -2.54642E+06    -2.51682E+06     61.3150E+06     83.4608E+06     31.4586E+03
             163     104.840E-03     14.8953E-03     103.776E-03     383.535E-03    -189.838E-03    -194.011E-03    -189.229E-03     378.752E-03    -189.838E-03     104.674E-03     487.787E-03     78.0821E+06     83.9765E+06     62.1513E+06    -2.69540E+06    -2.63593E+06     62.0919E+06     83.9765E+06     539.795E+03
             164     106.281E-03     14.8964E-03     105.231E-03     383.708E-03    -189.835E-03    -194.107E-03    -189.394E-03     378.994E-03    -189.835E-03     103.941E-03     487.420E-03     78.6650E+06     84.9211E+06     62.7464E+06    -2.45105E+06    -2.35835E+06     62.6537E+06     84.9211E+06    -35.2554E+03
             165     107.733E-03     14.8944E-03     106.698E-03     383.848E-03    -189.851E-03    -194.235E-03    -189.633E-03     379.246E-03    -189.851E-03     102.742E-03     487.239E-03     78.3825E+06     85.2060E+06     62.1740E+06    -2.10590E+06    -1.97581E+06     62.0439E+06     85.2060E+06     361.771E+03
             166     109.184E-03     14.8944E-03     108.163E-03     383.505E-03    -189.843E-03    -193.786E-03    -189.252E-03     378.971E-03    -189.843E-03     101.917E-03     487.336E-03     78.4757E+06     84.1965E+06     61.7350E+06    -3.04610E+06    -2.91697E+06     61.6058E+06     84.1965E+06     365.185E+03
             167     110.629E-03     14.8913E-03     109.622E-03     382.429E-03    -189.848E-03    -192.678E-03    -188.035E-03     377.786E-03    -189.848E-03     102.903E-03     486.413E-03     77.8999E+06     83.9099E+06     61.2516E+06    -2.78492E+06    -2.67522E+06     61.1419E+06     83.9099E+06     148.328E+03
             168     112.074E-03     14.8979E-03     111.080E-03     381.116E-03    -189.817E-03    -191.608E-03    -186.874E-03     376.382E-03    -189.817E-03     103.700E-03     484.702E-03     79.9968E+06     85.8000E+06     62.1773E+06    -3.33286E+06    -3.16723E+06     62.0117E+06     85.8000E+06    -497.084E+03
             169     113.520E-03     14.8958E-03     112.538E-03     380.835E-03    -189.755E-03    -191.561E-03    -186.869E-03     376.143E-03    -189.755E-03     103.220E-03     484.342E-03     80.2022E+06     88.1224E+06     64.7061E+06    -1.17124E+06    -940.180E+03     64.4751E+06     88.1224E+06     102.311E+03
             170     114.964E-03     14.9003E-03     113.995E-03     381.789E-03    -189.707E-03    -192.547E-03    -187.698E-03     376.939E-03    -189.707E-03     105.097E-03     485.271E-03     82.8681E+06     88.0627E+06     66.6438E+06    -3.33383E+06    -3.15480E+06     66.4647E+06     88.0627E+06     592.771E+03
             171     116.414E-03     14.8983E-03     115.457E-03     383.678E-03    -189.666E-03    -194.348E-03    -189.564E-03     378.894E-03    -189.666E-03     104.715E-03     487.369E-03     84.6042E+06     89.4678E+06     68.9338E+06    -3.48179E+06    -3.30559E+06     68.7576E+06     89.4678E+06     647.575E+03
             172     117.864E-03     14.8982E-03     116.919E-03     385.543E-03    -189.667E-03    -196.118E-03    -191.527E-03     380.952E-03    -189.667E-03     102.938E-03     489.417E-03     84.8728E+06     92.3679E+06     70.2958E+06    -1.35359E+06    -1.09916E+06     70.0414E+06     92.3679E+06    -169.601E+03
             173     119.313E-03     14.8961E-03     118.379E-03     385.035E-03    -189.731E-03    -195.559E-03    -191.011E-03     380.488E-03    -189.731E-03     102.364E-03     488.330E-03      87.724E+06       94.46E+06     71.5602E+06    -2.43525E+06    -2.05685E+06     71.1818E+06       94.46E+06     759.297E+03
             174     120.769E-03     14.8977E-03     119.846E-03     381.892E-03    -189.793E-03    -192.508E-03    -187.800E-03     377.184E-03    -189.793E-03     103.555E-03     484.678E-03     89.4683E+06     92.0535E+06     72.9568E+06    -5.29458E+06    -4.98755E+06     72.6498E+06     92.0535E+06     1.41860E+06
             175     122.203E-03     14.8993E-03     121.292E-03     380.551E-03    -189.771E-03    -191.277E-03    -186.681E-03     375.955E-03    -189.771E-03     102.065E-03     482.780E-03     91.4412E+06     94.5956E+06     78.2286E+06    -3.90462E+06    -3.77459E+06     78.0985E+06     94.5956E+06     143.401E+03
             176     123.653E-03     14.9011E-03     122.752E-03     382.454E-03    -189.720E-03    -193.188E-03    -188.762E-03     378.028E-03    -189.720E-03     100.557E-03     484.694E-03     93.8837E+06     101.000E+06     82.3154E+06    -820.734E+03    -695.333E+03     82.1900E+06     101.000E+06     190.696E+03
             177     125.111E-03     14.8998E-03     124.220E-03     383.148E-03    -189.728E-03    -193.782E-03    -189.124E-03     378.490E-03    -189.728E-03     103.254E-03     486.355E-03     97.2661E+06     102.267E+06     82.6762E+06    -3.30185E+06    -3.14264E+06     82.5170E+06     102.267E+06     617.710E+03
             178     126.541E-03     14.9034E-03     125.660E-03     381.552E-03    -189.736E-03    -192.305E-03    -187.398E-03     376.645E-03    -189.736E-03     105.666E-03     484.994E-03     97.8359E+06     102.919E+06     86.0915E+06    -2.19306E+06    -2.08396E+06     85.9824E+06     102.919E+06     1.81932E+06
             179     127.979E-03     14.9069E-03     127.108E-03     380.895E-03    -189.655E-03    -191.464E-03    -186.476E-03     375.908E-03    -189.655E-03     106.390E-03     484.226E-03     100.566E+06     101.119E+06     88.9346E+06    -4.97401E+06    -4.96209E+06     88.9227E+06     101.119E+06     381.511E+03
             180     129.430E-03     14.9097E-03     128.568E-03     380.247E-03    -189.538E-03    -191.052E-03    -185.946E-03     375.142E-03    -189.538E-03     107.514E-03     483.981E-03     99.6102E+06     103.685E+06     89.8663E+06    -2.06730E+06    -2.02802E+06     89.8270E+06     103.685E+06    -448.851E+03
             181     130.882E-03     14.9158E-03     130.029E-03     377.772E-03    -188.599E-03    -189.840E-03    -183.843E-03     372.380E-03    -189.204E-03     110.041E-03     482.063E-03     100.438E+06     104.811E+06     88.5917E+06    -2.74458E+06    -2.68093E+06     88.5280E+06     104.811E+06     136.086E+03
             182     132.330E-03     14.9271E-03     131.485E-03     374.277E-03    -185.877E-03    -188.743E-03    -180.124E-03     368.525E-03    -188.743E-03     112.913E-03     478.455E-03     101.819E+06     106.735E+06     88.6075E+06    -2.89729E+06    -2.85922E+06     88.5694E+06     106.735E+06     862.247E+03
             183     133.771E-03     14.9417E-03     132.934E-03     369.922E-03    -182.339E-03    -187.679E-03    -176.041E-03     363.623E-03    -187.679E-03     117.231E-03     473.272E-03     106.548E+06     112.746E+06     93.7418E+06    -1.99450E+06    -1.81919E+06     93.5665E+06     112.746E+06     2.55844E+06
             184     135.206E-03     14.9627E-03     134.375E-03     363.473E-03    -177.357E-03    -186.227E-03    -170.404E-03     356.520E-03    -186.227E-03     121.793E-03     466.636E-03     114.718E+06     119.131E+06     103.201E+06    -2.71111E+06    -2.48496E+06     102.975E+06     119.131E+06     4.69168E+06
             185     136.615E-03     14.9933E-03     135.790E-03     353.097E-03    -168.749E-03    -184.370E-03    -160.437E-03     344.785E-03    -184.370E-03     130.314E-03     456.454E-03     121.281E+06     125.301E+06     110.439E+06    -2.72542E+06    -2.45857E+06     110.172E+06     125.301E+06     5.24926E+06
             186     138.016E-03     15.0456E-03     137.193E-03     340.539E-03    -159.367E-03    -181.088E-03    -149.004E-03     330.177E-03    -181.088E-03     142.178E-03     443.021E-03     128.941E+06     130.115E+06     113.713E+06    -6.23959E+06    -5.99343E+06     113.467E+06     130.115E+06     4.96740E+06
             187     139.389E-03     15.1126E-03     138.567E-03     329.383E-03    -152.687E-03    -176.557E-03    -140.468E-03     317.165E-03    -176.557E-03     151.401E-03     431.985E-03     126.415E+06     131.576E+06     113.740E+06    -2.80727E+06    -2.62630E+06     113.559E+06     131.576E+06     4.29120E+06
             188     140.734E-03     15.1992E-03     139.911E-03     327.051E-03    -155.801E-03    -171.210E-03    -143.186E-03     314.436E-03    -171.210E-03     153.984E-03     433.468E-03     128.539E+06     135.322E+06     112.490E+06    -3.06606E+06    -2.76596E+06     112.190E+06     135.322E+06     5.88086E+06
             189     142.126E-03     15.2712E-03     141.303E-03     346.337E-03    -162.566E-03    -183.942E-03    -170.692E-03     336.518E-03    -165.996E-03     140.715E-03     460.135E-03     136.830E+06     139.856E+06     115.894E+06    -7.33011E+06    -7.11527E+06     115.679E+06     139.856E+06     5.00285E+06
             190     143.557E-03     15.3034E-03     142.739E-03     388.222E-03    -162.408E-03    -225.773E-03    -219.615E-03     382.064E-03    -162.408E-03     121.006E-03     507.359E-03     136.802E+06     145.762E+06     116.679E+06    -3.00859E+06    -2.93094E+06     116.602E+06     145.762E+06     1.02352E+06
             191     145.082E-03     15.3027E-03     144.273E-03     431.680E-03    -160.704E-03    -270.838E-03    -266.074E-03     426.916E-03    -160.704E-03     115.228E-03     552.144E-03     133.780E+06     145.261E+06     104.833E+06    -4.03903E+06    -3.77427E+06     104.568E+06     145.261E+06    -4.54725E+06
             192     146.637E-03     15.3036E-03     145.836E-03     459.730E-03    -159.970E-03    -299.665E-03    -294.736E-03     454.801E-03    -159.970E-03     121.950E-03     578.820E-03     126.309E+06     138.490E+06     92.2064E+06    -4.33627E+06    -4.08700E+06     91.9572E+06     138.490E+06    -3.46102E+06
             193     148.224E-03     15.3027E-03     147.432E-03     478.195E-03    -159.570E-03    -318.573E-03    -312.942E-03     472.565E-03    -159.570E-03     133.437E-03     593.320E-03     120.135E+06     132.180E+06     75.0796E+06    -5.59381E+06    -4.58900E+06     74.0748E+06     132.180E+06    -5.82597E+06
             194     149.839E-03     15.3033E-03     149.056E-03     494.191E-03    -159.212E-03    -334.943E-03    -328.593E-03     487.840E-03    -159.212E-03     144.558E-03     606.480E-03     110.618E+06     123.362E+06     54.6473E+06    -3.73168E+06    -2.67500E+06     53.5906E+06     123.362E+06    -4.89257E+06
             195     151.482E-03     15.3025E-03     150.707E-03     505.970E-03    -158.982E-03    -346.992E-03    -340.080E-03     499.059E-03    -158.982E-03     152.922E-03     617.550E-03     110.436E+06     123.893E+06     39.6490E+06    -927.470E+03    -872.674E+03     39.5942E+06     123.893E+06     1.28627E+06
             196     153.116E-03     15.3034E-03     152.349E-03     519.569E-03    -158.684E-03    -361.167E-03    -353.638E-03     512.039E-03    -158.684E-03     162.161E-03     631.107E-03     117.834E+06     122.788E+06     25.2248E+06    -8.06048E+06    -6.63363E+06     23.7980E+06     122.788E+06    -4.12939E+06
             197     154.790E-03     15.3043E-03     154.032E-03     535.399E-03    -158.683E-03    -377.362E-03    -370.095E-03     528.132E-03    -158.683E-03     162.042E-03     642.096E-03     134.243E+06     143.416E+06     35.2493E+06    -6.60704E+06     4.12708E+06     24.5152E+06     143.416E+06     8.55232E+06
             198     156.555E-03     15.2860E-03     155.807E-03     528.189E-03    -159.264E-03    -369.359E-03    -360.077E-03     518.907E-03    -159.264E-03     179.268E-03     630.561E-03     171.411E+06     152.049E+06     13.4702E+06    -39.4334E+06    -7.38017E+06    -18.5830E+06     152.049E+06     21.1339E+06
             199     158.116E-03     15.3112E-03     157.373E-03     499.329E-03    -159.634E-03    -339.681E-03    -326.255E-03     485.903E-03    -159.634E-03     209.959E-03     614.563E-03     202.984E+06     188.487E+06     27.9110E+06    -39.2756E+06    -13.4694E+06     2.10472E+06     188.487E+06    -2.60798E+06
             200     159.790E-03     15.3123E-03     159.054E-03     492.721E-03    -159.669E-03    -332.975E-03    -309.878E-03     469.624E-03    -159.669E-03     268.154E-03     636.381E-03     188.895E+06     221.125E+06     84.8555E+06     5.64710E+06     8.81737E+06     81.6853E+06     221.125E+06    -8.83330E+06
             201     161.451E-03     15.3218E-03     160.723E-03     385.221E-03    -132.638E-03    -253.669E-03    -183.761E-03     345.484E-03    -162.810E-03     284.738E-03     523.128E-03     166.782E+06     151.619E+06     49.6846E+06    -40.3154E+06    -25.4849E+06     34.8541E+06     151.619E+06    -21.4949E+06
             202     162.505E-03     15.2926E-03     161.784E-03     188.013E-03    -10.3237E-03    -178.776E-03     24.2771E-03     153.412E-03    -178.776E-03     129.486E-03     289.400E-03      141.94E+06     86.7491E+06     35.6112E+06    -70.6753E+06    -14.6814E+06    -20.3828E+06     86.7491E+06    -554.708E+03
             203     162.758E-03     13.7753E-03     162.174E-03     124.716E-03     70.9032E-03    -195.778E-03     84.3285E-03     111.291E-03    -195.778E-03     25.6439E-03     223.715E-03     145.494E+06     109.015E+06     97.9042E+06    -41.7101E+06     14.8806E+06     47.3422E+06     102.986E+06    -11.2352E+06
             204     162.126E-03     12.7214E-03     161.626E-03     166.346E-03     35.3918E-03    -201.924E-03     48.5669E-03     153.170E-03    -201.924E-03    -34.7498E-03     295.829E-03     171.987E+06     97.9160E+06     51.5084E+06    -89.4190E+06    -20.2625E+06    -11.6196E+06     91.8873E+06    -25.1678E+06
             205     161.432E-03     11.9408E-03     160.990E-03     177.235E-03     27.5307E-03    -204.779E-03     39.5581E-03     165.207E-03    -204.779E-03    -77.1411E-03     314.224E-03     173.270E+06     121.496E+06     35.3497E+06    -77.9517E+06    -5.31458E+06    -37.2875E+06     121.496E+06    -18.1123E+06
             206     160.716E-03     11.0723E-03     160.334E-03     184.812E-03     20.9518E-03    -205.724E-03     31.5030E-03     174.261E-03    -205.724E-03    -77.9214E-03     301.915E-03     169.035E+06     144.492E+06     27.2742E+06    -44.0743E+06    -11.9905E+06    -4.80958E+06     144.492E+06    -28.3470E+06
             207     160.026E-03     10.2474E-03     159.697E-03     220.261E-03    -16.8856E-03    -203.359E-03     11.9412E-03     191.434E-03    -203.359E-03    -153.253E-03     321.082E-03     144.591E+06     108.690E+06    -14.2678E+06    -49.9903E+06    -25.4025E+06    -38.8557E+06     108.690E+06    -12.3789E+06
             208     159.349E-03     9.50636E-03     159.065E-03     247.651E-03    -50.6033E-03    -196.951E-03    -3.65166E-03     200.699E-03    -196.951E-03    -217.148E-03     328.755E-03     126.529E+06     113.516E+06     5.59609E+06    -24.9572E+06    -12.3434E+06    -7.01781E+06     113.516E+06    -14.1723E+06
             209     158.747E-03     8.76465E-03     158.505E-03     274.035E-03    -86.1646E-03    -187.744E-03    -24.9766E-03     212.847E-03    -187.744E-03    -270.487E-03     331.912E-03     119.375E+06     96.6448E+06    -2.89231E+06    -34.4943E+06    -24.7939E+06    -12.5927E+06     96.6448E+06    -14.2228E+06
             210     158.181E-03     8.05097E-03     157.976E-03     300.183E-03    -124.520E-03    -175.638E-03    -53.2506E-03     228.914E-03    -175.638E-03    -317.349E-03     339.208E-03     101.568E+06     73.7450E+06     9.13684E+06    -42.4149E+06    -25.5517E+06    -7.72631E+06     73.7450E+06    -24.1336E+06
             211     157.705E-03     7.35588E-03     157.533E-03     316.968E-03    -148.929E-03    -168.100E-03    -86.0930E-03     247.656E-03    -161.624E-03    -333.686E-03     342.367E-03     86.1210E+06     56.8415E+06     4.64989E+06    -41.9425E+06    -23.0092E+06    -14.2834E+06     56.8415E+06    -22.0430E+06
             212     157.297E-03     6.65463E-03     157.156E-03     318.062E-03    -147.546E-03    -170.511E-03    -114.345E-03     261.896E-03    -147.546E-03    -310.550E-03     334.283E-03     82.6125E+06     50.5741E+06    -5.20593E+06    -44.2362E+06    -25.2448E+06    -24.1974E+06     50.5741E+06    -19.2754E+06
             213     156.985E-03     5.91465E-03     156.873E-03     305.052E-03    -134.364E-03    -171.105E-03    -131.171E-03     265.118E-03    -134.364E-03    -262.843E-03     315.682E-03     77.0845E+06     45.4297E+06     1.85333E+06    -43.3638E+06    -25.0693E+06    -16.4411E+06     45.4297E+06    -22.1897E+06
             214     156.712E-03     5.15439E-03     156.627E-03     283.711E-03    -122.459E-03    -161.784E-03    -136.087E-03     258.014E-03    -122.459E-03    -206.384E-03     290.146E-03     71.0243E+06      39.707E+06     11.7412E+06    -40.6836E+06    -20.5823E+06    -8.36004E+06      39.707E+06    -25.4810E+06
             215     156.507E-03     4.35843E-03     156.446E-03     258.696E-03    -112.172E-03    -146.533E-03    -131.987E-03     244.150E-03    -112.172E-03    -149.291E-03     261.817E-03     67.7344E+06     39.2635E+06     13.1217E+06    -37.3224E+06    -11.6089E+06    -12.5917E+06     39.2635E+06    -23.9998E+06
             216     156.360E-03     3.53094E-03     156.320E-03     231.709E-03    -103.667E-03    -127.915E-03    -120.648E-03     224.443E-03    -103.667E-03    -99.9638E-03     233.189E-03     55.8053E+06     40.7501E+06     13.0474E+06    -23.4832E+06    -1.18006E+06    -9.25581E+06     40.7501E+06    -17.5098E+06
             217     156.245E-03     2.66956E-03     156.222E-03     206.655E-03    -97.1406E-03    -109.453E-03    -105.941E-03     203.143E-03    -97.1406E-03    -65.7066E-03     207.180E-03     39.1254E+06     28.6081E+06     15.6399E+06    -14.7008E+06     7.47462E+06    -4.58897E+06     26.6615E+06    -13.8637E+06
             218     156.166E-03     1.78501E-03     156.156E-03     190.443E-03    -93.1152E-03    -97.3796E-03    -95.6506E-03     188.714E-03    -93.1152E-03    -43.6875E-03     190.610E-03     36.8184E+06     25.5141E+06     19.4725E+06    -13.9156E+06     17.1802E+06    -5.58165E+06     19.4725E+06    -15.9900E+06
             219     156.120E-03     894.319E-06     156.117E-03     183.079E-03    -90.5668E-03    -92.5159E-03    -91.8802E-03     182.443E-03    -90.5668E-03    -24.8986E-03     183.113E-03     42.6819E+06     35.1102E+06     28.9846E+06    -10.2401E+06     26.9729E+06    -4.13330E+06     31.0151E+06    -13.4755E+06
             220     154.908E-03    -107.763E-09     154.908E-03     144.962E-03    -71.8102E-03    -73.1422E-03    -72.6788E-03     144.792E-03    -72.1037E-03    -12.1475E-03     145.007E-03     39.7218E+06    -1.61087E+06    -13.0870E+06    -44.8140E+06    -12.4420E+06    -36.0134E+06    -11.0565E+06    -13.7181E+06
             221     153.793E-03    -424.922E-09     153.793E-03     86.4665E-03    -42.9273E-03    -43.5328E-03    -42.8688E-03     86.4080E-03    -43.5328E-03    -4.96195E-03     86.5513E-03     33.4210E+06    -68.6075E+06    -93.4802E+06    -105.818E+06    -91.8938E+06    -79.6509E+06    -96.3607E+06    -10.0784E+06
             222     152.732E-03    -196.801E-09     152.732E-03     50.8386E-03    -25.1800E-03    -25.6554E-03    -25.1774E-03     50.8359E-03    -25.6554E-03    -548.193E-06     50.9340E-03     57.0076E+06    -110.842E+06    -163.502E+06    -171.363E+06    -167.266E+06    -112.059E+06    -166.382E+06    -7.71490E+06
             223     151.692E-03    -56.2810E-09     151.692E-03     31.5804E-03    -15.7030E-03    -15.8768E-03    -15.6728E-03     31.5502E-03    -15.8768E-03     1.64805E-03     31.7018E-03     103.175E+06    -152.478E+06    -251.634E+06    -259.130E+06    -256.548E+06    -155.061E+06    -251.634E+06    -16.3618E+06
             224     150.668E-03    -7.71835E-09     150.668E-03     25.9249E-03    -12.9122E-03    -13.0130E-03    -12.8923E-03     25.8145E-03    -12.9225E-03     4.03481E-03     26.0515E-03     146.173E+06    -200.939E+06    -344.766E+06    -349.345E+06    -345.595E+06    -202.625E+06    -346.830E+06    -14.2076E+06
             225     149.644E-03    -3.13069E-09     149.644E-03     36.5019E-03    -18.0682E-03    -18.4368E-03    -18.2202E-03     36.2853E-03    -18.0682E-03     6.88576E-03     36.6040E-03     124.909E+06    -203.730E+06    -326.987E+06    -330.228E+06    -321.320E+06    -209.397E+06    -330.228E+06     9.11097E+06
             226     148.600E-03     313.360E-09     148.600E-03     65.1223E-03    -32.2116E-03    -32.9147E-03    -32.6361E-03     64.8438E-03    -32.2116E-03     10.3430E-03     65.1843E-03     62.0031E+06    -140.998E+06    -182.908E+06    -203.849E+06    -185.453E+06    -158.774E+06    -183.529E+06     23.6033E+06
             227     147.510E-03     588.287E-09     147.510E-03     103.593E-03    -51.2777E-03    -52.3161E-03    -52.0530E-03     103.330E-03    -51.2777E-03     12.6767E-03     103.632E-03     34.4930E+06    -89.7366E+06    -91.9541E+06    -125.261E+06    -99.3574E+06    -116.196E+06    -91.3986E+06     5.68931E+06
             228     146.380E-03     549.334E-09     146.380E-03     144.184E-03    -71.7452E-03    -72.4487E-03    -72.2015E-03     143.937E-03    -71.7452E-03     14.6011E-03     144.262E-03     45.8016E+06    -65.2229E+06    -69.4880E+06    -113.004E+06    -66.3752E+06    -111.852E+06    -69.4880E+06    -4.71927E+06
             229     145.201E-03    -424.923E-09     145.201E-03     188.327E-03    -94.0383E-03    -94.3017E-03    -93.9079E-03     188.107E-03    -94.2116E-03     15.6321E-03     188.463E-03     81.8922E+06    -29.9534E+06    -33.6336E+06    -113.596E+06    -29.9703E+06    -113.579E+06    -33.6336E+06    -504.061E+03
             230     143.967E-03     217.115E-09     143.967E-03     233.665E-03    -115.850E-03    -117.819E-03    -117.506E-03     233.526E-03    -116.023E-03     13.6250E-03     233.881E-03     104.622E+06    -16.7779E+06    -21.2575E+06    -123.550E+06    -20.4689E+06    -123.262E+06    -17.8549E+06    -3.64995E+06
             231     142.677E-03     3.10489E-06     142.677E-03     273.691E-03    -135.530E-03    -138.178E-03    -138.091E-03     273.604E-03    -135.530E-03     11.9490E-03     274.009E-03     115.392E+06    -27.7966E+06    -33.2151E+06    -145.793E+06    -31.5595E+06    -145.433E+06    -29.8125E+06    -5.99638E+06
             232     141.341E-03    -1.62311E-06     141.341E-03     307.542E-03    -153.324E-03    -154.234E-03    -154.178E-03     307.486E-03    -153.324E-03     9.74456E-03     307.914E-03     130.015E+06    -42.1702E+06    -46.4742E+06    -174.283E+06    -44.6352E+06    -174.107E+06    -44.1862E+06    -4.77849E+06
             233     139.959E-03     1.81281E-06     139.959E-03     334.653E-03    -166.372E-03    -168.298E-03    -168.278E-03     334.632E-03    -166.372E-03     6.25177E-03     335.067E-03     136.811E+06    -54.5690E+06    -61.0241E+06    -194.484E+06    -57.0014E+06    -194.339E+06    -58.7361E+06    -4.32855E+06
             234     138.549E-03     1.31192E-06     138.549E-03     352.270E-03    -174.662E-03    -177.627E-03    -177.620E-03     352.263E-03    -174.662E-03     3.58788E-03     352.748E-03     136.716E+06    -69.3195E+06    -73.8680E+06    -208.213E+06    -69.4110E+06    -208.122E+06    -73.8680E+06    -3.55694E+06
             235     137.118E-03     543.217E-09     137.118E-03     362.476E-03    -179.965E-03    -182.447E-03    -182.446E-03     362.475E-03    -179.965E-03     1.00220E-03     363.013E-03     133.746E+06    -91.7529E+06    -92.7186E+06    -225.979E+06    -91.8235E+06    -225.908E+06    -92.7186E+06    -3.00109E+06
             236     135.677E-03     1.82735E-06     135.677E-03     369.575E-03    -183.795E-03    -185.679E-03    -185.679E-03     369.575E-03    -183.795E-03     290.259E-06     370.131E-03     132.179E+06    -118.199E+06    -119.321E+06    -250.935E+06    -119.165E+06    -250.507E+06    -118.783E+06    -6.33267E+06
             237     134.226E-03    -1.17185E-06     134.226E-03     374.389E-03    -186.565E-03    -187.831E-03    -187.062E-03     374.388E-03    -187.333E-03    -922.507E-06     374.964E-03     140.539E+06    -139.281E+06    -141.268E+06    -280.801E+06    -140.241E+06    -280.380E+06    -140.730E+06    -6.17080E+06
             238     132.769E-03    -31.5999E-09     132.769E-03     376.299E-03    -187.680E-03    -188.617E-03    -187.678E-03     376.297E-03    -188.617E-03    -1.97176E-03     376.868E-03     157.359E+06    -143.711E+06    -147.219E+06    -302.794E+06    -145.813E+06    -302.752E+06    -145.160E+06    -2.53606E+06
             239     131.311E-03    -277.776E-09     131.311E-03     376.915E-03    -187.924E-03    -188.971E-03    -188.802E-03     376.914E-03    -188.093E-03    -1.37088E-03     377.481E-03     170.182E+06    -152.512E+06    -154.944E+06    -323.890E+06    -155.065E+06    -323.769E+06    -152.512E+06    -4.38197E+06
             240     129.856E-03     1.75336E-06     129.856E-03     378.023E-03    -187.472E-03    -190.599E-03    -190.597E-03     378.021E-03    -187.472E-03    -1.89018E-03     378.685E-03     179.206E+06    -159.215E+06    -163.864E+06    -340.671E+06    -159.697E+06    -340.561E+06    -163.492E+06    -1.48981E+06
             241     128.397E-03     1.88333E-06     128.397E-03     378.488E-03    -187.436E-03    -191.030E-03    -191.027E-03     378.485E-03    -187.436E-03    -2.61126E-03     379.289E-03     187.068E+06    -154.290E+06    -162.543E+06    -345.348E+06    -158.295E+06    -345.317E+06    -158.567E+06     261.656E+03
             242     126.938E-03     429.929E-09     126.938E-03     377.960E-03    -188.028E-03    -189.853E-03    -189.370E-03     377.958E-03    -188.507E-03    -2.18197E-03     378.784E-03     190.093E+06    -148.110E+06    -157.260E+06    -342.610E+06    -152.119E+06    -342.577E+06    -153.284E+06     381.593E+03
             243     125.479E-03    -1.43438E-06     125.479E-03     378.184E-03    -188.678E-03    -189.415E-03    -188.675E-03     378.181E-03    -189.415E-03    -2.33337E-03     379.018E-03     187.050E+06    -144.643E+06    -155.945E+06    -337.085E+06    -150.795E+06    -337.061E+06    -149.817E+06     1.93864E+06
             244     124.019E-03     1.07135E-06     124.019E-03     379.854E-03    -188.924E-03    -190.826E-03    -190.565E-03     379.851E-03    -189.181E-03    -2.78317E-03     380.756E-03     186.335E+06    -141.615E+06    -154.123E+06    -333.888E+06    -147.752E+06    -333.879E+06    -147.995E+06     1.27999E+06
             245     122.560E-03     1.62643E-06     122.560E-03     380.858E-03    -189.088E-03    -191.675E-03    -191.672E-03     380.855E-03    -189.088E-03    -2.73345E-03     381.804E-03     189.710E+06    -131.784E+06    -144.042E+06    -327.325E+06    -137.670E+06    -327.318E+06    -138.164E+06     1.13195E+06
             246     121.093E-03    -30.1298E-09     121.093E-03     379.897E-03    -189.131E-03    -190.661E-03    -190.659E-03     379.894E-03    -189.131E-03    -2.27656E-03     380.870E-03     188.791E+06    -131.323E+06    -142.736E+06    -325.561E+06    -137.248E+06    -325.514E+06    -136.858E+06    -1.75711E+06
             247     119.637E-03     890.200E-09     119.637E-03     378.939E-03    -188.628E-03    -190.243E-03    -190.241E-03     378.937E-03    -188.628E-03    -2.15108E-03     379.855E-03     190.117E+06    -133.408E+06    -142.467E+06    -327.885E+06    -137.081E+06    -327.736E+06    -138.943E+06     999.952E+03
             248     118.174E-03     857.948E-09     118.174E-03     379.551E-03    -188.758E-03    -190.705E-03    -189.783E-03     379.549E-03    -189.678E-03    -991.524E-06     380.441E-03     191.717E+06    -127.394E+06    -132.843E+06    -321.772E+06    -131.052E+06    -321.638E+06    -129.319E+06     1.36212E+06
             249     116.719E-03    -2.25933E-06     116.719E-03     381.116E-03    -189.906E-03    -190.999E-03    -189.897E-03     381.107E-03    -190.999E-03    -2.81797E-03     382.021E-03     189.709E+06    -128.473E+06    -131.371E+06    -319.613E+06    -129.507E+06    -319.551E+06    -130.398E+06    -72.5435E+03
             250     115.251E-03     1.99295E-06     115.251E-03     380.442E-03    -189.878E-03    -190.440E-03    -189.869E-03     380.433E-03    -190.440E-03    -3.62215E-03     381.290E-03     185.767E+06    -130.327E+06    -133.221E+06    -317.522E+06    -131.332E+06    -317.489E+06    -132.249E+06     2.20680E+06
             251     113.789E-03    -2.65119E-06     113.789E-03     379.768E-03    -188.695E-03    -191.044E-03    -188.694E-03     379.767E-03    -191.044E-03    -1.37346E-03     380.450E-03     185.476E+06    -125.037E+06    -127.905E+06    -311.928E+06    -125.996E+06    -311.914E+06    -126.959E+06    -456.261E+03
             252     112.332E-03    -604.497E-09     112.332E-03     381.659E-03    -188.925E-03    -192.675E-03    -190.708E-03     381.653E-03    -190.885E-03    -3.51238E-03     382.377E-03     185.332E+06    -125.785E+06    -128.953E+06    -312.676E+06    -126.744E+06    -312.662E+06    -128.007E+06    -416.750E+03
             253     110.863E-03     3.51080E-06     110.863E-03     381.876E-03    -189.381E-03    -192.467E-03    -192.461E-03     381.870E-03    -189.381E-03    -2.57006E-03     382.591E-03     186.439E+06    -125.254E+06    -130.064E+06    -314.051E+06    -127.854E+06    -314.039E+06    -127.476E+06    -327.818E+03
             254     109.401E-03    -1.34160E-06     109.401E-03     380.950E-03    -189.758E-03    -191.138E-03    -191.135E-03     380.947E-03    -189.758E-03    -1.79168E-03     381.530E-03     188.773E+06    -125.522E+06    -128.497E+06    -315.756E+06    -128.119E+06    -315.746E+06    -125.910E+06    -546.464E+03
             255     107.940E-03     1.56082E-06     107.940E-03     381.235E-03    -189.774E-03    -191.434E-03    -191.429E-03     381.230E-03    -189.774E-03    -3.30422E-03     381.848E-03     186.203E+06    -128.653E+06    -129.964E+06    -315.507E+06    -129.582E+06    -315.502E+06    -129.040E+06     922.620E+03
             256     106.473E-03     1.02257E-06     106.473E-03     381.677E-03    -188.901E-03    -192.824E-03    -192.821E-03     381.674E-03    -188.901E-03    -2.83205E-03     382.283E-03     184.791E+06    -126.894E+06    -128.582E+06    -312.523E+06    -127.857E+06    -312.484E+06    -127.658E+06    -1.24731E+06
             257     105.011E-03     2.82152E-06     105.011E-03     381.337E-03    -189.102E-03    -192.295E-03    -192.293E-03     381.335E-03    -189.102E-03    -2.23469E-03     381.908E-03     185.855E+06    -130.756E+06    -131.954E+06    -317.207E+06    -130.795E+06    -317.168E+06    -131.954E+06    -1.26248E+06
             258     103.549E-03    -1.40395E-06     103.549E-03     379.980E-03    -188.974E-03    -191.065E-03    -189.818E-03     379.977E-03    -190.218E-03    -2.47592E-03     380.517E-03     186.665E+06    -128.061E+06    -131.643E+06    -316.476E+06    -131.224E+06    -316.462E+06    -128.494E+06     1.55139E+06
             259     102.088E-03    -641.117E-09     102.088E-03     380.276E-03    -188.802E-03    -191.512E-03    -190.265E-03     380.273E-03    -190.046E-03    -2.66721E-03     380.790E-03     186.152E+06    -125.087E+06    -131.011E+06    -314.130E+06    -128.280E+06    -314.085E+06    -127.862E+06    -798.765E+03
             260     100.626E-03     3.03448E-06     100.626E-03     381.488E-03    -189.481E-03    -192.022E-03    -192.016E-03     381.482E-03    -189.481E-03    -3.42744E-03     381.965E-03     184.254E+06    -129.791E+06    -132.849E+06    -315.542E+06    -130.195E+06    -315.420E+06    -132.567E+06     1.04627E+06
             261     99.1645E-03    -1.23304E-06     99.1645E-03     379.914E-03    -188.549E-03    -191.358E-03    -189.617E-03     379.907E-03    -190.282E-03    -3.89800E-03     380.456E-03     182.966E+06    -127.930E+06    -128.484E+06    -311.173E+06    -128.322E+06    -311.063E+06    -128.202E+06     1.45119E+06
             262     97.7015E-03    -1.76535E-06     97.7015E-03     380.225E-03    -188.381E-03    -191.857E-03    -190.121E-03     380.223E-03    -190.115E-03    -1.91213E-03     380.869E-03     180.240E+06    -128.581E+06    -129.014E+06    -309.037E+06    -128.602E+06    -309.016E+06    -129.014E+06    -1.30326E+06
             263     96.2354E-03     4.71545E-06     96.2354E-03     383.069E-03    -189.528E-03    -193.608E-03    -193.608E-03     383.068E-03    -189.528E-03    -645.586E-06     383.858E-03     178.343E+06    -130.700E+06    -132.160E+06    -309.766E+06    -130.702E+06    -309.764E+06    -132.160E+06     529.613E+03
             264     94.7710E-03    -859.081E-09     94.7710E-03     381.680E-03    -189.496E-03    -192.207E-03    -192.202E-03     381.675E-03    -189.496E-03    -2.58627E-03     382.431E-03     179.355E+06    -129.608E+06    -133.767E+06    -311.001E+06    -132.491E+06    -310.979E+06    -130.907E+06    -900.495E+03
             265     93.3090E-03     1.46947E-06     93.3090E-03     378.924E-03    -189.112E-03    -189.799E-03    -189.479E-03     378.919E-03    -189.426E-03    -2.76153E-03     379.506E-03     182.933E+06    -128.941E+06    -136.412E+06    -315.490E+06    -131.823E+06    -315.469E+06    -133.552E+06    -1.10158E+06
             266     91.8538E-03    -2.02074E-06     91.8538E-03     380.089E-03    -189.568E-03    -190.508E-03    -189.566E-03     380.087E-03    -190.508E-03    -1.81946E-03     380.650E-03     188.296E+06    -125.547E+06    -135.648E+06    -318.689E+06    -131.048E+06    -318.677E+06    -130.158E+06     1.24243E+06
             267     90.3853E-03     1.04380E-06     90.3853E-03     381.099E-03    -189.560E-03    -191.525E-03    -190.893E-03     381.094E-03    -190.186E-03    -3.49518E-03     381.604E-03     185.485E+06    -123.351E+06    -133.902E+06    -313.886E+06    -128.857E+06    -313.869E+06    -128.412E+06     256.109E+03
             268     88.9273E-03     1.09934E-06     88.9273E-03     380.531E-03    -188.835E-03    -191.705E-03    -191.700E-03     380.526E-03    -188.835E-03    -3.12311E-03     381.091E-03     180.153E+06    -125.432E+06    -133.637E+06    -309.540E+06    -128.590E+06    -309.525E+06    -130.494E+06     145.524E+03
             269     87.4639E-03     1.48359E-06     87.4639E-03     380.659E-03    -188.703E-03    -191.960E-03    -191.954E-03     380.653E-03    -188.703E-03    -3.22061E-03     381.257E-03     177.890E+06    -128.113E+06    -134.222E+06    -308.979E+06    -131.265E+06    -308.969E+06    -131.079E+06     656.828E+03
             270     86.0008E-03     1.32078E-06     86.0008E-03     381.198E-03    -189.586E-03    -191.556E-03    -191.552E-03     381.194E-03    -189.586E-03    -1.88518E-03     381.759E-03     177.579E+06    -127.218E+06    -132.131E+06    -307.199E+06    -129.165E+06    -307.199E+06    -130.184E+06    -347.265E+03
             271     84.5367E-03    -866.543E-09     84.5367E-03     381.339E-03    -190.200E-03    -191.139E-03    -191.131E-03     381.330E-03    -190.200E-03    -2.79211E-03     381.906E-03     180.790E+06    -126.290E+06    -129.596E+06    -308.709E+06    -128.238E+06    -308.707E+06    -127.650E+06    -494.426E+03
             272     83.0737E-03     1.97559E-06     83.0737E-03     379.923E-03    -189.448E-03    -190.529E-03    -190.520E-03     379.914E-03    -189.448E-03    -3.69482E-03     380.430E-03     183.556E+06    -128.669E+06    -132.489E+06    -314.103E+06    -131.130E+06    -314.101E+06    -130.030E+06    -593.140E+03
             273     81.6161E-03    -1.31307E-06     81.6161E-03     379.971E-03    -189.447E-03    -190.501E-03    -189.831E-03     379.968E-03    -190.114E-03    -2.33223E-03     380.438E-03     184.701E+06    -124.496E+06    -131.763E+06    -312.712E+06    -126.965E+06    -312.702E+06    -129.304E+06     746.150E+03
             274     81.4716E-03     14.0681E-03     80.2478E-03     404.924E-03    -190.273E-03    -214.620E-03    -194.093E-03     384.397E-03    -190.273E-03     202.370E-03     569.337E-03     78.1482E+06     80.9997E+06     61.0631E+06    -5.17529E+06    -5.16608E+06     61.0539E+06     80.9997E+06     498.995E+03
             275     80.9076E-03     13.2376E-03     79.8173E-03     407.764E-03    -190.034E-03    -217.800E-03    -193.023E-03     382.987E-03    -190.034E-03     237.864E-03     605.084E-03     78.4460E+06     76.1627E+06     55.7172E+06    -10.4594E+06    -10.4409E+06     55.6988E+06     76.1627E+06     103.601E+03
             276     80.5505E-03     12.4122E-03     79.5884E-03     393.182E-03    -189.925E-03    -203.140E-03    -186.886E-03     376.929E-03    -189.925E-03     193.335E-03     573.994E-03     80.3114E+06     74.3177E+06     50.9957E+06    -15.0663E+06    -15.0527E+06     50.9821E+06     74.3177E+06    -133.611E+03
             277     80.1482E-03     11.5855E-03     79.3064E-03     390.964E-03    -190.104E-03    -200.794E-03    -185.042E-03     375.213E-03    -190.104E-03     189.355E-03     577.356E-03     85.5215E+06     74.8333E+06     47.8502E+06    -20.9145E+06    -20.9085E+06     47.8441E+06     74.8333E+06     362.819E+03
             278     79.8275E-03     10.7558E-03     79.0996E-03     384.104E-03    -190.210E-03    -193.894E-03    -183.100E-03     373.309E-03    -190.210E-03     156.199E-03     558.200E-03     90.8081E+06     73.4987E+06     42.6766E+06    -28.7067E+06    -28.6869E+06     42.6568E+06     73.4987E+06     1.01599E+06
             279     79.5389E-03     9.92714E-03     78.9170E-03     380.485E-03    -189.684E-03    -191.206E-03    -182.923E-03     372.778E-03    -190.260E-03     130.951E-03     540.083E-03     91.0820E+06     65.1918E+06     35.8872E+06     -36.911E+06    -36.8828E+06     35.8590E+06     65.1918E+06     1.33897E+06
             280     79.3077E-03     9.10043E-03     78.7839E-03     377.141E-03    -187.539E-03    -190.310E-03    -183.225E-03     372.827E-03    -190.310E-03     96.4694E-03     514.057E-03     86.2790E+06     49.8037E+06     27.8296E+06    -45.2731E+06    -45.2327E+06     27.7892E+06     49.8037E+06     1.20283E+06
             281     79.1359E-03     8.27213E-03     78.7023E-03     376.314E-03    -186.354E-03    -190.285E-03    -184.297E-03     374.258E-03    -190.285E-03     67.1180E-03     487.897E-03     80.3468E+06     31.5852E+06     17.7537E+06    -54.7295E+06    -54.6937E+06     17.7180E+06     31.5852E+06     1.00538E+06
             282     79.0005E-03     7.44540E-03     78.6489E-03     376.834E-03    -186.761E-03    -190.229E-03    -185.691E-03     375.764E-03    -190.229E-03     48.2559E-03     467.379E-03     76.7485E+06     16.4804E+06     6.96622E+06    -64.5793E+06    -64.5691E+06     6.95608E+06     16.4804E+06     305.129E+03
             283     78.8956E-03     6.61781E-03     78.6176E-03     376.476E-03    -186.496E-03    -190.341E-03    -186.001E-03     375.981E-03    -190.341E-03     32.6692E-03     447.700E-03     70.5458E+06     2.02400E+06    -30.5771E+06    -73.5546E+06    -73.5398E+06    -30.5918E+06     2.02400E+06     171.599E+03
             284     78.8193E-03     5.78866E-03     78.6064E-03     376.979E-03    -187.004E-03    -190.456E-03    -186.811E-03     376.787E-03    -190.456E-03     19.9745E-03     430.836E-03     72.0856E+06    -18.3373E+06    -75.3304E+06    -98.9776E+06    -82.6579E+06    -91.6501E+06    -18.3373E+06     404.389E+03
             285     78.7679E-03     4.96090E-03     78.6115E-03     378.672E-03    -188.431E-03    -190.543E-03    -188.379E-03     378.620E-03    -190.543E-03     9.99453E-03     417.765E-03     92.5917E+06    -38.4053E+06    -91.6211E+06    -144.348E+06    -91.6310E+06    -144.338E+06    -38.4053E+06     202.432E+03
             286     78.7253E-03     4.13478E-03     78.6166E-03     379.630E-03    -189.124E-03    -190.556E-03    -189.116E-03     379.622E-03    -190.556E-03     2.30671E-03     406.249E-03     116.520E+06    -56.5026E+06    -99.8794E+06    -188.155E+06    -99.8817E+06    -188.153E+06    -56.5026E+06     101.288E+03
             287     78.7027E-03     3.30748E-03     78.6332E-03     380.024E-03    -189.514E-03    -190.606E-03    -189.509E-03     380.019E-03    -190.606E-03    -2.97815E-03     396.927E-03     137.462E+06    -75.5701E+06    -108.168E+06    -226.218E+06    -108.169E+06    -226.218E+06    -75.5701E+06    -132.425E+03
             288     78.6916E-03     2.47919E-03     78.6526E-03     380.732E-03    -190.166E-03    -190.701E-03    -190.154E-03     380.720E-03    -190.701E-03    -5.14320E-03     390.371E-03     156.091E+06    -94.3918E+06    -116.011E+06    -260.054E+06    -116.023E+06    -260.042E+06    -94.3918E+06     16.4856E+03
             289     78.6880E-03     1.65428E-03     78.6707E-03     381.066E-03    -190.496E-03    -190.642E-03    -190.529E-03     381.054E-03    -190.597E-03    -5.17574E-03     385.659E-03     168.347E+06    -111.394E+06    -122.307E+06    -284.837E+06    -122.164E+06    -284.809E+06    -111.565E+06    -134.079E+03
             290     78.6862E-03     826.985E-06     78.6819E-03     380.961E-03    -189.926E-03    -191.095E-03    -191.087E-03     380.953E-03    -189.926E-03    -3.95402E-03     382.493E-03     179.679E+06    -122.131E+06    -130.618E+06    -305.861E+06    -127.860E+06    -305.832E+06    -124.917E+06     -847.26E+03
             291     80.0281E-03     14.0680E-03     78.7819E-03     404.942E-03    -190.223E-03    -214.760E-03    -194.277E-03     384.459E-03    -190.223E-03     202.687E-03     569.844E-03     77.7327E+06     81.7043E+06     61.0743E+06    -4.24551E+06    -4.23536E+06     61.0641E+06     81.7043E+06     537.663E+03
             292     79.4714E-03     13.2426E-03     78.3603E-03     406.806E-03    -190.034E-03    -216.986E-03    -192.265E-03     382.085E-03    -190.034E-03     237.469E-03     604.510E-03     77.7727E+06     77.1586E+06     56.5676E+06    -8.81968E+06    -8.79721E+06     56.5452E+06     77.1586E+06     108.980E+03
             293     79.1024E-03     12.4123E-03     78.1225E-03     392.830E-03    -189.947E-03    -202.776E-03    -186.468E-03     376.522E-03    -189.947E-03     193.591E-03     573.375E-03     80.1290E+06     74.0964E+06     50.2991E+06    -15.2261E+06    -15.2082E+06     50.2812E+06     74.0964E+06     92.9833E+03
             294     78.7047E-03     11.5826E-03     77.8478E-03     390.920E-03    -190.135E-03    -200.697E-03    -185.078E-03     375.301E-03    -190.135E-03     188.460E-03     577.526E-03     85.9437E+06     73.7006E+06     46.6505E+06    -22.5074E+06    -22.5053E+06     46.6483E+06     73.7006E+06     25.1258E+03
             295     78.3763E-03     10.7556E-03     77.6348E-03     383.851E-03    -190.238E-03    -193.676E-03    -183.014E-03     373.188E-03    -190.238E-03     155.222E-03     558.174E-03     91.1276E+06     73.0933E+06     42.3761E+06    -29.4118E+06    -29.4024E+06     42.3667E+06     73.0933E+06     234.780E+03
             296     78.0905E-03     9.92875E-03     77.4567E-03     380.357E-03    -189.733E-03    -191.093E-03    -182.825E-03     372.635E-03    -190.280E-03     131.107E-03     539.936E-03     91.6100E+06     65.5080E+06     35.7903E+06    -37.2410E+06    -37.2243E+06     35.7736E+06     65.5080E+06     894.088E+03
             297     77.8520E-03     9.09986E-03     77.3183E-03     377.359E-03    -187.722E-03    -190.337E-03    -183.367E-03     373.004E-03    -190.337E-03     96.9041E-03     514.134E-03     86.2879E+06     49.2601E+06     27.2935E+06    -45.8227E+06    -45.7888E+06     27.2597E+06     49.2601E+06     1.20371E+06
             298     77.6827E-03     8.27287E-03     77.2409E-03     376.146E-03    -186.228E-03    -190.315E-03    -184.103E-03     374.021E-03    -190.315E-03     68.4055E-03     487.624E-03     80.0672E+06     31.9814E+06     18.2132E+06    -54.0282E+06    -53.9764E+06     18.1614E+06     31.9814E+06     1.65936E+06
             299     77.5412E-03     7.44439E-03     77.1831E-03     376.177E-03    -186.166E-03    -190.304E-03    -185.024E-03     375.035E-03    -190.304E-03     49.6653E-03     466.924E-03     76.1101E+06     17.8845E+06     8.92234E+06    -62.3026E+06    -62.2623E+06     8.88210E+06     17.8845E+06     1.36591E+06
             300     77.4404E-03     6.61563E-03     77.1573E-03     376.632E-03    -186.550E-03    -190.481E-03    -186.060E-03     376.142E-03    -190.481E-03     32.3127E-03     447.977E-03     69.4796E+06     1.66523E+06    -30.9609E+06    -72.0764E+06    -72.0521E+06    -30.9851E+06     1.66523E+06     579.254E+03
             301     77.3615E-03     5.78694E-03     77.1448E-03     377.999E-03    -187.929E-03    -190.569E-03    -187.751E-03     377.821E-03    -190.569E-03     19.2640E-03     431.667E-03     71.4660E+06    -17.8067E+06    -76.0463E+06    -97.1106E+06    -81.7803E+06    -91.3765E+06    -17.8067E+06     550.712E+03
             302     77.3023E-03     4.96178E-03     77.1429E-03     379.358E-03    -189.125E-03    -190.533E-03    -189.079E-03     379.312E-03    -190.533E-03     9.07820E-03     418.361E-03     92.0458E+06    -37.5864E+06    -91.4306E+06    -142.758E+06    -91.4677E+06    -142.721E+06    -37.5864E+06     453.594E+03
             303     77.2651E-03     4.13514E-03     77.1544E-03     379.473E-03    -189.054E-03    -190.477E-03    -189.049E-03     379.469E-03    -190.477E-03     1.82765E-03     406.287E-03     116.286E+06    -57.3412E+06    -100.645E+06    -188.713E+06    -100.648E+06    -188.711E+06    -57.3412E+06     50.7089E+03
             304     77.2411E-03     3.30725E-03     77.1703E-03     379.637E-03    -189.175E-03    -190.581E-03    -189.169E-03     379.631E-03    -190.581E-03    -2.83007E-03     396.663E-03     137.034E+06    -76.4651E+06    -108.983E+06    -226.659E+06    -108.985E+06    -226.657E+06    -76.4651E+06    -30.4635E+03
             305     77.2297E-03     2.48091E-03     77.1899E-03     380.637E-03    -189.987E-03    -190.766E-03    -189.974E-03     380.624E-03    -190.766E-03    -5.32962E-03     390.181E-03     155.263E+06    -94.9510E+06    -117.050E+06    -259.983E+06    -117.058E+06    -259.975E+06    -94.9510E+06    -51.3442E+03
             306     77.2241E-03     1.65249E-03     77.2064E-03     381.213E-03    -190.477E-03    -190.804E-03    -190.489E-03     381.201E-03    -190.780E-03    -5.21682E-03     385.745E-03     168.027E+06    -111.336E+06    -124.017E+06    -285.285E+06    -124.032E+06    -285.271E+06    -111.336E+06     23.1015E+03
             307     77.2246E-03     826.499E-06     77.2202E-03     381.435E-03    -190.011E-03    -191.472E-03    -191.380E-03     381.429E-03    -190.096E-03    -3.24355E-03     382.947E-03     179.006E+06    -122.530E+06    -130.868E+06    -305.546E+06    -128.276E+06    -305.522E+06    -125.145E+06     1.06750E+06
             308     78.5868E-03     14.0686E-03     77.3172E-03     404.532E-03    -190.213E-03    -214.352E-03    -193.827E-03     384.008E-03    -190.213E-03     202.517E-03     570.056E-03     78.1334E+06     81.6456E+06     60.9672E+06    -4.71282E+06    -4.70366E+06     60.9580E+06     81.6456E+06    -513.763E+03
             309     78.0294E-03     13.2393E-03     76.8981E-03     406.982E-03    -190.051E-03    -217.109E-03    -192.265E-03     382.138E-03    -190.051E-03     238.091E-03     604.795E-03     78.1436E+06     76.0302E+06     56.2495E+06    -10.0884E+06    -10.0779E+06     56.2390E+06     76.0302E+06     118.215E+03
             310     77.6620E-03     12.4114E-03     76.6638E-03     393.357E-03    -189.947E-03    -203.246E-03    -186.872E-03     376.982E-03    -189.947E-03     194.169E-03     573.592E-03     79.9308E+06     73.1513E+06     49.5326E+06    -15.9129E+06    -15.9042E+06     49.5239E+06     73.1513E+06     666.737E+03
             311     77.2561E-03     11.5856E-03     76.3825E-03     390.707E-03    -190.126E-03    -200.519E-03    -184.894E-03     375.082E-03    -190.126E-03     188.438E-03     577.335E-03     85.3278E+06     73.5777E+06     46.6864E+06    -21.9556E+06    -21.9446E+06     46.6753E+06     73.5777E+06     473.692E+03
             312     76.9326E-03     10.7575E-03     76.1768E-03     383.690E-03    -190.254E-03    -193.528E-03    -182.727E-03     372.888E-03    -190.254E-03     156.226E-03     557.843E-03     90.6134E+06     72.2495E+06     42.1452E+06    -29.5716E+06    -29.5589E+06     42.1324E+06     72.2495E+06     486.141E+03
             313     76.6381E-03     9.92610E-03     75.9926E-03     380.467E-03    -189.659E-03    -191.200E-03    -182.705E-03     372.640E-03    -190.327E-03     131.832E-03     539.616E-03     91.6478E+06     64.7896E+06     35.2203E+06    -37.9639E+06    -37.9505E+06     35.2068E+06     64.7896E+06     382.707E+03
             314     76.4004E-03     9.09933E-03     75.8566E-03     377.218E-03    -187.443E-03    -190.402E-03    -183.124E-03     372.899E-03    -190.402E-03     96.5336E-03     513.555E-03     86.9716E+06     49.9126E+06     27.3977E+06    -46.0475E+06    -46.0349E+06     27.3852E+06     49.9126E+06     367.923E+03
             315     76.2267E-03     8.27050E-03     75.7767E-03     376.001E-03    -185.878E-03    -190.413E-03    -183.788E-03     373.912E-03    -190.413E-03     67.6805E-03     487.745E-03     80.4646E+06     32.2036E+06     17.9421E+06    -54.3739E+06    -54.3542E+06     17.9224E+06     32.2036E+06     691.350E+03
             316     76.0882E-03     7.44247E-03     75.7234E-03     376.450E-03    -186.164E-03    -190.434E-03    -185.067E-03     375.352E-03    -190.434E-03     48.7308E-03     467.270E-03     76.3243E+06     17.5568E+06     8.24632E+06    -62.9880E+06    -62.9507E+06     8.20903E+06     17.5568E+06     1.29349E+06
             317     75.9805E-03     6.61473E-03     75.6920E-03     377.726E-03    -187.563E-03    -190.567E-03    -187.088E-03     377.251E-03    -190.567E-03     31.8143E-03     448.836E-03     70.0827E+06     2.79075E+06    -29.7236E+06    -72.1159E+06    -71.9509E+06    -29.8885E+06     2.79075E+06     1.58082E+06
             318     75.9015E-03     5.79038E-03     75.6803E-03     378.571E-03    -188.610E-03    -190.552E-03    -188.439E-03     378.399E-03    -190.552E-03     19.0041E-03     432.258E-03     72.7011E+06    -16.4754E+06    -74.7894E+06    -97.5851E+06    -81.5950E+06    -90.7795E+06    -16.4754E+06     1.23717E+06
             319     75.8419E-03     4.96214E-03     75.6794E-03     378.647E-03    -188.510E-03    -190.509E-03    -188.464E-03     378.600E-03    -190.509E-03     8.99910E-03     417.702E-03     92.7729E+06    -35.4956E+06    -90.1871E+06    -141.566E+06    -90.2266E+06    -141.527E+06    -35.4956E+06     722.438E+03
             320     75.8052E-03     4.13471E-03     75.6923E-03     379.271E-03    -188.840E-03    -190.522E-03    -188.836E-03     379.267E-03    -190.522E-03     2.04703E-03     406.235E-03     116.341E+06    -55.9578E+06    -99.2741E+06    -187.332E+06    -99.2822E+06    -187.324E+06    -55.9578E+06     317.388E+03
             321     75.7809E-03     3.30784E-03     75.7087E-03     380.009E-03    -189.491E-03    -190.584E-03    -189.487E-03     380.005E-03    -190.584E-03    -2.15966E-03     397.075E-03     137.158E+06    -77.2212E+06    -109.126E+06    -227.351E+06    -109.128E+06    -227.349E+06    -77.2212E+06     248.293E+03
             322     75.7678E-03     2.47966E-03     75.7272E-03     380.569E-03    -189.936E-03    -190.743E-03    -189.925E-03     380.558E-03    -190.743E-03    -5.01257E-03     390.093E-03     155.310E+06    -95.4360E+06    -116.282E+06    -259.994E+06    -116.289E+06    -259.987E+06    -95.4360E+06     175.724E+03
             323     75.7622E-03     1.65378E-03     75.7442E-03     380.991E-03    -190.218E-03    -190.891E-03    -190.206E-03     380.979E-03    -190.891E-03    -5.09477E-03     385.599E-03     170.351E+06    -111.093E+06    -121.387E+06    -286.288E+06    -121.396E+06    -286.280E+06    -111.093E+06    -384.210E+03
             324     75.7603E-03     826.077E-06     75.7558E-03     381.798E-03    -190.237E-03    -191.636E-03    -190.726E-03     381.793E-03    -191.142E-03    -2.26784E-03     383.337E-03     180.973E+06    -120.860E+06    -125.928E+06    -304.310E+06    -125.162E+06    -304.282E+06    -121.655E+06    -226.103E+03
             325     77.1524E-03     14.0677E-03     75.8590E-03     403.893E-03    -190.218E-03    -213.760E-03    -193.136E-03     383.269E-03    -190.218E-03     202.545E-03     569.186E-03     77.9751E+06     80.5846E+06     60.5544E+06    -5.41957E+06    -5.40727E+06     60.5421E+06     80.5846E+06    -300.169E+03
             326     76.5897E-03     13.2394E-03     75.4367E-03     407.437E-03    -190.084E-03    -217.546E-03    -192.664E-03     382.554E-03    -190.084E-03     238.157E-03     604.824E-03     77.7853E+06     75.2798E+06     55.6587E+06    -10.4150E+06    -10.4073E+06     55.6509E+06     75.2798E+06     189.013E+03
             327     76.2183E-03     12.4131E-03     75.2007E-03     393.088E-03    -189.985E-03    -202.936E-03    -186.507E-03     376.658E-03    -189.985E-03     194.226E-03     573.295E-03     79.4175E+06     72.9755E+06     49.6279E+06    -15.4915E+06    -15.4898E+06     49.6262E+06     72.9755E+06     244.815E+03
             328     75.8121E-03     11.5823E-03     74.9222E-03     390.784E-03    -190.196E-03    -200.498E-03    -184.486E-03     374.771E-03    -190.196E-03     190.789E-03     577.169E-03     84.6991E+06     73.0954E+06     46.2627E+06    -21.7662E+06    -21.7548E+06     46.2513E+06     73.0954E+06     677.545E+03
             329     75.4827E-03     10.7528E-03     74.7129E-03     384.847E-03    -190.339E-03    -194.626E-03    -183.744E-03     373.964E-03    -190.339E-03     156.940E-03     559.324E-03     90.0872E+06     72.4763E+06     42.5621E+06    -28.7603E+06    -28.7460E+06     42.5477E+06     72.4763E+06     909.533E+03
             330     75.1884E-03     9.92788E-03     74.5301E-03     380.465E-03    -189.117E-03    -191.756E-03    -182.906E-03     372.867E-03    -190.370E-03     129.941E-03     540.122E-03     91.1675E+06     65.2498E+06     36.2849E+06    -36.8639E+06    -36.8556E+06     36.2766E+06     65.2498E+06     281.604E+03
             331     74.9494E-03     9.09861E-03     74.3950E-03     376.593E-03    -186.796E-03    -190.448E-03    -182.534E-03     372.332E-03    -190.448E-03     95.9609E-03     513.108E-03     86.8054E+06     49.9587E+06     27.1371E+06    -45.9353E+06    -45.9242E+06     27.1261E+06     49.9587E+06    -101.545E+03
             332     74.7728E-03     8.27083E-03     74.3140E-03     376.472E-03    -186.282E-03    -190.470E-03    -184.208E-03     374.397E-03    -190.470E-03     67.3377E-03     488.356E-03     80.7669E+06     32.5012E+06     17.3950E+06    -54.6908E+06    -54.6783E+06     17.3824E+06     32.5012E+06     180.201E+03
             333     74.6333E-03     7.44354E-03     74.2612E-03     377.298E-03    -186.959E-03    -190.420E-03    -185.904E-03     376.243E-03    -190.420E-03     47.9440E-03     467.777E-03     76.4182E+06     17.3666E+06     7.67541E+06    -63.4161E+06    -63.3995E+06     7.65883E+06     17.3666E+06     835.381E+03
             334     74.5228E-03     6.61601E-03     74.2286E-03     377.573E-03    -187.428E-03    -190.502E-03    -186.954E-03     377.098E-03    -190.502E-03     31.9143E-03     448.436E-03     69.5770E+06     1.96816E+06    -30.0827E+06    -72.3750E+06    -72.2178E+06    -30.2399E+06     1.96816E+06     1.26454E+06
             335     74.4402E-03     5.78834E-03     74.2148E-03     377.832E-03    -187.866E-03    -190.530E-03    -187.694E-03     377.660E-03    -190.530E-03     18.8396E-03     431.683E-03     71.7218E+06    -16.5967E+06    -73.7043E+06    -96.7238E+06    -80.4606E+06    -89.9675E+06    -16.5967E+06     835.714E+03
             336     74.3865E-03     4.96188E-03     74.2209E-03     378.346E-03    -188.187E-03    -190.583E-03    -188.141E-03     378.300E-03    -190.583E-03     9.46540E-03     417.459E-03     93.3671E+06    -34.9301E+06    -89.0087E+06    -141.741E+06    -89.0193E+06    -141.730E+06    -34.9301E+06     569.319E+03
             337     74.3439E-03     4.13352E-03     74.2289E-03     379.452E-03    -188.937E-03    -190.653E-03    -188.928E-03     379.444E-03    -190.653E-03     2.63952E-03     406.291E-03     117.362E+06    -54.4780E+06    -98.3597E+06    -187.093E+06    -98.3784E+06    -187.074E+06    -54.4780E+06     1.11534E+06
             338     74.3202E-03     3.30674E-03     74.2465E-03     380.316E-03    -189.695E-03    -190.723E-03    -189.692E-03     380.313E-03    -190.723E-03    -2.04538E-03     397.277E-03     137.144E+06    -75.1870E+06    -106.557E+06    -225.070E+06    -106.570E+06    -225.057E+06    -75.1870E+06     752.926E+03
             339     74.3053E-03     2.48092E-03     74.2639E-03     380.829E-03    -190.119E-03    -190.859E-03    -190.110E-03     380.819E-03    -190.859E-03    -4.42295E-03     390.273E-03     155.797E+06    -94.7203E+06    -114.111E+06    -259.199E+06    -114.115E+06    -259.195E+06    -94.7203E+06    -93.2640E+03
             340     74.3003E-03     1.65258E-03     74.2819E-03     381.387E-03    -190.414E-03    -191.107E-03    -190.574E-03     381.378E-03    -190.937E-03    -4.40550E-03     385.948E-03     171.707E+06    -110.610E+06    -120.127E+06    -286.823E+06    -120.132E+06    -286.818E+06    -110.610E+06    -373.834E+03
             341     74.2961E-03     826.028E-06     74.2915E-03     381.693E-03    -190.358E-03    -191.429E-03    -190.605E-03     381.688E-03    -191.178E-03    -2.73293E-03     383.228E-03     182.382E+06    -119.878E+06    -124.268E+06    -304.414E+06    -122.398E+06    -304.397E+06    -121.764E+06    -378.732E+03
             342     75.7172E-03     14.0663E-03     74.3992E-03     404.583E-03    -190.276E-03    -214.333E-03    -193.608E-03     383.857E-03    -190.276E-03     203.351E-03     569.427E-03     77.3035E+06     80.7016E+06      60.772E+06    -4.57919E+06    -4.57409E+06     60.7669E+06     80.7016E+06     353.222E+03
             343     75.1471E-03     13.2387E-03     73.9718E-03     407.396E-03    -190.126E-03    -217.437E-03    -192.422E-03     382.381E-03    -190.126E-03     238.884E-03     604.625E-03     77.4252E+06     76.0884E+06     56.0754E+06    -9.34102E+06    -9.33582E+06     56.0702E+06     76.0884E+06     454.253E+03
             344     74.7761E-03     12.4099E-03     73.7391E-03     392.587E-03    -190.043E-03    -202.398E-03    -186.095E-03     376.284E-03    -190.043E-03     193.460E-03     573.208E-03     79.3485E+06     72.6084E+06     49.3951E+06    -15.7542E+06    -15.7531E+06     49.3939E+06     72.6084E+06     131.914E+03
             345     74.3705E-03     11.5801E-03     73.4634E-03     391.587E-03    -190.253E-03    -201.273E-03    -185.521E-03     375.835E-03    -190.253E-03     189.522E-03     577.636E-03     84.2736E+06     72.2141E+06     45.5956E+06    -22.1347E+06    -22.1323E+06     45.5932E+06     72.2141E+06     126.088E+03
             346     74.0253E-03     10.7559E-03     73.2397E-03     384.676E-03    -190.240E-03    -194.618E-03    -183.916E-03     374.090E-03    -190.355E-03     154.756E-03     559.138E-03     90.2080E+06     72.6724E+06     42.3139E+06    -28.7976E+06    -28.7948E+06     42.3111E+06     72.6724E+06     268.689E+03
             347     73.7404E-03     9.92838E-03     73.0690E-03     379.753E-03    -189.051E-03    -191.167E-03    -182.364E-03     372.290E-03    -190.391E-03     128.888E-03     540.243E-03     91.3398E+06     65.7641E+06     36.8332E+06    -36.5230E+06    -36.5188E+06     36.8290E+06     65.7641E+06     482.531E+03
             348     73.4993E-03     9.09849E-03     72.9339E-03     376.812E-03    -187.027E-03    -190.489E-03    -182.673E-03     372.458E-03    -190.489E-03     96.9849E-03     513.671E-03     86.0794E+06     49.4049E+06     27.0909E+06    -45.5811E+06    -45.5639E+06     27.0738E+06     49.4049E+06     515.495E+03
             349     73.3174E-03     8.26963E-03     72.8495E-03     376.853E-03    -186.715E-03    -190.477E-03    -184.603E-03     374.741E-03    -190.477E-03     67.9964E-03     488.499E-03     79.9242E+06     31.1951E+06     16.6271E+06    -54.9613E+06    -54.9421E+06     16.6079E+06     31.1951E+06     473.061E+03
             350     73.1751E-03     7.44370E-03     72.7955E-03     377.635E-03    -187.353E-03    -190.383E-03    -186.274E-03     376.555E-03    -190.383E-03     48.5292E-03     467.935E-03     76.0540E+06     16.8275E+06     7.09206E+06    -63.6062E+06    -63.5960E+06     7.08183E+06     16.8275E+06     695.570E+03
             351     73.0669E-03     6.61709E-03     72.7666E-03     377.132E-03    -186.987E-03    -190.467E-03    -186.501E-03     376.646E-03    -190.467E-03     32.2704E-03     448.081E-03     68.7924E+06     1.36107E+06    -29.3578E+06    -72.4874E+06    -72.4756E+06    -29.3696E+06     1.36107E+06     453.799E+03
             352     72.9835E-03     5.78910E-03     72.7535E-03     377.190E-03    -187.161E-03    -190.565E-03    -186.988E-03     377.016E-03    -190.565E-03     18.7746E-03     431.042E-03     70.2926E+06    -18.0011E+06    -73.6583E+06    -96.7364E+06    -81.5276E+06    -88.8670E+06    -18.0011E+06       71.09E+03
             353     72.9271E-03     4.95993E-03     72.7582E-03     378.671E-03    -188.400E-03    -190.660E-03    -188.357E-03     378.628E-03    -190.660E-03     9.17066E-03     417.910E-03     92.2490E+06    -36.8635E+06    -90.3825E+06    -142.243E+06    -90.3959E+06    -142.229E+06    -36.8635E+06     310.038E+03
             354     72.8832E-03     4.13403E-03     72.7658E-03     379.781E-03    -189.193E-03    -190.709E-03    -189.185E-03     379.773E-03    -190.709E-03     2.16474E-03     406.664E-03     117.105E+06    -55.2172E+06    -98.4861E+06    -187.460E+06    -98.5101E+06    -187.436E+06    -55.2172E+06     372.774E+03
             355     72.8581E-03     3.30675E-03     72.7830E-03     380.339E-03    -189.698E-03    -190.783E-03    -189.693E-03     380.333E-03    -190.783E-03    -2.94158E-03     397.261E-03     137.127E+06    -74.0851E+06    -105.723E+06    -224.057E+06    -105.750E+06    -224.030E+06    -74.0851E+06     513.927E+03
             356     72.8435E-03     2.47838E-03     72.8013E-03     381.214E-03    -190.308E-03    -191.063E-03    -190.512E-03     381.199E-03    -190.845E-03    -5.46352E-03     390.629E-03     155.595E+06    -93.5807E+06    -113.170E+06    -257.915E+06    -113.180E+06    -257.905E+06    -93.5807E+06     419.954E+03
             357     72.8369E-03     1.65299E-03     72.8181E-03     381.646E-03    -190.535E-03    -191.230E-03    -191.081E-03     381.632E-03    -190.670E-03    -5.44127E-03     386.138E-03     172.308E+06    -109.681E+06    -120.013E+06    -286.883E+06    -120.025E+06    -286.872E+06    -109.681E+06     339.232E+03
             358     72.8308E-03     827.658E-06     72.8261E-03     380.821E-03    -190.176E-03    -190.756E-03    -190.748E-03     380.814E-03    -190.176E-03    -3.87761E-03     382.351E-03     182.243E+06    -119.847E+06    -125.863E+06    -305.017E+06    -124.790E+06    -304.997E+06    -120.939E+06     493.022E+03
             359     74.2782E-03     14.0663E-03     72.9342E-03     404.711E-03    -190.331E-03    -214.360E-03    -193.716E-03     384.066E-03    -190.331E-03     202.955E-03     569.458E-03     76.9443E+06     80.0148E+06     60.2074E+06    -4.85959E+06    -4.85556E+06     60.2034E+06     80.0148E+06     64.4493E+03
             360     73.7085E-03     13.2387E-03     72.5098E-03     406.890E-03    -190.141E-03    -216.944E-03    -192.156E-03     382.102E-03    -190.141E-03     237.411E-03     604.501E-03     77.5335E+06     75.5352E+06     55.3388E+06    -10.0555E+06    -10.0521E+06     55.3354E+06     75.5352E+06     118.160E+03
             361     73.3359E-03     12.4086E-03     72.2785E-03     393.425E-03    -190.035E-03    -203.272E-03    -187.170E-03     377.323E-03    -190.035E-03     192.549E-03     574.110E-03     79.4338E+06     73.4639E+06     50.3810E+06    -14.9528E+06    -14.9502E+06     50.3785E+06     73.4639E+06    -74.0186E+03
             362     72.9197E-03     11.5860E-03     71.9933E-03     391.895E-03    -190.197E-03    -201.612E-03    -185.939E-03     376.221E-03    -190.197E-03     189.246E-03     577.701E-03     83.8543E+06     72.6111E+06     46.2169E+06    -21.2349E+06    -21.2290E+06     46.2109E+06     72.6111E+06     224.308E+03
             363     72.5819E-03     10.7560E-03     71.7805E-03     383.199E-03    -190.098E-03    -193.168E-03    -182.211E-03     372.473E-03    -190.329E-03     155.435E-03     557.500E-03     89.5749E+06     71.7059E+06     41.1258E+06    -29.1539E+06    -29.1479E+06     41.1198E+06     71.7059E+06     332.377E+03
             364     72.2904E-03     9.92496E-03     71.6059E-03     379.871E-03    -189.722E-03    -190.439E-03    -182.058E-03     372.207E-03    -190.439E-03     130.476E-03     540.249E-03     90.7368E+06     64.1643E+06     35.4897E+06    -37.4212E+06    -37.4153E+06     35.4838E+06     64.1643E+06     514.224E+03
             365     72.0473E-03     9.09834E-03     71.4705E-03     378.175E-03    -188.289E-03    -190.518E-03    -183.914E-03     373.800E-03    -190.518E-03     97.3421E-03     514.817E-03     86.0632E+06     49.4194E+06     27.2647E+06    -45.5116E+06    -45.4913E+06     27.2444E+06     49.4194E+06     1.16920E+06
             366     71.8644E-03     8.27166E-03     71.3868E-03     376.847E-03    -186.813E-03    -190.466E-03    -184.718E-03     374.752E-03    -190.466E-03     67.8026E-03     488.199E-03     79.6228E+06     31.7047E+06     17.2182E+06    -54.1109E+06    -54.0782E+06     17.1854E+06     31.7047E+06     1.28873E+06
             367     71.7188E-03     7.44311E-03     71.3315E-03     376.931E-03    -186.666E-03    -190.409E-03    -185.587E-03     375.851E-03    -190.409E-03     48.4481E-03     467.357E-03     75.8118E+06     17.0341E+06     7.10346E+06    -63.2462E+06    -63.2267E+06     7.08399E+06     17.0341E+06     781.394E+03
             368     71.6092E-03     6.61556E-03     71.3030E-03     377.268E-03    -187.041E-03    -190.523E-03    -186.568E-03     376.794E-03    -190.523E-03     31.7160E-03     448.483E-03     68.7407E+06     1.70058E+06    -28.6713E+06    -72.5492E+06    -72.5411E+06    -28.6795E+06     1.70058E+06     447.534E+03
             369     71.5284E-03     5.78746E-03     71.2939E-03     377.815E-03    -187.769E-03    -190.580E-03    -187.603E-03     377.649E-03    -190.580E-03     18.5891E-03     431.587E-03     69.4632E+06    -19.0032E+06    -73.5812E+06    -97.0685E+06    -82.3146E+06    -88.3350E+06    -19.0032E+06     304.121E+03
             370     71.4655E-03     4.96130E-03     71.2930E-03     378.855E-03    -188.631E-03    -190.620E-03    -188.588E-03     378.813E-03    -190.620E-03     8.65317E-03     418.022E-03     90.6462E+06    -38.2607E+06    -91.2608E+06    -141.805E+06    -91.2980E+06    -141.768E+06    -38.2607E+06    -268.498E+03
             371     71.4237E-03     4.13406E-03     71.3040E-03     379.732E-03    -189.237E-03    -190.620E-03    -189.233E-03     379.728E-03    -190.620E-03     1.46942E-03     406.626E-03     115.306E+06    -56.5506E+06    -99.2459E+06    -186.753E+06    -99.2944E+06    -186.704E+06    -56.5506E+06    -167.745E+03
             372     71.3966E-03     3.30693E-03     71.3200E-03     380.521E-03    -189.898E-03    -190.704E-03    -190.001E-03     380.514E-03    -190.595E-03    -3.26082E-03     397.403E-03     136.089E+06    -75.9952E+06    -107.630E+06    -224.937E+06    -107.671E+06    -224.896E+06    -75.9952E+06     166.908E+03
             373     71.3810E-03     2.48182E-03     71.3378E-03     381.095E-03    -190.348E-03    -190.872E-03    -190.660E-03     381.079E-03    -190.545E-03    -5.79261E-03     390.558E-03     154.479E+06    -94.6430E+06    -115.027E+06    -258.174E+06    -115.053E+06    -258.147E+06    -94.6430E+06     364.326E+03
             374     71.3724E-03     1.65505E-03     71.3532E-03     380.852E-03    -190.195E-03    -190.759E-03    -190.572E-03     380.839E-03    -190.369E-03    -5.26376E-03     385.347E-03     171.136E+06    -109.955E+06    -120.869E+06    -286.239E+06    -120.889E+06    -286.219E+06    -109.955E+06     873.791E+03
             375     71.3713E-03     827.182E-06     71.3665E-03     380.361E-03    -189.620E-03    -190.787E-03    -190.662E-03     380.354E-03    -189.737E-03    -3.85954E-03     381.872E-03     180.476E+06    -121.395E+06    -127.335E+06    -304.760E+06    -126.513E+06    -304.743E+06    -122.235E+06     538.314E+03
             376     72.8429E-03     14.0667E-03     71.4718E-03     404.769E-03    -190.349E-03    -214.307E-03    -193.688E-03     384.150E-03    -190.349E-03     203.210E-03     569.845E-03     76.6943E+06     79.9417E+06     60.5155E+06    -4.56168E+06    -4.54705E+06     60.5009E+06     79.9417E+06     150.001E+03
             377     72.2716E-03     13.2374E-03     71.0489E-03     407.750E-03    -190.110E-03    -217.739E-03    -193.054E-03     383.065E-03    -190.110E-03     237.197E-03     605.561E-03     77.5504E+06     75.8511E+06     55.7438E+06    -9.72286E+06    -9.71725E+06     55.7382E+06     75.8511E+06    -370.530E+03
             378     71.8934E-03     12.4136E-03     70.8136E-03     393.732E-03    -189.977E-03    -203.703E-03    -187.400E-03     377.429E-03    -189.977E-03     193.669E-03     574.204E-03     79.3733E+06     72.7573E+06     49.9162E+06    -15.5264E+06    -15.5230E+06     49.9128E+06     72.7573E+06    -340.525E+03
             379     71.4736E-03     11.5831E-03     70.5288E-03     390.734E-03    -190.186E-03    -200.490E-03    -184.637E-03     374.880E-03    -190.186E-03     189.769E-03     576.913E-03     83.5755E+06     71.6703E+06     45.8328E+06    -21.7389E+06    -21.7304E+06     45.8243E+06     71.6703E+06     88.8689E+03
             380     71.1413E-03     10.7536E-03     70.3239E-03     383.116E-03    -190.262E-03    -192.937E-03    -182.110E-03     372.404E-03    -190.377E-03     155.324E-03     557.523E-03     88.6688E+06     71.0615E+06     40.7144E+06    -28.7958E+06    -28.7839E+06     40.7025E+06     71.0615E+06     383.770E+03
             381     70.8415E-03     9.92478E-03     70.1428E-03     380.724E-03    -189.974E-03    -190.997E-03    -182.842E-03     373.068E-03    -190.473E-03     130.522E-03     540.435E-03     89.5964E+06     63.5766E+06     34.9933E+06    -36.7956E+06    -36.7846E+06     34.9823E+06     63.5766E+06     799.699E+03
             382     70.5922E-03     9.09783E-03     70.0035E-03     378.383E-03    -188.473E-03    -190.499E-03    -184.195E-03     374.105E-03    -190.499E-03     96.2028E-03     514.832E-03     85.6573E+06     49.1145E+06     26.8863E+06    -45.4270E+06    -45.4110E+06     26.8703E+06     49.1145E+06     1.07310E+06
             383     70.4114E-03     8.27132E-03     69.9239E-03     376.714E-03    -186.695E-03    -190.430E-03    -184.660E-03     374.679E-03    -190.430E-03     66.8601E-03     488.128E-03     80.2760E+06     33.1207E+06     17.6729E+06    -53.7195E+06    -53.6927E+06     17.6461E+06     33.1207E+06     1.12750E+06
             384     70.2658E-03     7.44348E-03     69.8704E-03     376.488E-03    -186.193E-03    -190.402E-03    -185.132E-03     375.427E-03    -190.402E-03     47.9836E-03     466.893E-03     76.0464E+06     18.5034E+06     7.98246E+06    -62.2442E+06    -62.2042E+06     7.94248E+06     18.5034E+06     1.27991E+06
             385     70.1525E-03     6.61510E-03     69.8399E-03     377.326E-03    -187.084E-03    -190.542E-03    -186.626E-03     376.868E-03    -190.542E-03     31.1267E-03     448.381E-03     68.6026E+06      2.3534E+06    -28.5575E+06    -71.4949E+06    -71.4553E+06    -28.5971E+06      2.3534E+06     1.04168E+06
             386     70.0694E-03     5.78948E-03     69.8298E-03     378.270E-03    -188.224E-03    -190.557E-03    -188.061E-03     378.107E-03    -190.557E-03     18.6105E-03     432.045E-03     69.5643E+06    -17.2742E+06    -72.4764E+06    -95.2453E+06    -80.4675E+06    -87.2543E+06    -17.2742E+06     770.573E+03
             387     70.0068E-03     4.96172E-03     69.8308E-03     378.959E-03    -188.797E-03    -190.514E-03    -188.749E-03     378.911E-03    -190.514E-03     9.21694E-03     418.111E-03     90.5332E+06    -37.5598E+06    -89.9103E+06    -140.912E+06    -89.9633E+06    -140.859E+06    -37.5598E+06     459.163E+03
             388     69.9635E-03     4.13468E-03     69.8412E-03     379.751E-03    -189.395E-03    -190.463E-03    -189.390E-03     379.746E-03    -190.463E-03     1.66445E-03     406.561E-03     115.372E+06    -56.8154E+06    -99.5105E+06    -187.162E+06    -99.5715E+06    -187.101E+06    -56.8154E+06     340.649E+03
             389     69.9345E-03     3.30815E-03     69.8562E-03     380.182E-03    -189.765E-03    -190.508E-03    -189.869E-03     380.177E-03    -190.398E-03    -2.90711E-03     397.193E-03     136.232E+06    -75.9707E+06    -108.165E+06    -225.210E+06    -108.215E+06    -225.160E+06    -75.9707E+06     646.528E+03
             390     69.9188E-03     2.48082E-03     69.8748E-03     380.428E-03    -190.002E-03    -190.529E-03    -190.101E-03     380.417E-03    -190.420E-03    -4.93599E-03     390.064E-03     154.050E+06    -95.2184E+06    -116.202E+06    -258.583E+06    -116.243E+06    -258.542E+06    -95.2184E+06     633.874E+03
             391     69.9122E-03     1.65342E-03     69.8927E-03     380.554E-03    -190.169E-03    -190.472E-03    -190.216E-03     380.543E-03    -190.414E-03    -4.86953E-03     385.094E-03     169.776E+06    -110.647E+06    -122.370E+06    -285.927E+06    -122.384E+06    -285.913E+06    -110.647E+06     456.090E+03
             392     69.9089E-03     826.542E-06     69.9041E-03     380.652E-03    -189.832E-03    -190.838E-03    -190.604E-03     380.645E-03    -190.059E-03    -3.64153E-03     382.138E-03     178.345E+06    -121.527E+06    -126.279E+06    -302.174E+06    -125.446E+06    -302.168E+06    -122.366E+06     731.386E+03
             393     71.4087E-03     14.0652E-03     70.0098E-03     405.010E-03    -190.326E-03    -214.539E-03    -194.213E-03     384.683E-03    -190.326E-03     202.023E-03     569.960E-03     76.5850E+06     79.5886E+06     60.5183E+06    -4.68097E+06    -4.66726E+06     60.5046E+06     79.5886E+06     113.249E+03
             394     70.8307E-03     13.2403E-03     69.5822E-03     407.268E-03    -190.077E-03    -217.246E-03    -192.701E-03     382.724E-03    -190.077E-03     236.863E-03     604.654E-03     77.2164E+06     74.4275E+06     55.3935E+06    -10.4751E+06    -10.4690E+06     55.3875E+06     74.4275E+06    -619.658E+03
             395     70.4508E-03     12.4112E-03     69.3490E-03     392.983E-03    -189.979E-03    -202.937E-03    -186.497E-03     376.543E-03    -189.979E-03     194.314E-03     573.169E-03     78.7341E+06     71.1006E+06     49.2727E+06    -16.2343E+06    -16.2316E+06     49.2700E+06     71.1006E+06    -229.797E+03
             396     70.0344E-03     11.5829E-03     69.0699E-03     390.765E-03    -190.212E-03    -200.584E-03    -184.909E-03     375.089E-03    -190.212E-03     188.570E-03     577.072E-03     83.3618E+06     70.6769E+06     45.6497E+06    -22.3040E+06    -22.3011E+06     45.6468E+06     70.6769E+06    -224.651E+03
             397     69.6953E-03     10.7542E-03     68.8606E-03     383.902E-03    -190.346E-03    -193.704E-03    -183.232E-03     373.430E-03    -190.346E-03     153.877E-03     558.124E-03     88.8578E+06     70.5579E+06     40.7412E+06    -29.3687E+06    -29.3624E+06     40.7349E+06     70.5579E+06    -13.3162E+03
             398     69.3933E-03     9.92783E-03     68.6795E-03     380.940E-03    -189.912E-03    -191.403E-03    -183.317E-03     373.339E-03    -190.397E-03     130.218E-03     540.351E-03     89.7070E+06     63.2176E+06     34.3109E+06    -37.3598E+06    -37.3526E+06     34.3037E+06     63.2176E+06     545.999E+03
             399     69.1418E-03     9.09981E-03     68.5403E-03     377.626E-03    -187.924E-03    -190.415E-03    -183.686E-03     373.388E-03    -190.415E-03     95.4656E-03     514.143E-03     85.7118E+06     49.3266E+06     26.8073E+06    -45.3463E+06    -45.3391E+06     26.8001E+06     49.3266E+06     566.765E+03
             400     68.9589E-03     8.27159E-03     68.4610E-03     376.398E-03    -186.399E-03    -190.353E-03    -184.446E-03     374.445E-03    -190.353E-03     65.4543E-03     488.127E-03     80.1752E+06     32.8395E+06     17.3041E+06    -53.9367E+06    -53.9323E+06     17.2997E+06     32.8395E+06     415.618E+03
             401     68.8133E-03     7.44379E-03     68.4095E-03     376.468E-03    -186.222E-03    -190.343E-03    -185.199E-03     375.445E-03    -190.343E-03     47.1732E-03     467.050E-03     76.7575E+06     19.1399E+06     7.51535E+06    -62.7612E+06    -62.7370E+06     7.49121E+06     19.1399E+06     931.107E+03
             402     68.6966E-03     6.61627E-03     68.3772E-03     376.805E-03    -186.617E-03    -190.500E-03    -186.154E-03     376.342E-03    -190.500E-03     31.4645E-03     447.627E-03     69.1431E+06     3.52307E+06    -27.0674E+06    -71.6322E+06    -71.5647E+06    -27.1350E+06     3.52307E+06     1.44149E+06
             403     68.6107E-03     5.78766E-03     68.3662E-03     377.916E-03    -187.873E-03    -190.543E-03    -187.702E-03     377.744E-03    -190.543E-03     18.8975E-03     431.788E-03     70.4412E+06    -17.0617E+06    -71.7460E+06    -96.4602E+06    -81.2186E+06    -86.9876E+06    -17.0617E+06     1.24093E+06
             404     68.5484E-03     4.96094E-03     68.3687E-03     379.076E-03    -188.878E-03    -190.486E-03    -188.831E-03     379.029E-03    -190.486E-03     9.36931E-03     418.316E-03     90.4657E+06    -37.1799E+06    -90.6049E+06    -140.546E+06    -90.6656E+06    -140.486E+06    -37.1799E+06     1.66970E+06
             405     68.5018E-03     4.13508E-03     68.3769E-03     379.738E-03    -189.354E-03    -190.437E-03    -189.348E-03     379.732E-03    -190.437E-03     2.41183E-03     406.543E-03     115.032E+06    -56.7852E+06    -99.6340E+06    -186.690E+06    -99.6777E+06    -186.646E+06    -56.7852E+06     1.12182E+06
             406     68.4742E-03     3.30828E-03     68.3942E-03     379.957E-03    -189.644E-03    -190.428E-03    -189.640E-03     379.953E-03    -190.428E-03    -2.34967E-03     397.119E-03     137.129E+06    -75.3246E+06    -107.698E+06    -225.573E+06    -107.731E+06    -225.540E+06    -75.3246E+06     632.575E+03
             407     68.4581E-03     2.48057E-03     68.4131E-03     380.394E-03    -190.022E-03    -190.506E-03    -190.010E-03     380.382E-03    -190.506E-03    -5.18465E-03     390.110E-03     154.364E+06    -93.7649E+06    -114.571E+06    -257.345E+06    -114.606E+06    -257.311E+06    -93.7649E+06     867.848E+03
             408     68.4498E-03     1.65403E-03     68.4298E-03     380.753E-03    -190.297E-03    -190.562E-03    -190.342E-03     380.741E-03    -190.504E-03    -5.32377E-03     385.316E-03     169.231E+06    -110.543E+06    -121.282E+06    -284.838E+06    -121.296E+06    -284.823E+06    -110.543E+06     319.195E+03
             409     68.4476E-03     827.434E-06     68.4426E-03     380.803E-03    -190.003E-03    -190.837E-03    -190.646E-03     380.794E-03    -190.185E-03    -3.96386E-03     382.289E-03     177.015E+06    -122.389E+06    -126.428E+06    -301.362E+06    -126.431E+06    -301.359E+06    -122.389E+06     107.691E+03
             410     69.9712E-03     14.0695E-03     68.5421E-03     404.706E-03    -190.280E-03    -214.515E-03    -193.950E-03     384.141E-03    -190.280E-03     202.613E-03     569.562E-03     77.1175E+06     79.9794E+06     60.6885E+06    -4.90320E+06    -4.89247E+06     60.6777E+06     79.9794E+06     124.318E+03
             411     69.3982E-03     13.2398E-03     68.1235E-03     406.815E-03    -190.094E-03    -216.946E-03    -192.095E-03     381.964E-03    -190.094E-03     237.963E-03     604.406E-03     76.7241E+06     74.4392E+06     56.0695E+06    -9.77530E+06    -9.75527E+06     56.0494E+06     74.4392E+06     458.034E+03
             412     69.0140E-03     12.4103E-03     67.8890E-03     393.168E-03    -189.999E-03    -203.084E-03    -186.739E-03     376.822E-03    -189.999E-03     193.926E-03     573.395E-03     78.2819E+06     71.0546E+06     49.5058E+06    -15.7409E+06    -15.7276E+06     49.4925E+06     71.0546E+06     528.441E+03
             413     68.5889E-03     11.5830E-03     67.6038E-03     391.278E-03    -190.167E-03    -201.199E-03    -185.664E-03     375.744E-03    -190.167E-03     187.993E-03     577.539E-03     83.8394E+06     70.7691E+06     45.6629E+06    -22.7443E+06    -22.7411E+06     45.6597E+06     70.7691E+06     230.783E+03
             414     68.2512E-03     10.7566E-03     67.3983E-03     384.510E-03    -190.249E-03    -194.465E-03    -183.943E-03     373.987E-03    -190.249E-03     154.459E-03     558.991E-03     89.1315E+06     69.8586E+06     40.4232E+06    -30.2595E+06    -30.2591E+06     40.4227E+06     69.8586E+06     35.2907E+03
             415     67.9450E-03     9.92787E-03     67.2158E-03     380.786E-03    -189.608E-03    -191.596E-03    -183.297E-03     373.160E-03    -190.281E-03     130.348E-03     540.614E-03     90.0289E+06     62.7038E+06     33.9954E+06    -38.1520E+06    -38.1485E+06     33.9919E+06     62.7038E+06    -161.467E+03
             416     67.6924E-03     9.10019E-03     67.0779E-03     376.922E-03    -187.336E-03    -190.311E-03    -183.108E-03     372.693E-03    -190.311E-03     95.3582E-03     513.484E-03     86.0933E+06     48.9600E+06     26.5432E+06    -46.0837E+06    -46.0796E+06     26.5391E+06     48.9600E+06    -292.430E+03
             417     67.5077E-03     8.27255E-03     66.9990E-03     375.928E-03    -186.029E-03    -190.289E-03    -184.036E-03     373.935E-03    -190.289E-03     66.0923E-03     487.657E-03     80.3624E+06     32.6970E+06     16.9407E+06    -54.3470E+06    -54.3392E+06     16.9329E+06     32.6970E+06     381.487E+03
             418     67.3583E-03     7.44541E-03     66.9455E-03     376.404E-03    -186.324E-03    -190.298E-03    -185.274E-03     375.354E-03    -190.298E-03     47.7750E-03     467.161E-03     76.7276E+06     18.6751E+06     6.99991E+06    -63.2136E+06    -63.2011E+06     6.98744E+06     18.6751E+06     886.714E+03
             419     67.2436E-03     6.61630E-03     66.9173E-03     376.652E-03    -186.560E-03    -190.438E-03    -186.089E-03     376.181E-03    -190.438E-03     31.7058E-03     447.565E-03     69.3795E+06     2.79168E+06    -27.3100E+06    -72.8827E+06    -72.7950E+06    -27.3977E+06     2.79168E+06     1.34683E+06
             420     67.1516E-03     5.78891E-03     66.9017E-03     377.465E-03    -187.431E-03    -190.503E-03    -187.259E-03     377.293E-03    -190.503E-03     18.8678E-03     431.157E-03     70.8801E+06    -17.0044E+06    -71.8870E+06    -97.0033E+06    -82.4481E+06    -86.4422E+06    -17.0044E+06     1.69098E+06
             421     67.0873E-03     4.96200E-03     66.9036E-03     378.805E-03    -188.559E-03    -190.507E-03    -188.513E-03     378.759E-03    -190.507E-03     9.35815E-03     417.959E-03     90.8347E+06    -36.4826E+06    -91.4378E+06    -140.211E+06    -91.4928E+06    -140.156E+06    -36.4826E+06     1.36010E+06
             422     67.0430E-03     4.13391E-03     66.9155E-03     379.768E-03    -189.308E-03    -190.483E-03    -189.300E-03     379.761E-03    -190.483E-03     1.97657E-03     406.635E-03     113.499E+06    -57.1926E+06    -99.7105E+06    -185.306E+06      -99.73E+06    -185.287E+06    -57.1926E+06     981.053E+03
             423     67.0129E-03     3.30656E-03     66.9313E-03     380.128E-03    -189.743E-03    -190.499E-03    -189.736E-03     380.122E-03    -190.499E-03    -3.12826E-03     397.242E-03     135.474E+06    -77.0715E+06    -106.857E+06    -224.762E+06    -106.864E+06    -224.755E+06    -77.0715E+06     175.678E+03
             424     66.9952E-03     2.48094E-03     66.9493E-03     380.489E-03    -190.070E-03    -190.594E-03    -190.058E-03     380.477E-03    -190.594E-03    -5.04824E-03     390.200E-03     154.196E+06    -93.6911E+06    -113.700E+06    -256.835E+06    -113.712E+06    -256.823E+06    -93.6911E+06     172.948E+03
             425     66.9878E-03     1.65347E-03     66.9674E-03     380.847E-03    -190.338E-03    -190.646E-03    -190.356E-03     380.836E-03    -190.618E-03    -4.81457E-03     385.450E-03     168.728E+06    -108.924E+06    -120.337E+06    -283.006E+06    -120.364E+06    -282.980E+06    -108.924E+06     976.890E+03
             426     66.9845E-03     826.076E-06     66.9794E-03     381.026E-03    -189.797E-03    -191.278E-03    -191.197E-03     381.017E-03    -189.869E-03    -3.78065E-03     382.541E-03     177.430E+06    -121.452E+06    -126.161E+06    -301.166E+06    -125.567E+06    -301.146E+06    -122.066E+06     125.408E+03
             427     68.5452E-03     14.0664E-03     67.0864E-03     404.777E-03    -190.294E-03    -214.466E-03    -193.855E-03     384.166E-03    -190.294E-03     203.025E-03     569.570E-03     76.6852E+06     79.7032E+06     60.4049E+06    -4.76289E+06    -4.74986E+06     60.3919E+06     79.7032E+06     104.101E+03
             428     67.9592E-03     13.2361E-03     66.6578E-03     407.649E-03    -190.089E-03    -217.634E-03    -192.920E-03     382.936E-03    -190.089E-03     237.284E-03     605.160E-03     76.7909E+06     74.6051E+06     55.7337E+06    -9.84839E+06    -9.82654E+06     55.7118E+06     74.6051E+06     611.155E+03
             429     67.5779E-03     12.4128E-03     66.4281E-03     393.396E-03    -189.963E-03    -203.339E-03    -187.209E-03     377.266E-03    -189.963E-03     192.647E-03     573.856E-03     79.0516E+06     72.4378E+06     49.9034E+06    -15.4073E+06    -15.3919E+06     49.8880E+06     72.4378E+06     900.103E+03
             430     67.1493E-03     11.5843E-03     66.1425E-03     391.001E-03    -190.124E-03    -200.926E-03    -185.324E-03     375.400E-03    -190.124E-03     188.426E-03     577.057E-03     83.9845E+06     72.6781E+06     45.7999E+06    -21.4382E+06    -21.4120E+06     45.7736E+06     72.6781E+06     1.04521E+06
             431     66.8041E-03     10.7551E-03     65.9326E-03     384.615E-03    -190.209E-03    -194.628E-03    -183.995E-03     373.982E-03    -190.209E-03     155.234E-03     559.226E-03     88.9511E+06     70.9304E+06     40.7572E+06    -29.1748E+06    -29.1532E+06     40.7355E+06     70.9304E+06     742.876E+03
             432     66.4972E-03     9.93036E-03     65.7516E-03     380.767E-03    -189.511E-03    -191.717E-03    -183.384E-03     373.143E-03    -190.220E-03     130.355E-03     540.795E-03     90.2088E+06     63.6698E+06     35.1024E+06    -37.3300E+06    -37.3172E+06     35.0896E+06     63.6698E+06     267.246E+03
             433     66.2464E-03     9.10122E-03     65.6183E-03     376.619E-03    -187.044E-03    -190.240E-03    -182.803E-03     372.378E-03    -190.240E-03     95.4525E-03     512.952E-03     85.7499E+06     48.2680E+06     26.4374E+06    -46.2474E+06    -46.2310E+06     26.4210E+06     48.2680E+06     296.818E+03
             434     66.0562E-03     8.27207E-03     65.5362E-03     375.383E-03    -185.458E-03    -190.251E-03    -183.445E-03     373.370E-03    -190.251E-03     66.4000E-03     487.095E-03     79.9019E+06     31.4094E+06     16.2104E+06    -54.9687E+06    -54.9570E+06     16.1986E+06     31.4094E+06     290.511E+03
             435     65.9061E-03     7.44336E-03     65.4844E-03     376.321E-03    -186.191E-03    -190.300E-03    -185.113E-03     375.243E-03    -190.300E-03     48.4195E-03     467.134E-03     76.7184E+06     17.8570E+06     6.30280E+06    -63.9766E+06    -63.9620E+06     6.28819E+06     17.8570E+06     644.119E+03
             436     65.7863E-03     6.61714E-03     65.4526E-03     377.164E-03    -187.050E-03    -190.433E-03    -186.562E-03     376.676E-03    -190.433E-03     32.3042E-03     448.185E-03     69.6667E+06     2.84739E+06    -27.6642E+06    -73.1416E+06    -73.0762E+06    -27.7297E+06     2.84739E+06     1.16727E+06
             437     65.6978E-03     5.78936E-03     65.4422E-03     377.647E-03    -187.612E-03    -190.454E-03    -187.433E-03     377.469E-03    -190.454E-03     19.2670E-03     431.198E-03     70.2908E+06    -16.5090E+06    -71.3438E+06    -95.7341E+06    -81.7635E+06    -85.3143E+06    -16.5090E+06     1.02177E+06
             438     65.6288E-03     4.96051E-03     65.4410E-03     378.572E-03    -188.317E-03    -190.441E-03    -188.271E-03     378.526E-03    -190.441E-03     8.87509E-03     417.554E-03     90.1266E+06    -36.2019E+06    -90.0575E+06    -138.987E+06    -90.0813E+06    -138.963E+06    -36.2019E+06     177.219E+03
             439     65.5826E-03     4.13471E-03     65.4521E-03     379.404E-03    -188.971E-03    -190.464E-03    -188.966E-03     379.398E-03    -190.464E-03     1.30239E-03     406.369E-03     114.183E+06    -55.8804E+06    -98.0228E+06    -184.734E+06    -98.0296E+06    -184.727E+06    -55.8804E+06     25.1269E+03
             440     65.5520E-03     3.30874E-03     65.4685E-03     379.837E-03    -189.427E-03    -190.569E-03    -189.421E-03     379.831E-03    -190.569E-03    -3.01085E-03     396.976E-03     135.541E+06    -76.0660E+06    -106.183E+06    -223.924E+06    -106.187E+06    -223.920E+06    -76.0660E+06     471.850E+03
             441     65.5360E-03     2.47969E-03     65.4891E-03     380.632E-03    -190.065E-03    -190.728E-03    -190.064E-03     380.621E-03    -190.719E-03    -4.76930E-03     390.328E-03     154.161E+06    -94.7231E+06    -113.965E+06    -257.494E+06    -113.972E+06    -257.487E+06    -94.7231E+06     457.101E+03
             442     65.5241E-03     1.65307E-03     65.5033E-03     381.205E-03    -190.560E-03    -190.776E-03    -190.586E-03     381.194E-03    -190.738E-03    -4.97470E-03     385.819E-03     168.267E+06    -109.172E+06    -119.725E+06    -282.407E+06    -119.767E+06    -282.365E+06    -109.172E+06    -34.1461E+03
             443     65.5223E-03     827.491E-06     65.5171E-03     381.243E-03    -189.766E-03    -191.532E-03    -190.575E-03     381.237E-03    -190.716E-03    -3.24779E-03     382.833E-03     178.231E+06    -119.365E+06    -123.882E+06    -299.787E+06    -123.314E+06    -299.742E+06    -119.979E+06    -207.249E+03
             444     67.1105E-03     14.0660E-03     65.6199E-03     405.417E-03    -190.314E-03    -214.819E-03    -194.631E-03     385.229E-03    -190.314E-03     201.303E-03     570.545E-03     76.4399E+06     78.8558E+06     59.4625E+06    -5.39211E+06    -5.37716E+06     59.4475E+06     78.8558E+06    -70.5199E+03
             445     66.5294E-03     13.2431E-03     65.1980E-03     407.891E-03    -190.050E-03    -217.766E-03    -193.310E-03     383.435E-03    -190.050E-03     236.728E-03     605.344E-03     77.3067E+06     74.3133E+06     55.3295E+06    -10.7103E+06    -10.6974E+06     55.3166E+06     74.3133E+06    -5.00879E+03
             446     66.1366E-03     12.4123E-03     64.9614E-03     393.221E-03    -189.918E-03    -203.210E-03    -187.023E-03     377.033E-03    -189.918E-03     193.043E-03     573.764E-03     79.3349E+06     73.0600E+06     49.8044E+06    -15.2599E+06    -15.2535E+06     49.7980E+06     73.0600E+06     245.553E+03
             447     65.7125E-03     11.5848E-03     64.6833E-03     391.289E-03    -190.086E-03    -201.159E-03    -185.536E-03     375.666E-03    -190.086E-03     188.750E-03     576.808E-03     83.8429E+06     73.1415E+06     44.8688E+06    -21.1797E+06    -21.1527E+06     44.8418E+06     73.1415E+06     1.12941E+06
             448     65.3569E-03     10.7579E-03     64.4655E-03     384.140E-03    -190.164E-03    -194.093E-03    -183.430E-03     373.476E-03    -190.164E-03     155.263E-03     558.326E-03     89.2964E+06     72.3732E+06     41.4819E+06    -28.2669E+06    -28.2215E+06     41.4366E+06     72.3732E+06     1.48485E+06
             449     65.0528E-03     9.92764E-03     64.2908E-03     380.023E-03    -189.371E-03    -191.080E-03    -182.664E-03     372.440E-03    -190.205E-03     129.878E-03     540.366E-03     90.1953E+06     64.1612E+06     35.8091E+06    -36.7630E+06    -36.7305E+06     35.7767E+06     64.1612E+06     1.26238E+06
             450     64.7969E-03     9.10075E-03     64.1546E-03     376.759E-03    -187.147E-03    -190.254E-03    -182.845E-03     372.458E-03    -190.254E-03     96.2705E-03     513.366E-03     85.1789E+06     48.0064E+06     26.8742E+06    -45.7080E+06    -45.6902E+06     26.8563E+06     48.0064E+06     1.08448E+06
             451     64.6101E-03     8.27321E-03     64.0782E-03     375.909E-03    -185.958E-03    -190.258E-03    -183.901E-03     373.852E-03    -190.258E-03     67.0935E-03     487.677E-03     79.6835E+06     31.4247E+06     16.6220E+06    -54.5984E+06    -54.5738E+06     16.5974E+06     31.4247E+06     861.698E+03
             452     64.4529E-03     7.44471E-03     64.0215E-03     376.289E-03    -186.189E-03    -190.289E-03    -185.130E-03     375.229E-03    -190.289E-03     47.8990E-03     466.943E-03     76.5581E+06     18.0208E+06     6.65616E+06    -63.5753E+06    -63.5540E+06     6.63493E+06     18.0208E+06     516.434E+03
             453     64.3314E-03     6.61563E-03     63.9904E-03     376.957E-03    -186.876E-03    -190.424E-03    -186.403E-03     376.484E-03    -190.424E-03     31.8624E-03     448.002E-03     69.1614E+06     2.75900E+06    -27.2762E+06    -72.6308E+06    -72.6101E+06    -27.2969E+06     2.75900E+06     53.5463E+03
             454     64.2395E-03     5.78927E-03     63.9781E-03     378.050E-03    -188.002E-03    -190.431E-03    -187.821E-03     377.868E-03    -190.431E-03     19.4902E-03     431.631E-03     68.9203E+06    -17.2129E+06    -71.0456E+06    -94.8727E+06    -81.4327E+06    -84.4857E+06    -17.2129E+06     26.1154E+03
             455     64.1711E-03     4.96407E-03     63.9788E-03     378.555E-03    -188.311E-03    -190.393E-03    -188.261E-03     378.505E-03    -190.393E-03     9.42710E-03     417.428E-03     89.0123E+06    -37.1024E+06    -90.3297E+06    -138.605E+06    -90.3377E+06    -138.597E+06    -37.1024E+06    -165.464E+03
             456     64.1235E-03     4.13472E-03     63.9901E-03     378.889E-03    -188.479E-03    -190.475E-03    -188.471E-03     378.882E-03    -190.475E-03     1.69267E-03     405.973E-03     115.624E+06    -55.1386E+06    -99.0813E+06    -185.947E+06    -99.0872E+06    -185.941E+06    -55.1386E+06    -104.644E+03
             457     64.0926E-03     3.30531E-03     64.0073E-03     379.824E-03    -189.366E-03    -190.630E-03    -189.360E-03     379.817E-03    -190.630E-03    -3.17778E-03     397.052E-03     136.099E+06    -74.5951E+06    -108.338E+06    -224.205E+06    -108.346E+06    -224.197E+06    -74.5951E+06     850.782E+03
             458     64.0728E-03     2.48020E-03     64.0248E-03     380.844E-03    -190.208E-03    -190.752E-03    -190.205E-03     380.832E-03    -190.743E-03    -5.08082E-03     390.471E-03     151.480E+06    -95.4134E+06    -116.115E+06    -255.998E+06    -116.126E+06    -255.987E+06    -95.4134E+06     1.02099E+06
             459     64.0622E-03     1.65371E-03     64.0409E-03     381.145E-03    -190.475E-03    -190.770E-03    -190.473E-03     381.134E-03    -190.762E-03    -4.97676E-03     385.778E-03     164.998E+06    -112.296E+06    -121.408E+06    -281.603E+06    -121.435E+06    -281.575E+06    -112.296E+06    -423.079E+03
             460     64.0586E-03     825.799E-06     64.0533E-03     381.421E-03    -190.031E-03    -191.438E-03    -190.025E-03     381.415E-03    -191.438E-03    -3.56385E-03     383.029E-03     176.407E+06    -122.031E+06    -126.313E+06    -300.534E+06    -124.956E+06    -300.489E+06    -123.434E+06    -1.26747E+06
             461     65.6768E-03     14.0682E-03     64.1524E-03     404.821E-03    -190.279E-03    -214.502E-03    -194.057E-03     384.377E-03    -190.279E-03     202.390E-03     570.187E-03     76.7523E+06     79.5024E+06     59.6222E+06    -5.20703E+06    -5.16895E+06     59.5842E+06     79.5024E+06    -4.76122E+03
             462     65.0933E-03     13.2387E-03     63.7329E-03     407.659E-03    -190.070E-03    -217.740E-03    -192.987E-03     382.905E-03    -190.070E-03     237.990E-03     605.604E-03     77.2727E+06     75.6884E+06     55.8923E+06    -9.53244E+06    -9.50569E+06     55.8655E+06     75.6884E+06    -177.253E+03
             463     64.7036E-03     12.4130E-03     63.5017E-03     394.118E-03    -189.922E-03    -204.090E-03    -187.712E-03     377.741E-03    -189.922E-03     194.456E-03     574.677E-03     78.6827E+06     72.8993E+06     48.5874E+06    -15.0430E+06    -15.0365E+06     48.5808E+06     72.8993E+06     239.650E+03
             464     64.2680E-03     11.5864E-03     63.2150E-03     391.854E-03    -190.045E-03    -201.744E-03    -186.083E-03     376.193E-03    -190.045E-03     189.063E-03     577.632E-03     83.3755E+06     72.2665E+06     44.1435E+06    -21.5332E+06    -21.5233E+06     44.1336E+06     72.2665E+06     748.239E+03
             465     63.9186E-03     10.7574E-03     63.0069E-03     383.696E-03    -190.119E-03    -193.597E-03    -182.938E-03     373.037E-03    -190.119E-03     155.166E-03     557.916E-03     88.7736E+06     72.2078E+06     41.1463E+06    -27.9144E+06    -27.8838E+06     41.1156E+06     72.2078E+06     1.26946E+06
             466     63.6064E-03     9.92998E-03     62.8265E-03     379.075E-03    -188.828E-03    -190.573E-03    -181.570E-03     371.466E-03    -190.221E-03     129.786E-03     539.365E-03     89.5456E+06     64.4872E+06     35.9747E+06    -35.7714E+06    -35.7150E+06     35.9182E+06     64.4872E+06     1.69597E+06
             467     63.3531E-03     9.09913E-03     62.6962E-03     376.770E-03    -187.021E-03    -190.337E-03    -182.688E-03     372.436E-03    -190.337E-03     96.8498E-03     513.417E-03     84.9695E+06     48.4364E+06     27.8751E+06    -44.8843E+06    -44.8325E+06     27.8233E+06     48.4364E+06     1.70932E+06
             468     63.1552E-03     8.27084E-03     62.6113E-03     376.862E-03    -186.768E-03    -190.331E-03    -184.652E-03     374.746E-03    -190.331E-03     67.9944E-03     488.466E-03     79.5946E+06     32.2964E+06     17.8093E+06    -53.5265E+06    -53.4912E+06     17.7740E+06     32.2964E+06     1.12619E+06
             469     63.0019E-03     7.44564E-03     62.5604E-03     376.914E-03    -186.722E-03    -190.294E-03    -185.650E-03     375.842E-03    -190.294E-03     48.3659E-03     467.410E-03     75.7719E+06     18.9481E+06     8.52778E+06    -61.4827E+06    -61.4645E+06     8.50961E+06     18.9481E+06     353.836E+03
             470     62.8787E-03     6.61758E-03     62.5295E-03     376.915E-03    -186.846E-03    -190.389E-03    -186.351E-03     376.420E-03    -190.389E-03     32.5241E-03     447.917E-03     68.2115E+06     3.32669E+06    -26.7075E+06    -70.3190E+06    -70.2978E+06    -26.7287E+06     3.32669E+06    -90.7578E+03
             471     62.7806E-03     5.78934E-03     62.5131E-03     377.625E-03    -187.596E-03    -190.422E-03    -187.414E-03     377.443E-03    -190.422E-03     19.4090E-03     431.083E-03     69.7596E+06    -15.7841E+06    -71.3465E+06    -93.9766E+06    -80.2346E+06    -85.0885E+06    -15.7841E+06    -2.40954E+03
             472     62.7135E-03     4.96033E-03     62.5170E-03     378.514E-03    -188.263E-03    -190.426E-03    -188.215E-03     378.466E-03    -190.426E-03     9.25952E-03     417.420E-03     91.0151E+06    -35.2154E+06    -89.9939E+06    -139.019E+06    -90.0212E+06    -138.991E+06    -35.2154E+06     719.778E+03
             473     62.6641E-03     4.13424E-03     62.5276E-03     379.311E-03    -188.881E-03    -190.469E-03    -188.874E-03     379.304E-03    -190.469E-03     1.60018E-03     406.286E-03     115.513E+06    -56.0761E+06    -100.397E+06    -186.817E+06    -100.422E+06    -186.792E+06    -56.0761E+06     845.812E+03
             474     62.6320E-03     3.30900E-03     62.5445E-03     379.907E-03    -189.477E-03    -190.544E-03    -189.470E-03     379.901E-03    -190.544E-03    -3.16769E-03     397.087E-03     135.137E+06    -75.2806E+06    -108.786E+06    -223.839E+06    -108.794E+06    -223.831E+06    -75.2806E+06     398.983E+03
             475     62.6109E-03     2.48036E-03     62.5617E-03     380.509E-03    -189.958E-03    -190.662E-03    -189.946E-03     380.497E-03    -190.662E-03    -5.07103E-03     390.230E-03     151.570E+06    -93.3097E+06    -115.680E+06    -254.697E+06    -115.689E+06    -254.688E+06    -93.3097E+06     495.853E+03
             476     62.6010E-03     1.65283E-03     62.5792E-03     380.951E-03    -190.310E-03    -190.741E-03    -190.343E-03     380.939E-03    -190.696E-03    -5.08965E-03     385.612E-03     163.569E+06    -111.824E+06    -123.012E+06    -280.624E+06    -123.029E+06    -280.608E+06    -111.824E+06     1.22971E+06
             477     62.5953E-03     826.920E-06     62.5899E-03     381.329E-03    -190.436E-03    -190.948E-03    -190.484E-03     381.322E-03    -190.893E-03    -3.81172E-03     382.921E-03     173.825E+06    -124.334E+06    -129.314E+06    -300.591E+06    -127.964E+06    -300.538E+06    -125.736E+06     1.01771E+06
             478     64.2540E-03     14.0683E-03     62.6950E-03     404.362E-03    -190.252E-03    -214.302E-03    -193.828E-03     383.889E-03    -190.252E-03     202.517E-03     569.366E-03     76.8365E+06     80.0273E+06     60.3757E+06    -4.69336E+06    -4.66498E+06     60.3473E+06     80.0273E+06    -175.275E+03
             479     63.6609E-03     13.2394E-03     62.2690E-03     407.234E-03    -190.063E-03    -217.473E-03    -192.923E-03     382.684E-03    -190.063E-03     236.522E-03     604.887E-03     77.3900E+06     75.6811E+06     54.7691E+06    -9.94165E+06    -9.92108E+06     54.7486E+06     75.6811E+06    -490.366E+03
             480     63.2639E-03     12.4123E-03     62.0343E-03     393.817E-03    -189.925E-03    -203.760E-03    -187.476E-03     377.532E-03    -189.925E-03     193.620E-03     574.056E-03     78.3638E+06     72.1832E+06      47.731E+06    -15.4670E+06    -15.4616E+06     47.7256E+06     72.1832E+06     152.041E+03
             481     62.8292E-03     11.5854E-03     61.7519E-03     391.556E-03    -190.079E-03    -201.476E-03    -185.617E-03     375.697E-03    -190.079E-03     190.123E-03     577.628E-03     83.0538E+06     71.5020E+06     44.0919E+06    -21.7565E+06    -21.7499E+06     44.0852E+06     71.5020E+06     374.762E+03
             482     62.4775E-03     10.7586E-03     61.5443E-03     383.651E-03    -190.187E-03    -193.554E-03    -182.787E-03     372.884E-03    -190.187E-03     155.904E-03     558.370E-03     88.4769E+06     71.0743E+06     39.7699E+06    -28.7894E+06    -28.7785E+06     39.7589E+06     71.0743E+06     635.173E+03
             483     62.1661E-03     9.92742E-03     61.3683E-03     379.702E-03    -189.343E-03    -190.708E-03    -182.082E-03     372.018E-03    -190.286E-03     130.562E-03     539.806E-03     89.5805E+06     64.0809E+06     35.5469E+06    -36.2270E+06    -36.1875E+06     35.5074E+06     64.0809E+06     974.015E+03
             484     61.9054E-03     9.09848E-03     61.2331E-03     377.154E-03    -187.393E-03    -190.376E-03    -183.065E-03     372.826E-03    -190.376E-03     96.6651E-03     513.321E-03     85.1546E+06     49.4686E+06     28.7167E+06    -44.0965E+06    -44.0455E+06     28.6658E+06     49.4686E+06     1.28636E+06
             485     61.7038E-03     8.27208E-03     61.1468E-03     376.295E-03    -186.202E-03    -190.393E-03    -184.117E-03     374.210E-03    -190.393E-03     67.5653E-03     487.747E-03     79.1661E+06     33.1569E+06     19.1367E+06    -52.0551E+06    -52.0295E+06     19.1111E+06     33.1569E+06     906.193E+03
             486     61.5490E-03     7.44300E-03     61.0973E-03     377.340E-03    -187.043E-03    -190.382E-03    -185.928E-03     376.226E-03    -190.382E-03     49.4346E-03     468.082E-03     76.1063E+06     19.5839E+06     8.86396E+06    -61.3081E+06    -61.2947E+06     8.85057E+06     19.5839E+06     532.883E+03
             487     61.4226E-03     6.61678E-03     61.0651E-03     378.027E-03    -187.903E-03    -190.406E-03    -187.393E-03     377.516E-03    -190.406E-03     32.8015E-03     448.953E-03     68.9486E+06     3.87668E+06    -26.4028E+06    -70.9542E+06    -70.9404E+06    -26.4166E+06     3.87668E+06     607.152E+03
             488     61.3276E-03     5.78951E-03     61.0537E-03     377.545E-03    -187.631E-03    -190.363E-03    -187.468E-03     377.381E-03    -190.363E-03     18.3117E-03     430.839E-03     70.5874E+06    -15.3706E+06    -70.4257E+06    -94.8204E+06    -80.0207E+06    -85.2255E+06    -15.3706E+06     650.482E+03
             489     61.2550E-03     4.96264E-03     61.0537E-03     378.035E-03    -187.876E-03    -190.378E-03    -187.836E-03     377.995E-03    -190.378E-03     8.39725E-03     416.998E-03     91.9447E+06    -35.0643E+06    -89.4784E+06    -140.049E+06    -89.5289E+06    -139.999E+06    -35.0643E+06     1.05275E+06
             490     61.2047E-03     4.13502E-03     61.0649E-03     379.180E-03    -188.739E-03    -190.459E-03    -188.734E-03     379.176E-03    -190.459E-03     2.16129E-03     405.982E-03     114.868E+06    -55.5239E+06    -98.3218E+06    -185.258E+06    -98.3516E+06    -185.228E+06    -55.5239E+06     1.21431E+06
             491     61.1706E-03     3.30634E-03     61.0812E-03     380.121E-03    -189.622E-03    -190.588E-03    -189.661E-03     380.117E-03    -190.544E-03    -1.96552E-03     397.074E-03     134.799E+06    -75.6604E+06    -106.436E+06    -222.989E+06    -106.444E+06    -222.981E+06    -75.6604E+06     435.362E+03
             492     61.1509E-03     2.48044E-03     61.1005E-03     380.736E-03    -190.199E-03    -190.677E-03    -190.232E-03     380.726E-03    -190.633E-03    -4.80406E-03     390.431E-03     153.628E+06    -92.7671E+06    -113.716E+06    -255.718E+06    -113.721E+06    -255.712E+06    -92.7671E+06     403.638E+03
             493     61.1379E-03     1.65390E-03     61.1155E-03     380.954E-03    -190.405E-03    -190.646E-03    -190.438E-03     380.943E-03    -190.601E-03    -4.94567E-03     385.544E-03     166.275E+06    -107.885E+06    -120.156E+06    -279.895E+06    -120.172E+06    -279.878E+06    -107.885E+06     1.40025E+06
             494     61.1322E-03     826.726E-06     61.1266E-03     380.987E-03    -189.880E-03    -191.128E-03    -191.071E-03     380.980E-03    -189.929E-03    -3.98449E-03     382.515E-03     174.778E+06    -120.078E+06    -124.886E+06    -297.185E+06    -124.636E+06    -297.150E+06    -120.363E+06     1.97141E+06
             495     62.8257E-03     14.0679E-03     61.2304E-03     405.201E-03    -190.248E-03    -215.048E-03    -194.626E-03     384.779E-03    -190.248E-03     202.428E-03     570.009E-03     76.8294E+06     80.2519E+06     61.0509E+06    -4.33051E+06    -4.32796E+06     61.0484E+06     80.2519E+06     15.7882E+03
             496     62.2316E-03     13.2427E-03     60.8063E-03     407.494E-03    -190.023E-03    -217.682E-03    -193.023E-03     382.836E-03    -190.023E-03     237.445E-03     605.020E-03     76.8422E+06     75.0961E+06     54.6065E+06    -9.84693E+06    -9.83920E+06     54.5988E+06     75.0961E+06     230.409E+03
             497     61.8328E-03     12.4141E-03     60.5737E-03     393.052E-03    -189.913E-03    -203.015E-03    -186.624E-03     376.661E-03    -189.913E-03     194.077E-03     573.198E-03     77.8380E+06     71.0508E+06     47.1953E+06    -15.8947E+06    -15.8883E+06     47.1889E+06     71.0508E+06     168.175E+03
             498     61.3923E-03     11.5845E-03     60.2894E-03     390.494E-03    -190.132E-03    -200.355E-03    -184.515E-03     374.654E-03    -190.132E-03     189.684E-03     576.609E-03     82.9284E+06     71.1023E+06     43.2926E+06    -22.1138E+06    -22.1119E+06     43.2907E+06     71.1023E+06     173.723E+03
             499     61.0349E-03     10.7538E-03     60.0801E-03     383.645E-03    -190.286E-03    -193.504E-03    -182.827E-03     372.968E-03    -190.286E-03     155.178E-03     558.716E-03     88.5742E+06     70.6963E+06     39.4174E+06    -29.2699E+06    -29.2452E+06     39.3928E+06     70.6963E+06    -241.511E+03
             500     60.7248E-03     9.92739E-03     59.9079E-03     380.789E-03    -189.887E-03    -191.301E-03    -183.223E-03     373.184E-03    -190.359E-03     130.257E-03     540.849E-03     89.6074E+06     63.6237E+06     35.2687E+06    -36.7000E+06    -36.6731E+06     35.2417E+06     63.6237E+06    -333.794E+03
             501     60.4554E-03     9.10052E-03     59.7665E-03     377.215E-03    -187.422E-03    -190.400E-03    -183.090E-03     372.884E-03    -190.400E-03     96.6653E-03     513.584E-03     85.1275E+06     49.4363E+06     28.3264E+06    -44.1985E+06    -44.1900E+06     28.3179E+06     49.4363E+06    -21.2009E+03
             502     60.2611E-03     8.27038E-03     59.6909E-03     376.067E-03    -186.006E-03    -190.418E-03    -183.908E-03     373.969E-03    -190.418E-03     67.8741E-03     487.687E-03     79.2030E+06     32.7175E+06     18.7307E+06    -52.5199E+06    -52.5023E+06     18.7131E+06     32.7175E+06     671.024E+03
             503     60.0937E-03     7.44236E-03     59.6310E-03     377.382E-03    -187.156E-03    -190.415E-03    -186.048E-03     376.274E-03    -190.415E-03     49.0162E-03     468.063E-03     76.1064E+06     19.5335E+06     8.97475E+06    -61.2919E+06    -61.2703E+06     8.95314E+06     19.5335E+06     1.22209E+06
             504     59.9653E-03     6.61668E-03     59.5992E-03     377.968E-03    -187.877E-03    -190.432E-03    -187.407E-03     377.498E-03    -190.432E-03     31.5849E-03     448.925E-03     68.9996E+06     3.85153E+06    -26.1287E+06    -71.0609E+06    -70.9811E+06    -26.2085E+06     3.85153E+06     1.17434E+06
             505     59.8716E-03     5.79105E-03     59.5909E-03     377.808E-03    -187.913E-03    -190.376E-03    -187.745E-03     377.639E-03    -190.376E-03     18.8876E-03     431.286E-03     69.3096E+06    -16.3829E+06    -70.4702E+06    -94.4205E+06    -80.3096E+06    -84.5811E+06    -16.3829E+06     1.31970E+06
             506     59.7996E-03     4.96217E-03     59.5933E-03     378.072E-03    -187.916E-03    -190.386E-03    -187.866E-03     378.022E-03    -190.386E-03     9.64199E-03     417.013E-03     90.2974E+06    -36.3563E+06    -89.6684E+06    -139.404E+06    -89.7052E+06    -139.367E+06    -36.3563E+06     806.350E+03
             507     59.7477E-03     4.13321E-03     59.6045E-03     379.115E-03    -188.648E-03    -190.476E-03    -188.641E-03     379.109E-03    -190.476E-03     2.17893E-03     405.827E-03     113.951E+06    -55.6409E+06    -98.4980E+06    -184.467E+06    -98.5054E+06    -184.459E+06    -55.6409E+06     693.099E+03
             508     59.7092E-03     3.30717E-03     59.6176E-03     380.205E-03    -189.706E-03    -190.595E-03    -189.744E-03     380.199E-03    -190.552E-03    -2.88161E-03     397.117E-03     134.274E+06    -75.3451E+06    -106.578E+06    -222.260E+06    -106.587E+06    -222.251E+06    -75.3451E+06     909.387E+03
             509     59.6874E-03     2.48063E-03     59.6358E-03     380.870E-03    -190.368E-03    -190.658E-03    -190.406E-03     380.858E-03    -190.607E-03    -5.29224E-03     390.549E-03     153.308E+06    -94.1081E+06    -114.019E+06    -256.285E+06    -114.022E+06    -256.282E+06    -94.1081E+06     400.905E+03
             510     59.6761E-03     1.65354E-03     59.6531E-03     380.873E-03    -190.422E-03    -190.577E-03    -190.419E-03     380.863E-03    -190.570E-03    -4.69950E-03     385.459E-03     166.049E+06    -107.902E+06    -118.573E+06    -278.978E+06    -118.582E+06    -278.970E+06    -107.902E+06    -274.508E+03
             511     59.6686E-03     826.954E-06     59.6629E-03     380.915E-03    -189.392E-03    -191.559E-03    -191.420E-03     380.910E-03    -189.526E-03    -3.18607E-03     382.442E-03     174.668E+06    -118.110E+06    -123.804E+06    -295.529E+06    -123.532E+06    -295.517E+06    -118.395E+06    -711.539E+03
             512     61.3994E-03     14.0692E-03     59.7657E-03     404.999E-03    -190.246E-03    -214.752E-03    -194.219E-03     384.467E-03    -190.246E-03     202.901E-03     569.953E-03     76.2088E+06     78.9117E+06     60.5243E+06    -4.80192E+06    -4.79624E+06     60.5187E+06     78.9117E+06     28.1457E+03
             513     60.8022E-03     13.2393E-03     59.3433E-03     407.326E-03    -190.043E-03    -217.439E-03    -192.645E-03     382.532E-03    -190.043E-03     237.983E-03     604.862E-03      76.127E+06     73.6429E+06     53.9018E+06    -10.3765E+06    -10.3680E+06     53.8933E+06     73.6429E+06     355.476E+03
             514     60.3991E-03     12.4117E-03     59.1101E-03     393.155E-03    -189.944E-03    -203.107E-03    -186.728E-03     376.776E-03    -189.944E-03     194.100E-03     573.547E-03     77.6555E+06     71.0939E+06     47.3726E+06    -15.6420E+06    -15.6350E+06     47.3656E+06     71.0939E+06     242.592E+03
             515     59.9589E-03     11.5844E-03     58.8291E-03     390.363E-03    -190.156E-03    -200.158E-03    -184.454E-03     374.659E-03    -190.156E-03     188.816E-03     576.563E-03     82.9597E+06     72.2922E+06     43.9527E+06    -21.1045E+06    -21.0882E+06     43.9364E+06     72.2922E+06    -163.392E+03
             516     59.5988E-03     10.7556E-03     58.6203E-03     383.657E-03    -190.311E-03    -193.411E-03    -182.712E-03     372.958E-03    -190.311E-03     155.396E-03     558.235E-03     88.1405E+06     71.2669E+06     40.4834E+06    -28.1293E+06    -28.0911E+06     40.4452E+06     71.2669E+06    -657.670E+03
             517     59.2750E-03     9.92728E-03     58.4377E-03     380.537E-03    -189.554E-03    -191.356E-03    -182.853E-03     372.884E-03    -190.403E-03     130.468E-03     540.251E-03     89.3509E+06     63.3790E+06     35.4784E+06    -36.5657E+06    -36.5243E+06     35.4369E+06     63.3790E+06    -700.885E+03
             518     59.0158E-03     9.09770E-03     58.3103E-03     377.465E-03    -187.564E-03    -190.462E-03    -183.248E-03     373.149E-03    -190.462E-03     96.6621E-03     513.852E-03     85.5714E+06     48.8879E+06     27.5420E+06    -45.2800E+06    -45.2526E+06     27.5146E+06     48.8879E+06    -244.265E+03
             519     58.8088E-03     8.27050E-03     58.2243E-03     377.103E-03    -186.927E-03    -190.426E-03    -184.785E-03     374.961E-03    -190.426E-03     68.6993E-03     488.524E-03     79.2172E+06     31.3858E+06     17.5851E+06    -53.7795E+06    -53.7653E+06     17.5709E+06     31.3858E+06     464.371E+03
             520     58.6416E-03     7.44566E-03     58.1670E-03     377.229E-03    -187.020E-03    -190.378E-03    -185.896E-03     376.104E-03    -190.378E-03     49.3585E-03     467.600E-03     75.5667E+06     18.2088E+06     8.39217E+06    -61.7794E+06    -61.7655E+06     8.37821E+06     18.2088E+06     876.260E+03
             521     58.5123E-03     6.61613E-03     58.1370E-03     376.958E-03    -186.863E-03    -190.482E-03    -186.387E-03     376.482E-03    -190.482E-03     31.7561E-03     448.014E-03     68.6254E+06     4.32181E+06    -26.0055E+06    -69.8744E+06    -69.7840E+06    -26.0959E+06     4.32181E+06     1.31855E+06
             522     58.4146E-03     5.78712E-03     58.1272E-03     377.984E-03    -187.971E-03    -190.509E-03    -187.802E-03     377.816E-03    -190.509E-03     18.7299E-03     431.847E-03     69.6758E+06    -15.3528E+06    -70.3032E+06    -93.6287E+06    -79.1977E+06    -84.7342E+06    -15.3528E+06     1.31154E+06
             523     58.3433E-03     4.96107E-03     58.1320E-03     379.307E-03    -189.124E-03    -190.447E-03    -189.080E-03     379.262E-03    -190.447E-03     8.89658E-03     418.319E-03     90.5553E+06    -34.4148E+06    -88.6639E+06     -137.87E+06    -88.7243E+06    -137.810E+06    -34.4148E+06     1.44521E+06
             524     58.2875E-03     4.13586E-03     58.1406E-03     379.593E-03    -189.273E-03    -190.370E-03    -189.268E-03     379.588E-03    -190.370E-03     1.33845E-03     406.241E-03     114.013E+06    -53.9328E+06    -98.4816E+06    -183.139E+06    -98.5256E+06    -183.095E+06    -53.9328E+06     1.35643E+06
             525     58.2494E-03     3.30803E-03     58.1554E-03     379.558E-03    -189.276E-03    -190.378E-03    -189.270E-03     379.553E-03    -190.378E-03    -3.17922E-03     396.612E-03     133.950E+06    -74.2371E+06    -107.669E+06    -221.534E+06    -107.676E+06    -221.527E+06    -74.2371E+06     890.495E+03
             526     58.2252E-03     2.48016E-03     58.1724E-03     380.274E-03    -189.899E-03    -190.513E-03    -189.892E-03     380.261E-03    -190.506E-03    -5.48539E-03     390.030E-03     151.124E+06    -94.1552E+06    -115.391E+06    -254.624E+06    -115.399E+06    -254.615E+06    -94.1552E+06    -113.764E+03
             527     58.2137E-03     1.65392E-03     58.1902E-03     380.762E-03    -190.312E-03    -190.585E-03    -190.380E-03     380.750E-03    -190.504E-03    -5.19124E-03     385.383E-03     162.900E+06    -111.898E+06    -121.787E+06    -279.453E+06    -121.804E+06    -279.437E+06    -111.898E+06    -668.747E+03
             528     58.2079E-03     826.314E-06     58.2020E-03     380.788E-03    -189.754E-03    -191.096E-03    -190.712E-03     380.783E-03    -190.133E-03    -3.04514E-03     382.346E-03     172.349E+06    -121.725E+06    -128.555E+06    -297.380E+06    -126.306E+06    -297.362E+06    -123.990E+06    -290.027E+03
             529     59.9771E-03     14.0672E-03     58.3040E-03     404.284E-03    -190.266E-03    -214.109E-03    -193.572E-03     383.747E-03    -190.266E-03     202.605E-03     569.536E-03     76.0433E+06     78.7271E+06     59.9434E+06    -4.93817E+06    -4.93061E+06     59.9358E+06     78.7271E+06    -49.7608E+03
             530     59.3763E-03     13.2404E-03     57.8812E-03     407.131E-03    -190.101E-03    -217.242E-03    -192.411E-03     382.300E-03    -190.101E-03     238.067E-03     604.430E-03     76.2141E+06     75.0373E+06     54.5612E+06    -9.28092E+06    -9.27166E+06     54.5519E+06     75.0373E+06     67.0175E+03
             531     58.9681E-03     12.4127E-03     57.6469E-03     393.180E-03    -190.004E-03    -202.984E-03    -186.583E-03     376.779E-03    -190.004E-03     194.213E-03     573.632E-03     77.7919E+06     72.5415E+06     47.8678E+06    -14.5787E+06    -14.5624E+06     47.8516E+06     72.5415E+06    -145.759E+03
             532     58.5255E-03     11.5839E-03     57.3677E-03     391.048E-03    -190.201E-03    -200.764E-03    -184.875E-03     375.160E-03    -190.201E-03     190.220E-03     577.638E-03     82.7630E+06     72.2854E+06     44.0789E+06    -20.8768E+06    -20.8489E+06     44.0510E+06     72.2854E+06    -444.289E+03
             533     58.1596E-03     10.7551E-03     57.1565E-03     384.020E-03    -190.360E-03    -193.803E-03    -182.902E-03     373.119E-03    -190.360E-03     156.896E-03     558.270E-03     88.3168E+06     71.0169E+06     40.9736E+06    -28.3957E+06    -28.3733E+06     40.9511E+06     71.0169E+06     15.7335E+03
             534     57.8363E-03     9.92521E-03     56.9783E-03     380.178E-03    -189.535E-03    -191.061E-03    -182.504E-03     372.545E-03    -190.458E-03     130.139E-03     539.912E-03     89.7620E+06     62.9554E+06     35.7016E+06    -37.2483E+06    -37.2189E+06     35.6723E+06     62.9554E+06     63.0252E+03
             535     57.5678E-03     9.09745E-03     56.8444E-03     377.985E-03    -188.141E-03    -190.496E-03    -183.881E-03     373.725E-03    -190.496E-03     96.1351E-03     514.545E-03     85.5202E+06     48.0077E+06     27.2988E+06    -45.9155E+06    -45.8609E+06     27.2443E+06     48.0077E+06    -451.519E+03
             536     57.3598E-03     8.27167E-03     56.7602E-03     377.290E-03    -187.162E-03    -190.427E-03    -185.051E-03     375.178E-03    -190.427E-03     68.1984E-03     488.674E-03     79.3812E+06     31.0845E+06     17.2241E+06    -54.2741E+06    -54.2430E+06     17.1931E+06     31.0845E+06    -87.2471E+03
             537     57.1903E-03     7.44204E-03     56.7040E-03     376.694E-03    -186.383E-03    -190.393E-03    -185.287E-03     375.598E-03    -190.393E-03     48.6418E-03     467.069E-03     76.0154E+06     17.2551E+06     7.04947E+06    -63.3383E+06    -63.3323E+06     7.04349E+06     17.2551E+06     386.306E+03
             538     57.0612E-03     6.61560E-03     56.6764E-03     377.016E-03    -186.750E-03    -190.535E-03    -186.279E-03     376.545E-03    -190.535E-03     31.6863E-03     447.946E-03     69.5362E+06     3.42170E+06    -27.1452E+06    -71.9940E+06    -71.9748E+06    -27.1644E+06     3.42170E+06     542.903E+03
             539     56.9595E-03     5.78890E-03     56.6645E-03     378.503E-03    -188.390E-03    -190.552E-03    -188.219E-03     378.332E-03    -190.552E-03     18.8068E-03     432.242E-03     70.5958E+06    -15.0611E+06    -71.1048E+06    -94.2967E+06    -80.9144E+06    -84.4871E+06    -15.0611E+06     1.25748E+06
             540     56.8806E-03     4.96246E-03     56.6638E-03     379.611E-03    -189.470E-03    -190.425E-03    -189.427E-03     379.569E-03    -190.425E-03     8.64497E-03     418.731E-03     90.1031E+06    -34.6202E+06    -89.9166E+06    -137.349E+06    -90.0308E+06    -137.235E+06    -34.6202E+06     1.71054E+06
             541     56.8294E-03     4.13570E-03     56.6787E-03     379.570E-03    -189.353E-03    -190.297E-03    -189.349E-03     379.566E-03    -190.297E-03     1.80915E-03     406.437E-03     113.256E+06    -53.3501E+06    -98.2675E+06    -181.814E+06    -98.3195E+06    -181.762E+06    -53.3501E+06     1.54465E+06
             542     56.7913E-03     3.30861E-03     56.6948E-03     379.410E-03    -189.193E-03    -190.299E-03    -189.189E-03     379.406E-03    -190.299E-03    -2.25001E-03     396.499E-03     133.049E+06    -73.1016E+06    -106.547E+06    -219.458E+06    -106.564E+06    -219.441E+06    -73.1016E+06     1.24252E+06
             543     56.7658E-03     2.48152E-03     56.7115E-03     379.980E-03    -189.638E-03    -190.471E-03    -189.629E-03     379.970E-03    -190.471E-03    -4.56768E-03     389.645E-03     149.870E+06    -92.6573E+06    -114.783E+06    -252.260E+06    -114.800E+06    -252.243E+06    -92.6573E+06     631.390E+03
             544     56.7520E-03     1.65354E-03     56.7280E-03     380.693E-03    -190.228E-03    -190.590E-03    -190.291E-03     380.683E-03    -190.516E-03    -4.63488E-03     385.271E-03     163.801E+06    -110.750E+06    -123.213E+06    -280.365E+06    -123.231E+06    -280.346E+06    -110.750E+06     761.348E+03
             545     56.7449E-03     827.884E-06     56.7389E-03     380.751E-03    -190.103E-03    -190.683E-03    -190.172E-03     380.746E-03    -190.609E-03    -3.04101E-03     382.258E-03     171.541E+06    -122.715E+06    -130.524E+06    -298.024E+06    -128.270E+06    -298.012E+06    -124.981E+06     1.37569E+06
             546     58.5574E-03     14.0684E-03     56.8423E-03     404.530E-03    -190.320E-03    -214.304E-03    -193.539E-03     383.765E-03    -190.320E-03     204.086E-03     569.549E-03     76.3337E+06     79.6454E+06     60.2932E+06    -4.43179E+06    -4.42319E+06     60.2846E+06     79.6454E+06     130.298E+03
             547     57.9513E-03     13.2389E-03     56.4188E-03     407.611E-03    -190.166E-03    -217.566E-03    -192.571E-03     382.616E-03    -190.166E-03     238.904E-03     604.917E-03     76.5494E+06     75.6403E+06     55.5504E+06    -8.86793E+06    -8.82989E+06     55.5123E+06     75.6403E+06    -287.312E+03
             548     57.5385E-03     12.4098E-03     56.1843E-03     393.243E-03    -190.059E-03    -202.924E-03    -186.535E-03     376.854E-03    -190.059E-03     194.149E-03     573.703E-03     77.9494E+06     72.9701E+06     47.6715E+06    -14.4741E+06    -14.4294E+06     47.6268E+06     72.9701E+06    -518.301E+03
             549     57.0923E-03     11.5815E-03     55.9053E-03     391.249E-03    -190.238E-03    -200.961E-03    -185.207E-03     375.495E-03    -190.238E-03     189.380E-03     578.129E-03     82.9656E+06     71.4998E+06     43.5762E+06    -21.8196E+06    -21.8000E+06     43.5567E+06     71.4998E+06    -109.985E+03
             550     56.7207E-03     10.7536E-03     55.6920E-03     384.075E-03    -190.388E-03    -193.921E-03    -183.309E-03     373.462E-03    -190.388E-03     154.823E-03     558.659E-03     88.4331E+06     70.0083E+06     40.7132E+06    -29.3536E+06    -29.3437E+06     40.7032E+06     70.0083E+06     166.676E+03
             551     56.3978E-03     9.92725E-03     55.5172E-03     380.497E-03    -189.878E-03    -191.074E-03    -182.957E-03     372.958E-03    -190.456E-03     129.619E-03     540.122E-03     89.8949E+06     63.5273E+06     36.4594E+06    -36.7624E+06    -36.7494E+06     36.4463E+06     63.5273E+06     319.294E+03
             552     56.1201E-03     9.09864E-03     55.3776E-03     377.901E-03    -188.143E-03    -190.469E-03    -183.852E-03     373.610E-03    -190.469E-03     96.2907E-03     514.568E-03     85.2882E+06     48.3665E+06     28.0554E+06    -45.1954E+06    -45.1390E+06     27.9990E+06     48.3665E+06     182.281E+03
             553     55.9112E-03     8.27088E-03     55.2961E-03     376.612E-03    -186.586E-03    -190.409E-03    -184.538E-03     374.564E-03    -190.409E-03     67.0701E-03     488.358E-03     79.4109E+06     30.3653E+06     16.6140E+06    -54.9925E+06    -54.9356E+06     16.5572E+06     30.3653E+06    -234.101E+03
             554     55.7406E-03     7.44533E-03     55.2411E-03     376.471E-03    -186.203E-03    -190.389E-03    -185.147E-03     375.415E-03    -190.389E-03     47.7713E-03     467.076E-03     76.3861E+06     17.3210E+06     6.86180E+06    -63.7467E+06    -63.7343E+06     6.84939E+06     17.3210E+06     -224.04E+03
             555     55.6069E-03     6.61524E-03     55.2120E-03     377.232E-03    -186.972E-03    -190.517E-03    -186.505E-03     376.765E-03    -190.517E-03     31.6832E-03     447.934E-03     69.3399E+06     2.63737E+06    -28.0194E+06    -72.5189E+06    -72.5146E+06    -28.0237E+06     2.63737E+06     184.956E+03
             556     55.4979E-03     5.78809E-03     55.1952E-03     378.089E-03    -187.955E-03    -190.567E-03    -187.774E-03     377.907E-03    -190.567E-03     19.5029E-03     431.584E-03     69.7752E+06    -16.5670E+06    -72.1978E+06    -94.7986E+06    -81.6075E+06    -85.3889E+06    -16.5670E+06     563.189E+03
             557     55.4229E-03     4.96174E-03     55.2003E-03     378.803E-03    -188.545E-03    -190.568E-03    -188.494E-03     378.753E-03    -190.568E-03     9.78506E-03     417.976E-03     88.7583E+06    -35.2431E+06    -89.5735E+06    -136.415E+06    -89.6539E+06    -136.335E+06    -35.2431E+06     781.712E+03
             558     55.3691E-03     4.13430E-03     55.2146E-03     379.804E-03    -189.367E-03    -190.526E-03    -189.359E-03     379.797E-03    -190.526E-03     2.84720E-03     406.847E-03     111.513E+06    -55.0560E+06    -98.4534E+06    -181.360E+06    -98.4740E+06    -181.339E+06    -55.0560E+06     1.01802E+06
             559     55.3301E-03     3.30788E-03     55.2311E-03     380.192E-03    -189.792E-03    -190.503E-03    -189.788E-03     380.189E-03    -190.503E-03    -1.82714E-03     397.245E-03     130.992E+06    -74.4165E+06    -107.063E+06    -218.468E+06    -107.078E+06    -218.454E+06    -74.4165E+06     993.229E+03
             560     55.3071E-03     2.47993E-03     55.2515E-03     380.429E-03    -189.976E-03    -190.585E-03    -189.969E-03     380.422E-03    -190.585E-03    -3.94177E-03     389.966E-03     149.669E+06    -92.3052E+06    -114.297E+06    -251.625E+06    -114.313E+06    -251.609E+06    -92.3052E+06     1.35597E+06
             561     55.2884E-03     1.65359E-03     55.2637E-03     380.885E-03    -190.346E-03    -190.625E-03    -190.386E-03     380.875E-03    -190.576E-03    -4.60436E-03     385.361E-03     166.218E+06    -107.642E+06    -120.663E+06    -279.947E+06    -120.681E+06    -279.929E+06    -107.642E+06     1.60641E+06
             562     55.2824E-03     825.656E-06     55.2763E-03     380.863E-03    -190.250E-03    -190.636E-03    -190.416E-03     380.856E-03    -190.462E-03    -3.77419E-03     382.374E-03     170.352E+06    -119.808E+06    -128.412E+06    -294.295E+06    -126.173E+06    -294.285E+06    -122.058E+06     915.950E+03
             563     57.1388E-03     14.0645E-03     55.3808E-03     404.438E-03    -190.359E-03    -214.140E-03    -193.462E-03     383.760E-03    -190.359E-03     203.389E-03     569.342E-03     76.2032E+06     78.9492E+06     60.5266E+06    -4.68604E+06    -4.67057E+06     60.5112E+06     78.9492E+06    -232.868E+03
             564     56.5256E-03     13.2379E-03     54.9537E-03     407.592E-03    -190.197E-03    -217.525E-03    -192.743E-03     382.810E-03    -190.197E-03     237.615E-03     605.389E-03     76.5144E+06      73.007E+06     55.6138E+06    -10.6288E+06    -10.5842E+06     55.5691E+06      73.007E+06    -603.359E+03
             565     56.1152E-03     12.4102E-03     54.7257E-03     393.395E-03    -190.065E-03    -203.167E-03    -187.063E-03     377.292E-03    -190.065E-03     192.513E-03     574.036E-03     78.4894E+06     70.1190E+06     47.1068E+06    -17.2409E+06    -17.1850E+06     47.0508E+06     70.1190E+06    -808.385E+03
             566     55.6574E-03     11.5833E-03     54.4387E-03     391.125E-03    -190.223E-03    -200.923E-03    -185.332E-03     375.534E-03    -190.223E-03     188.444E-03     577.640E-03     83.4152E+06     71.1063E+06     43.1644E+06    -22.6785E+06    -22.6501E+06     43.1361E+06     71.1063E+06    -642.912E+03
             567     55.2875E-03     10.7567E-03     54.2310E-03     384.269E-03    -190.344E-03    -194.132E-03    -183.551E-03     373.687E-03    -190.344E-03     154.684E-03     558.847E-03     88.3734E+06     70.4137E+06     40.9371E+06    -28.9151E+06    -28.9096E+06     40.9315E+06     70.4137E+06    -38.4366E+03
             568     54.9537E-03     9.92668E-03     54.0497E-03     380.635E-03    -189.605E-03    -191.422E-03    -183.080E-03     373.071E-03    -190.383E-03     129.887E-03     540.239E-03     89.8348E+06     62.5686E+06     35.8739E+06    -37.5683E+06    -37.5592E+06     35.8649E+06     62.5686E+06     309.629E+03
             569     54.6769E-03     9.09934E-03     53.9144E-03     377.308E-03    -187.513E-03    -190.443E-03    -183.177E-03     372.971E-03    -190.443E-03     96.7910E-03     513.830E-03     85.7534E+06     47.9701E+06     27.2179E+06    -46.2155E+06     -46.181E+06     27.1834E+06     47.9701E+06     421.755E+03
             570     54.4653E-03     8.27197E-03     53.8335E-03     376.296E-03    -186.240E-03    -190.430E-03    -184.156E-03     374.212E-03    -190.430E-03     67.5458E-03     487.903E-03     79.3678E+06     31.4631E+06     17.7870E+06    -53.8125E+06    -53.7614E+06     17.7359E+06     31.4631E+06     422.285E+03
             571     54.2938E-03     7.44219E-03     53.7813E-03     376.870E-03    -186.675E-03    -190.390E-03    -185.589E-03     375.784E-03    -190.390E-03     48.6604E-03     467.441E-03     75.5286E+06     17.0469E+06     7.65788E+06    -62.7202E+06    -62.6936E+06     7.63125E+06     17.0469E+06    -49.8539E+03
             572     54.1536E-03     6.61687E-03     53.7479E-03     377.195E-03    -187.066E-03    -190.506E-03    -186.576E-03     376.705E-03    -190.506E-03     32.3259E-03     448.013E-03     68.2779E+06     1.40877E+06    -28.2427E+06    -72.3004E+06    -72.2896E+06    -28.2536E+06     1.40877E+06    -244.159E+03
             573     54.0438E-03     5.78896E-03     53.7329E-03     377.311E-03    -187.165E-03    -190.620E-03    -186.989E-03     377.136E-03    -190.620E-03     19.1408E-03     430.887E-03     68.9588E+06    -17.7635E+06    -72.0661E+06    -95.2823E+06    -81.0748E+06    -86.2736E+06    -17.7635E+06    -505.515E+03
             574     53.9670E-03     4.95910E-03     53.7387E-03     378.438E-03    -188.035E-03    -190.747E-03    -187.987E-03     378.390E-03    -190.747E-03     9.31023E-03     417.500E-03     88.7536E+06    -36.3836E+06    -90.0468E+06    -137.818E+06    -90.0694E+06    -137.795E+06    -36.3836E+06    -197.819E+03
             575     53.9072E-03     4.13260E-03     53.7486E-03     380.089E-03    -189.409E-03    -190.800E-03    -189.403E-03     380.083E-03    -190.800E-03     2.21378E-03     407.026E-03     110.983E+06    -54.9014E+06    -98.2569E+06    -180.612E+06    -98.2716E+06    -180.597E+06    -54.9014E+06     535.520E+03
             576     53.8711E-03     3.30632E-03     53.7695E-03     381.179E-03    -190.248E-03    -191.045E-03    -190.559E-03     381.174E-03    -190.728E-03    -2.74905E-03     398.240E-03     129.738E+06    -75.2565E+06    -106.511E+06    -217.545E+06    -106.514E+06    -217.542E+06    -75.2565E+06     452.517E+03
             577     53.8450E-03     2.48093E-03     53.7878E-03     381.272E-03    -190.450E-03    -190.933E-03    -190.762E-03     381.260E-03    -190.608E-03    -5.28559E-03     390.747E-03     149.875E+06    -93.0509E+06    -113.594E+06    -252.021E+06    -113.600E+06    -252.015E+06    -93.0509E+06     712.448E+03
             578     53.8276E-03     1.65368E-03     53.8022E-03     380.720E-03    -190.209E-03    -190.560E-03    -190.254E-03     380.707E-03    -190.503E-03    -4.98891E-03     385.169E-03     165.908E+06    -107.744E+06    -119.274E+06    -279.061E+06    -119.283E+06    -279.052E+06    -107.744E+06     900.445E+03
             579     53.8209E-03     828.243E-06     53.8145E-03     380.730E-03    -189.742E-03    -191.051E-03    -190.799E-03     380.723E-03    -189.988E-03    -3.68363E-03     382.257E-03     169.076E+06    -117.031E+06    -125.722E+06    -290.272E+06    -123.478E+06    -290.267E+06    -119.281E+06     375.296E+03
             580     55.7231E-03     14.0680E-03     53.9180E-03     404.353E-03    -190.351E-03    -214.088E-03    -193.656E-03     383.921E-03    -190.351E-03     201.938E-03     569.488E-03     76.5283E+06     78.6173E+06     60.8601E+06    -5.17049E+06    -5.14765E+06     60.8372E+06     78.6173E+06     153.833E+03
             581     55.1073E-03     13.2377E-03     53.4937E-03     407.143E-03    -190.176E-03    -217.237E-03    -192.491E-03     382.398E-03    -190.176E-03     237.685E-03     605.022E-03     75.7277E+06     72.0106E+06     55.4895E+06    -10.5703E+06    -10.5437E+06     55.4629E+06     72.0106E+06     120.796E+03
             582     54.6815E-03     12.4117E-03     53.2543E-03     393.612E-03    -190.059E-03    -203.479E-03    -187.156E-03     377.288E-03    -190.059E-03     193.949E-03     574.305E-03     77.8348E+06     69.9440E+06     48.7359E+06    -16.2539E+06    -16.2210E+06     48.7031E+06     69.9440E+06    -184.354E+03
             583     54.2295E-03     11.5837E-03     52.9779E-03     391.344E-03    -190.222E-03    -201.139E-03    -185.440E-03     375.645E-03    -190.222E-03     189.162E-03     577.726E-03     83.1227E+06     70.5841E+06     43.5229E+06    -22.6540E+06    -22.6161E+06     43.4851E+06     70.5841E+06    -663.648E+03
             584     53.8450E-03     10.7537E-03     52.7602E-03     384.379E-03    -190.330E-03    -194.107E-03    -183.374E-03     373.646E-03    -190.330E-03     155.816E-03     558.800E-03     88.2170E+06     69.0685E+06     39.2265E+06    -30.1850E+06    -30.1756E+06     39.2171E+06     69.0685E+06    -377.077E+03
             585     53.5151E-03     9.92914E-03     52.5859E-03     380.745E-03    -189.596E-03    -191.377E-03    -182.935E-03     373.082E-03    -190.375E-03     130.640E-03     540.711E-03     89.8796E+06     62.0187E+06     35.2857E+06    -38.1670E+06    -38.1604E+06     35.2791E+06     62.0187E+06     154.248E+03
             586     53.2361E-03     9.09824E-03     52.4529E-03     377.252E-03    -187.404E-03    -190.455E-03    -183.074E-03     372.922E-03    -190.455E-03     96.7190E-03     513.885E-03     85.5070E+06     47.5217E+06     27.0527E+06    -46.3243E+06    -46.3121E+06     27.0404E+06     47.5217E+06    -327.671E+03
             587     53.0204E-03     8.26949E-03     52.3716E-03     376.394E-03    -186.237E-03    -190.448E-03    -184.182E-03     374.339E-03    -190.448E-03     66.9657E-03     487.839E-03     79.6811E+06     31.8364E+06     17.8127E+06    -53.8971E+06    -53.8676E+06     17.7831E+06     31.8364E+06    -366.535E+03
             588     52.8438E-03     7.44417E-03     52.3168E-03     376.864E-03    -186.531E-03    -190.417E-03    -185.472E-03     375.805E-03    -190.417E-03     48.1301E-03     467.248E-03     75.6405E+06     18.1520E+06     8.66159E+06    -61.7673E+06    -61.7375E+06     8.63174E+06     18.1520E+06     119.748E+03
             589     52.7005E-03     6.61548E-03     52.2836E-03     377.053E-03    -186.885E-03    -190.557E-03    -186.397E-03     376.565E-03    -190.557E-03     32.2016E-03     448.165E-03     68.6636E+06      2.4032E+06    -28.0999E+06    -71.3872E+06    -71.3704E+06    -28.1167E+06      2.4032E+06    -248.766E+03
             590     52.5916E-03     5.78736E-03     52.2722E-03     377.743E-03    -187.631E-03    -190.638E-03    -187.462E-03     377.573E-03    -190.638E-03     18.7581E-03     431.512E-03     69.5689E+06    -17.2532E+06    -73.3348E+06    -95.0221E+06    -81.7115E+06    -86.6453E+06    -17.2532E+06    -257.596E+03
             591     52.5092E-03     4.96129E-03     52.2743E-03     378.813E-03    -188.472E-03    -190.677E-03    -188.430E-03     378.771E-03    -190.677E-03     8.49263E-03     417.877E-03     88.4093E+06    -37.7219E+06    -91.1664E+06    -138.503E+06    -91.1836E+06    -138.486E+06    -37.7219E+06    -450.389E+03
             592     52.4505E-03     4.13328E-03     52.2874E-03     379.861E-03    -189.257E-03    -190.713E-03    -189.252E-03     379.856E-03    -190.713E-03     696.150E-06     406.753E-03     110.553E+06    -56.3658E+06    -99.1542E+06    -181.586E+06    -99.1946E+06    -181.546E+06    -56.3658E+06    -1.11880E+06
             593     52.4053E-03     3.30633E-03     52.3009E-03     380.637E-03    -189.667E-03    -191.054E-03    -189.977E-03     380.630E-03    -190.737E-03    -3.52185E-03     397.719E-03     129.804E+06    -74.7887E+06    -105.726E+06    -217.008E+06    -105.761E+06    -216.973E+06    -74.7887E+06    -396.538E+03
             594     52.3827E-03     2.48122E-03     52.3239E-03     381.224E-03    -190.205E-03    -191.104E-03    -190.555E-03     381.213E-03    -190.744E-03    -4.82308E-03     390.762E-03     150.322E+06    -93.3504E+06    -112.715E+06    -252.305E+06    -112.717E+06    -252.303E+06    -93.3504E+06     379.393E+03
             595     52.3687E-03     1.65467E-03     52.3426E-03     381.113E-03    -190.442E-03    -190.774E-03    -190.521E-03     381.105E-03    -190.688E-03    -3.81216E-03     385.616E-03     164.982E+06    -107.710E+06    -118.292E+06    -277.680E+06    -118.294E+06    -277.678E+06    -107.710E+06     253.551E+03
             596     52.3579E-03     824.805E-06     52.3514E-03     381.069E-03    -189.677E-03    -191.488E-03    -191.240E-03     381.066E-03    -189.922E-03    -2.57592E-03     382.648E-03     169.882E+06    -116.387E+06    -125.219E+06    -290.499E+06    -122.522E+06    -290.495E+06    -119.088E+06     124.561E+03
             597     54.3090E-03     14.0663E-03     52.4557E-03     404.678E-03    -190.330E-03    -214.369E-03    -193.828E-03     384.137E-03    -190.330E-03     202.660E-03     569.738E-03     75.7981E+06     78.0740E+06     60.1465E+06    -5.04112E+06    -5.02006E+06     60.1254E+06     78.0740E+06     319.231E+03
             598     53.6868E-03     13.2399E-03     52.0286E-03     407.324E-03    -190.146E-03    -217.450E-03    -192.565E-03     382.440E-03    -190.146E-03     238.477E-03     604.630E-03     75.5186E+06     73.2930E+06     55.6043E+06    -9.46118E+06    -9.41599E+06     55.5591E+06     73.2930E+06     627.926E+03
             599     53.2547E-03     12.4086E-03     51.7889E-03     393.207E-03    -190.055E-03    -203.057E-03    -186.686E-03     376.836E-03    -190.055E-03     194.121E-03     573.385E-03     77.4552E+06     71.7223E+06     49.9670E+06    -14.2489E+06    -14.2162E+06     49.9343E+06     71.7223E+06     837.901E+03
             600     52.7913E-03     11.5826E-03     51.5050E-03     391.280E-03    -190.245E-03    -200.991E-03    -185.327E-03     375.615E-03    -190.245E-03     188.886E-03     577.683E-03     82.3046E+06     70.8010E+06     44.2824E+06    -21.4651E+06    -21.4042E+06     44.2215E+06     70.8010E+06     819.933E+03
             601     52.4178E-03     10.7572E-03     51.3021E-03     384.410E-03    -190.358E-03    -194.026E-03    -183.252E-03     373.635E-03    -190.358E-03     156.162E-03     558.952E-03     87.1950E+06     68.3420E+06     38.9566E+06    -29.7485E+06    -29.6867E+06     38.8948E+06     68.3420E+06     91.2469E+03
             602     52.0724E-03     9.92398E-03     51.1180E-03     380.915E-03    -189.898E-03    -191.199E-03    -182.983E-03     373.215E-03    -190.413E-03     130.867E-03     541.070E-03     89.2131E+06     62.4723E+06     35.4422E+06    -37.0965E+06    -37.0857E+06     35.4314E+06     62.4723E+06    -719.421E+03
             603     51.7957E-03     9.09932E-03     50.9902E-03     377.882E-03    -188.035E-03    -190.450E-03    -183.787E-03     373.634E-03    -190.450E-03     95.8234E-03     514.717E-03     85.8163E+06     49.1150E+06     28.3483E+06    -45.1406E+06    -45.1363E+06     28.3440E+06     49.1150E+06    -476.079E+03
             604     51.5756E-03     8.27275E-03     50.9078E-03     376.384E-03    -186.282E-03    -190.402E-03    -184.255E-03     374.357E-03    -190.402E-03     66.6762E-03     487.803E-03     79.7515E+06     31.3994E+06     17.2795E+06    -54.4372E+06    -54.4263E+06     17.2686E+06     31.3994E+06    -549.636E+03
             605     51.3957E-03     7.44325E-03     50.8539E-03     376.437E-03    -186.149E-03    -190.386E-03    -185.090E-03     375.377E-03    -190.386E-03     47.9667E-03     466.942E-03     75.8018E+06     16.7491E+06     7.10798E+06    -63.3990E+06    -63.3757E+06     7.08465E+06     16.7491E+06    -576.294E+03
             606     51.2513E-03     6.61510E-03     50.8226E-03     377.103E-03    -186.950E-03    -190.529E-03    -186.483E-03     376.636E-03    -190.529E-03     31.4924E-03     448.164E-03     69.0030E+06     1.86826E+06    -28.1368E+06    -72.6109E+06    -72.5726E+06    -28.1751E+06     1.86826E+06     59.4603E+03
             607     51.1325E-03     5.78885E-03     50.8038E-03     378.002E-03    -187.984E-03    -190.575E-03    -187.823E-03     377.841E-03    -190.575E-03     18.2663E-03     431.723E-03     70.2120E+06    -16.6833E+06    -72.3371E+06    -95.4794E+06    -81.7261E+06    -86.0904E+06    -16.6833E+06     100.324E+03
             608     51.0541E-03     4.96130E-03     50.8125E-03     378.973E-03    -188.698E-03    -190.549E-03    -188.654E-03     378.929E-03    -190.549E-03     9.26706E-03     418.126E-03     87.9045E+06    -36.5878E+06    -90.0915E+06    -136.851E+06    -90.1171E+06    -136.825E+06    -36.5878E+06    -320.156E+03
             609     50.9884E-03     4.13543E-03     50.8204E-03     379.476E-03    -188.980E-03    -190.553E-03    -188.971E-03     379.467E-03    -190.553E-03     2.04765E-03     406.327E-03     109.561E+06    -57.5024E+06    -99.3931E+06    -181.418E+06    -99.4301E+06    -181.381E+06    -57.5024E+06    -1.22567E+06
             610     50.9501E-03     3.30816E-03     50.8426E-03     379.669E-03    -189.061E-03    -190.724E-03    -189.056E-03     379.664E-03    -190.724E-03    -2.84711E-03     396.783E-03     130.833E+06    -77.0306E+06    -108.416E+06    -220.530E+06    -108.466E+06    -220.480E+06    -77.0306E+06    -1.55958E+06
             611     50.9191E-03     2.47757E-03     50.8588E-03     380.824E-03    -189.887E-03    -191.019E-03    -189.909E-03     380.810E-03    -190.983E-03    -5.02343E-03     390.436E-03     148.504E+06    -94.8119E+06    -115.521E+06    -252.454E+06    -115.539E+06    -252.436E+06    -94.8119E+06    -629.401E+03
             612     50.9038E-03     1.65155E-03     50.8770E-03     381.962E-03    -190.786E-03    -191.272E-03    -191.076E-03     381.950E-03    -190.970E-03    -4.70788E-03     386.517E-03     161.172E+06    -110.339E+06    -121.183E+06    -276.600E+06    -121.186E+06    -276.597E+06    -110.339E+06    -177.864E+03
             613     50.8930E-03     828.553E-06     50.8863E-03     381.552E-03    -190.251E-03    -191.378E-03    -191.147E-03     381.548E-03    -190.478E-03    -2.74833E-03     383.212E-03     167.415E+06    -118.941E+06    -127.695E+06    -290.549E+06    -125.008E+06    -290.535E+06    -121.642E+06     352.131E+03
             614     52.8954E-03     14.0669E-03     50.9906E-03     404.482E-03    -190.329E-03    -214.125E-03    -193.619E-03     383.976E-03    -190.329E-03     202.300E-03     569.212E-03     75.7418E+06     78.7956E+06     60.6750E+06    -4.26055E+06    -4.22474E+06     60.6391E+06     78.7956E+06     153.537E+03
             615     52.2648E-03     13.2372E-03     50.5607E-03     407.501E-03    -190.142E-03    -217.577E-03    -192.674E-03     382.597E-03    -190.142E-03     238.656E-03     605.124E-03     76.3033E+06     73.4513E+06     55.8966E+06    -10.0294E+06    -9.96988E+06     55.8371E+06     73.4513E+06     594.068E+03
             616     51.8366E-03     12.4135E-03     50.3282E-03     393.439E-03    -190.044E-03    -203.308E-03    -186.879E-03     377.009E-03    -190.044E-03     194.536E-03     573.705E-03     78.1584E+06     70.9376E+06     48.6424E+06    -15.9111E+06    -15.8681E+06     48.5995E+06     70.9376E+06     751.835E+03
             617     51.3679E-03     11.5826E-03     50.0450E-03     391.114E-03    -190.239E-03    -200.766E-03    -185.109E-03     375.457E-03    -190.239E-03     188.737E-03     577.202E-03     82.6003E+06     71.2017E+06     43.6959E+06    -21.6038E+06    -21.5273E+06     43.6194E+06     71.2017E+06     732.893E+03
             618     50.9811E-03     10.7525E-03     49.8343E-03     384.402E-03    -190.359E-03    -194.031E-03    -183.430E-03     373.801E-03    -190.359E-03     154.850E-03     559.538E-03     87.1007E+06     69.9663E+06     40.5180E+06    -28.0187E+06    -27.9286E+06     40.4279E+06     69.9663E+06     485.664E+03
             619     50.6400E-03     9.92872E-03     49.6572E-03     380.664E-03    -189.541E-03    -191.399E-03    -182.883E-03     373.025E-03    -190.417E-03     130.492E-03     540.954E-03     88.9004E+06     62.8686E+06     36.3521E+06    -36.2535E+06    -36.2274E+06     36.3259E+06     62.8686E+06     17.8242E+03
             620     50.3493E-03     9.09832E-03     49.5204E-03     377.595E-03    -187.708E-03    -190.473E-03    -183.362E-03     373.249E-03    -190.473E-03     96.7765E-03     514.111E-03     85.5103E+06     48.5746E+06     27.8270E+06    -45.3535E+06    -45.3503E+06     27.8239E+06     48.5746E+06     8.90562E+03
             621     50.1337E-03     8.27145E-03     49.4467E-03     376.915E-03    -186.751E-03    -190.426E-03    -184.668E-03     374.833E-03    -190.426E-03     67.7213E-03     488.506E-03     79.4366E+06     31.1995E+06     17.4292E+06    -54.1906E+06    -54.1882E+06     17.4268E+06     31.1995E+06     302.266E+03
             622     49.9487E-03     7.44340E-03     49.3909E-03     377.084E-03    -186.860E-03    -190.348E-03    -185.772E-03     375.996E-03    -190.348E-03     48.5183E-03     467.614E-03     75.6198E+06     16.1231E+06     6.67851E+06    -63.7643E+06    -63.7481E+06     6.66226E+06     16.1231E+06     7.68271E+03
             623     49.7983E-03     6.61731E-03     49.3567E-03     377.086E-03    -187.015E-03    -190.450E-03    -186.551E-03     376.622E-03    -190.450E-03     31.4941E-03     447.879E-03     68.6547E+06     1.23468E+06    -27.9643E+06    -73.0792E+06    -72.9561E+06    -28.0874E+06     1.23468E+06    -396.064E+03
             624     49.6810E-03     5.78850E-03     49.3426E-03     377.449E-03    -187.431E-03    -190.528E-03    -187.258E-03     377.277E-03    -190.528E-03     19.0271E-03     431.068E-03     70.2440E+06    -16.4781E+06    -71.7355E+06    -95.4972E+06    -81.7546E+06    -85.4782E+06    -16.4781E+06    -561.531E+03
             625     49.5953E-03     4.96144E-03     49.3465E-03     378.357E-03    -188.001E-03    -190.584E-03    -187.949E-03     378.305E-03    -190.584E-03     10.1429E-03     417.439E-03     88.0518E+06    -36.0829E+06    -91.2380E+06    -136.597E+06    -91.2566E+06    -136.579E+06    -36.0829E+06    -416.990E+03
             626     49.5318E-03     4.13316E-03     49.3591E-03     379.320E-03    -188.690E-03    -190.705E-03    -188.681E-03     379.311E-03    -190.705E-03     3.34986E-03     406.197E-03     109.709E+06    -56.2270E+06    -100.124E+06    -180.595E+06    -100.131E+06    -180.589E+06    -56.2270E+06    -103.311E+03
             627     49.4881E-03     3.30538E-03     49.3776E-03     380.574E-03    -189.676E-03    -191.063E-03    -189.890E-03     380.569E-03    -190.845E-03    -2.06056E-03     397.673E-03     131.407E+06    -76.7769E+06    -108.760E+06    -221.001E+06    -108.781E+06    -220.980E+06    -76.7769E+06    -441.653E+03
             628     49.4602E-03     2.48136E-03     49.3979E-03     381.419E-03    -190.326E-03    -191.212E-03    -190.639E-03     381.404E-03    -190.884E-03    -5.52665E-03     390.929E-03     148.811E+06    -95.1513E+06    -116.500E+06    -253.391E+06    -116.525E+06    -253.365E+06    -95.1513E+06    -1.06861E+06
             629     49.4376E-03     1.65353E-03     49.4099E-03     381.396E-03    -190.366E-03    -191.101E-03    -190.682E-03     381.379E-03    -190.768E-03    -5.95610E-03     385.917E-03     160.483E+06    -111.025E+06    -123.257E+06    -277.212E+06    -123.266E+06    -277.203E+06    -111.025E+06    -910.749E+03
             630     49.4307E-03     825.138E-06     49.4238E-03     381.217E-03    -190.027E-03    -191.232E-03    -190.779E-03     381.208E-03    -190.472E-03    -4.08449E-03     382.877E-03     165.041E+06    -121.816E+06    -131.327E+06    -291.391E+06    -128.532E+06    -291.354E+06    -124.647E+06    -701.474E+03
             631     51.4871E-03     14.0676E-03     49.5280E-03     405.109E-03    -190.335E-03    -214.698E-03    -194.287E-03     384.698E-03    -190.335E-03     202.180E-03     570.012E-03     76.4614E+06     79.2577E+06     60.5471E+06    -4.71704E+06    -4.66674E+06     60.4968E+06     79.2577E+06     73.6895E+03
             632     50.8559E-03     13.2398E-03     49.1023E-03     407.570E-03    -190.121E-03    -217.589E-03    -192.911E-03     382.891E-03    -190.121E-03     237.520E-03     605.149E-03     76.2651E+06     74.1467E+06     55.5026E+06    -9.62051E+06    -9.55312E+06     55.4352E+06     74.1467E+06     330.209E+03
             633     50.4105E-03     12.4080E-03     48.8596E-03     393.074E-03    -190.006E-03    -202.979E-03    -186.820E-03     376.915E-03    -190.006E-03     192.830E-03     573.154E-03     78.1299E+06     72.2793E+06     48.6271E+06    -14.9189E+06    -14.8758E+06     48.5841E+06     72.2793E+06     465.513E+03
             634     49.9449E-03     11.5840E-03     48.5830E-03     390.785E-03    -190.204E-03    -200.484E-03    -184.913E-03     375.214E-03    -190.204E-03     188.259E-03     576.655E-03     82.9453E+06     71.8621E+06     44.2714E+06    -21.3223E+06    -21.2536E+06     44.2026E+06     71.8621E+06     401.051E+03
             635     49.5518E-03     10.7577E-03     48.3700E-03     384.100E-03    -190.349E-03    -193.751E-03    -183.003E-03     373.351E-03    -190.349E-03     155.817E-03     559.078E-03     87.7859E+06     69.5736E+06     40.2310E+06    -29.1022E+06    -29.0135E+06     40.1424E+06     69.5736E+06     189.634E+03
             636     49.2050E-03     9.92618E-03     48.1934E-03     380.432E-03    -189.451E-03    -191.268E-03    -182.544E-03     372.704E-03    -190.447E-03     131.108E-03     540.576E-03     89.1335E+06     62.6690E+06     36.0663E+06    -36.7142E+06    -36.6624E+06     36.0146E+06     62.6690E+06     550.317E+03
             637     48.9144E-03     9.09780E-03     48.0609E-03     377.276E-03    -187.350E-03    -190.545E-03    -182.982E-03     372.909E-03    -190.545E-03     97.0008E-03     513.265E-03     84.7025E+06     47.8917E+06     27.8068E+06    -44.9911E+06    -44.9706E+06     27.7863E+06     47.8917E+06     876.521E+03
             638     48.6860E-03     8.26890E-03     47.9786E-03     377.269E-03    -186.997E-03    -190.505E-03    -184.903E-03     375.175E-03    -190.505E-03     67.8906E-03     488.800E-03     79.1688E+06     30.6643E+06     17.1956E+06    -54.3542E+06    -54.3488E+06     17.1902E+06     30.6643E+06     612.066E+03
             639     48.5009E-03     7.44464E-03     47.9261E-03     377.654E-03    -187.340E-03    -190.414E-03    -186.236E-03     376.550E-03    -190.414E-03     49.0748E-03     468.208E-03     76.1761E+06     18.1498E+06     8.01633E+06    -62.5819E+06    -62.5735E+06     8.00796E+06     18.1498E+06     510.905E+03
             640     48.3491E-03     6.61602E-03     47.8943E-03     377.067E-03    -186.957E-03    -190.513E-03    -186.460E-03     376.570E-03    -190.513E-03     32.6626E-03     448.005E-03     68.9324E+06     3.24406E+06    -26.9420E+06    -71.3455E+06    -71.2129E+06    -27.0745E+06     3.24406E+06     29.5688E+03
             641     48.2287E-03     5.78887E-03     47.8800E-03     377.498E-03    -187.378E-03    -190.604E-03    -187.187E-03     377.308E-03    -190.604E-03     19.9770E-03     431.168E-03     70.1594E+06    -16.3911E+06    -72.1781E+06    -95.1159E+06    -81.3031E+06    -85.9909E+06    -16.3911E+06    -613.301E+03
             642     48.1397E-03     4.95991E-03     47.8835E-03     378.586E-03    -188.171E-03    -190.674E-03    -188.119E-03     378.535E-03    -190.674E-03     9.47399E-03     417.588E-03     89.0720E+06    -35.0749E+06    -90.5845E+06    -136.751E+06    -90.6175E+06    -136.718E+06    -35.0749E+06    -622.935E+03
             643     48.0766E-03     4.13205E-03     47.8987E-03     379.733E-03    -189.081E-03    -190.758E-03    -189.074E-03     379.726E-03    -190.758E-03     1.34772E-03     406.571E-03     111.157E+06    -54.6327E+06    -99.8635E+06    -180.868E+06    -99.8687E+06    -180.863E+06    -54.6327E+06    -90.7403E+03
             644     48.0263E-03     3.30626E-03     47.9123E-03     380.679E-03    -189.766E-03    -191.031E-03    -189.977E-03     380.672E-03    -190.813E-03    -3.20336E-03     397.714E-03     131.091E+06    -75.3425E+06    -109.178E+06    -219.811E+06    -109.182E+06    -219.807E+06    -75.3425E+06     335.360E+03
             645     47.9974E-03     2.47947E-03     47.9334E-03     381.520E-03    -190.344E-03    -191.281E-03    -190.832E-03     381.509E-03    -190.783E-03    -4.83993E-03     391.121E-03     148.969E+06    -95.3870E+06    -117.048E+06    -253.850E+06    -117.057E+06    -253.841E+06    -95.3870E+06    -385.238E+03
             646     47.9792E-03     1.65447E-03     47.9507E-03     381.302E-03    -190.341E-03    -191.071E-03    -190.842E-03     381.290E-03    -190.558E-03    -5.20483E-03     385.833E-03     161.446E+06    -111.672E+06    -123.703E+06    -278.757E+06    -123.713E+06    -278.747E+06    -111.672E+06    -1.00659E+06
             647     47.9687E-03     827.782E-06     47.9616E-03     380.594E-03    -189.752E-03    -190.901E-03    -190.514E-03     380.585E-03    -190.130E-03    -3.95492E-03     382.189E-03     165.884E+06    -122.106E+06    -131.671E+06    -292.556E+06    -128.876E+06    -292.519E+06    -124.938E+06    -829.057E+03
             648     50.0784E-03     14.0661E-03     48.0624E-03     405.656E-03    -190.344E-03    -215.198E-03    -194.697E-03     385.155E-03    -190.344E-03     202.570E-03     570.532E-03     76.3487E+06     78.7870E+06     59.8774E+06    -5.19791E+06    -5.16136E+06     59.8409E+06     78.7870E+06    -324.726E+03
             649     49.4394E-03     13.2404E-03     47.6334E-03     408.545E-03    -190.086E-03    -218.593E-03    -193.856E-03     383.808E-03    -190.086E-03     238.004E-03     606.227E-03     76.8252E+06     74.7577E+06     54.9814E+06    -9.96319E+06    -9.90227E+06     54.9204E+06     74.7577E+06    -187.635E+03
             650     49.0015E-03     12.4162E-03     47.4023E-03     392.800E-03    -189.960E-03    -202.745E-03    -186.468E-03     376.523E-03    -189.960E-03     193.258E-03     573.252E-03     78.5419E+06     72.8928E+06     48.4131E+06    -14.9561E+06    -14.8955E+06     48.3525E+06     72.8928E+06     408.612E+03
             651     48.5200E-03     11.5843E-03     47.1168E-03     390.229E-03    -190.210E-03    -199.905E-03    -183.955E-03     374.279E-03    -190.210E-03     190.313E-03     576.305E-03     83.0286E+06     72.0822E+06     44.8220E+06    -21.1395E+06    -21.0796E+06     44.7622E+06     72.0822E+06     843.271E+03
             652     48.1277E-03     10.7527E-03     46.9111E-03     384.219E-03    -190.414E-03    -193.865E-03    -182.821E-03     373.175E-03    -190.414E-03     157.944E-03     558.932E-03     87.7413E+06     69.8698E+06     40.8651E+06    -28.7005E+06    -28.6241E+06     40.7888E+06     69.8698E+06     563.993E+03
             653     47.7702E-03     9.92552E-03     46.7277E-03     381.014E-03    -189.915E-03    -191.469E-03    -183.220E-03     373.340E-03    -190.491E-03     130.532E-03     541.252E-03     89.3244E+06     62.4234E+06     35.2595E+06    -37.3023E+06    -37.2330E+06     35.1901E+06     62.4234E+06     125.182E+03
             654     47.4789E-03     9.09778E-03     46.5991E-03     377.671E-03    -187.835E-03    -190.520E-03    -183.662E-03     373.498E-03    -190.520E-03     95.0622E-03     513.992E-03     84.8798E+06     47.6113E+06     27.3510E+06    -45.5090E+06    -45.4757E+06     27.3177E+06     47.6113E+06     357.636E+03
             655     47.2445E-03     8.27081E-03     46.5149E-03     376.116E-03    -185.964E-03    -190.507E-03    -183.920E-03     374.072E-03    -190.507E-03     66.9726E-03     487.461E-03     78.8450E+06     31.4736E+06     18.2134E+06    -53.1321E+06    -53.1280E+06     18.2093E+06     31.4736E+06     465.632E+03
             656     47.0527E-03     7.44114E-03     46.4606E-03     376.672E-03    -186.284E-03    -190.534E-03    -185.195E-03     375.582E-03    -190.534E-03     48.6853E-03     467.403E-03      76.237E+06     18.3786E+06     8.05601E+06    -62.4891E+06    -62.4868E+06     8.05371E+06     18.3786E+06     154.449E+03
             657     46.9003E-03     6.61500E-03     46.4314E-03     377.795E-03    -187.454E-03    -190.662E-03    -186.959E-03     377.300E-03    -190.662E-03     32.5691E-03     448.910E-03     69.4631E+06     3.70519E+06    -26.8238E+06    -71.7397E+06    -71.6869E+06    -26.8766E+06     3.70519E+06     162.353E+03
             658     46.7748E-03     5.78683E-03     46.4154E-03     378.529E-03    -188.309E-03    -190.661E-03    -188.129E-03     378.350E-03    -190.661E-03     19.2381E-03     432.128E-03     70.2189E+06    -15.6205E+06    -70.5323E+06    -94.6982E+06    -80.2596E+06    -84.9709E+06    -15.6205E+06    -44.7728E+03
             659     46.6849E-03     4.96109E-03     46.4206E-03     379.288E-03    -188.976E-03    -190.598E-03    -188.931E-03     379.243E-03    -190.598E-03     8.98137E-03     418.278E-03     89.8085E+06    -35.2157E+06    -89.8712E+06    -137.874E+06    -89.9097E+06    -137.835E+06    -35.2157E+06    -347.355E+03
             660     46.6142E-03     4.13597E-03     46.4303E-03     379.828E-03    -189.360E-03    -190.563E-03    -189.353E-03     379.821E-03    -190.563E-03     1.78263E-03     406.609E-03     112.288E+06    -54.4931E+06    -99.3122E+06    -181.883E+06    -99.3182E+06    -181.877E+06    -54.4931E+06     129.356E+03
             661     46.5681E-03     3.30786E-03     46.4505E-03     379.990E-03    -189.457E-03    -190.604E-03    -189.450E-03     379.983E-03    -190.604E-03    -2.95000E-03     397.034E-03     131.985E+06    -74.2317E+06    -107.874E+06    -219.579E+06    -107.879E+06    -219.574E+06    -74.2317E+06     267.320E+03
             662     46.5324E-03     2.47955E-03     46.4663E-03     380.561E-03    -189.660E-03    -190.946E-03    -189.818E-03     380.548E-03    -190.775E-03    -5.36815E-03     390.292E-03     149.604E+06    -93.7975E+06    -116.092E+06    -253.163E+06    -116.095E+06    -253.160E+06    -93.7975E+06     271.899E+03
             663     46.5143E-03     1.65275E-03     46.4849E-03     381.312E-03    -190.165E-03    -191.253E-03    -190.559E-03     381.300E-03    -190.849E-03    -4.99371E-03     385.992E-03     161.645E+06    -112.554E+06    -123.290E+06    -279.213E+06    -123.298E+06    -279.206E+06    -112.554E+06     119.895E+03
             664     46.5066E-03     827.091E-06     46.4992E-03     381.491E-03    -190.321E-03    -191.264E-03    -190.924E-03     381.487E-03    -190.656E-03    -2.63826E-03     383.124E-03     167.360E+06    -122.520E+06    -129.877E+06    -293.424E+06    -127.482E+06    -293.402E+06    -124.938E+06    -173.021E+03
             665     48.6770E-03     14.0671E-03     46.6001E-03     405.192E-03    -190.359E-03    -214.775E-03    -193.960E-03     384.377E-03    -190.359E-03     203.790E-03     570.020E-03     76.8429E+06     79.5958E+06     60.8887E+06    -4.82908E+06    -4.79959E+06     60.8592E+06     79.5958E+06     73.4191E+03
             666     48.0273E-03     13.2386E-03     46.1666E-03     407.894E-03    -190.166E-03    -217.880E-03    -192.652E-03     382.667E-03    -190.166E-03     240.157E-03     606.428E-03     76.8948E+06     73.3225E+06     54.7163E+06    -11.1172E+06    -11.0866E+06     54.6857E+06     73.3225E+06    -253.545E+03
             667     47.5838E-03     12.4099E-03     45.9371E-03     393.595E-03    -190.090E-03    -203.439E-03    -186.711E-03     376.867E-03    -190.090E-03     196.185E-03     575.179E-03     78.3662E+06     69.9262E+06     46.7558E+06    -17.3825E+06    -17.2973E+06     46.6706E+06     69.9262E+06    -525.460E+03
             668     47.1081E-03     11.5818E-03     45.6622E-03     391.768E-03    -190.303E-03    -201.480E-03    -185.420E-03     375.708E-03    -190.303E-03     191.250E-03     578.439E-03     83.1908E+06     70.7990E+06     43.3994E+06    -22.6257E+06    -22.5510E+06     43.3247E+06     70.7990E+06    -181.600E+03
             669     46.6988E-03     10.7544E-03     45.4436E-03     384.653E-03    -190.432E-03    -194.314E-03    -183.595E-03     373.934E-03    -190.432E-03     155.736E-03     559.226E-03     88.2912E+06     70.5251E+06     41.2377E+06    -28.6832E+06    -28.6501E+06     41.2046E+06     70.5251E+06     582.675E+03
             670     46.3406E-03     9.92583E-03     45.2651E-03     380.608E-03    -189.659E-03    -191.339E-03    -182.995E-03     373.069E-03    -190.464E-03     129.541E-03     540.567E-03     89.4559E+06     63.1038E+06     36.0993E+06    -36.7275E+06    -36.6812E+06     36.0530E+06     63.1038E+06     433.424E+03
             671     46.0401E-03     9.09999E-03     45.1318E-03     377.358E-03    -187.590E-03    -190.504E-03    -183.314E-03     373.081E-03    -190.504E-03     96.2239E-03     513.925E-03     85.0529E+06     47.9113E+06     27.2868E+06    -45.5000E+06    -45.4650E+06     27.2518E+06     47.9113E+06    -344.390E+03
             672     45.8101E-03     8.27134E-03     45.0571E-03     376.210E-03    -186.112E-03    -190.504E-03    -184.013E-03     374.111E-03    -190.504E-03     67.7866E-03     487.638E-03     79.2018E+06     31.6360E+06     17.9142E+06    -53.5021E+06    -53.4913E+06     17.9035E+06     31.6360E+06    -306.074E+03
             673     45.6114E-03     7.44175E-03     45.0002E-03     376.616E-03    -186.228E-03    -190.533E-03    -185.168E-03     375.557E-03    -190.533E-03     47.7598E-03     467.144E-03     76.1752E+06     19.1530E+06     8.76972E+06    -61.6703E+06    -61.6695E+06     8.76893E+06     19.1530E+06    -53.6887E+03
             674     45.4492E-03     6.61344E-03     44.9654E-03     377.762E-03    -187.354E-03    -190.667E-03    -186.914E-03     377.322E-03    -190.667E-03     30.6316E-03     448.682E-03     69.4998E+06     3.81516E+06    -27.0833E+06    -71.4174E+06    -71.3974E+06    -27.1033E+06     3.81516E+06    -110.847E+03
             675     45.3241E-03     5.78905E-03     44.9529E-03     378.670E-03    -188.463E-03    -190.646E-03    -188.298E-03     378.505E-03    -190.646E-03     18.6983E-03     432.229E-03     69.9663E+06    -16.0372E+06    -71.9818E+06    -94.4201E+06    -81.1173E+06    -85.2847E+06    -16.0372E+06     446.252E+03
             676     45.2285E-03     4.96183E-03     44.9555E-03     379.190E-03    -188.880E-03    -190.548E-03    -188.829E-03     379.139E-03    -190.548E-03     9.79963E-03     418.220E-03     89.0220E+06    -36.3795E+06    -90.5976E+06    -137.847E+06    -90.6222E+06    -137.822E+06    -36.3795E+06     572.403E+03
             677     45.1612E-03     4.13292E-03     44.9717E-03     379.785E-03    -189.325E-03    -190.519E-03    -189.317E-03     379.777E-03    -190.519E-03     2.66434E-03     406.588E-03     112.057E+06    -55.8992E+06    -99.3469E+06    -182.815E+06    -99.3568E+06    -182.805E+06    -55.8992E+06     151.846E+03
             678     45.1088E-03     3.30694E-03     44.9874E-03     380.231E-03    -189.821E-03    -190.533E-03    -189.815E-03     380.225E-03    -190.533E-03    -2.54459E-03     397.244E-03     131.173E+06     -75.566E+06    -107.409E+06    -219.507E+06    -107.418E+06    -219.498E+06     -75.566E+06     405.428E+03
             679     45.0767E-03     2.48140E-03     45.0084E-03     380.292E-03    -189.695E-03    -190.681E-03    -189.682E-03     380.279E-03    -190.681E-03    -5.41348E-03     389.953E-03     149.783E+06    -94.1715E+06    -115.063E+06    -253.211E+06    -115.068E+06    -253.205E+06    -94.1715E+06     674.436E+03
             680     45.0542E-03     1.65231E-03     45.0238E-03     380.768E-03    -189.859E-03    -190.977E-03    -189.846E-03     380.755E-03    -190.977E-03    -5.42678E-03     385.407E-03     163.718E+06    -108.931E+06    -121.117E+06    -278.336E+06    -121.122E+06    -278.331E+06    -108.931E+06     719.723E+03
             681     45.0428E-03     824.546E-06     45.0353E-03     382.173E-03    -190.602E-03    -191.616E-03    -190.969E-03     382.166E-03    -191.242E-03    -3.54265E-03     383.806E-03     169.005E+06    -120.278E+06    -127.784E+06    -292.884E+06    -125.388E+06    -292.862E+06    -122.696E+06     395.716E+03
             682     47.2763E-03     14.0663E-03     45.1352E-03     404.342E-03    -190.368E-03    -213.950E-03    -193.222E-03     383.613E-03    -190.368E-03     202.997E-03     569.838E-03     77.0546E+06     80.1104E+06     60.7281E+06    -4.73860E+06    -4.71374E+06     60.7033E+06     80.1104E+06     302.571E+03
             683     46.6270E-03     13.2365E-03     44.7087E-03     406.262E-03    -190.259E-03    -216.154E-03    -191.119E-03     381.227E-03    -190.259E-03     238.448E-03     604.993E-03     76.1149E+06     73.6562E+06     54.5568E+06    -10.1273E+06    -10.1028E+06     54.5322E+06     73.6562E+06    -54.3092E+03
             684     46.1725E-03     12.4064E-03     44.4745E-03     393.610E-03    -190.223E-03    -203.302E-03    -186.967E-03     377.275E-03    -190.223E-03     194.015E-03     574.570E-03     76.9941E+06     69.7369E+06     46.9080E+06    -16.0530E+06    -15.9778E+06     46.8328E+06     69.7369E+06    -415.735E+03
             685     45.6821E-03     11.5826E-03     44.1893E-03     392.878E-03    -190.383E-03    -202.622E-03    -186.829E-03     377.085E-03    -190.383E-03     190.255E-03     579.432E-03     82.3600E+06     69.7482E+06     42.8680E+06    -22.6743E+06    -22.5846E+06     42.7783E+06     69.7482E+06    -553.649E+03
             686     45.2790E-03     10.7568E-03     43.9827E-03     385.231E-03    -190.429E-03    -194.933E-03    -184.012E-03     374.310E-03    -190.429E-03     157.410E-03     559.471E-03     88.1806E+06     70.1195E+06     40.0562E+06    -29.1528E+06    -29.1196E+06     40.0229E+06     70.1195E+06    -91.2001E+03
             687     44.9114E-03     9.92815E-03     43.8003E-03     380.437E-03    -189.411E-03    -191.408E-03    -182.593E-03     372.680E-03    -190.469E-03     131.238E-03     539.563E-03     89.4137E+06     63.9058E+06     36.4403E+06    -35.9713E+06    -35.9512E+06     36.4202E+06     63.9058E+06     321.930E+03
             688     44.6098E-03     9.09538E-03     43.6727E-03     377.320E-03    -187.460E-03    -190.538E-03    -183.199E-03     373.059E-03    -190.538E-03     95.7442E-03     513.299E-03     85.4996E+06     49.7303E+06     28.6979E+06    -44.2823E+06    -44.2529E+06     28.6685E+06     49.7303E+06     37.7897E+03
             689     44.3679E-03     8.26799E-03     43.5907E-03     377.043E-03    -186.924E-03    -190.488E-03    -184.902E-03     375.021E-03    -190.488E-03     66.6130E-03     488.580E-03     79.8209E+06     32.1216E+06     17.6745E+06    -53.8893E+06    -53.8707E+06     17.6559E+06     32.1216E+06    -420.878E+03
             690     44.1694E-03     7.44468E-03     43.5375E-03     377.174E-03    -186.970E-03    -190.441E-03    -185.912E-03     376.116E-03    -190.441E-03     47.9470E-03     467.692E-03     76.0317E+06     18.1110E+06     7.90591E+06    -62.4981E+06    -62.4934E+06     7.90116E+06     18.1110E+06    -332.792E+03
             691     44.0037E-03     6.61723E-03     43.5033E-03     377.143E-03    -186.874E-03    -190.570E-03    -186.406E-03     376.675E-03    -190.570E-03     31.5015E-03     447.790E-03     69.0335E+06     3.10477E+06    -27.6047E+06    -71.5158E+06    -71.4884E+06    -27.6321E+06     3.10477E+06     440.012E+03
             692     43.8699E-03     5.78711E-03     43.4866E-03     377.945E-03    -187.725E-03    -190.622E-03    -187.556E-03     377.776E-03    -190.622E-03     18.7190E-03     431.471E-03     70.0822E+06    -16.3766E+06    -72.2546E+06    -94.9192E+06     -81.196E+06    -85.9778E+06    -16.3766E+06     782.417E+03
             693     43.7754E-03     4.96000E-03     43.4935E-03     379.118E-03    -188.725E-03    -190.589E-03    -188.678E-03     379.071E-03    -190.589E-03     9.18667E-03     418.179E-03     88.2526E+06    -35.8377E+06    -89.5682E+06    -136.492E+06    -89.5931E+06    -136.467E+06    -35.8377E+06     884.315E+03
             694     43.7024E-03     4.13499E-03     43.5064E-03     379.839E-03    -189.346E-03    -190.572E-03    -189.341E-03     379.834E-03    -190.572E-03     1.99418E-03     406.691E-03     111.535E+06    -56.1974E+06    -98.2750E+06    -182.205E+06    -98.2899E+06    -182.191E+06    -56.1974E+06     513.824E+03
             695     43.6497E-03     3.30782E-03     43.5242E-03     380.185E-03    -189.747E-03    -190.597E-03    -189.742E-03     380.180E-03    -190.597E-03    -2.64815E-03     397.248E-03     131.425E+06    -76.2589E+06    -107.725E+06    -220.419E+06    -107.732E+06    -220.412E+06    -76.2589E+06     411.019E+03
             696     43.6138E-03     2.47947E-03     43.5433E-03     380.863E-03    -190.138E-03    -190.863E-03    -190.308E-03     380.851E-03    -190.681E-03    -5.17142E-03     390.491E-03     149.037E+06    -94.0836E+06    -115.825E+06    -252.684E+06    -115.829E+06    -252.680E+06    -94.0836E+06     597.487E+03
             697     43.5935E-03     1.65430E-03     43.5621E-03     381.144E-03    -190.190E-03    -191.049E-03    -190.604E-03     381.132E-03    -190.624E-03    -5.01765E-03     385.648E-03     162.880E+06    -109.396E+06    -122.011E+06    -278.151E+06    -122.012E+06    -278.150E+06    -109.396E+06     191.160E+03
             698     43.5765E-03     827.601E-06     43.5687E-03     380.911E-03    -190.099E-03    -190.831E-03    -190.334E-03     380.903E-03    -190.587E-03    -4.10808E-03     382.414E-03     167.424E+06    -121.181E+06    -126.961E+06    -291.388E+06    -126.495E+06    -291.366E+06    -121.669E+06     100.246E+03
             699     45.8827E-03     14.0668E-03     43.6732E-03     403.606E-03    -190.388E-03    -213.228E-03    -192.546E-03     382.924E-03    -190.388E-03     202.442E-03     569.269E-03     76.0162E+06     78.9608E+06     60.1703E+06    -4.63774E+06    -4.61329E+06     60.1458E+06     78.9608E+06    -321.208E+03
             700     45.2305E-03     13.2374E-03     43.2501E-03     407.482E-03    -190.263E-03    -217.385E-03    -192.268E-03     382.365E-03    -190.263E-03     239.396E-03     605.499E-03     75.9640E+06     74.0727E+06     54.4168E+06    -9.71118E+06    -9.65879E+06     54.3644E+06     74.0727E+06     41.3627E+03
             701     44.7639E-03     12.4114E-03     43.0089E-03     394.046E-03    -190.200E-03    -203.756E-03    -187.241E-03     377.531E-03    -190.200E-03     195.160E-03     573.743E-03     77.1634E+06     71.8403E+06     48.0684E+06    -14.3973E+06    -14.3498E+06     48.0209E+06     71.8403E+06     687.340E+03
             702     44.2688E-03     11.5811E-03     42.7271E-03     391.913E-03    -190.400E-03    -201.448E-03    -185.508E-03     375.973E-03    -190.400E-03     190.751E-03     577.787E-03     82.1441E+06     71.0916E+06     44.0788E+06    -21.1353E+06    -21.0670E+06     44.0105E+06     71.0916E+06     590.966E+03
             703     43.8534E-03     10.7516E-03     42.5150E-03     385.318E-03    -190.504E-03    -194.884E-03    -184.004E-03     374.438E-03    -190.504E-03     157.016E-03     560.200E-03     87.7848E+06     69.9544E+06     39.9366E+06    -28.8910E+06    -28.7850E+06     39.8307E+06     69.9544E+06    -560.855E+03
             704     43.4857E-03     9.92371E-03     42.3382E-03     381.530E-03    -190.041E-03    -191.937E-03    -183.946E-03     374.003E-03    -190.504E-03     129.418E-03     540.986E-03     89.9882E+06     63.8283E+06     35.6837E+06    -36.8258E+06    -36.7655E+06     35.6233E+06     63.8283E+06    -776.072E+03
             705     43.1772E-03     9.09973E-03     42.2074E-03     377.867E-03    -187.971E-03    -190.467E-03    -183.869E-03     373.765E-03    -190.467E-03     94.2031E-03     513.429E-03     86.2144E+06     49.6495E+06     28.0759E+06    -45.2275E+06    -45.2155E+06     28.0640E+06     49.6495E+06     32.6649E+03
             706     42.9336E-03     8.27370E-03     42.1288E-03     376.514E-03    -186.382E-03    -190.405E-03    -184.380E-03     374.512E-03    -190.405E-03     66.2820E-03     487.928E-03     79.3368E+06     31.8363E+06     17.8415E+06    -53.5193E+06    -53.4876E+06     17.8097E+06     31.8363E+06     463.353E+03
             707     42.7278E-03     7.44213E-03     42.0747E-03     376.726E-03    -186.623E-03    -190.402E-03    -185.557E-03     375.660E-03    -190.402E-03     48.1186E-03     467.265E-03     75.8398E+06     17.2371E+06     7.07835E+06    -63.1650E+06    -63.1281E+06     7.04138E+06     17.2371E+06     840.722E+03
             708     42.5589E-03     6.61481E-03     42.0417E-03     377.298E-03    -187.153E-03    -190.512E-03    -186.676E-03     376.821E-03    -190.512E-03     31.8700E-03     448.057E-03     68.8458E+06     1.73095E+06    -27.9713E+06    -73.0342E+06    -72.9892E+06    -28.0162E+06     1.73095E+06     559.072E+03
             709     42.4214E-03     5.78915E-03     42.0246E-03     377.935E-03    -187.778E-03    -190.531E-03    -187.611E-03     377.768E-03    -190.531E-03     18.4887E-03     431.448E-03     69.3243E+06    -17.2685E+06    -71.9603E+06    -95.1908E+06    -81.8916E+06    -85.2595E+06    -17.2685E+06     171.359E+03
             710     42.3207E-03     4.96204E-03     42.0288E-03     378.692E-03    -188.368E-03    -190.536E-03    -188.327E-03     378.651E-03    -190.536E-03     8.77287E-03     417.731E-03     88.9901E+06    -35.8848E+06    -90.5618E+06    -137.358E+06    -90.5737E+06    -137.346E+06    -35.8848E+06     449.043E+03
             711     42.2464E-03     4.13347E-03     42.0437E-03     379.471E-03    -188.982E-03    -190.582E-03    -188.977E-03     379.465E-03    -190.582E-03     2.01939E-03     406.371E-03     111.735E+06    -55.6896E+06    -99.8464E+06    -182.340E+06    -99.8750E+06    -182.312E+06    -55.6896E+06     1.12775E+06
             712     42.1912E-03     3.30618E-03     42.0615E-03     380.244E-03    -189.769E-03    -190.644E-03    -189.763E-03     380.239E-03    -190.644E-03    -2.83341E-03     397.261E-03     130.925E+06    -75.9936E+06    -108.412E+06    -219.833E+06    -108.433E+06    -219.812E+06    -75.9936E+06     1.21070E+06
             713     42.1540E-03     2.48034E-03     42.0810E-03     381.139E-03    -190.415E-03    -190.920E-03    -190.647E-03     381.126E-03    -190.675E-03    -5.36465E-03     390.711E-03     147.200E+06    -95.0095E+06    -115.789E+06    -251.365E+06    -115.792E+06    -251.362E+06    -95.0095E+06     441.984E+03
             714     42.1290E-03     1.65352E-03     42.0965E-03     381.292E-03    -190.450E-03    -190.989E-03    -190.978E-03     381.280E-03    -190.450E-03    -4.91456E-03     385.803E-03     160.424E+06    -111.255E+06    -122.268E+06    -276.836E+06    -122.269E+06    -276.835E+06    -111.255E+06     168.153E+03
             715     42.1158E-03     827.655E-06     42.1077E-03     380.327E-03    -189.356E-03    -191.024E-03    -190.995E-03     380.320E-03    -189.378E-03    -3.59541E-03     381.810E-03     166.733E+06    -123.627E+06    -128.018E+06    -292.494E+06    -127.549E+06    -292.474E+06    -124.116E+06     72.8476E+03
             716     44.4964E-03     14.0634E-03     42.2156E-03     403.363E-03    -190.419E-03    -213.028E-03    -192.158E-03     382.492E-03    -190.419E-03     203.360E-03     568.569E-03     75.5583E+06     77.6865E+06     60.6566E+06    -4.86520E+06    -4.82890E+06     60.6203E+06     77.6865E+06    -2.96164E+03
             717     43.8248E-03     13.2357E-03     41.7783E-03     408.322E-03    -190.289E-03    -218.171E-03    -192.672E-03     382.823E-03    -190.289E-03     241.717E-03     606.010E-03     76.2564E+06     73.2657E+06     55.4675E+06    -10.2269E+06    -10.1517E+06     55.3922E+06     73.2657E+06     123.919E+03
             718     43.3601E-03     12.4079E-03     41.5469E-03     394.709E-03    -190.206E-03    -204.358E-03    -187.679E-03     378.030E-03    -190.206E-03     196.458E-03     574.757E-03     78.2041E+06     69.8857E+06     46.7297E+06    -17.2667E+06    -17.2253E+06     46.6883E+06     69.8857E+06    -146.033E+03
             719     42.8579E-03     11.5802E-03     41.2638E-03     392.344E-03    -190.368E-03    -201.840E-03    -186.108E-03     376.612E-03    -190.368E-03     189.549E-03     578.571E-03     83.5807E+06     70.4970E+06     43.5048E+06    -23.2221E+06    -23.1289E+06     43.4117E+06     70.4970E+06    -521.012E+03
             720     42.4352E-03     10.7539E-03     41.0500E-03     385.129E-03    -190.441E-03    -194.685E-03    -184.258E-03     374.701E-03    -190.441E-03     153.680E-03     560.010E-03     89.2291E+06     71.2178E+06     41.5102E+06    -29.0651E+06    -28.8892E+06     41.3344E+06     71.2178E+06    -517.164E+03
             721     42.0570E-03     9.92909E-03     40.8681E-03     380.845E-03    -189.600E-03    -191.550E-03    -183.446E-03     373.569E-03    -190.429E-03     127.408E-03     540.532E-03     90.2027E+06     62.9599E+06     35.2967E+06    -37.7941E+06    -37.6847E+06     35.1874E+06     62.9599E+06    -670.959E+03
             722     41.7475E-03     9.09945E-03     40.7438E-03     377.503E-03    -187.589E-03    -190.402E-03    -183.378E-03     373.292E-03    -190.402E-03     95.5777E-03     513.649E-03     85.4587E+06     47.4678E+06     26.3715E+06    -46.4892E+06    -46.4619E+06     26.3442E+06     47.4678E+06    -567.205E+03
             723     41.4976E-03     8.26962E-03     40.6653E-03     376.729E-03    -186.603E-03    -190.337E-03    -184.536E-03     374.662E-03    -190.337E-03     67.2247E-03     488.285E-03     79.2420E+06     30.2191E+06     16.2103E+06    -55.0518E+06    -55.0283E+06     16.1868E+06     30.2191E+06     454.511E+03
             724     41.2892E-03     7.44438E-03     40.6126E-03     376.806E-03    -186.609E-03    -190.322E-03    -185.585E-03     375.781E-03    -190.322E-03     47.0472E-03     467.221E-03     76.1017E+06     17.8287E+06     7.34345E+06    -62.9662E+06    -62.9319E+06     7.30917E+06     17.8287E+06     1.12492E+06
             725     41.1123E-03     6.61662E-03     40.5764E-03     376.950E-03    -186.849E-03    -190.433E-03    -186.402E-03     376.503E-03    -190.433E-03     31.0201E-03     447.790E-03     68.6424E+06     2.96237E+06    -26.3056E+06    -71.7954E+06    -71.6971E+06    -26.4039E+06     2.96237E+06     962.691E+03
             726     40.9715E-03     5.78912E-03     40.5604E-03     377.741E-03    -187.699E-03    -190.469E-03    -187.525E-03     377.567E-03    -190.469E-03     19.0779E-03     431.356E-03     70.1977E+06    -16.4585E+06    -71.1328E+06    -95.5672E+06    -81.5768E+06    -85.1231E+06    -16.4585E+06     517.932E+03
             727     40.8704E-03     4.96129E-03     40.5682E-03     378.738E-03    -188.475E-03    -190.462E-03    -188.429E-03     378.692E-03    -190.462E-03     9.04226E-03     417.816E-03     90.5627E+06    -35.7565E+06    -91.4079E+06    -139.078E+06    -91.4173E+06    -139.069E+06    -35.7565E+06     421.469E+03
             728     40.7910E-03     4.13411E-03     40.5810E-03     379.563E-03    -189.137E-03    -190.459E-03    -189.131E-03     379.557E-03    -190.459E-03     943.151E-06     406.374E-03     111.876E+06    -55.7100E+06    -100.635E+06    -182.685E+06    -100.660E+06    -182.660E+06    -55.7100E+06     831.446E+03
             729     40.7320E-03     3.30761E-03     40.5974E-03     380.067E-03    -189.676E-03    -190.484E-03    -189.668E-03     380.059E-03    -190.484E-03    -4.05818E-03     397.003E-03     129.330E+06    -75.6104E+06    -108.189E+06    -217.851E+06    -108.209E+06    -217.831E+06    -75.6104E+06     529.661E+03
             730     40.6943E-03     2.48044E-03     40.6187E-03     380.551E-03    -190.101E-03    -190.631E-03    -190.151E-03     380.538E-03    -190.568E-03    -5.48681E-03     390.226E-03     146.266E+06    -95.5486E+06    -115.409E+06    -250.584E+06    -115.413E+06    -250.581E+06    -95.5486E+06     38.6631E+03
             731     40.6669E-03     1.65414E-03     40.6332E-03     380.827E-03    -190.326E-03    -190.650E-03    -190.427E-03     380.814E-03    -190.537E-03    -5.32707E-03     385.465E-03     161.533E+06    -110.565E+06    -121.213E+06    -277.123E+06    -121.215E+06    -277.121E+06    -110.565E+06     68.1115E+03
             732     40.6548E-03     826.542E-06     40.6464E-03     380.785E-03    -189.609E-03    -191.237E-03    -191.005E-03     380.779E-03    -189.835E-03    -3.07838E-03     382.336E-03     167.496E+06    -121.435E+06    -126.239E+06    -291.264E+06    -126.256E+06    -291.248E+06    -121.435E+06     1.08769E+06
             733     43.1124E-03     14.0662E-03     40.7531E-03     404.317E-03    -190.454E-03    -213.803E-03    -192.945E-03     383.459E-03    -190.454E-03     203.277E-03     568.979E-03     76.4648E+06     79.7858E+06     61.1698E+06    -4.17419E+06    -4.13907E+06     61.1347E+06     79.7858E+06     1.14337E+06
             734     42.4390E-03     13.2356E-03     40.3223E-03     408.471E-03    -190.286E-03    -218.243E-03    -192.897E-03     383.125E-03    -190.286E-03     240.747E-03     606.044E-03     76.9725E+06     74.2639E+06     55.7729E+06    -10.1863E+06    -10.0758E+06     55.6624E+06     74.2639E+06     1.40881E+06
             735     41.9510E-03     12.4068E-03     40.0744E-03     394.726E-03    -190.163E-03    -204.403E-03    -188.292E-03     378.614E-03    -190.163E-03     193.256E-03     575.263E-03     78.4358E+06     70.9262E+06     47.6335E+06    -16.4982E+06    -16.4069E+06     47.5421E+06     70.9262E+06     29.3501E+03
             736     41.4477E-03     11.5832E-03     39.7963E-03     392.333E-03    -190.236E-03    -202.056E-03    -186.693E-03     376.971E-03    -190.236E-03     187.639E-03     579.114E-03     83.7127E+06     70.5157E+06     43.9369E+06    -23.2464E+06    -23.1743E+06     43.8648E+06     70.5157E+06    -1.27033E+06
             737     41.0183E-03     10.7578E-03     39.5825E-03     384.146E-03    -190.220E-03    -193.943E-03    -183.292E-03     373.548E-03    -190.272E-03     154.755E-03     559.129E-03     89.6974E+06     70.1666E+06     40.5614E+06    -30.5878E+06    -30.4098E+06     40.3834E+06     70.1666E+06    -1.25200E+06
             738     40.6422E-03     9.92720E-03     39.4111E-03     379.856E-03    -189.394E-03    -190.728E-03    -182.268E-03     372.354E-03    -190.352E-03     129.102E-03     539.650E-03     89.8824E+06     62.6657E+06     34.8689E+06    -37.7865E+06    -37.6287E+06     34.7111E+06     62.6657E+06    -494.068E+03
             739     40.3213E-03     9.09737E-03     39.2816E-03     377.631E-03    -187.734E-03    -190.396E-03    -183.511E-03     373.408E-03    -190.396E-03     95.4167E-03     514.074E-03     85.0309E+06     46.7850E+06     25.8037E+06    -46.7116E+06    -46.6666E+06     25.7587E+06     46.7850E+06    -33.9347E+03
             740     40.0647E-03     8.27319E-03     39.2012E-03     376.967E-03    -186.870E-03    -190.305E-03    -184.862E-03     374.958E-03    -190.305E-03     66.4655E-03     488.560E-03     79.3534E+06     29.6694E+06     15.3981E+06    -55.8102E+06    -55.8074E+06     15.3953E+06     29.6694E+06    -219.885E+03
             741     39.8496E-03     7.44519E-03     39.1479E-03     376.965E-03    -186.858E-03    -190.263E-03    -185.801E-03     375.909E-03    -190.263E-03     47.9140E-03     467.534E-03     75.8270E+06     16.5071E+06     6.09545E+06    -63.9790E+06    -63.9753E+06     6.09178E+06     16.5071E+06    -41.2389E+03
             742     39.6719E-03     6.61733E-03     39.1161E-03     376.892E-03    -186.920E-03    -190.349E-03    -186.455E-03     376.426E-03    -190.349E-03     31.4916E-03     447.741E-03     68.8531E+06     2.85186E+06    -25.4337E+06    -72.3776E+06    -72.3043E+06    -25.5070E+06     2.85186E+06     816.787E+03
             743     39.5243E-03     5.78826E-03     39.0982E-03     377.533E-03    -187.626E-03    -190.376E-03    -187.464E-03     377.371E-03    -190.376E-03     18.1647E-03     431.086E-03     70.8292E+06    -16.0157E+06    -69.4251E+06    -96.3333E+06    -81.3081E+06    -84.4503E+06    -16.0157E+06     717.332E+03
             744     39.4170E-03     4.96200E-03     39.1034E-03     378.854E-03    -188.709E-03    -190.336E-03    -188.672E-03     378.817E-03    -190.336E-03     8.11259E-03     417.898E-03     91.2646E+06    -35.1030E+06    -90.2115E+06    -139.413E+06    -90.2193E+06    -139.405E+06    -35.1030E+06     460.541E+03
             745     39.3352E-03     4.13626E-03     39.1171E-03     379.403E-03    -189.154E-03    -190.295E-03    -189.150E-03     379.398E-03    -190.295E-03     1.17900E-03     406.085E-03     112.462E+06    -54.2829E+06    -98.5684E+06    -181.759E+06    -98.5757E+06    -181.752E+06    -54.2829E+06     237.395E+03
             746     39.2766E-03     3.30858E-03     39.1370E-03     379.572E-03    -189.329E-03    -190.326E-03    -189.323E-03     379.566E-03    -190.326E-03    -3.13189E-03     396.548E-03     130.383E+06    -73.7948E+06    -106.864E+06    -217.349E+06    -106.866E+06    -217.347E+06    -73.7948E+06    -210.149E+03
             747     39.2339E-03     2.48102E-03     39.1554E-03     380.074E-03    -189.729E-03    -190.459E-03    -189.717E-03     380.062E-03    -190.459E-03    -5.19699E-03     389.887E-03     148.784E+06    -92.3041E+06    -114.905E+06    -250.974E+06    -114.908E+06    -250.972E+06    -92.3041E+06     97.4083E+03
             748     39.2056E-03     1.65309E-03     39.1708E-03     380.532E-03    -190.132E-03    -190.525E-03    -190.117E-03     380.518E-03    -190.525E-03    -5.72757E-03     385.224E-03     162.861E+06    -109.550E+06    -122.071E+06    -278.242E+06    -122.074E+06    -278.239E+06    -109.550E+06    -234.543E+03
             749     39.1940E-03     826.695E-06     39.1853E-03     380.868E-03    -190.089E-03    -190.832E-03    -190.565E-03     380.859E-03    -190.347E-03    -3.95990E-03     382.472E-03     163.652E+06    -123.961E+06    -128.428E+06    -289.774E+06    -128.437E+06    -289.766E+06    -123.961E+06     124.548E+03
             750     41.7365E-03     14.0637E-03     39.2956E-03     406.105E-03    -190.480E-03    -215.430E-03    -194.712E-03     385.387E-03    -190.480E-03     203.186E-03     570.384E-03     77.5771E+06     80.7498E+06     60.0548E+06    -5.00793E+06    -4.97497E+06     60.0218E+06     80.7498E+06     868.310E+03
             751     41.0478E-03     13.2378E-03     38.8547E-03     410.048E-03    -190.142E-03    -219.916E-03    -194.907E-03     385.039E-03    -190.142E-03     239.597E-03     607.823E-03     77.9151E+06     76.2594E+06     55.7986E+06    -9.78541E+06    -9.67456E+06     55.6877E+06     76.2594E+06     1.21277E+06
             752     40.5589E-03     12.4143E-03     38.6123E-03     394.115E-03    -189.973E-03    -204.037E-03    -187.929E-03     378.007E-03    -189.973E-03     192.782E-03     574.690E-03     78.7339E+06     74.3895E+06     49.3842E+06    -13.7970E+06    -13.6814E+06     49.2687E+06     74.3895E+06     622.036E+03
             753     40.0420E-03     11.5856E-03     38.3293E-03     390.749E-03    -190.124E-03    -200.603E-03    -185.023E-03     375.170E-03    -190.124E-03     188.277E-03     577.274E-03     82.8313E+06     73.5830E+06     46.0868E+06    -19.4990E+06    -19.4708E+06     46.0585E+06     73.5830E+06     347.705E+03
             754     39.6112E-03     10.7548E-03     38.1232E-03     383.250E-03    -190.183E-03    -193.002E-03    -182.332E-03     372.632E-03    -190.236E-03     154.658E-03     558.520E-03     87.8617E+06     70.3248E+06     40.3583E+06    -28.5885E+06    -28.4540E+06     40.2238E+06     70.3248E+06    -158.845E+03
             755     39.2261E-03     9.92654E-03     37.9494E-03     380.356E-03    -189.885E-03    -190.699E-03    -182.719E-03     372.836E-03    -190.346E-03     129.298E-03     539.908E-03     89.7112E+06     62.1169E+06     33.6642E+06    -38.3098E+06    -38.1568E+06     33.5112E+06     62.1169E+06     152.385E+03
             756     38.8948E-03     9.10120E-03     37.8150E-03     377.728E-03    -187.855E-03    -190.376E-03    -183.646E-03     373.519E-03    -190.376E-03     95.3725E-03     513.777E-03     85.3290E+06     47.2090E+06     25.8573E+06    -46.7077E+06    -46.6854E+06     25.8349E+06     47.2090E+06     398.425E+03
             757     38.6342E-03     8.27124E-03     37.7384E-03     376.382E-03    -186.268E-03    -190.307E-03    -184.231E-03     374.344E-03    -190.307E-03     66.9210E-03     487.981E-03     79.1048E+06     30.4203E+06     16.1132E+06    -54.8147E+06    -54.8073E+06     16.1059E+06     30.4203E+06     102.096E+03
             758     38.4130E-03     7.44301E-03     37.6850E-03     377.029E-03    -186.976E-03    -190.277E-03    -185.898E-03     375.952E-03    -190.277E-03     48.3252E-03     467.705E-03     75.9213E+06     16.3903E+06     5.82638E+06    -64.2493E+06    -64.2205E+06     5.79760E+06     16.3903E+06    -397.764E+03
             759     38.2286E-03     6.61739E-03     37.6515E-03     377.753E-03    -187.890E-03    -190.281E-03    -187.429E-03     377.292E-03    -190.281E-03     31.3361E-03     448.754E-03     68.4837E+06     1.75531E+06    -26.4450E+06    -73.0983E+06    -73.0313E+06    -26.5120E+06     1.75531E+06    -1.04236E+06
             760     38.0796E-03     5.79184E-03     37.6366E-03     377.833E-03    -188.056E-03    -190.207E-03    -187.895E-03     377.672E-03    -190.207E-03     18.2650E-03     431.263E-03     70.4656E+06    -15.9626E+06    -69.0501E+06    -95.8735E+06    -80.7314E+06    -84.1923E+06    -15.9626E+06    -640.773E+03
             761     37.9633E-03     4.96386E-03     37.6374E-03     378.032E-03    -187.994E-03    -190.184E-03    -187.953E-03     377.991E-03    -190.184E-03     8.55454E-03     416.938E-03     91.5725E+06    -34.6314E+06    -89.2702E+06    -139.267E+06    -89.2755E+06    -139.262E+06    -34.6314E+06    -136.434E+03
             762     37.8832E-03     4.13481E-03     37.6569E-03     378.749E-03    -188.529E-03    -190.258E-03    -188.525E-03     378.745E-03    -190.258E-03     1.61663E-03     405.476E-03     112.783E+06    -53.7572E+06    -98.2026E+06    -181.691E+06    -98.2026E+06    -181.691E+06    -53.7572E+06    -54.8537E+03
             763     37.8191E-03     3.30758E-03     37.6741E-03     379.539E-03    -189.349E-03    -190.336E-03    -189.345E-03     379.535E-03    -190.336E-03    -2.54377E-03     396.502E-03     130.717E+06    -74.2668E+06    -107.198E+06    -218.061E+06    -107.202E+06    -218.056E+06    -74.2668E+06     424.955E+03
             764     37.7741E-03     2.48111E-03     37.6926E-03     380.201E-03    -189.924E-03    -190.426E-03    -189.914E-03     380.191E-03    -190.426E-03    -4.72370E-03     389.935E-03     148.928E+06    -93.1355E+06    -114.667E+06    -251.547E+06    -114.673E+06    -251.541E+06    -93.1355E+06     793.148E+03
             765     37.7451E-03     1.65450E-03     37.7089E-03     380.659E-03    -190.269E-03    -190.504E-03    -190.270E-03     380.646E-03    -190.491E-03    -5.24165E-03     385.252E-03     162.673E+06    -108.734E+06    -122.349E+06    -277.752E+06    -122.364E+06    -277.738E+06    -108.734E+06     759.789E+03
             766     37.7307E-03     826.866E-06     37.7217E-03     380.713E-03    -189.842E-03    -190.919E-03    -190.879E-03     380.705E-03    -189.874E-03    -3.72100E-03     382.297E-03     163.275E+06    -123.321E+06    -129.210E+06    -289.410E+06    -128.696E+06    -289.390E+06    -123.854E+06    -14.5109E+03
             767     40.3592E-03     14.0651E-03     37.8290E-03     407.210E-03    -190.374E-03    -216.760E-03    -196.294E-03     386.743E-03    -190.374E-03     202.110E-03     571.605E-03     77.7492E+06     80.1506E+06     59.4895E+06    -5.78344E+06    -5.72682E+06     59.4329E+06     80.1506E+06     4.24016E+03
             768     39.6639E-03     13.2433E-03     37.3877E-03     409.585E-03    -189.947E-03    -219.655E-03    -194.845E-03     384.775E-03    -189.947E-03     238.764E-03     607.649E-03     77.6624E+06     75.2874E+06     54.6629E+06    -10.5494E+06    -10.4830E+06     54.5966E+06     75.2874E+06    -608.399E+03
             769     39.1720E-03     12.4137E-03     37.1530E-03     392.631E-03    -189.813E-03    -202.634E-03    -186.305E-03     376.303E-03    -189.813E-03     193.488E-03     573.147E-03     78.4722E+06     72.8800E+06     48.0175E+06    -14.9977E+06    -14.9253E+06     47.9451E+06     72.8800E+06    -536.600E+03
             770     38.6451E-03     11.5844E-03     36.8679E-03     389.854E-03    -190.128E-03    -199.646E-03    -183.804E-03     374.012E-03    -190.128E-03     189.413E-03     575.757E-03     82.7545E+06     72.5006E+06     44.6363E+06    -20.5876E+06    -20.5166E+06     44.5653E+06     72.5006E+06     467.568E+03
             771     38.2094E-03     10.7569E-03     36.6639E-03     384.004E-03    -190.271E-03    -193.731E-03    -183.050E-03     373.322E-03    -190.271E-03     155.298E-03     558.379E-03     88.5415E+06     71.6999E+06     41.4289E+06    -27.9917E+06    -27.9105E+06     41.3477E+06     71.6999E+06     1.73774E+06
             772     37.8091E-03     9.92957E-03     36.4819E-03     380.602E-03    -189.361E-03    -191.530E-03    -183.035E-03     373.075E-03    -190.330E-03     129.417E-03     539.918E-03     89.9160E+06     63.5713E+06     35.1081E+06    -37.0735E+06    -36.9834E+06     35.0180E+06     63.5713E+06     1.77391E+06
             773     37.4745E-03     9.09858E-03     36.3531E-03     377.157E-03    -187.317E-03    -190.366E-03    -183.107E-03     372.947E-03    -190.366E-03     95.3356E-03     513.279E-03     84.8876E+06     47.4726E+06     26.2576E+06    -45.9215E+06    -45.8858E+06     26.2218E+06     47.4726E+06     565.898E+03
             774     37.2070E-03     8.27181E-03     36.2759E-03     376.782E-03    -186.720E-03    -190.292E-03    -184.710E-03     374.772E-03    -190.292E-03     66.3532E-03     488.284E-03     79.4167E+06     31.0730E+06     16.4707E+06    -54.5897E+06    -54.5560E+06     16.4370E+06     31.0730E+06    -399.198E+03
             775     36.9793E-03     7.44521E-03     36.2220E-03     377.151E-03    -187.118E-03    -190.209E-03    -186.098E-03     376.131E-03    -190.209E-03     47.1005E-03     467.563E-03     75.8487E+06     17.7968E+06     7.02408E+06    -62.8297E+06    -62.7744E+06     6.96878E+06     17.7968E+06    -1.05605E+06
             776     36.7879E-03     6.61747E-03     36.1879E-03     377.218E-03    -187.351E-03    -190.240E-03    -186.896E-03     376.763E-03    -190.240E-03     31.2544E-03     448.176E-03     67.4082E+06     2.10048E+06    -26.3950E+06    -71.1269E+06    -71.0036E+06    -26.5183E+06     2.10048E+06    -1.68195E+06
             777     36.6330E-03     5.79040E-03     36.1724E-03     377.600E-03    -187.789E-03    -190.196E-03    -187.615E-03     377.426E-03    -190.196E-03     19.1214E-03     431.334E-03     69.8793E+06    -17.2603E+06    -70.2800E+06    -96.3935E+06    -80.2190E+06    -86.4545E+06    -17.2603E+06    -1.18862E+06
             778     36.5186E-03     4.96298E-03     36.1798E-03     378.046E-03    -188.023E-03    -190.195E-03    -187.973E-03     377.996E-03    -190.195E-03     9.70801E-03     417.024E-03     90.4431E+06    -36.7031E+06    -90.2017E+06    -140.248E+06    -90.2112E+06    -140.239E+06    -36.7031E+06     80.3531E+03
             779     36.4283E-03     4.13564E-03     36.1928E-03     378.850E-03    -188.689E-03    -190.281E-03    -188.682E-03     378.842E-03    -190.281E-03     2.13906E-03     405.668E-03     111.218E+06    -56.2422E+06    -99.5162E+06    -182.244E+06    -99.5262E+06    -182.234E+06    -56.2422E+06     604.113E+03
             780     36.3633E-03     3.30811E-03     36.2125E-03     379.603E-03    -189.498E-03    -190.297E-03    -189.492E-03     379.597E-03    -190.297E-03    -3.11595E-03     396.636E-03     129.898E+06    -75.4369E+06    -107.525E+06    -218.171E+06    -107.535E+06    -218.161E+06    -75.4369E+06     482.593E+03
             781     36.3141E-03     2.48028E-03     36.2293E-03     380.131E-03    -189.953E-03    -190.371E-03    -189.938E-03     380.117E-03    -190.371E-03    -5.56324E-03     389.785E-03     148.432E+06    -94.0182E+06    -115.032E+06    -251.717E+06    -115.041E+06    -251.709E+06    -94.0182E+06     622.446E+03
             782     36.2857E-03     1.65308E-03     36.2480E-03     380.532E-03    -190.216E-03    -190.472E-03    -190.215E-03     380.518E-03    -190.459E-03    -5.33105E-03     385.108E-03     161.538E+06    -109.731E+06    -121.037E+06    -276.546E+06    -121.055E+06    -276.528E+06    -109.731E+06     803.492E+03
             783     36.2656E-03     827.201E-06     36.2562E-03     380.720E-03    -189.872E-03    -190.901E-03    -190.427E-03     380.715E-03    -190.341E-03    -3.21643E-03     382.255E-03     165.680E+06    -119.762E+06    -124.431E+06    -287.689E+06    -123.236E+06    -287.667E+06    -120.978E+06    -385.772E+03
             784     38.9909E-03     14.0735E-03     36.3624E-03     407.224E-03    -190.206E-03    -216.972E-03    -196.243E-03     386.496E-03    -190.206E-03     203.623E-03     571.860E-03     77.8718E+06     80.6244E+06     60.3024E+06    -5.35598E+06    -5.29314E+06     60.2396E+06     80.6244E+06     56.1218E+03
             785     38.2882E-03     13.2424E-03     35.9253E-03     408.096E-03    -189.891E-03    -218.246E-03    -193.066E-03     382.916E-03    -189.891E-03     240.145E-03     605.573E-03     76.4622E+06     75.0353E+06     54.7233E+06     -9.4811E+06    -9.40067E+06     54.6428E+06     75.0353E+06    -605.378E+03
             786     37.7881E-03     12.4153E-03     35.6903E-03     392.255E-03    -189.811E-03    -202.238E-03    -185.835E-03     375.851E-03    -189.811E-03     194.022E-03     572.788E-03     77.2766E+06     71.4791E+06     47.2234E+06    -15.0028E+06    -14.8985E+06     47.1190E+06     71.4791E+06    -344.280E+03
             787     37.2614E-03     11.5849E-03     35.4148E-03     390.534E-03    -190.110E-03    -200.328E-03    -184.582E-03     374.788E-03    -190.110E-03     189.186E-03     576.302E-03       82.57E+06     69.9748E+06     42.4298E+06    -22.8425E+06    -22.7472E+06     42.3345E+06     69.9748E+06     670.105E+03
             788     36.8013E-03     10.7547E-03     35.1948E-03     383.785E-03    -190.029E-03    -193.877E-03    -182.984E-03     373.101E-03    -190.238E-03     155.262E-03     557.477E-03     89.1164E+06     70.3197E+06     39.7141E+06    -30.0454E+06    -30.0076E+06     39.6763E+06     70.3197E+06     1.07138E+06
             789     36.4021E-03     9.92850E-03     35.0220E-03     379.932E-03    -189.233E-03    -191.189E-03    -182.578E-03     372.430E-03    -190.343E-03     129.108E-03     539.752E-03     90.8158E+06     65.1123E+06     36.2977E+06    -36.5410E+06    -36.4859E+06     36.2426E+06     65.1123E+06     883.877E+03
             790     36.0613E-03     9.10034E-03     34.8942E-03     377.805E-03    -187.905E-03    -190.358E-03    -183.656E-03     373.556E-03    -190.358E-03     95.9171E-03     514.068E-03     85.2414E+06     49.4504E+06     28.0058E+06    -44.3786E+06    -44.3182E+06     27.9455E+06     49.4504E+06     747.206E+03
             791     35.7799E-03     8.27252E-03     34.8105E-03     377.280E-03    -187.156E-03    -190.204E-03    -185.131E-03     375.255E-03    -190.204E-03     66.5909E-03     488.447E-03     78.0732E+06     30.9317E+06     17.4971E+06    -52.8613E+06    -52.8178E+06     17.4536E+06     30.9317E+06    -268.063E+03
             792     35.5461E-03     7.44622E-03     34.7574E-03     376.579E-03    -186.594E-03    -190.119E-03    -185.567E-03     375.552E-03    -190.119E-03     47.3396E-03     466.959E-03     73.9702E+06     16.4723E+06     7.68140E+06    -61.4460E+06    -61.3888E+06     7.62422E+06     16.4723E+06    -1.48732E+06
             793     35.3495E-03     6.61818E-03     34.7245E-03     376.238E-03    -186.324E-03    -190.238E-03    -185.845E-03     375.759E-03    -190.238E-03     32.0520E-03     447.295E-03     67.2929E+06     1.33620E+06    -27.4770E+06    -71.4442E+06    -71.1850E+06    -27.7361E+06     1.33620E+06    -376.327E+03
             794     35.1899E-03     5.78931E-03     34.7104E-03     377.486E-03    -187.510E-03    -190.295E-03    -187.333E-03     377.308E-03    -190.295E-03     19.0453E-03     431.297E-03     69.7671E+06    -18.9113E+06    -72.6864E+06    -97.6776E+06    -82.0158E+06    -88.3482E+06    -18.9113E+06     698.396E+03
             795     35.0691E-03     4.96202E-03     34.7162E-03     378.897E-03    -188.782E-03    -190.289E-03    -188.739E-03     378.854E-03    -190.289E-03     8.89489E-03     417.803E-03     89.9689E+06    -38.0075E+06    -91.4979E+06    -140.951E+06    -91.5147E+06    -140.934E+06    -38.0075E+06     621.207E+03
             796     34.9778E-03     4.13494E-03     34.7326E-03     379.255E-03    -189.148E-03    -190.259E-03    -189.142E-03     379.249E-03    -190.259E-03     1.83898E-03     405.980E-03     110.094E+06    -57.1129E+06    -100.227E+06    -181.894E+06    -100.237E+06    -181.884E+06    -57.1129E+06     775.262E+03
             797     34.9057E-03     3.30841E-03     34.7485E-03     379.489E-03    -189.495E-03    -190.211E-03    -189.489E-03     379.483E-03    -190.211E-03    -2.92708E-03     396.540E-03     128.556E+06    -76.5314E+06    -108.738E+06    -217.945E+06    -108.749E+06    -217.934E+06    -76.5314E+06     609.950E+03
             798     34.8575E-03     2.48226E-03     34.7690E-03     380.016E-03    -189.923E-03    -190.366E-03    -190.024E-03     380.002E-03    -190.250E-03    -5.40631E-03     389.767E-03     147.741E+06    -94.1638E+06    -116.737E+06    -251.798E+06    -116.744E+06    -251.791E+06    -94.1638E+06     271.193E+03
             799     34.8234E-03     1.65476E-03     34.7840E-03     380.248E-03    -189.987E-03    -190.468E-03    -190.247E-03     380.232E-03    -190.191E-03    -5.88656E-03     384.890E-03     158.792E+06    -110.196E+06    -122.869E+06    -274.837E+06    -122.874E+06    -274.832E+06    -110.196E+06    -406.158E+03
             800     34.8068E-03     826.271E-06     34.7970E-03     380.005E-03    -189.688E-03    -190.369E-03    -189.889E-03     379.994E-03    -190.157E-03    -4.79894E-03     381.546E-03     162.127E+06    -123.310E+06    -127.939E+06    -287.648E+06    -126.992E+06    -287.643E+06    -124.262E+06    -584.782E+03
             801     37.6221E-03     14.0676E-03     34.8931E-03     405.390E-03    -190.178E-03    -215.239E-03    -194.192E-03     384.342E-03    -190.178E-03     205.324E-03     570.804E-03     77.1052E+06     79.5599E+06     60.7247E+06    -5.17368E+06    -5.08368E+06     60.6347E+06     79.5599E+06    -284.589E+03
             802     36.9228E-03     13.2430E-03     34.4662E-03     407.639E-03    -189.977E-03    -217.799E-03    -192.279E-03     382.119E-03    -189.977E-03     241.579E-03     606.102E-03     75.6292E+06     73.9528E+06     54.5421E+06    -9.41671E+06    -9.27752E+06     54.4029E+06     73.9528E+06    -378.905E+03
             803     36.4100E-03     12.4106E-03     34.2296E-03     393.791E-03    -189.881E-03    -203.763E-03    -187.197E-03     377.224E-03    -189.881E-03     195.597E-03     574.655E-03     77.2641E+06     70.8372E+06     46.2890E+06    -15.7084E+06    -15.5801E+06     46.1606E+06     70.8372E+06     245.411E+03
             804     35.8703E-03     11.5861E-03     33.9476E-03     391.858E-03    -190.095E-03    -201.768E-03    -186.022E-03     376.111E-03    -190.095E-03     189.675E-03     578.229E-03     82.2548E+06     71.1740E+06     42.8824E+06    -21.4707E+06    -21.3671E+06     42.7787E+06     71.1740E+06     866.796E+03
             805     35.4128E-03     10.7604E-03     33.7384E-03     383.650E-03    -190.018E-03    -193.855E-03    -182.969E-03     372.972E-03    -190.227E-03     155.196E-03     557.425E-03     88.1133E+06     70.8536E+06     39.4964E+06    -28.6250E+06    -28.5737E+06     39.4450E+06     70.8536E+06     698.499E+03
             806     34.9975E-03     9.92756E-03     33.5599E-03     379.752E-03    -189.520E-03    -190.795E-03    -182.562E-03     372.322E-03    -190.322E-03     128.375E-03     538.585E-03     89.6596E+06     64.1356E+06     35.4371E+06    -36.2843E+06    -36.2556E+06     35.4085E+06     64.1356E+06    -23.9753E+03
             807     34.6431E-03     9.09948E-03     33.4267E-03     377.482E-03    -187.568E-03    -190.278E-03    -183.404E-03     373.318E-03    -190.278E-03     94.9317E-03     513.240E-03     84.8655E+06     49.7463E+06     28.4919E+06    -43.6457E+06    -43.6058E+06     28.4521E+06     49.7463E+06     54.8136E+03
             808     34.3582E-03     8.27378E-03     33.3471E-03     376.185E-03    -185.758E-03    -190.195E-03    -183.716E-03     374.143E-03    -190.195E-03     66.8911E-03     487.231E-03     77.9111E+06     31.6853E+06     18.3778E+06    -51.8975E+06    -51.8764E+06     18.3567E+06     31.6853E+06     175.961E+03
             809     34.1180E-03     7.44494E-03     33.2958E-03     376.495E-03    -186.132E-03    -190.165E-03    -185.049E-03     375.411E-03    -190.165E-03     48.5461E-03     466.964E-03     73.6329E+06     15.7193E+06     7.20966E+06    -61.7493E+06    -61.6534E+06     7.11376E+06     15.7193E+06     426.128E+03
             810     33.9182E-03     6.61616E-03     33.2666E-03     377.076E-03    -187.024E-03    -190.220E-03    -186.539E-03     376.590E-03    -190.220E-03     32.0860E-03     448.174E-03     68.4648E+06     1.04379E+06    -29.9533E+06    -72.4235E+06    -72.1476E+06    -30.2292E+06     1.04379E+06     1.17799E+06
             811     33.7483E-03     5.78891E-03     33.2481E-03     377.861E-03    -187.864E-03    -190.276E-03    -187.697E-03     377.695E-03    -190.276E-03     18.4634E-03     431.414E-03     70.8768E+06    -16.8467E+06    -73.3019E+06    -96.1688E+06    -81.1845E+06    -88.2863E+06    -16.8467E+06     1.81033E+06
             812     33.6214E-03     4.96272E-03     33.2532E-03     379.070E-03    -188.895E-03    -190.296E-03    -188.856E-03     379.032E-03    -190.296E-03     8.16273E-03     417.868E-03     90.4833E+06    -36.2276E+06    -89.9183E+06    -139.609E+06    -90.0171E+06    -139.510E+06    -36.2276E+06     1.47933E+06
             813     33.5264E-03     4.13659E-03     33.2703E-03     379.431E-03    -189.229E-03    -190.203E-03    -189.225E-03     379.428E-03    -190.203E-03     956.488E-06     406.083E-03     110.092E+06    -56.7341E+06    -99.4316E+06    -181.468E+06    -99.4453E+06    -181.455E+06    -56.7341E+06     841.167E+03
             814     33.4507E-03     3.30842E-03     33.2867E-03     379.230E-03    -189.254E-03    -190.171E-03    -189.248E-03     379.225E-03    -190.171E-03    -3.19099E-03     396.202E-03     128.102E+06    -76.8976E+06    -108.163E+06    -217.522E+06    -108.171E+06    -217.514E+06    -76.8976E+06     779.246E+03
             815     33.3986E-03     2.48048E-03     33.3063E-03     379.697E-03    -189.662E-03    -190.389E-03    -189.767E-03     379.687E-03    -190.273E-03    -4.83239E-03     389.423E-03     146.905E+06    -94.6089E+06    -115.527E+06    -250.750E+06    -115.533E+06    -250.744E+06    -94.6089E+06     485.258E+03
             816     33.3653E-03     1.65449E-03     33.3242E-03     380.184E-03    -189.855E-03    -190.533E-03    -190.121E-03     380.174E-03    -190.257E-03    -4.25711E-03     384.822E-03     158.243E+06    -109.723E+06    -122.228E+06    -273.783E+06    -122.230E+06    -273.781E+06    -109.723E+06     38.6592E+03
             817     33.3458E-03     829.285E-06     33.3355E-03     380.240E-03    -189.734E-03    -190.579E-03    -190.364E-03     380.233E-03    -189.941E-03    -2.89009E-03     381.879E-03     163.922E+06    -123.401E+06    -129.217E+06    -290.110E+06    -128.950E+06    -290.108E+06    -123.669E+06     110.707E+03
             818     36.2756E-03     14.0713E-03     33.4353E-03     404.099E-03    -190.271E-03    -214.164E-03    -193.173E-03     383.108E-03    -190.271E-03     204.343E-03     570.298E-03     76.5664E+06     79.0748E+06     61.1954E+06    -4.74599E+06    -4.62106E+06     61.0704E+06     79.0748E+06    -142.905E+03
             819     35.5614E-03     13.2369E-03     33.0060E-03     407.957E-03    -190.064E-03    -218.191E-03    -192.939E-03     382.705E-03    -190.064E-03     239.882E-03     606.419E-03     76.0449E+06     71.8417E+06     53.5546E+06    -11.5623E+06    -11.3893E+06     53.3817E+06     71.8417E+06    -151.306E+03
             820     35.0392E-03     12.4135E-03     32.7666E-03     394.139E-03    -189.853E-03    -204.045E-03    -187.793E-03     377.888E-03    -189.853E-03     193.685E-03     574.037E-03     77.2818E+06     69.6590E+06     45.0413E+06    -16.9208E+06    -16.8191E+06     44.9396E+06     69.6590E+06    -387.744E+03
             821     34.4860E-03     11.5852E-03     32.4818E-03     391.301E-03    -190.053E-03    -201.264E-03    -185.582E-03     375.619E-03    -190.053E-03     189.115E-03     577.928E-03     82.7996E+06     70.8941E+06     42.1097E+06    -22.4395E+06    -22.2627E+06     41.9329E+06     70.8941E+06    -876.469E+03
             822     34.0208E-03     10.7557E-03     32.2759E-03     384.356E-03    -190.267E-03    -194.466E-03    -183.679E-03     373.569E-03    -190.267E-03     156.254E-03     558.776E-03     87.9350E+06     71.3772E+06     39.8569E+06    -27.9463E+06    -27.7808E+06     39.6914E+06     71.3772E+06    -413.487E+03
             823     33.5994E-03     9.93246E-03     32.0977E-03     380.571E-03    -189.580E-03    -191.530E-03    -183.140E-03     372.898E-03    -190.297E-03     130.646E-03     538.870E-03     88.8891E+06     64.1204E+06     35.7946E+06    -35.3783E+06    -35.3551E+06     35.7714E+06     64.1204E+06     396.425E+03
             824     33.2347E-03     9.10359E-03     31.9636E-03     376.521E-03    -186.669E-03    -190.209E-03    -182.411E-03     372.264E-03    -190.209E-03     95.6178E-03     511.984E-03     84.3971E+06     48.5589E+06     27.8258E+06    -44.1924E+06    -44.1759E+06     27.8093E+06     48.5589E+06     53.3408E+03
             825     32.9424E-03     8.27169E-03     31.8870E-03     375.555E-03    -185.047E-03    -190.208E-03    -183.015E-03     373.523E-03    -190.208E-03     66.6690E-03     486.542E-03     78.2482E+06     30.5694E+06     16.7581E+06    -53.5904E+06    -53.5446E+06     16.7122E+06     30.5694E+06     717.037E+03
             826     32.6914E-03     7.44219E-03     31.8330E-03     377.041E-03    -186.476E-03    -190.141E-03    -185.419E-03     375.984E-03    -190.141E-03     47.7801E-03     467.046E-03     73.9534E+06     15.3003E+06     6.58775E+06    -62.5884E+06    -62.4824E+06     6.48168E+06     15.3003E+06     2.08701E+06
             827     32.4808E-03     6.61742E-03     31.7995E-03     377.725E-03    -187.768E-03    -190.102E-03    -187.321E-03     377.279E-03    -190.102E-03     30.8475E-03     448.621E-03     67.4313E+06     821.245E+03    -29.7019E+06    -71.1148E+06    -70.7738E+06    -30.0430E+06     821.245E+03     2.05846E+06
             828     32.3052E-03     5.79105E-03     31.7819E-03     377.840E-03    -188.071E-03    -190.142E-03    -187.912E-03     377.681E-03    -190.142E-03     18.2150E-03     431.398E-03     69.9004E+06    -16.8860E+06    -73.2961E+06    -94.8542E+06    -80.1811E+06    -87.9691E+06    -16.8860E+06     1.93549E+06
             829     32.1711E-03     4.96253E-03     31.7860E-03     378.379E-03    -188.307E-03    -190.273E-03    -188.266E-03     378.338E-03    -190.273E-03     8.51004E-03     417.236E-03     89.4743E+06    -36.0695E+06    -89.5184E+06    -138.264E+06    -89.6376E+06    -138.144E+06    -36.0695E+06     2.01187E+06
             830     32.0741E-03     4.13560E-03     31.8064E-03     379.240E-03    -188.980E-03    -190.297E-03    -188.976E-03     379.236E-03    -190.297E-03     1.14087E-03     405.934E-03     109.864E+06    -56.0730E+06    -98.0414E+06    -180.364E+06    -98.0710E+06    -180.334E+06    -56.0730E+06     1.18311E+06
             831     31.9982E-03     3.30938E-03     31.8266E-03     379.313E-03    -189.287E-03    -190.287E-03    -189.282E-03     379.308E-03    -190.287E-03    -2.90637E-03     396.289E-03     128.487E+06    -76.3046E+06    -106.008E+06    -216.821E+06    -106.012E+06    -216.817E+06    -76.3046E+06     379.837E+03
             832     31.9415E-03     2.48181E-03     31.8449E-03     379.400E-03    -189.302E-03    -190.439E-03    -189.291E-03     379.390E-03    -190.439E-03    -4.67936E-03     388.972E-03     147.188E+06    -93.9232E+06    -111.980E+06    -249.187E+06    -111.987E+06    -249.181E+06    -93.9232E+06    -80.6626E+03
             833     31.9043E-03     1.65266E-03     31.8615E-03     380.252E-03    -189.678E-03    -190.712E-03    -189.667E-03     380.241E-03    -190.712E-03    -4.48375E-03     384.752E-03     161.976E+06    -108.456E+06    -117.336E+06    -274.653E+06    -117.347E+06    -274.641E+06    -108.456E+06     370.046E+03
             834     31.8837E-03     823.410E-06     31.8731E-03     381.616E-03    -189.749E-03    -191.956E-03    -191.470E-03     381.608E-03    -190.228E-03    -3.04006E-03     383.248E-03     169.504E+06    -118.291E+06    -123.849E+06    -290.503E+06    -122.111E+06    -290.498E+06    -120.034E+06     674.430E+03
             835     34.9334E-03     14.0648E-03     31.9770E-03     405.153E-03    -190.334E-03    -215.246E-03    -194.463E-03     384.370E-03    -190.334E-03     203.870E-03     571.278E-03     76.4755E+06     79.7364E+06     60.6180E+06    -4.37239E+06    -4.28886E+06     60.5344E+06     79.7364E+06     364.872E+03
             836     34.2050E-03     13.2438E-03     31.5370E-03     408.517E-03    -190.053E-03    -218.827E-03    -193.868E-03     383.558E-03    -190.053E-03     238.864E-03     606.159E-03     75.4280E+06     74.0071E+06     54.9807E+06      -9.004E+06    -8.79101E+06     54.7677E+06     74.0071E+06     989.031E+03
             837     33.6731E-03     12.4138E-03     31.3014E-03     393.226E-03    -189.802E-03    -203.119E-03    -186.663E-03     376.770E-03    -189.802E-03     194.327E-03     572.809E-03      77.217E+06     70.9975E+06     47.1848E+06    -15.2994E+06    -15.1086E+06     46.9941E+06     70.9975E+06     164.122E+03
             838     33.1154E-03     11.5858E-03     31.0225E-03     391.426E-03    -190.031E-03    -201.350E-03    -185.452E-03     375.528E-03    -190.031E-03     190.105E-03     577.248E-03     82.1427E+06     70.4640E+06     41.7519E+06    -22.1436E+06    -21.9343E+06     41.5426E+06     70.4640E+06    -778.186E+03
             839     32.6355E-03     10.7589E-03     30.8111E-03     384.338E-03    -190.299E-03    -194.265E-03    -183.628E-03     373.700E-03    -190.299E-03     155.199E-03     558.247E-03     88.0200E+06     70.0040E+06      38.881E+06    -29.2756E+06    -29.0643E+06     38.6697E+06     70.0040E+06    -655.758E+03
             840     32.1979E-03     9.92802E-03     30.6290E-03     380.083E-03    -189.308E-03    -191.091E-03    -182.387E-03     372.399E-03    -190.328E-03     130.688E-03     538.651E-03     89.6039E+06     63.0207E+06     34.9873E+06    -37.1425E+06    -37.1062E+06     34.9510E+06     63.0207E+06    -351.321E+03
             841     31.8273E-03     9.09900E-03     30.4989E-03     377.006E-03    -187.105E-03    -190.178E-03    -182.780E-03     372.681E-03    -190.178E-03     96.4321E-03     512.375E-03     84.3470E+06     47.0157E+06     26.1550E+06    -45.6947E+06    -45.6725E+06     26.1327E+06     47.0157E+06     685.537E+03
             842     31.5267E-03     8.27251E-03     30.4220E-03     376.968E-03    -186.548E-03    -190.131E-03    -184.512E-03     374.932E-03    -190.131E-03     66.8131E-03     487.711E-03     77.9065E+06     29.8114E+06     16.5936E+06    -53.7829E+06    -53.7197E+06     16.5304E+06     29.8114E+06     1.87663E+06
             843     31.2622E-03     7.44668E-03     30.3624E-03     377.155E-03    -186.734E-03    -190.031E-03    -185.710E-03     376.131E-03    -190.031E-03     47.0358E-03     466.589E-03     74.1588E+06     15.1813E+06     6.18973E+06    -63.0493E+06    -62.9588E+06     6.09926E+06     15.1813E+06     2.13112E+06
             844     31.0424E-03     6.61725E-03     30.3289E-03     376.802E-03    -186.905E-03    -190.057E-03    -186.465E-03     376.362E-03    -190.057E-03     30.8009E-03     447.292E-03     67.9577E+06     335.162E+03    -29.4955E+06    -73.0265E+06    -72.6894E+06    -29.8326E+06     335.162E+03     2.35978E+06
             845     30.8626E-03     5.78977E-03     30.3147E-03     377.612E-03    -187.785E-03    -190.181E-03    -187.617E-03     377.443E-03    -190.181E-03     18.7023E-03     431.132E-03     69.7932E+06     -17.074E+06    -72.1773E+06    -95.4765E+06    -81.0168E+06    -86.6371E+06     -17.074E+06     2.17507E+06
             846     30.7268E-03     4.96362E-03     30.3232E-03     378.150E-03    -188.036E-03    -190.345E-03    -187.993E-03     378.107E-03    -190.345E-03     8.84274E-03     416.976E-03     88.3763E+06    -35.9331E+06    -89.3914E+06    -136.866E+06    -89.4690E+06    -136.788E+06    -35.9331E+06     1.02241E+06
             847     30.6192E-03     4.13524E-03     30.3386E-03     378.932E-03    -188.550E-03    -190.470E-03    -188.545E-03     378.927E-03    -190.470E-03     1.58489E-03     405.658E-03     109.410E+06    -55.5117E+06    -98.0090E+06    -179.421E+06    -98.0373E+06    -179.392E+06    -55.5117E+06     452.544E+03
             848     30.5437E-03     3.30758E-03     30.3641E-03     379.869E-03    -189.565E-03    -190.505E-03    -189.590E-03     379.863E-03    -190.475E-03    -2.95425E-03     396.872E-03     128.577E+06    -74.8985E+06    -105.580E+06    -215.809E+06    -105.585E+06    -215.804E+06    -74.8985E+06     471.133E+03
             849     30.4835E-03     2.48029E-03     30.3824E-03     380.199E-03    -189.793E-03    -190.667E-03    -190.005E-03     380.185E-03    -190.441E-03    -5.36516E-03     389.722E-03     146.268E+06    -93.7010E+06    -113.071E+06    -248.571E+06    -113.083E+06    -248.559E+06    -93.7010E+06     265.512E+03
             850     30.4444E-03     1.65368E-03     30.3995E-03     380.479E-03    -189.656E-03    -190.904E-03    -190.256E-03     380.462E-03    -190.287E-03    -6.15484E-03     384.914E-03     162.205E+06    -109.147E+06    -119.996E+06    -276.453E+06    -120.014E+06    -276.434E+06    -109.147E+06     325.162E+03
             851     30.4195E-03     828.549E-06     30.4082E-03     380.136E-03    -188.862E-03    -191.319E-03    -190.576E-03     380.125E-03    -189.593E-03    -4.44203E-03     381.804E-03     167.119E+06    -118.229E+06    -124.821E+06    -288.540E+06    -123.108E+06    -288.510E+06    -119.972E+06     1.25813E+06
             852     33.5944E-03     14.0695E-03     30.5063E-03     405.891E-03    -190.222E-03    -215.857E-03    -195.122E-03     385.156E-03    -190.222E-03     204.538E-03     571.893E-03     76.4572E+06     79.5915E+06     59.5926E+06    -4.73225E+06    -4.66563E+06     59.5260E+06     79.5915E+06     370.256E+03
             853     32.8595E-03     13.2419E-03     30.0733E-03     407.624E-03    -189.947E-03    -217.932E-03    -193.016E-03     382.708E-03    -189.947E-03     238.692E-03     605.788E-03     76.5828E+06     73.2296E+06     54.8344E+06    -10.8081E+06    -10.4295E+06     54.4557E+06     73.2296E+06    -188.430E+03
             854     32.3258E-03     12.4122E-03     29.8479E-03     393.158E-03    -189.801E-03    -203.003E-03    -186.449E-03     376.603E-03    -189.801E-03     195.003E-03     572.496E-03     77.6264E+06     70.6364E+06     48.2058E+06    -15.7008E+06    -15.2508E+06     47.7559E+06     70.6364E+06     4.00644E+03
             855     31.7410E-03     11.5837E-03     29.5518E-03     391.356E-03    -190.039E-03    -201.121E-03    -185.175E-03     375.410E-03    -190.039E-03     190.457E-03     576.250E-03     81.9479E+06      70.399E+06     43.3817E+06    -21.5667E+06    -21.3571E+06     43.1721E+06      70.399E+06     788.376E+03
             856     31.2571E-03     10.7576E-03     29.3476E-03     384.106E-03    -190.298E-03    -193.857E-03    -183.109E-03     373.358E-03    -190.298E-03     155.872E-03     557.757E-03     87.6737E+06     68.8196E+06     39.2919E+06    -29.6960E+06    -29.5687E+06     39.1646E+06     68.8196E+06    -18.3461E+03
             857     30.8138E-03     9.92982E-03     29.1700E-03     380.565E-03    -189.593E-03    -191.222E-03    -182.947E-03     372.992E-03    -190.295E-03     129.692E-03     538.887E-03     89.1689E+06     60.9030E+06     33.3560E+06    -38.6879E+06    -38.6501E+06     33.3182E+06     60.9030E+06     34.2355E+03
             858     30.4315E-03     9.09987E-03     29.0391E-03     377.833E-03    -187.856E-03    -190.197E-03    -183.882E-03     373.706E-03    -190.046E-03     94.3610E-03     512.393E-03     84.6983E+06     45.7322E+06     24.6565E+06    -47.4031E+06    -47.3771E+06     24.6306E+06     45.7322E+06     701.552E+03
             859     30.1136E-03     8.27371E-03     28.9547E-03     377.134E-03    -186.813E-03    -190.040E-03    -184.844E-03     375.166E-03    -190.040E-03     65.8404E-03     487.318E-03     78.5411E+06     29.3783E+06     15.4937E+06    -55.1013E+06    -55.0171E+06     15.4095E+06     29.3783E+06     1.68326E+06
             860     29.8469E-03     7.44593E-03     28.9032E-03     376.816E-03    -186.431E-03    -190.014E-03    -185.403E-03     375.788E-03    -190.014E-03     47.1898E-03     465.946E-03     75.0274E+06     15.3888E+06     5.80011E+06    -63.9634E+06    -63.8470E+06     5.68374E+06     15.3888E+06     2.55865E+06
             861     29.6196E-03     6.61840E-03     28.8707E-03     376.485E-03    -186.446E-03    -190.051E-03    -186.008E-03     376.047E-03    -190.051E-03     30.4900E-03     446.350E-03     68.7800E+06     1.03907E+06    -28.9906E+06    -73.4251E+06    -73.2794E+06    -29.1363E+06     1.03907E+06     2.15186E+06
             862     29.4284E-03     5.78987E-03     28.8532E-03     377.056E-03    -187.001E-03    -190.221E-03    -186.850E-03     376.905E-03    -190.221E-03     17.5992E-03     430.297E-03     68.7699E+06    -17.1171E+06    -71.9789E+06    -94.2359E+06    -81.5972E+06    -84.6175E+06    -17.1171E+06     1.02928E+06
             863     29.2813E-03     4.96199E-03     28.8578E-03     378.233E-03    -187.920E-03    -190.414E-03    -187.884E-03     378.197E-03    -190.414E-03     8.02281E-03     416.832E-03     86.7942E+06    -36.4325E+06    -90.1365E+06    -135.362E+06    -90.2302E+06    -135.269E+06    -36.4325E+06     399.554E+03
             864     29.1693E-03     4.13479E-03     28.8748E-03     379.493E-03    -188.968E-03    -190.484E-03    -188.963E-03     379.488E-03    -190.484E-03     1.02883E-03     405.872E-03     108.977E+06    -56.2044E+06    -99.4690E+06    -179.774E+06    -99.5050E+06    -179.738E+06    -56.2044E+06     444.770E+03
             865     29.0810E-03     3.30754E-03     28.8923E-03     380.260E-03    -189.917E-03    -190.432E-03    -189.937E-03     380.249E-03    -190.402E-03    -4.35275E-03     397.107E-03     127.632E+06    -75.0575E+06    -107.560E+06    -215.623E+06    -107.572E+06    -215.611E+06    -75.0575E+06     726.016E+03
             866     29.0231E-03     2.48216E-03     28.9168E-03     380.352E-03    -190.171E-03    -190.477E-03    -190.379E-03     380.334E-03    -190.252E-03    -6.28287E-03     389.865E-03     144.280E+06    -93.7505E+06    -115.808E+06    -247.668E+06    -115.838E+06    -247.638E+06    -93.7505E+06     1.79140E+06
             867     28.9792E-03     1.65628E-03     28.9318E-03     379.945E-03    -189.548E-03    -190.518E-03    -190.154E-03     379.934E-03    -189.901E-03    -4.49565E-03     384.430E-03     158.943E+06    -110.750E+06    -124.377E+06    -276.034E+06    -124.426E+06    -275.985E+06    -110.750E+06     2.01300E+06
             868     28.9585E-03     828.614E-06     28.9466E-03     379.195E-03    -188.841E-03    -190.380E-03    -189.259E-03     379.191E-03    -189.958E-03    -2.32541E-03     380.966E-03     159.741E+06    -124.834E+06    -131.493E+06    -287.761E+06    -131.332E+06    -287.698E+06    -125.058E+06     975.324E+03
             869     32.2691E-03     14.0702E-03     29.0400E-03     404.883E-03    -190.030E-03    -214.908E-03    -194.167E-03     384.143E-03    -190.030E-03     204.686E-03     571.459E-03     77.2379E+06     79.2585E+06     59.1468E+06    -5.90652E+06    -5.73403E+06     58.9743E+06     79.2585E+06     100.152E+03
             870     31.5321E-03     13.2403E-03     28.6176E-03     407.008E-03    -189.863E-03    -217.378E-03    -192.415E-03     382.045E-03    -189.863E-03     238.802E-03     605.327E-03     76.9386E+06     73.1105E+06     55.1593E+06    -11.1647E+06    -10.5636E+06     54.5581E+06     73.1105E+06    -181.025E+03
             871     30.9707E-03     12.4145E-03     28.3736E-03     393.838E-03    -189.788E-03    -203.691E-03    -187.253E-03     377.400E-03    -189.788E-03     194.761E-03     572.565E-03     77.8581E+06     69.7546E+06     48.0201E+06    -16.6357E+06    -16.0268E+06     47.4113E+06     69.7546E+06     579.965E+03
             872     30.3913E-03     11.5881E-03     28.0953E-03     390.417E-03    -189.943E-03    -200.224E-03    -184.455E-03     374.648E-03    -189.943E-03     189.381E-03     574.886E-03     81.6497E+06     69.1151E+06     43.3529E+06    -22.2619E+06    -22.0122E+06     43.1032E+06     69.1151E+06     862.891E+03
             873     29.8786E-03     10.7537E-03     27.8763E-03     383.942E-03    -190.227E-03    -193.780E-03    -183.056E-03     373.218E-03    -190.227E-03     155.522E-03     557.055E-03     87.1009E+06     67.6795E+06     39.5294E+06    -29.9154E+06    -29.7808E+06     39.3948E+06     67.6795E+06     1.07802E+06
             874     29.4248E-03     9.92724E-03     27.6996E-03     381.822E-03    -190.223E-03    -191.827E-03    -184.392E-03     374.387E-03    -190.223E-03     128.856E-03     539.623E-03     88.8548E+06     60.2840E+06     33.2648E+06    -38.8286E+06    -38.8123E+06     33.2485E+06     60.2840E+06     971.022E+03
             875     29.0318E-03     9.10358E-03     27.5675E-03     378.251E-03    -188.277E-03    -190.145E-03    -184.420E-03     374.127E-03    -189.879E-03     94.5366E-03     512.377E-03     84.3108E+06     45.0577E+06     24.3151E+06    -47.5433E+06    -47.4762E+06     24.2480E+06     45.0577E+06     1.21275E+06
             876     28.7086E-03     8.27498E-03     27.4901E-03     376.516E-03    -186.431E-03    -189.886E-03    -184.486E-03     374.572E-03    -189.886E-03     65.1932E-03     486.483E-03     78.3327E+06     27.1771E+06     13.9667E+06    -56.8356E+06    -56.6893E+06     13.8205E+06     27.1771E+06     1.24125E+06
             877     28.4286E-03     7.44629E-03     27.4361E-03     376.433E-03    -186.254E-03    -189.895E-03    -185.294E-03     375.474E-03    -189.895E-03     45.4967E-03     465.169E-03     74.3023E+06     14.8034E+06     6.12849E+06    -63.4461E+06    -63.3413E+06     6.02368E+06     14.8034E+06     1.23669E+06
             878     28.1925E-03     6.61933E-03     27.4045E-03     376.472E-03    -186.529E-03    -189.875E-03    -186.124E-03     376.067E-03    -189.875E-03     29.3635E-03     445.878E-03     67.4129E+06     1.84126E+06    -26.7861E+06    -70.9714E+06    -70.8779E+06    -26.8796E+06     1.84126E+06     1.51714E+06
             879     27.9977E-03     5.79201E-03     27.3921E-03     376.868E-03    -186.887E-03    -190.026E-03    -186.750E-03     376.731E-03    -190.026E-03     16.4702E-03     429.829E-03     67.8923E+06    -17.5004E+06    -71.7981E+06    -93.6026E+06    -81.6314E+06    -83.7692E+06    -17.5004E+06     1.28297E+06
             880     27.8400E-03     4.96275E-03     27.3941E-03     377.855E-03    -187.684E-03    -190.239E-03    -187.658E-03     377.829E-03    -190.239E-03     6.41679E-03     416.141E-03     86.1860E+06    -37.6696E+06    -91.4163E+06    -135.808E+06    -91.6232E+06    -135.601E+06    -37.6696E+06     1.46579E+06
             881     27.7209E-03     4.13606E-03     27.4106E-03     379.160E-03    -188.836E-03    -190.270E-03    -188.834E-03     379.157E-03    -190.270E-03    -98.8156E-06     405.152E-03     107.839E+06    -56.8524E+06    -99.9596E+06    -179.196E+06    -100.011E+06    -179.144E+06    -56.8524E+06     1.45279E+06
             882     27.6308E-03     3.31016E-03     27.4318E-03     379.429E-03    -189.347E-03    -190.237E-03    -189.339E-03     379.421E-03    -190.237E-03    -3.77424E-03     396.064E-03     125.722E+06    -77.0343E+06    -109.336E+06    -215.573E+06    -109.368E+06    -215.541E+06    -77.0343E+06     1.14749E+06
             883     27.5672E-03     2.48186E-03     27.4552E-03     379.484E-03    -189.579E-03    -190.294E-03    -189.567E-03     379.472E-03    -190.294E-03    -4.91174E-03     389.008E-03     144.153E+06    -95.2247E+06    -117.568E+06    -249.133E+06    -117.593E+06    -249.108E+06    -95.2247E+06     1.51350E+06
             884     27.5257E-03     1.65330E-03     27.4760E-03     380.056E-03    -189.761E-03    -190.434E-03    -189.863E-03     380.046E-03    -190.323E-03    -4.20532E-03     384.596E-03     157.008E+06    -110.164E+06    -122.724E+06    -272.984E+06    -122.769E+06    -272.939E+06    -110.164E+06     2.30769E+06
             885     27.5004E-03     824.798E-06     27.4881E-03     380.481E-03    -189.636E-03    -190.882E-03    -190.218E-03     380.474E-03    -190.293E-03    -3.60315E-03     382.184E-03     157.925E+06    -123.532E+06    -128.126E+06    -283.661E+06    -127.347E+06    -283.619E+06    -124.354E+06     508.630E+03
             886     30.9577E-03     14.0680E-03     27.5766E-03     404.443E-03    -189.936E-03    -214.582E-03    -193.808E-03     383.669E-03    -189.936E-03     204.915E-03     571.459E-03     76.6293E+06     79.1154E+06     59.3500E+06    -5.34764E+06    -5.10908E+06     59.1115E+06     79.1154E+06     452.536E+03
             887     30.2049E-03     13.2414E-03     27.1477E-03     407.751E-03    -189.873E-03    -218.244E-03    -193.178E-03     382.685E-03    -189.873E-03     239.730E-03     606.184E-03     76.2113E+06     73.7524E+06     55.0714E+06    -9.99501E+06    -9.45657E+06     54.5330E+06     73.7524E+06     950.846E+03
             888     29.6299E-03     12.4125E-03     26.9047E-03     393.548E-03    -189.843E-03    -203.432E-03    -186.949E-03     377.065E-03    -189.843E-03     194.962E-03     572.495E-03     76.5710E+06     69.8521E+06     47.6404E+06    -15.3531E+06    -14.8178E+06     47.1050E+06     69.8521E+06     1.44663E+06
             889     29.0353E-03     11.5829E-03     26.6249E-03     391.278E-03    -189.914E-03    -201.250E-03    -185.537E-03     375.565E-03    -189.914E-03     189.277E-03     575.796E-03     80.9853E+06     68.5376E+06     42.9247E+06    -22.1115E+06    -21.8448E+06     42.6580E+06     68.5376E+06     1.78791E+06
             890     28.5213E-03     10.7590E-03     26.4141E-03     385.031E-03    -190.113E-03    -195.023E-03    -184.434E-03     374.442E-03    -190.113E-03     154.875E-03     557.022E-03     87.1716E+06     68.2460E+06     39.6207E+06    -29.5147E+06    -29.3707E+06     39.4767E+06     68.2460E+06     2.22666E+06
             891     28.0467E-03     9.93212E-03     26.2291E-03     381.029E-03    -189.666E-03    -191.433E-03    -183.747E-03     373.762E-03    -190.084E-03     127.246E-03     537.838E-03     88.2439E+06     61.0734E+06     33.8612E+06    -37.4197E+06    -37.2635E+06     33.7049E+06     61.0734E+06     2.59940E+06
             892     27.6445E-03     9.10152E-03     26.1033E-03     377.883E-03    -188.114E-03    -189.848E-03    -184.206E-03     373.861E-03    -189.734E-03     93.2776E-03     511.741E-03     83.4359E+06     44.6680E+06     24.6298E+06    -46.8181E+06    -46.6514E+06     24.4631E+06     44.6680E+06     2.53556E+06
             893     27.3059E-03     8.27559E-03     26.0216E-03     376.831E-03    -186.972E-03    -189.712E-03    -185.081E-03     374.940E-03    -189.712E-03     64.3081E-03     486.311E-03     77.3838E+06     27.5556E+06     15.3868E+06    -55.1155E+06    -54.9811E+06     15.2524E+06     27.5556E+06     1.30443E+06
             894     27.0187E-03     7.45006E-03     25.9713E-03     376.268E-03    -186.560E-03    -189.666E-03    -185.633E-03     375.341E-03    -189.666E-03     44.7357E-03     464.701E-03     74.0300E+06     14.0083E+06     6.08678E+06    -63.6519E+06    -63.5625E+06     5.99740E+06     14.0083E+06     896.805E+03
             895     26.7720E-03     6.62058E-03     25.9404E-03     376.143E-03    -186.673E-03    -189.602E-03    -186.293E-03     375.762E-03    -189.602E-03     28.2677E-03     445.356E-03     67.1672E+06    -303.324E+03    -26.5467E+06    -73.2012E+06    -73.0834E+06    -26.6646E+06    -303.324E+03     1.51988E+06
             896     26.5659E-03     5.79265E-03     25.9267E-03     376.753E-03    -187.153E-03    -189.716E-03    -187.036E-03     376.635E-03    -189.716E-03     15.2004E-03     429.352E-03     67.8301E+06    -18.5218E+06    -70.2283E+06    -95.2703E+06    -82.1200E+06    -83.3786E+06    -18.5218E+06     1.75474E+06
             897     26.4020E-03     4.96672E-03     25.9307E-03     377.235E-03    -187.495E-03    -189.866E-03    -187.473E-03     377.213E-03    -189.866E-03     6.14242E-03     415.251E-03     86.1030E+06    -37.4999E+06    -90.5477E+06    -135.761E+06    -90.7568E+06    -135.552E+06    -37.4999E+06     1.93071E+06
             898     26.2715E-03     4.13766E-03     25.9437E-03     377.746E-03    -187.784E-03    -189.939E-03    -187.778E-03     377.741E-03    -189.939E-03    -553.384E-06     403.496E-03     106.556E+06    -57.5058E+06    -100.072E+06    -178.388E+06    -100.154E+06    -178.306E+06    -57.5058E+06     2.26173E+06
             899     26.1774E-03     3.30807E-03     25.9675E-03     378.329E-03    -188.439E-03    -190.065E-03    -188.426E-03     378.316E-03    -190.065E-03    -4.84489E-03     394.771E-03     124.380E+06    -77.7972E+06    -108.730E+06    -214.502E+06    -108.782E+06    -214.450E+06    -77.7972E+06     2.02476E+06
             900     26.1078E-03     2.48007E-03     25.9897E-03     379.312E-03    -189.365E-03    -190.270E-03    -189.399E-03     379.291E-03    -190.215E-03    -6.54794E-03     388.843E-03     143.643E+06    -95.9466E+06    -116.787E+06    -248.781E+06    -116.809E+06    -248.759E+06    -95.9466E+06     914.240E+03
             901     26.0632E-03     1.65381E-03     26.0107E-03     380.247E-03    -189.959E-03    -190.368E-03    -190.140E-03     380.228E-03    -190.168E-03    -6.46944E-03     384.757E-03     154.505E+06    -111.715E+06    -122.824E+06    -271.383E+06    -122.834E+06    -271.372E+06    -111.715E+06    -39.0649E+03
             902     26.0365E-03     829.327E-06     26.0233E-03     379.979E-03    -189.606E-03    -190.412E-03    -190.402E-03     379.969E-03    -189.606E-03    -4.19294E-03     381.679E-03     156.250E+06    -121.841E+06    -126.095E+06    -280.162E+06    -125.537E+06    -280.122E+06    -122.439E+06     887.208E+03
             903     29.6590E-03     14.0671E-03     26.1107E-03     404.914E-03    -189.912E-03    -215.038E-03    -194.016E-03     383.891E-03    -189.912E-03     205.917E-03     571.470E-03     74.7927E+06     78.2766E+06     58.6060E+06    -4.26964E+06    -4.07757E+06     58.4140E+06     78.2766E+06     864.488E+03
             904     28.8875E-03     13.2399E-03     25.6748E-03     408.315E-03    -189.936E-03    -218.766E-03    -193.518E-03     383.067E-03    -189.936E-03     240.469E-03     606.852E-03     74.8065E+06     72.2795E+06     53.5798E+06    -10.0300E+06    -9.61213E+06     53.1620E+06     72.2795E+06     1.00491E+06
             905     28.3103E-03     12.4131E-03     25.4438E-03     394.254E-03    -189.893E-03    -204.231E-03    -187.894E-03     377.918E-03    -189.893E-03     194.361E-03     573.404E-03     76.2857E+06     68.5994E+06     46.9204E+06    -16.1671E+06    -15.7322E+06     46.4855E+06     68.5994E+06     1.50622E+06
             906     27.6971E-03     11.5857E-03     25.1575E-03     392.318E-03    -189.877E-03    -202.353E-03    -186.740E-03     376.705E-03    -189.877E-03     189.044E-03     576.146E-03     80.8700E+06     68.4999E+06     42.9236E+06    -21.9400E+06    -21.6761E+06     42.6597E+06     68.4999E+06     2.30097E+06
             907     27.1665E-03     10.7603E-03     24.9447E-03     385.657E-03    -190.000E-03    -195.650E-03    -184.995E-03     375.001E-03    -190.000E-03     155.621E-03     557.003E-03     86.1717E+06     68.0810E+06     39.1964E+06    -28.6384E+06    -28.4071E+06     38.9650E+06     68.0810E+06     3.22424E+06
             908     26.6885E-03     9.93243E-03     24.7714E-03     381.838E-03    -189.468E-03    -192.448E-03    -184.677E-03     374.486E-03    -189.887E-03     128.030E-03     537.489E-03     87.7564E+06     61.3450E+06     34.4099E+06    -36.5603E+06    -36.3397E+06     34.1892E+06     61.3450E+06     3.70001E+06
             909     26.2660E-03     9.10496E-03     24.6374E-03     377.928E-03    -187.733E-03    -190.288E-03    -184.739E-03     374.096E-03    -189.450E-03     90.6058E-03     510.548E-03     83.5696E+06     46.9473E+06     26.8018E+06    -44.7054E+06    -44.4473E+06     26.5437E+06     46.9473E+06     3.35782E+06
             910     25.9190E-03     8.27903E-03     24.5612E-03     376.080E-03    -186.483E-03    -189.408E-03    -184.800E-03     374.396E-03    -189.408E-03     60.7196E-03     484.725E-03     78.0776E+06     29.4023E+06     17.1926E+06    -53.9831E+06    -53.7811E+06     16.9905E+06     29.4023E+06     2.90100E+06
             911     25.6177E-03     7.44916E-03     24.5107E-03     375.929E-03    -186.602E-03    -189.337E-03    -185.759E-03     375.085E-03    -189.337E-03     42.5290E-03     464.180E-03     73.2433E+06     12.8023E+06     5.87428E+06    -63.6311E+06    -63.5207E+06     5.76384E+06     12.8023E+06     2.33334E+06
             912     25.3585E-03     6.62425E-03     24.4780E-03     375.720E-03    -186.747E-03    -189.221E-03    -186.412E-03     375.385E-03    -189.221E-03     26.4184E-03     444.724E-03     65.7382E+06    -1.27797E+06    -26.4930E+06    -72.2125E+06    -72.0561E+06    -26.6494E+06    -1.27797E+06     1.93724E+06
             913     25.1438E-03     5.79688E-03     24.4665E-03     375.969E-03    -186.864E-03    -189.287E-03    -186.762E-03     375.868E-03    -189.287E-03     14.2883E-03     428.149E-03     66.9707E+06    -18.5568E+06    -69.7765E+06    -94.2772E+06    -81.3460E+06    -82.7077E+06    -18.5568E+06     2.06928E+06
             914     24.9688E-03     4.96686E-03     24.4698E-03     376.797E-03    -187.614E-03    -189.329E-03    -187.592E-03     376.774E-03    -189.329E-03     4.55760E-03     414.404E-03     84.4439E+06    -39.2984E+06    -91.2455E+06    -135.660E+06    -91.6000E+06    -135.306E+06    -39.2984E+06     2.37081E+06
             915     24.8323E-03     4.13937E-03     24.4848E-03     377.131E-03    -187.861E-03    -189.315E-03    -187.848E-03     377.119E-03    -189.315E-03    -3.35134E-03     402.609E-03     104.650E+06     -58.662E+06    -100.202E+06    -177.338E+06    -100.274E+06    -177.266E+06     -58.662E+06     2.09638E+06
             916     24.7294E-03     3.31164E-03     24.5067E-03     377.445E-03    -188.298E-03    -189.353E-03    -188.273E-03     377.420E-03    -189.353E-03    -7.45188E-03     393.730E-03     123.416E+06    -77.9502E+06    -108.017E+06    -213.380E+06    -108.063E+06    -213.334E+06    -77.9502E+06     2.15611E+06
             917     24.6548E-03     2.48402E-03     24.5293E-03     378.084E-03    -188.988E-03    -189.404E-03    -189.010E-03     378.052E-03    -189.349E-03    -8.58995E-03     387.414E-03     139.383E+06    -96.4518E+06    -114.585E+06    -243.894E+06    -114.619E+06    -243.861E+06    -96.4518E+06     1.49445E+06
             918     24.6048E-03     1.65641E-03     24.5490E-03     378.394E-03    -189.133E-03    -189.339E-03    -189.195E-03     378.368E-03    -189.250E-03    -7.62708E-03     382.763E-03     156.597E+06    -109.128E+06    -121.511E+06    -271.531E+06    -121.522E+06    -271.520E+06    -109.128E+06    -239.021E+03
             919     24.5811E-03     825.921E-06     24.5673E-03     378.171E-03    -188.724E-03    -189.468E-03    -189.441E-03     378.158E-03    -188.738E-03    -4.80435E-03     379.880E-03     155.442E+06    -121.328E+06    -128.908E+06    -280.367E+06    -128.419E+06    -280.324E+06    -121.859E+06     134.226E+03
             920     28.3793E-03     14.0679E-03     24.6471E-03     404.842E-03    -189.922E-03    -214.919E-03    -193.928E-03     383.852E-03    -189.922E-03     205.766E-03     571.167E-03     74.2032E+06     76.9741E+06     57.3128E+06    -4.96303E+06    -4.70505E+06     57.0548E+06     76.9741E+06     963.483E+03
             921     27.5960E-03     13.2379E-03     24.2136E-03     408.191E-03    -189.973E-03    -218.512E-03    -193.404E-03     383.084E-03    -189.973E-03     239.563E-03     606.066E-03     74.3619E+06     71.0526E+06     53.0882E+06    -10.5913E+06    -10.1735E+06     52.6704E+06     71.0526E+06     1.61665E+06
             922     26.9983E-03     12.4111E-03     23.9765E-03     395.495E-03    -189.882E-03    -205.382E-03    -189.026E-03     379.139E-03    -189.882E-03     194.784E-03     573.805E-03     75.6693E+06     67.6154E+06     46.7187E+06    -16.2868E+06    -15.8591E+06     46.2910E+06     67.6154E+06     1.99764E+06
             923     26.3758E-03     11.5887E-03     23.6936E-03     393.349E-03    -189.796E-03    -203.340E-03    -187.697E-03     377.706E-03    -189.796E-03     189.447E-03     576.258E-03     80.4655E+06     67.6877E+06     42.1681E+06    -22.3163E+06    -22.0034E+06     41.8551E+06     67.6877E+06     2.89833E+06
             924     25.8321E-03     10.7586E-03     23.4850E-03     386.380E-03    -189.832E-03    -196.520E-03    -186.105E-03     375.965E-03    -189.832E-03     154.010E-03     556.675E-03     85.3375E+06     66.5686E+06     38.3924E+06    -29.1276E+06    -28.9045E+06     38.1692E+06     66.5686E+06     3.47577E+06
             925     25.3312E-03     9.93323E-03     23.3024E-03     382.916E-03    -189.590E-03    -193.503E-03    -186.495E-03     375.909E-03    -189.590E-03     125.141E-03     537.290E-03     87.0270E+06     59.9432E+06     34.4896E+06    -36.7854E+06    -36.6192E+06     34.3234E+06     59.9432E+06     3.26243E+06
             926     24.9004E-03     9.11091E-03     23.1737E-03     377.796E-03    -187.810E-03    -190.198E-03    -185.405E-03     374.209E-03    -189.016E-03     87.8216E-03     509.638E-03     83.8266E+06     46.9158E+06     27.6101E+06    -44.7184E+06    -44.4977E+06     27.3894E+06     46.9158E+06     3.05518E+06
             927     24.5416E-03     8.28231E-03     23.1018E-03     375.528E-03    -186.452E-03    -188.901E-03    -184.870E-03     373.945E-03    -188.901E-03     58.8025E-03     483.391E-03     78.0232E+06     30.8809E+06     18.7721E+06    -52.4162E+06    -51.9814E+06     18.3373E+06     30.8809E+06     4.17067E+06
             928     24.2230E-03     7.45683E-03     23.0466E-03     375.336E-03    -186.399E-03    -188.789E-03    -185.642E-03     374.579E-03    -188.789E-03     40.1549E-03     462.482E-03     72.8395E+06     14.1994E+06     8.43372E+06    -61.3068E+06    -60.9408E+06     8.06777E+06     14.1994E+06     4.19842E+06
             929     23.9545E-03     6.62720E-03     23.0195E-03     375.058E-03    -186.581E-03    -188.608E-03    -186.311E-03     374.787E-03    -188.608E-03     23.2666E-03     443.351E-03     64.6894E+06    -2.18137E+06    -25.7717E+06    -71.4546E+06    -70.8882E+06    -26.3381E+06    -2.18137E+06     3.37349E+06
             930     23.7283E-03     5.79818E-03     23.0090E-03     375.335E-03    -186.904E-03    -188.573E-03    -186.835E-03     375.266E-03    -188.573E-03     10.8856E-03     426.947E-03     65.4231E+06    -19.9812E+06    -70.1299E+06    -93.9209E+06    -81.2044E+06    -82.8464E+06    -19.9812E+06     4.10557E+06
             931     23.5421E-03     4.97266E-03     23.0110E-03     375.750E-03    -187.354E-03    -188.483E-03    -187.341E-03     375.737E-03    -188.483E-03     1.47928E-03     412.877E-03     83.1818E+06    -39.0755E+06    -90.3103E+06    -133.984E+06    -90.8876E+06    -133.406E+06    -39.0755E+06     3.96974E+06
             932     23.3970E-03     4.14470E-03     23.0270E-03     376.216E-03    -187.751E-03    -188.518E-03    -187.961E-03     376.201E-03    -188.293E-03    -5.44373E-03     401.405E-03     102.288E+06    -59.1501E+06    -100.298E+06    -175.265E+06    -100.479E+06    -175.084E+06    -59.1501E+06     3.17436E+06
             933     23.2878E-03     3.31581E-03     23.0505E-03     376.029E-03    -187.873E-03    -188.367E-03    -188.091E-03     375.997E-03    -188.117E-03    -8.41145E-03     392.075E-03     119.963E+06    -79.2781E+06    -110.026E+06    -211.414E+06    -110.121E+06    -211.319E+06    -79.2781E+06     2.84215E+06
             934     23.2053E-03     2.48705E-03     23.0716E-03     375.537E-03    -187.804E-03    -188.081E-03    -187.892E-03     375.494E-03    -187.951E-03    -9.70365E-03     384.649E-03     134.907E+06    -97.9712E+06    -117.840E+06    -241.556E+06    -117.883E+06    -241.513E+06    -97.9712E+06     2.13324E+06
             935     23.1567E-03     1.65722E-03     23.0974E-03     375.573E-03    -187.639E-03    -188.069E-03    -187.912E-03     375.534E-03    -187.757E-03    -9.17218E-03     379.947E-03     150.953E+06    -112.871E+06    -124.258E+06    -269.094E+06    -124.272E+06    -269.080E+06    -112.871E+06     1.13932E+06
             936     23.1236E-03     830.717E-06     23.1086E-03     375.098E-03    -187.055E-03    -188.067E-03    -187.756E-03     375.079E-03    -187.346E-03    -6.28233E-03     376.748E-03     153.137E+06    -125.018E+06    -130.094E+06    -280.546E+06    -129.604E+06    -280.505E+06    -125.548E+06    -1.23192E+06
             937     27.1137E-03     14.0666E-03     23.1793E-03     405.467E-03    -189.917E-03    -215.394E-03    -194.407E-03     384.480E-03    -189.917E-03     206.363E-03     571.900E-03     73.3878E+06     76.8495E+06     55.7291E+06    -4.63039E+06    -4.33784E+06     55.4365E+06     76.8495E+06     1.02278E+06
             938     26.3204E-03     13.2404E-03     22.7477E-03     409.358E-03    -189.929E-03    -219.533E-03    -194.484E-03     384.310E-03    -189.929E-03     239.754E-03     605.684E-03     73.1958E+06     70.7836E+06     52.5697E+06    -9.71786E+06    -8.99738E+06     51.8492E+06     70.7836E+06     2.45196E+06
             939     25.7068E-03     12.4139E-03     22.5108E-03     395.835E-03    -189.775E-03    -205.586E-03    -189.525E-03     379.774E-03    -189.775E-03     193.241E-03     572.178E-03     74.7252E+06     66.5847E+06     46.2394E+06    -16.1836E+06    -15.4740E+06     45.5298E+06     66.5847E+06     3.26332E+06
             940     25.0640E-03     11.5851E-03     22.2258E-03     394.110E-03    -189.593E-03    -204.213E-03    -189.195E-03     379.091E-03    -189.593E-03     185.764E-03     575.825E-03     79.7014E+06     66.6908E+06     41.3396E+06    -22.4358E+06    -22.1705E+06     41.0743E+06     66.6908E+06     2.98639E+06
             941     24.5086E-03     10.7652E-03     22.0178E-03     387.322E-03    -189.463E-03    -197.984E-03    -188.138E-03     377.476E-03    -189.463E-03     150.161E-03     556.358E-03     85.1947E+06     67.3393E+06     38.9939E+06    -28.2187E+06    -28.0446E+06     38.8198E+06     67.3393E+06     3.14223E+06
             942     23.9892E-03     9.94215E-03     21.8320E-03     381.950E-03    -189.110E-03    -193.086E-03    -186.426E-03     375.289E-03    -189.110E-03     121.998E-03     534.864E-03     86.5396E+06     60.2752E+06     35.4165E+06    -35.7994E+06    -35.6260E+06     35.2431E+06     60.2752E+06     3.47255E+06
             943     23.5444E-03     9.11241E-03     21.7095E-03     377.398E-03    -188.112E-03    -189.562E-03    -185.813E-03     374.012E-03    -188.476E-03     84.9952E-03     507.673E-03     81.9281E+06     44.7305E+06     27.2182E+06    -44.3489E+06    -44.0576E+06     26.9268E+06     44.7305E+06     3.61203E+06
             944     23.1677E-03     8.28856E-03     21.6343E-03     375.680E-03    -187.242E-03    -188.475E-03    -186.060E-03     374.256E-03    -188.232E-03     55.7143E-03     482.516E-03     76.9764E+06     28.6509E+06     18.4106E+06    -52.8366E+06    -52.3544E+06     17.9284E+06     28.6509E+06     4.07481E+06
             945     22.8384E-03     7.46009E-03     21.5857E-03     374.740E-03    -186.738E-03    -188.028E-03    -186.145E-03     374.085E-03    -187.966E-03     37.0281E-03     460.703E-03     73.4337E+06     14.4122E+06     8.94743E+06    -61.5839E+06    -60.8030E+06     8.16652E+06     14.4122E+06     5.72742E+06
             946     22.5531E-03     6.63349E-03     21.5555E-03     374.333E-03    -186.799E-03    -187.699E-03    -186.655E-03     374.128E-03    -187.637E-03     19.8617E-03     441.205E-03     65.2887E+06    -2.34729E+06    -23.7288E+06    -72.8963E+06    -71.2562E+06    -25.3689E+06    -2.34729E+06     7.36067E+06
             947     22.3149E-03     5.80843E-03     21.5457E-03     374.081E-03    -186.764E-03    -187.458E-03    -186.730E-03     374.047E-03    -187.458E-03     7.24890E-03     424.595E-03     64.3113E+06    -21.3017E+06    -67.8196E+06    -94.5086E+06    -82.0488E+06    -80.2794E+06    -21.3017E+06     7.13259E+06
             948     22.1216E-03     4.97773E-03     21.5543E-03     373.730E-03    -186.516E-03    -187.274E-03    -186.508E-03     373.721E-03    -187.274E-03    -1.26653E-03     410.159E-03     81.0056E+06    -39.9733E+06    -90.6175E+06    -132.525E+06    -92.1064E+06    -131.037E+06    -39.9733E+06     6.29401E+06
             949     21.9640E-03     4.14782E-03     21.5688E-03     374.069E-03    -186.696E-03    -187.366E-03    -187.036E-03     374.040E-03    -186.997E-03    -7.34967E-03     398.710E-03     99.2451E+06    -59.7693E+06    -101.545E+06    -172.719E+06    -102.100E+06    -172.165E+06    -59.7693E+06     5.96749E+06
             950     21.8463E-03     3.32077E-03     21.5924E-03     373.861E-03    -186.727E-03    -187.257E-03    -187.208E-03     373.812E-03    -186.727E-03    -10.3860E-03     389.578E-03     115.073E+06    -80.5564E+06    -111.580E+06    -207.740E+06    -111.903E+06    -207.417E+06    -80.5564E+06     5.12707E+06
             951     21.7595E-03     2.49122E-03     21.6164E-03     372.730E-03    -186.256E-03    -186.754E-03    -186.472E-03     372.680E-03    -186.488E-03    -10.4189E-03     381.689E-03     130.466E+06    -100.176E+06    -121.009E+06    -239.690E+06    -121.151E+06    -239.548E+06    -100.176E+06     3.76371E+06
             952     21.7028E-03     1.66239E-03     21.6390E-03     372.386E-03    -185.828E-03    -186.685E-03    -186.107E-03     372.353E-03    -186.373E-03    -8.13346E-03     376.635E-03     141.909E+06    -117.209E+06    -128.161E+06    -264.168E+06    -128.214E+06    -264.115E+06    -117.209E+06     2.19724E+06
             953     21.6723E-03     830.052E-06     21.6564E-03     372.523E-03    -185.719E-03    -186.827E-03    -185.914E-03     372.511E-03    -186.620E-03    -4.61971E-03     374.099E-03     147.637E+06    -129.260E+06    -134.347E+06    -279.326E+06    -132.519E+06    -279.259E+06    -131.154E+06     579.162E+03
             954     25.8729E-03     14.0670E-03     21.7147E-03     406.617E-03    -189.846E-03    -216.522E-03    -195.492E-03     385.587E-03    -189.846E-03     207.258E-03     572.096E-03     73.3795E+06     76.3123E+06     54.1667E+06    -5.50652E+06    -5.18469E+06     53.8448E+06     76.3123E+06     1.10978E+06
             955     25.0627E-03     13.2398E-03     21.2801E-03     411.377E-03    -189.822E-03    -221.643E-03    -196.668E-03     386.402E-03    -189.822E-03     240.044E-03     605.224E-03     73.2651E+06     69.5582E+06     50.1430E+06    -11.4216E+06    -10.6873E+06     49.4087E+06     69.5582E+06     2.68098E+06
             956     24.4325E-03     12.4162E-03     21.0425E-03     397.831E-03    -189.493E-03    -208.102E-03    -192.495E-03     382.224E-03    -189.493E-03     191.416E-03     571.902E-03     74.7361E+06     67.0560E+06     45.9157E+06    -15.9281E+06    -15.1363E+06     45.1240E+06     67.0560E+06     3.71888E+06
             957     23.7782E-03     11.5959E-03     20.7591E-03     395.100E-03    -189.083E-03    -205.887E-03    -191.473E-03     380.687E-03    -189.083E-03     182.553E-03     573.584E-03     80.0899E+06     67.8454E+06     42.6216E+06    -21.6083E+06    -21.2118E+06     42.2251E+06     67.8454E+06     3.86153E+06
             958     23.1924E-03     10.7710E-03     20.5395E-03     386.680E-03    -188.827E-03    -197.975E-03    -188.756E-03     377.461E-03    -188.827E-03     145.117E-03     552.616E-03     84.7224E+06     66.2541E+06     38.8184E+06    -28.5413E+06    -28.3627E+06     38.6398E+06     66.2541E+06     2.98854E+06
             959     22.6695E-03     9.94422E-03     20.3720E-03     381.252E-03    -188.367E-03    -193.153E-03    -187.137E-03     375.235E-03    -188.367E-03     115.720E-03     531.329E-03     85.5509E+06     60.0114E+06     35.6015E+06    -34.9007E+06    -34.6681E+06     35.3689E+06     60.0114E+06     3.40613E+06
             960     22.1978E-03     9.12093E-03     20.2374E-03     376.821E-03    -187.574E-03    -189.498E-03    -186.584E-03     373.907E-03    -187.574E-03     78.0492E-03     503.308E-03     81.4301E+06     44.4128E+06     28.1128E+06    -43.7441E+06    -43.3599E+06     27.7286E+06     44.4128E+06     4.58019E+06
             961     21.8119E-03     8.29541E-03     20.1729E-03     374.894E-03    -186.975E-03    -188.085E-03    -186.809E-03     373.811E-03    -187.169E-03     48.4599E-03     479.160E-03     75.5897E+06     25.4966E+06     16.9694E+06    -53.9454E+06    -53.0749E+06     16.0989E+06     25.4966E+06     5.56328E+06
             962     21.4649E-03     7.47043E-03     20.1230E-03     373.869E-03    -186.529E-03    -187.611E-03    -186.956E-03     373.407E-03    -186.723E-03     30.5660E-03     457.729E-03     73.7827E+06     11.5672E+06     6.59747E+06    -64.5635E+06    -63.1530E+06     5.18698E+06     11.5672E+06     8.42970E+06
             963     21.1635E-03     6.64338E-03     20.0937E-03     372.428E-03    -186.160E-03    -186.511E-03    -186.291E-03     372.309E-03    -186.262E-03     14.3293E-03     436.963E-03     67.0424E+06    -3.00241E+06    -21.0927E+06    -75.4955E+06    -73.1088E+06    -23.4794E+06    -3.00241E+06     10.3093E+06
             964     20.9135E-03     5.81246E-03     20.0896E-03     371.652E-03    -185.777E-03    -186.052E-03    -185.798E-03     371.629E-03    -186.007E-03     2.66588E-03     420.619E-03     64.2562E+06    -22.3159E+06    -64.1009E+06    -95.6776E+06    -83.2534E+06    -76.5251E+06    -22.3159E+06     10.2773E+06
             965     20.7063E-03     4.98608E-03     20.0970E-03     371.221E-03    -185.498E-03    -185.770E-03    -185.524E-03     371.202E-03    -185.725E-03    -5.06306E-03     406.327E-03     77.0385E+06    -42.7514E+06    -91.0277E+06    -130.958E+06    -94.3713E+06    -127.615E+06    -42.7514E+06     9.80244E+06
             966     20.5380E-03     4.15707E-03     20.1129E-03     370.630E-03    -185.011E-03    -185.605E-03    -185.115E-03     370.590E-03    -185.461E-03    -9.24889E-03     394.248E-03     94.0822E+06    -62.4553E+06    -103.091E+06    -169.680E+06    -104.520E+06    -168.251E+06    -62.4553E+06     8.88692E+06
             967     20.4087E-03     3.32492E-03     20.1360E-03     370.351E-03    -184.864E-03    -185.598E-03    -185.087E-03     370.294E-03    -185.317E-03    -11.2602E-03     385.576E-03     109.451E+06    -82.6542E+06    -112.277E+06    -203.603E+06    -112.962E+06    -202.918E+06    -82.6542E+06     7.58422E+06
             968     20.3177E-03     2.49461E-03     20.1640E-03     369.919E-03    -184.831E-03    -185.319E-03    -184.931E-03     369.865E-03    -185.165E-03    -10.7733E-03     378.775E-03     122.392E+06    -102.274E+06    -120.160E+06    -232.503E+06    -120.491E+06    -232.173E+06    -102.274E+06     5.67102E+06
             969     20.2564E-03     1.66038E-03     20.1883E-03     369.884E-03    -184.689E-03    -185.283E-03    -184.700E-03     369.846E-03    -185.235E-03    -8.74831E-03     374.082E-03     137.175E+06    -116.358E+06    -127.711E+06    -258.844E+06    -127.804E+06    -258.750E+06    -116.358E+06     3.09658E+06
             970     20.2212E-03     829.926E-06     20.2042E-03     370.521E-03    -184.785E-03    -185.740E-03    -185.096E-03     370.501E-03    -185.409E-03    -5.81328E-03     372.028E-03     143.028E+06    -126.947E+06    -135.808E+06    -274.196E+06    -133.972E+06    -274.138E+06    -128.841E+06     2.63840E+06
             971     24.6567E-03     14.0673E-03     20.2500E-03     409.081E-03    -189.744E-03    -219.171E-03    -198.418E-03     388.329E-03    -189.744E-03     208.018E-03     573.172E-03     72.4687E+06     75.8709E+06     52.6114E+06    -5.22128E+06    -4.92077E+06     52.3109E+06     75.8709E+06     2.16961E+06
             972     23.8313E-03     13.2442E-03     19.8122E-03     413.480E-03    -189.560E-03    -224.166E-03    -200.098E-03     389.412E-03    -189.560E-03     236.103E-03     603.931E-03     72.2070E+06     69.7372E+06     48.9450E+06    -10.4967E+06    -9.80791E+06     48.2562E+06     69.7372E+06     3.47223E+06
             973     23.1799E-03     12.4217E-03     19.5706E-03     399.601E-03    -188.981E-03    -210.567E-03    -195.767E-03     384.801E-03    -188.981E-03     187.033E-03     569.301E-03     75.0944E+06     67.6876E+06     44.5081E+06    -16.2029E+06    -15.4006E+06     43.7058E+06     67.6876E+06     3.26225E+06
             974     22.5028E-03     11.6015E-03     19.2817E-03     396.004E-03    -188.297E-03    -207.652E-03    -194.183E-03     382.535E-03    -188.297E-03     176.429E-03     569.023E-03     80.2427E+06     68.8901E+06     43.5372E+06    -20.7802E+06    -20.4084E+06     43.1653E+06     68.8901E+06     3.30664E+06
             975     21.9114E-03     10.7806E-03     19.0759E-03     386.785E-03    -187.762E-03    -199.170E-03    -191.072E-03     378.687E-03    -187.762E-03     136.106E-03     546.881E-03     84.3606E+06     66.5123E+06     40.2557E+06    -27.5661E+06    -27.2548E+06     39.9444E+06     66.5123E+06     3.85198E+06
             976     21.3626E-03     9.96049E-03     18.8984E-03     380.836E-03    -187.003E-03    -194.128E-03    -189.191E-03     375.899E-03    -187.003E-03     104.362E-03     525.363E-03     85.0514E+06     57.3694E+06     34.9007E+06    -36.4656E+06    -36.0907E+06     34.5259E+06     57.3694E+06     3.91091E+06
             977     20.8822E-03     9.13555E-03     18.7779E-03     374.892E-03    -185.965E-03    -189.142E-03    -187.000E-03     372.750E-03    -185.965E-03     66.7401E-03     496.003E-03     80.3558E+06     41.7666E+06     26.0286E+06    -45.2147E+06    -44.3662E+06     25.1800E+06     41.7666E+06     5.54020E+06
             978     20.4707E-03     8.30901E-03     18.7085E-03     372.968E-03    -185.391E-03    -187.669E-03    -186.941E-03     372.240E-03    -185.391E-03     38.7486E-03     471.840E-03     75.1120E+06     23.2605E+06     15.1422E+06    -55.4976E+06    -53.9439E+06     13.5886E+06     23.2605E+06     8.99619E+06
             979     20.1079E-03     7.48378E-03     18.6633E-03     371.445E-03    -184.794E-03    -187.005E-03    -186.766E-03     371.206E-03    -184.794E-03     19.8610E-03     451.087E-03     72.8617E+06     8.85536E+06     5.70310E+06    -65.5242E+06    -63.3493E+06     3.52820E+06     8.85536E+06     11.5694E+06
             980     19.7957E-03     6.65557E-03     18.6433E-03     368.736E-03    -184.186E-03    -184.917E-03    -184.820E-03     368.697E-03    -184.244E-03     4.97151E-03     429.821E-03     66.1366E+06    -6.37396E+06    -18.8662E+06    -77.0032E+06    -73.2103E+06    -22.6592E+06    -6.37396E+06     13.3513E+06
             981     19.5271E-03     5.82775E-03     18.6372E-03     367.524E-03    -183.717E-03    -184.012E-03    -183.742E-03     367.505E-03    -183.968E-03    -4.44716E-03     413.595E-03     62.9417E+06    -25.1309E+06    -59.1235E+06    -96.8451E+06    -83.8016E+06    -72.1670E+06    -25.1309E+06     13.7961E+06
             982     19.3047E-03     4.99502E-03     18.6473E-03     367.167E-03    -183.358E-03    -183.738E-03    -183.340E-03     367.105E-03    -183.693E-03    -10.7662E-03     399.962E-03     72.7947E+06    -44.2551E+06    -87.5084E+06    -127.943E+06    -93.7749E+06    -121.677E+06    -44.2551E+06     13.0298E+06
             983     19.1266E-03     4.16170E-03     18.6684E-03     366.314E-03    -182.788E-03    -183.483E-03    -182.689E-03     366.215E-03    -183.483E-03    -13.8377E-03     388.481E-03     88.2111E+06    -64.2713E+06    -101.188E+06    -164.594E+06    -103.769E+06    -162.013E+06    -64.2713E+06     11.9263E+06
             984     18.9862E-03     3.32918E-03     18.6920E-03     366.075E-03    -182.737E-03    -183.470E-03    -182.626E-03     365.964E-03    -183.470E-03    -14.9531E-03     380.570E-03     102.563E+06    -83.9874E+06    -112.110E+06    -197.528E+06    -113.410E+06    -196.229E+06    -83.9874E+06     9.90568E+06
             985     18.8843E-03     2.49580E-03     18.7186E-03     366.788E-03    -183.262E-03    -183.718E-03    -183.438E-03     366.686E-03    -183.441E-03    -14.6219E-03     375.255E-03     113.502E+06    -103.059E+06    -121.572E+06    -224.538E+06    -122.251E+06    -223.860E+06    -103.059E+06     7.88251E+06
             986     18.8188E-03     1.66668E-03     18.7448E-03     366.980E-03    -183.344E-03    -183.738E-03    -183.674E-03     366.915E-03    -183.344E-03    -11.5935E-03     370.938E-03     126.272E+06    -119.263E+06    -129.099E+06    -250.095E+06    -129.473E+06    -249.720E+06    -119.263E+06     5.73492E+06
             987     18.7790E-03     833.905E-06     18.7605E-03     366.365E-03    -182.851E-03    -183.524E-03    -183.499E-03     366.341E-03    -182.851E-03    -6.49210E-03     367.671E-03     135.038E+06    -129.982E+06    -136.496E+06    -268.150E+06    -135.180E+06    -268.049E+06    -131.398E+06     2.43477E+06
             988     23.4623E-03     14.0691E-03     18.7761E-03     413.472E-03    -189.508E-03    -223.867E-03    -203.860E-03     393.465E-03    -189.508E-03     207.631E-03     575.900E-03     71.8519E+06     74.9179E+06     49.6667E+06    -6.09748E+06    -5.90815E+06     49.4774E+06     74.9179E+06     1.65263E+06
             989     22.6270E-03     13.2524E-03     18.3401E-03     416.616E-03    -188.957E-03    -227.987E-03    -205.431E-03     394.059E-03    -188.957E-03     229.647E-03     601.856E-03     71.5883E+06     70.3720E+06     47.7977E+06    -9.75654E+06    -9.18159E+06     47.2228E+06     70.3720E+06     2.99257E+06
             990     21.9618E-03     12.4348E-03     18.1024E-03     401.406E-03    -188.017E-03    -213.285E-03    -199.940E-03     388.061E-03    -188.017E-03     178.451E-03     563.396E-03     73.2860E+06     67.8388E+06     44.5910E+06    -14.1797E+06    -13.1218E+06     43.5331E+06     67.8388E+06     4.07112E+06
             991     21.2631E-03     11.6172E-03     17.8090E-03     396.548E-03    -186.943E-03    -209.396E-03    -197.911E-03     385.062E-03    -186.943E-03     162.518E-03     560.798E-03     79.4099E+06     68.0585E+06     43.9082E+06    -20.3173E+06    -19.6252E+06     43.2162E+06     68.0585E+06     4.40364E+06
             992     20.6572E-03     10.8003E-03     17.6089E-03     386.291E-03    -185.985E-03    -200.495E-03    -194.027E-03     379.823E-03    -185.985E-03     121.983E-03     537.671E-03     84.2805E+06     65.6795E+06     41.2609E+06    -27.7683E+06    -27.4037E+06     40.8964E+06     65.6795E+06     4.56609E+06
             993     20.0857E-03     9.98030E-03     17.4307E-03     379.258E-03    -184.833E-03    -194.849E-03    -190.965E-03     375.374E-03    -184.833E-03     91.5863E-03     515.632E-03     83.9057E+06     55.4674E+06     33.8008E+06    -36.9985E+06    -35.8869E+06     32.6892E+06     55.4674E+06     6.50848E+06
             994     19.5925E-03     9.15695E-03     17.3210E-03     372.898E-03    -183.463E-03    -189.695E-03    -188.284E-03     371.486E-03    -183.463E-03     53.0878E-03     486.609E-03     80.1106E+06     38.2912E+06     24.0529E+06    -47.8564E+06    -46.0903E+06     22.2868E+06     38.2912E+06     9.46352E+06
             995     19.1549E-03     8.33262E-03     17.2475E-03     369.604E-03    -182.605E-03    -186.933E-03    -186.570E-03     369.241E-03    -182.605E-03     25.1914E-03     460.848E-03     73.4413E+06     18.9970E+06     13.0489E+06    -57.1817E+06    -55.1221E+06     10.9893E+06     18.9970E+06     11.0810E+06
             996     18.7759E-03     7.50592E-03     17.2104E-03     366.595E-03    -181.853E-03    -185.061E-03    -184.993E-03     366.527E-03    -181.853E-03     5.86739E-03     439.796E-03     70.3947E+06     4.66175E+06     1.27747E+06    -67.3397E+06    -63.9366E+06    -361.466E+03     2.89758E+06     14.4567E+06
             997     18.4445E-03     6.67631E-03     17.1938E-03     363.870E-03    -181.181E-03    -183.168E-03    -183.081E-03     363.805E-03    -181.202E-03    -7.77123E-03     419.746E-03     67.1688E+06    -9.88007E+06    -16.6376E+06    -79.8358E+06    -73.9469E+06    -20.6364E+06    -11.7702E+06     18.2994E+06
             998     18.1583E-03     5.84121E-03     17.1932E-03     361.961E-03    -180.513E-03    -181.587E-03    -181.201E-03     361.790E-03    -180.727E-03    -16.4077E-03     403.367E-03     62.4244E+06    -27.9294E+06    -51.0636E+06    -96.8667E+06    -83.6172E+06    -64.1871E+06    -28.0553E+06     18.0648E+06
             999     17.9213E-03     5.00858E-03     17.2072E-03     361.083E-03    -180.160E-03    -180.884E-03    -180.347E-03     360.823E-03    -180.438E-03    -22.0799E-03     390.999E-03     69.0409E+06    -46.3062E+06    -83.4916E+06    -125.813E+06    -94.2894E+06    -115.015E+06    -46.3062E+06     16.6378E+06
            1000     17.7289E-03     4.17492E-03     17.2304E-03     360.566E-03    -180.000E-03    -180.727E-03    -180.148E-03     360.274E-03    -180.287E-03    -24.4095E-03     381.115E-03     81.9400E+06    -65.1609E+06    -100.065E+06    -158.602E+06    -104.927E+06    -153.741E+06    -65.1609E+06     15.1791E+06
            1001     17.5726E-03     3.33947E-03     17.2524E-03     360.111E-03    -179.905E-03    -180.483E-03    -179.883E-03     359.843E-03    -180.237E-03    -23.5360E-03     373.347E-03     94.3168E+06    -84.2580E+06    -112.373E+06    -189.219E+06    -114.701E+06    -186.891E+06    -84.2580E+06     12.4747E+06
            1002     17.4579E-03     2.50539E-03     17.2772E-03     360.307E-03    -179.987E-03    -180.508E-03    -180.047E-03     360.107E-03    -180.248E-03    -20.4392E-03     367.779E-03     105.386E+06    -102.898E+06    -121.174E+06    -216.073E+06    -122.299E+06    -214.948E+06    -102.898E+06     9.78506E+06
            1003     17.3811E-03     1.66874E-03     17.3009E-03     360.623E-03    -180.071E-03    -180.608E-03    -180.362E-03     360.507E-03    -180.202E-03    -15.0667E-03     364.064E-03     115.099E+06    -118.599E+06    -127.490E+06    -237.811E+06    -127.978E+06    -237.323E+06    -118.599E+06     6.87885E+06
            1004     17.3438E-03     834.455E-06     17.3237E-03     360.334E-03    -179.961E-03    -180.377E-03    -180.322E-03     360.293E-03    -179.975E-03    -7.94575E-03     361.474E-03     128.612E+06    -127.943E+06    -133.161E+06    -259.081E+06    -131.883E+06    -258.943E+06    -129.359E+06     3.03708E+06
            1005     22.2944E-03     14.0750E-03     17.2897E-03     419.337E-03    -189.073E-03    -230.144E-03    -210.952E-03     400.145E-03    -189.073E-03     207.950E-03     578.274E-03     70.6241E+06     74.1489E+06     47.5016E+06    -5.81352E+06    -5.65691E+06     47.3450E+06     74.1489E+06     1.39700E+06
            1006     21.4521E-03     13.2648E-03     16.8593E-03     421.366E-03    -188.020E-03    -233.665E-03    -212.882E-03     400.582E-03    -188.020E-03     222.036E-03     599.269E-03     69.3079E+06     68.6170E+06     45.0889E+06    -9.29910E+06    -8.71514E+06     44.5049E+06     68.6170E+06     2.84130E+06
            1007     20.7690E-03     12.4529E-03     16.6216E-03     405.002E-03    -186.543E-03    -218.332E-03    -206.603E-03     393.274E-03    -186.543E-03     168.784E-03     558.181E-03     73.4736E+06     65.1382E+06     44.2474E+06    -16.0728E+06    -15.0085E+06     43.1832E+06     65.1382E+06     4.59995E+06
            1008     20.0608E-03     11.6451E-03     16.3348E-03     397.539E-03    -184.902E-03    -212.272E-03    -202.392E-03     387.660E-03    -184.902E-03     151.462E-03     551.034E-03     78.0745E+06     64.3397E+06     44.1904E+06    -21.2985E+06    -20.6121E+06     43.5040E+06     64.3397E+06     4.98882E+06
            1009     19.4369E-03     10.8296E-03     16.1404E-03     385.859E-03    -183.474E-03    -202.533E-03    -197.256E-03     380.581E-03    -183.474E-03     110.430E-03     526.917E-03     81.5686E+06     60.6716E+06     38.6512E+06    -29.2156E+06    -28.0094E+06     37.4450E+06     60.6716E+06     7.04233E+06
            1010     18.8514E-03     10.0092E-03     15.9747E-03     378.604E-03    -181.905E-03    -197.212E-03    -194.370E-03     375.762E-03    -181.905E-03     77.4253E-03     505.262E-03     84.2902E+06     51.6250E+06     32.8163E+06    -40.2770E+06    -38.2561E+06     30.7953E+06     51.6250E+06     10.1243E+06
            1011     18.3283E-03     9.18970E-03     15.8580E-03     371.263E-03    -180.003E-03    -191.722E-03    -190.951E-03     370.492E-03    -180.003E-03     36.2755E-03     475.900E-03     79.6118E+06     36.0026E+06     24.2883E+06    -48.7445E+06    -46.2493E+06      21.793E+06     36.0026E+06     11.7774E+06
            1012     17.8812E-03     8.36625E-03     15.8033E-03     365.605E-03    -178.570E-03    -187.075E-03    -186.948E-03     365.478E-03    -178.570E-03     6.52928E-03     448.610E-03     73.1138E+06     16.6789E+06     11.5465E+06    -58.8424E+06    -55.0932E+06     8.88001E+06     15.5962E+06     15.1875E+06
            1013     17.4750E-03     7.53512E-03     15.7670E-03     361.089E-03    -177.446E-03    -183.860E-03    -183.654E-03     360.883E-03    -177.446E-03    -13.7236E-03     426.364E-03     70.7983E+06     1.41983E+06    -2.08305E+06    -71.0366E+06    -65.8598E+06    -4.41289E+06    -1.42706E+06     18.4129E+06
            1014     17.1214E-03     6.70311E-03     15.7547E-03     357.833E-03    -176.482E-03    -181.718E-03    -181.270E-03     357.385E-03    -176.482E-03    -27.8137E-03     407.412E-03     68.9722E+06    -11.3485E+06    -15.1396E+06    -82.0870E+06    -74.8399E+06    -18.8081E+06    -14.9271E+06     21.1743E+06
            1015     16.8190E-03     5.87216E-03     15.7606E-03     354.937E-03    -175.760E-03    -179.332E-03    -178.687E-03     354.292E-03    -175.760E-03    -35.5248E-03     391.297E-03     66.4901E+06    -27.6832E+06    -42.9013E+06    -99.3497E+06    -84.5479E+06    -55.8887E+06    -29.4977E+06     23.0749E+06
            1016     16.5610E-03     5.03383E-03     15.7774E-03     352.503E-03    -175.356E-03    -177.228E-03    -176.506E-03     351.782E-03    -175.356E-03    -38.0896E-03     378.609E-03     68.4080E+06    -44.8249E+06    -76.2622E+06    -122.965E+06    -95.0723E+06    -104.155E+06    -44.8249E+06     21.4331E+06
            1017     16.3451E-03     4.19500E-03     15.7976E-03     351.330E-03    -175.130E-03    -176.329E-03    -175.656E-03     350.658E-03    -175.130E-03    -36.8948E-03     369.235E-03     74.7711E+06    -63.9613E+06    -97.6577E+06    -149.533E+06    -105.419E+06    -141.771E+06    -63.9613E+06     17.2887E+06
            1018     16.1802E-03     3.35793E-03     15.8279E-03     350.481E-03    -174.997E-03    -175.733E-03    -175.140E-03     349.940E-03    -175.050E-03    -33.0892E-03     361.807E-03     85.2318E+06    -82.7872E+06    -110.197E+06    -178.150E+06    -113.290E+06    -175.057E+06    -82.7872E+06     13.5449E+06
            1019     16.0490E-03     2.51695E-03     15.8504E-03     349.948E-03    -174.844E-03    -175.215E-03    -174.574E-03     349.584E-03    -175.121E-03    -27.1367E-03     356.202E-03     96.8920E+06    -100.209E+06    -118.691E+06    -204.832E+06    -119.958E+06    -203.565E+06    -100.209E+06     9.83134E+06
            1020     15.9636E-03     1.67826E-03     15.8751E-03     350.375E-03    -174.973E-03    -175.348E-03    -174.831E-03     350.172E-03    -175.288E-03    -20.0992E-03     353.254E-03     106.827E+06    -115.438E+06    -125.167E+06    -226.703E+06    -125.586E+06    -226.284E+06    -115.438E+06     6.11810E+06
            1021     15.9152E-03     839.081E-06     15.8930E-03     350.926E-03    -175.182E-03    -175.729E-03    -175.550E-03     350.852E-03    -175.287E-03    -11.7031E-03     351.909E-03     120.441E+06    -124.193E+06    -130.036E+06    -247.447E+06    -128.605E+06    -247.330E+06    -125.741E+06     2.91568E+06
            1022     21.1596E-03     14.0831E-03     15.7923E-03     426.779E-03    -188.509E-03    -238.051E-03    -219.707E-03     408.435E-03    -188.509E-03     208.577E-03     581.979E-03     68.5203E+06     73.3483E+06     44.4481E+06    -4.71818E+06    -4.58717E+06     44.3171E+06     73.3483E+06     2.07842E+06
            1023     20.3122E-03     13.2810E-03     15.3688E-03     426.167E-03    -186.852E-03    -239.590E-03    -220.439E-03     407.017E-03    -186.852E-03     215.504E-03     597.157E-03     68.4842E+06     65.2184E+06     42.3844E+06    -11.5875E+06    -10.9819E+06     41.7788E+06     65.2184E+06     2.62699E+06
            1024     19.6126E-03     12.4794E-03     15.1300E-03     408.528E-03    -184.782E-03    -223.643E-03    -212.799E-03     397.685E-03    -184.782E-03     163.733E-03     553.334E-03     69.8848E+06     61.8764E+06     42.1643E+06    -15.1090E+06    -14.0868E+06     41.1421E+06     61.8764E+06     3.90059E+06
            1025     18.8948E-03     11.6708E-03     14.8595E-03     400.291E-03    -182.601E-03    -217.250E-03    -208.226E-03     391.267E-03    -182.601E-03     145.738E-03     544.193E-03     75.9034E+06     59.8104E+06     41.7474E+06    -22.5609E+06    -20.7478E+06     39.9343E+06     59.8104E+06     8.40609E+06
            1026     18.2524E-03     10.8582E-03     14.6713E-03     389.624E-03    -180.446E-03    -209.160E-03    -204.647E-03     385.112E-03    -180.446E-03     102.520E-03     521.896E-03     81.4162E+06     55.8065E+06     38.1523E+06    -32.4637E+06    -30.0526E+06     35.7412E+06     55.8065E+06     11.2612E+06
            1027     17.6484E-03     10.0489E-03     14.5082E-03     381.108E-03    -178.169E-03    -203.355E-03    -201.358E-03     379.111E-03    -178.169E-03     62.9623E-03     499.683E-03     82.3108E+06     48.1505E+06     32.8948E+06    -40.6397E+06    -37.6147E+06     29.8698E+06     48.1505E+06     12.1172E+06
            1028     17.1111E-03     9.23176E-03     14.4071E-03     370.829E-03    -175.559E-03    -195.845E-03    -195.493E-03     370.478E-03    -175.559E-03     17.3563E-03     467.973E-03     79.9301E+06     32.7342E+06     23.3429E+06    -51.3974E+06    -47.3958E+06     19.3413E+06     32.7342E+06     15.2947E+06
            1029     16.6372E-03     8.40976E-03     14.3552E-03     363.206E-03    -173.277E-03    -190.022E-03    -189.790E-03     362.974E-03    -173.277E-03    -15.2139E-03     439.428E-03     75.7602E+06     16.9866E+06     10.9568E+06    -61.5913E+06    -56.7479E+06     7.19617E+06     15.9039E+06     17.9726E+06
            1030     16.2170E-03     7.58447E-03     14.3341E-03     356.344E-03    -171.456E-03    -184.845E-03    -184.148E-03     355.647E-03    -171.456E-03    -36.4217E-03     414.496E-03     72.3496E+06     4.35604E+06    -2.08267E+06    -70.9077E+06    -64.0594E+06    -4.80587E+06     230.895E+03     21.1211E+06
            1031     15.8396E-03     6.75120E-03     14.3287E-03     349.744E-03    -169.890E-03    -179.824E-03    -178.608E-03     348.528E-03    -169.890E-03    -49.5013E-03     393.243E-03     72.8940E+06    -9.50750E+06    -15.8036E+06    -85.2634E+06    -74.2949E+06    -20.6885E+06    -15.5911E+06     26.0765E+06
            1032     15.5086E-03     5.91093E-03     14.3380E-03     344.751E-03    -168.823E-03    -175.782E-03    -174.287E-03     343.256E-03    -168.823E-03    -54.7232E-03     376.331E-03     71.9039E+06    -25.2278E+06     -34.547E+06    -101.076E+06    -85.5473E+06    -46.0788E+06    -29.2249E+06     28.0449E+06
            1033     15.2306E-03     5.07107E-03     14.3616E-03     340.834E-03    -168.213E-03    -172.536E-03    -171.066E-03     339.364E-03    -168.213E-03    -54.1201E-03     362.680E-03     67.2475E+06    -41.1962E+06    -64.8133E+06    -115.959E+06    -94.0197E+06    -85.7966E+06    -42.1521E+06     23.0599E+06
            1034     14.9970E-03     4.22719E-03     14.3889E-03     337.867E-03    -167.837E-03    -169.996E-03    -168.718E-03     336.588E-03    -167.837E-03    -50.2552E-03     352.659E-03     68.3720E+06    -57.7402E+06    -91.7340E+06    -136.270E+06    -100.921E+06    -127.084E+06    -57.7402E+06     16.6925E+06
            1035     14.8065E-03     3.38038E-03     14.4155E-03     336.479E-03    -167.708E-03    -168.725E-03    -167.748E-03     335.503E-03    -167.708E-03    -43.7057E-03     345.978E-03     79.2604E+06    -75.5483E+06    -105.256E+06    -164.990E+06    -108.347E+06    -161.900E+06    -75.5483E+06     12.2703E+06
            1036     14.6625E-03     2.53641E-03     14.4415E-03     335.988E-03    -167.662E-03    -168.275E-03    -167.557E-03     335.362E-03    -167.755E-03    -34.8219E-03     341.292E-03     92.1094E+06    -92.9805E+06    -114.252E+06    -193.693E+06    -115.317E+06    -192.628E+06    -92.9805E+06     8.74871E+06
            1037     14.5633E-03     1.68988E-03     14.4650E-03     335.819E-03    -167.706E-03    -168.070E-03    -167.514E-03     335.495E-03    -167.937E-03    -24.7779E-03     338.149E-03     102.531E+06    -108.334E+06    -119.873E+06    -216.033E+06    -120.256E+06    -215.649E+06    -108.334E+06     5.54796E+06
            1038     14.5072E-03     844.379E-06     14.4826E-03     336.220E-03    -167.747E-03    -168.464E-03    -168.211E-03     336.105E-03    -167.885E-03    -13.9359E-03     336.949E-03     114.917E+06    -120.058E+06    -125.961E+06    -237.805E+06    -124.543E+06    -237.675E+06    -121.606E+06     3.01362E+06
            1039     20.0664E-03     14.0964E-03     14.2813E-03     434.750E-03    -187.950E-03    -246.388E-03    -228.219E-03     416.581E-03    -187.950E-03     211.341E-03     586.117E-03     66.7451E+06     71.2237E+06     40.3866E+06    -5.12303E+06    -5.05533E+06     40.3189E+06     71.2237E+06     1.20205E+06
            1040     19.2149E-03     13.3005E-03     13.8675E-03     430.615E-03    -185.781E-03    -244.988E-03    -225.957E-03     411.584E-03    -185.781E-03     217.732E-03     595.195E-03     64.0515E+06     64.5010E+06     40.9125E+06    -7.53837E+06    -5.37282E+06     38.7470E+06     64.5010E+06     4.40153E+06
            1041     18.4948E-03     12.4956E-03     13.6352E-03     414.414E-03    -183.190E-03    -231.307E-03    -220.545E-03     403.652E-03    -183.190E-03     165.156E-03     552.829E-03     68.6549E+06     58.3473E+06     40.9946E+06    -16.4776E+06    -13.0308E+06     37.5479E+06     58.3473E+06     9.71090E+06
            1042     17.7681E-03     11.6947E-03     13.3769E-03     407.427E-03    -180.434E-03    -226.925E-03    -218.697E-03     399.199E-03    -180.434E-03     140.796E-03     546.301E-03     74.8349E+06     55.1736E+06     40.2578E+06    -25.0715E+06    -22.4337E+06     37.6199E+06     55.1736E+06     11.9668E+06
            1043     17.1065E-03     10.8953E-03     13.1881E-03     396.064E-03    -177.254E-03    -219.065E-03    -215.302E-03     392.301E-03    -177.254E-03     94.4550E-03     524.054E-03     79.2361E+06     52.0643E+06     38.3665E+06    -32.6742E+06    -28.5424E+06     34.2347E+06     52.0643E+06     13.6013E+06
            1044     16.4834E-03     10.0915E-03     13.0332E-03     384.701E-03    -173.822E-03    -211.172E-03    -209.803E-03     383.332E-03    -173.822E-03     50.3951E-03     499.715E-03     82.7461E+06     45.3017E+06     34.1966E+06    -42.2608E+06    -37.0391E+06     28.9749E+06     45.3017E+06     16.8963E+06
            1045     15.9351E-03     9.28401E-03     12.9513E-03     372.262E-03    -170.323E-03    -202.228E-03    -202.051E-03     372.085E-03    -170.323E-03     3.70029E-03     466.154E-03     80.0775E+06     32.8092E+06     24.7576E+06    -50.9675E+06    -45.8003E+06     19.5903E+06     32.8092E+06     18.1121E+06
            1046     15.4417E-03     8.46740E-03     12.9131E-03     361.804E-03    -167.109E-03    -194.595E-03    -194.082E-03     361.292E-03    -167.109E-03    -30.0796E-03     434.491E-03     74.7868E+06     18.4623E+06     9.95021E+06    -60.1739E+06    -53.6583E+06     6.52579E+06     15.3711E+06     20.2996E+06
            1047     14.9993E-03     7.64060E-03     12.9074E-03     351.427E-03    -164.444E-03    -186.614E-03    -185.306E-03     350.120E-03    -164.444E-03    -51.9184E-03     406.067E-03     76.2889E+06     6.00512E+06    -3.75133E+06    -74.6477E+06    -64.1915E+06    -8.07390E+06    -128.484E+03     25.8353E+06
            1048     14.5986E-03     6.80612E-03     12.9149E-03     341.326E-03    -162.205E-03    -178.703E-03    -176.647E-03     339.271E-03    -162.205E-03    -64.6254E-03     381.582E-03     79.3486E+06    -5.04402E+06    -11.5088E+06    -87.3564E+06    -73.7586E+06    -20.1636E+06    -9.98707E+06     29.5647E+06
            1049     14.2466E-03     5.96433E-03     12.9380E-03     333.276E-03    -160.498E-03    -172.227E-03    -169.730E-03     330.779E-03    -160.498E-03    -70.4703E-03     361.800E-03     72.5485E+06    -17.2304E+06    -21.2942E+06    -91.7169E+06    -79.6919E+06    -30.4628E+06    -20.0868E+06     26.7457E+06
            1050     13.9379E-03     5.11626E-03     12.9649E-03     327.007E-03    -159.398E-03    -167.119E-03    -164.637E-03     324.525E-03    -159.398E-03    -69.2990E-03     346.286E-03     63.3665E+06    -31.3693E+06    -51.3077E+06    -100.424E+06    -85.5239E+06    -65.2519E+06    -32.3251E+06     20.4062E+06
            1051     13.6799E-03     4.26657E-03     12.9975E-03     322.225E-03    -158.730E-03    -163.143E-03    -161.019E-03     320.102E-03    -158.730E-03    -63.4430E-03     334.756E-03     65.8471E+06    -45.4080E+06    -82.6951E+06    -121.378E+06    -91.8806E+06    -112.193E+06    -45.4080E+06     13.9437E+06
            1052     13.4667E-03     3.41385E-03     13.0268E-03     319.171E-03    -158.355E-03    -160.516E-03    -158.926E-03     317.581E-03    -158.355E-03    -54.5065E-03     326.897E-03     78.0867E+06    -63.3277E+06    -96.5068E+06    -152.036E+06    -98.6026E+06    -149.940E+06    -63.3277E+06     9.44851E+06
            1053     13.3007E-03     2.55916E-03     13.0522E-03     317.668E-03    -158.239E-03    -159.279E-03    -158.266E-03     316.655E-03    -158.239E-03    -43.0727E-03     321.977E-03     91.4442E+06    -82.7886E+06    -104.002E+06    -182.724E+06    -104.627E+06    -182.099E+06    -82.7886E+06     6.21285E+06
            1054     13.1886E-03     1.70700E-03     13.0776E-03     317.071E-03    -158.160E-03    -158.797E-03    -158.243E-03     316.564E-03    -158.207E-03    -30.1282E-03     318.911E-03     103.330E+06    -99.1699E+06    -110.421E+06    -207.589E+06    -110.627E+06    -207.383E+06    -99.1699E+06     4.20471E+06
            1055     13.1221E-03     853.451E-06     13.0944E-03     316.664E-03    -157.811E-03    -158.827E-03    -158.606E-03     316.491E-03    -157.858E-03    -16.6765E-03     317.217E-03     115.729E+06    -111.601E+06    -116.347E+06    -229.595E+06    -116.489E+06    -229.454E+06    -111.601E+06     3.74253E+06
            1056     19.0211E-03     14.1020E-03     12.7647E-03     440.952E-03    -187.760E-03    -252.712E-03    -233.357E-03     421.597E-03    -187.760E-03     220.402E-03     588.368E-03     58.4032E+06     65.2962E+06     35.1305E+06    -772.528E+03    -365.139E+03     34.7231E+06     65.2962E+06     2.52012E+06
            1057     18.1615E-03     13.3001E-03     12.3672E-03     439.433E-03    -185.199E-03    -254.109E-03    -234.176E-03     419.500E-03    -185.199E-03     225.055E-03     600.831E-03     61.9764E+06     56.5153E+06     35.0187E+06    -12.7023E+06    -10.1303E+06     32.4467E+06     56.5153E+06     7.90746E+06
            1058     17.4222E-03     12.5083E-03     12.1274E-03     424.381E-03    -181.960E-03    -242.541E-03    -232.089E-03     413.930E-03    -181.960E-03     165.592E-03     562.072E-03     65.4095E+06     52.1029E+06     36.7190E+06    -18.5933E+06    -15.3461E+06     33.4717E+06     52.1029E+06     10.9721E+06
            1059     16.6858E-03     11.7217E-03     11.8751E-03     416.462E-03    -178.347E-03    -238.268E-03    -230.507E-03     408.702E-03    -178.347E-03     139.411E-03     556.259E-03     71.3989E+06     52.2869E+06     39.2260E+06    -23.5914E+06    -18.4596E+06     35.2010E+06     51.1801E+06     14.9290E+06
            1060     16.0071E-03     10.9323E-03     11.6923E-03     402.786E-03    -174.195E-03    -228.943E-03    -225.362E-03     399.206E-03    -174.195E-03     93.2231E-03     531.572E-03     80.4369E+06     49.7594E+06     39.7401E+06    -34.7916E+06    -27.7034E+06     33.7587E+06     48.6525E+06     18.8772E+06
            1061     15.3731E-03     10.1360E-03     11.5582E-03     388.428E-03    -169.791E-03    -218.925E-03    -217.714E-03     387.217E-03    -169.791E-03     47.7400E-03     504.121E-03     81.0866E+06     44.1443E+06     36.3609E+06    -40.5434E+06    -34.3832E+06     30.2008E+06     44.1443E+06     18.7028E+06
            1062     14.8035E-03     9.33154E-03     11.4921E-03     373.850E-03    -165.349E-03    -208.817E-03    -208.632E-03     373.665E-03    -165.349E-03     512.450E-06     469.466E-03     77.1376E+06     32.8227E+06     24.5762E+06    -48.1047E+06    -40.6720E+06     19.1785E+06     30.7878E+06     21.3467E+06
            1063     14.2911E-03     8.51979E-03     11.4739E-03     360.500E-03    -161.260E-03    -199.249E-03    -198.636E-03     359.888E-03    -161.260E-03    -34.0108E-03     435.250E-03     79.1226E+06     20.6971E+06     10.2639E+06    -63.1080E+06    -51.6554E+06     3.93746E+06     15.5709E+06     27.0551E+06
            1064     13.8279E-03     7.69677E-03     11.4878E-03     347.492E-03    -157.647E-03    -189.609E-03    -188.029E-03     345.913E-03    -157.647E-03    -57.1705E-03     404.887E-03     82.4095E+06     12.7211E+06     3.42735E+06    -73.8909E+06    -60.9321E+06    -6.44020E+06     9.62992E+06     28.4097E+06
            1065     13.4065E-03     6.86289E-03     11.5167E-03     334.630E-03    -154.438E-03    -179.900E-03    -177.435E-03     332.165E-03    -154.438E-03    -70.8079E-03     377.362E-03     78.5919E+06     6.90904E+06    -1.06945E+06    -75.1751E+06    -65.7986E+06    -9.89810E+06     6.36115E+06     23.9285E+06
            1066     13.0264E-03     6.02023E-03     11.5518E-03     323.131E-03    -151.828E-03    -170.904E-03    -167.890E-03     320.118E-03    -151.828E-03    -76.8598E-03     353.406E-03     69.4627E+06    -4.13110E+06    -10.7316E+06    -76.4427E+06    -69.8356E+06    -16.3326E+06    -5.13722E+06     19.3399E+06
            1067     12.6919E-03     5.17084E-03     11.5909E-03     313.299E-03    -149.854E-03    -163.023E-03    -159.919E-03     310.195E-03    -149.854E-03    -76.6342E-03     333.817E-03     56.9135E+06    -21.3489E+06    -38.9417E+06    -82.8170E+06    -74.1890E+06    -47.1114E+06    -21.8071E+06     14.9978E+06
            1068     12.4046E-03     4.31300E-03     11.6306E-03     305.902E-03    -148.490E-03    -156.945E-03    -154.210E-03     303.167E-03    -148.490E-03    -70.8305E-03     318.746E-03      59.346E+06    -37.3584E+06    -71.2884E+06    -105.741E+06    -79.1700E+06    -97.8599E+06    -37.3584E+06     10.5724E+06
            1069     12.1668E-03     3.45344E-03     11.6664E-03     300.464E-03    -147.554E-03    -152.567E-03    -150.458E-03     298.355E-03    -147.554E-03    -61.3721E-03     307.966E-03     78.1271E+06    -53.3280E+06    -84.6674E+06    -141.838E+06    -85.8099E+06    -140.696E+06    -53.3280E+06     7.25365E+06
            1070     11.9770E-03     2.59083E-03     11.6934E-03     296.595E-03    -147.003E-03    -149.376E-03    -147.997E-03     295.216E-03    -147.003E-03    -48.9829E-03     300.534E-03     93.2890E+06    -72.6748E+06    -93.6739E+06    -174.456E+06    -94.1206E+06    -174.009E+06    -72.6748E+06     5.64425E+06
            1071     11.8442E-03     1.72624E-03     11.7177E-03     294.641E-03    -146.709E-03    -147.742E-03    -147.027E-03     293.927E-03    -146.709E-03    -34.5218E-03     296.285E-03     106.510E+06    -89.7564E+06    -100.891E+06    -201.308E+06    -101.159E+06    -201.040E+06    -89.7564E+06     4.44850E+06
            1072     11.7688E-03     863.587E-06     11.7371E-03     293.585E-03    -146.076E-03    -147.453E-03    -147.213E-03     293.345E-03    -146.076E-03    -18.8368E-03     294.113E-03     117.215E+06    -101.946E+06    -106.919E+06    -221.540E+06    -106.993E+06    -221.466E+06    -101.946E+06     2.23672E+06
            1073     18.0290E-03     14.0877E-03     11.2508E-03     448.414E-03    -187.906E-03    -260.139E-03    -240.746E-03     429.022E-03    -187.906E-03     223.605E-03     594.234E-03     55.9864E+06     56.8883E+06     28.6588E+06    -6.37661E+06    -4.91910E+06     27.2013E+06     56.8883E+06     4.92711E+06
            1074     17.1530E-03     13.3018E-03     10.8299E-03     448.400E-03    -184.863E-03    -263.296E-03    -243.652E-03     428.756E-03    -184.863E-03     226.072E-03     611.881E-03     54.5620E+06     50.8179E+06     33.0094E+06    -9.93116E+06    -5.93029E+06     29.0086E+06     50.8179E+06     8.95572E+06
            1075     16.4098E-03     12.5241E-03     10.6032E-03     432.985E-03    -181.029E-03    -252.018E-03    -241.495E-03     422.462E-03    -181.029E-03     168.395E-03     574.061E-03     59.7281E+06     46.0269E+06     32.0338E+06    -18.2717E+06    -11.6691E+06     26.4616E+06     44.9964E+06     13.8192E+06
            1076     15.6549E-03     11.7407E-03     10.3553E-03     423.447E-03    -176.782E-03    -247.011E-03    -238.749E-03     415.184E-03    -176.782E-03     145.815E-03     567.244E-03     72.8923E+06     46.6096E+06     37.4222E+06    -29.5282E+06    -21.4282E+06     31.4596E+06     44.4722E+06     18.9781E+06
            1077     14.9622E-03     10.9572E-03     10.1886E-03     407.732E-03    -172.030E-03    -236.227E-03    -232.250E-03     403.756E-03    -172.030E-03     99.2607E-03     542.047E-03     77.3292E+06     47.6770E+06     42.7005E+06    -31.9859E+06    -24.0958E+06     36.3651E+06     46.1222E+06     18.6269E+06
            1078     14.3132E-03     10.1654E-03     10.0763E-03     391.013E-03    -166.937E-03    -224.543E-03    -223.079E-03     389.548E-03    -166.937E-03     54.9433E-03     513.122E-03     77.1693E+06     40.9077E+06     35.4862E+06    -38.7801E+06    -30.1132E+06     28.0334E+06     39.6937E+06     22.1516E+06
            1079     13.7253E-03     9.36928E-03     10.0300E-03     374.044E-03    -161.835E-03    -212.582E-03    -212.331E-03     373.792E-03    -161.835E-03     9.72649E-03     478.139E-03     82.7050E+06     35.0185E+06     24.0922E+06    -52.3794E+06    -40.5892E+06     15.1032E+06     32.2174E+06     27.5709E+06
            1080     13.1931E-03     8.55906E-03     10.0400E-03     358.734E-03    -157.130E-03    -201.696E-03    -201.353E-03     358.392E-03    -157.130E-03    -22.0568E-03     444.100E-03     85.9906E+06     32.7715E+06     18.6270E+06    -59.2949E+06    -46.5696E+06     7.93664E+06     30.7366E+06     27.4102E+06
            1081     12.7025E-03     7.73885E-03     10.0729E-03     344.414E-03    -152.780E-03    -191.664E-03    -190.680E-03     343.430E-03    -152.780E-03    -42.4870E-03     412.878E-03     79.9201E+06     28.1469E+06     15.3208E+06    -57.2020E+06    -48.9529E+06     7.07172E+06     28.1469E+06     21.2874E+06
            1082     12.2613E-03     6.90904E-03     10.1294E-03     330.207E-03    -148.708E-03    -181.347E-03    -179.678E-03     328.537E-03    -148.708E-03    -56.1543E-03     382.805E-03     72.4462E+06     19.2877E+06     6.96902E+06    -58.2215E+06    -53.5663E+06     2.31376E+06     19.2877E+06     16.5446E+06
            1083     11.8519E-03     6.06704E-03     10.1813E-03     316.433E-03    -145.105E-03    -171.028E-03    -168.849E-03     314.254E-03    -145.105E-03    -63.5138E-03     355.019E-03     65.3893E+06     4.74398E+06    -3.70632E+06    -64.2723E+06    -60.8957E+06    -6.62466E+06     4.28575E+06     13.6163E+06
            1084     11.4914E-03     5.21513E-03     10.2398E-03     304.168E-03    -142.012E-03    -161.850E-03    -159.437E-03     301.755E-03    -142.012E-03    -66.0541E-03     331.071E-03     50.4625E+06    -16.8931E+06    -31.5164E+06    -71.7274E+06    -67.3531E+06    -35.4324E+06    -17.3513E+06     10.7511E+06
            1085     11.1726E-03     4.35725E-03     10.2879E-03     293.489E-03    -139.496E-03    -153.643E-03    -151.321E-03     291.167E-03    -139.496E-03    -63.8682E-03     310.877E-03     50.7951E+06    -37.3950E+06    -64.8362E+06    -95.9025E+06    -74.0578E+06    -86.6808E+06    -37.3950E+06     8.09343E+06
            1086     10.9054E-03     3.49109E-03     10.3315E-03     284.509E-03    -137.510E-03    -146.750E-03    -144.781E-03     282.539E-03    -137.510E-03    -57.8997E-03     294.845E-03     74.5084E+06    -51.1932E+06    -79.9898E+06    -135.388E+06    -80.8468E+06    -134.530E+06    -51.1932E+06     6.42173E+06
            1087     10.6904E-03     2.62228E-03     10.3638E-03     277.406E-03    -136.053E-03    -141.190E-03    -139.815E-03     276.031E-03    -136.053E-03    -47.5285E-03     282.784E-03     95.1831E+06    -64.4729E+06    -86.7786E+06    -168.694E+06    -87.2845E+06    -168.188E+06    -64.4729E+06     5.85342E+06
            1088     10.5404E-03     1.74996E-03     10.3941E-03     272.416E-03    -135.125E-03    -137.173E-03    -136.434E-03     271.677E-03    -135.125E-03    -34.0291E-03     274.632E-03     108.240E+06    -79.3052E+06    -93.6399E+06    -193.885E+06    -93.8924E+06    -193.633E+06    -79.3052E+06     4.19915E+06
            1089     10.4466E-03     874.571E-06     10.4099E-03     269.911E-03    -134.307E-03    -135.542E-03    -135.277E-03     269.646E-03    -134.307E-03    -19.3077E-03     270.584E-03     117.451E+06    -91.9752E+06    -100.878E+06    -213.590E+06    -98.6850E+06    -213.516E+06    -94.2421E+06     2.33749E+06
            1090     17.1147E-03     14.0910E-03     9.71363E-03     457.356E-03    -188.209E-03    -268.525E-03    -249.534E-03     438.365E-03    -188.209E-03     220.889E-03     603.785E-03     55.1877E+06     54.4690E+06     29.3467E+06    -8.65078E+06     1.70846E+06     18.9875E+06     54.4690E+06     4.61829E+06
            1091     16.2328E-03     13.3091E-03     9.29359E-03     454.326E-03    -184.952E-03    -269.194E-03    -248.409E-03     433.541E-03    -184.952E-03     235.714E-03     622.199E-03      54.391E+06     43.9381E+06     26.6869E+06    -15.7460E+06    -8.45699E+06     19.3980E+06     43.9381E+06     13.6255E+06
            1092     15.4599E-03     12.5240E-03     9.06402E-03     438.554E-03    -180.918E-03    -257.578E-03    -245.514E-03     426.490E-03    -180.918E-03     181.442E-03     585.210E-03     63.4846E+06     40.9298E+06     32.2701E+06    -25.6667E+06    -15.5774E+06     23.2114E+06     39.8993E+06     19.0423E+06
            1093     14.6926E-03     11.7477E-03     8.82402E-03     427.082E-03    -176.435E-03    -251.142E-03    -241.370E-03     417.310E-03    -176.435E-03     159.836E-03     579.214E-03     66.3524E+06     45.6687E+06     39.2046E+06    -23.5964E+06    -14.2429E+06     32.6802E+06     42.8397E+06     16.7336E+06
            1094     13.9841E-03     10.9658E-03     8.67793E-03     408.365E-03    -171.626E-03    -237.769E-03    -232.378E-03     402.974E-03    -171.626E-03     115.672E-03     553.609E-03     71.8607E+06     43.2940E+06     39.4586E+06    -30.3673E+06    -19.1301E+06     30.7349E+06     40.7806E+06     22.1242E+06
            1095     13.3146E-03     10.1773E-03     8.58498E-03     388.346E-03    -166.565E-03    -222.593E-03    -219.934E-03     385.687E-03    -166.565E-03     76.3555E-03     523.540E-03     82.2886E+06     46.1665E+06     36.4262E+06    -39.8100E+06    -27.6854E+06     25.7827E+06     44.6855E+06     27.5227E+06
            1096     12.7029E-03     9.37531E-03     8.57137E-03     369.843E-03    -161.713E-03    -208.476E-03    -207.395E-03     368.761E-03    -161.713E-03     41.6688E-03     489.963E-03     86.8903E+06     51.3564E+06     32.5863E+06    -42.8917E+06    -31.4439E+06     21.9046E+06     50.5902E+06     24.6542E+06
            1097     12.1422E-03     8.56569E-03     8.60594E-03     355.279E-03    -157.171E-03    -198.300E-03    -197.732E-03     354.711E-03    -157.171E-03     18.5216E-03     459.208E-03     80.2973E+06     47.4092E+06     28.7858E+06    -40.3531E+06    -33.4722E+06     21.9049E+06     47.4092E+06     17.9953E+06
            1098     11.6243E-03     7.74499E-03     8.66824E-03     342.121E-03    -152.777E-03    -189.700E-03    -189.238E-03     341.659E-03    -152.777E-03     1.94233E-03     429.129E-03     71.3750E+06     36.0332E+06     20.4807E+06    -41.4610E+06    -37.7387E+06     16.7583E+06     36.0332E+06     14.4946E+06
            1099     11.1433E-03     6.91533E-03     8.73795E-03     329.932E-03    -148.437E-03    -181.621E-03    -181.102E-03     329.412E-03    -148.437E-03    -11.9069E-03     399.786E-03     67.4958E+06     24.6170E+06     12.4158E+06    -47.8239E+06    -44.5366E+06     9.12853E+06     24.6170E+06     13.5214E+06
            1100     10.7092E-03     6.07850E-03     8.81694E-03     317.399E-03    -144.065E-03    -173.183E-03    -172.516E-03     316.732E-03    -144.065E-03    -22.8224E-03     370.907E-03     63.6391E+06     11.4556E+06     2.45827E+06    -56.0064E+06    -53.2896E+06    -258.576E+03     11.4556E+06     12.2810E+06
            1101     10.3161E-03     5.23243E-03     8.89064E-03     304.475E-03    -139.874E-03    -164.320E-03    -163.461E-03     303.617E-03    -139.874E-03    -31.3058E-03     343.302E-03     54.4093E+06    -8.85402E+06    -25.7636E+06    -68.4187E+06    -64.8056E+06    -29.3767E+06    -8.85402E+06     11.1860E+06
            1102     9.96928E-03     4.37757E-03     8.95675E-03     291.513E-03    -136.009E-03    -155.200E-03    -154.229E-03     290.543E-03    -136.009E-03    -36.1707E-03     317.779E-03     51.4823E+06    -33.2435E+06    -62.4445E+06    -92.6279E+06    -75.9547E+06    -79.1177E+06    -33.2435E+06     9.53045E+06
            1103     9.67472E-03     3.51524E-03     9.01351E-03     278.963E-03    -132.593E-03    -146.164E-03    -145.209E-03     278.008E-03    -132.593E-03    -36.6833E-03     295.003E-03     68.0275E+06    -54.2217E+06    -83.1959E+06    -131.468E+06    -85.4502E+06    -129.214E+06    -54.2217E+06     7.23527E+06
            1104     9.43652E-03     2.64307E-03     9.05881E-03     268.146E-03    -129.784E-03    -138.218E-03    -137.454E-03     267.382E-03    -129.784E-03    -33.1246E-03     276.785E-03     84.4049E+06    -70.0514E+06    -91.3234E+06    -162.844E+06    -91.6878E+06    -162.479E+06    -70.0514E+06     4.54618E+06
            1105     9.26517E-03     1.76553E-03     9.09540E-03     259.501E-03    -127.641E-03    -131.730E-03    -131.288E-03     259.059E-03    -127.641E-03    -25.0436E-03     263.271E-03     98.1789E+06    -83.4089E+06    -97.0366E+06    -187.617E+06    -97.1900E+06    -187.464E+06    -83.4089E+06     2.57966E+06
            1106     9.16173E-03     884.430E-06     9.11894E-03     253.741E-03    -125.920E-03    -127.773E-03    -127.603E-03     253.571E-03    -125.920E-03    -14.6915E-03     254.929E-03     109.740E+06    -93.6516E+06    -103.632E+06    -208.026E+06    -101.458E+06    -207.933E+06    -95.9185E+06     2.26156E+06
            1107     16.2731E-03     14.0790E-03     8.16062E-03     461.191E-03    -189.359E-03    -271.324E-03    -249.675E-03     439.542E-03    -189.359E-03     237.185E-03     610.808E-03     62.3094E+06     41.3217E+06     19.9913E+06    -27.9794E+06    -10.5229E+06     2.53478E+06     41.3217E+06     6.93113E+06
            1108     15.3836E-03     13.2898E-03     7.74834E-03     460.967E-03    -186.297E-03    -274.732E-03    -250.327E-03     436.562E-03    -186.297E-03     258.839E-03     639.727E-03        61.2E+06     39.4231E+06     27.7256E+06    -25.7727E+06    -12.3126E+06     14.2654E+06     39.4231E+06     12.6522E+06
            1109     14.5945E-03     12.5142E-03     7.50957E-03     441.611E-03    -182.321E-03    -259.328E-03    -244.013E-03     426.296E-03    -182.321E-03     204.400E-03     600.699E-03     57.2533E+06     41.4089E+06     34.6759E+06    -18.6678E+06    -5.54070E+06     21.5488E+06     41.4089E+06     11.5891E+06
            1110     13.8132E-03     11.7314E-03     7.29232E-03     424.884E-03    -178.079E-03    -247.019E-03    -234.165E-03     412.029E-03    -178.079E-03     182.556E-03     587.452E-03     62.8547E+06     43.8550E+06     36.9081E+06    -22.1206E+06    -7.44284E+06     24.0289E+06     42.0564E+06     21.3204E+06
            1111     13.0768E-03     10.9436E-03     7.15821E-03     401.437E-03    -174.090E-03    -227.961E-03    -219.277E-03     392.753E-03    -174.090E-03     144.950E-03     555.997E-03     77.8971E+06     55.6845E+06     41.0885E+06    -27.2673E+06    -14.4312E+06     30.3179E+06     53.6189E+06     26.1506E+06
            1112     12.3852E-03     10.1418E-03     7.10890E-03     379.803E-03    -170.395E-03    -210.130E-03    -204.096E-03     373.769E-03    -170.395E-03     115.276E-03     525.370E-03     82.5884E+06     64.8935E+06     42.8587E+06    -25.2759E+06    -15.5612E+06     33.4110E+06     64.6264E+06     21.4381E+06
            1113     11.7365E-03     9.32953E-03     7.12083E-03     363.599E-03    -166.962E-03    -197.223E-03    -192.991E-03     359.367E-03    -166.962E-03     92.2290E-03     496.257E-03     77.4635E+06     61.9728E+06     42.0554E+06    -23.2433E+06    -16.6319E+06     35.4439E+06     61.9728E+06     16.3472E+06
            1114     11.1298E-03     8.50824E-03     7.17519E-03     353.320E-03    -163.640E-03    -190.083E-03    -186.916E-03     350.153E-03    -163.640E-03     76.6915E-03     470.908E-03     70.2802E+06     49.4464E+06     33.4313E+06    -27.0960E+06    -22.8611E+06     29.1964E+06     49.4464E+06     14.3881E+06
            1115     10.5700E-03     7.68766E-03     7.25430E-03     345.578E-03    -160.138E-03    -185.924E-03    -183.418E-03     343.072E-03    -160.138E-03     64.9064E-03     447.037E-03     68.3915E+06     38.1253E+06     24.2396E+06    -35.6699E+06    -31.9498E+06     20.5195E+06     38.1253E+06     14.3615E+06
            1116     10.0507E-03     6.86200E-03     7.34362E-03     338.275E-03    -156.360E-03    -182.277E-03    -180.316E-03     336.314E-03    -156.360E-03     53.0664E-03     422.567E-03     68.7518E+06     29.8246E+06     15.6159E+06    -44.6939E+06    -41.4095E+06     12.3315E+06     29.8246E+06     13.6489E+06
            1117     9.57716E-03     6.03284E-03     7.43821E-03     329.434E-03    -152.031E-03    -177.564E-03    -176.104E-03     327.974E-03    -152.031E-03     40.7912E-03     396.627E-03     67.5780E+06     18.5788E+06     6.00687E+06    -54.2293E+06    -51.0446E+06     2.82220E+06     18.5788E+06     13.4667E+06
            1118     9.15189E-03     5.19794E-03     7.53250E-03     318.363E-03    -147.427E-03    -171.104E-03    -170.040E-03     317.300E-03    -147.427E-03     28.6133E-03     369.227E-03     60.3552E+06    -525.650E+03    -21.6645E+06    -67.2032E+06    -62.2520E+06    -26.6157E+06    -525.650E+03     12.9903E+06
            1119     8.77320E-03     4.35383E-03     7.61664E-03     305.509E-03    -142.831E-03    -162.911E-03    -162.212E-03     304.810E-03    -142.831E-03     16.1878E-03     341.434E-03     57.7908E+06    -24.1304E+06    -59.2814E+06    -90.7726E+06    -74.2145E+06    -75.8396E+06    -24.1304E+06     12.3764E+06
            1120     8.45220E-03     3.49934E-03     7.69378E-03     291.687E-03    -138.311E-03    -153.548E-03    -153.126E-03     291.265E-03    -138.311E-03     6.10765E-03     314.913E-03     66.3615E+06    -49.0815E+06    -81.6789E+06    -124.894E+06    -85.2979E+06    -121.275E+06    -49.0815E+06     9.87210E+06
            1121     8.19175E-03     2.63690E-03     7.75574E-03     278.420E-03    -134.275E-03    -144.179E-03    -143.900E-03     278.140E-03    -134.275E-03    -304.052E-06     291.557E-03     73.0686E+06    -75.4214E+06    -95.7357E+06    -156.196E+06    -96.5811E+06    -155.351E+06    -75.4214E+06     5.33494E+06
            1122     8.00169E-03     1.76461E-03     7.80469E-03     267.224E-03    -131.054E-03    -136.092E-03    -135.928E-03     267.059E-03    -131.054E-03    -2.90316E-03     273.198E-03     86.8165E+06    -93.5649E+06    -103.360E+06    -184.736E+06    -103.563E+06    -184.533E+06    -93.5649E+06     2.77269E+06
            1123     7.88925E-03     884.350E-06     7.83953E-03     259.266E-03    -128.543E-03    -130.695E-03    -130.636E-03     259.207E-03    -128.543E-03    -1.98878E-03     261.254E-03     97.5673E+06    -103.931E+06    -109.218E+06    -203.993E+06    -109.480E+06    -203.689E+06    -103.973E+06     96.1155E+03
            1124     15.5085E-03     14.0362E-03     6.59527E-03     461.332E-03    -191.847E-03    -269.274E-03    -241.826E-03     433.884E-03    -191.847E-03     271.177E-03     628.930E-03     88.3482E+06     54.6844E+06     32.5118E+06    -41.6035E+06     1.92774E+06     795.230E+03     42.8697E+06     4.09066E+06
            1125     14.6341E-03     13.2583E-03     6.19462E-03     466.074E-03    -189.302E-03    -276.790E-03    -246.791E-03     436.075E-03    -189.302E-03     288.638E-03     660.952E-03     80.2722E+06     49.0372E+06     37.9620E+06    -36.0239E+06     14.0520E+06    -4.92422E+06     41.8475E+06     -55.914E+03
            1126     13.8237E-03     12.4711E-03     5.96374E-03     442.336E-03    -185.814E-03    -256.513E-03    -236.585E-03     422.408E-03    -185.814E-03     232.108E-03     606.633E-03     76.9572E+06     49.1431E+06     38.5712E+06    -32.3735E+06     12.4653E+06     510.267E+03     42.3652E+06     23.8481E+06
            1127     13.0263E-03     11.6804E-03     5.76647E-03     417.332E-03    -182.680E-03    -234.579E-03    -218.183E-03     400.935E-03    -182.680E-03     203.375E-03     573.165E-03     78.4860E+06     64.7072E+06     49.2176E+06    -19.1379E+06     482.267E+03     31.3832E+06     62.9214E+06     29.8097E+06
            1128     12.2645E-03     10.8712E-03     5.67760E-03     388.859E-03    -180.365E-03    -208.519E-03    -196.501E-03     376.840E-03    -180.365E-03     167.251E-03     533.767E-03     78.0289E+06     73.5990E+06     50.1570E+06    -11.7376E+06    -3.12279E+06     41.5851E+06     73.5561E+06     19.8161E+06
            1129     11.5290E-03     10.0472E-03     5.65438E-03     369.802E-03    -176.832E-03    -193.096E-03    -181.264E-03     359.976E-03    -178.838E-03     146.521E-03     505.588E-03     73.4620E+06     67.4739E+06     49.2488E+06    -12.3270E+06    -6.42288E+06     43.3876E+06     67.4310E+06     15.5270E+06
            1130     10.8320E-03     9.22043E-03     5.68467E-03     360.580E-03    -173.224E-03    -187.636E-03    -174.535E-03     352.014E-03    -177.758E-03     134.240E-03     484.873E-03     70.3512E+06     57.2578E+06     43.0345E+06    -18.8673E+06    -13.7377E+06     37.9049E+06     57.2578E+06     15.5996E+06
            1131     10.1766E-03     8.39464E-03     5.75272E-03     356.906E-03    -171.953E-03    -185.134E-03    -172.524E-03     349.063E-03    -176.720E-03     126.978E-03     467.746E-03     70.1157E+06     48.3617E+06     35.8244E+06    -26.8581E+06    -21.6671E+06     30.6334E+06     48.3617E+06     16.8779E+06
            1132     9.55291E-03     7.56595E-03     5.83218E-03     356.035E-03    -171.689E-03    -184.495E-03    -173.423E-03     348.614E-03    -175.340E-03     122.792E-03     452.979E-03     72.0067E+06     43.1630E+06     28.8782E+06    -34.6741E+06    -30.0986E+06     24.3027E+06     43.1630E+06     16.3726E+06
            1133     8.98032E-03     6.74303E-03     5.93107E-03     355.459E-03    -171.990E-03    -183.747E-03    -175.223E-03     348.461E-03    -173.517E-03     118.426E-03     437.836E-03     74.0687E+06     37.3711E+06     20.3845E+06    -43.5662E+06    -39.8192E+06     16.6375E+06     37.3711E+06     14.9044E+06
            1134     8.45128E-03     5.91880E-03     6.03257E-03     353.116E-03    -170.751E-03    -182.724E-03    -176.282E-03     346.788E-03    -170.865E-03     111.329E-03     420.614E-03     71.4712E+06     24.7821E+06     7.25330E+06    -53.7520E+06    -50.5255E+06     4.02680E+06     24.7821E+06     13.6010E+06
            1135     7.97762E-03     5.09305E-03     6.14029E-03     348.198E-03    -167.481E-03    -181.155E-03    -175.930E-03     342.972E-03    -167.481E-03     99.6849E-03     400.877E-03     65.1150E+06     6.72037E+06    -22.6792E+06    -66.4097E+06    -60.8428E+06    -28.2461E+06     6.72037E+06     13.3562E+06
            1136     7.56040E-03     4.26442E-03     6.24295E-03     340.188E-03    -163.651E-03    -176.945E-03    -172.999E-03     336.242E-03    -163.651E-03     84.1454E-03     378.619E-03     65.2722E+06    -13.3843E+06    -57.7470E+06    -88.0949E+06    -71.1977E+06    -74.6442E+06    -13.3843E+06     12.0847E+06
            1137     7.20567E-03     3.42975E-03     6.33708E-03     329.711E-03    -159.522E-03    -170.521E-03    -167.819E-03     327.009E-03    -159.522E-03     66.6909E-03     355.593E-03     69.9909E+06    -36.1768E+06    -77.8363E+06    -116.335E+06    -81.0005E+06    -113.171E+06    -36.1768E+06     9.15946E+06
            1138     6.92037E-03     2.58309E-03     6.42022E-03     318.408E-03    -155.610E-03    -162.995E-03    -161.422E-03     316.836E-03    -155.610E-03     48.8297E-03     333.638E-03     80.2894E+06    -60.6735E+06    -89.7055E+06    -150.652E+06    -90.7061E+06    -149.651E+06    -60.6735E+06     6.20814E+06
            1139     6.71093E-03     1.72829E-03     6.48456E-03     308.321E-03    -152.317E-03    -155.978E-03    -155.258E-03     307.602E-03    -152.317E-03     31.6720E-03     315.384E-03     90.5411E+06    -83.7038E+06    -101.783E+06    -181.566E+06    -102.166E+06    -181.183E+06    -83.7038E+06     4.67943E+06
            1140     6.58555E-03     866.272E-06     6.52833E-03     301.048E-03    -149.755E-03    -151.264E-03    -150.812E-03     300.811E-03    -149.970E-03     17.3487E-03     303.502E-03     91.0721E+06    -104.677E+06    -112.578E+06    -199.074E+06    -111.932E+06    -198.649E+06    -105.748E+06     1.88642E+06
            1141     14.8780E-03     13.9943E-03     5.05126E-03     474.578E-03    -196.007E-03    -278.395E-03    -238.610E-03     434.793E-03    -196.007E-03     332.360E-03     686.890E-03     124.158E+06     81.6240E+06     33.9130E+06    -56.4940E+06     23.2446E+06     1.88537E+06     33.9130E+06     3.67734E+06
            1142     13.9722E-03     13.1824E-03     4.63101E-03     475.078E-03    -193.946E-03    -281.216E-03    -248.240E-03     442.103E-03    -193.946E-03     303.237E-03     651.717E-03     102.842E+06     46.4046E+06     19.9312E+06    -65.6775E+06     3.70717E+06    -22.9801E+06     19.9312E+06     18.2616E+06
            1143     13.1592E-03     12.3966E-03     4.41475E-03     437.117E-03    -191.195E-03    -246.107E-03    -227.418E-03     418.428E-03    -191.195E-03     221.901E-03     569.007E-03     89.9391E+06     40.5273E+06     16.7024E+06    -57.4617E+06    -11.4725E+06    -15.7901E+06     27.0307E+06     21.4594E+06
            1144     12.3504E-03     11.5891E-03     4.26928E-03     401.988E-03    -186.271E-03    -215.717E-03    -197.251E-03     387.004E-03    -189.753E-03     188.695E-03     522.122E-03     87.7131E+06     82.6031E+06     55.5910E+06    -14.4927E+06    -3.46388E+06     50.3773E+06     76.7880E+06     20.2590E+06
            1145     11.5616E-03     10.7641E-03     4.21958E-03     374.740E-03    -178.370E-03    -196.344E-03    -172.949E-03     362.726E-03    -189.750E-03     162.089E-03     485.058E-03     69.6887E+06     67.3053E+06     51.3203E+06    -7.69193E+06    -1.53943E+06     49.2401E+06     63.2330E+06     16.8927E+06
            1146     10.7843E-03     9.92370E-03     4.22163E-03     361.218E-03    -170.153E-03    -191.219E-03    -159.332E-03     350.069E-03    -190.890E-03     152.346E-03     463.057E-03     71.2577E+06     59.8140E+06     51.9676E+06    -14.7591E+06    -8.83279E+06     46.0842E+06     59.7710E+06     18.0367E+06
            1147     10.0253E-03     9.07711E-03     4.25588E-03     358.749E-03    -166.023E-03    -192.803E-03    -154.934E-03     347.659E-03    -192.803E-03     150.842E-03     450.973E-03     75.5636E+06     58.2772E+06     44.2569E+06    -23.0272E+06    -17.6643E+06     38.8940E+06     58.2772E+06     17.8118E+06
            1148     9.30077E-03     8.23504E-03     4.32301E-03     363.788E-03    -168.647E-03    -194.987E-03    -157.159E-03     352.301E-03    -194.987E-03     154.506E-03     445.821E-03     76.5161E+06     53.8380E+06     37.7682E+06    -29.2403E+06    -25.0332E+06     33.5611E+06     53.8380E+06     16.0778E+06
            1149     8.61228E-03     7.40049E-03     4.40501E-03     370.841E-03    -173.881E-03    -196.892E-03    -161.999E-03     358.959E-03    -196.892E-03     158.828E-03     442.689E-03     79.0822E+06     51.7376E+06     32.2836E+06    -35.0600E+06    -31.4181E+06     28.6417E+06     51.7376E+06     14.4560E+06
            1150     7.95999E-03     6.56731E-03     4.49799E-03     378.578E-03    -180.325E-03    -198.410E-03    -168.300E-03     366.552E-03    -198.410E-03     161.845E-03     440.274E-03     80.6199E+06     48.2958E+06     26.2278E+06    -40.8790E+06    -38.3992E+06     23.7480E+06     48.2958E+06     11.9044E+06
            1151     7.35707E-03     5.74363E-03     4.59751E-03     386.345E-03    -186.183E-03    -200.279E-03    -175.714E-03     374.761E-03    -199.164E-03     161.010E-03     437.261E-03     76.3601E+06     37.1642E+06     7.02684E+06    -48.2303E+06    -46.3855E+06     5.18203E+06     37.1642E+06     8.75253E+06
            1152     6.81246E-03     4.92623E-03     4.70553E-03     391.303E-03    -189.479E-03    -202.015E-03    -182.105E-03     380.977E-03    -199.063E-03     153.364E-03     431.871E-03     71.4213E+06     21.8063E+06    -27.0046E+06    -56.8678E+06    -53.6928E+06    -30.1795E+06     21.8063E+06     5.92386E+06
            1153     6.33088E-03     4.11077E-03     4.81472E-03     393.347E-03    -191.574E-03    -201.940E-03    -186.741E-03     384.813E-03    -198.239E-03     140.021E-03     423.982E-03     76.0094E+06     4.77418E+06    -52.6404E+06    -80.0248E+06    -59.6016E+06    -73.0636E+06     4.77418E+06     2.88920E+06
            1154     5.91911E-03     3.29368E-03     4.91808E-03     393.058E-03    -192.755E-03    -200.330E-03    -189.917E-03     386.695E-03    -196.806E-03     120.878E-03     414.021E-03     86.1089E+06    -16.1404E+06    -65.2641E+06    -114.871E+06    -67.2165E+06    -112.919E+06    -16.1404E+06     1.44132E+06
            1155     5.58958E-03     2.47788E-03     5.01034E-03     390.674E-03    -193.126E-03    -197.602E-03    -191.619E-03     386.628E-03    -195.064E-03     95.6386E-03     403.241E-03     102.354E+06    -37.6102E+06    -75.7216E+06    -152.864E+06    -76.0383E+06    -152.547E+06    -37.6102E+06     2.80645E+06
            1156     5.34557E-03     1.65566E-03     5.08271E-03     387.051E-03    -192.536E-03    -194.510E-03    -191.761E-03     385.037E-03    -193.271E-03     66.1281E-03     393.187E-03     108.083E+06    -60.3119E+06    -87.0142E+06    -179.119E+06    -87.4535E+06    -178.680E+06    -60.3119E+06     4.29171E+06
            1157     5.20099E-03     829.593E-06     5.13440E-03     383.613E-03    -191.321E-03    -192.278E-03    -191.004E-03     382.934E-03    -191.916E-03     36.8096E-03     385.992E-03     96.9233E+06    -88.2945E+06    -100.209E+06    -190.288E+06    -99.0502E+06    -189.929E+06    -89.8125E+06     5.36670E+06
            1158     14.2934E-03     13.8740E-03     3.43699E-03     503.376E-03    -200.675E-03    -302.917E-03    -257.846E-03     458.305E-03    -200.675E-03     353.388E-03     709.571E-03     103.716E+06     21.1694E+06    -42.3815E+06    -94.6112E+06    -35.3063E+06    -43.3528E+06    -37.1642E+06    -3.66324E+06
            1159     13.4620E-03     13.1147E-03     3.03806E-03     473.999E-03    -198.163E-03    -276.291E-03    -256.379E-03     454.087E-03    -198.163E-03     222.659E-03     581.953E-03     97.2495E+06     26.5955E+06    -16.4989E+06    -80.0993E+06    -36.4019E+06    -13.9226E+06    -19.6783E+06     18.7654E+06
            1160     12.6631E-03     12.3288E-03     2.89056E-03     413.296E-03    -190.800E-03    -222.866E-03    -207.474E-03     403.425E-03    -196.322E-03     151.438E-03     490.525E-03     85.6091E+06     47.3858E+06     20.3764E+06    -47.4019E+06    -20.9019E+06     10.5576E+06     30.7046E+06    -3.09858E+06
            1161     11.8427E-03     11.5041E-03     2.81131E-03     377.463E-03    -175.004E-03    -202.506E-03    -171.626E-03     368.587E-03    -197.008E-03     137.759E-03     449.269E-03     81.5811E+06     63.9572E+06     38.7027E+06    -27.2192E+06    -11.4170E+06     32.3393E+06     54.5183E+06    -4.39225E+06
            1162     11.0097E-03     10.6501E-03     2.79057E-03     357.802E-03    -158.132E-03    -199.805E-03    -149.704E-03     349.374E-03    -199.805E-03     129.733E-03     423.155E-03     67.4620E+06     62.2953E+06     46.7708E+06    -11.3142E+06    -7.71006E+06     47.1960E+06     58.2660E+06     13.4549E+06
            1163     10.1835E-03     9.78921E-03     2.80619E-03     352.746E-03    -149.384E-03    -203.868E-03    -140.355E-03     343.716E-03    -203.868E-03     132.753E-03     412.397E-03     72.6575E+06     63.9678E+06     51.1830E+06    -13.9611E+06    -8.99826E+06     46.2202E+06     63.9678E+06     16.7090E+06
            1164     9.36784E-03     8.92494E-03     2.84640E-03     357.952E-03    -149.364E-03    -208.923E-03    -139.694E-03     348.282E-03    -208.923E-03     138.075E-03     410.693E-03     74.9529E+06     63.9342E+06     48.9751E+06    -17.1614E+06    -12.9963E+06     44.8100E+06     63.9342E+06     16.0061E+06
            1165     8.56707E-03     8.06316E-03     2.89486E-03     370.362E-03    -155.827E-03    -214.606E-03    -145.608E-03     360.143E-03    -214.606E-03     144.244E-03     416.376E-03     74.8388E+06     59.6259E+06     43.7897E+06    -21.7745E+06    -19.0498E+06      41.065E+06     59.6259E+06     12.1399E+06
            1166     7.79718E-03     7.21261E-03     2.96213E-03     386.497E-03    -166.275E-03    -220.307E-03    -155.486E-03     375.708E-03    -220.307E-03     151.667E-03     426.298E-03     73.8043E+06     53.8216E+06     38.5391E+06    -26.0035E+06    -24.9740E+06     37.5095E+06     53.8216E+06     6.29989E+06
            1167     7.06233E-03     6.37521E-03     3.03864E-03     404.227E-03    -178.463E-03    -225.824E-03    -167.282E-03     393.047E-03    -225.824E-03     158.502E-03     437.992E-03     69.9939E+06     46.1605E+06     29.7932E+06    -30.1153E+06    -28.7973E+06     31.1303E+06     43.5054E+06     987.098E+03
            1168     6.36234E-03     5.54758E-03     3.11509E-03     421.967E-03    -190.976E-03    -230.909E-03    -180.086E-03     411.077E-03    -230.909E-03     160.422E-03     449.698E-03     63.1952E+06     35.8095E+06     10.5272E+06    -34.6202E+06    -30.8514E+06     9.41353E+06     33.1545E+06    -4.91606E+06
            1169     5.71673E-03     4.73204E-03     3.20760E-03     439.105E-03    -203.502E-03    -235.548E-03    -193.513E-03     429.117E-03    -235.548E-03     157.296E-03     461.469E-03     67.3520E+06     24.4958E+06    -15.5413E+06    -49.3268E+06    -32.3020E+06    -32.5661E+06     24.4958E+06    -10.6823E+06
            1170     5.12916E-03     3.92693E-03     3.29962E-03     455.200E-03    -215.792E-03    -239.432E-03    -207.254E-03     446.662E-03    -239.432E-03     148.554E-03     472.611E-03     89.6840E+06     12.7392E+06    -31.7911E+06    -86.0325E+06    -35.5442E+06    -82.2794E+06     12.7392E+06    -11.7306E+06
            1171     4.61753E-03     3.13317E-03     3.39188E-03     468.972E-03    -226.517E-03    -242.354E-03    -219.986E-03     462.441E-03    -242.354E-03     132.136E-03     481.160E-03     113.735E+06    -2.51656E+06    -40.0860E+06    -128.828E+06    -41.0583E+06    -127.856E+06    -2.51656E+06    -7.06425E+06
            1172     4.19052E-03     2.34308E-03     3.47425E-03     479.613E-03    -235.067E-03    -244.630E-03    -230.757E-03     475.304E-03    -244.630E-03     108.338E-03     487.104E-03     131.006E+06    -21.8990E+06    -50.0282E+06    -163.916E+06    -50.2103E+06    -163.734E+06    -21.8990E+06    -1.48910E+06
            1173     3.87286E-03     1.56147E-03     3.54414E-03     487.357E-03    -241.310E-03    -246.123E-03    -239.047E-03     485.095E-03    -246.123E-03     78.3668E-03     491.396E-03     132.064E+06    -40.3398E+06    -59.5212E+06    -180.609E+06    -59.7125E+06    -180.418E+06    -40.3398E+06     2.41348E+06
            1174     3.67921E-03     780.096E-06     3.59556E-03     492.166E-03    -244.799E-03    -247.348E-03    -245.014E-03     491.358E-03    -246.325E-03     45.3939E-03     494.127E-03     114.190E+06    -60.3492E+06    -68.6702E+06    -178.323E+06    -68.2128E+06    -178.045E+06    -61.0851E+06     4.54651E+06
            1175     13.9585E-03     13.8535E-03     1.70874E-03     578.813E-03    -204.558E-03    -374.192E-03    -344.022E-03     548.642E-03    -204.558E-03     289.532E-03     699.478E-03     110.032E+06     35.3333E+06    -26.2060E+06    -87.1874E+06    -13.1929E+06    -43.8786E+06    -20.9886E+06     28.5662E+06
            1176     13.2104E-03     13.1245E-03     1.50432E-03     449.717E-03    -197.258E-03    -252.874E-03    -245.797E-03     445.482E-03    -200.101E-03     97.5224E-03     500.980E-03     113.619E+06     56.0883E+06     3.26924E+06    -68.7683E+06    -870.688E+03    -8.62987E+06      89.844E+03    -27.3324E+06
            1177     12.3749E-03     12.2929E-03     1.42238E-03     380.507E-03    -176.781E-03    -204.143E-03    -178.577E-03     377.724E-03    -199.564E-03     72.9769E-03     420.064E-03     114.498E+06     81.1636E+06     38.4778E+06    -46.7297E+06     12.7034E+06     16.6548E+06     43.5533E+06    -21.6400E+06
            1178     11.5159E-03     11.4321E-03     1.38603E-03     351.362E-03    -149.176E-03    -202.495E-03    -146.008E-03     348.193E-03    -202.495E-03     72.3868E-03     387.021E-03     74.2573E+06     61.2703E+06     36.2954E+06    -21.7470E+06     8.08603E+06     11.8718E+06     55.8608E+06    -3.85498E+06
            1179     10.6505E-03     10.5598E-03     1.38681E-03     341.725E-03    -134.534E-03    -207.705E-03    -131.069E-03     338.259E-03    -207.705E-03     74.4165E-03     374.099E-03     66.2222E+06     69.5505E+06     39.9107E+06    -5.33913E+06     1.17097E+06     33.4006E+06     69.5505E+06     1.51024E+06
            1180     9.77497E-03     9.67433E-03     1.39911E-03     345.969E-03    -132.231E-03    -214.101E-03    -128.223E-03     341.961E-03    -214.101E-03     79.6699E-03     374.890E-03     63.4090E+06     71.8181E+06     47.5227E+06     758.447E+03     2.72964E+06     45.5515E+06     71.8181E+06     9.09087E+06
            1181     8.91171E-03     8.79794E-03     1.41943E-03     358.575E-03    -137.151E-03    -221.565E-03    -132.763E-03     354.187E-03    -221.565E-03     84.5293E-03     383.052E-03     59.7715E+06     64.7056E+06     52.3357E+06    -61.6593E+03     2.05536E+06     50.9032E+06     64.0211E+06     9.65045E+06
            1182     8.06154E-03     7.92947E-03     1.45325E-03     376.679E-03    -146.914E-03    -229.972E-03    -142.392E-03     372.158E-03    -229.972E-03     88.5250E-03     396.999E-03     55.1138E+06     58.4958E+06     46.7398E+06    -994.462E+03     -46.847E+03     51.5868E+06     52.7012E+06     5.95736E+06
            1183     7.22407E-03     7.06866E-03     1.49037E-03     399.284E-03    -160.590E-03    -238.669E-03    -155.903E-03     394.597E-03    -238.669E-03     93.0223E-03     416.014E-03     51.8306E+06     52.5524E+06     37.2006E+06    -3.78992E+06    -3.43473E+06     48.5623E+06     40.8354E+06    -171.490E+03
            1184     6.40873E-03     6.22329E-03     1.53051E-03     424.478E-03    -176.610E-03    -247.512E-03    -171.727E-03     419.595E-03    -247.512E-03     97.8433E-03     437.735E-03     47.4913E+06     41.1307E+06     22.4480E+06    -9.50548E+06    -8.15684E+06     39.5687E+06     22.6613E+06    -6.62256E+06
            1185     5.61980E-03     5.39314E-03     1.57992E-03     450.733E-03    -193.981E-03    -256.366E-03    -189.212E-03     445.964E-03    -256.366E-03     99.8570E-03     461.172E-03     40.2593E+06     22.9599E+06     584.365E+03    -20.0184E+06    -12.6606E+06     12.8443E+06     3.34215E+06    -12.7592E+06
            1186     4.85897E-03     4.57771E-03     1.62916E-03     478.517E-03    -213.035E-03    -265.075E-03    -208.658E-03     474.140E-03    -265.075E-03     98.8213E-03     486.590E-03     54.9733E+06     4.18998E+06    -14.3712E+06    -55.1919E+06    -18.0642E+06    -41.7748E+06    -5.53414E+06    -16.1166E+06
            1187     4.13913E-03     3.78183E-03     1.68231E-03     506.440E-03    -232.916E-03    -273.235E-03    -229.132E-03     502.656E-03    -273.235E-03     94.7974E-03     512.360E-03     94.0906E+06    -8.16165E+06    -23.0930E+06    -108.335E+06    -24.6825E+06    -104.777E+06    -10.1306E+06    -13.7622E+06
            1188     3.46668E-03     3.00069E-03     1.73600E-03     532.766E-03    -251.934E-03    -280.461E-03    -248.987E-03     529.819E-03    -280.461E-03     86.3010E-03     536.799E-03     131.620E+06    -15.7063E+06    -30.4532E+06    -153.706E+06    -31.1870E+06    -152.973E+06    -15.7063E+06    -7.41095E+06
            1189     2.86381E-03     2.23735E-03     1.78765E-03     555.650E-03    -268.682E-03    -286.650E-03    -266.718E-03     553.686E-03    -286.650E-03     71.9713E-03     558.254E-03     150.155E+06    -23.1913E+06    -36.3115E+06    -179.373E+06    -36.4799E+06    -179.205E+06    -23.1913E+06    -852.778E+03
            1190     2.35612E-03     1.48145E-03     1.83210E-03     573.908E-03    -282.412E-03    -291.302E-03    -281.371E-03     572.867E-03    -291.302E-03     52.0262E-03     575.691E-03     142.295E+06    -32.1242E+06    -42.4074E+06    -179.276E+06    -42.4428E+06    -179.241E+06    -32.1242E+06     1.74674E+06
            1191     2.00262E-03     737.521E-06     1.86186E-03     586.009E-03    -290.694E-03    -295.247E-03    -291.328E-03     585.620E-03    -294.224E-03     30.8127E-03     587.388E-03     125.314E+06    -41.9557E+06    -47.6940E+06    -169.988E+06    -47.5961E+06    -169.839E+06    -42.2023E+06     625.538E+03
            1192     81.6116E-03     826.812E-06     81.6074E-03     380.364E-03    -189.750E-03    -190.653E-03    -190.204E-03     380.359E-03    -190.194E-03    -3.29672E-03     381.857E-03     178.904E+06    -121.392E+06    -129.017E+06    -303.974E+06    -126.620E+06    -303.967E+06    -123.796E+06     745.235E+03
            1193     81.6112E-03     1.65508E-03     81.5944E-03     380.933E-03    -190.277E-03    -190.724E-03    -190.604E-03     380.922E-03    -190.386E-03    -4.97054E-03     385.414E-03     168.988E+06    -111.563E+06    -123.147E+06    -286.004E+06    -123.150E+06    -286.001E+06    -111.563E+06     65.0881E+03
            1194     81.6170E-03     2.47976E-03     81.5793E-03     380.793E-03    -190.169E-03    -190.689E-03    -190.319E-03     380.782E-03    -190.527E-03    -4.84014E-03     390.250E-03     155.638E+06    -95.0254E+06    -115.813E+06    -259.896E+06    -115.815E+06    -259.893E+06    -95.0254E+06    -106.759E+03
            1195     81.6292E-03     3.30681E-03     81.5622E-03     380.139E-03    -189.599E-03    -190.611E-03    -189.684E-03     380.134E-03    -190.521E-03    -2.12519E-03     397.236E-03     137.806E+06    -75.6446E+06    -108.717E+06    -226.754E+06    -108.725E+06    -226.746E+06    -75.6446E+06     705.739E+03
            1196     81.6483E-03     4.13469E-03     81.5435E-03     379.316E-03    -188.889E-03    -190.483E-03    -188.885E-03     379.311E-03    -190.483E-03     1.85811E-03     406.320E-03     117.317E+06    -56.1334E+06    -100.849E+06    -188.875E+06    -100.862E+06    -188.862E+06    -56.1334E+06     704.023E+03
            1197     81.6823E-03     4.96323E-03     81.5313E-03     378.279E-03    -188.084E-03    -190.418E-03    -188.045E-03     378.240E-03    -190.418E-03     8.20524E-03     417.183E-03     93.1252E+06    -36.7399E+06    -91.0673E+06    -143.307E+06    -91.0827E+06    -143.291E+06    -36.7399E+06     425.554E+03
            1198     81.7385E-03     5.78900E-03     81.5333E-03     377.598E-03    -187.623E-03    -190.381E-03    -187.460E-03     377.435E-03    -190.381E-03     18.2470E-03     431.189E-03     72.0958E+06    -18.4778E+06    -76.7161E+06    -98.4706E+06    -81.9061E+06    -93.2806E+06    -18.4778E+06     413.977E+03
            1199     81.8119E-03     6.61607E-03     81.5439E-03     376.925E-03    -187.019E-03    -190.348E-03    -186.533E-03     376.439E-03    -190.348E-03     32.0551E-03     448.134E-03     69.3695E+06     1.03904E+06    -31.4520E+06    -72.3391E+06    -72.2962E+06    -31.4948E+06     1.03904E+06      608.65E+03
            1200     81.9148E-03     7.44518E-03     81.5758E-03     376.312E-03    -186.301E-03    -190.234E-03    -185.232E-03     375.243E-03    -190.234E-03     48.2825E-03     466.971E-03     76.3534E+06     17.4582E+06     8.95511E+06    -62.7857E+06    -62.7414E+06     8.91088E+06     17.4582E+06     621.194E+03
            1201     82.0447E-03     8.27332E-03     81.6265E-03     376.433E-03    -186.472E-03    -190.233E-03    -184.380E-03     374.342E-03    -190.233E-03     67.5844E-03     487.963E-03     80.8919E+06     31.5668E+06     17.9710E+06    -55.2028E+06    -55.1670E+06     17.9352E+06     31.5668E+06     474.438E+03
            1202     82.2145E-03     9.10028E-03     81.7093E-03     377.681E-03    -187.994E-03    -190.275E-03    -183.686E-03     373.373E-03    -190.275E-03     96.6978E-03     513.961E-03     87.6029E+06     48.9002E+06     27.8634E+06    -47.2746E+06    -47.2664E+06     27.8552E+06     48.9002E+06    -65.3674E+03
            1203     82.4439E-03     9.92722E-03     81.8440E-03     380.069E-03    -189.698E-03    -190.769E-03    -182.691E-03     372.566E-03    -190.274E-03     129.166E-03     540.418E-03     91.7255E+06     63.9879E+06     35.8917E+06    -38.4445E+06    -38.4266E+06     35.8737E+06     63.9879E+06    -911.021E+03
            1204     82.7249E-03     10.7547E-03     82.0229E-03     382.996E-03    -190.202E-03    -192.927E-03    -182.386E-03     372.454E-03    -190.202E-03     154.073E-03     557.624E-03     90.1388E+06     70.6749E+06     40.9292E+06    -30.5677E+06    -30.5487E+06     40.9103E+06     70.6749E+06    -92.0504E+03
            1205     83.0436E-03     11.5864E-03     82.2314E-03     390.611E-03    -190.051E-03    -200.458E-03    -184.708E-03     374.861E-03    -190.051E-03     189.111E-03     576.256E-03     85.1228E+06     72.2539E+06     46.5096E+06    -22.7611E+06    -22.7388E+06     46.4872E+06     72.2539E+06     1.11978E+06
            1206     83.4438E-03     12.4141E-03     82.5152E-03     393.623E-03    -189.868E-03    -203.564E-03    -187.328E-03     377.387E-03    -189.868E-03     193.244E-03     573.748E-03     80.5026E+06     73.4732E+06     51.5845E+06    -15.7003E+06    -15.6731E+06     51.5572E+06     73.4732E+06     1.20810E+06
            1207     83.7991E-03     13.2386E-03     82.7468E-03     407.673E-03    -190.006E-03    -217.830E-03    -193.131E-03     382.975E-03    -190.006E-03     237.194E-03     604.982E-03     78.9251E+06     76.3653E+06     57.4464E+06    -10.2833E+06    -10.2659E+06     57.4290E+06     76.3653E+06     791.944E+03
            1208     84.3569E-03     14.0692E-03     83.1754E-03     405.102E-03    -190.257E-03    -214.885E-03    -194.276E-03     384.493E-03    -190.257E-03     202.955E-03     570.045E-03     78.6099E+06     81.9451E+06     62.1119E+06    -4.64744E+06    -4.64129E+06     62.1058E+06     81.9451E+06     78.3610E+03
            1209     83.0722E-03     828.468E-06     83.0681E-03     380.460E-03    -189.858E-03    -190.679E-03    -190.656E-03     380.452E-03    -189.872E-03    -3.85326E-03     381.973E-03     179.127E+06    -123.407E+06    -128.659E+06    -305.095E+06    -127.983E+06    -305.091E+06    -124.088E+06     187.499E+03
            1210     83.0756E-03     1.65275E-03     83.0592E-03     380.921E-03    -190.258E-03    -190.739E-03    -190.559E-03     380.909E-03    -190.425E-03    -5.17333E-03     385.524E-03     168.656E+06    -111.180E+06    -122.221E+06    -285.034E+06    -122.230E+06    -285.025E+06    -111.180E+06      -94.55E+03
            1211     83.0784E-03     2.48123E-03     83.0413E-03     380.243E-03    -189.781E-03    -190.536E-03    -189.815E-03     380.230E-03    -190.488E-03    -5.24252E-03     389.865E-03     154.574E+06    -96.2589E+06    -116.537E+06    -259.883E+06    -116.545E+06    -259.875E+06    -96.2589E+06    -815.630E+03
            1212     83.0887E-03     3.30958E-03     83.0228E-03     379.798E-03    -189.454E-03    -190.367E-03    -189.448E-03     379.792E-03    -190.367E-03    -2.61289E-03     396.685E-03     137.232E+06    -77.3061E+06    -108.480E+06    -227.241E+06    -108.489E+06    -227.232E+06    -77.3061E+06     74.5757E+03
            1213     83.1102E-03     4.13545E-03     83.0072E-03     379.993E-03    -189.563E-03    -190.398E-03    -189.558E-03     379.988E-03    -190.398E-03     1.52760E-03     406.785E-03     116.329E+06    -56.8270E+06    -99.3588E+06    -188.075E+06    -99.3668E+06    -188.067E+06    -56.8270E+06     215.419E+03
            1214     83.1443E-03     4.95924E-03     82.9962E-03     379.013E-03    -188.716E-03    -190.472E-03    -188.669E-03     378.966E-03    -190.472E-03     8.93683E-03     418.078E-03     92.1246E+06    -38.3307E+06    -90.8531E+06    -143.777E+06    -90.8662E+06    -143.764E+06    -38.3307E+06     6.73131E+03
            1215     83.1941E-03     5.78889E-03     82.9925E-03     377.335E-03    -187.240E-03    -190.463E-03    -187.060E-03     377.154E-03    -190.463E-03     19.3288E-03     431.039E-03     71.7678E+06    -18.6750E+06    -76.4320E+06    -98.2894E+06    -81.4857E+06    -93.2357E+06    -18.6750E+06     158.548E+03
            1216     83.2712E-03     6.61808E-03     83.0078E-03     376.521E-03    -186.524E-03    -190.377E-03    -186.047E-03     376.044E-03    -190.377E-03     31.9586E-03     447.644E-03     69.9885E+06     1.48909E+06    -31.5508E+06    -72.4996E+06    -72.4758E+06    -31.5745E+06     1.48909E+06     549.314E+03
            1217     83.3694E-03     7.44478E-03     83.0363E-03     376.682E-03    -186.666E-03    -190.263E-03    -185.628E-03     375.644E-03    -190.263E-03     47.5588E-03     467.261E-03     76.8990E+06     16.9130E+06     8.08436E+06    -64.0134E+06    -63.9749E+06     8.04587E+06     16.9130E+06     1.30107E+06
            1218     83.5022E-03     8.27234E-03     83.0914E-03     376.561E-03    -186.654E-03    -190.290E-03    -184.610E-03     374.517E-03    -190.290E-03     66.8492E-03     488.216E-03     80.9276E+06     31.9500E+06     18.5942E+06    -54.7823E+06    -54.7527E+06     18.5645E+06     31.9500E+06     1.21185E+06
            1219     83.6716E-03     9.09926E-03     83.1753E-03     377.093E-03    -187.441E-03    -190.301E-03    -183.108E-03     372.760E-03    -190.301E-03     96.6747E-03     513.669E-03     87.1744E+06     49.8966E+06     29.2682E+06    -45.6967E+06    -45.6899E+06     29.2615E+06     49.8966E+06     564.684E+03
            1220     83.8982E-03     9.92798E-03     83.3087E-03     379.881E-03    -189.339E-03    -190.894E-03    -182.321E-03     372.218E-03    -190.249E-03     130.487E-03     539.955E-03     91.8612E+06     64.5027E+06     36.4675E+06    -38.0648E+06    -38.0366E+06     36.4393E+06     64.5027E+06     236.854E+03
            1221     84.1740E-03     10.7571E-03     83.4838E-03     383.914E-03    -190.201E-03    -193.892E-03    -183.259E-03     373.281E-03    -190.201E-03     155.057E-03     558.642E-03     90.5698E+06     70.8702E+06     40.8458E+06    -30.8962E+06    -30.8628E+06     40.8124E+06     70.8702E+06    -45.6778E+03
            1222     84.4906E-03     11.5829E-03     83.6929E-03     391.457E-03    -190.115E-03    -201.343E-03    -185.692E-03     375.807E-03    -190.115E-03     188.832E-03     577.414E-03     85.2700E+06     71.6019E+06     45.5280E+06    -23.6468E+06    -23.6382E+06     45.5194E+06     71.6019E+06    -87.4222E+03
            1223     84.8907E-03     12.4110E-03     83.9786E-03     393.167E-03    -189.943E-03    -203.007E-03    -186.817E-03     376.977E-03    -189.943E-03     192.910E-03     573.464E-03     80.2826E+06     72.5811E+06     51.0050E+06    -16.2728E+06    -16.2651E+06     50.9972E+06     72.5811E+06    -87.7165E+03
            1224     85.2459E-03     13.2411E-03     84.2113E-03     406.990E-03    -190.039E-03    -217.145E-03    -192.458E-03     382.303E-03    -190.039E-03     237.042E-03     604.601E-03     78.1925E+06     75.7556E+06     57.8798E+06    -9.81214E+06    -9.80103E+06     57.8687E+06     75.7556E+06     239.023E+03
            1225     85.7960E-03     14.0673E-03     84.6349E-03     404.538E-03    -190.259E-03    -214.417E-03    -193.851E-03     383.971E-03    -190.259E-03     202.754E-03     569.372E-03     78.1544E+06     81.0905E+06     62.2341E+06    -4.72791E+06    -4.72085E+06     62.2270E+06     81.0905E+06     429.340E+03
            1226     84.5344E-03     824.974E-06     84.5304E-03     380.900E-03    -190.122E-03    -190.821E-03    -190.584E-03     380.893E-03    -190.352E-03    -3.09661E-03     382.484E-03     178.581E+06    -122.554E+06    -127.171E+06    -303.391E+06    -126.505E+06    -303.377E+06    -123.234E+06    -569.558E+03
            1227     84.5379E-03     1.65446E-03     84.5217E-03     380.557E-03    -190.122E-03    -190.528E-03    -190.133E-03     380.546E-03    -190.505E-03    -4.87382E-03     385.214E-03     169.135E+06    -111.448E+06    -121.818E+06    -285.473E+06    -121.845E+06    -285.446E+06    -111.448E+06    -173.572E+03
            1228     84.5393E-03     2.48061E-03     84.5029E-03     380.657E-03    -190.161E-03    -190.610E-03    -190.246E-03     380.642E-03    -190.510E-03    -5.85677E-03     390.255E-03     154.003E+06    -96.3510E+06    -116.378E+06    -259.291E+06    -116.394E+06    -259.275E+06    -96.3510E+06    -141.033E+03
            1229     84.5508E-03     3.30680E-03     84.4861E-03     379.941E-03    -189.515E-03    -190.529E-03    -189.585E-03     379.934E-03    -190.452E-03    -3.27448E-03     396.888E-03     135.740E+06    -79.1952E+06    -109.449E+06    -227.348E+06    -109.459E+06    -227.338E+06    -79.1952E+06    -830.468E+03
            1230     84.5727E-03     4.13427E-03     84.4716E-03     379.024E-03    -188.686E-03    -190.384E-03    -188.679E-03     379.017E-03    -190.384E-03     1.95259E-03     405.874E-03     114.679E+06    -59.1272E+06    -100.831E+06    -188.405E+06    -100.841E+06    -188.395E+06    -59.1272E+06    -712.158E+03
            1231     84.6055E-03     4.96418E-03     84.4598E-03     378.769E-03    -188.627E-03    -190.372E-03    -188.576E-03     378.719E-03    -190.372E-03     9.59811E-03     417.859E-03     92.3199E+06    -38.2846E+06    -92.1188E+06    -143.846E+06    -92.1324E+06    -143.833E+06    -38.2846E+06    -92.2013E+03
            1232     84.6548E-03     5.78895E-03     84.4567E-03     378.248E-03    -188.174E-03    -190.441E-03    -188.000E-03     378.074E-03    -190.441E-03     19.1476E-03     431.864E-03     72.8107E+06    -18.8081E+06    -77.4361E+06    -99.8052E+06    -83.6712E+06    -93.5701E+06    -18.8081E+06     381.748E+03
            1233     84.7272E-03     6.61576E-03     84.4686E-03     377.244E-03    -187.025E-03    -190.456E-03    -186.572E-03     376.791E-03    -190.456E-03     31.1878E-03     448.033E-03     71.0225E+06     1.09430E+06    -32.1639E+06    -74.5550E+06    -74.5255E+06    -32.1934E+06     1.09430E+06     764.143E+03
            1234     84.8293E-03     7.44467E-03     84.5020E-03     376.869E-03    -186.620E-03    -190.360E-03    -185.563E-03     375.812E-03    -190.360E-03     47.7869E-03     467.447E-03     77.2025E+06     17.0087E+06     8.12241E+06    -64.2509E+06    -64.2347E+06     8.10622E+06     17.0087E+06     542.170E+03
            1235     84.9599E-03     8.27035E-03     84.5564E-03     376.194E-03    -186.166E-03    -190.347E-03    -184.113E-03     374.140E-03    -190.347E-03     67.0986E-03     487.998E-03     80.2576E+06     31.0187E+06     18.6450E+06    -54.6643E+06    -54.6575E+06     18.6382E+06     31.0187E+06     437.602E+03
            1236     85.1234E-03     9.10010E-03     84.6356E-03     376.179E-03    -186.455E-03    -190.280E-03    -182.159E-03     371.883E-03    -190.280E-03     96.0358E-03     512.689E-03     86.6654E+06     48.5933E+06     28.6365E+06    -46.2561E+06    -46.2446E+06      28.625E+06     48.5933E+06     835.579E+03
            1237     85.3513E-03     9.93039E-03     84.7716E-03     379.669E-03    -188.755E-03    -191.198E-03    -182.136E-03     372.039E-03    -190.188E-03     130.168E-03     538.923E-03     91.4511E+06     64.8006E+06     36.5278E+06    -37.3839E+06    -37.3585E+06     36.5024E+06     64.8006E+06     1.24865E+06
            1238     85.6268E-03     10.7569E-03     84.9485E-03     384.883E-03    -190.192E-03    -194.893E-03    -184.181E-03     374.172E-03    -190.192E-03     155.845E-03     559.072E-03     90.3441E+06     72.5524E+06     41.9879E+06    -29.1040E+06    -29.0674E+06     41.9513E+06     72.5524E+06     951.814E+03
            1239     85.9469E-03     11.5836E-03     85.1627E-03     392.152E-03    -190.158E-03    -202.017E-03    -186.281E-03     376.416E-03    -190.158E-03     189.627E-03     578.386E-03     85.5426E+06     73.0577E+06     47.1938E+06    -22.4097E+06    -22.3905E+06     47.1746E+06     73.0577E+06     177.000E+03
            1240     86.3345E-03     12.4106E-03     85.4378E-03     393.353E-03    -189.993E-03    -203.119E-03    -186.827E-03     377.061E-03    -189.993E-03     193.633E-03     573.666E-03      80.586E+06     72.9846E+06     51.7027E+06    -16.1010E+06    -16.0938E+06     51.6956E+06     72.9846E+06    -420.075E+03
            1241     86.6902E-03     13.2388E-03     85.6734E-03     407.139E-03    -190.081E-03    -217.219E-03    -192.467E-03     382.387E-03    -190.081E-03     237.627E-03     604.481E-03     78.5703E+06     75.3088E+06     57.3346E+06    -10.6754E+06    -10.6682E+06     57.3273E+06     75.3088E+06    -507.414E+03
            1242     87.2413E-03     14.0672E-03     86.0997E-03     404.211E-03    -190.273E-03    -214.066E-03    -193.548E-03     383.693E-03    -190.273E-03     202.512E-03     568.978E-03     78.2611E+06     80.6272E+06     61.5000E+06    -5.37322E+06    -5.36832E+06     61.4951E+06     80.6272E+06    -124.993E+03
            1243     85.9983E-03     827.962E-06     85.9944E-03     380.800E-03    -189.783E-03    -191.009E-03    -190.761E-03     380.793E-03    -190.024E-03    -3.31078E-03     382.405E-03     176.400E+06    -122.802E+06    -128.802E+06    -302.113E+06    -127.329E+06    -302.102E+06    -124.286E+06    -865.549E+03
            1244     85.9973E-03     1.65342E-03     85.9814E-03     380.660E-03    -190.229E-03    -190.498E-03    -190.241E-03     380.649E-03    -190.476E-03    -4.77796E-03     385.233E-03     169.080E+06    -111.752E+06    -122.883E+06    -286.069E+06    -122.905E+06    -286.047E+06    -111.752E+06    -451.245E+03
            1245     86.0040E-03     2.48091E-03     85.9682E-03     380.909E-03    -190.377E-03    -190.636E-03    -190.466E-03     380.899E-03    -190.536E-03    -4.76108E-03     390.427E-03     154.695E+06    -95.0578E+06    -116.222E+06    -259.118E+06    -116.237E+06    -259.103E+06    -95.0578E+06     503.587E+03
            1246     86.0126E-03     3.30687E-03     85.9490E-03     379.971E-03    -189.524E-03    -190.604E-03    -189.595E-03     379.965E-03    -190.527E-03    -3.01728E-03     397.096E-03     136.398E+06    -76.4631E+06    -109.189E+06    -226.052E+06    -109.199E+06    -226.042E+06    -76.4631E+06    -138.428E+03
            1247     86.0299E-03     4.13574E-03     85.9305E-03     378.881E-03    -188.533E-03    -190.435E-03    -188.529E-03     378.876E-03    -190.435E-03     1.46784E-03     405.826E-03     116.480E+06    -57.7316E+06    -101.676E+06    -189.448E+06    -101.690E+06    -189.434E+06    -57.7316E+06    -303.576E+03
            1248     86.0661E-03     4.96169E-03     85.9230E-03     378.701E-03    -188.528E-03    -190.384E-03    -188.487E-03     378.660E-03    -190.384E-03     8.59252E-03     417.627E-03     94.4110E+06    -37.6341E+06    -92.9613E+06    -145.557E+06    -93.0107E+06    -145.508E+06    -37.6341E+06     878.259E+03
            1249     86.1159E-03     5.78967E-03     85.9211E-03     378.567E-03    -188.467E-03    -190.462E-03    -188.302E-03     378.402E-03    -190.462E-03     18.5266E-03     432.043E-03     73.6134E+06    -18.1257E+06    -76.6795E+06    -100.497E+06    -84.3314E+06    -92.8452E+06    -18.1257E+06     920.630E+03
            1250     86.1878E-03     6.61550E-03     85.9335E-03     377.715E-03    -187.471E-03    -190.501E-03    -186.992E-03     377.236E-03    -190.501E-03     31.9273E-03     448.698E-03     70.4513E+06     456.962E+03    -31.0447E+06    -74.7317E+06    -74.7104E+06    -31.0660E+06     456.962E+03    -395.322E+03
            1251     86.2854E-03     7.44213E-03     85.9639E-03     376.517E-03    -186.309E-03    -190.393E-03    -185.212E-03     375.420E-03    -190.393E-03     48.7819E-03     467.271E-03     76.5576E+06     15.4264E+06     7.58116E+06    -64.7376E+06    -64.7235E+06     7.56715E+06     15.4264E+06    -623.109E+03
            1252     86.4181E-03     8.27255E-03     86.0213E-03     375.651E-03    -185.656E-03    -190.340E-03    -183.607E-03     373.601E-03    -190.340E-03     67.0653E-03     487.471E-03     80.3371E+06     30.1598E+06     17.9448E+06    -55.5411E+06    -55.5405E+06     17.9442E+06     30.1598E+06    -39.7254E+03
            1253     86.5769E-03     9.09932E-03     86.0974E-03     376.595E-03    -186.932E-03    -190.282E-03    -182.710E-03     372.372E-03    -190.282E-03     95.3479E-03     513.028E-03     86.9521E+06     48.1409E+06     28.0305E+06    -47.0436E+06    -47.0381E+06     28.0250E+06     48.1409E+06     384.062E+03
            1254     86.8008E-03     9.92807E-03     86.2311E-03     380.318E-03    -189.334E-03    -191.360E-03    -182.849E-03     372.717E-03    -190.245E-03     129.990E-03     539.399E-03     91.9171E+06     64.3186E+06     36.1002E+06    -38.3473E+06    -38.3389E+06     36.0918E+06     64.3186E+06     575.611E+03
            1255     87.0831E-03     10.7565E-03     86.4162E-03     384.410E-03    -190.250E-03    -194.289E-03    -183.669E-03     373.790E-03    -190.250E-03     155.085E-03     558.196E-03     90.4993E+06     72.0979E+06     42.0386E+06    -29.5991E+06    -29.5828E+06     42.0222E+06     72.0979E+06     639.087E+03
            1256     87.3960E-03     11.5840E-03     86.6249E-03     391.030E-03    -190.160E-03    -200.824E-03    -185.307E-03     375.513E-03    -190.160E-03     187.920E-03     577.258E-03     85.0527E+06     73.3222E+06     48.3927E+06    -21.3758E+06    -21.3618E+06     48.3788E+06     73.3222E+06     516.008E+03
            1257     87.7853E-03     12.4124E-03     86.9033E-03     393.537E-03    -189.975E-03    -203.361E-03    -187.055E-03     377.231E-03    -189.975E-03     193.872E-03     573.998E-03     80.6691E+06     73.4218E+06     52.4272E+06    -15.6658E+06    -15.6639E+06     52.4252E+06     73.4218E+06    -13.4641E+03
            1258     88.1345E-03     13.2382E-03     87.1346E-03     407.641E-03    -190.089E-03    -217.644E-03    -192.778E-03     382.775E-03    -190.089E-03     238.463E-03     605.131E-03     78.8504E+06     76.0033E+06     57.3262E+06    -10.4904E+06    -10.4858E+06     57.3215E+06     76.0033E+06    -95.6873E+03
            1259     88.6834E-03     14.0673E-03     87.5606E-03     404.275E-03    -190.267E-03    -214.001E-03    -193.446E-03     383.720E-03    -190.267E-03     202.852E-03     569.317E-03     78.7293E+06     81.5339E+06     61.6599E+06    -5.17920E+06    -5.17340E+06     61.6541E+06     81.5339E+06    -73.3391E+03
            1260     87.4608E-03     825.736E-06     87.4569E-03     380.742E-03    -189.533E-03    -191.240E-03    -191.207E-03     380.733E-03    -189.558E-03    -4.21849E-03     382.311E-03     173.937E+06    -124.607E+06    -131.346E+06    -301.808E+06    -129.868E+06    -301.802E+06    -126.091E+06     202.818E+03
            1261     87.4598E-03     1.65420E-03     87.4441E-03     380.753E-03    -190.278E-03    -190.514E-03    -190.321E-03     380.742E-03    -190.460E-03    -4.85966E-03     385.239E-03     165.703E+06    -113.808E+06    -125.971E+06    -285.188E+06    -125.975E+06    -285.184E+06    -113.808E+06    -310.301E+03
            1262     87.4667E-03     2.48037E-03     87.4315E-03     380.460E-03    -190.008E-03    -190.512E-03    -189.998E-03     380.450E-03    -190.512E-03    -4.73182E-03     389.947E-03     154.282E+06    -96.1441E+06    -119.284E+06    -260.552E+06    -119.290E+06    -260.546E+06    -96.1441E+06     140.601E+03
            1263     87.4742E-03     3.30852E-03     87.4117E-03     380.242E-03    -189.862E-03    -190.486E-03    -189.856E-03     380.236E-03    -190.486E-03    -3.48329E-03     397.315E-03     137.095E+06    -75.4894E+06    -110.560E+06    -226.505E+06    -110.573E+06    -226.492E+06    -75.4894E+06     873.102E+03
            1264     87.4930E-03     4.13347E-03     87.3953E-03     379.931E-03    -189.514E-03    -190.517E-03    -189.508E-03     379.925E-03    -190.517E-03     1.37343E-03     406.859E-03     117.330E+06    -56.3193E+06    -102.167E+06    -189.346E+06    -102.186E+06    -189.326E+06    -56.3193E+06     1.10464E+06
            1265     87.5262E-03     4.96143E-03     87.3855E-03     378.666E-03    -188.397E-03    -190.526E-03    -188.353E-03     378.622E-03    -190.526E-03     9.03548E-03     417.655E-03     95.2951E+06    -37.7355E+06    -92.8028E+06    -146.920E+06    -92.8464E+06    -146.876E+06    -37.7355E+06     1.09870E+06
            1266     87.5762E-03     5.78852E-03     87.3847E-03     377.488E-03    -187.343E-03    -190.481E-03    -187.165E-03     377.311E-03    -190.481E-03     19.1362E-03     430.910E-03     72.7555E+06    -18.6410E+06    -73.6111E+06    -100.819E+06    -83.0986E+06    -91.3312E+06    -18.6410E+06     702.998E+03
            1267     87.6473E-03     6.61658E-03     87.3972E-03     377.302E-03    -187.085E-03    -190.422E-03    -186.586E-03     376.803E-03    -190.422E-03     32.6439E-03     448.058E-03     69.5866E+06     272.162E+03    -28.7999E+06    -74.5628E+06    -74.5424E+06    -28.8202E+06     272.162E+03    -367.650E+03
            1268     87.7440E-03     7.44448E-03     87.4277E-03     376.878E-03    -186.641E-03    -190.331E-03    -185.553E-03     375.790E-03    -190.331E-03     48.7344E-03     467.364E-03     77.5397E+06     15.7826E+06     7.25696E+06    -65.6481E+06    -65.6307E+06     7.23956E+06     15.7826E+06    -796.809E+03
            1269     87.8712E-03     8.27060E-03     87.4811E-03     375.942E-03    -185.962E-03    -190.325E-03    -183.924E-03     373.905E-03    -190.325E-03     66.8289E-03     487.720E-03     81.3253E+06     30.4484E+06     17.4576E+06    -56.5485E+06    -56.5408E+06     17.4498E+06     30.4484E+06    -551.730E+03
            1270     88.0329E-03     9.10103E-03     87.5612E-03     377.375E-03    -187.735E-03    -190.314E-03    -183.488E-03     373.128E-03    -190.314E-03     95.7700E-03     513.795E-03     87.2571E+06     48.4517E+06     27.7311E+06    -47.2403E+06    -47.2360E+06     27.7269E+06     48.4517E+06    -337.366E+03
            1271     88.2566E-03     9.92689E-03     87.6965E-03     381.103E-03    -190.029E-03    -191.468E-03    -183.503E-03     373.442E-03    -190.334E-03     130.643E-03     540.554E-03     91.6292E+06     64.2992E+06     36.3546E+06    -38.0201E+06    -38.0188E+06     36.3533E+06     64.2992E+06     85.8608E+03
            1272     88.5331E-03     10.7538E-03     87.8775E-03     383.895E-03    -190.328E-03    -193.681E-03    -183.009E-03     373.223E-03    -190.328E-03     155.307E-03     558.029E-03     90.1149E+06     71.5612E+06     42.1859E+06    -29.5744E+06    -29.5729E+06     42.1844E+06     71.5612E+06     113.445E+03
            1273     88.8470E-03     11.5822E-03     88.0888E-03     390.297E-03    -190.164E-03    -200.059E-03    -184.466E-03     374.704E-03    -190.164E-03     188.113E-03     576.771E-03     84.7783E+06     71.9444E+06     47.0935E+06    -22.4521E+06    -22.4402E+06     47.0817E+06     71.9444E+06    -458.174E+03
            1274     89.2293E-03     12.4120E-03     88.3619E-03     393.240E-03    -189.949E-03    -203.135E-03    -186.768E-03     376.873E-03    -189.949E-03     194.105E-03     573.722E-03     80.0524E+06     72.7216E+06     51.9311E+06    -15.6693E+06    -15.6576E+06     51.9194E+06     72.7216E+06    -344.291E+03
            1275     89.5865E-03     13.2403E-03     88.6027E-03     407.234E-03    -190.070E-03    -217.256E-03    -192.606E-03     382.584E-03    -190.070E-03     237.442E-03     604.634E-03     78.2991E+06     76.5907E+06     57.9090E+06    -9.34936E+06    -9.34620E+06     57.9058E+06     76.5907E+06     161.931E+03
            1276     90.1219E-03     14.0675E-03     89.0172E-03     404.514E-03    -190.255E-03    -214.206E-03    -193.787E-03     384.095E-03    -190.255E-03     202.813E-03     569.772E-03     78.0750E+06     81.9559E+06     61.9495E+06    -4.13620E+06    -4.12115E+06     61.9345E+06     81.9559E+06     568.777E+03
            1277     88.9221E-03     828.120E-06     88.9182E-03     380.864E-03    -189.657E-03    -191.270E-03    -191.264E-03     380.858E-03    -189.657E-03    -3.70935E-03     382.401E-03     175.263E+06    -123.754E+06    -131.079E+06    -302.557E+06    -128.561E+06    -302.544E+06    -126.285E+06     427.728E+03
            1278     88.9244E-03     1.65267E-03     88.9091E-03     380.993E-03    -190.330E-03    -190.732E-03    -190.496E-03     380.981E-03    -190.554E-03    -5.23125E-03     385.565E-03     166.834E+06    -112.688E+06    -125.039E+06    -285.265E+06    -125.045E+06    -285.258E+06    -112.688E+06     688.390E+03
            1279     88.9258E-03     2.48098E-03     88.8912E-03     380.396E-03    -189.834E-03    -190.582E-03    -189.821E-03     380.382E-03    -190.582E-03    -5.37046E-03     389.951E-03     155.506E+06    -95.0423E+06    -118.157E+06    -260.714E+06    -118.160E+06    -260.711E+06    -95.0423E+06     134.518E+03
            1280     88.9378E-03     3.30723E-03     88.8763E-03     379.981E-03    -189.556E-03    -190.467E-03    -189.551E-03     379.976E-03    -190.467E-03    -2.65767E-03     396.933E-03     138.861E+06    -76.7100E+06    -110.338E+06    -229.097E+06    -110.351E+06    -229.083E+06    -76.7100E+06     508.054E+03
            1281     88.9554E-03     4.13482E-03     88.8592E-03     379.770E-03    -189.404E-03    -190.459E-03    -189.395E-03     379.760E-03    -190.459E-03     2.76901E-03     406.568E-03     117.891E+06    -56.4279E+06    -101.024E+06    -189.717E+06    -101.072E+06    -189.669E+06    -56.4279E+06     1.72851E+06
            1282     88.9876E-03     4.96001E-03     88.8493E-03     378.658E-03    -188.442E-03    -190.480E-03    -188.390E-03     378.606E-03    -190.480E-03     10.1221E-03     417.751E-03     94.3005E+06    -37.6530E+06    -92.5244E+06    -145.603E+06    -92.5612E+06    -145.566E+06    -37.6530E+06     953.881E+03
            1283     89.0327E-03     5.78944E-03     88.8442E-03     377.388E-03    -187.284E-03    -190.454E-03    -187.099E-03     377.203E-03    -190.454E-03     19.5942E-03     430.927E-03     73.1667E+06    -18.2721E+06    -74.2195E+06    -100.668E+06    -83.3674E+06    -91.5199E+06    -18.2721E+06     271.171E+03
            1284     89.1072E-03     6.61751E-03     88.8611E-03     376.861E-03    -186.690E-03    -190.381E-03    -186.207E-03     376.377E-03    -190.381E-03     32.2399E-03     447.368E-03     71.0540E+06     3.09048E+06    -27.5462E+06    -73.4995E+06    -73.4641E+06    -27.5816E+06     3.09048E+06     944.834E+03
            1285     89.2036E-03     7.44417E-03     88.8925E-03     376.792E-03    -186.577E-03    -190.262E-03    -185.510E-03     375.725E-03    -190.262E-03     48.1678E-03     467.037E-03     78.9998E+06     18.4427E+06     8.67223E+06    -64.9844E+06    -64.9553E+06     8.64323E+06     18.4427E+06     119.051E+03
            1286     89.3277E-03     8.27260E-03     88.9438E-03     376.964E-03    -186.956E-03    -190.292E-03    -184.892E-03     374.900E-03    -190.292E-03     67.3265E-03     488.563E-03     82.1018E+06     31.3710E+06     17.8702E+06    -56.6087E+06    -56.5962E+06     17.8577E+06     31.3710E+06    -956.858E+03
            1287     89.4880E-03     9.09826E-03     89.0243E-03     378.051E-03    -188.280E-03    -190.336E-03    -183.990E-03     373.761E-03    -190.336E-03     96.3986E-03     514.492E-03     87.5724E+06     48.2873E+06     27.6532E+06    -47.7090E+06    -47.6874E+06     27.6316E+06     48.2873E+06    -1.08121E+06
            1288     89.7123E-03     9.92651E-03     89.1614E-03     380.703E-03    -189.841E-03    -191.173E-03    -182.953E-03     372.998E-03    -190.356E-03     130.894E-03     540.059E-03     91.0290E+06     63.3040E+06     35.7351E+06    -38.2875E+06    -38.2708E+06     35.7184E+06     63.3040E+06    -503.449E+03
            1289     89.9858E-03     10.7546E-03     89.3409E-03     383.420E-03    -190.310E-03    -193.227E-03    -182.461E-03     372.654E-03    -190.310E-03     155.843E-03     557.759E-03     89.6396E+06     70.9798E+06     41.6620E+06    -29.6463E+06    -29.6353E+06     41.6510E+06     70.9798E+06    -258.354E+03
            1290     90.2949E-03     11.5847E-03     89.5487E-03     390.823E-03    -190.141E-03    -200.634E-03    -184.774E-03     374.964E-03    -190.141E-03     189.833E-03     577.295E-03     85.0462E+06     72.4535E+06     47.5468E+06    -22.2316E+06    -22.2093E+06     47.5245E+06     72.4535E+06    -673.620E+03
            1291     90.6835E-03     12.4117E-03     89.8301E-03     393.651E-03    -189.965E-03    -203.575E-03    -187.190E-03     377.265E-03    -189.965E-03     194.161E-03     574.005E-03     80.1652E+06     72.8086E+06     51.9051E+06    -15.7304E+06    -15.7149E+06     51.8896E+06     72.8086E+06    -452.018E+03
            1292     91.0286E-03     13.2395E-03     90.0607E-03     407.056E-03    -190.085E-03    -217.075E-03    -192.633E-03     382.614E-03    -190.085E-03     236.126E-03     604.599E-03     78.3995E+06     75.3461E+06     57.0111E+06    -10.5750E+06    -10.5706E+06     57.0067E+06     75.3461E+06    -165.007E+03
            1293     91.5781E-03     14.0683E-03     90.4911E-03     404.255E-03    -190.274E-03    -213.985E-03    -193.680E-03     383.951E-03    -190.274E-03     201.727E-03     569.554E-03     78.8376E+06     80.1442E+06     61.8983E+06    -6.16556E+06    -6.13892E+06     61.8717E+06     80.1442E+06    -95.6725E+03
            1294     90.3861E-03     825.769E-06     90.3824E-03     380.950E-03    -189.822E-03    -191.144E-03    -190.610E-03     380.944E-03    -190.350E-03    -3.72516E-03     382.445E-03     180.052E+06    -119.691E+06    -128.773E+06    -304.108E+06    -126.256E+06    -304.095E+06    -122.221E+06     720.738E+03
            1295     90.3867E-03     1.65395E-03     90.3716E-03     380.768E-03    -190.231E-03    -190.647E-03    -190.345E-03     380.758E-03    -190.523E-03    -4.67254E-03     385.459E-03     170.657E+06    -109.760E+06    -120.990E+06    -285.710E+06    -120.997E+06    -285.704E+06    -109.760E+06     908.847E+03
            1296     90.3895E-03     2.47929E-03     90.3555E-03     380.277E-03    -189.873E-03    -190.484E-03    -189.862E-03     380.267E-03    -190.484E-03    -4.69599E-03     390.064E-03     157.092E+06    -94.5494E+06    -115.248E+06    -260.828E+06    -115.267E+06    -260.809E+06    -94.5494E+06     812.722E+03
            1297     90.3971E-03     3.30820E-03     90.3366E-03     379.458E-03    -189.128E-03    -190.353E-03    -189.125E-03     379.454E-03    -190.353E-03    -1.80002E-03     396.431E-03     140.736E+06    -75.6465E+06    -108.435E+06    -229.702E+06    -108.460E+06    -229.677E+06    -75.6465E+06     1.09744E+06
            1298     90.4176E-03     4.13550E-03     90.3230E-03     379.119E-03    -188.907E-03    -190.295E-03    -188.900E-03     379.111E-03    -190.295E-03     2.76689E-03     405.866E-03     120.138E+06    -56.0323E+06    -100.336E+06    -191.621E+06    -100.376E+06    -191.581E+06    -56.0323E+06     1.24377E+06
            1299     90.4485E-03     4.96434E-03     90.3122E-03     378.865E-03    -188.826E-03    -190.334E-03    -188.777E-03     378.817E-03    -190.334E-03     9.39587E-03     417.952E-03     94.0372E+06    -35.8654E+06    -91.0893E+06    -143.341E+06    -91.1236E+06    -143.307E+06    -35.8654E+06     646.928E+03
            1300     90.4938E-03     5.78913E-03     90.3084E-03     378.137E-03    -188.147E-03    -190.424E-03    -187.970E-03     377.961E-03    -190.424E-03     19.2029E-03     431.812E-03     73.7582E+06    -15.9875E+06    -75.8677E+06    -97.9078E+06    -81.8691E+06    -91.9065E+06    -15.9875E+06     238.005E+03
            1301     90.5662E-03     6.61577E-03     90.3242E-03     376.837E-03    -186.793E-03    -190.413E-03    -186.324E-03     376.368E-03    -190.413E-03     31.7223E-03     447.579E-03     71.8786E+06     3.90757E+06    -29.6672E+06    -72.4601E+06    -72.4260E+06    -29.7014E+06     3.90757E+06     1.08053E+06
            1302     90.6603E-03     7.44593E-03     90.3540E-03     376.319E-03    -186.290E-03    -190.260E-03    -185.231E-03     375.260E-03    -190.260E-03     47.9057E-03     466.636E-03     78.3603E+06     19.0060E+06     10.3201E+06    -63.3290E+06    -63.2944E+06     10.2855E+06     19.0060E+06     989.757E+03
            1303     90.7882E-03     8.27222E-03     90.4106E-03     376.769E-03    -186.850E-03    -190.251E-03    -184.734E-03     374.654E-03    -190.251E-03     68.0475E-03     488.245E-03     81.3857E+06     32.0800E+06     19.6518E+06    -54.7589E+06    -54.7443E+06     19.6372E+06     32.0800E+06     165.871E+03
            1304     90.9471E-03     9.09898E-03     90.4908E-03     378.188E-03    -188.369E-03    -190.385E-03    -183.994E-03     373.740E-03    -190.312E-03     98.1797E-03     514.483E-03     87.3790E+06     49.2515E+06     28.7308E+06    -46.4860E+06    -46.4621E+06     28.7069E+06     49.2515E+06    -246.150E+03
            1305     91.1650E-03     9.92619E-03     90.6230E-03     380.634E-03    -189.987E-03    -191.016E-03    -182.938E-03     372.914E-03    -190.345E-03     131.198E-03     540.298E-03     91.6865E+06     63.6200E+06     35.5189E+06    -38.7982E+06    -38.7572E+06     35.4779E+06     63.6200E+06    -932.769E+03
            1306     91.4383E-03     10.7568E-03     90.8033E-03     383.552E-03    -190.283E-03    -193.439E-03    -182.858E-03     372.970E-03    -190.283E-03     154.572E-03     558.296E-03     90.5715E+06     71.2037E+06     41.9409E+06    -30.3762E+06    -30.3288E+06     41.8935E+06     71.2037E+06    -1.61257E+06
            1307     91.7452E-03     11.5842E-03     91.0109E-03     391.004E-03    -190.148E-03    -200.836E-03    -185.202E-03     375.370E-03    -190.148E-03     188.543E-03     577.472E-03     85.0424E+06     72.7076E+06     47.7961E+06    -21.9826E+06    -21.9546E+06     47.7681E+06     72.7076E+06    -970.139E+03
            1308     92.1431E-03     12.4109E-03     91.3035E-03     393.160E-03    -189.992E-03    -203.059E-03    -186.802E-03     376.903E-03    -189.992E-03     193.315E-03     573.431E-03     79.8915E+06     72.1759E+06     50.6781E+06    -16.2536E+06    -16.2207E+06     50.6451E+06     72.1759E+06     432.340E+03
            1309     92.4764E-03     13.2385E-03     91.5240E-03     407.664E-03    -190.084E-03    -217.550E-03    -192.771E-03     382.885E-03    -190.084E-03     237.758E-03     604.837E-03     78.7462E+06     75.2080E+06     56.7702E+06    -11.0891E+06    -11.0489E+06     56.7301E+06     75.2080E+06     141.061E+03
            1310     93.0246E-03     14.0645E-03     91.9553E-03     404.601E-03    -190.264E-03    -214.187E-03    -193.580E-03     383.993E-03    -190.264E-03     202.999E-03     569.594E-03     78.2032E+06     80.7028E+06     62.2519E+06    -4.96882E+06    -4.94089E+06     62.2240E+06     80.7028E+06    -554.118E+03
            1311     91.8484E-03     827.174E-06     91.8446E-03     380.055E-03    -189.615E-03    -190.445E-03    -189.756E-03     380.052E-03    -190.300E-03    -2.51822E-03     381.558E-03     180.882E+06    -122.222E+06    -130.494E+06    -307.092E+06    -128.202E+06    -307.079E+06    -124.527E+06     1.30696E+06
            1312     91.8475E-03     1.65407E-03     91.8326E-03     380.034E-03    -189.879E-03    -190.268E-03    -190.043E-03     380.027E-03    -190.097E-03    -3.91027E-03     384.659E-03     169.455E+06    -112.001E+06    -123.206E+06    -286.702E+06    -123.217E+06    -286.691E+06    -112.001E+06     1.15506E+06
            1313     91.8518E-03     2.48254E-03     91.8182E-03     380.277E-03    -189.962E-03    -190.432E-03    -190.215E-03     380.268E-03    -190.169E-03    -4.64516E-03     390.004E-03     156.942E+06    -95.9843E+06    -117.564E+06    -262.464E+06    -117.584E+06    -262.445E+06    -95.9843E+06     1.30278E+06
            1314     91.8565E-03     3.30825E-03     91.7969E-03     379.886E-03    -189.451E-03    -190.481E-03    -189.683E-03     379.881E-03    -190.244E-03    -2.59107E-03     396.935E-03     139.578E+06    -76.2525E+06    -109.707E+06    -229.314E+06    -109.731E+06    -229.290E+06    -76.2525E+06     1.43586E+06
            1315     91.8791E-03     4.13585E-03     91.7860E-03     379.105E-03    -188.914E-03    -190.292E-03    -188.908E-03     379.099E-03    -190.292E-03     1.98993E-03     405.935E-03     119.558E+06    -55.1047E+06    -100.322E+06    -190.319E+06    -100.330E+06    -190.310E+06    -55.1047E+06     566.419E+03
            1316     91.9085E-03     4.96141E-03     91.7745E-03     378.761E-03    -188.762E-03    -190.325E-03    -188.715E-03     378.714E-03    -190.325E-03     9.08707E-03     417.756E-03     94.8069E+06    -35.8849E+06    -91.0705E+06    -144.356E+06    -91.1307E+06    -144.296E+06    -35.8849E+06     726.482E+03
            1317     91.9572E-03     5.78940E-03     91.7748E-03     378.168E-03    -188.199E-03    -190.405E-03    -188.028E-03     377.997E-03    -190.405E-03     18.9415E-03     431.744E-03     73.2124E+06    -17.1881E+06    -75.7579E+06    -98.8419E+06    -82.4754E+06    -92.1244E+06    -17.1881E+06     1.04221E+06
            1318     92.0228E-03     6.61728E-03     91.7846E-03     377.162E-03    -187.089E-03    -190.418E-03    -186.620E-03     376.693E-03    -190.418E-03     31.6345E-03     448.034E-03     70.7803E+06     1.82502E+06    -29.8710E+06    -73.1418E+06    -73.1233E+06    -29.8896E+06     1.82502E+06     213.629E+03
            1319     92.1189E-03     7.44304E-03     91.8177E-03     376.468E-03    -186.432E-03    -190.291E-03    -185.332E-03     375.368E-03    -190.291E-03     48.7471E-03     466.894E-03     77.2364E+06     17.0778E+06     10.1101E+06    -63.3889E+06    -63.3649E+06     10.0861E+06     17.0778E+06     739.446E+03
            1320     92.2440E-03     8.27245E-03     91.8723E-03     376.073E-03    -186.217E-03    -190.261E-03    -184.112E-03     373.967E-03    -190.261E-03     67.9720E-03     487.754E-03     81.0681E+06     31.9008E+06     20.1393E+06    -54.3531E+06    -54.3322E+06     20.1183E+06     31.9008E+06     1.12774E+06
            1321     92.4033E-03     9.10213E-03     91.9539E-03     377.497E-03    -187.792E-03    -190.368E-03    -183.500E-03     373.132E-03    -190.294E-03     97.0668E-03     513.694E-03     87.6672E+06     49.9202E+06     29.3453E+06    -46.1220E+06    -46.1149E+06     29.3382E+06     49.9202E+06     598.875E+03
            1322     92.6333E-03     9.92743E-03     92.0998E-03     380.923E-03    -189.924E-03    -191.399E-03    -183.445E-03     373.389E-03    -190.344E-03     129.772E-03     540.939E-03     92.6526E+06     66.0670E+06     37.8739E+06    -37.3845E+06    -37.3569E+06     37.8463E+06     66.0670E+06    -550.914E+03
            1323     92.8800E-03     10.7554E-03     92.2551E-03     384.444E-03    -190.288E-03    -194.325E-03    -183.698E-03     373.818E-03    -190.288E-03     154.965E-03     559.570E-03     91.4806E+06     72.9671E+06     43.4468E+06    -29.6237E+06    -29.5840E+06     43.4070E+06     72.9671E+06    -1.30476E+06
            1324     93.1964E-03     11.5819E-03     92.4740E-03     391.112E-03    -190.163E-03    -200.946E-03    -185.183E-03     375.350E-03    -190.163E-03     189.492E-03     577.636E-03     85.1531E+06     71.6232E+06     45.6965E+06    -23.4680E+06    -23.4504E+06     45.6789E+06     71.6232E+06    -690.915E+03
            1325     93.5830E-03     12.4096E-03     92.7566E-03     392.785E-03    -190.002E-03    -202.643E-03    -186.327E-03     376.469E-03    -190.002E-03     193.634E-03     573.086E-03     79.9707E+06     71.7926E+06     49.6883E+06    -16.8984E+06    -16.8489E+06     49.6389E+06     71.7926E+06    -124.116E+03
            1326     93.9261E-03     13.2411E-03     92.9881E-03     406.767E-03    -190.051E-03    -216.750E-03    -191.840E-03     381.856E-03    -190.051E-03     238.191E-03     603.712E-03     78.6676E+06     76.1483E+06     58.1092E+06    -9.93638E+06    -9.86908E+06     58.0419E+06     76.1483E+06     104.110E+03
            1327     94.4695E-03     14.0698E-03     93.4159E-03     404.019E-03    -190.186E-03    -213.787E-03    -193.184E-03     383.416E-03    -190.186E-03     202.550E-03     568.953E-03     77.4281E+06     81.0700E+06     62.1611E+06    -3.95236E+06    -3.91391E+06     62.1226E+06     81.0700E+06    -224.608E+03
            1328     93.3081E-03     828.432E-06     93.3044E-03     379.568E-03    -189.487E-03    -190.120E-03    -189.956E-03     379.562E-03    -189.644E-03    -3.46496E-03     381.097E-03     177.403E+06    -126.855E+06    -132.860E+06    -307.177E+06    -130.575E+06    -307.156E+06    -129.160E+06    -355.375E+03
            1329     93.3057E-03     1.65559E-03     93.2910E-03     380.376E-03    -190.002E-03    -190.474E-03    -190.459E-03     380.361E-03    -190.002E-03    -5.55778E-03     384.900E-03     167.759E+06    -115.232E+06    -125.926E+06    -287.975E+06    -125.941E+06    -287.960E+06    -115.232E+06     265.251E+03
            1330     93.3087E-03     2.48167E-03     93.2757E-03     380.461E-03    -189.915E-03    -190.645E-03    -190.319E-03     380.444E-03    -190.224E-03    -5.98202E-03     390.062E-03     156.819E+06    -96.4910E+06    -118.661E+06    -263.105E+06    -118.667E+06    -263.100E+06    -96.4910E+06     95.6455E+03
            1331     93.3204E-03     3.30791E-03     93.2617E-03     380.046E-03    -189.592E-03    -190.563E-03    -189.823E-03     380.039E-03    -190.325E-03    -3.25245E-03     397.104E-03     139.903E+06    -76.6097E+06    -109.658E+06    -229.895E+06    -109.663E+06    -229.890E+06    -76.6097E+06     518.539E+03
            1332     93.3371E-03     4.13431E-03     93.2455E-03     379.233E-03    -188.969E-03    -190.379E-03    -188.960E-03     379.224E-03    -190.379E-03     2.21540E-03     406.082E-03     118.506E+06    -55.9281E+06    -101.005E+06    -189.908E+06    -101.036E+06    -189.877E+06    -55.9281E+06     1.23495E+06
            1333     93.3730E-03     4.96323E-03     93.2410E-03     378.291E-03    -188.234E-03    -190.367E-03    -188.183E-03     378.241E-03    -190.367E-03     9.87130E-03     417.246E-03     94.9851E+06    -36.9903E+06    -92.6664E+06    -145.817E+06    -92.7623E+06    -145.721E+06    -36.9903E+06     1.08997E+06
            1334     93.4183E-03     5.78928E-03     93.2387E-03     377.758E-03    -187.806E-03    -190.381E-03    -187.628E-03     377.580E-03    -190.381E-03     19.2637E-03     431.198E-03     72.7630E+06    -18.4084E+06    -74.3989E+06    -100.407E+06    -83.1191E+06    -91.6863E+06    -18.4084E+06     959.615E+03
            1335     93.4901E-03     6.61567E-03     93.2557E-03     377.468E-03    -187.244E-03    -190.385E-03    -186.772E-03     376.995E-03    -190.385E-03     31.8424E-03     448.399E-03     70.0215E+06     1.17747E+06    -28.1468E+06    -73.7489E+06    -73.6960E+06    -28.1997E+06     1.17747E+06     566.175E+03
            1336     93.5830E-03     7.44452E-03     93.2864E-03     377.054E-03    -186.780E-03    -190.307E-03    -185.679E-03     375.954E-03    -190.307E-03     48.7656E-03     467.561E-03     78.2793E+06     17.3342E+06     9.59323E+06    -64.5034E+06    -64.4860E+06     9.57583E+06     17.3342E+06     340.892E+03
            1337     93.7082E-03     8.27191E-03     93.3424E-03     376.727E-03    -186.755E-03    -190.321E-03    -184.666E-03     374.637E-03    -190.321E-03     67.8388E-03     488.274E-03     82.4822E+06     32.6944E+06     19.8148E+06    -55.4153E+06    -55.4041E+06     19.8036E+06     32.6944E+06     497.031E+03
            1338     93.8537E-03     9.09914E-03     93.4116E-03     377.429E-03    -187.764E-03    -190.358E-03    -183.501E-03     373.165E-03    -190.358E-03     95.9698E-03     513.720E-03     88.6213E+06     50.8075E+06     30.3967E+06    -46.1951E+06    -46.1928E+06     30.3945E+06     50.8075E+06     299.699E+03
            1339     94.0929E-03     9.92523E-03     93.5680E-03     380.167E-03    -189.517E-03    -191.039E-03    -182.651E-03     372.620E-03    -190.358E-03     129.545E-03     540.242E-03     92.6725E+06     66.0829E+06       38.65E+06    -37.1644E+06    -37.1601E+06     38.6457E+06     66.0829E+06     103.397E+03
            1340     94.3403E-03     10.7575E-03     93.7250E-03     383.878E-03    -190.228E-03    -193.740E-03    -182.999E-03     373.137E-03    -190.228E-03     155.671E-03     558.841E-03     90.7131E+06     72.8531E+06     42.7450E+06    -29.0834E+06    -29.0795E+06     42.7411E+06     72.8531E+06     111.853E+03
            1341     94.6517E-03     11.5850E-03     93.9401E-03     391.175E-03    -190.071E-03    -201.060E-03    -185.148E-03     375.263E-03    -190.071E-03     190.367E-03     577.507E-03     85.1850E+06     72.5780E+06     45.9720E+06    -22.7128E+06    -22.7112E+06     45.9704E+06     72.5780E+06     161.304E+03
            1342     95.0405E-03     12.4121E-03     94.2265E-03     393.413E-03    -189.937E-03    -203.344E-03    -186.926E-03     376.994E-03    -189.937E-03     194.371E-03     573.956E-03     80.5714E+06     73.6803E+06     51.1316E+06    -15.7597E+06    -15.7390E+06     51.1109E+06     73.6803E+06    -688.009E+03
            1343     95.3685E-03     13.2380E-03     94.4452E-03     406.377E-03    -190.023E-03    -216.573E-03    -191.778E-03     381.582E-03    -190.023E-03     237.476E-03     604.203E-03     78.0716E+06     76.0912E+06     57.4087E+06    -9.58912E+06    -9.51434E+06     57.3339E+06     76.0912E+06    -1.10079E+06
            1344     95.9070E-03     14.0689E-03     94.8695E-03     403.557E-03    -190.178E-03    -213.642E-03    -193.115E-03     383.031E-03    -190.178E-03     202.097E-03     568.773E-03     77.7896E+06     79.6537E+06     60.8691E+06    -5.75607E+06    -5.66906E+06     60.7820E+06     79.6537E+06    -416.993E+03
            1345     94.7678E-03     826.380E-06     94.7642E-03     381.470E-03    -189.893E-03    -191.633E-03    -191.385E-03     381.461E-03    -190.133E-03    -3.98530E-03     383.108E-03     176.720E+06    -124.460E+06    -130.222E+06    -303.965E+06    -129.590E+06    -303.948E+06    -125.110E+06    -1.16577E+06
            1346     94.7695E-03     1.65277E-03     94.7551E-03     380.941E-03    -190.004E-03    -191.006E-03    -190.288E-03     380.923E-03    -190.704E-03    -6.28288E-03     385.550E-03     169.172E+06    -113.353E+06    -124.229E+06    -287.650E+06    -124.239E+06    -287.641E+06    -113.353E+06    -1.24717E+06
            1347     94.7695E-03     2.47976E-03     94.7370E-03     380.087E-03    -189.448E-03    -190.720E-03    -189.589E-03     380.071E-03    -190.563E-03    -5.81439E-03     389.842E-03     157.100E+06    -96.9807E+06    -118.166E+06    -263.450E+06    -118.172E+06    -263.444E+06    -96.9807E+06    -318.603E+03
            1348     94.7813E-03     3.30816E-03     94.7236E-03     379.554E-03    -189.252E-03    -190.434E-03    -189.247E-03     379.550E-03    -190.434E-03    -2.78097E-03     396.665E-03     140.829E+06    -76.5162E+06    -110.520E+06    -231.035E+06    -110.527E+06    -231.029E+06    -76.5162E+06     436.571E+03
            1349     94.8055E-03     4.13518E-03     94.7153E-03     379.330E-03    -189.072E-03    -190.430E-03    -189.066E-03     379.324E-03    -190.430E-03     2.01022E-03     406.155E-03     119.498E+06    -56.5816E+06    -101.114E+06    -191.600E+06    -101.145E+06    -191.569E+06    -56.5816E+06     677.319E+03
            1350     94.8344E-03     4.96114E-03     94.7045E-03     378.261E-03    -188.222E-03    -190.431E-03    -188.178E-03     378.217E-03    -190.431E-03     9.10850E-03     417.374E-03     95.5219E+06    -36.3111E+06    -91.0840E+06    -145.574E+06    -91.2044E+06    -145.454E+06    -36.3111E+06     931.219E+03
            1351     94.8843E-03     5.79015E-03     94.7075E-03     377.365E-03    -187.424E-03    -190.400E-03    -187.255E-03     377.196E-03    -190.400E-03     18.6702E-03     430.955E-03     74.2530E+06    -16.5501E+06    -74.0182E+06    -100.073E+06    -82.5955E+06    -91.4962E+06    -16.5501E+06     1.03621E+06
            1352     94.9506E-03     6.61807E-03     94.7197E-03     377.460E-03    -187.205E-03    -190.375E-03    -186.740E-03     376.995E-03    -190.375E-03     31.5299E-03     448.296E-03     72.2413E+06     3.77564E+06    -27.8824E+06    -73.8706E+06    -73.8152E+06    -27.9378E+06     3.77564E+06     1.23308E+06
            1353     95.0457E-03     7.44281E-03     94.7539E-03     377.573E-03    -187.161E-03    -190.321E-03    -186.086E-03     376.498E-03    -190.321E-03     48.3034E-03     468.136E-03     79.5900E+06     19.1964E+06     10.3852E+06    -64.4310E+06    -64.4171E+06     10.3713E+06     19.1964E+06     547.957E+03
            1354     95.1655E-03     8.27102E-03     94.8054E-03     377.081E-03    -186.960E-03    -190.348E-03    -184.824E-03     374.945E-03    -190.348E-03     68.4346E-03     488.401E-03     82.2782E+06     32.3486E+06     20.1151E+06    -55.3098E+06    -55.3091E+06     20.1145E+06     32.3486E+06    -58.0841E+03
            1355     95.3168E-03     9.10075E-03     94.8814E-03     377.332E-03    -187.525E-03    -190.370E-03    -183.208E-03     373.015E-03    -190.370E-03     96.7719E-03     513.677E-03     88.1697E+06     50.3467E+06     30.5102E+06    -45.9907E+06    -45.9851E+06     30.5046E+06     50.3467E+06    -16.4663E+03
            1356     95.5455E-03     9.92469E-03     95.0287E-03     379.596E-03    -189.277E-03    -190.635E-03    -181.887E-03     371.890E-03    -190.318E-03     130.592E-03     539.804E-03     92.2220E+06     65.4447E+06     37.9899E+06    -37.3380E+06    -37.3281E+06     37.9800E+06     65.4447E+06     291.636E+03
            1357     95.7929E-03     10.7584E-03     95.1868E-03     383.231E-03    -190.151E-03    -193.216E-03    -182.469E-03     372.484E-03    -190.151E-03     155.727E-03     557.745E-03     90.2502E+06     72.3732E+06     42.1730E+06    -29.1035E+06    -29.0977E+06     42.1673E+06     72.3732E+06     497.563E+03
            1358     96.0971E-03     11.5849E-03     95.3962E-03     391.008E-03    -189.989E-03    -201.021E-03    -185.285E-03     375.272E-03    -189.989E-03     189.181E-03     577.298E-03     84.8679E+06     74.3174E+06     47.4924E+06    -20.7045E+06    -20.7032E+06     47.4911E+06     74.3174E+06     107.019E+03
            1359     96.4843E-03     12.4121E-03     95.6826E-03     392.952E-03    -189.855E-03    -203.049E-03    -186.797E-03     376.700E-03    -189.855E-03     193.189E-03     573.926E-03     80.4567E+06     74.1267E+06     51.8301E+06    -15.1114E+06    -15.1044E+06     51.8231E+06     74.1267E+06    -419.534E+03
            1360     96.8129E-03     13.2424E-03     95.9029E-03     406.913E-03    -189.988E-03    -217.107E-03    -192.427E-03     382.232E-03    -189.988E-03     236.956E-03     604.703E-03     78.5921E+06     75.7553E+06     56.2552E+06    -10.7373E+06    -10.6551E+06     56.1731E+06     75.7553E+06    -553.042E+03
            1361     97.3494E-03     14.0678E-03     96.3276E-03     404.868E-03    -190.222E-03    -214.855E-03    -194.207E-03     384.219E-03    -190.222E-03     203.648E-03     569.693E-03     78.1726E+06     81.4788E+06     60.8958E+06    -4.89669E+06    -4.79395E+06     60.7931E+06     81.4788E+06    -8.59584E+03
            1362     96.2362E-03     824.571E-06     96.2327E-03     382.227E-03    -189.935E-03    -192.368E-03    -191.970E-03     382.223E-03    -190.328E-03    -2.50577E-03     383.939E-03     175.726E+06    -125.155E+06    -130.731E+06    -303.561E+06    -130.005E+06    -303.557E+06    -125.886E+06     32.0319E+03
            1363     96.2267E-03     1.65194E-03     96.2126E-03     380.836E-03    -189.916E-03    -190.937E-03    -189.906E-03     380.826E-03    -190.937E-03    -4.59467E-03     385.479E-03     169.841E+06    -111.628E+06    -125.999E+06    -288.125E+06    -126.014E+06    -288.110E+06    -111.628E+06     111.063E+03
            1364     96.2267E-03     2.48091E-03     96.1947E-03     380.333E-03    -189.685E-03    -190.671E-03    -189.675E-03     380.323E-03    -190.671E-03    -4.75318E-03     389.967E-03     158.556E+06    -94.8401E+06    -118.150E+06    -263.674E+06    -118.167E+06    -263.657E+06    -94.8401E+06     384.481E+03
            1365     96.2372E-03     3.30738E-03     96.1804E-03     380.005E-03    -189.540E-03    -190.571E-03    -189.534E-03     379.999E-03    -190.571E-03    -3.19617E-03     397.090E-03     140.357E+06    -76.6283E+06    -109.865E+06    -230.424E+06    -109.871E+06    -230.418E+06    -76.6283E+06    -237.213E+03
            1366     96.2625E-03     4.13453E-03     96.1737E-03     379.260E-03    -188.891E-03    -190.579E-03    -188.887E-03     379.255E-03    -190.579E-03     1.11761E-03     406.184E-03     119.505E+06    -57.7192E+06    -101.909E+06    -192.666E+06    -101.914E+06    -192.661E+06    -57.7192E+06    -356.947E+03
            1367     96.2921E-03     4.96207E-03     96.1642E-03     378.270E-03    -188.152E-03    -190.548E-03    -188.109E-03     378.226E-03    -190.548E-03     8.69819E-03     417.316E-03     96.3396E+06    -36.9971E+06    -92.2899E+06    -147.140E+06    -92.3752E+06    -147.055E+06    -36.9971E+06     830.705E+03
            1368     96.3382E-03     5.78828E-03     96.1641E-03     377.388E-03    -187.391E-03    -190.478E-03    -187.222E-03     377.219E-03    -190.478E-03     18.7708E-03     430.907E-03     74.9925E+06    -15.3708E+06    -74.4496E+06    -99.3930E+06    -82.1660E+06    -91.6765E+06    -15.3708E+06     1.59634E+06
            1369     96.4067E-03     6.61626E-03     96.1794E-03     377.179E-03    -187.006E-03    -190.401E-03    -186.524E-03     376.697E-03    -190.401E-03     31.9584E-03     447.925E-03     72.1777E+06     4.60041E+06    -27.2765E+06    -72.3085E+06    -72.2164E+06    -27.3687E+06     4.60041E+06     1.02264E+06
            1370     96.4999E-03     7.44472E-03     96.2123E-03     377.501E-03    -187.156E-03    -190.307E-03    -186.065E-03     376.410E-03    -190.307E-03     48.7678E-03     467.985E-03     78.5236E+06     18.6465E+06     11.4573E+06    -63.2172E+06    -63.2011E+06     11.4413E+06     18.6465E+06     547.214E+03
            1371     96.6148E-03     8.27166E-03     96.2600E-03     376.608E-03    -186.522E-03    -190.324E-03    -184.410E-03     374.497E-03    -190.324E-03     68.0013E-03     488.176E-03     81.4566E+06     31.5450E+06     20.4313E+06    -54.8516E+06    -54.8465E+06     20.4261E+06     31.5450E+06     362.373E+03
            1372     96.7684E-03     9.10009E-03     96.3396E-03     376.643E-03    -186.867E-03    -190.299E-03    -182.547E-03     372.323E-03    -190.299E-03     96.6012E-03     513.071E-03     87.5369E+06     49.3820E+06     29.6205E+06    -46.2562E+06    -46.2475E+06     29.6119E+06     49.3820E+06     169.186E+03
            1373     96.9961E-03     9.92731E-03     96.4868E-03     379.938E-03    -189.152E-03    -191.054E-03    -182.361E-03     372.335E-03    -190.242E-03     129.944E-03     540.115E-03     92.1925E+06     65.1267E+06     37.4114E+06    -37.7183E+06    -37.7029E+06     37.3960E+06     65.1267E+06     30.7237E+03
            1374     97.2348E-03     10.7591E-03     96.6377E-03     383.463E-03    -190.132E-03    -193.609E-03    -182.966E-03     372.820E-03    -190.132E-03     154.981E-03     558.091E-03     90.9999E+06     72.6278E+06     43.0223E+06    -29.4864E+06    -29.4786E+06     43.0146E+06     72.6278E+06     70.3013E+03
            1375     97.5483E-03     11.5854E-03     96.8579E-03     390.329E-03    -189.978E-03    -200.525E-03    -184.814E-03     374.618E-03    -189.978E-03     188.882E-03     576.526E-03     85.9393E+06     73.4462E+06     47.0958E+06    -22.5686E+06    -22.5666E+06     47.0939E+06     73.4462E+06    -143.655E+03
            1376     97.9303E-03     12.4126E-03     97.1404E-03     392.500E-03    -189.829E-03    -202.674E-03    -186.485E-03     376.311E-03    -189.829E-03     192.683E-03     573.248E-03     81.0685E+06     73.1806E+06     51.1810E+06    -16.6043E+06    -16.5932E+06     51.1700E+06     73.1806E+06    -318.594E+03
            1377     98.2599E-03     13.2398E-03     97.3638E-03     407.294E-03    -189.945E-03    -217.433E-03    -192.927E-03     382.788E-03    -189.945E-03     236.402E-03     604.753E-03     78.7904E+06     76.0187E+06     56.9681E+06    -10.5345E+06    -10.4629E+06     56.8965E+06     76.0187E+06    -128.897E+03
            1378     98.7995E-03     14.0692E-03     97.7927E-03     405.154E-03    -190.166E-03    -215.112E-03    -194.679E-03     384.721E-03    -190.166E-03     202.559E-03     569.973E-03     78.7391E+06     81.8644E+06     61.4024E+06    -5.04575E+06    -4.95911E+06     61.3157E+06     81.8644E+06     89.7296E+03
            1379     97.7002E-03     827.941E-06     97.6966E-03     380.435E-03    -189.179E-03    -191.314E-03    -190.288E-03     380.429E-03    -190.199E-03    -3.17240E-03     382.046E-03     178.923E+06    -124.687E+06    -127.740E+06    -305.095E+06    -127.541E+06    -305.078E+06    -124.904E+06     7.65774E+03
            1380     97.6890E-03     1.65492E-03     97.6750E-03     381.054E-03    -190.066E-03    -191.042E-03    -190.711E-03     381.044E-03    -190.387E-03    -4.59190E-03     385.611E-03     172.870E+06    -111.542E+06    -122.865E+06    -289.672E+06    -122.882E+06    -289.655E+06    -111.542E+06     1.24202E+06
            1381     97.6896E-03     2.48039E-03     97.6581E-03     381.294E-03    -190.304E-03    -191.019E-03    -190.705E-03     381.284E-03    -190.609E-03    -4.55986E-03     390.760E-03     159.221E+06    -94.2600E+06    -116.310E+06    -263.222E+06    -116.345E+06    -263.186E+06    -94.2600E+06     1.21576E+06
            1382     97.7027E-03     3.30648E-03     97.6467E-03     380.511E-03    -189.871E-03    -190.725E-03    -189.866E-03     380.506E-03    -190.725E-03    -2.90684E-03     397.648E-03     139.398E+06    -76.9376E+06    -109.919E+06    -229.650E+06    -109.951E+06    -229.618E+06    -76.9376E+06     785.677E+03
            1383     97.7239E-03     4.13268E-03     97.6364E-03     379.272E-03    -188.732E-03    -190.734E-03    -188.727E-03     379.267E-03    -190.734E-03     1.37221E-03     406.378E-03     118.841E+06    -57.3584E+06    -102.135E+06    -191.707E+06    -102.157E+06    -191.684E+06    -57.3584E+06    -253.403E+03
            1384     97.7528E-03     4.96117E-03     97.6269E-03     378.179E-03    -187.915E-03    -190.637E-03    -187.871E-03     378.135E-03    -190.637E-03     8.81452E-03     417.143E-03     97.0154E+06    -38.0425E+06    -92.5933E+06    -149.331E+06    -92.6110E+06    -149.313E+06    -38.0425E+06    -237.708E+03
            1385     97.7996E-03     5.78911E-03     97.6281E-03     377.578E-03    -187.518E-03    -190.524E-03    -187.343E-03     377.404E-03    -190.524E-03     19.0332E-03     430.999E-03     73.4539E+06    -18.8603E+06    -73.3191E+06    -102.108E+06    -82.5858E+06    -92.8410E+06    -18.8603E+06     670.997E+03
            1386     97.8661E-03     6.61658E-03     97.6422E-03     377.226E-03    -187.039E-03    -190.452E-03    -186.553E-03     376.740E-03    -190.452E-03     32.2080E-03     448.084E-03     69.9932E+06     1.80843E+06    -26.5339E+06    -73.2006E+06    -73.1220E+06    -26.6124E+06     1.80843E+06     570.082E+03
            1387     97.9593E-03     7.44350E-03     97.6761E-03     376.825E-03    -186.565E-03    -190.335E-03    -185.476E-03     375.736E-03    -190.335E-03     48.6742E-03     467.334E-03     78.9641E+06     18.5449E+06     11.1167E+06    -63.8577E+06    -63.8509E+06     11.1099E+06     18.5449E+06     352.971E+03
            1388     98.0730E-03     8.27135E-03     97.7236E-03     376.183E-03    -186.154E-03    -190.314E-03    -184.117E-03     374.146E-03    -190.314E-03     66.8916E-03     487.970E-03     82.2572E+06     32.7427E+06     20.7415E+06    -54.8107E+06    -54.8048E+06     20.7356E+06     32.7427E+06     531.988E+03
            1389     98.2174E-03     9.10247E-03     97.7947E-03     376.689E-03    -186.893E-03    -190.272E-03    -182.648E-03     372.444E-03    -190.272E-03     95.5205E-03     513.043E-03     88.0468E+06     49.8948E+06     29.8937E+06    -46.3623E+06    -46.3537E+06     29.8851E+06     49.8948E+06     755.732E+03
            1390     98.4507E-03     9.92643E-03     97.9490E-03     379.936E-03    -189.069E-03    -191.210E-03    -182.419E-03     372.291E-03    -190.215E-03     130.264E-03     539.608E-03     92.5680E+06     65.1654E+06     37.6075E+06    -38.0217E+06     -37.997E+06     37.5827E+06     65.1654E+06     770.537E+03
            1391     98.6817E-03     10.7563E-03     98.0937E-03     383.752E-03    -190.113E-03    -194.081E-03    -183.317E-03     372.988E-03    -190.113E-03     155.935E-03     558.321E-03     91.6584E+06     72.4168E+06     43.2420E+06    -30.2758E+06    -30.2571E+06     43.2234E+06     72.4168E+06     430.142E+03
            1392     98.9983E-03     11.5843E-03     98.3182E-03     390.101E-03    -189.976E-03    -200.368E-03    -184.705E-03     374.437E-03    -189.976E-03     188.650E-03     576.298E-03     86.7432E+06     73.5885E+06     47.7376E+06    -23.1343E+06    -23.1320E+06     47.7353E+06     73.5885E+06    -3.87599E+03
            1393     99.3815E-03     12.4134E-03     98.6032E-03     392.562E-03    -189.818E-03    -202.651E-03    -186.521E-03     376.433E-03    -189.818E-03     192.429E-03     572.833E-03     81.2871E+06     74.0189E+06     51.1760E+06    -16.2438E+06    -16.2352E+06     51.1675E+06     74.0189E+06    -215.760E+03
            1394     99.7113E-03     13.2416E-03     98.8282E-03     408.016E-03    -189.905E-03    -218.015E-03    -193.539E-03     383.539E-03    -189.905E-03     236.689E-03     605.116E-03     78.9725E+06     76.2227E+06     57.2068E+06    -10.4762E+06    -10.4198E+06     57.1504E+06     76.2227E+06    -207.054E+03
            1395     100.245E-03     14.0650E-03     99.2536E-03     404.537E-03    -190.110E-03    -214.564E-03    -194.240E-03     384.214E-03    -190.110E-03     201.984E-03     569.756E-03     78.2155E+06     80.7818E+06     61.3741E+06    -5.24519E+06    -5.16388E+06     61.2928E+06     80.7818E+06    -189.942E+03
            1396     99.1572E-03     827.859E-06     99.1538E-03     380.382E-03    -189.355E-03    -191.057E-03    -190.128E-03     380.372E-03    -190.275E-03    -4.61285E-03     381.891E-03     182.081E+06    -122.854E+06    -126.392E+06    -306.649E+06    -126.321E+06    -306.584E+06    -122.990E+06     878.434E+03
            1397     99.1546E-03     1.65436E-03     99.1408E-03     381.064E-03    -190.140E-03    -191.004E-03    -190.781E-03     381.051E-03    -190.349E-03    -5.50395E-03     385.641E-03     173.343E+06    -113.161E+06    -122.593E+06    -290.990E+06    -122.618E+06    -290.966E+06    -113.161E+06     876.945E+03
            1398     99.1522E-03     2.48006E-03     99.1212E-03     380.863E-03    -189.974E-03    -190.932E-03    -190.375E-03     380.853E-03    -190.521E-03    -4.47894E-03     390.438E-03     158.080E+06    -97.6638E+06    -117.217E+06    -264.448E+06    -117.257E+06    -264.409E+06    -97.6638E+06     1.41710E+06
            1399     99.1634E-03     3.30720E-03     99.1083E-03     380.104E-03    -189.534E-03    -190.591E-03    -189.531E-03     380.101E-03    -190.591E-03    -1.84802E-03     397.189E-03     139.833E+06    -77.1143E+06    -109.548E+06    -230.100E+06    -109.579E+06    -230.069E+06    -77.1143E+06     1.20550E+06
            1400     99.1837E-03     4.13440E-03     99.0975E-03     379.639E-03    -189.147E-03    -190.630E-03    -189.141E-03     379.633E-03    -190.630E-03     2.39297E-03     406.541E-03     117.971E+06    -57.0566E+06    -100.726E+06    -190.250E+06    -100.809E+06    -190.167E+06    -57.0566E+06     1.00678E+06
            1401     99.2124E-03     4.96085E-03     99.0883E-03     378.844E-03    -188.573E-03    -190.641E-03    -188.526E-03     378.797E-03    -190.641E-03     9.40499E-03     417.895E-03     96.2058E+06    -38.3777E+06    -92.8058E+06    -148.638E+06    -92.8854E+06    -148.558E+06    -38.3777E+06     411.926E+03
            1402     99.2559E-03     5.78778E-03     99.0870E-03     377.805E-03    -187.662E-03    -190.589E-03    -187.487E-03     377.631E-03    -190.589E-03     19.0852E-03     431.467E-03     73.2447E+06    -20.2664E+06    -74.6216E+06    -103.334E+06    -84.2130E+06    -93.7429E+06    -20.2664E+06    -338.198E+03
            1403     99.3269E-03     6.61514E-03     99.1063E-03     377.174E-03    -186.916E-03    -190.521E-03    -186.424E-03     376.682E-03    -190.521E-03     32.3572E-03     448.159E-03     69.9602E+06     865.737E+03    -27.1707E+06    -74.3556E+06    -74.3406E+06    -27.1857E+06     865.737E+03     159.559E+03
            1404     99.4129E-03     7.44238E-03     99.1339E-03     376.492E-03    -186.169E-03    -190.386E-03    -185.088E-03     375.411E-03    -190.386E-03     48.5204E-03     467.094E-03     79.8000E+06     18.2897E+06     10.0788E+06    -65.2911E+06    -65.2863E+06     10.0740E+06     18.2897E+06     453.750E+03
            1405     99.5241E-03     8.27359E-03     99.1796E-03     376.061E-03    -185.990E-03    -190.321E-03    -183.975E-03     374.045E-03    -190.321E-03     66.4834E-03     487.570E-03     83.2375E+06     32.9953E+06     20.2798E+06    -55.8283E+06    -55.8267E+06     20.2783E+06     32.9953E+06     265.573E+03
            1406     99.6709E-03     9.09940E-03     99.2547E-03     376.819E-03    -187.036E-03    -190.284E-03    -182.862E-03     372.645E-03    -190.284E-03     94.8314E-03     513.397E-03     88.6595E+06     50.2327E+06     30.2317E+06    -46.6677E+06    -46.6614E+06     30.2255E+06     50.2327E+06     653.760E+03
            1407     99.8926E-03     9.92685E-03     99.3982E-03     379.667E-03    -189.033E-03    -190.978E-03    -182.178E-03     372.070E-03    -190.235E-03     129.714E-03     539.181E-03     92.8576E+06     65.2134E+06     37.8462E+06    -38.2128E+06    -38.1937E+06     37.8271E+06     65.2134E+06     953.343E+03
            1408     100.136E-03     10.7617E-03     99.5565E-03     383.290E-03    -190.097E-03    -193.581E-03    -182.935E-03     372.644E-03    -190.097E-03     155.016E-03     557.043E-03     91.7800E+06     73.2551E+06     43.8710E+06    -29.6164E+06    -29.5985E+06     43.8530E+06     73.2551E+06     852.050E+03
            1409     100.450E-03     11.5845E-03     99.7801E-03     390.491E-03    -189.964E-03    -200.737E-03    -185.202E-03     374.955E-03    -189.964E-03     187.923E-03     576.759E-03     86.4992E+06     74.5989E+06     48.8021E+06    -21.8536E+06    -21.8498E+06     48.7984E+06     74.5989E+06     257.984E+03
            1410     100.827E-03     12.4112E-03     100.060E-03     393.405E-03    -189.841E-03    -203.501E-03    -187.326E-03     377.230E-03    -189.841E-03     193.009E-03     573.824E-03     81.3680E+06     74.5971E+06     51.6962E+06    -15.7663E+06    -15.7471E+06     51.6770E+06     74.5971E+06     164.276E+03
            1411     101.162E-03     13.2387E-03     100.292E-03     407.654E-03    -189.923E-03    -217.589E-03    -192.990E-03     383.056E-03    -189.923E-03     237.032E-03     604.594E-03     78.7708E+06     76.5662E+06     56.7623E+06    -10.1807E+06    -10.1234E+06     56.7050E+06     76.5662E+06     225.764E+03
            1412     101.692E-03     14.0676E-03     100.714E-03     403.822E-03    -190.065E-03    -213.823E-03    -193.409E-03     383.408E-03    -190.065E-03     202.070E-03     569.172E-03     77.8454E+06     80.7967E+06     60.8962E+06    -5.02217E+06    -4.95947E+06     60.8335E+06     80.7967E+06    -170.306E+03
            1413     100.620E-03     825.203E-06     100.616E-03     381.309E-03    -190.019E-03    -191.362E-03    -191.284E-03     381.302E-03    -190.091E-03    -3.48838E-03     382.845E-03     181.946E+06    -124.941E+06    -130.055E+06    -309.368E+06    -128.743E+06    -309.293E+06    -126.329E+06     819.047E+03
            1414     100.614E-03     1.65257E-03     100.600E-03     380.676E-03    -190.139E-03    -190.632E-03    -190.128E-03     380.665E-03    -190.632E-03    -4.74897E-03     385.339E-03     172.882E+06    -113.421E+06    -125.041E+06    -291.755E+06    -125.072E+06    -291.723E+06    -113.421E+06     722.297E+03
            1415     100.612E-03     2.48156E-03     100.582E-03     379.928E-03    -189.473E-03    -190.496E-03    -189.460E-03     379.915E-03    -190.496E-03    -5.22879E-03     389.621E-03     158.461E+06    -98.0131E+06    -118.845E+06    -265.773E+06    -118.870E+06    -265.748E+06    -98.0131E+06     690.056E+03
            1416     100.622E-03     3.30885E-03     100.567E-03     379.554E-03    -189.227E-03    -190.387E-03    -189.221E-03     379.549E-03    -190.387E-03    -2.71240E-03     396.636E-03     139.920E+06    -78.5870E+06    -110.356E+06    -231.425E+06    -110.370E+06    -231.411E+06    -78.5870E+06     813.163E+03
            1417     100.643E-03     4.13500E-03     100.558E-03     379.582E-03    -189.281E-03    -190.441E-03    -189.275E-03     379.576E-03    -190.441E-03     2.13278E-03     406.403E-03     118.144E+06    -57.8960E+06    -101.819E+06    -191.302E+06    -101.895E+06    -191.225E+06    -57.8960E+06     1.19205E+06
            1418     100.669E-03     4.96168E-03     100.547E-03     379.228E-03    -189.067E-03    -190.549E-03    -189.015E-03     379.176E-03    -190.549E-03     9.83715E-03     418.357E-03     95.7450E+06    -36.8156E+06    -92.3311E+06    -146.408E+06    -92.4088E+06    -146.331E+06    -36.8156E+06     715.362E+03
            1419     100.712E-03     5.78739E-03     100.545E-03     378.221E-03    -188.081E-03    -190.596E-03    -187.892E-03     378.032E-03    -190.596E-03     19.9320E-03     432.116E-03     74.0445E+06    -17.5163E+06    -75.2766E+06    -100.690E+06    -83.1953E+06    -92.7711E+06    -17.5163E+06     33.8168E+03
            1420     100.777E-03     6.61576E-03     100.559E-03     377.080E-03    -186.761E-03    -190.549E-03    -186.265E-03     376.583E-03    -190.549E-03     32.6239E-03     448.077E-03     71.1153E+06     1.57871E+06    -28.7133E+06    -74.1951E+06    -74.1734E+06    -28.7350E+06     1.57871E+06     334.435E+03
            1421     100.866E-03     7.44400E-03     100.591E-03     376.638E-03    -186.278E-03    -190.392E-03    -185.197E-03     375.557E-03    -190.392E-03     48.5135E-03     467.040E-03     79.5625E+06     18.3244E+06     10.6683E+06    -64.7800E+06    -64.7682E+06     10.6566E+06     18.3244E+06     791.888E+03
            1422     100.977E-03     8.26989E-03     100.637E-03     376.064E-03    -186.024E-03    -190.323E-03    -184.001E-03     374.041E-03    -190.323E-03     66.6105E-03     487.502E-03     83.5866E+06     32.7944E+06     20.0463E+06    -56.3867E+06    -56.3783E+06     20.0380E+06     32.7944E+06     565.822E+03
            1423     101.122E-03     9.10252E-03     100.711E-03     377.116E-03    -187.412E-03    -190.305E-03    -183.222E-03     372.926E-03    -190.305E-03     95.0851E-03     513.639E-03     89.3228E+06     50.3657E+06     29.9276E+06    -47.3529E+06    -47.3484E+06     29.9231E+06     50.3657E+06     159.608E+03
            1424     101.344E-03     9.92581E-03     100.856E-03     380.590E-03    -189.784E-03    -191.150E-03    -183.180E-03     373.173E-03    -190.338E-03     128.556E-03     540.514E-03     92.9573E+06     66.0092E+06     38.3844E+06    -37.5912E+06    -37.5864E+06     38.3796E+06     66.0092E+06    -105.137E+03
            1425     101.582E-03     10.7545E-03     101.011E-03     382.743E-03    -190.222E-03    -192.768E-03    -182.379E-03     372.354E-03    -190.222E-03     152.918E-03     556.835E-03     91.0403E+06     73.0097E+06     43.3989E+06    -29.1494E+06    -29.1454E+06     43.3949E+06     73.0097E+06     137.655E+03
            1426     101.895E-03     11.5856E-03     101.235E-03     390.115E-03    -190.013E-03    -200.284E-03    -184.660E-03     374.491E-03    -190.013E-03     188.218E-03     575.424E-03     85.7262E+06     73.5590E+06     47.9194E+06    -22.0409E+06    -22.0062E+06     47.8847E+06     73.5590E+06     927.953E+03
            1427     102.280E-03     12.4113E-03     101.524E-03     393.813E-03    -189.841E-03    -203.969E-03    -187.597E-03     377.441E-03    -189.841E-03     194.266E-03     573.806E-03     80.8567E+06     74.8081E+06     52.5299E+06    -14.8520E+06    -14.8033E+06     52.4812E+06     74.8081E+06     972.192E+03
            1428     102.606E-03     13.2388E-03     101.748E-03     407.278E-03    -189.855E-03    -217.216E-03    -192.448E-03     382.511E-03    -189.855E-03     237.639E-03     604.753E-03     78.6207E+06     77.2315E+06     57.2085E+06    -9.44784E+06    -9.38674E+06     57.1474E+06     77.2315E+06     370.498E+03
            1429     103.134E-03     14.0684E-03     102.170E-03     403.799E-03    -189.939E-03    -213.799E-03    -193.293E-03     383.293E-03    -189.939E-03     202.096E-03     569.281E-03     77.9826E+06     81.0433E+06     60.8372E+06    -5.02806E+06    -4.96926E+06     60.7784E+06     81.0433E+06     86.9474E+03
            1430     102.084E-03     827.854E-06     102.081E-03     380.384E-03    -189.504E-03    -190.972E-03    -190.329E-03     380.381E-03    -190.145E-03    -2.61083E-03     381.913E-03     183.568E+06    -123.235E+06    -129.072E+06    -309.650E+06    -127.727E+06    -309.608E+06    -124.623E+06    -379.377E+03
            1431     102.076E-03     1.65394E-03     102.062E-03     380.566E-03    -190.037E-03    -190.625E-03    -190.334E-03     380.558E-03    -190.321E-03    -3.92657E-03     385.197E-03     175.738E+06    -111.620E+06    -122.697E+06    -292.559E+06    -122.723E+06    -292.533E+06    -111.620E+06     67.7597E+03
            1432     102.069E-03     2.48018E-03     102.039E-03     380.213E-03    -189.664E-03    -190.605E-03    -189.861E-03     380.201E-03    -190.396E-03    -5.27813E-03     389.959E-03     162.322E+06    -94.5392E+06    -116.157E+06    -266.485E+06    -116.170E+06    -266.471E+06    -94.5392E+06     690.581E+03
            1433     102.077E-03     3.30765E-03     102.023E-03     379.506E-03    -189.264E-03    -190.353E-03    -189.257E-03     379.500E-03    -190.353E-03    -3.09137E-03     396.633E-03     141.176E+06    -77.4981E+06    -109.913E+06    -231.835E+06    -109.927E+06    -231.821E+06    -77.4981E+06     941.640E+03
            1434     102.098E-03     4.13514E-03     102.015E-03     379.305E-03    -189.049E-03    -190.411E-03    -189.044E-03     379.299E-03    -190.411E-03     1.93297E-03     406.177E-03     119.207E+06    -56.4362E+06    -100.263E+06    -191.025E+06    -100.282E+06    -191.007E+06    -56.4362E+06     199.079E+03
            1435     102.127E-03     4.96207E-03     102.006E-03     378.900E-03    -188.748E-03    -190.495E-03    -188.699E-03     378.852E-03    -190.495E-03     9.37502E-03     418.026E-03     97.3722E+06    -36.1261E+06    -90.9530E+06    -147.612E+06    -90.9717E+06    -147.593E+06    -36.1261E+06     199.650E+03
            1436     102.169E-03     5.78918E-03     102.005E-03     378.309E-03    -188.196E-03    -190.540E-03    -188.014E-03     378.127E-03    -190.540E-03     19.5125E-03     432.005E-03     74.9374E+06    -16.6504E+06    -74.8164E+06    -100.797E+06    -82.3067E+06    -93.3068E+06    -16.6504E+06     1.24785E+06
            1437     102.233E-03     6.61498E-03     102.019E-03     377.655E-03    -187.286E-03    -190.541E-03    -186.812E-03     377.182E-03    -190.541E-03     31.9347E-03     448.629E-03     72.0815E+06     2.81391E+06    -28.4917E+06    -73.8843E+06    -73.7108E+06    -28.6653E+06     2.81391E+06     1.50400E+06
            1438     102.320E-03     7.44259E-03     102.049E-03     376.554E-03    -186.272E-03    -190.385E-03    -185.200E-03     375.482E-03    -190.385E-03     48.1532E-03     467.037E-03     79.8253E+06     18.5112E+06     10.7933E+06    -64.8834E+06    -64.8626E+06     10.7725E+06     18.5112E+06     1.17409E+06
            1439     102.433E-03     8.27276E-03     102.099E-03     376.169E-03    -186.255E-03    -190.311E-03    -184.250E-03     374.164E-03    -190.311E-03     66.4341E-03     487.637E-03     83.6332E+06     33.6276E+06     21.0080E+06    -55.5554E+06    -55.5442E+06     20.9968E+06     33.6276E+06     616.141E+03
            1440     102.570E-03     9.09914E-03     102.166E-03     377.597E-03    -187.850E-03    -190.333E-03    -183.611E-03     373.358E-03    -190.333E-03     95.4768E-03     514.048E-03     89.1655E+06     50.8842E+06     30.3909E+06    -46.6798E+06    -46.6773E+06     30.3885E+06     50.8842E+06    -148.035E+03
            1441     102.805E-03     9.92394E-03     102.325E-03     380.550E-03    -189.795E-03    -191.091E-03    -182.897E-03     372.976E-03    -190.415E-03     129.896E-03     540.000E-03     93.0160E+06     65.7293E+06     37.6913E+06    -38.0453E+06    -38.0386E+06     37.6845E+06     65.7293E+06         507.594
            1442     103.027E-03     10.7572E-03     102.464E-03     383.579E-03    -190.307E-03    -193.639E-03    -183.059E-03     372.999E-03    -190.307E-03     154.535E-03     557.769E-03     91.7637E+06     72.6200E+06     43.2034E+06    -30.2359E+06    -30.2304E+06     43.1978E+06     72.6200E+06     279.423E+03
            1443     103.341E-03     11.5827E-03     102.690E-03     390.416E-03    -190.086E-03    -200.655E-03    -184.871E-03     374.632E-03    -190.086E-03     189.285E-03     575.890E-03     85.8791E+06     73.0945E+06     47.8088E+06    -22.5751E+06    -22.5179E+06     47.7516E+06     73.0945E+06     208.372E+03
            1444     103.726E-03     12.4122E-03     102.980E-03     392.378E-03    -189.894E-03    -202.419E-03    -186.136E-03     376.095E-03    -189.894E-03     193.144E-03     572.126E-03     80.8124E+06     73.7137E+06     51.5506E+06    -15.8655E+06    -15.7873E+06     51.4724E+06     73.7137E+06     452.793E+03
            1445     104.048E-03     13.2409E-03     103.202E-03     406.887E-03    -189.738E-03    -216.632E-03    -192.073E-03     382.328E-03    -189.738E-03     236.402E-03     604.380E-03     79.0180E+06     76.8384E+06     57.0750E+06    -10.1706E+06    -10.1045E+06     57.0089E+06     76.8384E+06     440.609E+03
            1446     104.582E-03     14.0674E-03     103.632E-03     404.236E-03    -189.793E-03    -214.160E-03    -193.687E-03     383.763E-03    -189.793E-03     202.446E-03     569.646E-03     78.4302E+06     81.4364E+06     61.4680E+06    -5.02725E+06    -4.95311E+06     61.3939E+06     81.4364E+06     332.787E+03
            1447     103.544E-03     827.184E-06     103.541E-03     379.920E-03    -189.356E-03    -190.633E-03    -189.868E-03     379.914E-03    -190.115E-03    -3.36825E-03     381.396E-03     184.504E+06    -121.957E+06    -128.158E+06    -309.457E+06    -127.971E+06    -309.427E+06    -122.174E+06     881.764E+03
            1448     103.536E-03     1.65520E-03     103.523E-03     380.099E-03    -189.789E-03    -190.341E-03    -190.083E-03     380.087E-03    -190.037E-03    -4.91254E-03     384.604E-03     177.274E+06    -110.381E+06    -122.446E+06    -293.347E+06    -122.473E+06    -293.320E+06    -110.381E+06     353.278E+03
            1449     103.530E-03     2.48176E-03     103.500E-03     380.456E-03    -189.929E-03    -190.555E-03    -190.302E-03     380.445E-03    -190.170E-03    -5.02491E-03     390.125E-03     163.655E+06    -94.4969E+06    -115.500E+06    -267.526E+06    -115.505E+06    -267.521E+06    -94.4969E+06     514.470E+03
            1450     103.537E-03     3.30789E-03     103.484E-03     380.141E-03    -189.683E-03    -190.493E-03    -189.854E-03     380.137E-03    -190.318E-03    -2.62949E-03     397.149E-03     142.319E+06    -75.2114E+06    -106.987E+06    -230.547E+06    -106.991E+06    -230.543E+06    -75.2114E+06     449.404E+03
            1451     103.559E-03     4.13462E-03     103.476E-03     379.459E-03    -189.115E-03    -190.476E-03    -189.109E-03     379.453E-03    -190.476E-03     2.11913E-03     406.268E-03     119.425E+06    -56.6552E+06    -99.7102E+06    -191.274E+06    -99.7244E+06    -191.259E+06    -56.6552E+06     829.693E+03
            1452     103.584E-03     4.96168E-03     103.465E-03     378.844E-03    -188.679E-03    -190.575E-03    -188.637E-03     378.803E-03    -190.575E-03     8.90498E-03     418.029E-03     97.9574E+06    -36.9727E+06    -91.8559E+06    -149.211E+06    -91.9118E+06    -149.155E+06    -36.9727E+06     1.38030E+06
            1453     103.625E-03     5.78836E-03     103.463E-03     378.129E-03    -187.977E-03    -190.556E-03    -187.809E-03     377.960E-03    -190.556E-03     18.6182E-03     431.784E-03     76.2040E+06    -16.8275E+06    -75.7368E+06    -102.344E+06    -82.8388E+06    -95.2419E+06    -16.8275E+06     1.91263E+06
            1454     103.691E-03     6.61602E-03     103.479E-03     377.653E-03    -187.285E-03    -190.490E-03    -186.809E-03     377.177E-03    -190.490E-03     31.9034E-03     448.523E-03       72.42E+06     2.86173E+06    -28.8263E+06    -73.9993E+06    -73.7683E+06    -29.0573E+06     2.86173E+06     2.13937E+06
            1455     103.774E-03     7.44221E-03     103.507E-03     377.071E-03    -186.728E-03    -190.318E-03    -185.672E-03     376.014E-03    -190.318E-03     47.9806E-03     467.547E-03     80.0541E+06     18.9154E+06     11.2782E+06    -64.6720E+06    -64.6432E+06     11.2494E+06     18.9154E+06     1.33703E+06
            1456     103.884E-03     8.27056E-03     103.555E-03     376.612E-03    -186.579E-03    -190.290E-03    -184.507E-03     374.539E-03    -190.290E-03     67.3210E-03     488.095E-03     83.5326E+06     34.2440E+06     21.8812E+06    -54.7446E+06    -54.7342E+06     21.8709E+06     34.2440E+06     642.635E+03
            1457     104.031E-03     9.09925E-03     103.632E-03     377.150E-03    -187.324E-03    -190.350E-03    -183.050E-03     372.877E-03    -190.350E-03     96.1202E-03     513.651E-03     88.9519E+06      51.296E+06     30.8120E+06    -46.0281E+06    -46.0216E+06     30.8055E+06      51.296E+06     304.701E+03
            1458     104.248E-03     9.92614E-03     103.774E-03     379.810E-03    -189.148E-03    -190.921E-03    -182.142E-03     372.271E-03    -190.388E-03     129.338E-03     538.428E-03     92.9658E+06     65.5008E+06     36.9296E+06    -38.3613E+06    -38.3566E+06     36.9249E+06     65.5008E+06     420.226E+03
            1459     104.483E-03     10.7585E-03     103.928E-03     383.769E-03    -190.222E-03    -194.010E-03    -183.385E-03     373.144E-03    -190.222E-03     154.950E-03     557.434E-03     91.7877E+06     73.3684E+06     43.6171E+06    -29.5925E+06    -29.5848E+06     43.6093E+06     73.3684E+06     283.851E+03
            1460     104.788E-03     11.5820E-03     104.146E-03     391.237E-03    -190.061E-03    -201.588E-03    -185.727E-03     375.376E-03    -190.061E-03     190.011E-03     577.235E-03     86.5016E+06     74.4022E+06     48.9469E+06    -21.9549E+06    -21.8534E+06     48.8454E+06     74.4022E+06     378.496E+03
            1461     105.168E-03     12.4092E-03     104.433E-03     392.421E-03    -189.997E-03    -202.442E-03    -186.103E-03     376.082E-03    -189.997E-03     193.481E-03     572.737E-03     81.5651E+06     74.1354E+06     51.1756E+06    -16.4373E+06    -16.3102E+06     51.0485E+06     74.1354E+06     658.422E+03
            1462     105.499E-03     13.2398E-03     104.665E-03     406.377E-03    -189.747E-03    -216.188E-03    -191.473E-03     381.662E-03    -189.747E-03     236.851E-03     604.264E-03     79.6474E+06     76.7887E+06     56.3683E+06    -11.0404E+06    -10.9537E+06     56.2817E+06     76.7887E+06     416.471E+03
            1463     106.036E-03     14.0680E-03     105.098E-03     404.243E-03    -189.728E-03    -214.133E-03    -193.539E-03     383.649E-03    -189.728E-03     202.645E-03     569.355E-03     79.1367E+06     81.8844E+06     61.7851E+06    -5.33762E+06    -5.23339E+06     61.6809E+06     81.8844E+06     215.696E+03
            1464     105.005E-03     826.225E-06     105.002E-03     380.835E-03    -189.541E-03    -191.367E-03    -191.131E-03     380.828E-03    -189.771E-03    -3.57372E-03     382.381E-03     182.595E+06    -124.996E+06    -128.855E+06    -309.457E+06    -128.291E+06    -309.422E+06    -125.595E+06    -172.110E+03
            1465     104.996E-03     1.65316E-03     104.983E-03     380.124E-03    -189.830E-03    -190.364E-03    -189.815E-03     380.109E-03    -190.364E-03    -5.76498E-03     384.676E-03     176.828E+06    -111.931E+06    -123.364E+06    -294.125E+06    -123.380E+06    -294.109E+06    -111.931E+06     435.254E+03
            1466     104.990E-03     2.48185E-03     104.961E-03     380.243E-03    -189.779E-03    -190.470E-03    -189.938E-03     380.227E-03    -190.295E-03    -5.96764E-03     389.876E-03     163.243E+06    -96.0129E+06    -117.150E+06    -268.701E+06    -117.152E+06    -268.699E+06    -96.0129E+06     239.823E+03
            1467     104.998E-03     3.30807E-03     104.946E-03     380.450E-03    -189.840E-03    -190.536E-03    -190.009E-03     380.443E-03    -190.361E-03    -3.53582E-03     397.612E-03     141.208E+06    -76.7372E+06    -109.320E+06    -231.145E+06    -109.329E+06    -231.136E+06    -76.7372E+06     903.252E+03
            1468     105.014E-03     4.13399E-03     104.933E-03     379.817E-03    -189.388E-03    -190.569E-03    -189.382E-03     379.810E-03    -190.569E-03     1.61631E-03     406.883E-03     120.920E+06    -56.0242E+06    -100.820E+06    -192.649E+06    -100.842E+06    -192.627E+06    -56.0242E+06     1.37322E+06
            1469     105.041E-03     4.96135E-03     104.924E-03     378.847E-03    -188.652E-03    -190.678E-03    -188.608E-03     378.803E-03    -190.678E-03     9.09575E-03     418.061E-03     99.0818E+06    -36.2869E+06    -91.8426E+06    -149.797E+06    -91.9126E+06    -149.727E+06    -36.2869E+06     1.72370E+06
            1470     105.078E-03     5.78746E-03     104.919E-03     378.130E-03    -187.762E-03    -190.597E-03    -187.597E-03     377.965E-03    -190.597E-03     18.5636E-03     431.832E-03     76.2712E+06    -16.7882E+06    -77.4330E+06    -101.467E+06    -82.2266E+06    -96.6735E+06    -16.7882E+06     1.69769E+06
            1471     105.143E-03     6.61551E-03     104.934E-03     377.501E-03    -186.986E-03    -190.459E-03    -186.512E-03     377.027E-03    -190.459E-03     31.7367E-03     448.159E-03     72.2256E+06     2.97125E+06    -29.6976E+06    -72.5305E+06    -72.3937E+06    -29.8344E+06     2.97125E+06     1.70669E+06
            1472     105.231E-03     7.44359E-03     104.968E-03     377.330E-03    -186.967E-03    -190.293E-03    -185.904E-03     376.267E-03    -190.293E-03     48.1816E-03     467.594E-03     79.7281E+06     19.4708E+06     12.7262E+06    -63.3972E+06    -63.3540E+06     12.6830E+06     19.4708E+06     1.68600E+06
            1473     105.338E-03     8.26970E-03     105.013E-03     376.557E-03    -186.439E-03    -190.288E-03    -184.334E-03     374.451E-03    -190.288E-03     67.7969E-03     488.347E-03     83.6729E+06     34.1657E+06     21.6774E+06    -54.9921E+06    -54.9583E+06     21.6436E+06     34.1657E+06     1.48898E+06
            1474     105.480E-03     9.10123E-03     105.086E-03     376.642E-03    -186.797E-03    -190.322E-03    -182.516E-03     372.361E-03    -190.322E-03     96.2768E-03     512.981E-03     89.7119E+06     51.5878E+06     30.7448E+06    -46.6433E+06    -46.6012E+06     30.7027E+06     51.5878E+06     1.49668E+06
            1475     105.701E-03     9.92369E-03     105.235E-03     380.050E-03    -189.135E-03    -191.145E-03    -182.389E-03     372.503E-03    -190.344E-03     129.422E-03     538.562E-03     93.7555E+06     66.7769E+06     38.2332E+06    -37.8927E+06    -37.8656E+06     38.2061E+06     66.7769E+06     642.230E+03
            1476     105.929E-03     10.7563E-03     105.381E-03     383.684E-03    -190.177E-03    -193.969E-03    -183.220E-03     372.935E-03    -190.177E-03     155.785E-03     557.137E-03     91.8850E+06     73.2865E+06     42.9591E+06    -29.9266E+06    -29.9071E+06     42.9396E+06     73.2865E+06     257.725E+03
            1477     106.239E-03     11.5859E-03     105.605E-03     390.725E-03    -190.041E-03    -201.194E-03    -185.417E-03     374.947E-03    -190.041E-03     189.557E-03     576.289E-03     86.6602E+06     73.8212E+06     47.7140E+06    -22.8699E+06    -22.7465E+06     47.5906E+06     73.8212E+06     688.569E+03
            1478     106.626E-03     12.4111E-03     105.901E-03     392.544E-03    -190.036E-03    -202.770E-03    -186.518E-03     376.291E-03    -190.036E-03     193.185E-03     573.169E-03     81.9226E+06     74.8957E+06     51.5332E+06    -16.1623E+06    -16.0227E+06     51.3936E+06     74.8957E+06     628.887E+03
            1479     106.945E-03     13.2387E-03     106.123E-03     407.233E-03    -189.768E-03    -217.111E-03    -192.085E-03     382.207E-03    -189.768E-03     238.658E-03     605.106E-03     80.0891E+06     78.2677E+06     57.6936E+06    -10.0520E+06    -9.97315E+06     57.6148E+06     78.2677E+06     709.506E+03
            1480     107.474E-03     14.0683E-03     106.549E-03     404.856E-03    -189.720E-03    -214.683E-03    -193.924E-03     384.097E-03    -189.720E-03     203.153E-03     569.534E-03     79.3635E+06     82.8535E+06     62.4995E+06    -4.65756E+06    -4.54749E+06     62.3894E+06     82.8535E+06     639.918E+03
            1481     106.470E-03     826.527E-06     106.467E-03     381.421E-03    -189.685E-03    -191.774E-03    -191.639E-03     381.414E-03    -189.813E-03    -3.87797E-03     382.982E-03     183.256E+06    -124.012E+06    -127.779E+06    -309.101E+06    -127.418E+06    -309.080E+06    -124.395E+06    -843.183E+03
            1482     106.458E-03     1.65335E-03     106.446E-03     381.004E-03    -190.352E-03    -190.740E-03    -190.340E-03     380.992E-03    -190.740E-03    -5.12331E-03     385.509E-03     178.323E+06    -111.625E+06    -123.273E+06    -295.396E+06    -123.277E+06    -295.392E+06    -111.625E+06     103.464E+03
            1483     106.449E-03     2.47921E-03     106.420E-03     380.652E-03    -190.022E-03    -190.697E-03    -190.009E-03     380.640E-03    -190.697E-03    -5.17802E-03     390.183E-03     164.391E+06    -94.3335E+06    -116.761E+06    -268.688E+06    -116.771E+06    -268.678E+06    -94.3335E+06    -33.2338E+03
            1484     106.459E-03     3.30712E-03     106.407E-03     380.326E-03    -189.652E-03    -190.631E-03    -189.646E-03     380.319E-03    -190.631E-03    -3.35127E-03     397.563E-03     144.185E+06    -76.0295E+06    -108.789E+06    -233.605E+06    -108.807E+06    -233.586E+06    -76.0295E+06     353.349E+03
            1485     106.476E-03     4.13354E-03     106.396E-03     379.735E-03    -189.220E-03    -190.715E-03    -189.215E-03     379.729E-03    -190.715E-03     1.48415E-03     406.976E-03     123.544E+06    -55.7278E+06    -99.7668E+06    -194.896E+06    -99.7947E+06    -194.868E+06    -55.7278E+06     1.56292E+06
            1486     106.497E-03     4.96000E-03     106.382E-03     378.537E-03    -188.299E-03    -190.710E-03    -188.251E-03     378.490E-03    -190.710E-03     9.28138E-03     417.640E-03     99.2047E+06    -36.4280E+06    -90.9068E+06    -150.105E+06    -90.9715E+06    -150.040E+06    -36.4280E+06     1.77962E+06
            1487     106.535E-03     5.78863E-03     106.378E-03     378.153E-03    -187.668E-03    -190.570E-03    -187.495E-03     377.980E-03    -190.570E-03     19.1015E-03     431.695E-03     75.8641E+06    -17.8028E+06    -77.4138E+06    -102.168E+06    -82.2900E+06    -97.2914E+06    -17.8028E+06     1.89765E+06
            1488     106.600E-03     6.61485E-03     106.394E-03     377.686E-03    -187.110E-03    -190.437E-03    -186.632E-03     377.208E-03    -190.437E-03     31.9213E-03     448.520E-03     72.3347E+06     2.30959E+06    -30.3637E+06    -73.4340E+06    -73.2110E+06    -30.5867E+06     2.30959E+06     1.98803E+06
            1489     106.685E-03     7.44181E-03     106.425E-03     376.663E-03    -186.431E-03    -190.289E-03    -185.341E-03     375.572E-03    -190.289E-03     48.6578E-03     467.067E-03     79.8708E+06     19.2382E+06     12.4949E+06    -63.7774E+06    -63.7001E+06     12.4177E+06     19.2382E+06     2.37062E+06
            1490     106.793E-03     8.27166E-03     106.472E-03     376.130E-03    -186.182E-03    -190.247E-03    -184.131E-03     374.079E-03    -190.247E-03     67.1185E-03     487.949E-03     83.8478E+06     34.0419E+06     21.4668E+06    -55.3161E+06    -55.2400E+06     21.3908E+06     34.0419E+06     2.35785E+06
            1491     106.930E-03     9.09951E-03     106.542E-03     376.546E-03    -186.829E-03    -190.278E-03    -182.530E-03     372.247E-03    -190.278E-03     96.0694E-03     512.631E-03     89.8707E+06     51.8796E+06     30.9438E+06    -46.5575E+06    -46.5047E+06      30.891E+06     51.8796E+06     1.86598E+06
            1492     107.152E-03     9.92689E-03     106.691E-03     380.155E-03    -189.011E-03    -191.402E-03    -182.474E-03     372.563E-03    -190.346E-03     130.007E-03     538.283E-03     94.5223E+06     67.3450E+06     38.7812E+06    -38.1239E+06    -38.0457E+06     38.7030E+06     67.3450E+06     1.67512E+06
            1493     107.377E-03     10.7589E-03     106.837E-03     384.084E-03    -190.209E-03    -194.245E-03    -183.589E-03     373.428E-03    -190.209E-03     155.192E-03     557.361E-03     93.1313E+06     74.4979E+06     43.4744E+06    -30.1831E+06    -30.1154E+06     43.4067E+06     74.4979E+06     1.20381E+06
            1494     107.695E-03     11.5811E-03     107.070E-03     389.879E-03    -190.029E-03    -200.325E-03    -184.605E-03     374.159E-03    -190.029E-03     188.880E-03     575.451E-03     87.2188E+06     74.2541E+06     46.7181E+06    -23.3928E+06    -23.2920E+06     46.6174E+06     74.2541E+06     577.404E+03
            1495     108.076E-03     12.4117E-03     107.361E-03     392.190E-03    -190.039E-03    -202.482E-03    -186.291E-03     375.999E-03    -190.039E-03     192.652E-03     572.197E-03     82.6485E+06     74.8024E+06     51.3145E+06    -17.0374E+06    -16.9127E+06     51.1897E+06     74.8024E+06     306.067E+03
            1496     108.390E-03     13.2418E-03     107.578E-03     408.599E-03    -189.848E-03    -218.285E-03    -193.497E-03     383.811E-03    -189.848E-03     238.132E-03     605.886E-03     81.0941E+06     78.4064E+06     59.1462E+06    -10.5429E+06    -10.4873E+06     59.0905E+06     78.4064E+06     152.189E+03
            1497     108.919E-03     14.0658E-03     108.007E-03     405.465E-03    -189.751E-03    -215.032E-03    -194.503E-03     384.935E-03    -189.751E-03     202.307E-03     570.519E-03     79.7882E+06     82.3844E+06     62.8489E+06    -5.29125E+06    -5.21108E+06     62.7688E+06     82.3844E+06     215.337E+03
            1498     107.930E-03     826.582E-06     107.927E-03     381.396E-03    -190.216E-03    -191.178E-03    -191.135E-03     381.388E-03    -190.252E-03    -3.95771E-03     382.984E-03     186.769E+06    -121.485E+06    -126.729E+06    -310.789E+06    -126.540E+06    -310.785E+06    -121.679E+06     838.228E+03
            1499     107.919E-03     1.65319E-03     107.906E-03     381.365E-03    -190.587E-03    -190.871E-03    -190.672E-03     381.354E-03    -190.775E-03    -4.88319E-03     385.925E-03     181.858E+06    -108.418E+06    -120.816E+06    -296.120E+06    -120.820E+06    -296.117E+06    -108.418E+06      711.03E+03
            1500     107.910E-03     2.48068E-03     107.882E-03     380.935E-03    -190.282E-03    -190.812E-03    -190.272E-03     380.926E-03    -190.812E-03    -4.64567E-03     390.511E-03     165.202E+06    -93.9742E+06    -114.645E+06    -268.428E+06    -114.680E+06    -268.393E+06    -93.9742E+06     741.847E+03
            1501     107.914E-03     3.30622E-03     107.864E-03     380.260E-03    -189.565E-03    -190.803E-03    -189.561E-03     380.256E-03    -190.803E-03    -2.45188E-03     397.530E-03     145.345E+06    -76.3904E+06    -108.122E+06    -234.801E+06    -108.160E+06    -234.762E+06    -76.3904E+06     633.440E+03
            1502     107.933E-03     4.13341E-03     107.854E-03     379.397E-03    -188.872E-03    -190.813E-03    -188.867E-03     379.392E-03    -190.813E-03     2.02940E-03     406.636E-03     124.794E+06    -57.9263E+06    -100.535E+06    -198.157E+06    -100.581E+06    -198.111E+06    -57.9263E+06     1.49673E+06
            1503     107.954E-03     4.96132E-03     107.840E-03     378.464E-03    -188.271E-03    -190.725E-03    -188.225E-03     378.418E-03    -190.725E-03     9.23111E-03     417.605E-03     99.3154E+06    -38.1630E+06    -91.6342E+06    -151.716E+06    -91.7746E+06    -151.576E+06    -38.1630E+06     2.62660E+06
            1504     107.991E-03     5.78788E-03     107.836E-03     377.981E-03    -187.588E-03    -190.572E-03    -187.405E-03     377.798E-03    -190.572E-03     19.4636E-03     431.514E-03     76.4092E+06    -17.9387E+06    -77.7371E+06    -103.233E+06    -83.5200E+06    -97.4498E+06    -17.9387E+06     2.88298E+06
            1505     108.058E-03     6.61507E-03     107.856E-03     377.537E-03    -187.088E-03    -190.422E-03    -186.606E-03     377.055E-03    -190.422E-03     32.2256E-03     448.390E-03     73.6479E+06     2.19899E+06    -30.6917E+06    -75.4224E+06    -74.9381E+06    -31.1759E+06     2.19899E+06     2.81741E+06
            1506     108.137E-03     7.44337E-03     107.880E-03     376.519E-03    -186.425E-03    -190.253E-03    -185.341E-03     375.435E-03    -190.253E-03     48.4450E-03     467.026E-03     80.7181E+06     18.8892E+06     11.7697E+06    -65.1429E+06    -65.0503E+06     11.6771E+06     18.8892E+06     2.62954E+06
            1507     108.248E-03     8.27100E-03     107.931E-03     375.728E-03    -185.835E-03    -190.180E-03    -183.776E-03     373.669E-03    -190.180E-03     67.1930E-03     487.506E-03     83.7816E+06     33.5513E+06     21.2495E+06    -55.6496E+06    -55.5785E+06     21.1783E+06     33.5513E+06     2.24836E+06
            1508     108.385E-03     9.10108E-03     108.002E-03     376.808E-03    -187.171E-03    -190.231E-03    -182.884E-03     372.521E-03    -190.231E-03     96.0604E-03     512.702E-03     90.0074E+06     51.7717E+06     30.7588E+06    -46.8073E+06    -46.7579E+06     30.7095E+06     51.7717E+06     1.78053E+06
            1509     108.602E-03     9.92564E-03     108.148E-03     380.691E-03    -189.578E-03    -191.434E-03    -182.997E-03     373.074E-03    -190.398E-03     130.272E-03     538.414E-03     95.1186E+06     68.3643E+06     39.0411E+06    -37.9268E+06    -37.8491E+06     38.9634E+06     68.3643E+06     1.79485E+06
            1510     108.839E-03     10.7551E-03     108.306E-03     383.701E-03    -190.333E-03    -193.852E-03    -183.276E-03     373.125E-03    -190.333E-03     154.570E-03     556.955E-03     93.7973E+06     75.6326E+06     44.4471E+06    -29.7786E+06    -29.6771E+06     44.3456E+06     75.6326E+06     1.75380E+06
            1511     109.144E-03     11.5854E-03     108.527E-03     389.873E-03    -190.061E-03    -200.236E-03    -184.711E-03     374.347E-03    -190.061E-03     187.678E-03     575.445E-03     88.1106E+06     76.3552E+06     48.7710E+06    -22.2322E+06    -22.1231E+06     48.6619E+06     76.3552E+06     1.44215E+06
            1512     109.516E-03     12.4133E-03     108.811E-03     392.894E-03    -190.060E-03    -203.055E-03    -187.022E-03     376.861E-03    -190.060E-03     191.919E-03     572.496E-03     83.1892E+06     76.2768E+06     52.4690E+06    -16.2108E+06    -16.1034E+06     52.3616E+06     76.2768E+06     839.923E+03
            1513     109.845E-03     13.2376E-03     109.044E-03     408.424E-03    -189.978E-03    -218.107E-03    -193.501E-03     383.818E-03    -189.978E-03     237.064E-03     605.731E-03     81.3354E+06     78.6622E+06     58.8397E+06    -10.7096E+06    -10.6497E+06     58.7798E+06     78.6622E+06     412.686E+03
            1514     110.363E-03     14.0657E-03     109.463E-03     404.542E-03    -189.827E-03    -214.069E-03    -193.579E-03     384.052E-03    -189.827E-03     202.244E-03     569.852E-03     79.6778E+06     82.5429E+06     62.4823E+06    -5.17723E+06    -5.11169E+06     62.4168E+06     82.5429E+06     258.426E+03
            1515     109.394E-03     827.187E-06     109.391E-03     381.272E-03    -190.213E-03    -191.073E-03    -191.068E-03     381.266E-03    -190.213E-03    -2.91710E-03     382.870E-03     188.877E+06    -121.774E+06    -126.031E+06    -312.724E+06    -125.845E+06    -312.716E+06    -121.967E+06    -188.192E+03
            1516     109.382E-03     1.65322E-03     109.369E-03     381.359E-03    -190.618E-03    -190.886E-03    -190.789E-03     381.348E-03    -190.704E-03    -4.97701E-03     386.090E-03     182.390E+06    -110.981E+06    -120.638E+06    -297.952E+06    -120.644E+06    -297.946E+06    -110.981E+06     578.175E+03
            1517     109.373E-03     2.47943E-03     109.345E-03     380.659E-03    -190.065E-03    -190.767E-03    -190.066E-03     380.647E-03    -190.755E-03    -5.15665E-03     390.446E-03     166.388E+06    -94.7384E+06    -114.187E+06    -269.889E+06    -114.218E+06    -269.857E+06    -94.7384E+06     1.74745E+06
            1518     109.377E-03     3.30733E-03     109.327E-03     379.930E-03    -189.368E-03    -190.776E-03    -189.364E-03     379.925E-03    -190.776E-03    -2.50113E-03     397.222E-03     147.396E+06    -75.4871E+06    -107.554E+06    -236.055E+06    -107.634E+06    -235.974E+06    -75.4871E+06     2.37304E+06
            1519     109.390E-03     4.13379E-03     109.312E-03     379.434E-03    -189.000E-03    -190.762E-03    -188.994E-03     379.429E-03    -190.762E-03     2.21199E-03     406.611E-03     127.698E+06    -56.0798E+06    -100.429E+06    -199.764E+06    -100.516E+06    -199.678E+06    -56.0798E+06     2.21403E+06
            1520     109.411E-03     4.96079E-03     109.298E-03     378.642E-03    -188.406E-03    -190.721E-03    -188.360E-03     378.595E-03    -190.721E-03     9.31389E-03     417.745E-03     102.851E+06    -37.0937E+06    -91.7032E+06    -154.783E+06    -91.8930E+06    -154.593E+06    -37.0937E+06     2.88685E+06
            1521     109.448E-03     5.78783E-03     109.295E-03     377.938E-03    -187.537E-03    -190.638E-03    -187.356E-03     377.758E-03    -190.638E-03     19.3429E-03     431.395E-03     78.0139E+06    -16.6990E+06    -77.1255E+06    -103.750E+06    -82.2639E+06    -98.6120E+06    -16.6990E+06     3.82710E+06
            1522     109.511E-03     6.61617E-03     109.311E-03     377.448E-03    -186.999E-03    -190.465E-03    -186.509E-03     376.958E-03    -190.465E-03     32.4024E-03     448.019E-03     73.9390E+06     4.08336E+06    -30.2053E+06    -74.0728E+06    -73.1272E+06    -31.1509E+06     4.08336E+06     3.91143E+06
            1523     109.595E-03     7.44180E-03     109.342E-03     376.520E-03    -186.423E-03    -190.233E-03    -185.363E-03     375.460E-03    -190.233E-03     48.0603E-03     466.984E-03     81.1991E+06     19.9714E+06     11.9287E+06    -64.9378E+06    -64.8082E+06     11.7990E+06     19.9714E+06     2.96973E+06
            1524     109.694E-03     8.27167E-03     109.382E-03     375.815E-03    -185.856E-03    -190.146E-03    -183.802E-03     373.761E-03    -190.146E-03     66.9612E-03     487.456E-03     84.9783E+06     34.6638E+06     21.6278E+06    -56.0106E+06    -55.9531E+06     21.5703E+06     34.6638E+06     2.07873E+06
            1525     109.834E-03     9.10196E-03     109.456E-03     377.146E-03    -187.484E-03    -190.213E-03    -183.182E-03     372.844E-03    -190.213E-03     96.4121E-03     512.895E-03     90.8869E+06     53.0933E+06     30.8836E+06    -46.7602E+06    -46.7060E+06     30.8294E+06     53.0933E+06     1.88052E+06
            1526     110.052E-03     9.92485E-03     109.604E-03     380.674E-03    -189.922E-03    -191.141E-03    -182.996E-03     373.056E-03    -190.448E-03     130.245E-03     538.632E-03     95.4792E+06     68.7748E+06     38.8790E+06    -38.0497E+06    -37.9708E+06     38.8000E+06     68.7748E+06     1.82974E+06
            1527     110.284E-03     10.7586E-03     109.758E-03     383.549E-03    -190.469E-03    -193.689E-03    -183.227E-03     373.087E-03    -190.469E-03     153.777E-03     556.739E-03     94.0370E+06     75.9441E+06     44.8090E+06    -29.7062E+06    -29.6033E+06     44.7062E+06     75.9441E+06     2.04906E+06
            1528     110.599E-03     11.5818E-03     109.991E-03     390.459E-03    -190.182E-03    -200.743E-03    -185.451E-03     375.167E-03    -190.182E-03     186.439E-03     576.016E-03     88.6271E+06     76.3296E+06     49.6519E+06    -22.5442E+06    -22.4369E+06     49.5446E+06     76.3296E+06     1.73261E+06
            1529     110.959E-03     12.4078E-03     110.263E-03     393.188E-03    -190.157E-03    -203.248E-03    -187.116E-03     377.056E-03    -190.157E-03     192.773E-03     572.798E-03     83.2698E+06     76.5927E+06     53.3436E+06    -15.8284E+06    -15.7342E+06     53.2494E+06     76.5927E+06     1.08484E+06
            1530     111.298E-03     13.2363E-03     110.509E-03     407.357E-03    -190.026E-03    -217.190E-03    -192.152E-03     382.319E-03    -190.026E-03     238.814E-03     604.467E-03     81.1177E+06     79.1540E+06     58.9156E+06    -10.1203E+06    -10.0152E+06     58.8105E+06     79.1540E+06     1.34888E+06
            1531     111.812E-03     14.0655E-03     110.924E-03     403.009E-03    -189.817E-03    -212.819E-03    -192.054E-03     382.245E-03    -189.817E-03     203.148E-03     568.027E-03     80.7925E+06     83.2724E+06     62.6223E+06    -5.77219E+06    -5.62266E+06     62.4727E+06     83.2724E+06     633.125E+03
            1532     110.858E-03     826.515E-06     110.855E-03     381.454E-03    -189.780E-03    -191.697E-03    -191.390E-03     381.447E-03    -190.080E-03    -3.22956E-03     383.133E-03     188.872E+06    -120.397E+06    -127.291E+06    -312.568E+06    -126.187E+06    -312.560E+06    -121.508E+06    -518.774E+03
            1533     110.844E-03     1.65333E-03     110.832E-03     380.830E-03    -190.219E-03    -190.760E-03    -190.296E-03     380.820E-03    -190.673E-03    -4.60816E-03     385.579E-03     184.967E+06    -108.691E+06    -120.965E+06    -299.416E+06    -120.972E+06    -299.409E+06    -108.691E+06    -271.811E+03
            1534     110.831E-03     2.48032E-03     110.803E-03     380.448E-03    -189.940E-03    -190.635E-03    -189.941E-03     380.438E-03    -190.623E-03    -4.92769E-03     390.163E-03     170.314E+06    -93.2410E+06    -114.510E+06    -273.088E+06    -114.534E+06    -273.064E+06    -93.2410E+06     1.17047E+06
            1535     110.833E-03     3.30726E-03     110.784E-03     379.970E-03    -189.460E-03    -190.713E-03    -189.455E-03     379.966E-03    -190.713E-03    -2.51770E-03     397.094E-03     152.108E+06    -73.9563E+06    -107.068E+06    -239.712E+06    -107.153E+06    -239.628E+06    -73.9563E+06     2.95409E+06
            1536     110.846E-03     4.13460E-03     110.769E-03     379.510E-03    -189.137E-03    -190.668E-03    -189.131E-03     379.504E-03    -190.668E-03     2.31602E-03     406.482E-03     131.555E+06    -52.8420E+06    -97.6611E+06    -200.659E+06    -97.8142E+06    -200.506E+06    -52.8420E+06     3.53953E+06
            1537     110.866E-03     4.96105E-03     110.755E-03     378.783E-03    -188.549E-03    -190.656E-03    -188.502E-03     378.736E-03    -190.656E-03     9.40077E-03     417.768E-03     106.611E+06    -34.3997E+06    -89.1980E+06    -156.547E+06    -89.4579E+06    -156.287E+06    -34.3997E+06     3.67818E+06
            1538     110.901E-03     5.78873E-03     110.750E-03     378.041E-03    -187.694E-03    -190.638E-03    -187.518E-03     377.865E-03    -190.638E-03     19.1750E-03     431.672E-03     81.0373E+06    -16.0879E+06    -76.8735E+06    -106.937E+06    -81.1558E+06    -102.655E+06    -16.0879E+06     4.87631E+06
            1539     110.961E-03     6.61488E-03     110.764E-03     376.975E-03    -186.614E-03    -190.435E-03    -186.112E-03     376.472E-03    -190.435E-03     32.6552E-03     447.638E-03     75.4093E+06     5.43440E+06    -29.4901E+06    -74.4950E+06    -71.9572E+06    -32.0279E+06     5.43440E+06     5.40985E+06
            1540     111.042E-03     7.44451E-03     110.793E-03     376.376E-03    -186.314E-03    -190.163E-03    -185.233E-03     375.295E-03    -190.163E-03     48.6324E-03     466.655E-03     82.3974E+06     22.8293E+06     14.2348E+06    -63.5158E+06    -63.2721E+06     13.9911E+06     22.8293E+06     4.17356E+06
            1541     111.141E-03     8.27193E-03     110.833E-03     376.847E-03    -186.828E-03    -190.127E-03    -184.770E-03     374.789E-03    -190.127E-03     67.1674E-03     488.397E-03     86.2717E+06     37.2910E+06     23.3532E+06    -55.0348E+06    -54.9034E+06     23.2218E+06     37.2910E+06     3.10147E+06
            1542     111.281E-03     9.09945E-03     110.908E-03     377.236E-03    -187.504E-03    -190.253E-03    -183.204E-03     372.936E-03    -190.253E-03     96.3606E-03     512.953E-03     91.8703E+06     54.1267E+06     30.7504E+06    -47.0868E+06    -46.9829E+06     30.6465E+06     54.1267E+06     2.59566E+06
            1543     111.494E-03     9.92697E-03     111.051E-03     380.140E-03    -189.366E-03    -191.180E-03    -182.570E-03     372.653E-03    -190.489E-03     129.123E-03     537.977E-03     95.6489E+06     68.7844E+06     37.8904E+06    -38.4720E+06    -38.3651E+06     37.7835E+06     68.7844E+06     2.49675E+06
            1544     111.740E-03     10.7543E-03     111.222E-03     383.726E-03    -190.530E-03    -193.720E-03    -183.256E-03     373.262E-03    -190.530E-03     153.705E-03     556.777E-03     93.8055E+06     75.6696E+06     44.0212E+06    -29.8609E+06    -29.7612E+06     43.9214E+06     75.6696E+06     2.36847E+06
            1545     112.051E-03     11.5805E-03     111.451E-03     390.620E-03    -190.242E-03    -200.871E-03    -185.107E-03     374.855E-03    -190.242E-03     189.191E-03     575.768E-03     88.6228E+06     76.6182E+06     49.6385E+06    -22.3295E+06    -22.2385E+06     49.5475E+06     76.6182E+06     2.04594E+06
            1546     112.411E-03     12.4116E-03     111.724E-03     393.149E-03    -190.197E-03    -203.277E-03    -186.719E-03     376.591E-03    -190.197E-03     195.149E-03     572.294E-03     83.8598E+06     76.8552E+06     53.8119E+06    -16.1125E+06    -15.9450E+06     53.6444E+06     76.8552E+06     2.15789E+06
            1547     112.749E-03     13.2369E-03     111.969E-03     406.459E-03    -190.001E-03    -216.413E-03    -191.371E-03     381.417E-03    -190.001E-03     238.664E-03     603.703E-03     81.7616E+06     79.4428E+06     59.2356E+06    -10.4895E+06    -10.2901E+06     59.0362E+06     79.4428E+06     1.64501E+06
            1548     113.254E-03     14.0694E-03     112.376E-03     402.038E-03    -189.751E-03    -212.116E-03    -191.456E-03     381.378E-03    -189.751E-03     202.220E-03     567.261E-03     81.0103E+06     85.0455E+06     64.2342E+06    -4.27893E+06    -4.08115E+06     64.0364E+06     85.0455E+06     583.604E+03
            1549     112.321E-03     825.793E-06     112.318E-03     381.107E-03    -189.454E-03    -191.649E-03    -190.343E-03     381.101E-03    -190.754E-03    -3.59192E-03     382.788E-03     189.109E+06    -119.296E+06    -125.119E+06    -311.181E+06    -124.016E+06    -311.173E+06    -120.407E+06    -476.891E+03
            1550     112.305E-03     1.65382E-03     112.293E-03     380.212E-03    -189.885E-03    -190.470E-03    -189.876E-03     380.203E-03    -190.470E-03    -4.46977E-03     384.926E-03     189.533E+06    -105.522E+06    -119.238E+06    -301.421E+06    -119.264E+06    -301.395E+06    -105.522E+06     464.382E+03
            1551     112.292E-03     2.48162E-03     112.264E-03     380.309E-03    -190.036E-03    -190.409E-03    -190.025E-03     380.298E-03    -190.409E-03    -4.89816E-03     389.947E-03     177.102E+06    -89.4386E+06    -113.179E+06    -277.129E+06    -113.228E+06    -277.080E+06    -89.4386E+06     2.03110E+06
            1552     112.291E-03     3.30774E-03     112.243E-03     380.419E-03    -189.892E-03    -190.620E-03    -189.887E-03     380.415E-03    -190.620E-03    -2.69378E-03     397.508E-03     156.724E+06    -72.2538E+06    -105.131E+06    -242.683E+06    -105.195E+06    -242.620E+06    -72.2538E+06     2.84952E+06
            1553     112.302E-03     4.13440E-03     112.225E-03     379.559E-03    -189.088E-03    -190.627E-03    -189.082E-03     379.553E-03    -190.627E-03     2.16546E-03     406.421E-03     134.532E+06    -53.7488E+06    -97.1740E+06    -204.318E+06    -97.3951E+06    -204.097E+06    -53.7488E+06     4.41622E+06
            1554     112.323E-03     4.96192E-03     112.213E-03     378.677E-03    -188.571E-03    -190.615E-03    -188.522E-03     378.628E-03    -190.615E-03     9.56983E-03     417.600E-03     109.706E+06    -33.5388E+06    -88.7734E+06    -159.103E+06    -89.3104E+06    -158.566E+06    -33.5388E+06     5.70509E+06
            1555     112.354E-03     5.78801E-03     112.205E-03     378.008E-03    -187.813E-03    -190.596E-03    -187.635E-03     377.830E-03    -190.596E-03     19.2818E-03     431.805E-03     83.9804E+06    -14.5560E+06    -77.9702E+06    -108.268E+06    -80.6274E+06    -105.611E+06    -14.5560E+06     5.54336E+06
            1556     112.415E-03     6.61692E-03     112.220E-03     376.769E-03    -186.620E-03    -190.381E-03    -186.141E-03     376.291E-03    -190.381E-03     31.9564E-03     447.585E-03     76.2313E+06     5.69530E+06    -30.3905E+06    -74.4172E+06    -70.9069E+06    -33.9008E+06     5.69530E+06     5.94515E+06
            1557     112.492E-03     7.44448E-03     112.245E-03     376.477E-03    -186.594E-03    -190.101E-03    -185.488E-03     375.371E-03    -190.101E-03     48.9053E-03     466.530E-03     82.5876E+06     24.2050E+06     16.0424E+06    -62.1460E+06    -61.6484E+06     15.5448E+06     24.2050E+06     6.06894E+06
            1558     112.598E-03     8.27162E-03     112.294E-03     377.085E-03    -187.091E-03    -190.101E-03    -185.000E-03     374.994E-03    -190.101E-03     67.9013E-03     488.752E-03     87.0399E+06     38.9201E+06     24.3874E+06    -54.3966E+06    -54.0138E+06     24.0046E+06     38.9201E+06     5.27659E+06
            1559     112.732E-03     9.10009E-03     112.365E-03     377.436E-03    -187.715E-03    -190.279E-03    -183.360E-03     373.081E-03    -190.279E-03     96.8554E-03     513.129E-03     92.4244E+06     55.5960E+06     31.6094E+06    -46.3766E+06    -46.0569E+06     31.2897E+06     55.5960E+06     4.81219E+06
            1560     112.946E-03     9.92449E-03     112.510E-03     380.005E-03    -189.521E-03    -190.938E-03    -182.229E-03     372.275E-03    -190.500E-03     131.071E-03     537.450E-03     96.7146E+06     69.6660E+06     38.2900E+06    -38.8220E+06    -38.5961E+06     38.0642E+06     69.6660E+06     3.89637E+06
            1561     113.196E-03     10.7544E-03     112.684E-03     383.351E-03    -190.495E-03    -193.441E-03    -182.590E-03     372.521E-03    -190.516E-03     156.241E-03     556.101E-03     95.1571E+06     75.6493E+06     43.9854E+06    -31.2951E+06    -31.1759E+06     43.8662E+06     75.6493E+06     2.64829E+06
            1562     113.498E-03     11.5835E-03     112.905E-03     390.751E-03    -190.209E-03    -201.013E-03    -185.029E-03     374.768E-03    -190.209E-03     190.685E-03     575.297E-03     89.9228E+06     77.2530E+06     50.4033E+06    -23.0146E+06    -22.9260E+06     50.3147E+06     77.2530E+06     2.12661E+06
            1563     113.870E-03     12.4104E-03     113.191E-03     392.892E-03    -190.177E-03    -203.063E-03    -186.647E-03     376.475E-03    -190.177E-03     194.155E-03     572.178E-03     84.8450E+06     77.3221E+06     53.7004E+06    -16.8205E+06    -16.6356E+06     53.5155E+06     77.3221E+06     1.73150E+06
            1564     114.196E-03     13.2378E-03     113.426E-03     405.755E-03    -189.913E-03    -215.881E-03    -191.004E-03     380.877E-03    -189.913E-03     237.379E-03     603.725E-03     82.4379E+06     79.8613E+06     59.2328E+06    -10.8742E+06    -10.6632E+06     59.0218E+06     79.8613E+06     1.16739E+06
            1565     114.698E-03     14.0682E-03     113.832E-03     402.259E-03    -189.647E-03    -212.466E-03    -191.722E-03     381.515E-03    -189.647E-03     203.079E-03     567.766E-03     82.6724E+06     85.4865E+06     65.7308E+06    -5.20272E+06    -5.04165E+06     65.5698E+06     85.4865E+06     744.408E+03
            1566     113.784E-03     828.275E-06     113.781E-03     380.093E-03    -189.395E-03    -190.719E-03    -189.521E-03     380.089E-03    -190.589E-03    -2.82836E-03     381.730E-03     189.874E+06    -120.290E+06    -126.168E+06    -312.960E+06    -125.229E+06    -312.938E+06    -121.251E+06     496.186E+03
            1567     113.765E-03     1.65420E-03     113.753E-03     380.398E-03    -190.057E-03    -190.493E-03    -190.351E-03     380.387E-03    -190.188E-03    -4.85576E-03     385.099E-03     191.679E+06    -107.237E+06    -120.595E+06    -305.130E+06    -120.636E+06    -305.089E+06    -107.237E+06     2.00213E+06
            1568     113.752E-03     2.48112E-03     113.725E-03     380.329E-03    -189.941E-03    -190.520E-03    -190.104E-03     380.317E-03    -190.345E-03    -5.06413E-03     390.009E-03     180.115E+06    -90.2932E+06    -113.025E+06    -280.600E+06    -113.084E+06    -280.541E+06    -90.2932E+06     2.81878E+06
            1569     113.755E-03     3.30787E-03     113.707E-03     380.182E-03    -189.719E-03    -190.557E-03    -189.714E-03     380.177E-03    -190.557E-03    -2.82678E-03     397.319E-03     160.606E+06    -72.0325E+06    -105.304E+06    -246.501E+06    -105.432E+06    -246.373E+06    -72.0325E+06     3.92167E+06
            1570     113.762E-03     4.13434E-03     113.686E-03     379.616E-03    -189.180E-03    -190.582E-03    -189.173E-03     379.609E-03    -190.582E-03     2.34527E-03     406.559E-03     138.664E+06    -53.1415E+06    -97.5183E+06    -208.285E+06    -97.7715E+06    -208.032E+06    -53.1415E+06     5.09543E+06
            1571     113.781E-03     4.96143E-03     113.673E-03     378.455E-03    -188.379E-03    -190.578E-03    -188.328E-03     378.403E-03    -190.578E-03     9.93448E-03     417.324E-03     112.950E+06    -33.6827E+06    -88.3018E+06    -162.915E+06    -88.8902E+06    -162.326E+06    -33.6827E+06     6.05866E+06
            1572     113.813E-03     5.78979E-03     113.666E-03     377.793E-03    -187.672E-03    -190.529E-03    -187.494E-03     377.615E-03    -190.529E-03     19.3945E-03     431.351E-03     85.7369E+06    -14.2176E+06    -76.3442E+06    -110.415E+06    -79.8641E+06    -106.896E+06    -14.2176E+06     6.71171E+06
            1573     113.868E-03     6.61557E-03     113.676E-03     377.520E-03    -187.389E-03    -190.367E-03    -186.900E-03     377.032E-03    -190.367E-03     32.2807E-03     448.288E-03     76.2781E+06     5.28234E+06    -31.8882E+06    -75.9989E+06    -71.8436E+06    -36.0436E+06     5.28234E+06     7.19822E+06
            1574     113.948E-03     7.44346E-03     113.705E-03     376.748E-03    -186.879E-03    -190.106E-03    -185.759E-03     375.627E-03    -190.106E-03     49.2945E-03     466.901E-03     83.2008E+06     22.9348E+06     14.3433E+06    -64.1898E+06    -63.3057E+06     13.4592E+06     22.9348E+06     8.21082E+06
            1575     114.053E-03     8.27201E-03     113.753E-03     375.850E-03    -185.931E-03    -190.059E-03    -183.812E-03     373.731E-03    -190.059E-03     68.1729E-03     487.436E-03     89.0548E+06     39.1499E+06     25.7707E+06    -55.6965E+06    -54.9002E+06     24.9745E+06     39.1499E+06     7.89390E+06
            1576     114.187E-03     9.10032E-03     113.823E-03     376.659E-03    -186.984E-03    -190.157E-03    -182.471E-03     372.146E-03    -190.157E-03     98.3573E-03     512.070E-03     93.8956E+06     56.1293E+06     32.0169E+06    -47.3825E+06    -46.8228E+06     31.4572E+06     56.1293E+06     6.61961E+06
            1577     114.395E-03     9.92751E-03     113.963E-03     379.920E-03    -189.554E-03    -190.848E-03    -182.160E-03     372.061E-03    -190.384E-03     132.287E-03     537.462E-03     98.0098E+06     71.1623E+06     40.0582E+06    -38.6162E+06    -38.2231E+06     39.6651E+06     71.1623E+06     5.48293E+06
            1578     114.645E-03     10.7577E-03     114.139E-03     383.750E-03    -190.453E-03    -193.969E-03    -183.145E-03     372.947E-03    -190.474E-03     156.196E-03     556.696E-03     97.4004E+06     78.8500E+06     47.2689E+06    -30.4192E+06    -30.1537E+06     47.0034E+06     78.8500E+06     4.15305E+06
            1579     114.957E-03     11.5821E-03     114.372E-03     390.653E-03    -190.178E-03    -200.982E-03    -185.141E-03     374.812E-03    -190.178E-03     189.848E-03     575.876E-03     91.6139E+06     78.0588E+06     50.2236E+06    -24.2233E+06    -24.0566E+06     50.0569E+06     78.0588E+06     2.70666E+06
            1580     115.316E-03     12.4110E-03     114.646E-03     391.728E-03    -190.126E-03    -202.007E-03    -185.533E-03     375.253E-03    -190.126E-03     194.283E-03     571.726E-03     85.8235E+06     77.9046E+06     53.5315E+06    -17.4450E+06    -17.2778E+06     53.3643E+06     77.9046E+06     1.56131E+06
            1581     115.644E-03     13.2400E-03     114.884E-03     405.698E-03    -189.767E-03    -215.880E-03    -190.861E-03     380.679E-03    -189.767E-03     238.446E-03     603.526E-03     83.9429E+06     80.8774E+06     60.1391E+06    -11.4345E+06    -11.1676E+06     59.8722E+06     80.8774E+06     356.545E+03
            1582     116.140E-03     14.0735E-03     115.284E-03     403.683E-03    -189.525E-03    -213.871E-03    -193.197E-03     383.009E-03    -189.525E-03     202.979E-03     569.197E-03     84.4647E+06     85.9172E+06     66.5125E+06    -6.52357E+06    -6.29086E+06     66.2798E+06     85.9172E+06     49.4844E+03
            1583     115.242E-03     827.055E-06     115.239E-03     380.349E-03    -189.839E-03    -190.489E-03    -189.960E-03     380.339E-03    -190.359E-03    -4.25916E-03     382.100E-03     189.628E+06    -123.305E+06    -130.003E+06    -316.129E+06    -129.075E+06    -316.096E+06    -124.266E+06     2.21260E+06
            1584     115.226E-03     1.65463E-03     115.214E-03     380.282E-03    -189.861E-03    -190.560E-03    -190.155E-03     380.271E-03    -190.255E-03    -5.14280E-03     384.959E-03     191.194E+06    -109.703E+06    -123.457E+06    -307.334E+06    -123.486E+06    -307.304E+06    -109.703E+06     2.07302E+06
            1585     115.211E-03     2.48039E-03     115.184E-03     380.153E-03    -189.734E-03    -190.497E-03    -189.897E-03     380.143E-03    -190.323E-03    -4.78354E-03     389.770E-03     180.942E+06    -93.6124E+06    -116.187E+06    -284.679E+06    -116.230E+06    -284.637E+06    -93.6124E+06     2.30525E+06
            1586     115.209E-03     3.30821E-03     115.162E-03     379.842E-03    -189.480E-03    -190.472E-03    -189.476E-03     379.838E-03    -190.472E-03    -2.40247E-03     396.922E-03     163.122E+06    -74.0332E+06    -107.830E+06    -251.244E+06    -107.967E+06    -251.106E+06    -74.0332E+06     3.95585E+06
            1587     115.216E-03     4.13579E-03     115.142E-03     379.406E-03    -189.162E-03    -190.469E-03    -189.155E-03     379.399E-03    -190.469E-03     2.44613E-03     406.288E-03     141.396E+06    -53.4075E+06    -98.2495E+06    -211.515E+06    -98.5512E+06    -211.213E+06    -53.4075E+06     5.61517E+06
            1588     115.232E-03     4.96226E-03     115.125E-03     378.380E-03    -188.330E-03    -190.492E-03    -188.279E-03     378.328E-03    -190.492E-03     9.89177E-03     417.114E-03     115.894E+06    -34.1013E+06    -89.0047E+06    -166.697E+06    -89.6581E+06    -166.044E+06    -34.1013E+06     6.59249E+06
            1589     115.263E-03     5.78942E-03     115.117E-03     377.709E-03    -187.756E-03    -190.455E-03    -187.569E-03     377.522E-03    -190.455E-03     19.7672E-03     431.163E-03     88.3580E+06    -15.4837E+06    -77.1816E+06    -115.414E+06    -81.4048E+06    -111.191E+06    -15.4837E+06     7.95265E+06
            1590     115.321E-03     6.61842E-03     115.131E-03     377.514E-03    -187.541E-03    -190.297E-03    -187.023E-03     376.996E-03    -190.297E-03     33.2404E-03     448.487E-03     77.1656E+06     4.86095E+06    -33.7653E+06    -78.8955E+06    -72.8288E+06    -39.8321E+06     4.86095E+06     9.59891E+06
            1591     115.400E-03     7.44309E-03     115.159E-03     376.404E-03    -186.509E-03    -190.031E-03    -185.356E-03     375.251E-03    -190.031E-03     50.0736E-03     466.923E-03     83.5510E+06     22.1926E+06     12.5209E+06    -65.6872E+06    -64.2009E+06     11.0345E+06     22.1926E+06     10.3809E+06
            1592     115.500E-03     8.27218E-03     115.203E-03     375.110E-03    -185.285E-03    -189.931E-03    -183.118E-03     372.943E-03    -189.931E-03     68.8207E-03     486.560E-03     89.7302E+06     38.6683E+06     26.6308E+06    -56.3285E+06    -55.1738E+06     25.4761E+06     38.6683E+06     9.64038E+06
            1593     115.642E-03     9.10352E-03     115.283E-03     375.845E-03    -186.272E-03    -189.929E-03    -181.803E-03     371.377E-03    -189.929E-03     97.9714E-03     511.217E-03     95.1444E+06     57.4002E+06     33.5138E+06    -47.3055E+06    -46.5104E+06     32.7188E+06     57.4002E+06     7.82244E+06
            1594     115.844E-03     9.93216E-03     115.417E-03     380.009E-03    -189.162E-03    -191.271E-03    -182.517E-03     372.321E-03    -190.228E-03     130.891E-03     537.398E-03     99.1587E+06     73.0586E+06     41.3738E+06    -38.0555E+06    -37.5496E+06     40.8679E+06     73.0586E+06     6.26261E+06
            1595     116.101E-03     10.7547E-03     115.601E-03     384.082E-03    -190.399E-03    -194.284E-03    -183.469E-03     373.267E-03    -190.399E-03     156.266E-03     557.117E-03     98.4273E+06     80.7805E+06     48.9463E+06    -29.6141E+06    -29.2005E+06     48.5327E+06     80.7805E+06     5.60635E+06
            1596     116.405E-03     11.5828E-03     115.827E-03     389.851E-03    -190.078E-03    -200.305E-03    -184.261E-03     373.807E-03    -190.078E-03     190.793E-03     575.594E-03     92.7487E+06     81.1948E+06     52.5843E+06    -22.4859E+06    -22.0552E+06     52.1536E+06     81.1948E+06     4.78947E+06
            1597     116.763E-03     12.4138E-03     116.101E-03     391.077E-03    -190.017E-03    -201.596E-03    -185.099E-03     374.580E-03    -190.017E-03     194.107E-03     571.118E-03     87.5384E+06     80.7366E+06     55.8385E+06    -16.5317E+06    -16.1879E+06     55.4947E+06     80.7366E+06     3.13219E+06
            1598     117.092E-03     13.2456E-03     116.341E-03     406.642E-03    -189.663E-03    -216.776E-03    -191.944E-03     381.811E-03    -189.663E-03     237.966E-03     604.095E-03     86.5997E+06     83.8203E+06     62.4079E+06    -11.4666E+06    -11.1179E+06     62.0593E+06     83.8203E+06     1.48193E+06
            1599     117.593E-03     14.0708E-03     116.748E-03     405.598E-03    -189.487E-03    -215.631E-03    -195.161E-03     385.128E-03    -189.487E-03     202.127E-03     570.786E-03      85.948E+06     89.4853E+06     68.2792E+06    -5.06806E+06    -4.69208E+06     67.9033E+06     89.4853E+06      385.68E+03
            1600     116.705E-03     825.805E-06     116.702E-03     380.816E-03    -189.973E-03    -190.796E-03    -190.003E-03     380.808E-03    -190.759E-03    -3.30460E-03     382.688E-03     191.464E+06    -124.912E+06    -128.665E+06    -318.222E+06    -127.735E+06    -318.190E+06    -125.874E+06     371.784E+03
            1601     116.688E-03     1.65309E-03     116.677E-03     380.086E-03    -189.811E-03    -190.421E-03    -189.837E-03     380.076E-03    -190.384E-03    -4.72667E-03     384.878E-03     192.293E+06    -111.845E+06    -123.079E+06    -309.415E+06    -123.093E+06    -309.401E+06    -111.845E+06     948.264E+03
            1602     116.672E-03     2.48231E-03     116.645E-03     379.760E-03    -189.593E-03    -190.293E-03    -189.582E-03     379.748E-03    -190.293E-03    -5.13019E-03     389.414E-03     186.201E+06    -92.2657E+06    -115.772E+06    -289.012E+06    -115.840E+06    -288.945E+06    -92.2657E+06     2.36337E+06
            1603     116.669E-03     3.30848E-03     116.622E-03     379.606E-03    -189.357E-03    -190.372E-03    -189.352E-03     379.601E-03    -190.372E-03    -2.36654E-03     396.689E-03     168.393E+06    -73.7196E+06    -107.661E+06    -256.362E+06    -107.811E+06    -256.212E+06    -73.7196E+06     4.31154E+06
            1604     116.672E-03     4.13534E-03     116.598E-03     379.009E-03    -188.859E-03    -190.355E-03    -188.851E-03     379.001E-03    -190.355E-03     2.79507E-03     405.832E-03     144.427E+06    -55.3925E+06    -99.7539E+06    -216.534E+06    -100.118E+06    -216.170E+06    -55.3925E+06     6.17172E+06
            1605     116.690E-03     4.96333E-03     116.584E-03     378.370E-03    -188.420E-03    -190.405E-03    -188.367E-03     378.317E-03    -190.405E-03     10.0994E-03     417.062E-03     119.627E+06    -34.8099E+06    -90.5557E+06    -171.513E+06    -91.5230E+06    -170.546E+06    -34.8099E+06     8.23667E+06
            1606     116.719E-03     5.79077E-03     116.575E-03     377.653E-03    -187.856E-03    -190.386E-03    -187.658E-03     377.455E-03    -190.386E-03     20.3302E-03     431.357E-03     91.9445E+06    -15.2534E+06    -78.6760E+06    -119.485E+06    -82.8053E+06    -115.356E+06    -15.2534E+06     9.39838E+06
            1607     116.779E-03     6.61627E-03     116.591E-03     376.425E-03    -186.738E-03    -190.150E-03    -186.212E-03     375.898E-03    -190.150E-03     33.5910E-03     447.686E-03     78.0662E+06     3.79359E+06    -37.4558E+06    -81.9121E+06    -74.1123E+06    -45.2557E+06     3.79359E+06     10.4155E+06
            1608     116.855E-03     7.44663E-03     116.617E-03     375.491E-03    -185.790E-03    -189.830E-03    -184.641E-03     374.342E-03    -189.830E-03     49.9141E-03     466.045E-03     83.3442E+06     21.7510E+06     10.8452E+06    -66.2648E+06    -64.5081E+06     9.08856E+06     21.7510E+06     11.3307E+06
            1609     116.954E-03     8.27597E-03     116.661E-03     375.574E-03    -185.870E-03    -189.740E-03    -183.713E-03     373.417E-03    -189.740E-03     68.7381E-03     487.009E-03     90.2581E+06     38.3151E+06     27.3408E+06    -56.7603E+06    -55.3986E+06     25.9791E+06     38.3151E+06     10.5188E+06
            1610     117.092E-03     9.10217E-03     116.738E-03     376.565E-03    -187.083E-03    -189.763E-03    -182.656E-03     372.137E-03    -189.763E-03     97.6691E-03     511.908E-03     96.0608E+06     58.3498E+06     35.1452E+06    -47.0795E+06    -46.0584E+06     34.1241E+06     58.3498E+06     8.96739E+06
            1611     117.293E-03     9.92952E-03     116.872E-03     379.822E-03    -189.329E-03    -190.864E-03    -182.258E-03     372.047E-03    -190.161E-03     131.443E-03     536.897E-03     101.038E+06     74.6782E+06     43.0491E+06    -38.3663E+06    -37.5953E+06     42.2781E+06     74.6782E+06     7.76009E+06
            1612     117.551E-03     10.7592E-03     117.058E-03     382.880E-03    -190.296E-03    -193.157E-03    -182.435E-03     372.158E-03    -190.296E-03     155.407E-03     555.978E-03     99.7876E+06     81.5600E+06     49.4357E+06    -30.3232E+06    -29.7978E+06     48.9103E+06     81.5600E+06     6.37813E+06
            1613     117.850E-03     11.5877E-03     117.279E-03     389.192E-03    -189.923E-03    -199.703E-03    -183.937E-03     373.426E-03    -189.923E-03     188.831E-03     574.889E-03     93.7245E+06     82.9493E+06     54.7047E+06    -21.6462E+06    -21.1868E+06     54.2453E+06     82.9493E+06     5.23410E+06
            1614     118.215E-03     12.4157E-03     117.562E-03     392.064E-03    -189.952E-03    -202.555E-03    -186.409E-03     375.917E-03    -189.952E-03     192.232E-03     571.878E-03     88.7117E+06     83.0840E+06     59.0095E+06    -15.1573E+06    -14.6710E+06     58.5233E+06     83.0840E+06     4.19317E+06
            1615     118.533E-03     13.2417E-03     117.791E-03     407.817E-03    -189.698E-03    -217.844E-03    -193.367E-03     383.340E-03    -189.698E-03     236.258E-03     605.532E-03     87.7941E+06     86.1533E+06     65.5162E+06    -10.1087E+06    -9.71231E+06     65.1197E+06     86.1533E+06     3.37549E+06
            1616     119.045E-03     14.0738E-03     118.210E-03     405.730E-03    -189.562E-03    -215.641E-03    -195.263E-03     385.351E-03    -189.562E-03     201.728E-03     570.717E-03     87.9697E+06     91.5868E+06     70.3850E+06    -5.02840E+06    -4.68018E+06     70.0368E+06     91.5868E+06     1.96920E+06
            1617     118.169E-03     828.292E-06     118.166E-03     379.798E-03    -189.375E-03    -190.442E-03    -189.979E-03     379.795E-03    -189.835E-03    -2.11671E-03     381.673E-03     192.989E+06    -122.851E+06    -130.490E+06    -319.511E+06    -129.596E+06    -319.442E+06    -123.813E+06     1.07148E+06
            1618     118.147E-03     1.65433E-03     118.136E-03     379.936E-03    -189.851E-03    -190.227E-03    -190.041E-03     379.929E-03    -190.030E-03    -3.96835E-03     384.760E-03     194.790E+06    -111.088E+06    -124.387E+06    -312.139E+06    -124.411E+06    -312.116E+06    -111.088E+06     1.21558E+06
            1619     118.131E-03     2.48023E-03     118.105E-03     379.579E-03    -189.528E-03    -190.218E-03    -189.623E-03     379.570E-03    -190.115E-03    -4.21856E-03     389.330E-03     189.766E+06    -94.9691E+06    -117.670E+06    -294.975E+06    -117.756E+06    -294.889E+06    -94.9691E+06     3.00476E+06
            1620     118.129E-03     3.30862E-03     118.083E-03     379.156E-03    -189.069E-03    -190.198E-03    -189.065E-03     379.152E-03    -190.198E-03    -1.95190E-03     396.294E-03     171.754E+06    -76.0659E+06    -110.453E+06    -262.251E+06    -110.668E+06    -262.036E+06    -76.0659E+06     5.34755E+06
            1621     118.131E-03     4.13705E-03     118.058E-03     378.722E-03    -188.737E-03    -190.231E-03    -188.728E-03     378.714E-03    -190.231E-03     3.05590E-03     405.614E-03     148.590E+06    -56.3563E+06    -101.948E+06    -222.173E+06    -102.414E+06    -221.707E+06    -56.3563E+06     7.21334E+06
            1622     118.142E-03     4.96407E-03     118.038E-03     378.173E-03    -188.441E-03    -190.280E-03    -188.381E-03     378.113E-03    -190.280E-03     10.7543E-03     417.050E-03     123.576E+06    -36.5272E+06    -92.2081E+06    -177.634E+06    -93.2836E+06    -176.559E+06    -36.5272E+06     8.98530E+06
            1623     118.177E-03     5.78996E-03     118.035E-03     377.219E-03    -187.578E-03    -190.221E-03    -187.374E-03     377.014E-03    -190.221E-03     20.7598E-03     430.996E-03     94.5757E+06    -16.4264E+06    -79.2462E+06    -124.007E+06    -83.8758E+06    -119.378E+06    -16.4264E+06     10.5015E+06
            1624     118.230E-03     6.62026E-03     118.045E-03     376.116E-03    -186.585E-03    -190.005E-03    -186.081E-03     375.611E-03    -190.005E-03     32.9743E-03     447.248E-03     78.8039E+06     3.94365E+06    -39.9724E+06    -83.8085E+06    -74.5648E+06    -49.2161E+06     3.94365E+06     11.4802E+06
            1625     118.311E-03     7.44700E-03     118.076E-03     375.601E-03    -186.053E-03    -189.734E-03    -184.979E-03     374.528E-03    -189.734E-03     48.2796E-03     466.085E-03     83.5416E+06     21.1322E+06     8.13223E+06    -67.6138E+06    -65.5315E+06     6.04987E+06     21.1322E+06     11.9069E+06
            1626     118.411E-03     8.27529E-03     118.121E-03     375.781E-03    -186.140E-03    -189.665E-03    -184.049E-03     373.690E-03    -189.665E-03     67.5869E-03     487.434E-03     92.3059E+06     38.0309E+06     28.6690E+06    -58.4654E+06    -56.9572E+06     27.1608E+06     38.0309E+06     11.2624E+06
            1627     118.544E-03     9.10469E-03     118.193E-03     376.804E-03    -187.309E-03    -189.691E-03    -182.930E-03     372.425E-03    -189.691E-03     97.1714E-03     512.171E-03     98.6147E+06     57.5491E+06     35.7698E+06    -49.9944E+06    -48.7599E+06     34.5352E+06     57.5491E+06     10.1307E+06
            1628     118.743E-03     9.93249E-03     118.327E-03     379.329E-03    -189.432E-03    -190.264E-03    -181.888E-03     371.649E-03    -190.128E-03     130.523E-03     536.637E-03     103.508E+06     74.6527E+06     44.1630E+06    -40.6603E+06    -39.6960E+06     43.1988E+06     74.6527E+06      8.9272E+06
            1629     119.001E-03     10.7586E-03     118.513E-03     382.270E-03    -190.264E-03    -192.647E-03    -182.166E-03     371.789E-03    -190.264E-03     153.603E-03     555.806E-03     102.143E+06     83.0342E+06     51.4779E+06    -31.1597E+06    -30.5335E+06     50.8517E+06     83.0342E+06     7.07255E+06
            1630     119.296E-03     11.5859E-03     118.732E-03     389.546E-03    -189.897E-03    -200.038E-03    -184.637E-03     374.146E-03    -189.897E-03     186.779E-03     575.207E-03     96.3153E+06     83.2398E+06     55.9325E+06    -23.7408E+06    -23.3107E+06     55.5024E+06     83.2398E+06     5.31892E+06
            1631     119.665E-03     12.4134E-03     119.020E-03     393.314E-03    -189.975E-03    -203.538E-03    -187.443E-03     377.219E-03    -189.975E-03     192.478E-03     572.145E-03     91.2971E+06     82.9184E+06     60.8264E+06    -17.3696E+06    -16.9358E+06     60.3926E+06     82.9184E+06     4.34750E+06
            1632     119.987E-03     13.2417E-03     119.254E-03     409.096E-03    -189.784E-03    -218.788E-03    -194.329E-03     384.637E-03    -189.784E-03     236.918E-03     606.350E-03     89.7729E+06     85.8317E+06     68.1511E+06    -11.3950E+06    -11.0197E+06     67.7758E+06     85.8317E+06     3.62476E+06
            1633     120.484E-03     14.0661E-03     119.660E-03     404.548E-03    -189.656E-03    -214.350E-03    -194.041E-03     384.240E-03    -189.656E-03     201.885E-03     569.721E-03     89.9010E+06     90.3156E+06     73.0996E+06    -6.82444E+06    -6.52851E+06     72.8037E+06     90.3156E+06     2.30365E+06
            1634     119.624E-03     827.201E-06     119.621E-03     378.927E-03    -188.985E-03    -189.943E-03    -189.845E-03     378.923E-03    -189.079E-03    -2.99413E-03     380.769E-03     192.360E+06    -127.677E+06    -136.952E+06    -324.475E+06    -134.277E+06    -324.383E+06    -130.444E+06     1.64082E+06
            1635     119.609E-03     1.65571E-03     119.598E-03     379.153E-03    -189.493E-03    -189.766E-03    -189.644E-03     379.143E-03    -189.606E-03    -4.46576E-03     383.875E-03     194.254E+06    -114.182E+06    -128.437E+06    -315.097E+06    -128.487E+06    -315.048E+06    -114.182E+06     2.83476E+06
            1636     119.590E-03     2.48346E-03     119.564E-03     379.361E-03    -189.578E-03    -189.939E-03    -189.719E-03     379.351E-03    -189.789E-03    -4.18311E-03     389.102E-03     190.806E+06    -97.2001E+06    -121.548E+06    -298.944E+06    -121.618E+06    -298.875E+06    -97.2001E+06     3.45141E+06
            1637     119.588E-03     3.30964E-03     119.542E-03     379.334E-03    -189.404E-03    -190.037E-03    -189.448E-03     379.331E-03    -189.990E-03    -2.01155E-03     396.448E-03     176.649E+06    -77.5131E+06    -112.765E+06    -268.994E+06    -112.952E+06    -268.807E+06    -77.5131E+06     4.96016E+06
            1638     119.590E-03     4.13657E-03     119.519E-03     378.749E-03    -188.856E-03    -190.154E-03    -188.848E-03     378.742E-03    -190.154E-03     2.50047E-03     405.711E-03     154.059E+06    -57.1573E+06    -103.114E+06    -228.742E+06    -103.595E+06    -228.261E+06    -57.1573E+06     7.45052E+06
            1639     119.602E-03     4.96453E-03     119.499E-03     377.609E-03    -187.997E-03    -190.190E-03    -187.941E-03     377.553E-03    -190.190E-03     10.2614E-03     416.611E-03     127.846E+06    -38.0885E+06    -93.4261E+06    -183.835E+06    -94.4758E+06    -182.785E+06    -38.0885E+06     9.24145E+06
            1640     119.634E-03     5.79318E-03     119.493E-03     376.844E-03    -187.502E-03    -190.053E-03    -187.313E-03     376.655E-03    -190.053E-03     19.9489E-03     430.450E-03     97.5962E+06    -18.4575E+06    -80.4458E+06    -129.832E+06    -85.1084E+06    -125.169E+06    -18.4575E+06     11.2564E+06
            1641     119.684E-03     6.61917E-03     119.501E-03     376.603E-03    -187.277E-03    -189.911E-03    -186.793E-03     376.118E-03    -189.911E-03     32.2525E-03     447.550E-03     80.8544E+06     2.93403E+06    -41.6111E+06    -87.7332E+06    -76.1330E+06    -53.2113E+06     2.93403E+06     13.2595E+06
            1642     119.768E-03     7.44586E-03     119.537E-03     376.443E-03    -186.899E-03    -189.756E-03    -185.841E-03     375.386E-03    -189.756E-03     47.9836E-03     467.028E-03     85.5165E+06     20.9711E+06     6.49789E+06    -70.2758E+06    -67.7364E+06     3.95849E+06     20.9711E+06     13.2968E+06
            1643     119.865E-03     8.27465E-03     119.579E-03     376.119E-03    -186.395E-03    -189.730E-03    -184.362E-03     374.086E-03    -189.730E-03     66.7245E-03     488.027E-03     94.3335E+06     37.9682E+06     28.7018E+06    -60.5665E+06    -58.7953E+06     26.9305E+06     37.9682E+06     12.4049E+06
            1644     119.994E-03     9.10413E-03     119.648E-03     376.192E-03    -186.594E-03    -189.719E-03    -182.408E-03     372.006E-03    -189.719E-03     94.9694E-03     512.081E-03     100.077E+06     57.8024E+06     37.2034E+06    -50.8385E+06    -49.3604E+06     35.7253E+06     57.8024E+06     11.2511E+06
            1645     120.191E-03     9.93051E-03     119.780E-03     378.664E-03    -188.856E-03    -190.262E-03    -181.513E-03     371.192E-03    -190.132E-03     128.535E-03     536.268E-03     104.647E+06     74.8913E+06     45.3456E+06    -41.3319E+06    -40.2501E+06     44.2637E+06     74.8913E+06     9.55850E+06
            1646     120.451E-03     10.7589E-03     119.970E-03     382.750E-03    -190.291E-03    -193.233E-03    -182.681E-03     372.198E-03    -190.291E-03     154.197E-03     555.823E-03     104.521E+06     83.3825E+06     52.8240E+06    -32.9995E+06    -32.1553E+06     51.9798E+06     83.3825E+06     8.30984E+06
            1647     120.747E-03     11.5867E-03     120.190E-03     390.770E-03    -189.966E-03    -201.111E-03    -185.769E-03     375.428E-03    -189.966E-03     187.027E-03     575.650E-03     99.8580E+06     83.7325E+06     58.4362E+06    -26.2972E+06     -25.635E+06     57.7740E+06     83.7325E+06     7.18403E+06
            1648     121.113E-03     12.4123E-03     120.475E-03     393.847E-03    -190.099E-03    -203.889E-03    -187.937E-03     377.895E-03    -190.099E-03     191.936E-03     571.957E-03     94.8428E+06     83.3749E+06     63.8665E+06    -19.6767E+06    -19.1794E+06     63.3692E+06     83.3749E+06     5.41873E+06
            1649     121.439E-03     13.2403E-03     120.715E-03     408.161E-03    -189.876E-03    -217.939E-03    -193.121E-03     383.343E-03    -189.876E-03     238.045E-03     604.900E-03     91.7216E+06     85.2846E+06     68.9460E+06    -13.4479E+06    -13.0223E+06     68.5204E+06     85.2846E+06     2.81911E+06
            1650     121.940E-03     14.0699E-03     121.126E-03     403.045E-03    -189.662E-03    -213.019E-03    -192.458E-03     382.485E-03    -189.662E-03     201.965E-03     567.726E-03     91.1644E+06     90.5812E+06     74.7399E+06    -7.41373E+06    -7.14824E+06     74.4744E+06     90.5812E+06     758.403E+03
            1651     121.087E-03     827.896E-06     121.084E-03     379.522E-03    -189.264E-03    -190.234E-03    -190.022E-03     379.515E-03    -189.469E-03    -3.60415E-03     381.383E-03     192.342E+06    -130.724E+06    -138.833E+06    -326.968E+06    -136.116E+06    -326.918E+06    -133.492E+06    -689.291E+03
            1652     121.066E-03     1.65493E-03     121.055E-03     379.058E-03    -189.441E-03    -189.779E-03    -189.426E-03     379.042E-03    -189.779E-03    -5.80065E-03     383.867E-03     194.975E+06    -120.541E+06    -131.295E+06    -320.588E+06    -131.352E+06    -320.531E+06    -120.541E+06     1.85035E+06
            1653     121.049E-03     2.48257E-03     121.024E-03     379.029E-03    -189.463E-03    -189.860E-03    -189.495E-03     379.014E-03    -189.813E-03    -5.74937E-03     388.915E-03     192.753E+06    -98.9932E+06    -123.379E+06    -302.639E+06    -123.483E+06    -302.535E+06    -98.9932E+06     4.16281E+06
            1654     121.044E-03     3.30987E-03     120.999E-03     379.168E-03    -189.391E-03    -189.988E-03    -189.433E-03     379.162E-03    -189.941E-03    -2.66062E-03     396.362E-03     180.661E+06    -78.3600E+06    -114.805E+06    -274.363E+06    -114.993E+06    -274.175E+06    -78.3600E+06     5.37781E+06
            1655     121.045E-03     4.13668E-03     120.974E-03     378.857E-03    -188.967E-03    -190.095E-03    -188.961E-03     378.851E-03    -190.095E-03     2.29716E-03     405.817E-03     158.000E+06    -60.2513E+06    -105.559E+06    -235.786E+06    -105.948E+06    -235.397E+06    -60.2513E+06     6.82818E+06
            1656     121.053E-03     4.96492E-03     120.951E-03     377.858E-03    -188.140E-03    -190.188E-03    -188.096E-03     377.814E-03    -190.188E-03     9.09718E-03     416.727E-03     131.553E+06    -40.4315E+06    -95.3275E+06    -190.086E+06    -96.4612E+06    -188.952E+06    -40.4315E+06     9.53597E+06
            1657     121.085E-03     5.79169E-03     120.946E-03     376.912E-03    -187.533E-03    -190.085E-03    -187.366E-03     376.745E-03    -190.085E-03     18.6015E-03     430.341E-03     101.574E+06    -20.3257E+06    -82.7827E+06    -136.605E+06    -87.0902E+06    -132.297E+06    -20.3257E+06     12.1924E+06
            1658     121.135E-03     6.62096E-03     120.954E-03     376.480E-03    -187.194E-03    -189.918E-03    -186.724E-03     376.010E-03    -189.918E-03     31.6474E-03     447.446E-03     82.6584E+06     175.776E+03    -44.6807E+06    -92.9834E+06    -78.2781E+06    -59.3860E+06     175.776E+03     13.7627E+06
            1659     121.220E-03     7.44710E-03     120.991E-03     376.637E-03    -187.055E-03    -189.779E-03    -185.981E-03     375.563E-03    -189.779E-03     48.2980E-03     467.213E-03     86.1080E+06     20.3625E+06     5.98294E+06    -71.4099E+06    -68.5689E+06     3.14201E+06     20.3625E+06     14.1708E+06
            1660     121.320E-03     8.27306E-03     121.038E-03     376.376E-03    -186.542E-03    -189.774E-03    -184.458E-03     374.292E-03    -189.774E-03     67.5637E-03     488.184E-03     94.5248E+06     38.2865E+06     29.1506E+06    -60.3728E+06    -58.3269E+06     27.1046E+06     38.2865E+06     13.3515E+06
            1661     121.445E-03     9.10148E-03     121.104E-03     376.042E-03    -186.414E-03    -189.722E-03    -182.117E-03     371.746E-03    -189.722E-03     96.1494E-03     512.074E-03     100.024E+06     57.8371E+06     38.0041E+06    -50.5290E+06    -48.8575E+06     36.3326E+06     57.8371E+06     12.0030E+06
            1662     121.645E-03     9.93211E-03     121.239E-03     379.077E-03    -188.766E-03    -190.783E-03    -181.836E-03     371.503E-03    -190.139E-03     129.584E-03     536.710E-03     105.598E+06     75.7953E+06     46.6749E+06    -41.2635E+06    -39.7846E+06      45.196E+06     75.7953E+06     11.1741E+06
            1663     121.907E-03     10.7579E-03     121.432E-03     383.661E-03    -190.367E-03    -194.069E-03    -183.503E-03     373.095E-03    -190.367E-03     154.547E-03     556.316E-03     105.720E+06     84.5229E+06     53.8432E+06    -33.1296E+06    -31.8000E+06     52.5135E+06     84.5229E+06     10.5209E+06
            1664     122.200E-03     11.5846E-03     121.649E-03     391.459E-03    -190.087E-03    -201.688E-03    -186.254E-03     376.024E-03    -190.087E-03     187.713E-03     576.160E-03     101.434E+06     85.3923E+06     61.0396E+06    -25.9503E+06    -24.8989E+06     59.9881E+06     85.3923E+06     9.19576E+06
            1665     122.569E-03     12.4088E-03     121.939E-03     393.439E-03    -190.220E-03    -203.496E-03    -187.369E-03     377.312E-03    -190.220E-03     192.840E-03     572.812E-03     95.4373E+06     85.0901E+06     67.4934E+06    -17.9014E+06    -17.2101E+06     66.8021E+06     85.0901E+06     6.42626E+06
            1666     122.885E-03     13.2378E-03     122.170E-03     406.130E-03    -189.914E-03    -216.241E-03    -190.830E-03     380.719E-03    -189.914E-03     239.737E-03     603.742E-03     92.6089E+06     88.0957E+06     72.4139E+06    -11.3221E+06    -10.7739E+06     71.8657E+06     88.0957E+06     3.60581E+06
            1667     123.388E-03     14.0722E-03     122.583E-03     402.682E-03    -189.618E-03    -212.946E-03    -191.952E-03     381.687E-03    -189.618E-03     202.642E-03     567.108E-03     93.3918E+06     95.7337E+06     78.1909E+06    -5.15203E+06    -4.76638E+06     77.8052E+06     95.7337E+06     1.45565E+06
            1668     122.547E-03     826.047E-06     122.544E-03     380.356E-03    -189.378E-03    -190.963E-03    -190.664E-03     380.349E-03    -189.669E-03    -3.79854E-03     382.178E-03     193.371E+06    -129.369E+06    -140.228E+06    -327.919E+06    -137.077E+06    -327.880E+06    -132.559E+06     963.362E+03
            1669     122.527E-03     1.65372E-03     122.516E-03     379.582E-03    -189.590E-03    -190.152E-03    -189.577E-03     379.569E-03    -190.152E-03    -5.18010E-03     384.329E-03     197.811E+06    -120.877E+06    -133.379E+06    -324.606E+06    -133.435E+06    -324.550E+06    -120.877E+06     1.20304E+06
            1670     122.506E-03     2.48139E-03     122.481E-03     379.086E-03    -189.310E-03    -190.022E-03    -189.298E-03     379.074E-03    -190.022E-03    -5.02942E-03     388.946E-03     196.235E+06    -103.419E+06    -125.947E+06    -309.814E+06    -126.036E+06    -309.725E+06    -103.419E+06     3.21686E+06
            1671     122.502E-03     3.30945E-03     122.457E-03     378.897E-03    -188.994E-03    -190.013E-03    -188.989E-03     378.892E-03    -190.013E-03    -2.70844E-03     395.980E-03     182.649E+06    -82.3924E+06    -117.330E+06    -279.837E+06    -117.595E+06    -279.571E+06    -82.3924E+06     6.15080E+06
            1672     122.498E-03     4.13785E-03     122.428E-03     378.868E-03    -188.965E-03    -190.123E-03    -188.960E-03     378.863E-03    -190.123E-03     1.98840E-03     405.608E-03     159.769E+06    -62.7014E+06    -108.262E+06    -240.111E+06    -108.692E+06    -239.680E+06    -62.7014E+06     7.41260E+06
            1673     122.508E-03     4.96394E-03     122.407E-03     378.299E-03    -188.522E-03    -190.251E-03    -188.476E-03     378.253E-03    -190.251E-03     9.17345E-03     417.077E-03     134.932E+06    -43.3842E+06    -97.9775E+06    -196.753E+06    -98.9208E+06    -195.810E+06    -43.3842E+06     8.82712E+06
            1674     122.540E-03     5.79104E-03     122.403E-03     377.032E-03    -187.496E-03    -190.158E-03    -187.316E-03     376.852E-03    -190.158E-03     19.2684E-03     430.450E-03     104.925E+06    -23.8196E+06    -85.4435E+06    -143.916E+06    -88.9931E+06    -140.367E+06    -23.8196E+06     11.6567E+06
            1675     122.586E-03     6.61873E-03     122.407E-03     376.136E-03    -186.705E-03    -189.940E-03    -186.211E-03     375.642E-03    -189.940E-03     32.4409E-03     446.942E-03      82.427E+06    -2.94369E+06    -49.2939E+06    -96.4687E+06    -79.2041E+06    -66.5585E+06    -2.94369E+06     14.4989E+06
            1676     122.674E-03     7.44575E-03     122.448E-03     376.068E-03    -186.384E-03    -189.749E-03    -185.259E-03     374.943E-03    -189.749E-03     49.3249E-03     466.388E-03     86.9927E+06     19.0829E+06     2.26177E+06    -74.2918E+06    -70.5611E+06     464.166E+03     17.1497E+06     16.0188E+06
            1677     122.780E-03     8.27499E-03     122.501E-03     375.739E-03    -185.965E-03    -189.710E-03    -183.872E-03     373.646E-03    -189.710E-03     67.8087E-03     487.481E-03     98.8671E+06     38.3519E+06     29.3469E+06    -64.6543E+06    -62.4970E+06     29.1227E+06     36.4188E+06     13.9712E+06
            1678     122.903E-03     9.10599E-03     122.565E-03     376.541E-03    -187.036E-03    -189.683E-03    -182.746E-03     372.250E-03    -189.683E-03     96.0710E-03     512.125E-03     103.947E+06     56.5716E+06     38.4435E+06    -55.1265E+06    -53.5856E+06     36.9026E+06     56.5716E+06     11.7778E+06
            1679     123.107E-03     9.93063E-03     122.706E-03     380.327E-03    -189.614E-03    -191.212E-03    -183.128E-03     372.789E-03    -190.160E-03     129.635E-03     538.082E-03     108.132E+06     74.3346E+06     45.9369E+06    -45.0913E+06    -43.6397E+06     44.4853E+06     74.3346E+06     11.2129E+06
            1680     123.369E-03     10.7558E-03     122.899E-03     384.194E-03    -190.451E-03    -194.435E-03    -183.837E-03     373.596E-03    -190.451E-03     154.821E-03     557.034E-03     107.500E+06     84.2102E+06     53.5732E+06    -35.2648E+06    -33.8232E+06     52.1317E+06     84.2102E+06     11.0062E+06
            1681     123.658E-03     11.5828E-03     123.115E-03     390.438E-03    -190.158E-03    -200.784E-03    -184.864E-03     374.518E-03    -190.158E-03     190.074E-03     575.610E-03     104.160E+06     87.2939E+06     64.7450E+06    -26.1540E+06    -25.0236E+06     63.6146E+06     87.2939E+06     9.04218E+06
            1682     124.031E-03     12.4117E-03     123.408E-03     391.803E-03    -190.178E-03    -202.161E-03    -185.538E-03     375.180E-03    -190.178E-03     195.090E-03     572.396E-03     97.7930E+06     86.4930E+06     69.5408E+06    -18.6369E+06    -17.9541E+06     68.8579E+06     86.4930E+06     5.91066E+06
            1683     124.336E-03     13.2434E-03     123.629E-03     406.445E-03    -189.823E-03    -216.429E-03    -191.203E-03     381.219E-03    -189.823E-03     239.494E-03     604.405E-03     96.2249E+06     90.5679E+06     76.4679E+06    -11.8554E+06    -11.3049E+06     75.9175E+06     90.5679E+06     4.57775E+06
            1684     124.835E-03     14.0745E-03     124.039E-03     403.919E-03    -189.581E-03    -213.926E-03    -193.101E-03     383.093E-03    -189.581E-03     203.261E-03     568.861E-03     98.1581E+06     99.1431E+06     83.8942E+06    -5.65237E+06    -5.30440E+06     83.5462E+06     99.1431E+06     2.39575E+06
            1685     124.011E-03     827.504E-06     124.008E-03     379.834E-03    -189.304E-03    -190.499E-03    -190.185E-03     379.829E-03    -189.613E-03    -3.57452E-03     381.675E-03     192.003E+06    -135.980E+06    -147.146E+06    -333.304E+06    -143.987E+06    -333.273E+06    -139.170E+06     1.89986E+06
            1686     123.988E-03     1.65459E-03     123.977E-03     379.634E-03    -189.639E-03    -190.087E-03    -189.695E-03     379.625E-03    -190.023E-03    -4.41674E-03     384.312E-03     198.707E+06    -121.938E+06    -136.803E+06    -327.596E+06    -136.884E+06    -327.515E+06    -121.938E+06     2.69406E+06
            1687     123.971E-03     2.48191E-03     123.946E-03     379.481E-03    -189.559E-03    -190.012E-03    -189.551E-03     379.474E-03    -190.012E-03    -4.13362E-03     389.153E-03     197.340E+06    -105.134E+06    -129.543E+06    -313.476E+06    -129.620E+06    -313.399E+06    -105.134E+06     2.68022E+06
            1688     123.960E-03     3.30886E-03     123.916E-03     379.370E-03    -189.323E-03    -190.083E-03    -189.319E-03     379.367E-03    -190.083E-03    -1.94358E-03     396.341E-03     185.097E+06    -86.7439E+06    -120.217E+06    -286.171E+06    -120.382E+06    -286.006E+06    -86.7439E+06     3.97509E+06
            1689     123.962E-03     4.13551E-03     123.893E-03     378.760E-03    -188.788E-03    -190.206E-03    -188.781E-03     378.753E-03    -190.206E-03     2.68778E-03     405.374E-03     161.781E+06    -66.4828E+06    -109.397E+06    -245.186E+06    -109.763E+06    -244.820E+06    -66.4828E+06     6.36467E+06
            1690     123.967E-03     4.96447E-03     123.868E-03     377.822E-03    -188.023E-03    -190.261E-03    -187.973E-03     377.772E-03    -190.261E-03     9.68243E-03     416.518E-03     137.013E+06    -47.1416E+06    -99.5490E+06    -202.352E+06    -100.196E+06    -201.705E+06    -47.1416E+06     7.90791E+06
            1691     124.000E-03     5.79159E-03     123.865E-03     376.760E-03    -187.317E-03    -190.103E-03    -187.121E-03     376.564E-03    -190.103E-03     20.0789E-03     430.258E-03     107.313E+06    -28.5418E+06    -88.4028E+06    -151.476E+06    -91.2756E+06    -148.603E+06    -28.5418E+06     10.6616E+06
            1692     124.044E-03     6.62021E-03     123.867E-03     376.081E-03    -186.723E-03    -189.878E-03    -186.196E-03     375.554E-03    -189.878E-03     33.6195E-03     446.816E-03     83.0399E+06    -7.79830E+06    -56.3797E+06    -102.803E+06    -81.9293E+06    -77.2538E+06    -7.79830E+06     15.5209E+06
            1693     124.137E-03     7.44761E-03     123.914E-03     375.657E-03    -186.027E-03    -189.677E-03    -184.905E-03     374.535E-03    -189.677E-03     49.4085E-03     465.675E-03     89.6262E+06     18.4077E+06    -4.11496E+06    -79.1902E+06    -73.5564E+06    -4.45646E+06     13.1154E+06     18.8447E+06
            1694     124.241E-03     8.27568E-03     123.965E-03     375.763E-03    -186.082E-03    -189.649E-03    -184.031E-03     373.712E-03    -189.649E-03     67.1223E-03     487.045E-03     104.535E+06     39.3956E+06     31.3310E+06    -68.8553E+06    -65.8228E+06     33.5908E+06     34.1033E+06     17.2185E+06
            1695     124.365E-03     9.10328E-03     124.031E-03     377.602E-03    -188.074E-03    -189.715E-03    -183.809E-03     373.323E-03    -189.702E-03     96.0589E-03     512.712E-03     109.220E+06     55.6293E+06     41.6681E+06    -59.6249E+06    -57.8184E+06     39.8616E+06     55.6293E+06     12.8633E+06
            1696     124.572E-03     9.92955E-03     124.176E-03     380.841E-03    -190.200E-03    -191.074E-03    -183.489E-03     373.267E-03    -190.210E-03     130.011E-03     538.733E-03     112.392E+06     72.5946E+06     45.0237E+06    -50.9271E+06    -49.7041E+06     43.8008E+06     72.5946E+06     10.5959E+06
            1697     124.828E-03     10.7547E-03     124.364E-03     383.565E-03    -190.466E-03    -193.752E-03    -182.973E-03     372.785E-03    -190.466E-03     155.876E-03     556.957E-03     112.643E+06     83.3532E+06     54.5643E+06    -40.8149E+06    -39.7429E+06     53.4922E+06     83.3532E+06     8.84354E+06
            1698     125.120E-03     11.5838E-03     124.582E-03     388.876E-03    -190.107E-03    -199.371E-03    -183.351E-03     372.857E-03    -190.107E-03     190.309E-03     574.562E-03     109.029E+06     87.7777E+06     67.7548E+06    -29.7845E+06    -29.1523E+06     67.1226E+06     87.7777E+06     6.13412E+06
            1699     125.482E-03     12.4153E-03     124.866E-03     390.900E-03    -190.081E-03    -201.486E-03    -185.032E-03     374.446E-03    -190.081E-03     193.767E-03     571.048E-03     102.237E+06     87.1209E+06     71.4460E+06    -22.0132E+06    -21.5487E+06     70.9814E+06     87.1209E+06     4.62181E+06
            1700     125.792E-03     13.2453E-03     125.093E-03     406.724E-03    -189.761E-03    -216.682E-03    -192.121E-03     382.163E-03    -189.761E-03     236.732E-03     603.886E-03     99.2863E+06     90.9598E+06     77.6983E+06    -14.2193E+06    -13.8451E+06     77.3242E+06     90.9598E+06     3.14111E+06
            1701     126.301E-03     14.0694E-03     125.514E-03     403.256E-03    -189.572E-03    -213.201E-03    -192.801E-03     382.856E-03    -189.572E-03     202.388E-03     568.236E-03     99.0214E+06     99.3850E+06     85.7686E+06    -5.66393E+06    -5.52183E+06     85.6265E+06     99.3850E+06     1.95751E+06
            1702     125.470E-03     827.860E-06     125.467E-03     378.741E-03    -189.078E-03    -189.626E-03    -189.252E-03     378.737E-03    -189.447E-03    -3.10599E-03     380.546E-03     190.311E+06    -142.010E+06    -151.218E+06    -336.746E+06    -148.645E+06    -336.733E+06    -144.597E+06     951.571E+03
            1703     125.450E-03     1.65499E-03     125.439E-03     379.518E-03    -189.585E-03    -190.027E-03    -189.973E-03     379.509E-03    -189.630E-03    -4.41541E-03     384.200E-03     195.912E+06    -129.835E+06    -141.797E+06    -331.386E+06    -141.857E+06    -331.325E+06    -129.835E+06     1.08847E+06
            1704     125.433E-03     2.48229E-03     125.408E-03     379.455E-03    -189.584E-03    -190.086E-03    -189.794E-03     379.448E-03    -189.867E-03    -4.07358E-03     389.199E-03     193.979E+06    -110.580E+06    -133.664E+06    -314.944E+06    -133.747E+06    -314.860E+06    -110.580E+06     2.36332E+06
            1705     125.427E-03     3.30902E-03     125.384E-03     379.000E-03    -189.187E-03    -189.978E-03    -189.185E-03     378.997E-03    -189.978E-03    -876.168E-06     396.119E-03     181.315E+06    -92.2365E+06    -124.849E+06    -287.580E+06    -124.880E+06    -287.549E+06    -92.2365E+06     1.73699E+06
            1706     125.426E-03     4.13679E-03     125.357E-03     378.468E-03    -188.589E-03    -190.077E-03    -188.577E-03     378.455E-03    -190.077E-03     4.35138E-03     405.101E-03     160.329E+06    -74.1352E+06    -114.481E+06    -250.627E+06    -114.599E+06    -250.509E+06    -74.1352E+06     2.51191E+06
            1707     125.435E-03     4.96416E-03     125.336E-03     377.750E-03    -188.034E-03    -190.142E-03    -187.977E-03     377.693E-03    -190.142E-03     10.7517E-03     416.400E-03     135.820E+06    -54.8649E+06    -104.387E+06    -208.225E+06    -104.776E+06    -207.836E+06    -54.8649E+06     5.31876E+06
            1708     125.464E-03     5.79239E-03     125.330E-03     377.022E-03    -187.603E-03    -190.037E-03    -187.420E-03     376.838E-03    -190.037E-03     19.6053E-03     430.501E-03     108.647E+06    -35.2459E+06    -92.8868E+06    -159.823E+06    -94.7167E+06    -157.993E+06    -35.2459E+06     8.98303E+06
            1709     125.512E-03     6.62043E-03     125.337E-03     376.198E-03    -186.876E-03    -189.862E-03    -186.389E-03     375.710E-03    -189.862E-03     32.2789E-03     446.827E-03     83.4554E+06    -14.5710E+06    -65.5973E+06    -110.650E+06    -84.1898E+06    -92.0575E+06    -14.5710E+06     14.7683E+06
            1710     125.601E-03     7.44649E-03     125.380E-03     375.654E-03    -186.144E-03    -189.651E-03    -185.062E-03     374.571E-03    -189.651E-03     48.4631E-03     465.422E-03     87.8155E+06     15.4077E+06    -13.1133E+06    -81.5559E+06    -74.5624E+06    -12.0812E+06     7.38214E+06     19.6679E+06
            1711     125.702E-03     8.27560E-03     125.429E-03     376.137E-03    -186.505E-03    -189.636E-03    -184.403E-03     374.035E-03    -189.636E-03     67.8552E-03     486.965E-03     105.276E+06     39.8485E+06     30.4616E+06    -69.6119E+06    -65.7024E+06     35.7762E+06     30.6243E+06     20.2613E+06
            1712     125.833E-03     9.10459E-03     125.504E-03     377.575E-03    -187.993E-03    -189.713E-03    -183.610E-03     373.178E-03    -189.700E-03     97.4928E-03     512.500E-03     112.481E+06     56.2073E+06     46.0793E+06    -60.7846E+06    -57.6233E+06     44.1167E+06     55.0086E+06     17.6173E+06
            1713     126.036E-03     9.92961E-03     125.644E-03     380.247E-03    -189.775E-03    -190.793E-03    -182.684E-03     372.495E-03    -190.132E-03     131.336E-03     538.243E-03     117.080E+06     75.3798E+06     50.9904E+06    -51.7757E+06    -49.8813E+06     49.0961E+06     75.3798E+06     12.4690E+06
            1714     126.294E-03     10.7569E-03     125.835E-03     382.812E-03    -190.293E-03    -193.070E-03    -182.188E-03     371.931E-03    -190.293E-03     156.475E-03     557.269E-03     116.295E+06     86.7613E+06     58.8440E+06    -40.8994E+06    -40.1796E+06     58.1241E+06     86.7613E+06     7.22687E+06
            1715     126.575E-03     11.5862E-03     126.044E-03     389.382E-03    -189.975E-03    -199.836E-03    -183.992E-03     373.539E-03    -189.975E-03     189.563E-03     575.249E-03     111.580E+06     89.8477E+06     68.8487E+06    -30.6961E+06    -30.3068E+06     68.4595E+06     89.8477E+06     4.96284E+06
            1716     126.957E-03     12.4128E-03     126.349E-03     392.191E-03    -190.061E-03    -202.627E-03    -186.273E-03     375.837E-03    -190.061E-03     193.729E-03     571.556E-03     104.449E+06     90.2196E+06     75.0702E+06    -20.9654E+06    -20.7335E+06     74.8383E+06     90.2196E+06     3.08180E+06
            1717     127.224E-03     13.2450E-03     126.533E-03     405.475E-03    -189.754E-03    -215.820E-03    -190.960E-03     380.615E-03    -189.754E-03     237.461E-03     602.769E-03     99.5728E+06     91.8944E+06     79.1929E+06    -13.4196E+06    -13.2275E+06     79.0008E+06     91.8944E+06     1.19161E+06
            1718     127.733E-03     14.0738E-03     126.955E-03     401.328E-03    -189.511E-03    -211.648E-03    -190.961E-03     380.642E-03    -189.511E-03     203.045E-03     566.298E-03     99.5124E+06     97.0766E+06     84.7275E+06    -8.02837E+06    -7.89291E+06     84.5920E+06     97.0766E+06     553.611E+03
            1719     126.930E-03     828.313E-06     126.927E-03     378.315E-03    -188.625E-03    -189.667E-03    -189.425E-03     378.313E-03    -188.865E-03    -2.49273E-03     379.999E-03     187.901E+06    -145.246E+06    -153.258E+06    -337.020E+06    -150.689E+06    -337.002E+06    -147.833E+06     210.769E+03
            1720     126.914E-03     1.65579E-03     126.903E-03     378.941E-03    -189.333E-03    -189.713E-03    -189.675E-03     378.934E-03    -189.365E-03    -3.69748E-03     383.504E-03     189.069E+06    -135.850E+06    -146.330E+06    -329.910E+06    -146.354E+06    -329.885E+06    -135.850E+06    -1.34880E+06
            1721     126.899E-03     2.48184E-03     126.874E-03     378.877E-03    -189.371E-03    -189.844E-03    -189.594E-03     378.870E-03    -189.615E-03    -3.53478E-03     388.725E-03     188.276E+06    -119.736E+06    -138.142E+06    -316.477E+06    -138.228E+06    -316.391E+06    -119.736E+06    -1.68112E+06
            1722     126.890E-03     3.31051E-03     126.847E-03     378.496E-03    -188.993E-03    -189.725E-03    -189.002E-03     378.494E-03    -189.714E-03    -835.676E-06     395.595E-03     174.166E+06    -99.8096E+06    -128.554E+06    -286.416E+06    -128.635E+06    -286.336E+06    -99.8096E+06    -1.10982E+06
            1723     126.890E-03     4.13837E-03     126.822E-03     378.180E-03    -188.544E-03    -189.845E-03    -188.532E-03     378.169E-03    -189.845E-03     3.92421E-03     404.666E-03     156.416E+06    -80.1156E+06    -118.724E+06    -252.125E+06    -118.768E+06    -252.082E+06    -80.1156E+06    -1.44613E+06
            1724     126.900E-03     4.96634E-03     126.803E-03     377.861E-03    -188.357E-03    -189.978E-03    -188.291E-03     377.795E-03    -189.978E-03     11.3799E-03     416.360E-03     136.179E+06    -61.3531E+06    -107.769E+06    -214.441E+06    -107.853E+06    -214.358E+06    -61.3531E+06     702.286E+03
            1725     126.931E-03     5.79173E-03     126.799E-03     377.398E-03    -188.042E-03    -189.927E-03    -187.836E-03     377.192E-03    -189.927E-03     20.9035E-03     430.765E-03     110.832E+06    -42.0467E+06    -96.0602E+06    -169.046E+06    -96.7854E+06    -168.321E+06    -42.0467E+06     5.02614E+06
            1726     126.976E-03     6.61850E-03     126.803E-03     376.647E-03    -187.307E-03    -189.832E-03    -186.795E-03     376.135E-03    -189.832E-03     33.1813E-03     447.081E-03     84.5342E+06    -22.5538E+06    -75.0366E+06    -119.907E+06    -86.6270E+06    -108.317E+06    -22.5538E+06     11.5969E+06
            1727     127.065E-03     7.44779E-03     126.846E-03     376.267E-03    -186.750E-03    -189.679E-03    -185.640E-03     375.157E-03    -189.679E-03     49.1415E-03     466.026E-03     84.7752E+06     8.55045E+06    -23.4477E+06    -85.1206E+06    -76.6977E+06    -23.5295E+06     209.310E+03     18.4068E+06
            1728     127.170E-03     8.27476E-03     126.900E-03     376.214E-03    -186.501E-03    -189.723E-03    -184.390E-03     374.103E-03    -189.723E-03     68.0525E-03     487.254E-03     104.006E+06     37.7938E+06     25.9766E+06    -71.4923E+06    -67.3808E+06     33.6823E+06     25.9766E+06     20.7497E+06
            1729     127.296E-03     9.10371E-03     126.970E-03     376.430E-03    -186.806E-03    -189.810E-03    -182.473E-03     372.097E-03    -189.810E-03     96.6248E-03     511.587E-03     113.046E+06     56.4981E+06     47.1637E+06    -60.9000E+06    -57.4761E+06      47.216E+06     53.0219E+06     18.7384E+06
            1730     127.501E-03     9.93284E-03     127.113E-03     379.003E-03    -188.844E-03    -190.516E-03    -181.542E-03     371.272E-03    -190.086E-03     130.797E-03     536.993E-03     118.679E+06     79.4511E+06     60.3025E+06    -47.4549E+06    -45.2423E+06     58.0899E+06     79.4511E+06     13.9973E+06
            1731     127.746E-03     10.7611E-03     127.292E-03     383.006E-03    -190.030E-03    -193.372E-03    -182.540E-03     372.174E-03    -190.030E-03     156.269E-03     557.110E-03     118.205E+06     92.9699E+06     65.5606E+06    -36.5067E+06    -35.5377E+06     64.5917E+06     92.9699E+06     8.59888E+06
            1732     127.986E-03     11.5931E-03     127.459E-03     390.073E-03    -189.757E-03    -200.785E-03    -184.955E-03     374.243E-03    -189.757E-03     189.631E-03     576.047E-03     112.794E+06     94.8489E+06     72.0550E+06    -27.5155E+06    -27.1269E+06     71.6665E+06     94.8489E+06     5.24639E+06
            1733     128.372E-03     12.4111E-03     127.771E-03     391.796E-03    -189.997E-03    -202.214E-03    -185.566E-03     375.148E-03    -189.997E-03     195.409E-03     571.599E-03     105.667E+06     93.4898E+06     77.4555E+06    -19.2700E+06    -19.0580E+06     77.2435E+06     93.4898E+06     3.63185E+06
            1734     128.662E-03     13.2488E-03     127.978E-03     404.476E-03    -189.671E-03    -214.806E-03    -189.413E-03     379.083E-03    -189.671E-03     239.702E-03     601.923E-03     100.909E+06     93.7925E+06     80.7405E+06    -12.9886E+06    -12.7956E+06     80.5475E+06     93.7925E+06     1.87907E+06
            1735     129.181E-03     14.0773E-03     128.411E-03     400.546E-03    -189.382E-03    -211.172E-03    -190.116E-03     379.490E-03    -189.382E-03     204.632E-03     565.664E-03     100.070E+06     99.7425E+06     87.1404E+06    -5.99844E+06    -5.84753E+06     86.9895E+06     99.7425E+06     193.803E+03
            1736     128.388E-03     827.437E-06     128.385E-03     378.210E-03    -188.094E-03    -190.099E-03    -189.903E-03     378.207E-03    -188.287E-03    -2.65623E-03     379.795E-03     182.672E+06    -150.332E+06    -158.211E+06    -336.811E+06    -156.090E+06    -336.794E+06    -152.470E+06     62.9385E+03
            1737     128.382E-03     1.65530E-03     128.372E-03     377.996E-03    -188.860E-03    -189.185E-03    -188.869E-03     377.990E-03    -189.170E-03    -3.61330E-03     382.374E-03     178.932E+06    -138.961E+06    -150.753E+06    -323.455E+06    -150.825E+06    -323.382E+06    -138.961E+06    -2.42406E+06
            1738     128.375E-03     2.48455E-03     128.351E-03     378.250E-03    -189.189E-03    -189.325E-03    -189.202E-03     378.244E-03    -189.306E-03    -3.42724E-03     387.939E-03     178.225E+06    -123.510E+06    -142.359E+06    -310.385E+06    -142.749E+06    -309.995E+06    -123.510E+06    -6.99708E+06
            1739     128.361E-03     3.31039E-03     128.318E-03     378.490E-03    -189.193E-03    -189.441E-03    -189.211E-03     378.488E-03    -189.421E-03    -672.380E-06     395.389E-03     167.962E+06    -106.041E+06    -130.992E+06    -285.008E+06    -131.646E+06    -284.354E+06    -106.041E+06    -8.78600E+06
            1740     128.356E-03     4.13782E-03     128.289E-03     378.125E-03    -188.671E-03    -189.635E-03    -188.658E-03     378.113E-03    -189.635E-03     4.08250E-03     404.487E-03     152.234E+06    -86.5976E+06    -120.408E+06    -252.748E+06    -120.921E+06    -252.235E+06    -86.5976E+06    -7.15443E+06
            1741     128.364E-03     4.96584E-03     128.268E-03     377.441E-03    -188.088E-03    -189.814E-03    -188.018E-03     377.370E-03    -189.814E-03     11.7112E-03     415.873E-03     135.882E+06    -66.4274E+06    -109.476E+06    -218.468E+06    -109.888E+06    -218.056E+06    -66.4274E+06    -5.11286E+06
            1742     128.401E-03     5.79419E-03     128.270E-03     376.896E-03    -187.754E-03    -189.741E-03    -187.544E-03     376.687E-03    -189.741E-03     21.1153E-03     430.131E-03     115.085E+06    -47.1148E+06    -97.4776E+06    -178.426E+06    -97.7968E+06    -178.107E+06    -47.1148E+06    -1.87985E+06
            1743     128.442E-03     6.62266E-03     128.271E-03     376.799E-03    -187.732E-03    -189.680E-03    -187.190E-03     376.258E-03    -189.680E-03     33.9745E-03     447.152E-03     87.1164E+06    -28.0164E+06    -81.7495E+06    -127.642E+06    -85.5066E+06    -123.885E+06    -28.0164E+06     4.40654E+06
            1744     128.534E-03     7.44582E-03     128.318E-03     376.861E-03    -187.463E-03    -189.609E-03    -186.282E-03     375.680E-03    -189.609E-03     50.7798E-03     466.736E-03     77.5053E+06    -1.34248E+06    -33.3514E+06    -85.8444E+06    -73.7118E+06    -41.8092E+06    -5.01728E+06     14.3856E+06
            1745     128.661E-03     8.27119E-03     128.395E-03     376.458E-03    -186.708E-03    -189.748E-03    -184.566E-03     374.316E-03    -189.748E-03     68.6936E-03     487.561E-03     97.6325E+06     35.2233E+06     20.9470E+06    -68.5969E+06    -63.7537E+06     28.7941E+06     22.5330E+06     21.2212E+06
            1746     128.773E-03     9.10174E-03     128.451E-03     376.127E-03    -186.464E-03    -189.907E-03    -182.216E-03     371.880E-03    -189.907E-03     95.6918E-03     511.508E-03     112.898E+06     61.4161E+06     48.7208E+06    -57.0407E+06    -54.0429E+06     54.7385E+06     52.4006E+06     17.8354E+06
            1747     128.969E-03     9.92791E-03     128.586E-03     378.895E-03    -188.554E-03    -190.703E-03    -181.485E-03     371.276E-03    -190.154E-03     129.773E-03     537.069E-03     118.523E+06     80.4215E+06     63.5867E+06    -45.3298E+06    -43.6765E+06     61.9333E+06     80.4215E+06     12.8225E+06
            1748     129.186E-03     10.7618E-03     128.737E-03     383.289E-03    -189.951E-03    -193.452E-03    -182.563E-03     372.400E-03    -189.951E-03     156.661E-03     555.971E-03     121.920E+06     97.3791E+06      72.128E+06    -35.1123E+06    -33.8166E+06     70.8323E+06     97.3791E+06     10.5203E+06
            1749     129.412E-03     11.5968E-03     128.891E-03     388.656E-03    -189.579E-03    -199.704E-03    -183.643E-03     372.595E-03    -189.579E-03     190.512E-03     574.732E-03     117.036E+06     99.7018E+06     77.5983E+06    -26.7258E+06    -26.0654E+06     76.9379E+06     99.7018E+06     6.78235E+06
            1750     129.825E-03     12.4147E-03     129.230E-03     389.797E-03    -189.806E-03    -200.877E-03    -183.919E-03     372.839E-03    -189.806E-03     196.623E-03     570.699E-03     107.835E+06     96.2202E+06     78.4841E+06    -19.3529E+06    -19.0068E+06     78.1380E+06     96.2202E+06     4.70405E+06
            1751     130.121E-03     13.2532E-03     129.445E-03     403.325E-03    -189.467E-03    -214.144E-03    -188.462E-03     377.643E-03    -189.467E-03     240.855E-03     600.829E-03     103.915E+06     98.0960E+06     85.2026E+06    -11.6364E+06    -11.3479E+06     84.9141E+06     98.0960E+06     3.37716E+06
            1752     130.641E-03     14.0808E-03     129.880E-03     398.634E-03    -188.809E-03    -210.207E-03    -188.592E-03     377.321E-03    -189.111E-03     206.077E-03     564.390E-03     102.378E+06     103.138E+06     89.8641E+06    -5.18876E+06    -5.06222E+06     89.7375E+06     103.138E+06     1.00870E+06
            1753     129.845E-03     827.677E-06     129.842E-03     377.689E-03    -187.966E-03    -189.742E-03    -189.545E-03     377.685E-03    -188.159E-03    -2.63372E-03     379.260E-03     171.621E+06    -155.932E+06    -161.539E+06    -330.263E+06    -158.623E+06    -330.092E+06    -159.019E+06    -3.11764E+06
            1754     129.822E-03     1.65662E-03     129.811E-03     377.451E-03    -188.588E-03    -188.898E-03    -188.613E-03     377.445E-03    -188.866E-03    -3.50639E-03     381.834E-03     163.918E+06    -144.762E+06    -154.221E+06    -313.171E+06    -153.671E+06    -312.773E+06    -145.711E+06    -6.76562E+06
            1755     129.811E-03     2.48350E-03     129.787E-03     377.608E-03    -188.845E-03    -189.002E-03    -188.861E-03     377.603E-03    -188.981E-03    -3.01585E-03     387.255E-03     162.463E+06    -127.343E+06    -144.726E+06    -297.728E+06    -145.684E+06    -296.769E+06    -127.343E+06    -11.3970E+06
            1756     129.805E-03     3.31291E-03     129.762E-03     377.852E-03    -188.847E-03    -189.109E-03    -188.854E-03     377.851E-03    -189.101E-03    -590.077E-06     394.835E-03     157.572E+06    -109.836E+06    -135.173E+06    -278.485E+06    -136.881E+06    -276.777E+06    -109.836E+06    -15.1674E+06
            1757     129.808E-03     4.14017E-03     129.742E-03     377.863E-03    -188.573E-03    -189.375E-03    -188.558E-03     377.848E-03    -189.375E-03     4.71791E-03     404.361E-03     147.355E+06    -91.8723E+06    -122.830E+06    -252.149E+06    -125.187E+06    -249.792E+06    -91.8723E+06    -16.1683E+06
            1758     129.819E-03     4.96738E-03     129.724E-03     377.212E-03    -187.953E-03    -189.617E-03    -187.881E-03     377.140E-03    -189.617E-03     12.1303E-03     415.721E-03     133.227E+06    -73.2480E+06    -109.941E+06    -220.836E+06    -112.497E+06    -218.281E+06    -73.2480E+06    -15.3634E+06
            1759     129.853E-03     5.79432E-03     129.724E-03     376.547E-03    -187.513E-03    -189.575E-03    -187.298E-03     376.332E-03    -189.575E-03     21.2949E-03     429.631E-03     116.835E+06    -54.3467E+06    -97.6448E+06    -186.390E+06    -99.8472E+06    -184.188E+06    -54.3467E+06    -12.3154E+06
            1760     129.903E-03     6.62121E-03     129.734E-03     376.456E-03    -187.473E-03    -189.508E-03    -186.924E-03     375.907E-03    -189.508E-03     34.2464E-03     446.740E-03     90.9045E+06    -34.4855E+06    -84.7608E+06    -138.146E+06    -86.1667E+06    -136.740E+06    -34.4855E+06    -6.43440E+06
            1761     129.983E-03     7.45113E-03     129.769E-03     376.404E-03    -187.151E-03    -189.389E-03    -185.947E-03     375.200E-03    -189.389E-03     51.1945E-03     465.986E-03     67.9944E+06    -13.6046E+06    -50.8887E+06    -89.2076E+06    -72.6394E+06    -67.4568E+06    -13.6046E+06     4.65871E+06
            1762     130.080E-03     8.27715E-03     129.817E-03     375.938E-03    -186.508E-03    -189.479E-03    -184.338E-03     373.769E-03    -189.479E-03     69.1540E-03     486.856E-03     84.2068E+06     29.2745E+06     2.14536E+06    -63.7017E+06    -59.7774E+06     14.9093E+06     12.5862E+06     17.0423E+06
            1763     130.204E-03     9.10563E-03     129.885E-03     376.366E-03    -187.012E-03    -189.686E-03    -182.687E-03     372.041E-03    -189.686E-03     96.5481E-03     511.688E-03     111.756E+06     66.8153E+06     44.4624E+06    -53.7007E+06    -50.0690E+06     62.0644E+06     45.5814E+06     20.3736E+06
            1764     130.414E-03     9.93088E-03     130.035E-03     379.752E-03    -189.138E-03    -191.083E-03    -182.344E-03     371.915E-03    -190.040E-03     131.779E-03     537.956E-03     120.648E+06     81.9323E+06     64.9854E+06    -46.0614E+06    -43.6828E+06     67.1523E+06     77.3866E+06     15.7639E+06
            1765     130.656E-03     10.7564E-03     130.212E-03     382.355E-03    -189.867E-03    -192.570E-03    -181.355E-03     371.140E-03    -189.867E-03     158.645E-03     555.273E-03     125.329E+06     98.4757E+06     75.3114E+06    -36.7098E+06    -35.3309E+06     73.9326E+06     98.4757E+06     11.4169E+06
            1766     130.889E-03     11.5999E-03     130.374E-03     386.712E-03    -189.421E-03    -197.898E-03    -181.533E-03     370.348E-03    -189.421E-03     191.737E-03     572.925E-03     121.699E+06     104.665E+06     82.5270E+06    -26.5247E+06    -25.3585E+06     81.3608E+06     104.665E+06     9.50506E+06
            1767     131.292E-03     12.4189E-03     130.703E-03     388.588E-03    -189.546E-03    -200.342E-03    -183.281E-03     371.528E-03    -189.546E-03     196.826E-03     570.199E-03     112.471E+06     101.663E+06     84.2217E+06    -18.4680E+06    -17.6611E+06     83.4147E+06     101.663E+06     6.90197E+06
            1768     131.581E-03     13.2562E-03     130.911E-03     400.877E-03    -189.201E-03    -212.362E-03    -186.325E-03     374.840E-03    -189.201E-03     241.143E-03     598.705E-03     108.264E+06     101.586E+06     90.1690E+06    -11.8943E+06    -11.5744E+06     89.8491E+06     101.586E+06     3.77700E+06
            1769     132.094E-03     14.0874E-03     131.341E-03     394.982E-03    -187.329E-03    -207.946E-03    -184.642E-03     373.112E-03    -188.762E-03     208.029E-03     560.489E-03     105.128E+06     105.030E+06     91.7343E+06    -5.98814E+06    -5.84471E+06     91.5909E+06     105.030E+06     1.69091E+06
            1770     131.306E-03     828.678E-06     131.303E-03     376.976E-03    -188.213E-03    -188.790E-03    -188.702E-03     376.972E-03    -188.298E-03    -2.42966E-03     378.514E-03     161.322E+06    -150.967E+06    -154.572E+06    -314.052E+06    -153.942E+06    -313.734E+06    -151.915E+06    -6.59853E+06
            1771     131.285E-03     1.65597E-03     131.275E-03     377.173E-03    -188.561E-03    -188.687E-03    -188.683E-03     377.169E-03    -188.561E-03    -2.81751E-03     381.573E-03     151.164E+06    -143.835E+06    -150.790E+06    -298.343E+06    -150.700E+06    -297.485E+06    -144.783E+06    -10.9128E+06
            1772     131.268E-03     2.48525E-03     131.244E-03     377.132E-03    -188.611E-03    -188.787E-03    -188.683E-03     377.131E-03    -188.714E-03    -1.85447E-03     386.712E-03     147.426E+06    -129.102E+06    -143.208E+06    -283.002E+06    -144.952E+06    -281.258E+06    -129.102E+06    -15.0791E+06
            1773     131.265E-03     3.31185E-03     131.223E-03     377.107E-03    -188.469E-03    -188.836E-03    -188.467E-03     377.105E-03    -188.836E-03     238.463E-06     394.134E-03     143.918E+06    -111.257E+06    -134.063E+06    -265.149E+06    -137.240E+06    -261.972E+06    -111.257E+06    -19.6145E+06
            1774     131.266E-03     4.13993E-03     131.201E-03     377.040E-03    -188.166E-03    -189.071E-03    -188.146E-03     377.020E-03    -189.071E-03     5.52239E-03     403.606E-03     138.048E+06    -95.1792E+06    -123.639E+06    -245.179E+06    -128.510E+06    -240.309E+06    -95.1792E+06    -23.4243E+06
            1775     131.282E-03     4.96757E-03     131.188E-03     376.602E-03    -187.714E-03    -189.287E-03    -187.628E-03     376.516E-03    -189.287E-03     13.2428E-03     415.023E-03     127.787E+06    -80.3889E+06    -112.122E+06    -221.016E+06    -118.271E+06    -214.866E+06    -80.3889E+06    -24.6615E+06
            1776     131.312E-03     5.79540E-03     131.184E-03     376.324E-03    -187.509E-03    -189.304E-03    -187.248E-03     376.063E-03    -189.304E-03     23.4875E-03     429.218E-03     113.930E+06    -63.8448E+06    -100.022E+06    -191.335E+06    -106.783E+06    -184.574E+06    -63.8448E+06    -23.1561E+06
            1777     131.365E-03     6.62412E-03     131.198E-03     376.380E-03    -187.457E-03    -189.283E-03    -186.860E-03     375.782E-03    -189.283E-03     36.0814E-03     446.457E-03     93.7308E+06    -45.7373E+06    -87.4912E+06    -152.469E+06    -94.6349E+06    -145.325E+06    -45.7373E+06    -19.0786E+06
            1778     131.436E-03     7.44925E-03     131.225E-03     375.723E-03    -186.587E-03    -189.144E-03    -185.367E-03     374.504E-03    -189.144E-03     51.5178E-03     464.908E-03     67.2888E+06    -26.9139E+06    -67.1537E+06    -104.076E+06    -80.2465E+06    -90.9832E+06    -26.9139E+06    -10.3933E+06
            1779     131.548E-03     8.27928E-03     131.287E-03     375.011E-03    -185.858E-03    -189.161E-03    -183.649E-03     372.801E-03    -189.161E-03     69.6368E-03     485.186E-03     70.1710E+06     10.7888E+06    -21.6633E+06    -68.5020E+06    -64.7242E+06    -11.1141E+06    -3.53819E+06     4.30249E+06
            1780     131.681E-03     9.10810E-03     131.366E-03     376.350E-03    -187.326E-03    -189.391E-03    -182.844E-03     371.868E-03    -189.391E-03     98.2668E-03     511.424E-03     100.365E+06     55.8153E+06     27.6728E+06    -55.2247E+06    -52.0881E+06     52.6787E+06     27.6728E+06     17.5138E+06
            1781     131.891E-03     9.93119E-03     131.517E-03     379.171E-03    -189.283E-03    -190.415E-03    -181.985E-03     371.098E-03    -189.640E-03     133.680E-03     537.742E-03     119.198E+06     82.5353E+06     62.5500E+06    -44.9208E+06    -41.5888E+06     75.1606E+06     66.5926E+06     19.8651E+06
            1782     132.123E-03     10.7634E-03     131.684E-03     380.771E-03    -189.447E-03    -191.738E-03    -180.493E-03     369.526E-03    -189.447E-03     158.619E-03     554.847E-03     126.200E+06     100.040E+06     80.4059E+06    -34.6442E+06    -32.6680E+06     80.5568E+06     97.9130E+06     14.3287E+06
            1783     132.334E-03     11.6043E-03     131.825E-03     385.515E-03    -189.100E-03    -197.006E-03    -180.558E-03     369.067E-03    -189.100E-03     191.681E-03     571.788E-03     124.442E+06     108.733E+06     83.3333E+06    -26.3819E+06    -25.0172E+06     81.9686E+06     108.733E+06     11.0391E+06
            1784     132.739E-03     12.4250E-03     132.156E-03     386.207E-03    -189.126E-03    -197.932E-03    -180.554E-03     368.830E-03    -189.126E-03     197.789E-03     566.938E-03     118.331E+06     108.153E+06     89.7203E+06    -18.1713E+06    -17.0202E+06     88.5692E+06     108.153E+06     9.46830E+06
            1785     133.026E-03     13.2634E-03     132.363E-03     397.455E-03    -188.698E-03    -209.148E-03    -182.264E-03     370.572E-03    -188.698E-03     243.274E-03     595.104E-03     112.631E+06     106.992E+06     95.2921E+06    -10.9961E+06    -10.4119E+06     94.7078E+06     106.992E+06     6.22728E+06
            1786     133.540E-03     14.0998E-03     132.793E-03     391.307E-03    -185.286E-03    -205.991E-03    -180.477E-03     368.464E-03    -187.956E-03     212.029E-03     556.216E-03     108.494E+06     109.945E+06     95.2405E+06    -5.03464E+06    -4.82053E+06     95.0264E+06     109.945E+06     3.59537E+06
            1787     132.759E-03     828.503E-06     132.756E-03     376.296E-03    -187.871E-03    -188.445E-03    -187.902E-03     376.294E-03    -188.411E-03    -2.31574E-03     377.804E-03     151.574E+06    -140.015E+06    -144.867E+06    -293.950E+06    -144.493E+06    -293.599E+06    -140.739E+06    -6.08498E+06
            1788     132.745E-03     1.65778E-03     132.735E-03     376.402E-03    -188.091E-03    -188.331E-03    -188.184E-03     376.400E-03    -188.236E-03    -2.11086E-03     380.684E-03     143.081E+06    -131.846E+06    -139.398E+06    -278.546E+06    -140.600E+06    -277.344E+06    -131.846E+06    -12.4305E+06
            1789     132.727E-03     2.48488E-03     132.704E-03     376.074E-03    -187.880E-03    -188.370E-03    -187.941E-03     376.073E-03    -188.309E-03    -669.453E-06     385.435E-03     138.627E+06    -120.766E+06    -132.214E+06    -264.732E+06    -134.929E+06    -262.017E+06    -120.766E+06    -18.3110E+06
            1790     132.728E-03     3.31434E-03     132.687E-03     375.918E-03    -187.754E-03    -188.330E-03    -187.746E-03     375.910E-03    -188.330E-03     2.88788E-03     392.615E-03     136.323E+06    -105.447E+06    -123.144E+06    -249.703E+06    -127.683E+06    -245.163E+06    -105.447E+06    -23.3329E+06
            1791     132.734E-03     4.14210E-03     132.669E-03     376.053E-03    -187.782E-03    -188.516E-03    -187.747E-03     376.018E-03    -188.516E-03     8.28377E-03     402.371E-03     132.639E+06    -89.1061E+06    -114.480E+06    -232.524E+06    -120.804E+06    -226.201E+06    -89.1061E+06    -26.4316E+06
            1792     132.752E-03     4.97061E-03     132.659E-03     375.967E-03    -187.600E-03    -188.731E-03    -187.485E-03     375.852E-03    -188.731E-03     15.4143E-03     414.016E-03     125.345E+06    -75.8839E+06    -106.041E+06    -213.533E+06    -114.310E+06    -205.263E+06    -75.8839E+06    -28.5214E+06
            1793     132.782E-03     5.79849E-03     132.655E-03     376.063E-03    -187.615E-03    -188.828E-03    -187.314E-03     375.762E-03    -188.828E-03     25.3993E-03     428.306E-03     113.835E+06    -64.1632E+06    -95.2794E+06    -190.234E+06    -106.191E+06    -179.322E+06    -64.1632E+06    -29.9872E+06
            1794     132.837E-03     6.62411E-03     132.671E-03     375.779E-03    -187.234E-03    -188.901E-03    -186.563E-03     375.109E-03    -188.901E-03     38.1333E-03     445.284E-03     98.1255E+06    -50.6638E+06    -83.6569E+06    -160.839E+06    -96.8550E+06    -147.640E+06    -50.6638E+06    -28.8448E+06
            1795     132.905E-03     7.45448E-03     132.695E-03     375.111E-03    -186.426E-03    -188.807E-03    -185.131E-03     373.816E-03    -188.807E-03     53.2495E-03     463.942E-03     76.4981E+06    -35.6478E+06    -68.6848E+06    -122.565E+06    -86.5347E+06    -104.715E+06    -35.6478E+06    -23.6457E+06
            1796     133.013E-03     8.28175E-03     132.755E-03     374.734E-03    -185.981E-03    -188.807E-03    -183.679E-03     372.432E-03    -188.807E-03     71.0168E-03     484.228E-03     63.2989E+06    -13.8765E+06    -36.8615E+06    -84.5578E+06    -74.6391E+06    -42.4034E+06    -18.2533E+06    -11.1892E+06
            1797     133.147E-03     9.11034E-03     132.835E-03     375.701E-03    -186.961E-03    -188.991E-03    -182.343E-03     371.083E-03    -188.991E-03     99.7486E-03     510.240E-03     84.7533E+06     33.0294E+06     2.41185E+06    -62.1669E+06    -60.5968E+06     28.5265E+06     5.34461E+06     4.85537E+06
            1798     133.353E-03     9.93671E-03     132.982E-03     377.741E-03    -188.551E-03    -189.563E-03    -180.961E-03     369.652E-03    -189.065E-03     133.617E-03     536.708E-03     112.528E+06     74.3861E+06     42.0737E+06    -49.3864E+06    -47.2441E+06     72.2437E+06     42.0737E+06     14.2474E+06
            1799     133.577E-03     10.7673E-03     133.142E-03     379.124E-03    -188.821E-03    -190.597E-03    -179.348E-03     367.875E-03    -188.821E-03     158.197E-03     552.927E-03     125.247E+06     93.2990E+06     77.6368E+06    -38.6187E+06    -36.5546E+06     84.5771E+06     84.2945E+06     15.8213E+06
            1800     133.787E-03     11.6077E-03     133.283E-03     383.267E-03    -188.444E-03    -195.068E-03    -178.140E-03     366.339E-03    -188.444E-03     193.405E-03     568.778E-03     128.440E+06     107.888E+06     86.8216E+06    -29.3486E+06    -27.7997E+06     85.2727E+06     107.888E+06     12.7567E+06
            1801     134.207E-03     12.4309E-03     133.630E-03     382.549E-03    -188.223E-03    -194.663E-03    -176.346E-03     364.232E-03    -188.223E-03     201.755E-03     562.471E-03     124.968E+06     113.204E+06     91.7761E+06    -20.9164E+06    -19.8582E+06     90.7180E+06     113.204E+06     9.50887E+06
            1802     134.474E-03     13.2792E-03     133.817E-03     392.999E-03    -187.522E-03    -205.697E-03    -177.912E-03     365.214E-03    -187.522E-03     246.058E-03     590.773E-03     119.738E+06     113.206E+06     99.0008E+06    -12.9947E+06    -12.1415E+06     98.1475E+06     113.206E+06     8.07634E+06
            1803     134.980E-03     14.1163E-03     134.240E-03     385.722E-03    -182.116E-03    -203.634E-03    -175.639E-03     362.163E-03    -186.552E-03     214.685E-03     551.341E-03     114.776E+06     115.639E+06     100.488E+06    -5.95384E+06    -5.45952E+06     99.9935E+06     115.639E+06     6.11435E+06
            1804     134.213E-03     829.039E-06     134.211E-03     374.329E-03    -186.790E-03    -187.564E-03    -187.107E-03     374.327E-03    -187.245E-03    -747.832E-06     375.892E-03     136.438E+06    -133.399E+06    -137.088E+06    -271.633E+06    -136.086E+06    -270.872E+06    -135.162E+06    -8.97205E+06
            1805     134.197E-03     1.65783E-03     134.187E-03     374.075E-03    -186.841E-03    -187.255E-03    -186.910E-03     374.074E-03    -187.185E-03    -213.736E-06     378.543E-03     129.781E+06    -123.341E+06    -130.594E+06    -256.581E+06    -131.234E+06    -254.902E+06    -124.379E+06    -14.0848E+06
            1806     134.192E-03     2.48844E-03     134.169E-03     373.817E-03    -186.633E-03    -187.260E-03    -186.683E-03     373.816E-03    -187.208E-03     1.19433E-03     383.287E-03     126.969E+06    -112.394E+06    -124.026E+06    -244.734E+06    -127.254E+06    -241.506E+06    -112.394E+06    -19.1736E+06
            1807     134.186E-03     3.31787E-03     134.145E-03     374.048E-03    -186.723E-03    -187.288E-03    -186.760E-03     374.032E-03    -187.236E-03     5.08427E-03     390.379E-03     126.152E+06    -98.2330E+06    -116.405E+06    -232.403E+06    -121.685E+06    -227.123E+06    -98.2330E+06    -23.9006E+06
            1808     134.197E-03     4.14720E-03     134.133E-03     374.623E-03    -187.154E-03    -187.525E-03    -187.096E-03     374.566E-03    -187.525E-03     10.8718E-03     400.324E-03     124.915E+06    -83.4776E+06    -107.099E+06    -218.502E+06    -114.972E+06    -210.629E+06    -83.4776E+06    -28.1610E+06
            1809     134.211E-03     4.97435E-03     134.119E-03     375.276E-03    -187.578E-03    -187.923E-03    -187.442E-03     375.105E-03    -187.888E-03     18.8113E-03     412.579E-03     121.482E+06    -69.9047E+06    -96.3127E+06    -202.399E+06    -107.013E+06    -191.698E+06    -69.9047E+06    -31.5545E+06
            1810     134.251E-03     5.80127E-03     134.126E-03     375.327E-03    -187.313E-03    -188.151E-03    -186.961E-03     374.940E-03    -188.116E-03     28.9334E-03     426.608E-03     112.753E+06    -58.7039E+06    -86.5914E+06    -182.755E+06    -100.062E+06    -169.284E+06    -58.7039E+06    -33.0463E+06
            1811     134.298E-03     6.63037E-03     134.134E-03     374.604E-03    -186.590E-03    -188.222E-03    -185.807E-03     373.821E-03    -188.222E-03     41.2193E-03     443.072E-03     101.116E+06    -48.3855E+06    -76.9401E+06    -160.643E+06    -93.3883E+06    -144.195E+06    -48.3855E+06    -33.0101E+06
            1812     134.369E-03     7.45829E-03     134.162E-03     374.351E-03    -186.430E-03    -188.177E-03    -184.954E-03     372.876E-03    -188.177E-03     56.7473E-03     462.355E-03     83.7540E+06    -38.1154E+06    -65.1783E+06    -132.003E+06    -86.4080E+06    -110.773E+06    -38.1154E+06    -30.1027E+06
            1813     134.474E-03     8.28593E-03     134.218E-03     374.361E-03    -186.345E-03    -188.198E-03    -183.792E-03     371.807E-03    -188.198E-03     74.7863E-03     483.292E-03     64.9006E+06    -26.1845E+06    -44.3297E+06    -98.0639E+06    -77.7853E+06    -64.6083E+06    -26.1845E+06    -22.4813E+06
            1814     134.601E-03     9.11577E-03     134.292E-03     374.766E-03    -186.606E-03    -188.240E-03    -181.645E-03     369.805E-03    -188.240E-03     103.312E-03     508.147E-03     72.7297E+06     10.5411E+06    -16.0548E+06    -71.0151E+06    -66.5674E+06     460.418E+03    -10.4218E+06    -8.82833E+06
            1815     134.807E-03     9.94268E-03     134.440E-03     376.301E-03    -187.688E-03    -188.718E-03    -179.497E-03     367.631E-03    -188.238E-03     137.863E-03     534.256E-03     100.075E+06     56.9498E+06     16.0556E+06    -56.4885E+06    -55.9458E+06     56.4071E+06     16.0556E+06     4.56141E+06
            1816     135.025E-03     10.7740E-03     134.595E-03     376.805E-03    -187.881E-03    -188.869E-03    -176.660E-03     364.596E-03    -187.881E-03     163.932E-03     549.246E-03     118.638E+06     81.4177E+06     56.9617E+06    -46.1790E+06    -45.0360E+06     79.9489E+06     57.2875E+06     11.0349E+06
            1817     135.253E-03     11.6196E-03     134.753E-03     380.016E-03    -187.348E-03    -192.667E-03    -174.637E-03     361.986E-03    -187.348E-03     198.632E-03     564.798E-03     127.468E+06     99.2721E+06     86.3972E+06    -33.8162E+06    -32.6563E+06     89.4362E+06     95.0732E+06     11.0185E+06
            1818     135.645E-03     12.4500E-03     135.073E-03     379.205E-03    -186.930E-03    -192.562E-03    -173.358E-03     360.001E-03    -186.930E-03     205.438E-03     559.481E-03     128.955E+06     113.079E+06     94.4026E+06    -23.9664E+06    -22.9453E+06     93.3815E+06     113.079E+06     9.05837E+06
            1819     135.911E-03     13.2938E-03     135.260E-03     387.814E-03    -185.974E-03    -202.033E-03    -172.696E-03     358.478E-03    -185.974E-03     250.124E-03     585.142E-03     125.571E+06     117.373E+06     99.0619E+06    -16.2988E+06    -15.4099E+06     98.1730E+06     117.373E+06     8.49786E+06
            1820     136.404E-03     14.1391E-03     135.669E-03     377.015E-03    -177.007E-03    -200.056E-03    -166.825E-03     351.595E-03    -184.818E-03     221.321E-03     542.429E-03     122.304E+06     121.609E+06     106.193E+06    -7.66913E+06    -7.13626E+06     105.660E+06     121.609E+06     6.77645E+06
            1821     135.662E-03     831.341E-06     135.660E-03     369.788E-03    -184.340E-03    -185.424E-03    -185.423E-03     369.787E-03    -184.340E-03     1.22113E-03     371.282E-03     128.271E+06    -116.518E+06    -120.125E+06    -246.529E+06    -119.577E+06    -245.746E+06    -117.849E+06    -9.00920E+06
            1822     135.647E-03     1.66230E-03     135.637E-03     370.158E-03    -184.846E-03    -185.362E-03    -185.161E-03     370.155E-03    -185.044E-03     2.28906E-03     374.587E-03     120.889E+06    -109.922E+06    -116.751E+06    -234.065E+06    -117.684E+06    -232.093E+06    -110.960E+06    -14.6386E+06
            1823     135.638E-03     2.49260E-03     135.615E-03     370.641E-03    -185.068E-03    -185.628E-03    -185.418E-03     370.629E-03    -185.267E-03     4.22167E-03     379.925E-03     120.178E+06    -98.7836E+06    -109.931E+06    -224.091E+06    -113.770E+06    -220.252E+06    -98.7836E+06    -20.3414E+06
            1824     135.644E-03     3.32272E-03     135.603E-03     371.250E-03    -185.384E-03    -185.823E-03    -185.670E-03     371.209E-03    -185.496E-03     8.70318E-03     387.221E-03     120.388E+06    -87.4964E+06    -103.310E+06    -214.930E+06    -109.212E+06    -209.027E+06    -87.4964E+06    -24.7849E+06
            1825     135.651E-03     4.15260E-03     135.587E-03     371.819E-03    -185.779E-03    -186.143E-03    -185.900E-03     371.700E-03    -185.903E-03     15.4181E-03     396.937E-03     117.566E+06    -75.3909E+06    -95.2961E+06    -201.549E+06    -103.787E+06    -193.058E+06    -75.3909E+06    -28.5955E+06
            1826     135.679E-03     4.98206E-03     135.588E-03     372.438E-03    -186.275E-03    -186.429E-03    -186.128E-03     372.158E-03    -186.296E-03     24.3524E-03     408.839E-03     116.436E+06    -62.3154E+06    -86.5382E+06    -188.949E+06    -98.0804E+06    -177.407E+06    -62.3154E+06    -32.2076E+06
            1827     135.703E-03     5.81045E-03     135.579E-03     372.761E-03    -186.163E-03    -186.645E-03    -185.681E-03     372.194E-03    -186.560E-03     34.9136E-03     422.789E-03     111.019E+06    -52.0842E+06    -78.1780E+06    -173.789E+06    -92.3391E+06    -159.627E+06    -52.0842E+06    -33.8103E+06
            1828     135.755E-03     6.63816E-03     135.593E-03     372.675E-03    -185.966E-03    -186.748E-03    -184.931E-03     371.589E-03    -186.697E-03     48.2908E-03     439.263E-03     100.285E+06    -44.7878E+06    -70.0522E+06    -155.260E+06    -87.3924E+06    -137.919E+06    -44.7878E+06    -34.0573E+06
            1829     135.820E-03     7.46770E-03     135.614E-03     372.554E-03    -185.934E-03    -186.774E-03    -183.990E-03     370.610E-03    -186.774E-03     64.9347E-03     458.296E-03     85.6798E+06    -37.3650E+06    -60.5377E+06    -132.204E+06    -81.6097E+06    -111.132E+06    -37.3650E+06    -32.3095E+06
            1830     135.924E-03     8.29704E-03     135.671E-03     372.389E-03    -185.685E-03    -186.855E-03    -182.484E-03     369.188E-03    -186.855E-03     83.4918E-03     479.053E-03     68.9691E+06    -28.5372E+06    -45.1548E+06    -104.179E+06    -75.2868E+06    -74.0473E+06    -28.5372E+06    -27.8096E+06
            1831     136.047E-03     9.12610E-03     135.741E-03     372.702E-03    -185.913E-03    -186.798E-03    -179.965E-03     366.754E-03    -186.798E-03     112.697E-03     503.766E-03     64.0535E+06    -8.78281E+06    -22.7040E+06    -78.3313E+06    -68.1374E+06    -24.3599E+06    -17.3208E+06    -18.2081E+06
            1832     136.245E-03     9.95605E-03     135.881E-03     373.750E-03    -186.415E-03    -187.248E-03    -176.864E-03     363.576E-03    -186.625E-03     148.589E-03     528.808E-03     84.9863E+06     36.1655E+06    -895.997E+03    -59.6502E+06    -57.9653E+06     34.4806E+06    -895.997E+03    -4.46357E+06
            1833     136.468E-03     10.7940E-03     136.041E-03     374.089E-03    -186.047E-03    -187.991E-03    -174.216E-03     360.314E-03    -186.047E-03     173.486E-03     544.018E-03     108.924E+06     74.5143E+06     31.7271E+06    -47.6370E+06    -47.3435E+06     74.2208E+06     31.7271E+06     3.61275E+06
            1834     136.691E-03     11.6395E-03     136.194E-03     377.563E-03    -185.388E-03    -192.224E-03    -172.410E-03     357.749E-03    -185.388E-03     207.273E-03     560.470E-03     120.339E+06     89.5540E+06     72.7406E+06    -37.5827E+06    -37.1329E+06     87.6027E+06     74.2422E+06     5.59691E+06
            1835     137.081E-03     12.4684E-03     136.512E-03     374.969E-03    -184.542E-03    -190.680E-03    -169.037E-03     353.612E-03    -184.828E-03     214.849E-03     553.264E-03     125.979E+06     103.244E+06     92.0341E+06    -27.7592E+06    -27.0868E+06     92.4099E+06     102.196E+06     7.50432E+06
            1836     137.326E-03     13.3206E-03     136.678E-03     380.722E-03    -183.428E-03    -197.458E-03    -163.933E-03     347.483E-03    -183.714E-03     261.964E-03     576.165E-03     126.519E+06     117.101E+06     99.2950E+06    -17.2811E+06    -16.5028E+06     98.5167E+06     117.101E+06     8.04221E+06
            1837     137.805E-03     14.1777E-03     137.074E-03     366.679E-03    -171.181E-03    -195.449E-03    -155.293E-03     337.383E-03    -182.042E-03     234.446E-03     530.707E-03     127.701E+06     126.887E+06     109.540E+06    -8.59537E+06    -8.18467E+06     109.129E+06     126.887E+06     6.15182E+06
            1838     137.104E-03     834.255E-06     137.102E-03     362.774E-03    -180.707E-03    -182.050E-03    -182.044E-03     362.769E-03    -180.707E-03     2.63665E-03     364.162E-03     130.465E+06    -89.5510E+06    -92.6487E+06    -221.511E+06    -92.5309E+06    -221.146E+06    -90.0338E+06    -5.97590E+06
            1839     137.093E-03     1.66786E-03     137.083E-03     363.614E-03    -181.636E-03    -182.065E-03    -182.046E-03     363.595E-03    -181.636E-03     5.70943E-03     367.838E-03     121.042E+06    -86.0738E+06    -90.9238E+06    -209.454E+06    -92.6725E+06    -207.705E+06    -86.0738E+06    -13.2906E+06
            1840     137.083E-03     2.50016E-03     137.060E-03     364.780E-03    -182.012E-03    -182.832E-03    -182.778E-03     364.726E-03    -182.012E-03     9.88961E-03     373.670E-03     120.690E+06    -78.8398E+06    -86.7921E+06    -203.277E+06    -90.4595E+06    -199.610E+06    -78.8398E+06    -20.1015E+06
            1841     137.088E-03     3.33258E-03     137.047E-03     365.764E-03    -182.476E-03    -183.399E-03    -183.261E-03     365.625E-03    -182.476E-03     16.3318E-03     381.311E-03     122.420E+06    -69.6776E+06    -82.1674E+06    -197.846E+06    -87.7366E+06    -192.277E+06    -69.6776E+06    -24.4465E+06
            1842     137.098E-03     4.16360E-03     137.035E-03     366.469E-03    -182.954E-03    -183.793E-03    -183.483E-03     366.158E-03    -182.954E-03     24.8700E-03     390.816E-03     116.607E+06    -61.3157E+06    -76.1840E+06    -184.565E+06    -83.7374E+06    -177.012E+06    -61.3157E+06    -27.4928E+06
            1843     137.118E-03     4.99404E-03     137.027E-03     366.982E-03    -183.277E-03    -183.898E-03    -183.301E-03     366.395E-03    -183.286E-03     34.7624E-03     401.949E-03     112.652E+06    -51.9176E+06    -70.3746E+06    -172.539E+06    -80.2661E+06    -162.648E+06    -51.9176E+06    -30.0418E+06
            1844     137.152E-03     5.82551E-03     137.028E-03     367.591E-03    -183.554E-03    -184.048E-03    -183.010E-03     366.563E-03    -183.564E-03     46.4020E-03     415.511E-03     108.743E+06    -44.6783E+06    -65.5666E+06    -162.307E+06    -78.0486E+06    -149.825E+06    -44.6783E+06    -32.2973E+06
            1845     137.197E-03     6.65650E-03     137.036E-03     368.190E-03    -183.756E-03    -184.422E-03    -182.579E-03     366.401E-03    -183.811E-03     61.5912E-03     431.802E-03     99.1677E+06    -38.1244E+06    -58.8938E+06    -146.010E+06    -73.9679E+06    -130.936E+06    -38.1244E+06    -32.6682E+06
            1846     137.264E-03     7.48742E-03     137.059E-03     368.217E-03    -183.795E-03    -184.502E-03    -181.348E-03     365.236E-03    -183.968E-03     79.7130E-03     450.416E-03     85.9088E+06    -31.7609E+06    -51.2554E+06    -125.728E+06    -70.1011E+06    -106.883E+06    -31.7609E+06    -32.0241E+06
            1847     137.364E-03     8.31758E-03     137.111E-03     368.156E-03    -183.579E-03    -184.628E-03    -179.533E-03     363.492E-03    -184.009E-03     99.8398E-03     470.334E-03     70.8800E+06    -25.7824E+06    -41.4659E+06    -103.174E+06    -66.4573E+06    -78.1830E+06    -25.7824E+06    -29.0447E+06
            1848     137.484E-03     9.15212E-03     137.179E-03     369.221E-03    -183.636E-03    -185.516E-03    -177.326E-03     361.347E-03    -183.952E-03     129.388E-03     495.680E-03     58.3829E+06    -15.0241E+06    -24.1987E+06    -77.3751E+06    -61.2729E+06    -38.6876E+06    -16.6373E+06    -22.3366E+06
            1849     137.682E-03     9.98543E-03     137.320E-03     370.881E-03    -183.716E-03    -187.017E-03    -174.508E-03     358.376E-03    -183.720E-03     164.103E-03     521.014E-03     69.9103E+06     19.4352E+06    -6.64995E+06    -57.9329E+06    -53.6701E+06     14.0424E+06    -5.52000E+06    -12.5791E+06
            1850     137.897E-03     10.8229E-03     137.472E-03     371.266E-03    -182.987E-03    -188.235E-03    -171.297E-03     354.328E-03    -182.987E-03     190.831E-03     535.772E-03     96.8849E+06     65.1299E+06     15.5417E+06    -45.5651E+06    -44.8225E+06     64.3872E+06     15.5417E+06    -2.08916E+06
            1851     138.128E-03     11.6687E-03     137.634E-03     374.466E-03    -181.994E-03    -192.409E-03    -167.856E-03     349.913E-03    -181.994E-03     228.601E-03     551.704E-03     111.160E+06     85.2384E+06     50.3870E+06    -37.0265E+06    -36.7694E+06     84.9813E+06     50.3870E+06     2.68607E+06
            1852     138.501E-03     12.5106E-03     137.935E-03     369.764E-03    -180.878E-03    -188.933E-03    -162.191E-03     343.308E-03    -181.164E-03     236.330E-03     543.152E-03     115.269E+06     93.1347E+06     79.3878E+06    -28.0149E+06    -27.7077E+06     87.6858E+06     84.5295E+06     3.98158E+06
            1853     138.726E-03     13.3698E-03     138.080E-03     373.045E-03    -179.529E-03    -193.618E-03    -154.608E-03     334.321E-03    -179.815E-03     279.587E-03     565.972E-03     122.598E+06     109.794E+06     98.1299E+06    -18.1568E+06    -17.7475E+06     97.7205E+06     109.794E+06     4.71756E+06
            1854     139.206E-03     14.2412E-03     138.476E-03     356.945E-03    -165.764E-03    -191.050E-03    -145.672E-03     323.502E-03    -177.700E-03     246.668E-03     520.243E-03     126.959E+06     125.709E+06     110.268E+06    -8.18945E+06    -7.83159E+06     109.910E+06     125.709E+06     4.31365E+06
            1855     138.534E-03     838.091E-06     138.531E-03     352.313E-03    -175.393E-03    -176.949E-03    -176.886E-03     352.295E-03    -175.438E-03     5.58218E-03     353.642E-03     130.169E+06    -68.9678E+06    -72.1380E+06    -200.669E+06    -70.2370E+06    -200.296E+06    -71.2421E+06    -6.20327E+06
            1856     138.521E-03     1.67622E-03     138.511E-03     352.512E-03    -176.130E-03    -176.450E-03    -176.245E-03     352.447E-03    -176.269E-03     10.8925E-03     356.477E-03     119.097E+06    -67.1834E+06    -69.8078E+06    -187.568E+06    -71.0766E+06    -186.299E+06    -67.1834E+06    -11.5151E+06
            1857     138.517E-03     2.51396E-03     138.494E-03     353.851E-03    -176.445E-03    -177.443E-03    -177.162E-03     353.664E-03    -176.539E-03     18.5839E-03     362.148E-03     118.602E+06    -61.4359E+06    -67.2146E+06    -182.798E+06    -69.7772E+06    -180.235E+06    -61.4359E+06    -16.7499E+06
            1858     138.514E-03     3.34921E-03     138.474E-03     355.631E-03    -177.084E-03    -178.684E-03    -178.288E-03     355.235E-03    -177.084E-03     27.7597E-03     370.207E-03     120.115E+06    -55.0540E+06    -63.8797E+06    -179.261E+06    -68.1466E+06    -174.995E+06    -55.0540E+06    -21.4148E+06
            1859     138.523E-03     4.18494E-03     138.460E-03     356.619E-03    -177.605E-03    -179.238E-03    -178.501E-03     355.882E-03    -177.605E-03     38.4349E-03     379.311E-03     112.021E+06    -52.7838E+06    -61.6126E+06    -168.890E+06    -67.9857E+06    -162.517E+06    -52.7838E+06    -25.0403E+06
            1860     138.548E-03     5.02010E-03     138.457E-03     357.555E-03    -177.989E-03    -179.624E-03    -178.356E-03     356.288E-03    -177.989E-03     50.8197E-03     390.227E-03     105.272E+06    -49.1080E+06    -58.4827E+06    -158.707E+06    -67.1348E+06    -150.055E+06    -49.1080E+06    -27.9799E+06
            1861     138.580E-03     5.85422E-03     138.456E-03     358.690E-03    -178.399E-03    -180.236E-03    -178.190E-03     356.643E-03    -178.399E-03     64.8292E-03     403.598E-03     102.765E+06    -40.6557E+06    -54.6120E+06    -149.602E+06    -65.2648E+06    -138.949E+06    -40.6557E+06    -29.8519E+06
            1862     138.629E-03     6.68836E-03     138.467E-03     359.508E-03    -178.744E-03    -180.709E-03    -177.489E-03     356.288E-03    -178.744E-03     81.5629E-03     418.988E-03     95.2121E+06    -33.3253E+06    -50.4137E+06    -135.915E+06    -63.3249E+06    -123.004E+06    -33.3253E+06    -30.4161E+06
            1863     138.694E-03     7.52344E-03     138.489E-03     360.125E-03    -178.916E-03    -181.199E-03    -176.225E-03     355.151E-03    -178.916E-03     101.740E-03     436.980E-03     82.7828E+06    -27.8908E+06    -44.8760E+06    -117.832E+06    -61.0102E+06    -101.698E+06    -27.8908E+06    -30.0194E+06
            1864     138.795E-03     8.36073E-03     138.543E-03     361.354E-03    -178.953E-03    -182.356E-03    -175.082E-03     354.080E-03    -178.953E-03     123.609E-03     456.952E-03     69.6828E+06    -21.9042E+06    -38.0306E+06    -98.2291E+06    -58.2063E+06    -78.0534E+06    -21.9042E+06    -28.0176E+06
            1865     138.917E-03     9.19606E-03     138.612E-03     363.639E-03    -178.898E-03    -184.676E-03    -173.181E-03     352.144E-03    -178.898E-03     154.786E-03     482.597E-03     57.0099E+06    -14.3055E+06    -23.3355E+06    -75.0893E+06    -53.5953E+06    -44.8296E+06    -14.3055E+06    -23.6644E+06
            1866     139.119E-03     10.0312E-03     138.757E-03     366.525E-03    -178.618E-03    -187.827E-03    -170.197E-03     348.895E-03    -178.618E-03     192.520E-03     508.237E-03     59.9536E+06     9.73008E+06    -4.17951E+06    -55.3295E+06    -48.6322E+06     1.59732E+06    -2.74403E+06    -16.0639E+06
            1867     139.328E-03     10.8743E-03     138.903E-03     367.084E-03    -177.782E-03    -189.256E-03    -165.911E-03     343.740E-03    -177.782E-03     221.711E-03     523.039E-03     85.2086E+06     53.4260E+06     7.43230E+06    -43.8493E+06    -42.3421E+06     51.9188E+06     7.43230E+06    -7.95884E+06
            1868     139.547E-03     11.7342E-03     139.053E-03     369.182E-03    -176.581E-03    -192.530E-03    -160.465E-03     337.118E-03    -176.581E-03     258.782E-03     537.714E-03     100.897E+06     80.9293E+06     29.0835E+06    -33.9894E+06     -33.316E+06     80.2558E+06     29.0835E+06    -2.08751E+06
            1869     139.905E-03     12.5840E-03     139.338E-03     364.971E-03    -175.477E-03    -189.460E-03    -155.945E-03     331.456E-03    -175.477E-03     263.235E-03     530.610E-03     103.287E+06     88.4374E+06     62.9498E+06    -24.4327E+06    -24.1718E+06     85.4473E+06     65.6790E+06     325.327E+03
            1870     140.125E-03     13.4465E-03     139.478E-03     369.064E-03    -174.056E-03    -195.180E-03    -150.564E-03     324.448E-03    -174.056E-03     299.653E-03     559.830E-03     112.800E+06     103.223E+06     91.0351E+06    -15.1039E+06    -14.5971E+06     94.9605E+06     98.7913E+06     2.23442E+06
            1871     140.584E-03     14.3206E-03     139.853E-03     353.701E-03    -164.472E-03    -189.322E-03    -145.089E-03     317.171E-03    -172.177E-03     255.483E-03     519.817E-03     123.811E+06     124.485E+06     108.042E+06    -6.58079E+06    -6.13898E+06     107.600E+06     124.485E+06     5.06411E+06
            1872     139.949E-03     844.725E-06     139.946E-03     334.774E-03    -166.860E-03    -167.945E-03    -167.831E-03     334.705E-03    -166.904E-03     10.3328E-03     335.977E-03     123.853E+06    -55.8383E+06    -61.5244E+06    -182.403E+06    -57.7279E+06    -181.945E+06    -60.0927E+06    -6.80956E+06
            1873     139.930E-03     1.68932E-03     139.920E-03     335.357E-03    -167.413E-03    -167.979E-03    -167.628E-03     335.144E-03    -167.552E-03     19.1666E-03     338.848E-03     110.800E+06    -55.7929E+06    -59.8990E+06    -168.558E+06    -58.2375E+06    -167.261E+06    -58.7515E+06    -11.5554E+06
            1874     139.927E-03     2.53462E-03     139.904E-03     336.626E-03    -167.767E-03    -168.908E-03    -168.317E-03     336.129E-03    -167.861E-03     30.1892E-03     343.972E-03     111.790E+06    -52.3944E+06    -55.9485E+06    -165.916E+06    -56.8926E+06    -163.612E+06    -53.7543E+06    -15.6135E+06
            1875     139.938E-03     3.37852E-03     139.897E-03     338.585E-03    -168.355E-03    -170.326E-03    -169.370E-03     337.630E-03    -168.355E-03     42.5937E-03     351.555E-03     113.280E+06    -47.7953E+06    -51.5618E+06    -162.908E+06    -54.6237E+06    -159.274E+06    -48.3673E+06    -19.6264E+06
            1876     139.938E-03     4.21931E-03     139.874E-03     340.467E-03    -168.903E-03    -171.637E-03    -170.004E-03     338.833E-03    -168.903E-03     56.0459E-03     360.758E-03     108.721E+06    -42.8582E+06    -47.5121E+06    -153.825E+06    -53.1180E+06    -148.219E+06    -42.8582E+06    -23.4892E+06
            1877     139.963E-03     5.06081E-03     139.872E-03     342.019E-03    -169.421E-03    -172.615E-03    -169.966E-03     339.369E-03    -169.421E-03     71.7736E-03     371.407E-03     104.435E+06    -37.3827E+06    -44.7608E+06    -145.283E+06    -51.9635E+06    -138.080E+06    -37.3827E+06    -25.8731E+06
            1878     139.995E-03     5.90189E-03     139.871E-03     343.802E-03    -169.920E-03    -173.883E-03    -169.800E-03     339.719E-03    -169.920E-03     89.5723E-03     384.301E-03     102.163E+06    -31.3285E+06    -42.2874E+06    -138.474E+06    -50.7675E+06    -129.994E+06    -31.3285E+06    -27.0279E+06
            1879     140.042E-03     6.74221E-03     139.880E-03     345.619E-03    -170.317E-03    -175.286E-03    -169.317E-03     339.650E-03    -170.317E-03     108.940E-03     399.550E-03     94.2984E+06    -24.8463E+06    -39.8140E+06    -125.668E+06    -49.9447E+06    -115.537E+06    -24.8463E+06    -27.3311E+06
            1880     140.103E-03     7.58473E-03     139.898E-03     347.676E-03    -170.575E-03    -177.051E-03    -168.447E-03     339.071E-03    -170.575E-03     131.213E-03     417.122E-03     82.6180E+06    -19.3000E+06    -37.6833E+06    -109.514E+06    -49.5693E+06    -97.6278E+06    -19.3000E+06     -26.056E+06
            1881     140.211E-03     8.42473E-03     139.957E-03     350.230E-03    -170.710E-03    -179.452E-03    -167.294E-03     338.072E-03    -170.710E-03     156.376E-03     436.750E-03     68.4784E+06    -13.7678E+06    -33.0317E+06    -89.7479E+06    -48.5575E+06    -74.2221E+06    -13.7678E+06    -24.3229E+06
            1882     140.330E-03     9.26780E-03     140.023E-03     354.019E-03    -170.662E-03    -183.333E-03    -165.355E-03     336.042E-03    -170.662E-03     190.592E-03     461.969E-03     56.9603E+06    -7.61971E+06    -22.2072E+06    -69.9989E+06    -47.2313E+06    -44.9748E+06    -7.61971E+06    -22.5679E+06
            1883     140.526E-03     10.1164E-03     140.161E-03     358.701E-03    -170.306E-03    -188.391E-03    -162.731E-03     333.041E-03    -170.306E-03     229.685E-03     487.835E-03     57.1392E+06     9.78123E+06    -2.91802E+06    -52.2593E+06    -42.9392E+06    -4.65280E+06     2.19592E+06    -17.8540E+06
            1884     140.736E-03     10.9680E-03     140.308E-03     361.191E-03    -169.502E-03    -191.699E-03    -159.626E-03     329.118E-03    -169.502E-03     257.455E-03     504.702E-03     78.7933E+06     49.2584E+06     15.7671E+06    -39.3441E+06    -36.7286E+06     46.6429E+06     15.7671E+06    -11.2422E+06
            1885     140.948E-03     11.8257E-03     140.451E-03     365.401E-03    -168.500E-03    -196.924E-03    -156.269E-03     324.747E-03    -168.500E-03     289.970E-03     523.233E-03     97.7752E+06     78.5130E+06     28.1017E+06    -33.4975E+06    -32.2220E+06     77.2375E+06     28.1017E+06    -7.78316E+06
            1886     141.319E-03     12.6884E-03     140.748E-03     363.088E-03    -167.606E-03    -195.510E-03    -155.306E-03     322.884E-03    -167.606E-03     287.744E-03     521.143E-03     96.9755E+06     81.1321E+06     51.9982E+06    -25.3585E+06    -24.5293E+06     80.3029E+06     51.9982E+06    -5.42023E+06
            1887     141.524E-03     13.5513E-03     140.874E-03     370.794E-03    -166.782E-03    -204.068E-03    -156.923E-03     323.649E-03    -166.782E-03     312.664E-03     560.203E-03     101.971E+06     89.5963E+06     79.8901E+06    -16.7565E+06    -16.3704E+06     85.9128E+06     83.1876E+06     439.670E+03
            1888     141.948E-03     14.4218E-03     141.214E-03     365.558E-03    -164.479E-03    -201.195E-03    -164.297E-03     330.376E-03    -166.194E-03     251.509E-03     537.038E-03     123.124E+06     119.897E+06     102.839E+06    -10.7513E+06    -10.3522E+06     104.220E+06     118.117E+06     4.65725E+06
            1889     141.322E-03     857.198E-06     141.320E-03     308.336E-03    -153.783E-03    -154.582E-03    -154.423E-03     308.177E-03    -153.783E-03     15.7446E-03     309.382E-03     118.144E+06    -41.7717E+06    -46.3683E+06    -162.118E+06    -43.7709E+06    -161.537E+06    -44.9505E+06    -7.48165E+06
            1890     141.300E-03     1.71325E-03     141.289E-03     310.422E-03    -154.580E-03    -155.885E-03    -155.398E-03     309.934E-03    -154.580E-03     28.7696E-03     313.525E-03     107.190E+06    -40.8621E+06        -45.E+06    -150.032E+06    -42.6712E+06    -148.497E+06    -44.7262E+06    -12.5459E+06
            1891     141.296E-03     2.56599E-03     141.273E-03     312.564E-03    -155.290E-03    -157.292E-03    -156.216E-03     311.488E-03    -155.290E-03     43.4048E-03     318.965E-03     109.995E+06    -40.2024E+06    -42.5124E+06    -151.328E+06    -43.0612E+06    -148.513E+06    -42.4677E+06    -17.1454E+06
            1892     141.303E-03     3.42012E-03     141.262E-03     314.388E-03    -155.947E-03    -158.458E-03    -156.460E-03     312.390E-03    -155.947E-03     59.6096E-03     325.389E-03     111.075E+06    -36.7409E+06    -38.4483E+06    -148.650E+06    -42.1695E+06    -144.357E+06    -37.3129E+06    -21.1473E+06
            1893     141.314E-03     4.27335E-03     141.250E-03     316.942E-03    -156.531E-03    -160.432E-03    -157.111E-03     313.621E-03    -156.531E-03     77.4549E-03     334.120E-03     109.694E+06    -30.1328E+06    -34.1204E+06    -141.746E+06    -39.4740E+06    -136.393E+06    -30.1328E+06    -23.3530E+06
            1894     141.336E-03     5.12399E-03     141.243E-03     319.901E-03    -157.135E-03    -162.765E-03    -157.581E-03     314.717E-03    -157.135E-03     97.3976E-03     344.874E-03     107.753E+06    -23.5309E+06    -31.9920E+06    -135.234E+06    -37.8143E+06    -129.412E+06    -23.5309E+06    -23.7330E+06
            1895     141.373E-03     5.97518E-03     141.246E-03     322.880E-03    -157.703E-03    -165.184E-03    -157.558E-03     315.254E-03    -157.703E-03     118.957E-03     357.300E-03     103.940E+06    -18.6924E+06    -30.6194E+06    -128.057E+06    -37.0268E+06    -121.649E+06    -18.6924E+06    -24.0712E+06
            1896     141.420E-03     6.82596E-03     141.255E-03     326.747E-03    -158.191E-03    -168.556E-03    -157.787E-03     315.978E-03    -158.191E-03     142.159E-03     372.707E-03     96.5707E+06    -14.0403E+06    -29.9533E+06    -117.497E+06    -36.7746E+06    -110.675E+06    -14.0403E+06    -23.2939E+06
            1897     141.487E-03     7.67444E-03     141.279E-03     331.166E-03    -158.591E-03    -172.534E-03    -157.679E-03     316.311E-03    -158.591E-03     168.063E-03     390.734E-03     86.2762E+06    -6.85845E+06    -28.6595E+06    -101.856E+06    -35.6407E+06    -94.8748E+06    -6.85845E+06    -21.2659E+06
            1898     141.597E-03     8.52705E-03     141.340E-03     335.545E-03    -158.882E-03    -176.636E-03    -156.977E-03     315.886E-03    -158.882E-03     194.938E-03     410.136E-03     71.0653E+06     924.116E+03    -26.0262E+06    -79.2221E+06    -34.5753E+06    -70.6730E+06     924.116E+03    -18.5221E+06
            1899     141.737E-03     9.38107E-03     141.426E-03     342.484E-03    -159.023E-03    -183.478E-03    -156.790E-03     315.796E-03    -159.023E-03     229.026E-03     436.548E-03     58.1468E+06     10.6041E+06    -20.2461E+06    -55.6059E+06    -35.0157E+06    -40.8362E+06     10.6041E+06    -15.4961E+06
            1900     141.938E-03     10.2319E-03     141.569E-03     350.796E-03    -158.981E-03    -191.655E-03    -156.940E-03     316.081E-03    -158.981E-03     264.471E-03     465.750E-03     62.3911E+06     25.0795E+06     1.74681E+06    -44.0239E+06    -36.8699E+06    -2.42361E+06     22.0958E+06    -13.2175E+06
            1901     142.143E-03     11.0911E-03     141.709E-03     356.509E-03    -158.657E-03    -197.680E-03    -157.485E-03     316.315E-03    -158.657E-03     287.091E-03     486.887E-03     86.0142E+06     53.9207E+06     36.5167E+06    -38.9614E+06    -36.6582E+06     47.4191E+06     40.7150E+06    -9.65376E+06
            1902     142.343E-03     11.9598E-03     141.840E-03     365.256E-03    -158.390E-03    -206.964E-03    -160.428E-03     318.720E-03    -158.390E-03     312.518E-03     513.693E-03     104.167E+06     79.4921E+06     51.6741E+06    -34.2960E+06    -33.0771E+06     78.2731E+06     51.6741E+06    -6.56292E+06
            1903     142.708E-03     12.8087E-03     142.132E-03     368.426E-03    -158.645E-03    -209.824E-03    -167.592E-03     326.193E-03    -158.645E-03     299.118E-03     523.287E-03     106.449E+06     83.2126E+06     59.8497E+06    -31.5455E+06    -30.4010E+06     76.4976E+06     65.4202E+06    -6.18717E+06
            1904     142.934E-03     13.6623E-03     142.279E-03     384.554E-03    -159.455E-03    -225.063E-03    -181.855E-03     341.345E-03    -159.455E-03     310.990E-03     574.512E-03     104.544E+06     86.0641E+06     74.6258E+06    -23.5598E+06    -23.1873E+06     76.2299E+06     84.0876E+06    -4.43832E+06
            1905     143.358E-03     14.5013E-03     142.623E-03     396.185E-03    -161.205E-03    -234.980E-03    -205.467E-03     366.671E-03    -161.205E-03     237.370E-03     570.999E-03     119.506E+06     118.102E+06     97.8891E+06    -9.94284E+06    -9.87366E+06     99.6002E+06     116.322E+06    -684.301E+03
            1906     142.657E-03     871.630E-06     142.655E-03     274.680E-03    -136.470E-03    -138.226E-03    -137.934E-03     274.388E-03    -136.470E-03     20.0083E-03     275.495E-03     110.325E+06    -27.1071E+06    -30.2132E+06    -138.932E+06    -29.8684E+06    -138.145E+06    -28.2381E+06    -8.60875E+06
            1907     142.647E-03     1.74129E-03     142.637E-03     276.842E-03    -137.728E-03    -139.130E-03    -138.205E-03     275.917E-03    -137.728E-03     37.3962E-03     279.275E-03     107.527E+06    -25.2233E+06    -26.7987E+06    -133.525E+06    -27.6563E+06    -131.639E+06    -26.2518E+06    -13.7862E+06
            1908     142.646E-03     2.61081E-03     142.622E-03     279.601E-03    -138.441E-03    -141.143E-03    -139.096E-03     277.554E-03    -138.441E-03     56.7317E-03     284.640E-03     110.263E+06    -23.5514E+06    -25.6250E+06    -134.829E+06    -27.0020E+06    -131.696E+06    -25.3071E+06    -18.0894E+06
            1909     142.654E-03     3.47759E-03     142.611E-03     282.489E-03    -139.164E-03    -143.301E-03    -139.580E-03     278.767E-03    -139.164E-03     77.3352E-03     291.137E-03     111.023E+06    -22.6246E+06    -24.0898E+06    -134.367E+06    -27.0066E+06    -130.094E+06    -23.9805E+06    -21.2847E+06
            1910     142.671E-03     4.34536E-03     142.605E-03     285.672E-03    -139.810E-03    -145.862E-03    -139.871E-03     279.681E-03    -139.810E-03     99.0174E-03     299.135E-03     111.796E+06    -21.0740E+06    -23.4356E+06    -134.007E+06    -27.5449E+06    -129.392E+06    -21.5797E+06    -22.1169E+06
            1911     142.695E-03     5.21193E-03     142.600E-03     290.231E-03    -140.473E-03    -149.762E-03    -140.766E-03     281.234E-03    -140.473E-03     122.501E-03     309.827E-03     108.809E+06    -17.8734E+06    -24.5347E+06    -129.804E+06    -28.5601E+06    -125.779E+06    -17.8734E+06    -19.9631E+06
            1912     142.729E-03     6.07575E-03     142.599E-03     295.927E-03    -141.195E-03    -154.824E-03    -141.980E-03     283.083E-03    -141.195E-03     147.922E-03     323.048E-03     102.451E+06    -12.2914E+06    -27.8849E+06    -121.422E+06    -31.4916E+06    -117.815E+06    -12.2914E+06    -16.8962E+06
            1913     142.780E-03     6.93842E-03     142.612E-03     302.775E-03    -141.916E-03    -160.737E-03    -143.204E-03     285.242E-03    -141.916E-03     174.900E-03     339.051E-03     93.9151E+06    -7.74333E+06    -33.7676E+06    -111.282E+06    -37.0173E+06    -108.033E+06    -7.74333E+06    -14.3835E+06
            1914     142.852E-03     7.80313E-03     142.638E-03     311.031E-03    -142.697E-03    -168.170E-03    -145.268E-03     288.129E-03    -142.697E-03     202.891E-03     358.960E-03     83.5723E+06    -1.82729E+06    -39.4760E+06    -95.1340E+06    -42.5506E+06    -92.0594E+06    -1.82729E+06    -12.0204E+06
            1915     142.949E-03     8.66317E-03     142.687E-03     320.430E-03    -143.607E-03    -176.938E-03    -148.570E-03     292.062E-03    -143.607E-03     229.545E-03     382.228E-03     74.1876E+06     7.56223E+06    -41.4163E+06    -74.9720E+06    -47.1107E+06    -69.2776E+06     7.56223E+06    -9.02397E+06
            1916     143.065E-03     9.52307E-03     142.747E-03     332.115E-03    -144.405E-03    -187.824E-03    -152.359E-03     296.650E-03    -144.405E-03     261.198E-03     412.758E-03     72.5042E+06     21.5837E+06    -26.0494E+06    -59.9700E+06    -50.2507E+06    -35.7687E+06     21.5837E+06    -6.54631E+06
            1917     143.286E-03     10.3845E-03     142.909E-03     345.400E-03    -145.278E-03    -199.917E-03    -157.974E-03     303.457E-03    -145.278E-03     290.404E-03     447.891E-03     84.0118E+06     41.1774E+06     9.52095E+06    -52.4536E+06    -50.2734E+06     7.34072E+06     41.1774E+06    -6.15292E+06
            1918     143.537E-03     11.2376E-03     143.097E-03     357.262E-03    -146.429E-03    -210.512E-03    -166.299E-03     313.049E-03    -146.429E-03     304.253E-03     478.784E-03     107.333E+06     66.3883E+06     52.8581E+06    -46.7219E+06    -45.9783E+06     54.9907E+06     63.5121E+06    -7.52905E+06
            1919     143.751E-03     12.0907E-03     143.242E-03     372.030E-03    -147.897E-03    -224.157E-03    -177.866E-03     325.739E-03    -147.897E-03     318.866E-03     515.357E-03     115.981E+06     82.1654E+06     71.7897E+06    -38.5623E+06    -36.6629E+06     76.6262E+06     75.4295E+06    -8.43258E+06
            1920     144.099E-03     12.9338E-03     143.517E-03     384.604E-03    -150.099E-03    -234.532E-03    -196.117E-03     346.189E-03    -150.099E-03     295.106E-03     538.526E-03     109.416E+06     91.2814E+06     70.9620E+06    -26.6260E+06    -24.5485E+06     72.7442E+06     87.4217E+06    -5.23832E+06
            1921     144.355E-03     13.7494E-03     143.699E-03     414.202E-03    -153.448E-03    -260.723E-03    -224.361E-03     377.839E-03    -153.448E-03     302.960E-03     603.177E-03     108.125E+06     98.0837E+06     79.0708E+06    -17.9627E+06    -16.8798E+06     77.9880E+06     98.0837E+06    -5.23278E+06
            1922     144.838E-03     14.5446E-03     144.105E-03     436.193E-03    -158.081E-03    -278.081E-03    -253.684E-03     411.796E-03    -158.081E-03     230.370E-03     609.672E-03     120.505E+06     120.854E+06     94.4473E+06    -10.2032E+06    -9.59900E+06     93.8431E+06     120.854E+06    -6.48635E+06
            1923     143.953E-03     888.861E-06     143.950E-03     234.291E-03    -116.501E-03    -117.792E-03    -117.207E-03     233.793E-03    -116.588E-03     23.9467E-03     234.836E-03     99.1875E+06    -18.8120E+06    -21.4365E+06    -119.266E+06    -21.1458E+06    -118.633E+06    -19.7352E+06    -6.58394E+06
            1924     143.942E-03     1.77798E-03     143.931E-03     235.951E-03    -117.338E-03    -118.616E-03    -117.100E-03     234.434E-03    -117.338E-03     44.6064E-03     237.564E-03     92.7061E+06    -22.1565E+06    -24.6999E+06    -116.060E+06    -24.2395E+06     -114.25E+06    -24.4268E+06    -12.4759E+06
            1925     143.940E-03     2.66597E-03     143.916E-03     238.712E-03    -117.775E-03    -120.936E-03    -117.674E-03     235.451E-03    -117.775E-03     66.5766E-03     242.177E-03     94.6125E+06    -24.3605E+06    -29.0553E+06    -121.189E+06    -27.4536E+06    -118.369E+06    -28.7821E+06    -16.2044E+06
            1926     143.953E-03     3.55366E-03     143.909E-03     242.852E-03    -118.356E-03    -124.484E-03    -118.606E-03     236.974E-03    -118.356E-03     90.5605E-03     248.907E-03     95.0524E+06    -28.8590E+06    -33.3451E+06    -126.051E+06    -31.6482E+06    -123.262E+06    -33.3451E+06    -15.6673E+06
            1927     143.968E-03     4.43658E-03     143.899E-03     248.296E-03    -119.098E-03    -129.147E-03    -119.711E-03     238.860E-03    -119.098E-03     116.092E-03     257.698E-03     91.8867E+06    -34.7821E+06    -40.1934E+06    -129.079E+06    -40.4903E+06    -126.832E+06    -36.7321E+06    -12.7529E+06
            1928     143.997E-03     5.32003E-03     143.899E-03     255.191E-03    -120.005E-03    -135.202E-03    -121.296E-03     241.285E-03    -120.005E-03     142.922E-03     268.895E-03     89.1322E+06    -34.9137E+06    -49.3012E+06    -129.248E+06    -50.9013E+06    -127.648E+06    -34.9137E+06    -8.41499E+06
            1929     144.042E-03     6.20134E-03     143.908E-03     264.411E-03    -121.064E-03    -143.458E-03    -124.340E-03     245.293E-03    -121.064E-03     170.867E-03     283.720E-03     86.7795E+06    -26.2341E+06    -57.6225E+06    -122.107E+06    -58.8477E+06    -120.882E+06    -26.2341E+06    -2.74277E+06
            1930     144.103E-03     7.07931E-03     143.929E-03     276.445E-03    -122.353E-03    -153.938E-03    -129.112E-03     251.618E-03    -122.353E-03     199.534E-03     303.315E-03     86.0520E+06    -12.2881E+06    -61.1908E+06    -109.271E+06    -63.9350E+06    -106.527E+06    -12.2881E+06     876.094E+03
            1931     144.192E-03     7.95223E-03     143.973E-03     290.742E-03    -124.038E-03    -166.536E-03    -136.012E-03     260.218E-03    -124.038E-03     227.547E-03     328.173E-03     83.8873E+06     661.715E+03    -64.7599E+06    -91.7572E+06    -68.0381E+06    -88.4790E+06     661.715E+03     1.42978E+06
            1932     144.318E-03     8.82271E-03     144.048E-03     306.877E-03    -126.099E-03    -180.949E-03    -145.542E-03     271.471E-03    -126.099E-03     252.841E-03     358.071E-03     82.5649E+06     15.1515E+06    -57.8452E+06    -74.1957E+06    -67.7194E+06    -64.3214E+06     15.1515E+06     838.746E+03
            1933     144.450E-03     9.68477E-03     144.125E-03     325.367E-03    -128.303E-03    -197.212E-03    -156.616E-03     284.771E-03    -128.303E-03     279.644E-03     396.044E-03     85.5720E+06     32.5216E+06    -27.0503E+06    -63.3200E+06    -62.7897E+06    -27.5806E+06     32.5216E+06    -568.071E+03
            1934     144.637E-03     10.5407E-03     144.252E-03     345.317E-03    -130.948E-03    -214.408E-03    -170.190E-03     301.098E-03    -130.948E-03     301.906E-03     439.360E-03     100.147E+06     55.4181E+06     22.7161E+06    -55.0728E+06    -54.7539E+06     22.3973E+06     55.4181E+06    -3.97207E+06
            1935     144.909E-03     11.3816E-03     144.461E-03     364.939E-03    -134.276E-03    -230.665E-03    -187.589E-03     321.863E-03    -134.276E-03     308.073E-03     481.651E-03     119.081E+06     79.0282E+06     67.0066E+06    -45.3226E+06    -44.3183E+06     67.2242E+06     77.8062E+06    -8.45964E+06
            1936     145.160E-03     12.2169E-03     144.645E-03     389.629E-03    -138.339E-03    -251.301E-03    -209.715E-03     348.042E-03    -138.339E-03     315.034E-03     530.099E-03     118.621E+06      86.407E+06     78.9036E+06    -35.7269E+06    -33.6199E+06     78.0187E+06     85.1850E+06    -11.8789E+06
            1937     145.529E-03     13.0222E-03     144.945E-03     412.939E-03    -143.286E-03    -269.668E-03    -237.029E-03     380.300E-03    -143.286E-03     286.811E-03     564.594E-03     108.760E+06     86.9737E+06     70.3923E+06    -28.7000E+06    -23.8224E+06     65.5147E+06     86.9737E+06    -13.5604E+06
            1938     145.841E-03     13.8068E-03     145.186E-03     448.943E-03    -149.330E-03    -299.572E-03    -268.640E-03     418.011E-03    -149.330E-03     296.217E-03     633.345E-03     106.136E+06     95.9042E+06     79.2490E+06    -17.2111E+06    -13.0030E+06     75.0409E+06     95.9042E+06    -8.04159E+06
            1939     146.386E-03     14.5579E-03     145.660E-03     468.207E-03    -156.336E-03    -311.800E-03    -290.143E-03     446.550E-03    -156.336E-03     231.851E-03     637.014E-03     116.112E+06     120.523E+06     92.6800E+06    -6.03812E+06    -5.19242E+06     91.8343E+06     120.523E+06    -2.84914E+06
            1940     145.183E-03     910.553E-06     145.180E-03     189.112E-03    -94.2599E-03    -94.8564E-03    -94.0937E-03     188.436E-03    -94.3465E-03     25.6653E-03     189.436E-03     71.3917E+06    -33.8426E+06    -38.0147E+06    -107.096E+06    -34.0431E+06    -106.896E+06    -38.0147E+06    -2.34169E+06
            1941     145.165E-03     1.81971E-03     145.154E-03     191.208E-03    -94.6944E-03    -96.5099E-03    -94.4595E-03     189.158E-03    -94.6944E-03     46.8379E-03     192.158E-03     58.6120E+06    -40.6957E+06    -46.8717E+06    -101.994E+06    -41.4056E+06    -101.284E+06    -46.8717E+06    -5.76868E+06
            1942     145.168E-03     2.72803E-03     145.143E-03     194.334E-03    -95.1283E-03    -99.2060E-03    -94.7710E-03     189.899E-03    -95.1283E-03     70.1088E-03     196.377E-03      61.903E+06    -50.8107E+06    -57.2640E+06    -115.642E+06    -52.3483E+06    -114.104E+06    -57.2640E+06    -6.49779E+06
            1943     145.174E-03     3.63500E-03     145.129E-03     199.354E-03    -95.6440E-03    -103.754E-03    -95.6977E-03     191.298E-03    -95.6440E-03     95.9634E-03     202.849E-03     64.9353E+06    -63.0490E+06    -69.3591E+06    -130.868E+06    -67.8062E+06    -128.367E+06    -67.1026E+06    -828.194E+03
            1944     145.197E-03     4.54214E-03     145.126E-03     207.719E-03    -96.4965E-03    -111.198E-03    -98.3560E-03     194.876E-03    -96.4965E-03     124.068E-03     213.268E-03     65.7346E+06    -65.7269E+06    -79.3639E+06    -136.871E+06    -82.3591E+06    -132.431E+06    -67.1712E+06     6.89306E+06
            1945     145.230E-03     5.44297E-03     145.128E-03     219.091E-03    -97.8734E-03    -121.221E-03    -102.700E-03     200.571E-03    -97.8734E-03     153.351E-03     227.602E-03     71.8442E+06    -55.1956E+06    -87.0122E+06    -136.399E+06    -92.4413E+06    -130.970E+06    -55.1956E+06     9.96150E+06
            1946     145.282E-03     6.34095E-03     145.143E-03     233.524E-03    -99.6724E-03    -133.935E-03    -109.411E-03     208.999E-03    -99.6724E-03     182.737E-03     246.469E-03     78.6771E+06    -37.1899E+06    -90.6023E+06    -126.882E+06    -94.6030E+06    -122.881E+06    -37.1899E+06     9.45343E+06
            1947     145.358E-03     7.23149E-03     145.178E-03     252.109E-03    -101.986E-03    -150.066E-03    -119.763E-03     221.806E-03    -101.986E-03     211.948E-03     271.882E-03     84.9300E+06    -14.8697E+06    -84.3560E+06    -109.132E+06    -89.1907E+06    -104.298E+06    -14.8697E+06     8.91704E+06
            1948     145.465E-03     8.11319E-03     145.239E-03     273.899E-03    -104.944E-03    -168.769E-03    -133.456E-03     238.586E-03    -104.944E-03     239.765E-03     304.072E-03     88.1764E+06     6.37064E+06    -74.0531E+06    -87.6009E+06    -79.6529E+06    -82.0011E+06     6.37064E+06     6.47302E+06
            1949     145.620E-03     8.98273E-03     145.343E-03     297.199E-03    -108.593E-03    -188.665E-03    -149.989E-03     258.523E-03    -108.593E-03     262.997E-03     341.428E-03     88.1198E+06     24.3347E+06    -52.6776E+06    -70.9245E+06    -68.8995E+06    -54.7026E+06     24.3347E+06     2.23548E+06
            1950     145.799E-03     9.83977E-03     145.466E-03     324.547E-03    -112.881E-03    -211.742E-03    -169.926E-03     282.732E-03    -112.881E-03     287.568E-03     388.254E-03     89.5359E+06     43.4101E+06    -14.5438E+06    -57.9573E+06    -57.5167E+06    -14.9844E+06     43.4101E+06    -1.68776E+06
            1951     146.010E-03     10.6846E-03     145.619E-03     353.815E-03    -117.855E-03    -236.112E-03    -193.155E-03     310.858E-03    -117.855E-03     306.215E-03     442.185E-03     106.176E+06     67.3361E+06     40.5918E+06    -46.9742E+06    -46.5507E+06     40.1683E+06     67.3361E+06    -5.56048E+06
            1952     146.301E-03     11.5068E-03     145.848E-03     382.159E-03    -123.690E-03    -258.850E-03    -219.449E-03     342.758E-03    -123.690E-03     307.013E-03     495.077E-03     120.287E+06     85.7677E+06     79.7587E+06    -37.3803E+06    -36.1903E+06     79.5904E+06     84.7461E+06    -10.5594E+06
            1953     146.599E-03     12.3093E-03     146.081E-03     416.427E-03    -130.692E-03    -286.064E-03    -249.684E-03     380.046E-03    -130.692E-03     310.716E-03     553.655E-03     113.379E+06     87.2167E+06     78.7711E+06    -29.9950E+06    -28.1367E+06     77.9344E+06     86.1951E+06    -12.3210E+06
            1954     147.020E-03     13.0849E-03     146.437E-03     445.735E-03    -138.531E-03    -307.367E-03    -278.525E-03     416.893E-03    -138.531E-03     285.857E-03     592.584E-03     109.114E+06     87.6434E+06     74.2096E+06    -27.4445E+06    -22.9347E+06     69.6998E+06     87.6434E+06    -11.6475E+06
            1955     147.374E-03     13.8289E-03     146.724E-03     478.619E-03    -146.699E-03    -331.778E-03    -302.488E-03     449.329E-03    -146.699E-03     300.635E-03     657.214E-03     113.355E+06     93.1682E+06     77.2427E+06    -27.2762E+06    -19.1934E+06     69.1599E+06     93.1682E+06    -14.4864E+06
            1956     147.928E-03     14.5734E-03     147.209E-03     490.055E-03    -155.237E-03    -334.683E-03    -313.373E-03     468.745E-03    -155.237E-03     240.416E-03     654.328E-03     117.544E+06     113.737E+06     76.9256E+06    -16.2842E+06    -11.2554E+06     71.8967E+06     113.737E+06    -11.1011E+06
            1957     146.364E-03     931.240E-06     146.361E-03     144.662E-03    -71.9567E-03    -72.7094E-03    -71.9706E-03     143.924E-03    -71.9567E-03     23.5781E-03     144.817E-03     35.9555E+06    -67.2042E+06    -73.1489E+06    -105.578E+06    -68.1043E+06    -101.902E+06    -75.9246E+06    -3.10796E+06
            1958     146.351E-03     1.86127E-03     146.339E-03     146.266E-03    -72.2726E-03    -73.9914E-03    -71.6035E-03     143.878E-03    -72.2726E-03     43.9698E-03     146.646E-03     31.7859E+06    -73.8328E+06    -85.2113E+06    -109.274E+06    -77.3614E+06    -102.970E+06    -87.9870E+06     3.37603E+06
            1959     146.349E-03     2.79124E-03     146.322E-03     150.107E-03    -72.5851E-03    -77.5294E-03    -72.1248E-03     144.702E-03    -72.5851E-03     67.9282E-03     150.965E-03     46.3680E+06    -85.1713E+06    -95.4529E+06    -135.022E+06    -94.4696E+06    -125.724E+06    -95.4529E+06     13.7352E+06
            1960     146.367E-03     3.72091E-03     146.320E-03     157.492E-03    -73.2526E-03    -84.2982E-03    -74.4508E-03     147.645E-03    -73.2526E-03     94.4311E-03     159.052E-03     59.4426E+06    -91.3148E+06    -99.6757E+06    -154.457E+06    -111.048E+06    -140.369E+06    -94.0300E+06     21.7065E+06
            1961     146.398E-03     4.64546E-03     146.324E-03     169.127E-03    -74.5123E-03    -94.6528E-03    -79.3107E-03     153.785E-03    -74.5123E-03     122.700E-03     171.965E-03     67.1017E+06    -80.1849E+06    -102.314E+06    -154.838E+06    -117.693E+06    -139.460E+06    -80.1849E+06     22.9111E+06
            1962     146.443E-03     5.56640E-03     146.337E-03     185.519E-03    -76.4611E-03    -108.984E-03    -87.5968E-03     164.132E-03    -76.4611E-03     152.380E-03     190.746E-03     74.6204E+06    -56.6218E+06    -100.052E+06    -142.140E+06    -112.726E+06    -129.466E+06    -56.6218E+06     19.0220E+06
            1963     146.506E-03     6.47592E-03     146.363E-03     206.565E-03    -79.2377E-03    -127.276E-03    -99.8052E-03     179.095E-03    -79.2377E-03     183.273E-03     215.965E-03     81.9957E+06    -32.8003E+06    -95.8227E+06    -124.907E+06    -103.205E+06    -117.525E+06    -32.8003E+06     12.4464E+06
            1964     146.604E-03     7.37479E-03     146.418E-03     231.836E-03    -82.9409E-03    -148.842E-03    -115.859E-03     198.854E-03    -82.9409E-03     214.099E-03     247.879E-03     84.8550E+06    -11.7288E+06    -86.8130E+06    -103.463E+06    -92.0814E+06    -98.1946E+06    -11.7288E+06     6.78547E+06
            1965     146.727E-03     8.25955E-03     146.495E-03     260.834E-03    -87.4434E-03    -173.230E-03    -135.817E-03     223.422E-03    -87.4434E-03     243.598E-03     286.639E-03     84.6033E+06     7.70686E+06    -68.7588E+06    -82.7534E+06    -79.2769E+06    -72.2352E+06     7.70686E+06     1.96254E+06
            1966     146.895E-03     9.12850E-03     146.611E-03     293.106E-03    -92.8660E-03    -200.136E-03    -160.413E-03     253.383E-03    -92.8660E-03     268.311E-03     332.537E-03     84.3364E+06     25.8663E+06    -41.4384E+06    -67.7272E+06    -66.0530E+06    -43.1127E+06     25.8663E+06    -3.87837E+06
            1967     147.129E-03     9.97729E-03     146.790E-03     329.956E-03    -99.3592E-03    -230.500E-03    -189.237E-03     288.692E-03    -99.3592E-03     292.580E-03     388.623E-03     87.6098E+06     46.7197E+06    -2.42774E+06    -53.2973E+06    -51.9505E+06    -3.77453E+06     46.7197E+06    -7.29431E+06
            1968     147.404E-03     10.8055E-03     147.008E-03     368.675E-03    -106.789E-03    -261.803E-03    -220.840E-03     327.712E-03    -106.789E-03     310.312E-03     451.509E-03     107.800E+06     75.7864E+06     52.3501E+06    -40.3782E+06    -39.4259E+06     54.8904E+06     72.2939E+06    -8.61116E+06
            1969     147.725E-03     11.6031E-03     147.269E-03     407.751E-03    -115.246E-03    -292.615E-03    -255.484E-03     370.620E-03    -115.246E-03     313.139E-03     514.784E-03     119.139E+06     90.1896E+06     83.9223E+06    -31.9028E+06    -31.1493E+06     87.6828E+06     85.6755E+06    -9.31935E+06
            1970     148.088E-03     12.3769E-03     147.570E-03     448.413E-03    -124.960E-03    -323.845E-03    -289.426E-03     413.995E-03    -124.960E-03     318.501E-03     580.714E-03     109.055E+06     86.8062E+06     77.5447E+06    -26.4401E+06    -25.1166E+06     77.2428E+06     85.7846E+06    -9.38598E+06
            1971     148.533E-03     13.1223E-03     147.952E-03     474.138E-03    -135.104E-03    -339.305E-03    -311.562E-03     446.394E-03    -135.104E-03     292.966E-03     616.391E-03     108.751E+06     92.1984E+06     80.1306E+06    -21.9970E+06    -18.4738E+06     76.6074E+06     92.1984E+06    -9.98651E+06
            1972     148.937E-03     13.8624E-03     148.291E-03     499.011E-03    -144.809E-03    -353.973E-03    -325.048E-03     470.086E-03    -144.809E-03     306.616E-03     672.309E-03     112.063E+06     101.113E+06     81.8226E+06    -18.7249E+06    -9.50134E+06     72.5990E+06     101.113E+06    -10.2903E+06
            1973     149.514E-03     14.5845E-03     148.801E-03     506.364E-03    -154.384E-03    -351.750E-03    -330.325E-03     484.939E-03    -154.384E-03     248.438E-03     666.612E-03     110.644E+06     113.689E+06     64.9794E+06    -10.6783E+06    -3.51788E+06     57.8189E+06     113.689E+06    -7.42878E+06
            1974     147.496E-03     948.970E-06     147.493E-03     103.593E-03    -51.4191E-03    -52.1719E-03    -51.3516E-03     102.773E-03    -51.4191E-03     20.7653E-03     103.657E-03     38.6328E+06    -92.3357E+06    -107.171E+06    -134.623E+06    -112.401E+06    -112.060E+06    -109.669E+06     10.8733E+06
            1975     147.480E-03     1.89990E-03     147.468E-03     105.245E-03    -51.6525E-03    -53.5886E-03    -50.9555E-03     102.612E-03    -51.6525E-03     39.0997E-03     105.328E-03     46.4991E+06    -103.149E+06    -129.215E+06    -156.453E+06    -134.026E+06    -122.800E+06    -131.991E+06     21.3604E+06
            1976     147.482E-03     2.85101E-03     147.454E-03     111.067E-03    -52.1292E-03    -58.9188E-03    -52.9430E-03     105.091E-03    -52.1292E-03     61.5460E-03     111.354E-03     57.5982E+06    -113.400E+06    -128.296E+06    -175.855E+06    -143.173E+06    -146.082E+06    -128.296E+06     29.7514E+06
            1977     147.503E-03     3.79751E-03     147.454E-03     121.748E-03    -53.3158E-03    -68.4041E-03    -57.7113E-03     111.056E-03    -53.3158E-03     86.9728E-03     122.550E-03     67.7207E+06    -105.302E+06    -114.749E+06    -177.142E+06    -138.371E+06    -150.964E+06    -107.858E+06     31.6341E+06
            1978     147.539E-03     4.73896E-03     147.463E-03     137.273E-03    -55.3297E-03    -81.9457E-03    -65.6088E-03     120.936E-03    -55.3297E-03     114.801E-03     139.159E-03     70.5517E+06    -82.5255E+06    -105.984E+06    -161.131E+06    -128.316E+06    -138.799E+06    -82.5255E+06     27.0225E+06
            1979     147.596E-03     5.67012E-03     147.487E-03     157.994E-03    -58.1369E-03    -99.8036E-03    -77.3878E-03     135.578E-03    -58.1369E-03     145.123E-03     162.153E-03     71.3236E+06    -58.3559E+06    -101.193E+06    -139.818E+06    -119.184E+06    -121.828E+06    -58.3559E+06     18.4549E+06
            1980     147.683E-03     6.59153E-03     147.536E-03     184.349E-03    -61.9451E-03    -122.191E-03    -93.7283E-03     155.887E-03    -61.9451E-03     177.861E-03     192.426E-03     73.6378E+06    -36.1905E+06    -96.1554E+06    -117.819E+06    -107.942E+06    -106.033E+06    -36.1905E+06     8.16126E+06
            1981     147.806E-03     7.49553E-03     147.616E-03     215.753E-03    -66.8875E-03    -148.701E-03    -114.596E-03     181.648E-03    -66.8875E-03     212.253E-03     230.083E-03     76.8986E+06    -14.6300E+06    -80.5435E+06    -98.2893E+06    -91.7044E+06    -87.1284E+06    -14.6300E+06    -1.98913E+06
            1982     147.994E-03     8.38326E-03     147.756E-03     252.274E-03    -72.8921E-03    -179.372E-03    -141.042E-03     213.944E-03    -72.8921E-03     245.485E-03     275.636E-03     78.2885E+06     7.02927E+06    -56.0498E+06    -79.8757E+06    -72.1644E+06    -63.7612E+06     7.02927E+06    -8.18537E+06
            1983     148.199E-03     9.25036E-03     147.910E-03     293.562E-03    -80.0516E-03    -213.503E-03    -173.532E-03     253.592E-03    -80.0516E-03     273.035E-03     329.526E-03     79.4234E+06     28.6288E+06    -26.0392E+06    -61.6998E+06    -55.6133E+06    -32.1257E+06     28.6288E+06    -11.2634E+06
            1984     148.462E-03     10.0873E-03     148.119E-03     339.483E-03    -88.5245E-03    -250.920E-03    -210.169E-03     298.732E-03    -88.5245E-03     299.164E-03     393.788E-03     83.0320E+06     47.6499E+06     5.55601E+06    -47.5186E+06    -44.3609E+06     2.39830E+06     47.6499E+06    -12.0297E+06
            1985     148.800E-03     10.8968E-03     148.400E-03     387.792E-03    -98.1908E-03    -289.374E-03    -249.104E-03     347.522E-03    -98.1908E-03     319.867E-03     464.281E-03     106.572E+06     79.0148E+06     51.8580E+06    -37.5745E+06    -36.3791E+06     59.5331E+06     70.1442E+06    -8.99127E+06
            1986     149.189E-03     11.6806E-03     148.731E-03     434.179E-03    -108.878E-03    -325.039E-03    -288.280E-03     397.420E-03    -108.878E-03     325.261E-03     533.346E-03     118.875E+06     92.9610E+06     82.2741E+06    -30.7519E+06    -30.3737E+06     91.4729E+06     83.3839E+06    -6.19304E+06
            1987     149.611E-03     12.4288E-03     149.094E-03     475.021E-03    -120.547E-03    -354.519E-03    -319.988E-03     440.490E-03    -120.547E-03     331.290E-03     600.546E-03     112.047E+06     88.8908E+06     82.9762E+06    -25.9725E+06    -24.7665E+06     84.2272E+06     86.4338E+06    -8.36015E+06
            1988     150.131E-03     13.1561E-03     149.554E-03     496.339E-03    -132.407E-03    -364.078E-03    -335.586E-03     467.847E-03    -132.407E-03     305.951E-03     634.953E-03     112.112E+06     98.0407E+06     84.3961E+06    -19.7678E+06    -16.4891E+06     82.8678E+06     96.2903E+06    -14.2559E+06
            1989     150.531E-03     13.8695E-03     149.891E-03     517.220E-03    -143.428E-03    -373.912E-03    -344.463E-03     487.771E-03    -143.428E-03     316.715E-03     687.017E-03     111.514E+06     100.336E+06     72.6419E+06    -21.6998E+06    -10.6157E+06     61.5577E+06     100.336E+06    -15.0714E+06
            1990     151.138E-03     14.5917E-03     150.432E-03     520.560E-03    -153.814E-03    -366.823E-03    -345.096E-03     498.834E-03    -153.814E-03     256.319E-03     677.756E-03     111.735E+06     111.283E+06     51.0134E+06    -14.4007E+06    -5.55447E+06     42.1672E+06     111.283E+06    -5.88283E+06
            1991     148.586E-03     968.886E-06     148.583E-03     66.7618E-03    -32.6846E-03    -34.0839E-03    -33.1719E-03     65.8499E-03    -32.6846E-03     17.6369E-03     66.9228E-03     67.8705E+06    -130.306E+06    -176.152E+06    -204.084E+06    -184.279E+06    -149.800E+06    -176.462E+06     30.1512E+06
            1992     148.579E-03     1.93611E-03     148.567E-03     72.1297E-03    -33.7984E-03    -38.3378E-03    -35.4579E-03     69.2498E-03    -33.7984E-03     34.1742E-03     72.5029E-03     70.0081E+06    -124.296E+06    -163.801E+06    -204.577E+06    -180.374E+06    -148.499E+06    -163.801E+06     36.4734E+06
            1993     148.585E-03     2.89906E-03     148.556E-03     81.5134E-03    -35.3473E-03    -46.1382E-03    -39.8747E-03     75.2499E-03    -35.3473E-03     54.4802E-03     82.1391E-03     62.9531E+06    -131.863E+06    -149.705E+06    -201.037E+06    -173.418E+06    -159.483E+06    -149.705E+06     33.5591E+06
            1994     148.615E-03     3.85892E-03     148.565E-03     94.9863E-03    -37.5121E-03    -57.4899E-03    -46.6741E-03     84.1705E-03    -37.5121E-03     77.9610E-03     96.1954E-03     58.0227E+06    -124.939E+06    -132.279E+06    -186.147E+06    -161.935E+06    -153.262E+06    -128.167E+06     26.3738E+06
            1995     148.668E-03     4.80994E-03     148.590E-03     113.540E-03    -40.4267E-03    -73.1828E-03    -56.8946E-03     97.2521E-03    -40.4267E-03     105.217E-03     115.984E-03     55.6302E+06    -99.3429E+06    -115.543E+06    -160.626E+06    -143.405E+06    -132.764E+06    -99.3429E+06     16.9401E+06
            1996     148.741E-03     5.75127E-03     148.630E-03     137.876E-03    -44.2102E-03    -93.6546E-03    -71.1436E-03     115.365E-03    -44.2102E-03     137.117E-03     142.429E-03     54.9528E+06    -67.4047E+06    -102.021E+06    -129.254E+06    -119.308E+06    -111.967E+06    -67.4047E+06     7.94688E+06
            1997     148.863E-03     6.67703E-03     148.713E-03     167.929E-03    -48.9956E-03    -118.822E-03    -90.0372E-03     139.144E-03    -48.9956E-03     172.316E-03     175.954E-03     59.5067E+06    -37.5738E+06    -85.9177E+06    -103.562E+06    -96.6466E+06    -92.8333E+06    -37.5738E+06    -1.39119E+06
            1998     149.025E-03     7.58858E-03     148.832E-03     204.242E-03    -54.8593E-03    -149.368E-03    -115.073E-03     169.947E-03    -54.8593E-03     209.253E-03     217.952E-03     68.0475E+06    -13.0569E+06    -63.3863E+06    -89.9334E+06    -80.5736E+06    -72.7461E+06    -13.0569E+06    -11.0677E+06
            1999     149.231E-03     8.47785E-03     148.990E-03     248.058E-03    -62.0119E-03    -186.100E-03    -147.601E-03     209.559E-03    -62.0119E-03     246.718E-03     270.021E-03     78.3585E+06     5.66498E+06    -39.9987E+06    -83.0727E+06    -69.3713E+06    -53.7001E+06     5.66498E+06    -19.3857E+06
            2000     149.491E-03     9.33593E-03     149.200E-03     296.462E-03    -70.5805E-03    -225.961E-03    -185.548E-03     256.050E-03    -70.5805E-03     278.874E-03     329.415E-03     81.9985E+06     23.3533E+06    -17.7961E+06    -69.7049E+06    -58.1217E+06    -29.3793E+06     23.3533E+06    -20.1776E+06
            2001     149.821E-03     10.1695E-03     149.476E-03     350.655E-03    -80.5869E-03    -270.126E-03    -228.874E-03     309.403E-03    -80.5869E-03     308.988E-03     399.791E-03     83.5970E+06     42.3079E+06     7.78944E+06    -52.6638E+06    -46.9594E+06     2.08504E+06     42.3079E+06    -17.0738E+06
            2002     150.226E-03     10.9688E-03     149.825E-03     407.644E-03    -92.0047E-03    -315.347E-03    -274.863E-03     367.160E-03    -92.0047E-03     331.928E-03     477.453E-03     101.540E+06     69.6721E+06     49.2176E+06    -39.8452E+06    -37.2758E+06     52.0261E+06     64.2941E+06    -9.65346E+06
            2003     150.681E-03     11.7271E-03     150.224E-03     455.874E-03    -104.425E-03    -351.028E-03    -313.590E-03     418.436E-03    -104.425E-03     339.062E-03     547.282E-03     118.716E+06     96.0075E+06     80.7918E+06    -29.1299E+06    -28.7720E+06     95.0916E+06     81.3498E+06    -4.54181E+06
            2004     151.188E-03     12.4628E-03     150.673E-03     492.468E-03    -117.370E-03    -374.905E-03    -339.244E-03     456.807E-03    -117.370E-03     344.383E-03     610.121E-03     116.818E+06     103.603E+06     86.2392E+06    -20.3913E+06    -19.0886E+06     95.9665E+06     92.5731E+06    -9.91229E+06
            2005     151.707E-03     13.1858E-03     151.133E-03     510.793E-03    -130.223E-03    -380.578E-03    -350.920E-03     481.135E-03    -130.223E-03     318.054E-03     643.619E-03     112.267E+06     107.298E+06     83.0187E+06    -14.6474E+06    -13.2707E+06     83.3924E+06     105.548E+06    -9.93246E+06
            2006     152.180E-03     13.9001E-03     151.544E-03     533.277E-03    -142.148E-03    -391.562E-03    -361.069E-03     502.783E-03    -142.148E-03     328.767E-03     693.439E-03     120.858E+06     111.924E+06     71.7584E+06    -23.4386E+06    -11.5366E+06     59.8563E+06     111.924E+06    -7.12388E+06
            2007     152.774E-03     14.5961E-03     152.076E-03     536.306E-03    -153.231E-03    -383.608E-03    -361.246E-03     513.945E-03    -153.231E-03     266.236E-03     685.940E-03     123.264E+06     117.558E+06     44.8056E+06    -20.4223E+06    -8.13486E+06     32.5181E+06     117.558E+06    -5.72926E+06
            2008     149.643E-03     984.121E-06     149.640E-03     39.5254E-03    -18.7889E-03    -20.7449E-03    -19.9201E-03     38.7005E-03    -18.7889E-03     13.0099E-03     39.8234E-03     127.728E+06    -177.906E+06    -298.044E+06    -309.582E+06    -299.474E+06    -186.393E+06    -299.664E+06     11.8199E+06
            2009     149.646E-03     1.96280E-03     149.633E-03     48.0918E-03    -20.6294E-03    -27.4721E-03    -24.5773E-03     45.1971E-03    -20.6294E-03     28.3149E-03     48.9019E-03     113.405E+06    -149.634E+06    -245.553E+06    -270.010E+06    -253.548E+06    -163.316E+06    -248.332E+06     14.1423E+06
            2010     149.664E-03     2.93582E-03     149.636E-03     61.1182E-03    -23.2094E-03    -37.9046E-03    -31.4500E-03     54.6636E-03    -23.2094E-03     48.5131E-03     62.5322E-03     73.8887E+06    -148.602E+06    -199.137E+06    -228.458E+06    -208.707E+06    -162.986E+06    -204.504E+06     11.4234E+06
            2011     149.704E-03     3.90024E-03     149.653E-03     77.9275E-03    -26.4424E-03    -51.5367E-03    -40.4670E-03     66.8578E-03    -26.4424E-03     72.2158E-03     80.0966E-03     46.0872E+06    -135.832E+06    -157.303E+06    -184.620E+06    -171.030E+06    -147.446E+06    -159.280E+06     4.76708E+06
            2012     149.766E-03     4.85749E-03     149.687E-03     99.0950E-03    -30.3146E-03    -68.8735E-03    -52.3988E-03     82.6203E-03    -30.3146E-03     99.8384E-03     102.498E-03     37.5116E+06    -109.901E+06    -123.759E+06    -149.566E+06    -141.529E+06    -124.060E+06    -117.636E+06    -3.63715E+06
            2013     149.879E-03     5.80255E-03     149.767E-03     125.665E-03    -34.9346E-03    -90.7153E-03    -68.1336E-03     103.084E-03    -34.9346E-03     132.285E-03     130.971E-03     44.2012E+06    -80.7231E+06    -96.2345E+06    -127.369E+06    -119.686E+06    -103.795E+06    -80.8461E+06    -10.6427E+06
            2014     150.018E-03     6.73463E-03     149.867E-03     158.496E-03    -40.5045E-03    -117.914E-03    -89.1861E-03     129.768E-03    -40.5045E-03     168.694E-03     166.977E-03     61.4086E+06    -47.3739E+06    -69.0845E+06    -112.391E+06    -100.839E+06    -80.5135E+06    -47.4969E+06    -17.1108E+06
            2015     150.204E-03     7.64594E-03     150.009E-03     199.463E-03    -47.2285E-03    -152.306E-03    -118.057E-03     165.214E-03    -47.2285E-03     208.499E-03     213.135E-03     71.2973E+06    -20.0832E+06    -46.9964E+06    -98.3754E+06    -82.3415E+06    -63.0303E+06    -20.0832E+06    -22.4416E+06
            2016     150.450E-03     8.53221E-03     150.208E-03     247.521E-03    -55.3420E-03    -192.231E-03    -153.723E-03     209.014E-03    -55.3420E-03     248.457E-03     268.351E-03     76.3477E+06     2.81133E+06    -30.4895E+06    -82.6373E+06    -67.6614E+06    -45.4654E+06     2.81133E+06    -23.2493E+06
            2017     150.794E-03     9.39361E-03     150.501E-03     300.840E-03    -64.9429E-03    -236.036E-03    -195.735E-03     260.539E-03    -64.9429E-03     282.541E-03     331.007E-03     82.2222E+06     22.3956E+06    -14.4147E+06    -70.7868E+06    -56.5827E+06    -28.6187E+06     22.3956E+06    -23.8818E+06
            2018     151.178E-03     10.2179E-03     150.833E-03     361.664E-03    -76.0515E-03    -285.614E-03    -244.710E-03     320.760E-03    -76.0515E-03     314.645E-03     405.408E-03     88.1970E+06     41.3661E+06     11.4820E+06    -57.4534E+06    -46.8206E+06     849.147E+03     41.3661E+06    -22.0951E+06
            2019     151.665E-03     11.0033E-03     151.266E-03     421.012E-03    -88.5767E-03    -331.913E-03    -291.465E-03     380.565E-03    -88.5767E-03     339.154E-03     482.417E-03     94.7717E+06     59.4640E+06     41.7409E+06    -42.5450E+06    -36.3095E+06     35.5053E+06     59.4640E+06    -16.5059E+06
            2020     152.200E-03     11.7595E-03     151.745E-03     467.439E-03    -101.895E-03    -365.188E-03    -326.964E-03     429.215E-03    -101.895E-03     348.247E-03     549.010E-03     113.875E+06     96.5406E+06     72.8943E+06    -26.8633E+06    -23.0064E+06     86.1334E+06     79.4446E+06    -9.93537E+06
            2021     152.743E-03     12.4921E-03     152.231E-03     501.674E-03    -115.477E-03    -386.041E-03    -349.866E-03     465.499E-03    -115.477E-03     350.904E-03     608.801E-03     120.023E+06     113.897E+06     90.3792E+06    -15.5382E+06    -14.9517E+06     106.977E+06     96.7132E+06    -6.68431E+06
            2022     153.318E-03     13.2076E-03     152.748E-03     519.637E-03    -128.854E-03    -390.878E-03    -361.087E-03     489.845E-03    -128.854E-03     322.372E-03     645.039E-03     118.499E+06     115.595E+06     77.2086E+06    -12.5378E+06    -10.1271E+06     74.8858E+06     115.507E+06    -3.20314E+06
            2023     153.808E-03     13.9090E-03     153.178E-03     538.850E-03    -141.327E-03    -398.124E-03    -368.895E-03     509.620E-03    -141.327E-03     324.749E-03     689.719E-03     128.083E+06     133.186E+06     68.5991E+06    -11.8015E+06    -3.25459E+06     60.0522E+06     133.186E+06     3.78858E+06
            2024     154.461E-03     14.6172E-03     153.768E-03     544.979E-03    -152.975E-03    -392.696E-03    -371.915E-03     524.198E-03    -152.975E-03     259.350E-03     684.761E-03     132.212E+06     139.984E+06     53.2780E+06    -9.97591E+06     1.86503E+06     41.4371E+06     139.984E+06     7.36088E+06
            2025     150.673E-03     987.742E-06     150.670E-03     28.1548E-03    -13.3866E-03    -14.7690E-03    -14.2472E-03     27.6381E-03    -13.3917E-03     8.43909E-03     28.4520E-03     158.505E+06    -176.620E+06    -330.679E+06    -338.937E+06    -334.553E+06    -179.972E+06    -331.711E+06    -19.2092E+06
            2026     150.688E-03     1.97418E-03     150.675E-03     35.3162E-03    -14.8063E-03    -20.5243E-03    -18.3681E-03     33.1599E-03    -14.8063E-03     20.7931E-03     36.1716E-03     159.147E+06    -148.105E+06    -297.782E+06    -314.759E+06    -304.822E+06    -155.262E+06    -300.562E+06    -28.3929E+06
            2027     150.720E-03     2.95410E-03     150.691E-03     48.1531E-03    -17.1277E-03    -31.0431E-03    -25.4190E-03     42.5290E-03    -17.1277E-03     40.3315E-03     49.8410E-03     131.909E+06    -140.395E+06    -260.729E+06    -281.285E+06    -263.427E+06    -152.886E+06    -266.096E+06    -36.2205E+06
            2028     150.775E-03     3.92586E-03     150.724E-03     66.9459E-03    -20.3677E-03    -46.5823E-03    -35.8224E-03     56.1860E-03    -20.3677E-03     66.4048E-03     69.5738E-03     113.469E+06    -117.872E+06    -222.525E+06    -238.389E+06    -217.235E+06    -136.439E+06    -225.113E+06    -41.9950E+06
            2029     150.867E-03     4.88453E-03     150.788E-03     91.3646E-03    -24.6537E-03    -66.7205E-03    -49.9745E-03     74.6186E-03    -24.6537E-03     97.2784E-03     95.3061E-03     97.1258E+06    -92.4782E+06    -170.526E+06    -197.242E+06    -172.250E+06    -117.524E+06    -170.473E+06    -43.2160E+06
            2030     150.994E-03     5.83110E-03     150.881E-03     121.045E-03    -29.9545E-03    -91.0974E-03    -68.3109E-03     98.2588E-03    -29.9545E-03     131.367E-03     127.060E-03     76.6786E+06    -76.0044E+06    -110.302E+06    -160.169E+06    -133.578E+06    -102.649E+06    -110.249E+06    -37.8983E+06
            2031     151.153E-03     6.76094E-03     151.002E-03     157.161E-03    -36.2822E-03    -120.836E-03    -92.2695E-03     128.594E-03    -36.2822E-03     168.791E-03     166.305E-03     73.7624E+06    -49.2203E+06    -64.5844E+06    -128.609E+06    -106.201E+06    -72.9409E+06    -63.2717E+06    -33.9290E+06
            2032     151.372E-03     7.67138E-03     151.177E-03     201.428E-03    -43.8747E-03    -157.511E-03    -123.455E-03     167.372E-03    -43.8747E-03     210.285E-03     215.177E-03     81.6772E+06    -24.6846E+06    -39.3311E+06    -112.460E+06    -88.4845E+06    -57.3551E+06    -30.6360E+06    -35.6760E+06
            2033     151.699E-03     8.55460E-03     151.457E-03     252.064E-03    -52.9024E-03    -199.186E-03    -161.662E-03     214.540E-03    -52.9024E-03     248.854E-03     271.856E-03     87.6080E+06    -2.36907E+06    -26.2237E+06    -97.6268E+06    -73.9301E+06    -49.9203E+06    -2.36907E+06    -33.4499E+06
            2034     152.058E-03     9.40721E-03     151.766E-03     308.939E-03    -63.4226E-03    -245.603E-03    -207.037E-03     270.373E-03    -63.4226E-03     281.674E-03     336.337E-03     95.6794E+06     24.6756E+06    -6.21073E+06    -80.9423E+06    -62.3181E+06    -24.8350E+06     24.6756E+06    -30.8167E+06
            2035     152.528E-03     10.2237E-03     152.185E-03     370.803E-03    -75.4566E-03    -295.263E-03    -256.252E-03     331.792E-03    -75.4566E-03     312.446E-03     408.697E-03     101.656E+06     42.0377E+06     14.9144E+06    -70.2420E+06    -51.0698E+06    -4.25772E+06     42.0377E+06    -30.9060E+06
            2036     153.087E-03     11.0060E-03     152.690E-03     424.972E-03    -88.6683E-03    -336.105E-03    -298.179E-03     387.045E-03    -88.6683E-03     330.669E-03     476.341E-03     100.659E+06     58.1135E+06     34.3362E+06    -52.2706E+06    -36.9486E+06     19.0142E+06     58.1135E+06    -28.2785E+06
            2037     153.685E-03     11.7631E-03     153.234E-03     465.662E-03    -102.297E-03    -363.288E-03    -328.192E-03     430.566E-03    -102.297E-03     333.262E-03     533.939E-03     108.720E+06     86.2787E+06     58.9038E+06    -33.4660E+06    -26.2356E+06     60.1964E+06     77.7557E+06    -19.8405E+06
            2038     154.292E-03     12.4941E-03     153.785E-03     496.461E-03    -115.887E-03    -380.421E-03    -348.021E-03     464.061E-03    -115.887E-03     330.377E-03     587.920E-03     121.250E+06     105.784E+06     89.0457E+06    -22.1153E+06    -19.1147E+06     94.6560E+06     97.1729E+06    -6.00142E+06
            2039     154.907E-03     13.2101E-03     154.342E-03     516.020E-03    -129.149E-03    -386.926E-03    -359.288E-03     488.382E-03    -129.149E-03     310.100E-03     628.223E-03     131.571E+06     116.748E+06     91.1306E+06    -19.5005E+06    -16.6161E+06     88.3341E+06     116.660E+06     424.207E+03
            2040     155.472E-03     13.9067E-03     154.848E-03     538.468E-03    -141.849E-03    -397.139E-03    -369.904E-03     511.233E-03    -141.849E-03     314.169E-03     681.984E-03     145.393E+06     143.834E+06     75.0234E+06    -17.6487E+06    -14.1585E+06     71.5332E+06     143.834E+06    -5.68119E+06
            2041     156.073E-03     14.5979E-03     155.389E-03     541.249E-03    -153.663E-03    -388.137E-03    -368.276E-03     521.389E-03    -153.663E-03     257.889E-03     676.250E-03     161.886E+06     157.314E+06     44.4000E+06    -26.2345E+06    -8.86400E+06     27.0295E+06     157.314E+06     5.06992E+06
            2042     151.699E-03     985.596E-06     151.696E-03     33.0104E-03    -16.0792E-03    -16.9318E-03    -16.6827E-03     32.8482E-03    -16.1661E-03     3.90838E-03     33.3122E-03     121.541E+06    -133.177E+06    -246.959E+06    -261.048E+06    -255.106E+06    -139.119E+06    -246.959E+06    -26.1839E+06
            2043     151.719E-03     1.96865E-03     151.706E-03     37.4810E-03    -17.1143E-03    -20.3830E-03    -19.5212E-03     36.6192E-03    -17.1143E-03     11.4757E-03     38.3591E-03     145.913E+06    -108.453E+06    -238.133E+06    -266.184E+06    -251.463E+06    -123.174E+06    -238.133E+06    -44.8862E+06
            2044     151.759E-03     2.94979E-03     151.730E-03     46.3139E-03    -18.7527E-03    -27.5803E-03    -24.6553E-03     43.3890E-03    -18.7527E-03     26.2405E-03     48.1820E-03     160.041E+06    -96.0795E+06    -231.362E+06    -271.777E+06    -244.565E+06    -123.292E+06    -231.362E+06    -62.4826E+06
            2045     151.835E-03     3.92473E-03     151.784E-03     61.6710E-03    -21.2485E-03    -40.4764E-03    -33.4452E-03     54.6397E-03    -21.2485E-03     49.8822E-03     64.7451E-03     176.465E+06    -75.3186E+06    -219.444E+06    -269.579E+06    -231.185E+06    -113.713E+06    -219.444E+06    -76.4405E+06
            2046     151.950E-03     4.88957E-03     151.871E-03     85.2692E-03    -24.9292E-03    -60.4071E-03    -47.3617E-03     72.2238E-03    -24.9292E-03     82.3277E-03     89.7333E-03     174.921E+06    -59.1674E+06    -189.742E+06    -255.470E+06     -208.48E+06    -106.157E+06    -189.742E+06    -82.9253E+06
            2047     152.088E-03     5.83683E-03     151.976E-03     117.807E-03    -29.8812E-03    -87.9445E-03    -67.8265E-03     97.6885E-03    -29.8812E-03     121.953E-03     124.013E-03     155.099E+06    -50.9948E+06    -150.933E+06    -228.868E+06    -175.039E+06    -104.823E+06    -150.933E+06    -81.0864E+06
            2048     152.282E-03     6.76395E-03     152.132E-03     159.239E-03    -36.4060E-03    -122.861E-03    -95.9588E-03     132.338E-03    -36.4060E-03     165.590E-03     168.245E-03     134.024E+06    -32.4606E+06    -108.406E+06    -185.982E+06    -138.184E+06    -80.2583E+06    -108.406E+06    -70.4949E+06
            2049     152.555E-03     7.66525E-03     152.362E-03     208.101E-03    -44.7727E-03    -163.342E-03    -131.277E-03     176.036E-03    -44.7727E-03     208.349E-03     221.446E-03     119.698E+06    -16.8010E+06    -55.7449E+06    -148.275E+06    -108.975E+06    -59.4581E+06    -52.3884E+06    -58.8949E+06
            2050     152.896E-03     8.54069E-03     152.658E-03     262.307E-03    -54.8142E-03    -207.599E-03    -173.353E-03     228.061E-03    -54.8142E-03     243.600E-03     280.725E-03     117.272E+06    -2.31412E+06    -21.1540E+06    -127.736E+06    -85.9356E+06    -59.6297E+06    -5.63845E+06    -52.4582E+06
            2051     153.343E-03     9.38124E-03     153.055E-03     319.964E-03    -66.3695E-03    -253.614E-03    -219.603E-03     285.953E-03    -66.3695E-03     269.993E-03     344.190E-03     108.809E+06     21.3380E+06    -3.56031E+06    -97.6455E+06    -64.9759E+06    -36.2299E+06     21.3380E+06    -41.3178E+06
            2052     153.878E-03     10.1872E-03     153.540E-03     376.449E-03    -79.4019E-03    -296.932E-03    -263.946E-03     343.463E-03    -79.4019E-03     289.499E-03     408.089E-03     106.248E+06     44.0842E+06     16.5477E+06    -73.1478E+06    -50.7339E+06    -5.86620E+06     44.0842E+06    -34.7728E+06
            2053     154.489E-03     10.9611E-03     154.099E-03     421.617E-03    -93.2516E-03    -328.493E-03    -298.003E-03     391.127E-03    -93.2516E-03     294.954E-03     462.435E-03     115.512E+06     60.3476E+06     32.2251E+06    -66.5961E+06    -46.0571E+06     11.6861E+06     60.3476E+06    -36.3027E+06
            2054     155.130E-03     11.7072E-03     154.687E-03     454.188E-03    -106.957E-03    -347.193E-03    -319.390E-03     426.385E-03    -106.957E-03     292.545E-03     507.396E-03     116.069E+06     70.9687E+06     36.5310E+06    -57.9688E+06    -46.6065E+06     25.1688E+06     70.9687E+06    -27.8168E+06
            2055     155.793E-03     12.4421E-03     155.296E-03     478.702E-03    -120.100E-03    -358.366E-03    -332.059E-03     452.395E-03    -120.100E-03     291.741E-03     549.896E-03     135.874E+06     85.1599E+06     62.1936E+06    -58.9810E+06    -47.5119E+06     50.7245E+06     85.1599E+06    -24.2010E+06
            2056     156.461E-03     13.1623E-03     155.906E-03     496.077E-03    -132.574E-03    -363.409E-03    -339.752E-03     472.419E-03    -132.574E-03     280.795E-03     589.732E-03     151.710E+06     115.729E+06     94.3507E+06    -42.8437E+06    -31.7283E+06     83.2353E+06     115.729E+06    -24.1434E+06
            2057     157.084E-03     13.8835E-03     156.469E-03     517.972E-03    -144.245E-03    -373.840E-03    -347.025E-03     491.158E-03    -144.245E-03     302.903E-03     653.746E-03     147.391E+06     135.568E+06     77.1476E+06    -28.6455E+06    -15.3018E+06     63.8039E+06     135.568E+06     2.53860E+06
            2058     157.773E-03     14.5717E-03     157.099E-03     515.916E-03    -154.736E-03    -361.326E-03    -338.625E-03     493.215E-03    -154.736E-03     272.550E-03     656.547E-03     176.015E+06     161.266E+06     42.0828E+06    -38.0047E+06    -14.1778E+06     18.2559E+06     161.266E+06     11.2021E+06
            2059     152.739E-03     976.051E-06     152.736E-03     52.4647E-03    -25.7164E-03    -26.7528E-03    -26.4853E-03     52.4350E-03    -25.9541E-03    -1.16296E-03     52.7498E-03     80.5469E+06    -90.1440E+06    -163.981E+06    -176.029E+06    -169.686E+06    -95.0471E+06    -165.422E+06    -18.6756E+06
            2060     152.761E-03     1.95065E-03     152.748E-03     56.7667E-03    -27.0379E-03    -29.7453E-03    -29.5786E-03     56.6000E-03    -27.0379E-03    -605.704E-06     57.7163E-03     111.910E+06    -63.4156E+06    -157.538E+06    -186.397E+06    -170.553E+06    -79.2594E+06    -157.538E+06    -40.1455E+06
            2061     152.810E-03     2.92152E-03     152.782E-03     63.2331E-03    -28.8704E-03    -34.3666E-03    -33.7380E-03     62.6046E-03    -28.8704E-03     4.92800E-03     65.4615E-03     129.333E+06    -51.2057E+06    -143.346E+06    -198.233E+06    -167.119E+06    -82.3193E+06    -143.346E+06    -59.5816E+06
            2062     152.896E-03     3.88755E-03     152.846E-03     72.7445E-03    -31.1916E-03    -41.5857E-03    -39.6114E-03     70.7702E-03    -31.1916E-03     18.6369E-03     76.6574E-03     149.810E+06    -37.1289E+06    -134.137E+06    -209.322E+06    -165.470E+06    -80.9808E+06    -134.137E+06    -74.9628E+06
            2063     153.012E-03     4.84725E-03     152.936E-03     88.4872E-03    -34.1600E-03    -54.3740E-03    -49.3540E-03     83.4672E-03    -34.1600E-03     43.0625E-03     94.0678E-03     165.898E+06    -29.4903E+06    -131.226E+06    -220.673E+06    -168.047E+06    -82.1165E+06    -131.226E+06    -85.3000E+06
            2064     153.184E-03     5.79767E-03     153.074E-03     114.902E-03    -38.2238E-03    -76.6965E-03    -66.4372E-03     104.642E-03    -38.2238E-03     79.3298E-03     121.888E-03     183.546E+06    -20.8471E+06    -129.607E+06    -232.326E+06    -168.238E+06    -84.9355E+06    -129.607E+06    -97.0317E+06
            2065     153.405E-03     6.72718E-03     153.258E-03     154.350E-03    -44.1167E-03    -110.310E-03    -93.6915E-03     137.732E-03    -44.1167E-03     123.993E-03     163.232E-03     186.991E+06    -13.3556E+06    -121.169E+06    -228.694E+06    -156.752E+06    -85.2974E+06    -121.169E+06    -100.601E+06
            2066     153.742E-03     7.62483E-03     153.553E-03     205.839E-03    -52.3529E-03    -153.477E-03    -131.651E-03     184.014E-03    -52.3529E-03     168.587E-03     217.505E-03     173.820E+06    -4.09001E+06    -80.6013E+06    -200.361E+06    -133.080E+06    -71.3714E+06    -80.6013E+06    -92.2959E+06
            2067     154.134E-03     8.48523E-03     153.900E-03     263.768E-03    -62.8902E-03    -200.889E-03    -176.724E-03     239.603E-03    -62.8902E-03     203.607E-03     279.076E-03     160.989E+06     1.41135E+06    -49.3521E+06    -177.392E+06    -110.699E+06    -72.2886E+06    -42.3448E+06    -82.7438E+06
            2068     154.626E-03     9.30675E-03     154.346E-03     322.603E-03    -75.4126E-03    -247.317E-03    -223.635E-03     298.920E-03    -75.4126E-03     224.696E-03     342.524E-03     151.132E+06     7.63281E+06    -40.7208E+06    -161.637E+06    -96.8620E+06    -71.2324E+06    -26.6302E+06    -75.8936E+06
            2069     155.216E-03     10.0900E-03     154.888E-03     374.782E-03    -89.4241E-03    -285.339E-03    -263.490E-03     352.933E-03    -89.4241E-03     233.401E-03     399.520E-03     150.603E+06     32.4755E+06    -7.81659E+06    -133.892E+06    -85.9084E+06    -38.0883E+06     14.7636E+06    -64.9800E+06
            2070     155.856E-03     10.8459E-03     155.478E-03     410.378E-03    -103.778E-03    -306.601E-03    -286.920E-03     390.697E-03    -103.778E-03     231.812E-03     440.330E-03     150.047E+06     57.6225E+06     15.0156E+06    -108.330E+06    -77.2141E+06    -16.0999E+06     57.6225E+06    -50.9248E+06
            2071     156.540E-03     11.5925E-03     156.110E-03     432.854E-03    -117.305E-03    -315.486E-03    -297.077E-03     414.446E-03    -117.305E-03     230.006E-03     470.849E-03     147.436E+06     76.8596E+06     18.7921E+06    -90.3312E+06    -70.5819E+06    -957.084E+03     76.8596E+06    -39.6229E+06
            2072     157.231E-03     12.3296E-03     156.747E-03     447.897E-03    -129.646E-03    -318.115E-03    -299.856E-03     429.638E-03    -129.646E-03     232.135E-03     499.445E-03     159.491E+06     109.019E+06     58.1273E+06    -67.3589E+06    -51.5667E+06     42.3351E+06     109.019E+06    -32.7185E+06
            2073     157.934E-03     13.0716E-03     157.392E-03     454.917E-03    -140.336E-03    -314.489E-03    -294.667E-03     435.096E-03    -140.336E-03     242.331E-03     527.767E-03     161.397E+06     129.667E+06     72.3920E+06    -49.5468E+06    -35.7155E+06     58.5607E+06     129.667E+06    -31.7321E+06
            2074     158.626E-03     13.7905E-03     158.025E-03     465.912E-03    -148.869E-03    -316.947E-03    -285.453E-03     434.417E-03    -148.869E-03     301.792E-03     583.009E-03     161.250E+06     103.219E+06     26.7244E+06    -81.8665E+06    -38.3536E+06    -16.7885E+06     103.219E+06    -16.7483E+06
            2075     159.287E-03     14.5759E-03     158.619E-03     483.964E-03    -156.117E-03    -327.794E-03    -295.442E-03     451.611E-03    -156.117E-03     310.020E-03     630.007E-03     180.763E+06     150.935E+06     43.6470E+06    -55.6660E+06    -16.0528E+06     4.03378E+06     150.935E+06    -5.75771E+06
            2076     153.803E-03     960.603E-06     153.800E-03     88.8356E-03    -43.7053E-03    -45.1314E-03    -44.6760E-03     88.6830E-03    -44.0081E-03    -8.17020E-03     89.0578E-03     48.1777E+06    -49.5142E+06    -90.3224E+06    -101.942E+06    -90.7904E+06    -59.2257E+06    -91.7627E+06    -15.8784E+06
            2077     153.834E-03     1.91632E-03     153.822E-03     95.4658E-03    -45.7278E-03    -49.7643E-03    -49.3081E-03     95.0096E-03    -45.7278E-03    -15.3482E-03     96.2139E-03     72.8708E+06    -24.0044E+06    -79.2387E+06    -105.272E+06     -91.349E+06    -37.9274E+06    -79.2387E+06    -29.9752E+06
            2078     153.894E-03     2.86603E-03     153.868E-03     104.071E-03    -48.4805E-03    -55.5300E-03    -54.5731E-03     103.115E-03    -48.4805E-03    -22.4256E-03     105.981E-03     92.7998E+06    -15.2598E+06    -67.7512E+06    -121.676E+06    -94.5559E+06    -42.3799E+06    -67.7512E+06    -45.9124E+06
            2079     153.986E-03     3.81031E-03     153.939E-03     112.516E-03    -51.6297E-03    -60.8013E-03    -59.3508E-03     111.066E-03    -51.6297E-03    -24.6546E-03     116.243E-03     108.921E+06    -12.3950E+06    -65.2668E+06    -136.701E+06    -99.2388E+06    -49.8574E+06    -65.2668E+06    -56.6897E+06
            2080     154.097E-03     4.75046E-03     154.023E-03     122.532E-03    -55.0893E-03    -67.4160E-03    -65.4758E-03     120.592E-03    -55.0893E-03    -18.4315E-03     128.430E-03     124.140E+06    -6.13662E+06    -63.4385E+06    -147.551E+06    -102.335E+06    -51.3534E+06    -63.4385E+06    -65.6417E+06
            2081     154.274E-03     5.67936E-03     154.170E-03     138.628E-03    -59.4831E-03    -79.1338E-03    -76.0678E-03     135.562E-03    -59.4831E-03    -3.58476E-03     146.900E-03     142.814E+06     3.82576E+06    -58.5068E+06    -158.858E+06    -104.488E+06    -50.5438E+06    -58.5068E+06    -76.6796E+06
            2082     154.529E-03     6.59406E-03     154.388E-03     164.006E-03    -65.5930E-03    -98.4625E-03    -93.3124E-03     158.856E-03    -65.5930E-03     18.6003E-03     174.732E-03     159.390E+06     4.01352E+06    -61.4250E+06    -176.839E+06    -110.732E+06    -62.0933E+06    -61.4250E+06    -86.7175E+06
            2083     154.878E-03     7.48074E-03     154.698E-03     199.575E-03    -73.7902E-03    -125.697E-03    -118.378E-03     192.256E-03    -73.7902E-03     45.5299E-03     212.149E-03     168.827E+06     3.47797E+06    -64.1600E+06    -187.913E+06    -119.203E+06    -65.2326E+06    -64.1600E+06    -91.3622E+06
            2084     155.330E-03     8.33287E-03     155.107E-03     243.557E-03    -84.4515E-03    -158.969E-03    -150.386E-03     234.974E-03    -84.4515E-03     67.6298E-03     257.995E-03     172.311E+06     2.08330E+06    -56.6520E+06    -191.036E+06    -122.052E+06    -66.9007E+06    -56.6520E+06    -92.2422E+06
            2085     155.873E-03     9.14387E-03     155.604E-03     289.965E-03    -97.4631E-03    -192.533E-03    -183.777E-03     281.209E-03    -97.4631E-03     78.0793E-03     307.184E-03     170.091E+06    -2.64460E+06    -45.4979E+06    -189.053E+06    -116.493E+06    -75.2043E+06    -45.4979E+06    -90.5694E+06
            2086     156.514E-03     9.90958E-03     156.200E-03     326.439E-03    -111.598E-03    -214.981E-03    -206.945E-03     318.403E-03    -111.598E-03     82.1965E-03     346.595E-03     169.771E+06     6.66319E+06    -23.3344E+06    -175.184E+06    -104.826E+06    -71.9481E+06    -15.0806E+06    -84.9028E+06
            2087     157.173E-03     10.6577E-03     156.811E-03     348.502E-03    -125.292E-03    -223.276E-03    -216.249E-03     341.475E-03    -125.292E-03     87.8800E-03     371.478E-03     164.723E+06     34.7389E+06    -7.31722E+06    -145.559E+06    -89.0645E+06    -60.6594E+06     31.5862E+06    -66.7396E+06
            2088     157.882E-03     11.3925E-03     157.471E-03     363.701E-03    -137.681E-03    -226.018E-03    -219.430E-03     357.113E-03    -137.681E-03     96.5716E-03     392.922E-03     157.506E+06     77.6386E+06     16.3922E+06    -101.100E+06    -62.2865E+06    -22.4215E+06     77.6386E+06    -52.1575E+06
            2089     158.591E-03     12.1367E-03     158.125E-03     369.045E-03    -142.402E-03    -226.700E-03    -213.943E-03     361.986E-03    -148.099E-03     113.375E-03     409.289E-03     154.818E+06     114.493E+06     49.9763E+06    -62.0440E+06    -36.2031E+06     24.1353E+06     114.493E+06    -37.2429E+06
            2090     159.325E-03     12.8769E-03     158.804E-03     355.977E-03    -132.946E-03    -223.021E-03    -189.063E-03     344.412E-03    -155.339E-03     152.136E-03     412.794E-03     166.074E+06     136.132E+06     56.1256E+06    -54.6275E+06    -38.0737E+06     39.5718E+06     136.132E+06    -9.54202E+06
            2091     159.997E-03     13.7194E-03     159.408E-03     360.809E-03    -136.266E-03    -224.597E-03    -179.092E-03     338.700E-03    -159.662E-03     211.714E-03     463.043E-03     190.578E+06     148.619E+06     37.7701E+06    -69.0892E+06    -19.4196E+06    -11.8995E+06     148.619E+06    -12.1409E+06
            2092     160.724E-03     14.5560E-03     160.063E-03     381.230E-03    -140.291E-03    -241.574E-03    -185.619E-03     347.061E-03    -162.077E-03     264.772E-03     518.833E-03     183.574E+06     151.996E+06     36.2668E+06    -57.6009E+06    -8.49759E+06    -12.8365E+06     151.996E+06    -24.1916E+06
            2093     154.921E-03     933.247E-06     154.919E-03     147.440E-03    -72.8395E-03    -74.5997E-03    -74.0058E-03     146.993E-03    -72.9863E-03    -18.7689E-03     147.551E-03     39.3291E+06     3.63883E+06    -12.6729E+06    -39.1989E+06    -12.9292E+06    -23.6462E+06    -11.6577E+06    -15.6969E+06
            2094     154.962E-03     1.86303E-03     154.951E-03     155.203E-03    -75.3236E-03    -79.9172E-03    -78.6633E-03     153.949E-03    -75.3236E-03    -33.4356E-03     155.569E-03     42.9906E+06     8.77843E+06    -10.4861E+06    -38.6871E+06    -17.1193E+06    -12.7893E+06    -10.4861E+06    -19.4252E+06
            2095     155.031E-03     2.78205E-03     155.006E-03     168.729E-03    -78.9952E-03    -89.6386E-03    -86.9908E-03     166.081E-03    -78.9952E-03    -51.4470E-03     169.742E-03     54.3350E+06     14.2882E+06    -7.68307E+06    -47.1182E+06    -24.3746E+06    -13.9661E+06    -2.17224E+06    -24.8480E+06
            2096     155.116E-03     3.69137E-03     155.072E-03     186.185E-03    -84.1750E-03    -101.877E-03    -96.8295E-03     181.137E-03    -84.1750E-03    -74.5255E-03     188.517E-03     70.1964E+06     19.6379E+06    -7.94750E+06    -59.8668E+06    -31.6574E+06    -22.4229E+06     5.90386E+06    -31.4868E+06
            2097     155.246E-03     4.59046E-03     155.178E-03     204.478E-03    -90.4930E-03    -113.979E-03    -105.104E-03     195.603E-03    -90.4930E-03    -101.697E-03     208.785E-03     84.8583E+06     22.6985E+06    -6.25412E+06    -72.6042E+06    -38.8524E+06    -24.1242E+06     6.81674E+06    -39.4665E+06
            2098     155.415E-03     5.47685E-03     155.319E-03     223.148E-03    -98.1402E-03    -125.264E-03    -110.955E-03     208.838E-03    -98.1402E-03    -130.075E-03     230.680E-03     96.2708E+06     25.9476E+06    -7.42442E+06    -82.3184E+06    -48.5892E+06    -21.7645E+06     6.55847E+06    -45.1517E+06
            2099     155.691E-03     6.33342E-03     155.562E-03     242.046E-03    -107.465E-03    -134.778E-03    -113.666E-03     220.934E-03    -107.465E-03    -156.362E-03     253.458E-03     106.943E+06     26.9806E+06    -14.4497E+06    -93.4872E+06    -58.7254E+06    -29.5694E+06     7.33854E+06    -47.0451E+06
            2100     156.038E-03     7.16700E-03     155.873E-03     258.965E-03    -118.357E-03    -140.552E-03    -111.772E-03     230.185E-03    -118.357E-03    -175.537E-03     274.401E-03     114.033E+06     25.6005E+06    -23.0523E+06    -102.654E+06    -66.2842E+06    -38.6588E+06     4.83771E+06    -47.7217E+06
            2101     156.477E-03     7.97432E-03     156.273E-03     272.639E-03    -124.468E-03    -148.150E-03    -106.761E-03     237.596E-03    -130.815E-03    -183.319E-03     293.311E-03     119.825E+06     30.8680E+06    -13.5313E+06    -102.709E+06    -64.5303E+06    -33.4065E+06     12.5645E+06    -50.9159E+06
            2102     157.039E-03     8.73336E-03     156.796E-03     280.157E-03    -118.850E-03    -161.290E-03    -99.7376E-03     244.164E-03    -144.409E-03    -175.742E-03     308.411E-03     121.603E+06     37.9005E+06    -2.99388E+06    -94.7281E+06    -56.7651E+06    -32.3666E+06     29.3102E+06    -48.3175E+06
            2103     157.659E-03     9.46973E-03     157.374E-03     277.782E-03    -106.598E-03    -171.229E-03    -89.5321E-03     246.876E-03    -157.388E-03    -151.616E-03     316.464E-03     129.709E+06     46.4318E+06    -7.36864E+06    -91.0718E+06    -53.6729E+06    -40.7357E+06     42.3999E+06    -42.9143E+06
            2104     158.322E-03     10.2144E-03     157.992E-03     271.180E-03    -95.2177E-03    -175.985E-03    -79.2097E-03     247.579E-03    -168.392E-03    -117.519E-03     322.387E-03     140.085E+06     63.7565E+06    -5.14504E+06    -88.2500E+06    -47.0637E+06    -43.1787E+06     60.6038E+06    -42.3941E+06
            2105     159.021E-03     10.9701E-03     158.642E-03     264.387E-03    -84.0570E-03    -180.374E-03    -72.7066E-03     249.956E-03    -177.294E-03    -75.9874E-03     328.609E-03     145.025E+06     87.5154E+06     1.27930E+06    -73.6820E+06    -34.5983E+06    -37.8043E+06     87.5154E+06    -34.2700E+06
            2106     159.758E-03     11.7173E-03     159.328E-03     247.516E-03    -63.9195E-03    -183.659E-03    -58.8416E-03     241.734E-03    -182.955E-03    -21.8145E-03     324.825E-03     156.760E+06     112.304E+06     25.2308E+06    -64.0926E+06      -29.23E+06    -9.63184E+06     112.304E+06    -39.7209E+06
            2107     160.457E-03     12.5455E-03     159.966E-03     231.490E-03    -46.4942E-03    -185.042E-03    -37.9239E-03     222.919E-03    -185.042E-03     3.44058E-03     326.278E-03     171.781E+06     127.375E+06     42.3833E+06    -70.1640E+06    -20.8325E+06    -6.94828E+06     127.375E+06    -10.7941E+06
            2108     161.119E-03     13.4100E-03     160.559E-03     227.259E-03    -42.6934E-03    -184.747E-03    -31.8374E-03     216.403E-03    -184.747E-03     41.0553E-03     344.194E-03     182.557E+06     154.913E+06     66.0977E+06    -48.3886E+06     5.30087E+06     15.4225E+06     151.898E+06    -1.47720E+06
            2109     161.897E-03     14.1831E-03     161.274E-03     207.109E-03    -26.3334E-03    -181.460E-03    -5.35687E-03     186.133E-03    -181.460E-03     106.834E-03     321.990E-03     163.521E+06     131.610E+06     63.8385E+06    -46.6946E+06     3.54578E+06     16.6124E+06     128.596E+06    -16.8808E+06


