********************************************************************************
Field Output Report, written Mon Apr 21 01:57:06 2025

Source 1
---------

   ODB: F:/Abaqus_calc/Vel_20/odb/Correct/1020_2a_16_rd_500_cal_10_v_20_f_050.odb
   Step: Step-1
   Frame: Increment   4268262: Step Time =   0.5758

Loc 1 : Nodal values from source 1

Output sorted by column "Nodal Label".

Field Output reported at nodes for region: DIE_2A_16_D0_36-1.Region_1
   Computation algorithm: EXTRAPOLATE_COMPUTE_AVERAGE
   Averaged at nodes
   Averaging regions: ODB_REGIONS

      Node Label  COORD.Magnitude     COORD.COOR1     COORD.COOR2
                          @Loc 1          @Loc 1          @Loc 1
------------------------------------------------------------------
               1     172.276E-03     19.4799E-03     171.171E-03


Field Output reported at nodes for region: DIE_2A_16_D0_36-1.Region_2
   Computation algorithm: EXTRAPOLATE_COMPUTE_AVERAGE
   Averaged at nodes
   Averaging regions: ODB_REGIONS

      Node Label  COORD.Magnitude     COORD.COOR1     COORD.COOR2
                          @Loc 1          @Loc 1          @Loc 1
------------------------------------------------------------------
               1     172.276E-03     19.4799E-03     171.171E-03


Field Output reported at nodes for part: WIRE_1-1
   Computation algorithm: EXTRAPOLATE_COMPUTE_AVERAGE
   Averaged at nodes
   Averaging regions: ODB_REGIONS

      Node Label  COORD.Magnitude     COORD.COOR1     COORD.COOR2    PE.Max. Prin    PE.Mid. Prin    PE.Min. Prin         PE.PE11         PE.PE22         PE.PE33         PE.PE12            PEEQ         S.Mises     S.Max. Prin     S.Mid. Prin     S.Min. Prin           S.S11           S.S22           S.S33           S.S12
                          @Loc 1          @Loc 1          @Loc 1          @Loc 1          @Loc 1          @Loc 1          @Loc 1          @Loc 1          @Loc 1          @Loc 1          @Loc 1          @Loc 1          @Loc 1          @Loc 1          @Loc 1          @Loc 1          @Loc 1          @Loc 1          @Loc 1
----------------------------------------------------------------------------------------------------------------------------------------------------------------------------------------------------------------------------------------------------------------------------------------------------------------------------------
               1     64.0220E-03     17.0423E-03     61.7121E-03     108.764E-03    -53.4797E-03    -55.3919E-03    -53.2761E-03     108.560E-03    -55.3919E-03     11.4740E-03     158.214E-03     160.859E+06     173.348E+06     134.381E+06    -3.41482E+06    -3.41413E+06     173.347E+06     134.381E+06     280.120E+03
               2     61.2957E-03     83.7204E-09     61.2957E-03     110.912E-03    -55.2070E-03    -55.7047E-03    -55.7017E-03     110.909E-03    -55.2070E-03     1.36092E-03     111.739E-03     193.978E+06    -94.0519E+06    -94.6431E+06    -288.324E+06    -94.6456E+06    -288.319E+06    -94.0541E+06     902.131E+03
               3     2.13441E-06     2.13368E-06    -55.8794E-09     227.149E-03    -113.247E-03    -113.906E-03    -113.903E-03     227.147E-03    -113.247E-03     1.89415E-03     229.161E-03     196.074E+06    -68.1020E+06    -68.7795E+06    -264.514E+06    -68.1021E+06    -264.513E+06    -68.7795E+06     97.1169E+03
               4     16.7127E-03     16.7127E-03    -55.8794E-09     174.649E-03    -70.7667E-03    -103.820E-03    -90.9934E-03     161.821E-03    -70.7667E-03     116.746E-03     210.325E-03     169.077E+06     170.618E+06     141.832E+06    -11.0037E+06    -10.2788E+06     169.893E+06     141.832E+06     11.4511E+06
               5     124.929E-03     17.1077E-03     123.752E-03     52.1960E-03     301.877E-06    -52.4938E-03     485.110E-06     52.0128E-03    -52.4938E-03     6.15637E-03     83.2191E-03     105.298E+06     63.8803E+06     60.5249E+06    -43.0553E+06    -40.6719E+06     58.1416E+06     63.8803E+06    -15.5303E+06
               6     121.643E-03     2.01939E-06     121.643E-03     58.1648E-03    -28.5565E-03    -29.6093E-03    -29.5900E-03     58.1456E-03    -28.5565E-03    -2.60171E-03     58.1723E-03     82.8935E+06     71.2100E+06     66.3708E+06    -13.9970E+06     65.2700E+06    -12.8963E+06     71.2100E+06    -9.34101E+06
               7     63.7644E-03     16.0944E-03     61.6998E-03     113.256E-03    -54.4386E-03    -58.8585E-03    -53.6250E-03     108.979E-03    -55.3946E-03     43.6055E-03     202.605E-03     161.360E+06     170.861E+06     128.690E+06    -7.37356E+06    -7.37283E+06     170.860E+06     128.690E+06     203.515E+03
               8     63.4507E-03     15.1470E-03     61.6162E-03     114.518E-03    -55.3249E-03    -59.1956E-03    -53.7061E-03     109.028E-03    -55.3249E-03     58.6709E-03     223.241E-03     159.469E+06     163.982E+06     106.841E+06    -15.7464E+06    -15.7419E+06     163.978E+06     106.841E+06     113.116E+03
               9     63.1858E-03     14.1989E-03     61.5697E-03     112.189E-03    -55.1848E-03    -57.0657E-03    -53.5555E-03     108.679E-03    -55.1848E-03     47.8672E-03     206.032E-03     157.914E+06     157.115E+06     65.5838E+06    -23.4021E+06    -23.3930E+06     157.106E+06     65.5838E+06     12.3764E+03
              10     62.9229E-03     13.2516E-03     61.5117E-03     112.069E-03    -55.0732E-03    -57.1046E-03    -53.7615E-03     108.726E-03    -55.0732E-03     46.5106E-03     205.829E-03     144.090E+06     134.986E+06     24.3914E+06    -27.5802E+06    -27.5747E+06     134.980E+06     24.3914E+06     100.191E+03
              11     62.6882E-03     12.3046E-03     61.4688E-03     111.042E-03    -55.1334E-03    -55.9829E-03    -54.1417E-03     109.201E-03    -55.1334E-03     34.5985E-03     191.618E-03      86.531E+06     65.9604E+06     6.78681E+06    -30.0467E+06    -30.0456E+06     65.9592E+06     6.78681E+06     224.241E+03
              12     62.4765E-03     11.3574E-03     61.4356E-03     110.987E-03    -55.2889E-03    -55.7223E-03    -54.6066E-03     109.872E-03    -55.2889E-03     26.9662E-03     176.748E-03     43.7602E+06     9.41938E+06    -14.5465E+06    -38.9876E+06    -32.9864E+06    -14.8907E+06     3.76233E+06     379.539E+03
              13     62.2862E-03     10.4110E-03     61.4099E-03     110.727E-03    -55.2411E-03    -55.5198E-03    -54.6807E-03     110.025E-03    -55.3785E-03     21.4330E-03     162.794E-03     64.2788E+06     2.28112E+06    -36.0573E+06    -70.6752E+06    -36.0741E+06    -70.6583E+06     2.28112E+06     546.126E+03
              14     62.1143E-03     9.46400E-03     61.3891E-03     110.613E-03    -55.1704E-03    -55.4673E-03    -54.6599E-03     110.103E-03    -55.4673E-03     18.3468E-03     151.738E-03     98.9042E+06     1.53279E+06    -40.0575E+06    -111.279E+06    -40.0613E+06    -111.275E+06     1.53279E+06     457.385E+03
              15     61.9591E-03     8.51747E-03     61.3709E-03     110.650E-03    -55.1330E-03    -55.5266E-03    -54.7338E-03     110.251E-03    -55.5266E-03     16.2025E-03     142.843E-03     124.857E+06    -2.51219E+06    -44.6994E+06    -142.914E+06    -44.7014E+06    -142.912E+06    -2.51219E+06     354.949E+03
              16     61.8199E-03     7.57039E-03     61.3546E-03     110.724E-03    -55.1430E-03    -55.5954E-03    -54.8523E-03     110.434E-03    -55.5954E-03     13.8283E-03     135.200E-03     147.510E+06    -7.61337E+06    -49.6347E+06    -171.557E+06    -49.6357E+06    -171.556E+06    -7.61337E+06     236.343E+03
              17     61.6978E-03     6.62395E-03     61.3412E-03     110.937E-03    -55.2980E-03    -55.6519E-03    -55.0810E-03     110.720E-03    -55.6519E-03     11.9790E-03     129.159E-03     168.656E+06    -12.5775E+06    -55.2993E+06    -198.467E+06    -55.3005E+06    -198.466E+06    -12.5775E+06     278.399E+03
              18     61.5915E-03     5.67736E-03     61.3293E-03     111.066E-03    -55.3888E-03    -55.6797E-03    -55.2266E-03     110.904E-03    -55.6797E-03     10.3447E-03     124.123E-03     190.519E+06    -20.2543E+06    -61.7847E+06    -228.084E+06    -61.7859E+06    -228.083E+06    -20.2543E+06     281.767E+03
              19     61.5015E-03     4.73121E-03     61.3193E-03     111.075E-03    -55.3904E-03    -55.6977E-03    -55.2781E-03     110.963E-03    -55.6977E-03     8.59970E-03     120.057E-03     203.010E+06    -32.1242E+06    -68.9243E+06    -250.989E+06    -68.9254E+06    -250.988E+06    -32.1242E+06    -55.1777E+03
              20     61.4275E-03     3.78468E-03     61.3108E-03     111.101E-03    -55.4544E-03    -55.6701E-03    -55.3791E-03     111.026E-03    -55.6701E-03     7.03820E-03     116.886E-03     203.732E+06    -46.4744E+06    -76.0336E+06    -263.345E+06    -76.0359E+06    -263.342E+06    -46.4744E+06    -63.6459E+03
              21     61.3698E-03     2.83852E-03     61.3042E-03     111.140E-03    -55.5382E-03    -55.6208E-03    -55.4939E-03     111.096E-03    -55.6208E-03     5.33966E-03     114.600E-03     202.152E+06    -62.7118E+06    -82.9221E+06    -274.149E+06    -82.9262E+06    -274.145E+06    -62.7118E+06     353.558E+03
              22     61.3286E-03     1.89248E-03     61.2994E-03     111.086E-03    -55.5046E-03    -55.5937E-03    -55.5224E-03     111.066E-03    -55.5559E-03     3.56804E-03     112.958E-03     199.486E+06    -78.3485E+06    -88.6889E+06    -282.764E+06    -88.6927E+06    -282.761E+06    -78.3485E+06     499.335E+03
              23     61.3037E-03     946.422E-06     61.2964E-03     110.986E-03    -55.3342E-03    -55.6532E-03    -55.6137E-03     110.979E-03    -55.3665E-03     2.06614E-03     111.992E-03     196.131E+06    -89.4143E+06    -92.8026E+06    -287.196E+06    -92.8053E+06    -287.192E+06    -89.4154E+06     677.169E+03
              24     60.1783E-03     255.448E-09     60.1783E-03     111.375E-03    -55.3627E-03    -56.0102E-03    -56.0057E-03     111.370E-03    -55.3627E-03     1.74261E-03     112.199E-03     191.496E+06    -92.9610E+06    -93.9258E+06    -284.937E+06    -93.5531E+06    -284.934E+06    -93.3368E+06     746.360E+03
              25     59.0616E-03     637.241E-09     59.0616E-03     111.294E-03    -55.3036E-03    -55.9913E-03    -55.9877E-03     111.291E-03    -55.3036E-03     1.53733E-03     112.154E-03     191.195E+06    -93.3215E+06    -93.7309E+06    -284.720E+06    -93.3574E+06    -284.718E+06    -93.6973E+06     388.086E+03
              26     57.9464E-03    -229.193E-09     57.9464E-03     111.025E-03    -55.3137E-03    -55.7142E-03    -55.7114E-03     111.022E-03    -55.3137E-03     1.35380E-03     111.848E-03     190.932E+06    -94.1632E+06    -94.5619E+06    -285.294E+06    -94.5619E+06    -285.294E+06    -94.1632E+06    -96.3899E+03
              27     56.8292E-03     589.462E-09     56.8292E-03     111.020E-03    -55.1969E-03    -55.8270E-03    -55.8246E-03     111.018E-03    -55.1969E-03     1.25792E-03     111.854E-03     191.635E+06    -95.7992E+06    -96.3377E+06    -287.703E+06    -96.3440E+06    -287.696E+06    -95.7992E+06    -799.685E+03
              28     55.7139E-03     257.827E-09     55.7139E-03     111.078E-03    -55.1588E-03    -55.9248E-03    -55.9231E-03     111.076E-03    -55.1588E-03     1.06233E-03     111.891E-03     195.339E+06    -94.3582E+06    -95.7152E+06    -290.370E+06    -94.5388E+06    -290.363E+06    -95.5419E+06    -467.536E+03
              29     54.5981E-03     341.307E-09     54.5981E-03     111.264E-03    -55.3957E-03    -55.8752E-03    -55.7166E-03     111.262E-03    -55.5520E-03     1.21199E-03     112.018E-03     196.461E+06    -91.3228E+06    -93.3370E+06    -288.783E+06    -92.1544E+06    -288.782E+06    -92.5065E+06     347.740E+03
              30     53.4796E-03    -620.743E-09     53.4796E-03     111.224E-03    -55.3878E-03    -55.8382E-03    -55.6787E-03     111.221E-03    -55.5442E-03     1.44357E-03     112.011E-03     195.535E+06    -93.4692E+06    -94.7989E+06    -289.665E+06    -94.3015E+06    -289.664E+06    -93.9684E+06     447.659E+03
              31     52.3650E-03     1.17713E-06     52.3650E-03     111.084E-03    -55.1858E-03    -55.8974E-03    -55.8940E-03     111.081E-03    -55.1858E-03     1.50595E-03     111.919E-03     194.926E+06    -94.6146E+06    -95.8855E+06    -290.173E+06    -95.3908E+06    -290.168E+06    -95.1138E+06    -96.9746E+03
              32     51.2481E-03    -371.439E-09     51.2481E-03     110.946E-03    -55.1406E-03    -55.8056E-03    -55.8032E-03     110.943E-03    -55.1406E-03     1.21079E-03     111.757E-03     195.462E+06    -94.1422E+06    -96.0137E+06    -290.533E+06    -94.9166E+06    -290.531E+06    -95.2420E+06    -577.341E+03
              33     50.1329E-03     833.433E-09     50.1329E-03     111.006E-03    -55.2831E-03    -55.7247E-03    -55.7219E-03     111.003E-03    -55.2831E-03     1.28151E-03     111.800E-03     194.270E+06    -94.9798E+06    -96.8250E+06    -290.165E+06    -95.7343E+06    -290.156E+06    -96.0796E+06     858.983E+03
              34     49.0159E-03    -454.635E-09     49.0159E-03     111.233E-03    -55.4215E-03    -55.8126E-03    -55.8093E-03     111.229E-03    -55.4215E-03     1.47963E-03     111.992E-03     194.162E+06    -91.9318E+06     -92.856E+06    -286.554E+06    -92.8669E+06    -286.543E+06    -91.9318E+06     504.972E+03
              35     47.8989E-03     830.670E-09     47.8989E-03     110.919E-03    -55.1648E-03    -55.7548E-03    -55.7524E-03     110.917E-03    -55.1648E-03     1.26597E-03     111.682E-03     194.936E+06    -92.6549E+06    -93.2163E+06    -287.871E+06    -92.8370E+06    -287.867E+06    -93.0376E+06    -809.578E+03
              36     46.7848E-03    -86.1050E-09     46.7848E-03     110.788E-03    -55.1113E-03    -55.6787E-03    -55.6770E-03     110.786E-03    -55.1113E-03     1.01798E-03     111.589E-03     195.757E+06    -94.5816E+06    -94.9873E+06    -290.540E+06    -94.6090E+06    -290.536E+06    -94.9643E+06    -921.371E+03
              37     45.6686E-03     423.316E-09     45.6686E-03     111.181E-03    -55.3669E-03    -55.8158E-03    -55.8147E-03     111.180E-03    -55.3669E-03     878.530E-06     111.978E-03     195.787E+06    -94.0015E+06    -94.6665E+06    -290.119E+06    -94.6703E+06    -290.116E+06    -94.0015E+06    -244.597E+03
              38     44.5508E-03     111.226E-09     44.5508E-03     111.037E-03    -55.2968E-03    -55.7414E-03    -55.7393E-03     111.035E-03    -55.2968E-03     1.15056E-03     111.806E-03     194.467E+06    -92.8937E+06    -95.2135E+06    -288.508E+06    -93.5380E+06    -288.506E+06    -94.5715E+06     656.886E+03
              39     43.4359E-03     199.893E-09     43.4359E-03     110.871E-03    -55.1787E-03    -55.6941E-03    -55.6918E-03     110.868E-03    -55.1787E-03     1.22991E-03     111.646E-03     193.810E+06    -90.7731E+06    -94.7378E+06    -286.534E+06    -93.0614E+06    -286.533E+06    -92.4509E+06     303.965E+03
              40     42.3196E-03     484.012E-09     42.3196E-03     111.174E-03    -55.2646E-03    -55.9123E-03    -55.9099E-03     111.171E-03    -55.2646E-03     1.26521E-03     112.003E-03     192.580E+06    -91.9287E+06    -96.8437E+06    -286.919E+06    -94.2182E+06    -286.917E+06    -94.5568E+06    -569.539E+03
              41     41.2028E-03     65.7186E-09     41.2028E-03     111.204E-03    -55.3593E-03    -55.8487E-03    -55.8467E-03     111.202E-03    -55.3593E-03     1.14518E-03     112.020E-03     194.066E+06    -91.6347E+06    -96.6304E+06    -288.150E+06    -94.0066E+06    -288.145E+06    -94.2628E+06    -914.223E+03
              42     40.0872E-03     320.881E-09     40.0872E-03     110.986E-03    -55.2479E-03    -55.7415E-03    -55.7401E-03     110.985E-03    -55.2479E-03     970.638E-06     111.766E-03     195.096E+06    -92.6522E+06    -96.7565E+06    -289.767E+06    -95.0217E+06    -289.765E+06    -94.3889E+06    -275.226E+03
              43     38.9704E-03     242.366E-09     38.9704E-03     111.037E-03    -55.2593E-03    -55.7813E-03    -55.7790E-03     111.035E-03    -55.2593E-03     1.20389E-03     111.816E-03     195.845E+06    -93.9196E+06    -96.3958E+06    -290.989E+06    -94.6600E+06    -290.988E+06    -95.6563E+06     394.771E+03
              44     37.8546E-03     180.633E-09     37.8546E-03     111.313E-03    -55.4576E-03    -55.8578E-03    -55.8557E-03     111.311E-03    -55.4576E-03     1.13812E-03     112.112E-03     196.204E+06    -93.3574E+06    -94.2702E+06    -290.016E+06    -94.1050E+06    -290.008E+06    -93.5307E+06    -589.103E+03
              45     36.7383E-03     172.341E-09     36.7383E-03     111.152E-03    -55.3773E-03    -55.7737E-03    -55.7727E-03     111.151E-03    -55.3773E-03     794.269E-06     111.951E-03     195.907E+06    -94.6291E+06    -95.3169E+06    -290.879E+06    -94.6384E+06    -290.870E+06    -95.3169E+06    -429.141E+03
              46     35.6216E-03     232.742E-09     35.6216E-03     110.888E-03    -55.1637E-03    -55.7239E-03    -55.7215E-03     110.886E-03    -55.1637E-03     1.16562E-03     111.687E-03     194.328E+06    -95.2742E+06    -96.1782E+06    -290.052E+06    -95.6735E+06    -290.042E+06    -95.7887E+06     1.30151E+06
              47     34.5056E-03     437.039E-09     34.5056E-03     111.028E-03    -55.2467E-03    -55.7798E-03    -55.7769E-03     111.025E-03    -55.2467E-03     1.36323E-03     111.809E-03     193.733E+06    -94.0981E+06    -94.8852E+06    -288.223E+06    -94.9051E+06    -288.203E+06    -94.0981E+06    -193.733E+03
              48     33.3895E-03    -75.9103E-09     33.3895E-03     111.215E-03    -55.3696E-03    -55.8472E-03    -55.8451E-03     111.213E-03    -55.3696E-03     1.19046E-03     111.974E-03     195.324E+06    -93.7667E+06    -94.7207E+06    -289.566E+06    -94.1791E+06    -289.551E+06    -94.3231E+06    -543.295E+03
              49     32.2730E-03     622.394E-09     32.2730E-03     111.391E-03    -55.3584E-03    -56.0390E-03    -56.0363E-03     111.388E-03    -55.3584E-03     1.34231E-03     112.198E-03     194.073E+06    -94.2450E+06    -94.8581E+06    -288.624E+06    -94.3063E+06    -288.619E+06    -94.8014E+06     119.876E+03
              50     31.1560E-03     120.423E-09     31.1560E-03     111.169E-03    -55.3561E-03    -55.8135E-03    -55.8108E-03     111.166E-03    -55.3561E-03     1.34244E-03     111.968E-03     193.641E+06    -94.6923E+06    -95.0063E+06    -288.490E+06    -94.7516E+06    -288.487E+06    -94.9496E+06    -118.240E+03
              51     30.0407E-03     12.6995E-09     30.0407E-03     110.927E-03    -55.2934E-03    -55.6342E-03    -55.6316E-03     110.925E-03    -55.2934E-03     1.31822E-03     111.681E-03     194.681E+06    -93.6165E+06    -94.1931E+06    -288.585E+06    -93.9386E+06    -288.583E+06    -93.8738E+06     729.672E+03
              52     28.9240E-03     512.423E-09     28.9240E-03     110.918E-03    -55.1704E-03    -55.7512E-03    -55.7491E-03     110.916E-03    -55.1704E-03     1.16620E-03     111.672E-03     194.971E+06    -93.8209E+06    -94.4895E+06    -289.125E+06    -94.1532E+06    -289.112E+06    -94.1703E+06    -598.807E+03
              53     27.8086E-03     76.2348E-09     27.8086E-03     110.892E-03    -55.2310E-03    -55.6636E-03    -55.6623E-03     110.891E-03    -55.2310E-03     932.802E-06     111.636E-03     197.173E+06    -94.1892E+06    -94.6993E+06    -291.616E+06    -94.2057E+06    -291.600E+06    -94.6993E+06    -298.195E+03
              54     26.6932E-03     158.429E-09     26.6932E-03     111.239E-03    -55.4380E-03    -55.8040E-03    -55.8025E-03     111.237E-03    -55.4380E-03     1.00040E-03     111.993E-03     196.888E+06    -94.3588E+06    -94.6714E+06    -291.403E+06    -94.5162E+06    -291.398E+06    -94.5196E+06     684.530E+03
              55     25.5747E-03     310.978E-09     25.5747E-03     111.290E-03    -55.3922E-03    -55.8991E-03    -55.8966E-03     111.287E-03    -55.3922E-03     1.27654E-03     112.060E-03     196.273E+06    -94.7937E+06    -95.2533E+06    -291.296E+06    -95.2535E+06    -291.296E+06    -94.7937E+06    -150.834E+03
              56     24.4601E-03     190.287E-09     24.4601E-03     110.789E-03    -55.0284E-03    -55.7611E-03    -55.7592E-03     110.787E-03    -55.0284E-03     1.06670E-03     111.581E-03     194.067E+06    -95.4897E+06    -95.9893E+06    -289.806E+06    -95.9897E+06    -289.805E+06    -95.4897E+06    -264.588E+03
              57     23.3443E-03     706.193E-09     23.3443E-03     110.236E-03    -54.8001E-03    -55.4405E-03    -55.4393E-03     110.235E-03    -54.8001E-03     882.770E-06     111.058E-03     191.911E+06    -96.3359E+06    -97.4542E+06    -288.802E+06    -96.5289E+06    -288.801E+06    -97.2624E+06    -460.336E+03
              58     22.2292E-03    -390.347E-09     22.2292E-03     109.983E-03    -54.7913E-03    -55.1972E-03    -55.1949E-03     109.981E-03    -54.7913E-03     1.20476E-03     110.817E-03     190.955E+06    -96.9292E+06    -99.0945E+06    -288.958E+06    -98.1705E+06    -288.955E+06    -97.8557E+06     104.041E+03
              59     21.1132E-03     853.740E-09     21.1132E-03     110.032E-03    -54.6830E-03    -55.3493E-03    -55.3474E-03     110.030E-03    -54.6830E-03     1.11579E-03     110.811E-03     192.164E+06    -95.5301E+06    -98.0508E+06    -288.942E+06    -96.7715E+06    -288.940E+06    -96.8119E+06     91.0108E+03
              60     19.9997E-03    -46.7527E-09     19.9997E-03     109.720E-03    -54.5751E-03    -55.1452E-03    -55.0061E-03     109.719E-03    -54.7133E-03     751.281E-06     110.480E-03     192.740E+06    -95.6446E+06    -97.9764E+06    -289.540E+06    -96.7000E+06    -289.534E+06    -96.9264E+06     350.586E+03
              61     18.8843E-03    -197.422E-09     18.8843E-03     109.094E-03    -54.3526E-03    -54.7415E-03    -54.6025E-03     109.094E-03    -54.4907E-03     710.738E-06     109.816E-03     190.532E+06    -96.2871E+06    -98.8772E+06    -288.101E+06    -97.3416E+06    -288.096E+06    -97.8272E+06     598.730E+03
              62     17.7702E-03     658.645E-09     17.7702E-03     107.885E-03    -53.5972E-03    -54.2859E-03    -54.2852E-03     107.884E-03    -53.5972E-03     658.521E-06     108.486E-03     190.100E+06    -95.7568E+06    -98.2501E+06    -287.090E+06    -96.7272E+06    -287.073E+06    -97.2969E+06     1.21490E+06
              63     16.6596E-03     191.752E-09     16.6596E-03     105.421E-03    -52.4197E-03    -53.0031E-03    -53.0026E-03     105.420E-03    -52.4197E-03    -48.2976E-06     105.946E-03     188.015E+06    -96.0898E+06    -97.3106E+06    -284.712E+06    -97.3429E+06    -284.679E+06    -96.0898E+06     81.1109E+03
              64     15.5511E-03     93.3316E-09     15.5511E-03     101.514E-03    -50.6545E-03    -50.8611E-03    -50.8607E-03     101.513E-03    -50.6545E-03    -512.146E-06     101.936E-03     188.129E+06    -94.7145E+06    -96.6821E+06    -283.816E+06    -94.9989E+06    -283.799E+06    -96.4145E+06    -790.284E+03
              65     14.4471E-03     5.30201E-09     14.4471E-03     95.7492E-03    -47.8186E-03    -47.9304E-03    -47.9291E-03     95.7480E-03    -47.8186E-03    -766.600E-06     96.0844E-03     186.763E+06    -94.2343E+06    -96.1549E+06    -281.946E+06    -94.4983E+06    -281.902E+06    -95.9344E+06     2.35883E+06
              66     13.3522E-03     99.5845E-09     13.3522E-03     87.9440E-03    -43.7988E-03    -44.1439E-03    -44.1378E-03     87.9378E-03    -43.7988E-03    -1.67928E-03     88.2636E-03     185.098E+06    -91.2160E+06    -91.5964E+06    -276.503E+06    -91.6382E+06    -276.462E+06    -91.2160E+06     2.00100E+06
              67     12.2664E-03     466.361E-09     12.2664E-03     78.5163E-03    -38.9753E-03    -39.5398E-03    -39.5267E-03     78.5032E-03    -38.9753E-03    -2.46419E-03     78.8017E-03     186.612E+06    -85.8883E+06    -86.1117E+06    -272.611E+06    -86.0587E+06    -272.601E+06    -85.9518E+06     1.03010E+06
              68     11.1917E-03     43.1082E-09     11.1917E-03     68.3629E-03    -33.9303E-03    -34.4320E-03    -34.4124E-03     68.3433E-03    -33.9303E-03    -2.81267E-03     68.6912E-03     184.815E+06    -79.8056E+06    -80.8935E+06    -265.161E+06    -80.8616E+06    -265.129E+06    -79.8691E+06     2.37361E+06
              69     10.1273E-03     409.516E-09     10.1273E-03     59.0820E-03    -29.3806E-03    -29.7014E-03    -29.6766E-03     59.0571E-03    -29.3806E-03    -2.96133E-03     59.5855E-03     185.352E+06    -70.8704E+06    -73.0523E+06    -257.303E+06    -71.9168E+06    -257.281E+06    -72.0279E+06     1.09209E+06
              70     9.07495E-03    -271.863E-09     9.07495E-03     53.4010E-03    -26.5775E-03    -26.8238E-03    -26.8036E-03     53.3807E-03    -26.5775E-03    -2.52051E-03     54.1746E-03     189.465E+06    -63.3598E+06    -65.6452E+06    -253.957E+06    -64.5070E+06    -253.938E+06    -64.5173E+06     1.03076E+06
              71     8.02177E-03     583.540E-09     8.02177E-03     53.6972E-03    -26.7135E-03    -26.9854E-03    -26.9784E-03     53.6902E-03    -26.7135E-03    -887.046E-06     54.8345E-03     191.381E+06    -59.2517E+06    -60.5762E+06    -251.289E+06    -60.5991E+06    -251.267E+06    -59.2517E+06     1.97437E+06
              72     6.96668E-03    -349.753E-09     6.96668E-03     61.9228E-03    -30.9004E-03    -31.0255E-03    -31.0171E-03     61.9144E-03    -30.9004E-03     1.45113E-03     63.5976E-03     188.075E+06    -62.9316E+06    -65.5462E+06    -252.290E+06    -65.5706E+06    -252.266E+06    -62.9316E+06    -699.884E+03
              73     5.89789E-03     410.904E-09     5.89789E-03     80.9401E-03    -40.1106E-03    -40.8312E-03    -40.7972E-03     80.9061E-03    -40.1106E-03     3.99469E-03     83.1474E-03     190.098E+06    -65.6186E+06    -68.1204E+06    -256.944E+06    -68.0676E+06    -256.913E+06    -65.7026E+06    -2.39441E+06
              74     4.80247E-03     949.830E-09     4.80247E-03     110.898E-03    -54.7889E-03    -56.1028E-03    -55.4264E-03     110.826E-03    -55.3926E-03     6.93611E-03     113.312E-03     195.479E+06    -66.5160E+06    -68.5107E+06    -262.978E+06    -66.5292E+06    -262.965E+06    -68.5107E+06    -1.49741E+06
              75     3.66679E-03    -2.11030E-06     3.66679E-03     148.408E-03    -73.8769E-03    -74.5210E-03    -73.7992E-03     148.330E-03    -74.5210E-03     8.18447E-03     150.803E-03     194.081E+06    -70.8550E+06    -74.6502E+06    -266.805E+06    -70.8693E+06    -266.791E+06    -74.6502E+06     636.384E+03
              76     2.48398E-03     2.04141E-06     2.48398E-03     186.819E-03    -93.2590E-03    -93.5527E-03    -93.4572E-03     186.763E-03    -93.2994E-03     7.81912E-03     188.982E-03     195.551E+06    -68.8875E+06    -72.1814E+06    -266.064E+06    -70.3108E+06    -266.050E+06    -70.7719E+06     695.735E+03
              77     1.25567E-03    -1.56558E-06     1.25567E-03     216.112E-03    -107.764E-03    -108.346E-03    -108.321E-03     216.087E-03    -107.764E-03     4.82594E-03     218.100E-03     197.083E+06    -66.7037E+06    -68.4519E+06    -264.653E+06    -68.1147E+06    -264.651E+06    -67.0424E+06    -345.273E+03
              78     889.844E-06     889.844E-06    -55.8794E-09     224.973E-03    -111.781E-03    -113.196E-03    -112.097E-03     224.960E-03    -112.867E-03     3.76651E-03     226.902E-03     197.472E+06    -67.3910E+06    -68.0022E+06    -265.168E+06    -67.6894E+06    -265.142E+06    -67.7297E+06    -1.55448E+06
              79     1.78420E-03     1.78420E-03    -55.8794E-09     219.295E-03    -107.742E-03    -111.533E-03    -107.699E-03     219.252E-03    -111.533E-03     7.28256E-03     221.002E-03     199.520E+06    -66.3946E+06    -67.9130E+06    -266.667E+06    -67.9504E+06    -266.630E+06    -66.3946E+06    -531.483E+03
              80     2.68231E-03     2.68231E-03    -55.8794E-09     210.997E-03    -101.640E-03    -109.299E-03    -101.551E-03     210.908E-03    -109.299E-03     10.3827E-03     212.499E-03     199.931E+06    -66.1052E+06      -67.61E+06    -266.782E+06    -67.3845E+06    -266.749E+06    -66.3641E+06    -406.499E+03
              81     3.58731E-03     3.58731E-03    -55.8794E-09     200.629E-03    -94.1316E-03    -106.443E-03    -93.9872E-03     200.484E-03    -106.443E-03     12.9555E-03     202.010E-03     200.117E+06    -66.2779E+06    -69.4007E+06    -267.926E+06    -66.3031E+06    -267.901E+06    -69.4007E+06    -897.963E+03
              82     4.50114E-03     4.50114E-03    -55.8794E-09     189.488E-03    -86.3076E-03    -103.138E-03    -86.1031E-03     189.284E-03    -103.138E-03     14.9485E-03     190.806E-03     200.470E+06    -65.4597E+06    -74.5856E+06    -270.315E+06    -65.5740E+06    -270.201E+06    -74.5856E+06    -2.80168E+06
              83     5.42089E-03     5.42089E-03    -55.8794E-09     178.268E-03    -78.6830E-03    -99.5865E-03    -78.4193E-03     178.004E-03    -99.5865E-03     16.4105E-03     179.757E-03     197.053E+06    -61.4170E+06    -82.0831E+06    -267.850E+06    -61.5999E+06    -267.667E+06    -82.0831E+06    -6.10707E+06
              84     6.34948E-03     6.34948E-03    -55.8794E-09     167.299E-03    -71.3914E-03    -95.8902E-03    -71.0683E-03     166.976E-03    -95.8902E-03     17.5129E-03     169.295E-03     182.291E+06    -54.2092E+06    -95.1242E+06    -253.009E+06    -54.6507E+06    -252.567E+06    -95.1242E+06     -8.6559E+06
              85     7.28346E-03     7.28346E-03    -55.8794E-09     156.621E-03    -64.3825E-03    -92.1311E-03    -64.0097E-03     156.248E-03    -92.1311E-03     18.1214E-03     159.449E-03     152.393E+06    -46.4610E+06    -110.741E+06    -219.318E+06    -47.0600E+06    -218.719E+06    -110.741E+06    -10.1355E+06
              86     8.22502E-03     8.22502E-03    -55.8794E-09     145.132E-03    -56.6485E-03    -88.3424E-03    -56.3058E-03     144.789E-03    -88.3424E-03     16.5992E-03     149.048E-03     121.434E+06    -37.7075E+06    -123.549E+06    -174.188E+06    -38.8292E+06    -173.066E+06    -123.549E+06    -11.4162E+06
              87     9.17651E-03     9.17651E-03    -55.8794E-09     133.419E-03    -48.7648E-03    -84.5284E-03    -48.5497E-03     133.204E-03    -84.5284E-03     12.3494E-03     138.371E-03     100.120E+06    -28.4358E+06    -110.706E+06    -139.437E+06    -29.9543E+06    -120.287E+06    -128.337E+06    -11.7963E+06
              88     10.1376E-03     10.1376E-03    -55.8794E-09     127.637E-03    -46.6892E-03    -80.9486E-03    -46.3514E-03     127.299E-03    -80.9486E-03     14.5729E-03     134.358E-03     95.8758E+06    -15.7431E+06    -60.6373E+06    -122.292E+06    -20.5351E+06    -55.8453E+06    -122.292E+06    -9.80124E+06
              89     11.0854E-03     11.0854E-03    -55.8794E-09     128.767E-03    -50.8420E-03    -78.0507E-03    -50.0548E-03     127.980E-03    -78.0507E-03     23.4627E-03     138.834E-03     123.373E+06     30.9721E+06    -18.5129E+06    -108.112E+06    -11.9023E+06     24.3616E+06    -108.112E+06    -6.96426E+06
              90     12.0276E-03     12.0276E-03    -55.8794E-09     126.915E-03    -51.0068E-03    -75.9416E-03    -50.0092E-03     125.918E-03    -75.9416E-03     26.5703E-03     140.116E-03     148.899E+06     98.2061E+06    -11.1084E+06    -66.2416E+06    -10.9894E+06     98.0871E+06    -66.2416E+06    -3.42878E+06
              91     12.9854E-03     12.9854E-03    -55.8794E-09     120.794E-03    -46.5157E-03    -74.1864E-03    -45.5364E-03     119.814E-03    -74.1864E-03     25.5178E-03     135.669E-03     151.242E+06     141.894E+06     11.3546E+06    -22.9366E+06    -13.2978E+06     141.812E+06     1.79760E+06     198.365E+03
              92     13.9421E-03     13.9421E-03    -55.8794E-09     117.540E-03    -45.0348E-03    -72.4553E-03    -43.6335E-03     116.138E-03    -72.4553E-03     29.7374E-03     135.020E-03     150.408E+06     159.990E+06     65.5354E+06    -10.7094E+06    -10.6456E+06     159.926E+06     65.5354E+06     498.692E+03
              93     14.8913E-03     14.8913E-03    -55.8794E-09     122.225E-03    -51.1944E-03    -71.1107E-03    -48.5037E-03     119.534E-03    -71.1107E-03     42.4494E-03     143.939E-03     156.127E+06     169.032E+06     117.847E+06    -5.18891E+06    -5.14136E+06     168.985E+06     117.847E+06    -2.87706E+06
              94     15.8398E-03     15.8398E-03    -55.8794E-09     150.935E-03    -63.7646E-03    -87.2218E-03    -72.0890E-03     142.733E-03    -70.6949E-03     83.7791E-03     180.728E-03     165.740E+06     172.589E+06     141.454E+06    -6.48950E+06    -6.10168E+06     172.202E+06     141.454E+06     4.22894E+06
              95     16.8749E-03     16.8310E-03     1.21595E-03     152.802E-03    -67.6453E-03    -85.0913E-03    -68.9886E-03     137.619E-03    -68.5644E-03     114.240E-03     215.120E-03     160.771E+06     171.083E+06     143.760E+06    -1.59827E+06    -1.09924E+06     170.584E+06     143.760E+06     9.06683E+06
              96     17.0568E-03     16.8988E-03     2.31631E-03     129.068E-03    -63.4492E-03    -65.6521E-03    -51.2121E-03     115.547E-03    -64.3683E-03     97.5224E-03     213.374E-03       160.6E+06     171.821E+06     142.480E+06    -1.41667E+06    -926.407E+03     171.331E+06     142.480E+06     9.01479E+06
              97     17.2976E-03     16.9533E-03     3.43398E-03     132.109E-03    -60.6969E-03    -71.6734E-03    -65.0290E-03     125.465E-03    -60.6969E-03     69.9681E-03     192.907E-03     162.283E+06     170.228E+06     139.451E+06    -5.23871E+06    -4.69398E+06     169.683E+06     139.451E+06     9.67750E+06
              98     17.5997E-03     16.9922E-03     4.58419E-03     139.171E-03    -57.9180E-03    -81.5805E-03    -78.5657E-03     136.156E-03    -57.9180E-03     50.7158E-03     180.839E-03     160.492E+06     168.202E+06     137.527E+06    -5.41076E+06    -5.18106E+06     167.973E+06     137.527E+06     5.86332E+06
              99     17.9598E-03     17.0183E-03     5.73856E-03     141.290E-03    -56.1803E-03    -85.3649E-03    -83.4392E-03     139.364E-03    -56.1803E-03     41.4570E-03     183.776E-03     159.804E+06     167.586E+06     137.238E+06    -5.21256E+06    -5.16964E+06     167.543E+06     137.238E+06     2.45623E+06
             100     18.3758E-03     17.0327E-03     6.89624E-03     139.720E-03    -55.2613E-03    -84.7007E-03    -83.2048E-03     138.224E-03    -55.2613E-03     36.5034E-03     184.410E-03     158.524E+06     167.726E+06     138.406E+06    -3.41009E+06    -3.40384E+06     167.720E+06     138.406E+06     1.01190E+06
             101     18.8443E-03     17.0397E-03     8.04707E-03     136.120E-03    -54.9023E-03    -81.3996E-03    -80.0289E-03     134.749E-03    -54.9023E-03     34.4259E-03     182.767E-03     158.546E+06     167.014E+06     137.147E+06    -4.34172E+06    -4.33570E+06     167.008E+06     137.147E+06    -166.960E+03
             102     19.3623E-03     17.0411E-03     9.19227E-03     132.214E-03    -54.8501E-03    -77.4903E-03    -76.1909E-03     130.914E-03    -54.8501E-03     32.9095E-03     180.387E-03     155.480E+06     164.962E+06     135.563E+06    -3.11830E+06    -3.11397E+06     164.958E+06     135.563E+06    -731.772E+03
             103     19.9274E-03     17.0409E-03     10.3300E-03     128.045E-03    -54.9306E-03    -73.1309E-03    -71.8946E-03     126.809E-03    -54.9306E-03     31.4434E-03     177.226E-03     155.843E+06     165.797E+06     134.415E+06    -3.34040E+06    -3.32802E+06     165.785E+06     134.415E+06     862.225E+03
             104     20.5384E-03     17.0415E-03     11.4635E-03     123.586E-03    -55.0345E-03    -68.4598E-03    -67.3042E-03     122.430E-03    -55.0345E-03     29.6974E-03     173.527E-03     157.207E+06     167.593E+06     132.735E+06    -4.11357E+06    -4.09593E+06     167.575E+06     132.735E+06     318.387E+03
             105     21.1876E-03     17.0413E-03     12.5899E-03     119.651E-03    -55.1395E-03    -64.4855E-03    -63.5657E-03     118.732E-03    -55.1395E-03     25.8851E-03     170.059E-03     156.452E+06     166.957E+06     132.349E+06    -3.89665E+06    -3.88923E+06     166.949E+06     132.349E+06    -1.09175E+06
             106     21.8742E-03     17.0412E-03     13.7142E-03     115.886E-03    -55.2428E-03    -60.7262E-03    -60.0600E-03     115.220E-03    -55.2428E-03     21.6141E-03     166.312E-03     154.706E+06     166.253E+06     131.984E+06    -2.70911E+06    -2.69746E+06     166.242E+06     131.984E+06     514.280E+03
             107     22.5921E-03     17.0417E-03     14.8319E-03     112.562E-03    -55.3168E-03    -57.3948E-03    -56.9076E-03     112.075E-03    -55.3168E-03     18.1152E-03     162.678E-03     156.849E+06     167.387E+06     130.461E+06    -4.62872E+06    -4.61861E+06     167.377E+06     130.461E+06     1.08675E+06
             108     23.3399E-03     17.0415E-03     15.9480E-03     110.513E-03    -54.9133E-03    -55.7124E-03    -54.9096E-03     110.161E-03    -55.3641E-03     15.2245E-03     160.343E-03     156.813E+06     168.437E+06     130.697E+06    -3.80245E+06    -3.80202E+06     168.437E+06     130.697E+06     254.822E+03
             109     24.1161E-03     17.0416E-03     17.0638E-03     109.459E-03    -54.2078E-03    -55.3879E-03    -53.9322E-03     109.184E-03    -55.3879E-03     13.4077E-03     159.265E-03     156.312E+06     168.051E+06     130.548E+06    -3.60081E+06    -3.59960E+06     168.050E+06     130.548E+06    -232.867E+03
             110     24.9192E-03     17.0418E-03     18.1809E-03     109.064E-03    -53.8633E-03    -55.3921E-03    -53.6236E-03     108.824E-03    -55.3921E-03     12.4858E-03     158.807E-03     156.367E+06     167.892E+06     130.447E+06    -3.79770E+06    -3.79571E+06     167.890E+06     130.447E+06    -43.5762E+03
             111     25.7451E-03     17.0418E-03     19.2973E-03     109.078E-03    -53.8430E-03    -55.3935E-03    -53.6184E-03     108.853E-03    -55.3935E-03     12.0872E-03     158.730E-03     156.578E+06     168.201E+06     130.046E+06    -3.92690E+06    -3.92559E+06     168.200E+06     130.046E+06     470.061E+03
             112     26.5911E-03     17.0417E-03     20.4125E-03     108.993E-03    -53.7416E-03    -55.3994E-03    -53.5238E-03     108.775E-03    -55.3994E-03     11.8993E-03     158.633E-03     157.606E+06     169.843E+06     131.026E+06    -3.54439E+06    -3.53746E+06     169.836E+06     131.026E+06     949.850E+03
             113     27.4579E-03     17.0421E-03     21.5290E-03     108.775E-03    -53.5276E-03    -55.3982E-03    -53.3013E-03     108.549E-03    -55.3982E-03     12.1098E-03     158.456E-03     159.153E+06     171.698E+06     132.298E+06    -3.45307E+06    -3.44657E+06     171.692E+06     132.298E+06     695.798E+03
             114     28.3411E-03     17.0420E-03     22.6449E-03     108.868E-03    -53.5998E-03    -55.3889E-03    -53.3761E-03     108.644E-03    -55.3889E-03     12.0436E-03     158.333E-03     160.810E+06     172.712E+06     132.333E+06    -4.43978E+06    -4.43944E+06     172.711E+06     132.333E+06     112.305E+03
             115     29.2412E-03     17.0421E-03     23.7616E-03     108.946E-03    -53.7028E-03    -55.3862E-03    -53.5030E-03     108.746E-03    -55.3862E-03     11.3896E-03     158.338E-03     160.490E+06     172.742E+06     132.368E+06    -4.08067E+06    -4.07150E+06     172.732E+06     132.368E+06    -717.260E+03
             116     30.1541E-03     17.0419E-03     24.8766E-03     108.902E-03    -53.6940E-03    -55.3889E-03    -53.4934E-03     108.702E-03    -55.3889E-03     11.4100E-03     158.343E-03     159.002E+06     171.234E+06     132.122E+06    -3.67281E+06    -3.66351E+06     171.225E+06     132.122E+06    -687.319E+03
             117     31.0831E-03     17.0421E-03     25.9947E-03     108.868E-03    -53.6258E-03    -55.3939E-03    -53.4089E-03     108.652E-03    -55.3939E-03     11.8644E-03     158.269E-03     158.137E+06     170.273E+06     132.485E+06    -3.33421E+06    -3.33365E+06     170.273E+06     132.485E+06     93.7697E+03
             118     32.0214E-03     17.0419E-03     27.1098E-03     108.705E-03    -53.4823E-03    -55.3962E-03    -53.2697E-03     108.493E-03    -55.3962E-03     11.7352E-03     158.117E-03     158.263E+06     169.537E+06     132.042E+06    -4.10696E+06    -4.10557E+06     169.535E+06     132.042E+06     229.563E+03
             119     32.9716E-03     17.0422E-03     28.2257E-03     108.846E-03    -53.6525E-03    -55.3914E-03    -53.4444E-03     108.638E-03    -55.3914E-03     11.6213E-03     158.197E-03     157.932E+06     169.758E+06     131.981E+06    -3.63712E+06    -3.63566E+06     169.756E+06     131.981E+06     200.928E+03
             120     33.9329E-03     17.0420E-03     29.3431E-03     108.915E-03    -53.6914E-03    -55.3891E-03    -53.4879E-03     108.711E-03    -55.3891E-03     11.4956E-03     158.363E-03     158.604E+06     171.100E+06     132.903E+06    -3.11429E+06    -3.10967E+06     171.096E+06     132.903E+06     491.521E+03
             121     34.9016E-03     17.0425E-03     30.4578E-03     108.745E-03    -53.4922E-03    -55.3912E-03    -53.2948E-03     108.548E-03    -55.3912E-03     11.3111E-03     158.285E-03     159.608E+06     171.387E+06     132.902E+06    -3.94511E+06    -3.94065E+06     171.382E+06     132.902E+06     685.648E+03
             122     35.8806E-03     17.0420E-03     31.5751E-03     108.910E-03    -53.6762E-03    -55.3899E-03    -53.4761E-03     108.710E-03    -55.3899E-03     11.4010E-03     158.435E-03     160.752E+06     171.999E+06     133.130E+06    -4.62419E+06    -4.62401E+06     171.998E+06     133.130E+06    -45.8919E+03
             123     36.8660E-03     17.0423E-03     32.6904E-03     108.898E-03    -53.6806E-03    -55.3873E-03    -53.4869E-03     108.704E-03    -55.3873E-03     11.2137E-03     158.423E-03     160.219E+06     172.166E+06     133.468E+06    -3.85772E+06    -3.85642E+06     172.165E+06     133.468E+06    -426.460E+03
             124     37.8600E-03     17.0422E-03     33.8074E-03     108.686E-03    -53.4474E-03    -55.3889E-03    -53.2488E-03     108.488E-03    -55.3889E-03     11.3367E-03     158.153E-03     159.231E+06     170.813E+06     132.722E+06    -4.00932E+06    -4.00814E+06     170.812E+06     132.722E+06    -358.700E+03
             125     38.8595E-03     17.0424E-03     34.9230E-03     108.726E-03    -53.4836E-03    -55.3901E-03    -53.2659E-03     108.508E-03    -55.3901E-03     11.8751E-03     158.112E-03     158.531E+06     170.296E+06     133.032E+06    -3.54662E+06    -3.54658E+06     170.296E+06     133.032E+06     6.97274E+03
             126     39.8660E-03     17.0423E-03     36.0396E-03     108.953E-03    -53.7488E-03    -55.3877E-03    -53.5279E-03     108.732E-03    -55.3877E-03     11.9822E-03     158.271E-03     158.810E+06     170.510E+06     133.024E+06    -3.68905E+06    -3.68814E+06     170.509E+06     133.024E+06     329.101E+03
             127     40.8781E-03     17.0419E-03     37.1563E-03     109.145E-03    -53.9161E-03    -55.3863E-03    -53.7085E-03     108.938E-03    -55.3863E-03     11.6269E-03     158.603E-03     159.433E+06     170.986E+06     132.864E+06    -4.05230E+06    -4.04981E+06     170.983E+06     132.864E+06    -92.3805E+03
             128     41.8944E-03     17.0423E-03     38.2714E-03     108.947E-03    -53.6881E-03    -55.3875E-03    -53.4970E-03     108.756E-03    -55.3875E-03     11.1408E-03     158.392E-03     158.617E+06     171.345E+06     133.244E+06    -2.85217E+06    -2.84456E+06     171.337E+06     133.244E+06     351.299E+03
             129     42.9174E-03     17.0423E-03     39.3886E-03     108.675E-03    -53.3891E-03    -55.3913E-03    -53.1899E-03     108.476E-03    -55.3913E-03     11.3483E-03     158.006E-03     160.300E+06     171.026E+06     132.988E+06    -4.87098E+06    -4.86118E+06     171.016E+06     132.988E+06     145.667E+03
             130     43.9434E-03     17.0424E-03     40.5040E-03     108.737E-03    -53.4721E-03    -55.3918E-03    -53.2559E-03     108.521E-03    -55.3918E-03     11.8359E-03     158.150E-03     158.840E+06     170.826E+06     133.853E+06    -3.23992E+06    -3.23539E+06     170.821E+06     133.853E+06    -323.992E+03
             131     44.9747E-03     17.0421E-03     41.6208E-03     108.914E-03    -53.6291E-03    -55.3891E-03    -53.4278E-03     108.712E-03    -55.3891E-03     11.4219E-03     158.405E-03     159.325E+06     171.106E+06     133.613E+06    -3.62154E+06    -3.61995E+06     171.104E+06     133.613E+06    -19.0542E+03
             132     46.0085E-03     17.0422E-03     42.7357E-03     109.000E-03    -53.6896E-03    -55.3876E-03    -53.4985E-03     108.809E-03    -55.3876E-03     11.1421E-03     158.429E-03     159.706E+06     171.135E+06     133.237E+06    -4.11092E+06    -4.10802E+06     171.132E+06     133.237E+06     147.168E+03
             133     47.0489E-03     17.0422E-03     43.8538E-03     109.071E-03    -53.8854E-03    -55.3872E-03    -53.6713E-03     108.857E-03    -55.3872E-03     11.7967E-03     158.494E-03     159.697E+06     172.200E+06     133.258E+06    -3.36296E+06    -3.35881E+06     172.196E+06     133.258E+06     853.800E+03
             134     48.0907E-03     17.0420E-03     44.9699E-03     108.888E-03    -53.6600E-03    -55.3935E-03    -53.4553E-03     108.683E-03    -55.3935E-03     11.5068E-03     158.497E-03     161.811E+06     173.830E+06     133.750E+06    -4.25410E+06    -4.25148E+06     173.827E+06     133.750E+06     649.514E+03
             135     49.1350E-03     17.0424E-03     46.0848E-03     108.584E-03    -53.2788E-03    -55.3968E-03    -53.0917E-03     108.397E-03    -55.3968E-03     10.9945E-03     158.192E-03     161.696E+06     173.317E+06     133.653E+06    -4.52013E+06    -4.51472E+06     173.311E+06     133.653E+06    -443.232E+03
             136     50.1841E-03     17.0421E-03     47.2018E-03     108.819E-03    -53.4889E-03    -55.3943E-03    -53.2785E-03     108.608E-03    -55.3943E-03     11.6735E-03     158.350E-03     160.084E+06     172.249E+06     133.591E+06    -3.62217E+06    -3.61700E+06     172.244E+06     133.591E+06    -502.929E+03
             137     51.2357E-03     17.0422E-03     48.3184E-03     109.005E-03    -53.6669E-03    -55.3941E-03    -53.4549E-03     108.793E-03    -55.3941E-03     11.7332E-03     158.518E-03     159.809E+06     171.851E+06     134.062E+06    -3.46538E+06    -3.46476E+06     171.851E+06     134.062E+06    -14.8511E+03
             138     52.2887E-03     17.0421E-03     49.4335E-03     108.915E-03    -53.6391E-03    -55.3926E-03    -53.4466E-03     108.723E-03    -55.3926E-03     11.1790E-03     158.471E-03     159.969E+06     171.703E+06     133.651E+06    -3.86074E+06    -3.86041E+06     171.703E+06     133.651E+06    -159.835E+03
             139     53.3457E-03     17.0421E-03     50.5503E-03     108.831E-03    -53.5476E-03    -55.3882E-03    -53.3531E-03     108.637E-03    -55.3882E-03     11.2282E-03     158.403E-03     159.880E+06     172.598E+06     133.599E+06    -3.17253E+06    -3.16988E+06     172.595E+06     133.599E+06     497.845E+03
             140     54.4045E-03     17.0426E-03     51.6662E-03     108.755E-03    -53.4421E-03    -55.3853E-03    -53.2272E-03     108.540E-03    -55.3853E-03     11.7963E-03     158.204E-03     162.346E+06     174.316E+06     134.226E+06    -4.31847E+06    -4.31524E+06     174.313E+06     134.226E+06     713.585E+03
             141     55.4665E-03     17.0422E-03     52.7835E-03     108.982E-03    -53.7237E-03    -55.3920E-03    -53.4985E-03     108.757E-03    -55.3920E-03     12.0984E-03     158.345E-03     162.561E+06     174.694E+06     134.561E+06    -4.17428E+06    -4.17038E+06     174.690E+06     134.561E+06    -316.435E+03
             142     56.5291E-03     17.0419E-03     53.8991E-03     109.060E-03    -53.7493E-03    -55.3959E-03    -53.5462E-03     108.857E-03    -55.3959E-03     11.4810E-03     158.481E-03     161.313E+06     173.651E+06     134.496E+06    -3.63343E+06    -3.63010E+06     173.647E+06     134.496E+06    -519.042E+03
             143     57.5939E-03     17.0424E-03     55.0147E-03     108.825E-03    -53.4783E-03    -55.3920E-03    -53.2827E-03     108.630E-03    -55.3920E-03     11.2544E-03     158.213E-03     160.741E+06     172.457E+06     134.478E+06    -3.87244E+06    -3.87168E+06     172.456E+06     134.478E+06    -234.702E+03
             144     58.6620E-03     17.0423E-03     56.1319E-03     108.606E-03    -53.3295E-03    -55.3921E-03    -53.1204E-03     108.397E-03    -55.3921E-03     11.6292E-03     158.013E-03     160.073E+06     171.789E+06     134.137E+06    -3.75380E+06    -3.75263E+06     171.788E+06     134.137E+06    -70.2643E+03
             145     59.7302E-03     17.0423E-03     57.2474E-03     108.630E-03    -53.3713E-03    -55.4008E-03    -53.1543E-03     108.413E-03    -55.4008E-03     11.8494E-03     158.083E-03     160.536E+06     172.026E+06     134.148E+06    -4.06234E+06    -4.06190E+06     172.025E+06     134.148E+06     132.490E+03
             146     60.8008E-03     17.0419E-03     58.3636E-03     108.923E-03    -53.6803E-03    -55.4018E-03    -53.4585E-03     108.701E-03    -55.4018E-03     12.0042E-03     158.252E-03     160.073E+06     172.030E+06     134.108E+06    -3.59873E+06    -3.59754E+06     172.029E+06     134.108E+06     259.143E+03
             147     61.8733E-03     17.0422E-03     59.4800E-03     108.959E-03    -53.7016E-03    -55.3954E-03    -53.4984E-03     108.756E-03    -55.3954E-03     11.4839E-03     158.303E-03     160.235E+06     172.210E+06     134.012E+06    -3.67211E+06    -3.67096E+06     172.208E+06     134.012E+06     304.168E+03
             148     62.9463E-03     17.0423E-03     60.5953E-03     108.790E-03    -53.5004E-03    -55.3955E-03    -53.3152E-03     108.604E-03    -55.3955E-03     10.9582E-03     158.229E-03     161.316E+06     172.905E+06     134.064E+06    -4.28533E+06    -4.28532E+06     172.905E+06     134.064E+06     22.2554E+03
             149     65.0992E-03     17.0423E-03     62.8289E-03     108.760E-03    -53.4864E-03    -55.3925E-03    -53.2638E-03     108.537E-03    -55.3925E-03     12.0126E-03     158.095E-03     162.088E+06     173.518E+06     134.495E+06    -4.51943E+06    -4.51858E+06     173.517E+06     134.495E+06     367.288E+03
             150     66.1764E-03     17.0424E-03     63.9443E-03     108.823E-03    -53.5464E-03    -55.3944E-03    -53.3343E-03     108.611E-03    -55.3944E-03     11.7286E-03     158.071E-03     161.378E+06     173.075E+06     134.566E+06    -4.07371E+06    -4.06720E+06     173.068E+06     134.566E+06    -624.683E+03
             151     67.2553E-03     17.0422E-03     65.0603E-03     109.002E-03    -53.6847E-03    -55.3889E-03    -53.4925E-03     108.810E-03    -55.3889E-03     11.1711E-03     158.295E-03     159.844E+06     172.072E+06     134.653E+06    -3.16049E+06    -3.15395E+06     172.066E+06     134.653E+06    -617.591E+03
             152     68.3359E-03     17.0425E-03     66.1766E-03     109.012E-03    -53.7046E-03    -55.3870E-03    -53.5173E-03     108.825E-03    -55.3870E-03     11.0334E-03     158.374E-03     159.907E+06     171.340E+06     134.587E+06    -3.74383E+06    -3.74326E+06     171.339E+06     134.587E+06    -54.9483E+03
             153     69.4179E-03     17.0422E-03     67.2934E-03     108.846E-03    -53.5298E-03    -55.3894E-03    -53.3305E-03     108.646E-03    -55.3894E-03     11.3689E-03     158.209E-03     159.667E+06     171.255E+06     134.447E+06    -3.60137E+06    -3.59641E+06     171.250E+06     134.447E+06     449.189E+03
             154     70.5002E-03     17.0424E-03     68.4093E-03     108.715E-03    -53.3360E-03    -55.3927E-03    -53.1318E-03     108.510E-03    -55.3927E-03     11.4993E-03     158.102E-03     160.566E+06     172.089E+06     134.752E+06    -3.85539E+06    -3.85080E+06     172.085E+06     134.752E+06     644.682E+03
             155     71.5834E-03     17.0424E-03     69.5252E-03     108.732E-03    -53.4675E-03    -55.3867E-03    -53.2638E-03     108.529E-03    -55.3867E-03     11.4893E-03     158.125E-03     161.191E+06     172.671E+06     134.842E+06    -4.07078E+06    -4.07046E+06     172.670E+06     134.842E+06     178.118E+03
             156     72.6685E-03     17.0426E-03     70.6418E-03     108.857E-03    -53.6441E-03    -55.3849E-03    -53.4325E-03     108.645E-03    -55.3849E-03     11.7181E-03     158.195E-03     161.006E+06     172.750E+06     134.842E+06    -3.82847E+06    -3.82811E+06     172.749E+06     134.842E+06     105.775E+03
             157     73.7547E-03     17.0422E-03     71.7587E-03     108.981E-03    -53.6307E-03    -55.3919E-03    -53.4192E-03     108.769E-03    -55.3919E-03     11.7218E-03     158.344E-03     162.119E+06     173.134E+06     134.897E+06    -4.68538E+06    -4.68534E+06     173.134E+06     134.897E+06    -53.6328E+03
             158     74.8392E-03     17.0424E-03     72.8729E-03     108.909E-03    -53.5740E-03    -55.3868E-03    -53.3864E-03     108.721E-03    -55.3868E-03     11.0238E-03     158.246E-03     161.844E+06     173.739E+06     135.640E+06    -3.75585E+06    -3.75580E+06     173.739E+06     135.640E+06    -67.2159E+03
             159     75.9279E-03     17.0427E-03     73.9905E-03     108.826E-03    -53.5443E-03    -55.3799E-03    -53.3430E-03     108.624E-03    -55.3799E-03     11.3959E-03     158.100E-03     161.987E+06     173.870E+06     136.022E+06    -3.69030E+06    -3.68990E+06     173.870E+06     136.022E+06     101.571E+03
             160     77.0169E-03     17.0424E-03     75.1076E-03     108.802E-03    -53.5264E-03    -55.3825E-03    -53.2961E-03     108.572E-03    -55.3825E-03     12.2182E-03     158.103E-03     161.400E+06     173.057E+06     135.405E+06    -3.84133E+06    -3.84066E+06     173.056E+06     135.405E+06     5.78242E+03
             161     78.1046E-03     17.0426E-03     76.2226E-03     108.662E-03    -53.4172E-03    -55.3880E-03    -53.1960E-03     108.441E-03    -55.3880E-03     11.9638E-03     157.973E-03     161.186E+06     173.412E+06     134.995E+06    -3.51034E+06    -3.50676E+06     173.409E+06     134.995E+06     369.299E+03
             162     79.1944E-03     17.0422E-03     77.3390E-03     108.894E-03    -53.6315E-03    -55.3894E-03    -53.4193E-03     108.681E-03    -55.3894E-03     11.7382E-03     158.192E-03     162.583E+06     175.135E+06     135.752E+06    -3.52197E+06    -3.51852E+06     175.132E+06     135.752E+06     672.774E+03
             163     80.2842E-03     17.0422E-03     78.4545E-03     109.023E-03    -53.7882E-03    -55.3822E-03    -53.5933E-03     108.828E-03    -55.3822E-03     11.2487E-03     158.283E-03     163.399E+06     175.384E+06     135.424E+06    -4.28800E+06    -4.28764E+06     175.383E+06     135.424E+06     10.8786E+03
             164     81.3760E-03     17.0427E-03     79.5714E-03     108.824E-03    -53.5511E-03    -55.3782E-03    -53.3637E-03     108.636E-03    -55.3782E-03     11.0239E-03     158.200E-03     162.910E+06     174.569E+06     134.839E+06    -4.53074E+06    -4.53047E+06     174.568E+06     134.839E+06    -25.9448E+03
             165     82.4677E-03     17.0423E-03     80.6875E-03     108.781E-03    -53.4792E-03    -55.3821E-03    -53.2806E-03     108.582E-03    -55.3821E-03     11.3463E-03     158.281E-03     162.114E+06     175.216E+06     135.965E+06    -2.91943E+06      -2.919E+06     175.216E+06     135.965E+06     267.928E+03
             166     83.5597E-03     17.0427E-03     81.8032E-03     108.796E-03    -53.4851E-03    -55.3795E-03    -53.2834E-03     108.594E-03    -55.3795E-03     11.4345E-03     158.192E-03     164.210E+06     176.663E+06     136.013E+06    -4.05351E+06    -4.05141E+06     176.661E+06     136.013E+06     572.794E+03
             167     84.6535E-03     17.0425E-03     82.9203E-03     108.973E-03    -53.6704E-03    -55.3726E-03    -53.4659E-03     108.769E-03    -55.3726E-03     11.5278E-03     158.383E-03     165.013E+06     178.242E+06     136.217E+06    -3.71906E+06    -3.71671E+06     178.240E+06     136.217E+06     632.826E+03
             168     85.7472E-03     17.0423E-03     84.0366E-03     108.844E-03    -53.6303E-03    -55.3766E-03    -53.4249E-03     108.638E-03    -55.3766E-03     11.5461E-03     158.300E-03     166.639E+06     180.642E+06     136.769E+06    -3.54220E+06    -3.53098E+06     180.630E+06     136.769E+06     1.22813E+06
             169     86.8417E-03     17.0425E-03     85.1530E-03     108.504E-03    -53.2586E-03    -55.3819E-03    -53.0428E-03     108.288E-03    -55.3819E-03     11.8034E-03     157.912E-03     169.466E+06     183.541E+06     137.717E+06    -4.12457E+06    -4.11094E+06     183.527E+06     137.717E+06     1.52868E+06
             170     87.9354E-03     17.0427E-03     86.2680E-03     108.618E-03    -53.3421E-03    -55.3759E-03    -53.1275E-03     108.404E-03    -55.3759E-03     11.7786E-03     157.890E-03     172.101E+06     186.150E+06     139.276E+06    -4.53208E+06    -4.52802E+06     186.146E+06     139.276E+06     851.836E+03
             171     89.0310E-03     17.0428E-03     87.3846E-03     108.743E-03    -53.4683E-03    -55.3720E-03    -53.2645E-03     108.539E-03    -55.3720E-03     11.4919E-03     157.967E-03     172.683E+06     186.964E+06     140.059E+06    -4.32554E+06    -4.32345E+06     186.962E+06     140.059E+06     9.19644E+03
             172     90.1266E-03     17.0428E-03     88.5006E-03     108.629E-03    -53.3311E-03    -55.3718E-03    -53.1282E-03     108.426E-03    -55.3718E-03     11.4564E-03     158.028E-03     172.014E+06     187.124E+06     140.177E+06    -3.48951E+06    -3.48534E+06     187.120E+06     140.177E+06     237.673E+03
             173     91.2224E-03     17.0428E-03     89.6162E-03     108.537E-03    -53.2387E-03    -55.3702E-03    -53.0355E-03     108.333E-03    -55.3702E-03     11.4577E-03     158.006E-03     173.628E+06     189.221E+06     140.740E+06    -3.49345E+06    -3.48194E+06     189.209E+06     140.740E+06     1.44925E+06
             174     92.3192E-03     17.0429E-03     90.7324E-03     108.594E-03    -53.2696E-03    -55.3685E-03    -53.0631E-03     108.388E-03    -55.3685E-03     11.5535E-03     158.045E-03     177.239E+06     192.152E+06     141.615E+06    -4.86647E+06    -4.85810E+06     192.144E+06     141.615E+06     897.485E+03
             175     93.4162E-03     17.0429E-03     91.8484E-03     108.510E-03    -53.1619E-03    -55.3639E-03    -52.9588E-03     108.307E-03    -55.3639E-03     11.4542E-03     158.064E-03     177.612E+06     193.301E+06     142.384E+06    -4.20900E+06    -4.20900E+06     193.301E+06     142.384E+06     5.38164E+03
             176     94.5139E-03     17.0434E-03     92.9645E-03     108.227E-03    -52.8800E-03    -55.3632E-03    -52.6603E-03     108.007E-03    -55.3632E-03     11.8766E-03     157.829E-03     177.426E+06     193.567E+06     142.980E+06    -3.65880E+06    -3.65283E+06     193.561E+06     142.980E+06     780.209E+03
             177     95.6111E-03     17.0434E-03     94.0798E-03     108.081E-03    -52.7603E-03    -55.3621E-03    -52.5364E-03     107.857E-03    -55.3621E-03     11.9841E-03     157.770E-03     179.731E+06     194.986E+06     144.367E+06    -4.62617E+06    -4.62012E+06     194.980E+06     144.367E+06     864.973E+03
             178     96.7081E-03     17.0443E-03     95.1943E-03     107.913E-03    -52.5977E-03    -55.3505E-03    -52.3897E-03     107.705E-03    -55.3505E-03     11.5470E-03     157.687E-03     180.603E+06     195.695E+06     146.265E+06    -4.47298E+06    -4.47284E+06     195.695E+06     146.265E+06     19.1805E+03
             179     97.8065E-03     17.0447E-03     96.3098E-03     107.701E-03    -52.4202E-03    -55.3326E-03    -52.1936E-03     107.475E-03    -55.3326E-03     12.0295E-03     157.417E-03     180.714E+06     197.004E+06     148.132E+06    -3.11942E+06    -3.10915E+06     196.993E+06     148.132E+06     934.632E+03
             180     98.9055E-03     17.0454E-03     97.4256E-03     107.334E-03    -52.1200E-03    -55.3173E-03    -51.8742E-03     107.088E-03    -55.3173E-03     12.5111E-03     156.897E-03     184.136E+06     199.166E+06     149.017E+06    -4.84945E+06    -4.83770E+06     199.154E+06     149.017E+06     1.41078E+06
             181     100.003E-03     17.0462E-03     98.5392E-03     106.761E-03    -51.5814E-03    -55.2899E-03    -51.3506E-03     106.530E-03    -55.2899E-03     12.0759E-03     156.092E-03     184.563E+06     198.949E+06     150.208E+06    -5.08864E+06    -5.08093E+06     198.941E+06     150.208E+06    -382.055E+03
             182     101.099E-03     17.0477E-03     99.6516E-03     106.321E-03    -51.2117E-03    -55.2206E-03    -50.9916E-03     106.100E-03    -55.2206E-03     11.7688E-03     155.522E-03     182.140E+06     197.154E+06     151.129E+06    -3.58202E+06    -3.57552E+06     197.148E+06     151.129E+06    -599.877E+03
             183     102.197E-03     17.0499E-03     100.765E-03     105.708E-03    -50.6813E-03    -55.1068E-03    -50.4558E-03     105.483E-03    -55.1068E-03     11.8680E-03     154.788E-03     182.680E+06     196.039E+06     153.064E+06    -4.28323E+06    -4.28286E+06     196.039E+06     153.064E+06     236.587E+03
             184     103.294E-03     17.0535E-03     101.877E-03     104.594E-03    -49.7086E-03    -54.9449E-03    -49.4560E-03     104.342E-03    -54.9449E-03     12.4582E-03     153.690E-03     182.575E+06     193.980E+06     153.756E+06    -5.35276E+06    -5.34776E+06     193.975E+06     153.756E+06    -652.773E+03
             185     104.390E-03     17.0581E-03     102.987E-03     103.434E-03    -48.7762E-03    -54.6698E-03    -48.4781E-03     103.136E-03    -54.6698E-03     13.4515E-03     152.606E-03     177.873E+06     190.362E+06     152.160E+06    -3.50743E+06    -3.50223E+06     190.357E+06     152.160E+06    -557.969E+03
             186     105.485E-03     17.0654E-03     104.096E-03     102.314E-03    -48.0796E-03    -54.2267E-03    -47.7470E-03     101.981E-03    -54.2267E-03     14.1253E-03     151.350E-03     175.607E+06     185.715E+06     149.005E+06    -5.34523E+06    -5.33455E+06     185.704E+06     149.005E+06    -861.043E+03
             187     106.577E-03     17.0761E-03     105.200E-03     102.201E-03    -48.6587E-03    -53.5747E-03    -48.3374E-03     101.880E-03    -53.5747E-03     13.8942E-03     151.552E-03     169.687E+06     179.762E+06     146.143E+06    -4.21044E+06    -4.19120E+06     179.743E+06     146.143E+06    -1.88171E+06
             188     107.672E-03     17.0887E-03     106.308E-03     104.852E-03    -50.9390E-03    -53.9498E-03    -51.9034E-03     104.623E-03    -52.7561E-03     11.8385E-03     155.250E-03     165.641E+06     172.561E+06     144.089E+06    -5.45628E+06    -5.41441E+06     172.519E+06     144.089E+06    -2.61041E+06
             189     108.772E-03     17.0997E-03     107.419E-03     111.788E-03    -51.9739E-03    -59.8236E-03    -59.7157E-03     111.680E-03    -51.9739E-03     8.21245E-03     163.163E-03     159.711E+06     163.670E+06     148.304E+06    -2.90717E+06    -2.86837E+06     163.631E+06     148.304E+06    -2.39375E+06
             190     109.886E-03     17.1042E-03     108.546E-03     122.061E-03    -51.4074E-03    -70.7495E-03    -70.6988E-03     122.010E-03    -51.4074E-03     6.25022E-03     173.336E-03     160.124E+06     155.750E+06     152.943E+06    -5.75553E+06    -5.73010E+06     155.725E+06     152.943E+06    -1.95968E+06
             191     111.013E-03     17.1056E-03     109.687E-03     131.823E-03    -51.0472E-03    -81.0150E-03    -80.9472E-03     131.755E-03    -51.0472E-03     7.54566E-03     182.011E-03     156.168E+06     153.773E+06     147.211E+06    -5.50076E+06    -5.33210E+06     147.929E+06     152.888E+06    -4.46877E+06
             192     112.149E-03     17.1056E-03     110.837E-03     139.255E-03    -50.8123E-03    -88.6050E-03    -88.4753E-03     139.125E-03    -50.8123E-03     10.7337E-03     187.999E-03     148.563E+06     152.112E+06     138.396E+06    -2.82673E+06    -2.65727E+06     138.226E+06     152.112E+06    -4.39581E+06
             193     113.292E-03     17.1062E-03     111.993E-03     145.831E-03    -50.6234E-03    -95.1974E-03    -94.9592E-03     145.593E-03    -50.6234E-03     15.0318E-03     192.662E-03     146.982E+06     150.365E+06     130.520E+06    -5.46561E+06    -5.40336E+06     130.458E+06     150.365E+06    -2.84065E+06
             194     114.442E-03     17.1064E-03     113.156E-03     153.043E-03    -50.4241E-03    -102.526E-03    -102.168E-03     152.685E-03    -50.4241E-03     19.0765E-03     198.210E-03     145.504E+06     152.499E+06     122.217E+06    -5.69385E+06    -5.44154E+06     121.964E+06     152.499E+06    -5.32448E+06
             195     115.601E-03     17.1073E-03     114.329E-03     160.341E-03    -50.2143E-03    -110.059E-03    -109.584E-03     159.867E-03    -50.2143E-03     22.6008E-03     205.951E-03     141.708E+06     155.431E+06     109.363E+06    -3.07625E+06    -2.85934E+06     109.146E+06     155.431E+06    -3.16895E+06
             196     116.770E-03     17.1077E-03     115.510E-03     168.726E-03    -49.9749E-03    -118.807E-03    -118.016E-03     167.936E-03    -49.9749E-03     29.7883E-03     215.091E-03     140.788E+06     152.444E+06     98.8430E+06    -7.17037E+06    -7.00706E+06     98.6796E+06     152.444E+06    -2.50171E+06
             197     117.953E-03     17.1083E-03     116.706E-03     179.055E-03    -49.6746E-03    -129.444E-03    -127.908E-03     177.519E-03    -49.6746E-03     42.9684E-03     223.785E-03     137.809E+06     151.366E+06     86.4781E+06    -5.53784E+06    -4.56068E+06     85.5009E+06     151.366E+06    -8.16280E+06
             198     119.156E-03     17.1101E-03     117.921E-03     186.731E-03    -49.4621E-03    -137.264E-03    -134.933E-03     184.400E-03    -49.4621E-03     54.6683E-03     229.948E-03     134.905E+06     150.430E+06     64.4715E+06    -5.04678E+06    -3.62341E+06     63.0481E+06     150.430E+06    -9.78784E+06
             199     120.351E-03     17.1091E-03     119.128E-03     188.770E-03    -49.4226E-03    -139.336E-03    -136.743E-03     186.177E-03    -49.4226E-03     58.0994E-03     235.311E-03     142.681E+06     161.569E+06     65.5006E+06    -2.30522E+06     3.00931E+06     60.1861E+06     161.569E+06     6.46280E+06
             200     121.536E-03     17.1119E-03     120.325E-03     190.604E-03    -49.2689E-03    -141.296E-03    -138.200E-03     187.508E-03    -49.2689E-03     63.5952E-03     242.328E-03     150.447E+06     156.193E+06     67.1385E+06    -16.5741E+06    -10.6895E+06     61.2539E+06     156.193E+06     3.36000E+06
             201     122.752E-03     17.1127E-03     121.553E-03     184.872E-03    -49.2140E-03    -135.611E-03    -129.964E-03     179.225E-03    -49.2140E-03     82.4903E-03     243.096E-03     125.241E+06     129.238E+06     61.6051E+06    -15.0496E+06     9.27264E+06     37.2828E+06     129.238E+06    -12.1246E+06
             202     123.958E-03     17.1173E-03     122.771E-03     114.660E-03    -24.5064E-03    -90.1285E-03    -59.8137E-03     110.743E-03    -50.9042E-03     50.7654E-03     161.667E-03     97.3136E+06     93.7874E+06     64.5440E+06    -11.2127E+06     13.1280E+06     40.2033E+06     93.7874E+06    -12.1156E+06
             203     124.749E-03     16.0270E-03     123.715E-03     84.0775E-03    -26.5043E-03    -57.5916E-03    -30.9415E-03     83.8252E-03    -52.9021E-03     10.6492E-03     122.023E-03     119.433E+06     68.7635E+06     27.9645E+06    -61.8167E+06    -23.8370E+06    -10.0153E+06     68.7635E+06    -14.4177E+06
             204     124.387E-03     15.1050E-03     123.466E-03     101.769E-03    -44.3172E-03    -57.4753E-03    -48.6228E-03     101.385E-03    -52.7858E-03     14.9653E-03     143.911E-03     110.449E+06     88.5567E+06     8.68603E+06    -34.6465E+06     6.98872E+06    -32.9492E+06     88.5567E+06    -8.20043E+06
             205     124.025E-03     14.1417E-03     123.216E-03     83.1392E-03    -30.9830E-03    -52.1635E-03    -30.6677E-03     82.8240E-03    -52.1635E-03     2.99493E-03     118.906E-03     92.7965E+06     99.9048E+06     20.9477E+06    -1.60730E+06     19.3211E+06     19.2385E+03     99.9048E+06     2.71916E+06
             206     123.691E-03     13.1857E-03     122.986E-03     84.6721E-03    -32.8966E-03    -51.8094E-03    -32.3596E-03     84.1350E-03    -51.8094E-03    -15.1106E-03     114.875E-03     98.5654E+06     108.401E+06     24.5466E+06     473.151E+03     18.8422E+06     6.17761E+06     108.401E+06     7.50130E+06
             207     123.371E-03     12.2513E-03     122.762E-03     94.9182E-03    -44.1845E-03    -50.7814E-03    -43.1011E-03     93.8349E-03    -50.7814E-03    -24.4164E-03     120.464E-03     104.565E+06     115.952E+06     24.9333E+06     2.09055E+06     20.2806E+06     6.74325E+06     115.952E+06     2.10293E+06
             208     123.072E-03     11.3326E-03     122.549E-03     99.2205E-03    -48.6634E-03    -50.5347E-03    -48.7550E-03     97.8368E-03    -49.0595E-03    -28.5996E-03     118.807E-03     109.063E+06     116.160E+06     23.1930E+06    -3.77596E+06     23.0514E+06    -3.63429E+06     116.160E+06    -1.94891E+06
             209     122.805E-03     10.4131E-03     122.363E-03     99.9901E-03    -47.0853E-03    -52.8578E-03    -51.3611E-03     98.4934E-03    -47.0853E-03    -30.1008E-03     113.876E-03     110.581E+06     119.820E+06     23.3640E+06    -851.681E+03     23.2617E+06    -749.319E+03     119.820E+06    -80.6771E+03
             210     122.576E-03     9.48892E-03     122.208E-03     100.856E-03    -44.8802E-03    -55.9546E-03    -54.5307E-03     99.4323E-03    -44.8802E-03    -29.7334E-03     110.488E-03     108.062E+06     117.241E+06     22.9304E+06    -654.524E+03     22.4591E+06    -183.167E+03     117.241E+06    -1.32940E+06
             211     122.371E-03     8.56738E-03     122.071E-03     98.3322E-03    -42.4640E-03    -55.8727E-03    -54.6862E-03     97.1457E-03    -42.4640E-03    -26.9082E-03     104.760E-03     103.513E+06     113.136E+06     24.3638E+06    -476.397E+03     23.6928E+06     194.642E+03     113.136E+06    -3.91855E+06
             212     122.199E-03     7.63910E-03     121.960E-03     93.1954E-03    -40.0202E-03    -53.1750E-03    -52.2671E-03     92.2874E-03    -40.0202E-03    -22.9512E-03     97.2231E-03     100.711E+06     110.207E+06     26.5767E+06    -1.58794E+06     25.4278E+06    -439.058E+03     110.207E+06    -5.25770E+06
             213     122.056E-03     6.70313E-03     121.872E-03     87.6688E-03    -37.6311E-03    -50.0358E-03    -49.3586E-03     86.9917E-03    -37.6311E-03    -19.2246E-03     90.1192E-03     94.7044E+06     104.159E+06     30.1852E+06    -2.36007E+06     28.6608E+06    -835.655E+03     104.159E+06    -6.75935E+06
             214     121.937E-03     5.76259E-03     121.801E-03     81.0450E-03    -35.3654E-03    -45.6835E-03    -45.2059E-03     80.5674E-03    -35.3654E-03    -15.4931E-03     82.4305E-03     84.6591E+06     93.5711E+06     32.7923E+06    -3.11297E+06     31.8492E+06    -2.16984E+06     93.5711E+06    -5.69071E+06
             215     121.842E-03     4.81349E-03     121.747E-03     74.3709E-03    -33.3381E-03    -41.0162E-03    -40.6933E-03     74.0481E-03    -33.3381E-03    -12.1508E-03     75.0533E-03     72.8845E+06     82.5702E+06     34.2129E+06    -1.17284E+06     33.4700E+06    -429.984E+03     82.5702E+06    -5.06828E+06
             216     121.768E-03     3.85908E-03     121.707E-03     68.4137E-03    -31.6118E-03    -36.7937E-03    -36.5876E-03     68.2076E-03    -31.6118E-03    -9.25599E-03     68.7169E-03     62.0054E+06     70.2207E+06     35.5097E+06    -1.21546E+06     34.4795E+06    -185.215E+03     70.2207E+06    -6.03449E+06
             217     121.711E-03     2.89839E-03     121.676E-03     63.3973E-03    -30.2422E-03    -33.1621E-03    -33.0397E-03     63.2748E-03    -30.2422E-03    -6.82547E-03     63.5077E-03     53.4852E+06     57.0997E+06     39.7267E+06    -2.27349E+06     38.6419E+06    -1.18863E+06     57.0997E+06    -6.60418E+06
             218     121.672E-03     1.93455E-03     121.657E-03     59.7312E-03    -29.3555E-03    -30.3850E-03    -30.3209E-03     59.6671E-03    -29.3555E-03    -4.72058E-03     59.7588E-03     50.5316E+06     51.9101E+06     46.3589E+06    -1.13320E+06     46.7966E+06      73.041E+03     50.2661E+06    -7.57031E+06
             219     121.648E-03     966.951E-06     121.644E-03     58.1891E-03    -28.8054E-03    -29.3818E-03    -29.3528E-03     58.1601E-03    -28.8054E-03    -3.13974E-03     58.1975E-03     66.1809E+06     62.4070E+06     58.3434E+06    -5.71164E+06     58.7015E+06    -4.42574E+06     60.7631E+06    -8.93967E+06
             220     120.581E-03    -974.012E-09     120.581E-03     49.3158E-03    -24.2156E-03    -25.1003E-03    -24.7293E-03     49.3031E-03    -24.5739E-03    -1.91279E-03     49.3291E-03     63.0178E+06     42.2770E+06     35.5812E+06    -23.7154E+06     38.9106E+06    -22.7686E+06     38.0009E+06    -7.68960E+06
             221     119.541E-03     220.839E-09     119.541E-03     33.5618E-03    -16.5824E-03    -16.9790E-03    -16.5770E-03     33.5563E-03    -16.9790E-03    -1.04222E-03     33.5816E-03     27.5100E+06    -13.1276E+06    -17.7239E+06    -42.6091E+06    -13.8906E+06    -41.8461E+06    -17.7239E+06    -4.46780E+06
             222     118.514E-03    -296.639E-09     118.514E-03     21.9619E-03    -10.9559E-03    -11.0060E-03    -10.9535E-03     21.9595E-03    -11.0060E-03    -492.818E-06     21.9883E-03     19.2973E+06    -52.9408E+06    -64.4293E+06    -73.8315E+06    -67.2825E+06    -59.4899E+06    -64.4293E+06    -4.84015E+06
             223     117.498E-03     312.481E-09     117.498E-03     14.5615E-03    -7.25375E-03    -7.30753E-03    -7.25171E-03     14.5595E-03    -7.30753E-03     201.163E-06     14.6045E-03     44.7133E+06    -78.1051E+06    -119.581E+06    -125.210E+06    -123.106E+06    -80.2090E+06    -119.581E+06    -9.69544E+06
             224     116.486E-03    -389.989E-09     116.486E-03     10.9923E-03    -5.42335E-03    -5.56849E-03    -5.40489E-03     10.9738E-03    -5.56849E-03     968.536E-06     11.0423E-03     82.3217E+06    -105.577E+06    -186.158E+06    -189.516E+06    -186.613E+06    -107.122E+06    -187.517E+06    -9.93659E+06
             225     115.476E-03     129.466E-09     115.476E-03     11.6053E-03    -5.71461E-03    -5.89016E-03    -5.72913E-03     11.5474E-03    -5.81776E-03     1.97882E-03     11.6427E-03     110.358E+06    -127.322E+06    -236.174E+06    -239.127E+06    -235.910E+06    -127.586E+06    -239.127E+06    -3.59597E+06
             226     114.463E-03    -88.1576E-09     114.463E-03     17.1131E-03    -8.49349E-03    -8.62019E-03    -8.53330E-03     17.0262E-03    -8.49349E-03     2.97207E-03     17.1328E-03     116.429E+06    -119.766E+06    -234.251E+06    -238.045E+06    -232.789E+06    -121.228E+06    -238.045E+06     8.95829E+06
             227     113.443E-03     61.4775E-09     113.443E-03     27.5070E-03    -13.6569E-03    -13.8511E-03    -13.7586E-03     27.4145E-03    -13.6569E-03     3.88459E-03     27.5175E-03     71.3673E+06    -73.6705E+06    -135.032E+06    -148.032E+06    -138.127E+06    -81.3757E+06    -137.232E+06     16.8278E+06
             228     112.407E-03     188.265E-09     112.407E-03     40.3091E-03    -20.0025E-03    -20.3071E-03    -20.2095E-03     40.2116E-03    -20.0025E-03     4.85138E-03     40.3215E-03     20.6402E+06    -32.5211E+06    -44.0132E+06    -55.3301E+06    -48.3638E+06    -39.4874E+06    -44.0132E+06     9.95952E+06
             229     111.360E-03     37.6176E-09     111.360E-03     53.6458E-03    -26.6313E-03    -27.0143E-03    -26.9268E-03     53.5583E-03    -26.6313E-03     5.25438E-03     53.6679E-03     20.5137E+06    -6.55704E+06    -14.5099E+06    -28.1739E+06    -14.3409E+06    -22.3058E+06    -12.5941E+06     1.35352E+06
             230     110.297E-03     348.820E-09     110.297E-03     67.2380E-03    -33.3799E-03    -33.8552E-03    -33.7979E-03     67.1807E-03    -33.3799E-03     4.71931E-03     67.2762E-03     41.5373E+06     19.2327E+06     15.6999E+06    -23.9379E+06     17.1553E+06    -23.7762E+06     17.6157E+06    -2.56493E+06
             231     109.222E-03     97.1433E-09     109.222E-03     79.7536E-03    -39.6780E-03    -40.0728E-03    -40.0340E-03     79.7147E-03    -39.6780E-03     4.30491E-03     79.8139E-03     55.7153E+06     24.7399E+06     21.3568E+06    -32.5898E+06     22.6340E+06    -32.2499E+06     23.1229E+06    -4.28846E+06
             232     108.130E-03     162.255E-09     108.130E-03     89.9845E-03    -44.7231E-03    -45.2604E-03    -45.2241E-03     89.9483E-03    -44.7231E-03     4.42508E-03     90.0643E-03     65.6338E+06     19.1151E+06     13.7423E+06    -49.0326E+06     16.8986E+06    -48.5821E+06     15.5084E+06    -5.43825E+06
             233     107.031E-03     529.558E-09     107.031E-03     97.2483E-03    -48.2204E-03    -49.0267E-03    -49.0008E-03     97.2223E-03    -48.2204E-03     3.81377E-03     97.3398E-03     81.8377E+06     14.8313E+06     8.80396E+06    -69.8396E+06     12.0796E+06    -69.5085E+06     11.2245E+06    -5.05405E+06
             234     105.928E-03     257.474E-09     105.928E-03     102.469E-03    -51.0231E-03    -51.4459E-03    -51.4333E-03     102.457E-03    -51.0231E-03     2.75517E-03     102.587E-03     91.8859E+06     2.76798E+06    -1.18926E+06    -91.0285E+06    -112.273E+03    -90.5688E+06     1.23130E+06    -6.20266E+06
             235     104.818E-03    -250.435E-09     104.818E-03     106.456E-03    -53.0728E-03    -53.3844E-03    -53.3786E-03     106.450E-03    -53.0728E-03     1.84731E-03     106.602E-03     102.213E+06    -11.7142E+06    -13.8865E+06    -114.992E+06    -13.1240E+06    -114.218E+06    -13.2509E+06    -8.88047E+06
             236     103.703E-03     824.939E-09     103.703E-03     108.542E-03    -53.9099E-03    -54.6338E-03    -54.6296E-03     108.537E-03    -53.9099E-03     1.63163E-03     108.690E-03     107.083E+06    -31.1341E+06    -34.3236E+06    -139.762E+06    -32.2975E+06    -139.234E+06    -33.6880E+06    -7.21497E+06
             237     102.590E-03    -51.4342E-09     102.590E-03     109.296E-03    -54.3399E-03    -54.9562E-03    -54.9509E-03     109.291E-03    -54.3399E-03     1.85411E-03     109.433E-03     113.768E+06    -45.9128E+06    -50.5929E+06    -161.947E+06    -48.2715E+06    -161.714E+06    -48.4667E+06    -5.13789E+06
             238     101.473E-03     430.828E-09     101.473E-03     109.682E-03    -54.6241E-03    -55.0588E-03    -55.0544E-03     109.678E-03    -54.6241E-03     1.70690E-03     109.817E-03     117.698E+06    -61.4784E+06    -65.4740E+06    -181.123E+06    -63.8655E+06    -180.862E+06    -63.3478E+06    -5.51725E+06
             239     100.360E-03     12.8215E-09     100.360E-03     110.170E-03    -54.9062E-03    -55.2645E-03    -55.2618E-03     110.167E-03    -54.9062E-03     1.26667E-03     110.315E-03     118.876E+06    -78.5218E+06    -81.7886E+06    -198.996E+06    -80.1380E+06    -198.778E+06    -80.3912E+06    -5.00725E+06
             240     99.2431E-03     217.390E-09     99.2431E-03     110.588E-03    -55.1253E-03    -55.4646E-03    -55.4622E-03     110.586E-03    -55.1253E-03     1.23163E-03     110.746E-03     129.304E+06    -86.0845E+06    -88.6149E+06    -216.634E+06    -87.7514E+06    -216.365E+06    -87.2175E+06    -5.75407E+06
             241     98.1256E-03     198.603E-09     98.1256E-03     110.552E-03    -54.9482E-03    -55.6076E-03    -55.6044E-03     110.549E-03    -54.9482E-03     1.45699E-03     110.709E-03     137.820E+06    -99.6302E+06    -100.810E+06    -238.032E+06    -99.8806E+06    -237.782E+06    -100.810E+06    -5.58644E+06
             242     97.0118E-03     616.507E-09     97.0118E-03     110.754E-03    -55.0205E-03    -55.7355E-03    -55.7332E-03     110.752E-03    -55.0205E-03     1.24635E-03     110.902E-03     149.190E+06    -106.071E+06    -106.353E+06    -255.401E+06    -106.204E+06    -255.269E+06    -106.353E+06    -4.43799E+06
             243     95.8942E-03    -80.7071E-09     95.8942E-03     110.942E-03    -55.2528E-03    -55.6915E-03    -55.6894E-03     110.940E-03    -55.2528E-03     1.19754E-03     111.096E-03     158.621E+06    -110.023E+06    -110.582E+06    -268.923E+06    -110.132E+06    -268.813E+06    -110.582E+06    -4.06047E+06
             244     94.7785E-03     367.569E-09     94.7785E-03     110.861E-03    -55.1188E-03    -55.7446E-03    -55.7419E-03     110.858E-03    -55.1188E-03     1.35268E-03     111.022E-03     166.988E+06    -113.800E+06    -114.808E+06    -281.289E+06    -114.549E+06    -281.226E+06    -114.124E+06    -3.25239E+06
             245     93.6624E-03     528.736E-09     93.6624E-03     111.025E-03    -55.1336E-03    -55.8935E-03    -55.8902E-03     111.021E-03    -55.1336E-03     1.49015E-03     111.180E-03     178.427E+06    -110.889E+06    -113.364E+06    -290.539E+06    -111.608E+06    -290.504E+06    -112.680E+06    -2.14480E+06
             246     92.5459E-03    -3.39408E-09     92.5459E-03     111.148E-03    -55.4248E-03    -55.7279E-03    -55.7251E-03     111.145E-03    -55.4248E-03     1.34910E-03     111.329E-03     184.908E+06    -110.274E+06    -113.857E+06    -296.947E+06    -112.070E+06    -296.943E+06    -112.065E+06    -887.627E+03
             247     91.4297E-03     57.7253E-09     91.4297E-03     111.072E-03    -55.4282E-03    -55.6483E-03    -55.6451E-03     111.069E-03    -55.4282E-03     1.43126E-03     111.295E-03     190.542E+06    -108.465E+06    -112.011E+06    -300.755E+06    -110.259E+06    -300.753E+06    -110.219E+06    -328.657E+03
             248     90.3129E-03     303.450E-09     90.3129E-03     111.080E-03    -55.2730E-03    -55.8092E-03    -55.8033E-03     111.074E-03    -55.2730E-03     1.96426E-03     111.325E-03     194.902E+06    -105.028E+06    -107.468E+06    -301.136E+06    -105.725E+06    -301.125E+06    -106.782E+06     1.08516E+06
             249     89.1963E-03     326.978E-09     89.1963E-03     110.902E-03    -55.1649E-03    -55.7385E-03    -55.7332E-03     110.897E-03    -55.1649E-03     1.81651E-03     111.270E-03     193.525E+06    -105.923E+06    -106.831E+06    -299.900E+06    -106.619E+06    -299.890E+06    -106.145E+06     938.905E+03
             250     88.0817E-03     128.679E-09     88.0817E-03     110.749E-03    -55.1690E-03    -55.5816E-03    -55.5788E-03     110.746E-03    -55.1690E-03     1.37601E-03     111.264E-03     194.843E+06    -106.495E+06    -107.242E+06    -301.710E+06    -107.020E+06    -301.709E+06    -106.717E+06    -351.961E+03
             251     86.9656E-03     204.773E-09     86.9656E-03     111.082E-03    -55.3444E-03    -55.7391E-03    -55.7366E-03     111.079E-03    -55.3444E-03     1.30178E-03     111.669E-03     198.026E+06    -102.257E+06    -103.876E+06    -301.087E+06    -102.786E+06    -301.083E+06    -103.352E+06     320.784E+03
             252     85.8491E-03     211.125E-09     85.8491E-03     111.094E-03    -55.1859E-03    -55.9114E-03    -55.9094E-03     111.092E-03    -55.1859E-03     1.15509E-03     111.723E-03     199.494E+06    -100.149E+06    -102.448E+06    -300.783E+06    -101.359E+06    -300.776E+06    -101.245E+06     49.2731E+03
             253     84.7330E-03     754.040E-09     84.7330E-03     110.826E-03    -55.0854E-03    -55.7463E-03    -55.7426E-03     110.822E-03    -55.0854E-03     1.51233E-03     111.539E-03     199.158E+06    -100.418E+06    -102.888E+06    -300.800E+06    -101.626E+06    -300.795E+06    -101.685E+06    -158.197E+03
             254     83.6177E-03    -458.120E-09     83.6177E-03     110.877E-03    -55.2715E-03    -55.6109E-03    -55.6078E-03     110.874E-03    -55.2715E-03     1.26018E-03     111.679E-03     198.616E+06    -97.9448E+06    -100.329E+06    -297.742E+06    -99.0640E+06    -297.740E+06    -99.2115E+06     169.496E+03
             255     82.5013E-03     812.440E-09     82.5013E-03     110.912E-03    -55.1678E-03    -55.7468E-03    -55.7447E-03     110.909E-03    -55.1678E-03     1.08770E-03     111.713E-03     198.738E+06    -97.6161E+06    -99.3841E+06    -297.232E+06    -98.7356E+06    -297.229E+06    -98.2671E+06    -676.505E+03
             256     81.3857E-03    -54.8381E-09     81.3857E-03     111.133E-03    -55.2979E-03    -55.8365E-03    -55.8335E-03     111.130E-03    -55.2979E-03     1.38432E-03     111.955E-03     199.439E+06    -97.3730E+06    -98.5018E+06    -297.374E+06    -97.8531E+06    -297.371E+06    -98.0240E+06    -303.240E+03
             257     80.2690E-03     325.596E-09     80.2690E-03     111.317E-03    -55.4459E-03    -55.8727E-03    -55.8688E-03     111.313E-03    -55.4459E-03     1.55293E-03     112.184E-03     199.767E+06    -95.6533E+06    -96.9338E+06    -296.057E+06    -96.1330E+06    -296.055E+06    -96.4560E+06     548.571E+03
             258     79.1513E-03     216.129E-09     79.1513E-03     111.035E-03    -55.1805E-03    -55.8574E-03    -55.8531E-03     111.031E-03    -55.1805E-03     1.67324E-03     111.934E-03     196.630E+06    -96.8197E+06    -98.1536E+06    -294.113E+06    -97.3774E+06    -294.087E+06    -97.6224E+06     1.95419E+06
             259     78.0376E-03     526.988E-09     78.0376E-03     110.825E-03    -55.2051E-03    -55.6253E-03    -55.6220E-03     110.822E-03    -55.2051E-03     1.48372E-03     111.773E-03     192.972E+06    -96.4494E+06    -97.3030E+06    -289.847E+06    -97.3315E+06    -289.819E+06    -96.4494E+06     956.005E+03
             260     76.9196E-03    -458.197E-09     76.9196E-03     110.825E-03    -55.2395E-03    -55.5921E-03    -55.5893E-03     110.822E-03    -55.2395E-03     1.33561E-03     111.786E-03     193.837E+06    -94.2547E+06    -95.2627E+06    -288.594E+06    -94.5816E+06    -288.589E+06    -94.9403E+06    -878.229E+03
             261     75.8052E-03     1.06155E-06     75.8052E-03     110.877E-03    -55.0767E-03    -55.8010E-03    -55.7983E-03     110.874E-03    -55.0767E-03     1.33925E-03     111.754E-03     196.142E+06    -94.2551E+06    -95.8343E+06    -291.182E+06    -95.1525E+06    -291.179E+06    -94.9407E+06    -823.973E+03
             262     74.6885E-03    -278.664E-09     74.6885E-03     111.004E-03    -55.2073E-03    -55.7930E-03    -55.7902E-03     111.001E-03    -55.2073E-03     1.36952E-03     111.793E-03     198.666E+06    -93.1712E+06    -95.5280E+06    -293.005E+06    -94.0686E+06    -293.001E+06    -94.6344E+06    -249.313E+03
             263     73.5724E-03     611.455E-09     73.5724E-03     111.102E-03    -55.2659E-03    -55.8324E-03    -55.8298E-03     111.099E-03    -55.2659E-03     1.31639E-03     111.896E-03     198.878E+06    -92.2830E+06    -94.8529E+06    -292.433E+06    -93.3909E+06    -292.432E+06    -93.7463E+06     501.962E+03
             264     72.4561E-03     128.233E-09     72.4561E-03     110.851E-03    -55.1796E-03    -55.6694E-03    -55.6658E-03     110.847E-03    -55.1796E-03     1.54527E-03     111.681E-03     196.394E+06    -93.0592E+06    -95.1696E+06    -290.500E+06    -94.1674E+06    -290.498E+06    -94.0629E+06     552.350E+03
             265     71.3398E-03     55.8792E-09     71.3398E-03     110.716E-03    -55.1626E-03    -55.5531E-03    -55.5499E-03     110.713E-03    -55.1626E-03     1.43937E-03     111.597E-03     193.664E+06    -91.8411E+06    -94.5819E+06    -286.860E+06    -93.5811E+06    -286.857E+06    -92.8448E+06    -69.6238E+03
             266     70.2257E-03     511.807E-09     70.2257E-03     111.116E-03    -55.2674E-03    -55.8493E-03    -55.8472E-03     111.114E-03    -55.2674E-03     1.18005E-03     111.994E-03     193.400E+06    -91.8229E+06    -95.2367E+06    -286.907E+06    -93.5730E+06    -286.894E+06    -93.4996E+06    -1.45957E+06
             267     69.1073E-03     34.9505E-09     69.1073E-03     111.073E-03    -55.3366E-03    -55.7423E-03    -55.7404E-03     111.071E-03    -55.3366E-03     1.12720E-03     111.902E-03     194.948E+06    -94.7714E+06    -96.7978E+06    -290.722E+06    -95.1466E+06    -290.696E+06    -96.4481E+06     126.359E+03
             268     67.9925E-03     180.216E-09     67.9925E-03     110.875E-03    -55.2178E-03    -55.6641E-03    -55.6619E-03     110.873E-03    -55.2178E-03     1.20214E-03     111.667E-03     196.118E+06    -93.9125E+06    -95.2185E+06    -290.679E+06    -95.2394E+06    -290.658E+06    -93.9125E+06     373.848E+03
             269     66.8763E-03     470.985E-09     66.8763E-03     111.073E-03    -55.2238E-03    -55.8534E-03    -55.8513E-03     111.071E-03    -55.2238E-03     1.18522E-03     111.859E-03     197.642E+06    -92.3876E+06    -94.3556E+06    -291.007E+06    -93.3539E+06    -290.997E+06    -93.3993E+06    -1.38506E+06
             270     65.7597E-03     76.0404E-09     65.7597E-03     110.979E-03    -55.2289E-03    -55.7560E-03    -55.7544E-03     110.978E-03    -55.2289E-03     1.03331E-03     111.790E-03     197.084E+06    -94.3290E+06    -95.5585E+06    -292.024E+06    -94.3348E+06    -292.018E+06    -95.5585E+06    -100.739E+03
             271     64.6444E-03     374.145E-09     64.6444E-03     111.051E-03    -55.3523E-03    -55.7024E-03    -55.7002E-03     111.049E-03    -55.3523E-03     1.19084E-03     111.845E-03     196.569E+06    -93.1706E+06    -94.3008E+06    -290.302E+06    -94.0855E+06    -290.299E+06    -93.3884E+06     381.034E+03
             272     63.5274E-03    -141.319E-09     63.5274E-03     111.269E-03    -55.4722E-03    -55.7982E-03    -55.7963E-03     111.267E-03    -55.4722E-03     1.08414E-03     112.129E-03     193.921E+06    -94.9988E+06    -96.9555E+06    -289.890E+06    -95.9155E+06    -289.886E+06    -96.0431E+06    -733.516E+03
             273     62.4111E-03     534.378E-09     62.4111E-03     110.955E-03    -55.2111E-03    -55.7460E-03    -55.7448E-03     110.953E-03    -55.2111E-03     858.530E-06     111.862E-03     193.561E+06    -96.4812E+06    -97.5276E+06    -290.561E+06    -96.4893E+06    -290.553E+06    -97.5276E+06    -15.5469E+03
             274     62.6856E-03     16.0945E-03     60.5843E-03     113.404E-03    -54.4493E-03    -59.0077E-03    -53.6986E-03     109.043E-03    -55.3968E-03     43.8118E-03     202.617E-03     162.539E+06     171.155E+06     128.481E+06    -8.43272E+06    -8.42837E+06     171.150E+06     128.481E+06     395.838E+03
             275     62.3661E-03     15.1469E-03     60.4987E-03     114.477E-03    -55.3367E-03    -59.1726E-03    -53.6340E-03     108.938E-03    -55.3367E-03     58.7469E-03     223.167E-03     159.856E+06     164.140E+06     107.234E+06    -16.0022E+06    -15.9931E+06     164.131E+06     107.234E+06     387.084E+03
             276     62.1006E-03     14.1992E-03     60.4555E-03     112.215E-03    -55.1968E-03    -57.0985E-03    -53.5377E-03     108.655E-03    -55.1968E-03     48.1079E-03     205.960E-03     157.228E+06     157.186E+06     65.5251E+06    -22.2616E+06    -22.2527E+06     157.177E+06     65.5251E+06    -103.815E+03
             277     61.8307E-03     13.2513E-03     60.3940E-03     112.404E-03    -55.0706E-03    -57.4411E-03    -54.0648E-03     109.028E-03    -55.0706E-03     46.6450E-03     206.105E-03     143.858E+06     135.141E+06     24.0947E+06    -27.1063E+06    -27.0977E+06     135.132E+06     24.0947E+06    -503.763E+03
             278     61.5948E-03     12.3045E-03     60.3533E-03     111.159E-03    -55.1183E-03    -56.1147E-03    -54.2916E-03     109.336E-03    -55.1183E-03     34.5728E-03     191.684E-03     86.4133E+06     65.9872E+06     6.72016E+06    -30.2077E+06    -30.2016E+06     65.9811E+06     6.72016E+06    -205.667E+03
             279     61.3785E-03     11.3578E-03     60.3185E-03     110.775E-03    -55.1796E-03    -55.6325E-03    -54.3944E-03     109.632E-03    -55.2746E-03     27.1834E-03     176.526E-03     44.2966E+06     9.66611E+06    -14.9351E+06    -39.6533E+06    -32.9555E+06    -15.4035E+06     3.43677E+06     370.854E+03
             280     61.1863E-03     10.4109E-03     60.2941E-03     110.498E-03    -55.1017E-03    -55.4364E-03    -54.4554E-03     109.796E-03    -55.3810E-03     21.4525E-03     162.678E-03     64.1799E+06     2.12370E+06    -36.1672E+06    -70.8636E+06    -36.1766E+06    -70.8542E+06     2.12370E+06     479.440E+03
             281     61.0116E-03     9.46383E-03     60.2731E-03     110.596E-03    -55.1320E-03    -55.4812E-03    -54.6056E-03     110.070E-03    -55.4812E-03     18.6103E-03     151.659E-03     98.6507E+06     1.57902E+06    -39.8637E+06    -110.918E+06    -39.8693E+06    -110.913E+06     1.57902E+06     613.956E+03
             282     60.8536E-03     8.51690E-03     60.2546E-03     110.732E-03    -55.1885E-03    -55.5467E-03    -54.7908E-03     110.334E-03    -55.5467E-03     16.1755E-03     142.911E-03     124.745E+06    -2.26700E+06    -44.3556E+06    -142.538E+06    -44.3592E+06    -142.534E+06    -2.26700E+06     576.318E+03
             283     60.7126E-03     7.57060E-03     60.2388E-03     110.798E-03    -55.1989E-03    -55.6121E-03    -54.9074E-03     110.507E-03    -55.6121E-03     13.8581E-03     135.244E-03     147.131E+06    -7.88558E+06    -49.2935E+06    -171.258E+06    -49.2948E+06    -171.257E+06    -7.88558E+06     232.574E+03
             284     60.5882E-03     6.62364E-03     60.2251E-03     110.937E-03    -55.2884E-03    -55.6641E-03    -55.0707E-03     110.719E-03    -55.6641E-03     11.9955E-03     129.152E-03     168.582E+06    -13.0818E+06    -54.8924E+06    -198.621E+06    -54.8931E+06    -198.620E+06    -13.0818E+06     152.000E+03
             285     60.4799E-03     5.67744E-03     60.2128E-03     111.097E-03    -55.4016E-03    -55.6950E-03    -55.2437E-03     110.939E-03    -55.6950E-03     10.2013E-03     124.182E-03     190.432E+06    -20.1567E+06    -61.2736E+06    -227.763E+06    -61.2745E+06    -227.762E+06    -20.1567E+06     56.3211E+03
             286     60.3889E-03     4.73097E-03     60.2033E-03     111.167E-03    -55.4615E-03    -55.7121E-03    -55.3498E-03     111.055E-03    -55.7121E-03     8.60541E-03     120.149E-03     203.542E+06    -31.1580E+06    -68.1368E+06    -250.630E+06    -68.1370E+06    -250.630E+06    -31.1580E+06    -80.9105E+03
             287     60.3133E-03     3.78480E-03     60.1944E-03     111.134E-03    -55.4773E-03    -55.6749E-03    -55.4014E-03     111.058E-03    -55.6749E-03     7.04637E-03     116.890E-03     204.533E+06    -46.1179E+06    -75.7787E+06    -263.830E+06    -75.7804E+06    -263.828E+06    -46.1179E+06     130.933E+03
             288     60.2548E-03     2.83855E-03     60.1879E-03     111.081E-03    -55.4666E-03    -55.6297E-03    -55.4232E-03     111.037E-03    -55.6297E-03     5.32135E-03     114.555E-03     201.524E+06    -63.6607E+06    -82.8682E+06    -274.025E+06    -82.8726E+06    -274.021E+06    -63.6607E+06     288.697E+03
             289     60.2127E-03     1.89230E-03     60.1829E-03     111.055E-03    -55.4414E-03    -55.6238E-03    -55.4201E-03     111.034E-03    -55.6238E-03     3.65873E-03     112.939E-03     198.882E+06    -79.1861E+06    -88.3471E+06    -282.462E+06    -88.3503E+06    -282.458E+06    -79.1861E+06     319.805E+03
             290     60.1881E-03     945.822E-06     60.1806E-03     111.225E-03    -55.3986E-03    -55.8262E-03    -55.7143E-03     111.217E-03    -55.5025E-03     2.25776E-03     112.221E-03     195.292E+06    -89.1322E+06    -92.3995E+06    -286.024E+06    -92.2136E+06    -286.022E+06    -89.3201E+06     490.170E+03
             291     61.6067E-03     16.0944E-03     59.4673E-03     113.266E-03    -54.5538E-03    -58.7563E-03    -53.5958E-03     108.953E-03    -55.4007E-03     43.7245E-03     202.557E-03     161.665E+06     171.276E+06     128.728E+06    -7.36862E+06    -7.36140E+06     171.268E+06     128.728E+06     261.822E+03
             292     61.2847E-03     15.1464E-03     59.3835E-03     114.412E-03    -55.3437E-03    -59.0914E-03    -53.5913E-03     108.912E-03    -55.3437E-03     58.5835E-03     223.164E-03     159.193E+06     164.672E+06     107.795E+06    -14.7922E+06    -14.7829E+06     164.663E+06     107.795E+06    -91.3319E+03
             293     61.0139E-03     14.1983E-03     59.3389E-03     112.458E-03    -55.1948E-03    -57.3539E-03    -53.8321E-03     108.936E-03    -55.1948E-03     47.9748E-03     206.238E-03     156.781E+06     157.694E+06     66.3205E+06    -21.2264E+06    -21.2208E+06     157.688E+06     66.3205E+06    -211.203E+03
             294     60.7408E-03     13.2519E-03     59.2776E-03     112.394E-03    -55.0590E-03    -57.4261E-03    -54.0875E-03     109.056E-03    -55.0590E-03     46.4686E-03     206.087E-03     143.326E+06     135.547E+06     24.9229E+06    -26.1072E+06    -26.0982E+06     135.538E+06     24.9229E+06    -165.864E+03
             295     60.5010E-03     12.3050E-03     59.2365E-03     111.010E-03    -55.1092E-03    -55.9674E-03    -54.1352E-03     109.178E-03    -55.1092E-03     34.5930E-03     191.534E-03     85.7501E+06     65.3802E+06     6.45648E+06    -30.1073E+06    -30.0990E+06     65.3720E+06     6.45648E+06     66.2938E+03
             296     60.2825E-03     11.3578E-03     59.2029E-03     110.577E-03    -55.0879E-03    -55.5370E-03    -54.1903E-03     109.421E-03    -55.2791E-03     27.3597E-03     176.341E-03     43.9482E+06     8.77541E+06    -15.4861E+06    -40.2813E+06    -33.2344E+06    -16.2889E+06     2.53130E+06     345.776E+03
             297     60.0866E-03     10.4103E-03     59.1779E-03     110.461E-03    -55.1130E-03    -55.4004E-03    -54.3942E-03     109.742E-03    -55.4004E-03     21.6617E-03     162.654E-03     63.9338E+06     1.74787E+06    -36.2645E+06    -71.0775E+06    -36.2691E+06    -71.0728E+06     1.74787E+06     364.599E+03
             298     59.9093E-03     9.46351E-03     59.1571E-03     110.720E-03    -55.2481E-03    -55.4995E-03    -54.7268E-03     110.199E-03    -55.4995E-03     18.5417E-03     151.837E-03     98.1898E+06     1.10930E+06    -40.0030E+06    -110.821E+06    -40.0062E+06    -110.818E+06     1.10930E+06     407.546E+03
             299     59.7484E-03     8.51711E-03     59.1382E-03     110.787E-03    -55.2396E-03    -55.5603E-03    -54.8476E-03     110.395E-03    -55.5603E-03     16.0511E-03     142.990E-03     124.311E+06    -2.43358E+06    -44.1995E+06    -142.188E+06    -44.2014E+06    -142.186E+06    -2.43358E+06     385.448E+03
             300     59.6054E-03     7.57012E-03     59.1228E-03     110.877E-03    -55.2798E-03    -55.6176E-03    -54.9945E-03     110.592E-03    -55.6176E-03     13.7288E-03     135.378E-03     146.441E+06    -7.80371E+06    -49.3116E+06    -170.493E+06    -49.3135E+06    -170.491E+06    -7.80371E+06     398.017E+03
             301     59.4786E-03     6.62402E-03     59.1086E-03     110.930E-03    -55.2839E-03    -55.6616E-03    -55.0669E-03     110.713E-03    -55.6616E-03     11.9723E-03     129.132E-03     168.055E+06    -13.6336E+06    -55.0786E+06    -198.513E+06    -55.0797E+06    -198.512E+06    -13.6336E+06     106.040E+03
             302     59.3689E-03     5.67722E-03     59.0968E-03     111.065E-03    -55.3688E-03    -55.6988E-03    -55.2113E-03     110.908E-03    -55.6988E-03     10.1935E-03     124.155E-03     190.025E+06    -20.5764E+06    -61.3352E+06    -227.657E+06    -61.3360E+06    -227.656E+06    -20.5764E+06     1.54923E+03
             303     59.2758E-03     4.73100E-03     59.0867E-03     111.183E-03    -55.4805E-03    -55.7156E-03    -55.3707E-03     111.073E-03    -55.7156E-03     8.51852E-03     120.185E-03     202.991E+06    -31.7562E+06    -68.8506E+06    -250.712E+06    -68.8519E+06    -250.711E+06    -31.7562E+06     266.087E+03
             304     59.1994E-03     3.78478E-03     59.0783E-03     111.085E-03    -55.4280E-03    -55.6767E-03    -55.3529E-03     111.010E-03    -55.6767E-03     7.03431E-03     116.873E-03     203.253E+06    -47.7173E+06    -76.3224E+06    -263.709E+06    -76.3244E+06    -263.707E+06    -47.7173E+06     334.344E+03
             305     59.1397E-03     2.83849E-03     59.0716E-03     111.053E-03    -55.4041E-03    -55.6599E-03    -55.3594E-03     111.008E-03    -55.6599E-03     5.36879E-03     114.535E-03     201.102E+06    -64.3149E+06    -82.7786E+06    -273.967E+06    -82.7804E+06    -273.965E+06    -64.3149E+06     23.2492E+03
             306     59.0974E-03     1.89200E-03     59.0671E-03     111.179E-03    -55.4813E-03    -55.7048E-03    -55.4953E-03     111.159E-03    -55.6704E-03     3.59120E-03     113.051E-03     199.671E+06    -77.7332E+06    -87.9884E+06    -282.312E+06    -87.9893E+06    -282.311E+06    -77.7332E+06     78.0287E+03
             307     59.0713E-03     945.997E-06     59.0637E-03     111.289E-03    -55.4202E-03    -55.8700E-03    -55.7909E-03     111.282E-03    -55.4918E-03     2.14726E-03     112.292E-03     195.174E+06    -88.2417E+06    -91.9215E+06    -285.209E+06    -91.7353E+06    -285.208E+06    -88.4296E+06     391.855E+03
             308     60.5296E-03     16.0947E-03     58.3506E-03     113.253E-03    -54.5446E-03    -58.7702E-03    -53.7090E-03     109.053E-03    -55.4053E-03     43.4582E-03     202.798E-03     162.486E+06     171.700E+06     128.940E+06    -7.84595E+06    -7.84297E+06     171.697E+06     128.940E+06    -169.804E+03
             309     60.2051E-03     15.1463E-03     58.2687E-03     114.533E-03    -55.3312E-03    -59.2423E-03    -53.8236E-03     109.114E-03    -55.3312E-03     58.4094E-03     223.370E-03     160.710E+06     165.523E+06     107.470E+06    -15.7536E+06    -15.7483E+06     165.518E+06     107.470E+06    -514.418E+03
             310     59.9273E-03     14.1999E-03     58.2206E-03     112.359E-03    -55.1757E-03    -57.2859E-03    -53.7772E-03     108.850E-03    -55.1757E-03     47.9395E-03     206.080E-03     157.294E+06     157.411E+06     65.3436E+06    -22.1909E+06    -22.1865E+06     157.406E+06     65.3436E+06    -499.882E+03
             311     59.6535E-03     13.2522E-03     58.1629E-03     112.155E-03    -55.0507E-03    -57.1972E-03    -53.8344E-03     108.792E-03    -55.0507E-03     46.7384E-03     205.735E-03     143.207E+06     134.602E+06     23.4314E+06    -26.6589E+06    -26.6552E+06     134.598E+06     23.4314E+06     90.4417E+03
             312     59.4075E-03     12.3042E-03     58.1193E-03     110.876E-03    -55.1142E-03    -55.8271E-03    -53.9625E-03     109.011E-03    -55.1142E-03     34.7340E-03     191.347E-03     85.5230E+06     64.9967E+06     5.72727E+06    -29.8892E+06    -29.8830E+06     64.9905E+06     5.72727E+06     677.337E+03
             313     59.1877E-03     11.3572E-03     58.0879E-03     110.601E-03    -55.1961E-03    -55.4428E-03    -54.2227E-03     109.477E-03    -55.2924E-03     27.0594E-03     176.402E-03     43.0396E+06     8.25153E+06    -15.4083E+06    -39.6033E+06    -33.1909E+06    -15.9091E+06     2.33995E+06     589.176E+03
             314     58.9873E-03     10.4102E-03     58.0615E-03     110.601E-03    -55.2129E-03    -55.4296E-03    -54.5133E-03     109.881E-03    -55.4096E-03     21.6523E-03     162.714E-03     63.3639E+06     1.18309E+06    -36.6512E+06    -70.9029E+06    -36.6686E+06    -70.8856E+06     1.18309E+06     408.904E+03
             315     58.8073E-03     9.46372E-03     58.0408E-03     110.739E-03    -55.2618E-03    -55.5035E-03    -54.7558E-03     110.234E-03    -55.5035E-03     18.2801E-03     151.946E-03     97.7560E+06     654.112E+03    -40.4087E+06    -110.804E+06    -40.4100E+06    -110.803E+06     654.112E+03     270.898E+03
             316     58.6439E-03     8.51675E-03     58.0222E-03     110.816E-03    -55.2725E-03    -55.5580E-03    -54.8818E-03     110.425E-03    -55.5580E-03     16.0308E-03     143.050E-03     123.580E+06    -3.25674E+06    -45.0544E+06    -142.258E+06    -45.0553E+06    -142.257E+06    -3.25674E+06     260.471E+03
             317     58.4981E-03     7.57066E-03     58.0062E-03     110.895E-03    -55.3035E-03    -55.6100E-03    -55.0196E-03     110.611E-03    -55.6100E-03     13.6927E-03     135.422E-03     145.805E+06    -8.11180E+06    -49.9659E+06    -170.242E+06    -49.9671E+06    -170.241E+06    -8.11180E+06     336.354E+03
             318     58.3697E-03     6.62372E-03     57.9926E-03     110.936E-03    -55.2967E-03    -55.6509E-03    -55.0828E-03     110.722E-03    -55.6509E-03     11.8865E-03     129.155E-03     167.264E+06    -13.8450E+06    -55.3678E+06    -197.934E+06     -55.369E+06    -197.933E+06    -13.8450E+06     163.290E+03
             319     58.2577E-03     5.67743E-03     57.9804E-03     111.024E-03    -55.3406E-03    -55.6885E-03    -55.1823E-03     110.866E-03    -55.6885E-03     10.2248E-03     124.106E-03     189.662E+06    -21.5559E+06    -61.9023E+06    -228.125E+06    -61.9033E+06    -228.123E+06    -21.5559E+06     205.535E+03
             320     58.1630E-03     4.73107E-03     57.9703E-03     111.099E-03    -55.4011E-03    -55.7161E-03    -55.2905E-03     110.989E-03    -55.7161E-03     8.53430E-03     120.105E-03     202.898E+06    -31.9101E+06    -68.7112E+06    -250.670E+06    -68.7127E+06    -250.669E+06    -31.9101E+06     383.469E+03
             321     58.0856E-03     3.78466E-03     57.9622E-03     111.066E-03    -55.3873E-03    -55.7006E-03    -55.3136E-03     110.992E-03    -55.7006E-03     6.96949E-03     116.857E-03     203.737E+06    -46.1959E+06    -75.8988E+06    -263.118E+06    -75.8997E+06    -263.117E+06    -46.1959E+06     47.4701E+03
             322     58.0249E-03     2.83816E-03     57.9554E-03     111.150E-03    -55.4834E-03    -55.6800E-03    -55.4395E-03     111.106E-03    -55.6800E-03     5.32698E-03     114.622E-03     201.508E+06    -63.3121E+06    -83.0430E+06    -273.894E+06    -83.0433E+06    -273.894E+06    -63.3121E+06    -106.605E+03
             323     57.9815E-03     1.89228E-03     57.9506E-03     111.248E-03    -55.5858E-03    -55.6693E-03    -55.5998E-03     111.228E-03    -55.6349E-03     3.62210E-03     113.138E-03     198.914E+06    -78.5313E+06    -88.8757E+06    -282.391E+06    -88.8768E+06    -282.390E+06    -78.5313E+06    -199.379E+03
             324     57.9549E-03     946.394E-06     57.9472E-03     111.145E-03    -55.4530E-03    -55.6944E-03    -55.6801E-03     111.137E-03    -55.4598E-03     2.11276E-03     112.155E-03     194.416E+06    -89.3973E+06    -92.9686E+06    -285.556E+06    -92.9697E+06    -285.555E+06    -89.3973E+06    -209.726E+03
             325     59.4543E-03     16.0938E-03     57.2347E-03     113.323E-03    -54.3897E-03    -58.9908E-03    -53.7286E-03     109.076E-03    -55.4044E-03     43.6907E-03     202.844E-03     162.693E+06     171.696E+06     129.034E+06    -8.03275E+06    -8.03106E+06     171.694E+06     129.034E+06    -161.834E+03
             326     59.1244E-03     15.1476E-03     57.1511E-03     114.623E-03    -55.3288E-03    -59.3326E-03    -53.8528E-03     109.143E-03    -55.3288E-03     58.7770E-03     223.338E-03     161.602E+06     166.211E+06     107.309E+06    -16.1450E+06    -16.1383E+06     166.204E+06     107.309E+06    -216.754E+03
             327     58.8446E-03     14.1990E-03     57.1058E-03     112.201E-03    -55.1779E-03    -57.1276E-03    -53.5333E-03     108.607E-03    -55.1779E-03     48.4321E-03     205.832E-03     158.318E+06     157.326E+06     64.1449E+06    -23.5002E+06    -23.4944E+06     157.320E+06     64.1449E+06    -164.799E+03
             328     58.5649E-03     13.2512E-03     57.0461E-03     112.168E-03    -55.0623E-03    -57.2194E-03    -53.8083E-03     108.756E-03    -55.0623E-03     46.9702E-03     205.788E-03     143.720E+06     133.467E+06     22.0129E+06    -28.4355E+06    -28.4342E+06     133.466E+06     22.0129E+06    -159.532E+03
             329     58.3167E-03     12.3046E-03     57.0038E-03     110.968E-03    -55.1248E-03    -55.9158E-03    -54.0814E-03     109.133E-03    -55.1248E-03     34.4896E-03     191.588E-03     86.2384E+06     64.4121E+06     5.07008E+06    -31.3292E+06    -31.3255E+06     64.4084E+06     5.07008E+06     211.324E+03
             330     58.0924E-03     11.3573E-03     56.9714E-03     110.757E-03    -55.2929E-03    -55.4901E-03    -54.3845E-03     109.651E-03    -55.2929E-03     26.8478E-03     176.642E-03     43.0497E+06     8.44318E+06    -15.5329E+06    -39.1571E+06    -33.6677E+06    -15.1325E+06     2.55329E+06     623.827E+03
             331     57.8891E-03     10.4107E-03     56.9453E-03     110.625E-03    -55.2261E-03    -55.4315E-03    -54.5503E-03     109.918E-03    -55.4005E-03     21.4837E-03     162.742E-03     63.2615E+06     1.51360E+06    -36.7939E+06    -70.2351E+06    -36.8288E+06    -70.2002E+06     1.51360E+06     584.844E+03
             332     57.7059E-03     9.46352E-03     56.9247E-03     110.640E-03    -55.1597E-03    -55.4949E-03    -54.6544E-03     110.135E-03    -55.4949E-03     18.2534E-03     151.816E-03     97.5300E+06     624.155E+03    -40.9195E+06    -110.686E+06    -40.9221E+06    -110.683E+06     624.155E+03     407.332E+03
             333     57.5397E-03     8.51721E-03     56.9058E-03     110.793E-03    -55.2426E-03    -55.5547E-03    -54.8478E-03     110.398E-03    -55.5547E-03     16.1250E-03     142.997E-03     123.071E+06    -3.49171E+06    -45.2945E+06    -141.936E+06    -45.2961E+06    -141.934E+06    -3.49171E+06     270.940E+03
             334     57.3915E-03     7.57017E-03     56.8900E-03     110.923E-03    -55.3311E-03    -55.6065E-03    -55.0430E-03     110.635E-03    -55.6065E-03     13.7824E-03     135.433E-03     145.662E+06    -8.41584E+06    -50.1362E+06    -170.370E+06    -50.1364E+06    -170.369E+06    -8.41584E+06     61.6991E+03
             335     57.2606E-03     6.62412E-03     56.8762E-03     110.988E-03    -55.3508E-03    -55.6444E-03    -55.1387E-03     110.776E-03    -55.6444E-03     11.8425E-03     129.217E-03     167.419E+06    -13.4048E+06    -55.4617E+06    -197.818E+06    -55.4628E+06    -197.817E+06    -13.4048E+06     262.253E+03
             336     57.1471E-03     5.67751E-03     56.8643E-03     110.968E-03    -55.2906E-03    -55.6829E-03    -55.1327E-03     110.810E-03    -55.6829E-03     10.2073E-03     124.067E-03     190.006E+06    -20.9334E+06    -61.7258E+06    -227.999E+06    -61.7272E+06    -227.997E+06    -20.9334E+06     257.322E+03
             337     57.0505E-03     4.73089E-03     56.8540E-03     111.035E-03    -55.3338E-03    -55.7162E-03    -55.2225E-03     110.923E-03    -55.7162E-03     8.56352E-03     120.051E-03     202.508E+06    -32.1755E+06    -68.9863E+06    -250.543E+06    -68.9868E+06    -250.543E+06    -32.1755E+06     41.0830E+03
             338     56.9717E-03     3.78455E-03     56.8458E-03     111.122E-03    -55.4433E-03    -55.6999E-03    -55.3713E-03     111.050E-03    -55.6999E-03     6.86724E-03     116.926E-03     202.976E+06    -46.5258E+06    -76.3831E+06    -262.747E+06    -76.3836E+06    -262.746E+06    -46.5258E+06    -89.4774E+03
             339     56.9100E-03     2.83857E-03     56.8392E-03     111.174E-03    -55.5229E-03    -55.6650E-03    -55.4790E-03     111.130E-03    -55.6649E-03     5.37116E-03     114.642E-03     201.281E+06    -63.1745E+06    -83.5241E+06    -273.793E+06    -83.5251E+06    -273.793E+06    -63.1745E+06     16.8950E+03
             340     56.8654E-03     1.89228E-03     56.8339E-03     111.182E-03    -55.5597E-03    -55.6267E-03    -55.5529E-03     111.160E-03    -55.6115E-03     3.66849E-03     113.065E-03     198.014E+06    -79.2281E+06    -89.7836E+06    -282.275E+06    -89.7855E+06    -282.273E+06    -79.2281E+06    -238.563E+03
             341     56.8393E-03     945.921E-06     56.8314E-03     111.101E-03    -55.3840E-03    -55.7209E-03    -55.7078E-03     111.095E-03    -55.3907E-03     1.92916E-03     112.130E-03     193.855E+06    -90.9459E+06    -94.4427E+06    -286.508E+06    -94.4472E+06    -286.504E+06    -90.9459E+06    -748.450E+03
             342     58.3807E-03     16.0947E-03     56.1183E-03     113.140E-03    -54.3708E-03    -58.8423E-03    -53.4366E-03     108.766E-03    -55.4021E-03     44.0751E-03     202.486E-03     162.227E+06     171.513E+06     129.061E+06    -7.67376E+06    -7.66949E+06     171.509E+06     129.061E+06     27.3199E+03
             343     58.0452E-03     15.1458E-03     56.0344E-03     114.502E-03    -55.3481E-03    -59.2095E-03    -53.6726E-03     108.966E-03    -55.3481E-03     58.6974E-03     223.301E-03     161.378E+06     165.958E+06     107.989E+06    -16.0155E+06    -16.0090E+06     165.952E+06     107.989E+06     342.405E+03
             344     57.7628E-03     14.1989E-03     55.9905E-03     112.366E-03    -55.2000E-03    -57.2519E-03    -53.7242E-03     108.838E-03    -55.2000E-03     47.9363E-03     206.129E-03     158.870E+06     157.996E+06     65.5342E+06    -23.3944E+06    -23.3909E+06     157.993E+06     65.5342E+06     213.156E+03
             345     57.4776E-03     13.2518E-03     55.9291E-03     112.217E-03    -55.0704E-03    -57.2583E-03    -53.8778E-03     108.837E-03    -55.0704E-03     46.7195E-03     205.853E-03     143.423E+06     133.518E+06     22.8449E+06    -28.2117E+06    -28.2106E+06     133.517E+06     22.8449E+06    -103.528E+03
             346     57.2264E-03     12.3041E-03     55.8880E-03     111.014E-03    -55.1261E-03    -55.9686E-03    -54.1488E-03     109.194E-03    -55.1261E-03     34.4360E-03     191.664E-03     85.8507E+06     63.9789E+06     4.91955E+06    -31.5502E+06    -31.5494E+06     63.9782E+06     4.91955E+06     28.0112E+03
             347     56.9976E-03     11.3576E-03     55.8546E-03     110.831E-03    -55.2782E-03    -55.5841E-03    -54.4513E-03     109.708E-03    -55.2877E-03     27.0422E-03     176.651E-03     43.7150E+06     8.74647E+06    -16.0150E+06    -39.7314E+06    -34.1666E+06    -15.0746E+06     2.24131E+06     140.813E+03
             348     56.7919E-03     10.4106E-03     55.8296E-03     110.582E-03    -55.2136E-03    -55.4045E-03    -54.5162E-03     109.874E-03    -55.3935E-03     21.5255E-03     162.688E-03     63.1786E+06     1.54286E+06    -36.9098E+06    -70.1157E+06    -36.9385E+06    -70.0870E+06     1.54286E+06     370.444E+03
             349     56.6051E-03     9.46399E-03     55.8083E-03     110.622E-03    -55.1460E-03    -55.4903E-03    -54.6290E-03     110.105E-03    -55.4903E-03     18.4615E-03     151.762E-03     97.5417E+06     928.207E+03    -40.6752E+06    -110.395E+06    -40.6794E+06    -110.391E+06     928.207E+03     447.446E+03
             350     56.4362E-03     8.51671E-03     55.7899E-03     110.782E-03    -55.2334E-03    -55.5537E-03    -54.8359E-03     110.385E-03    -55.5537E-03     16.1693E-03     142.984E-03     122.956E+06    -3.06535E+06    -45.0418E+06    -141.436E+06    -45.0431E+06    -141.435E+06    -3.06535E+06     226.279E+03
             351     56.2849E-03     7.57057E-03     55.7735E-03     110.896E-03    -55.3058E-03    -55.6071E-03    -55.0182E-03     110.608E-03    -55.6071E-03     13.7741E-03     135.396E-03     145.721E+06    -8.23208E+06    -50.1308E+06    -170.292E+06    -50.1313E+06    -170.291E+06    -8.23208E+06     134.524E+03
             352     56.1521E-03     6.62385E-03     55.7600E-03     110.976E-03    -55.3347E-03    -55.6491E-03    -55.1206E-03     110.762E-03    -55.6491E-03     11.8966E-03     129.216E-03     167.690E+06    -13.0897E+06    -55.9242E+06    -198.027E+06    -55.9253E+06    -198.026E+06    -13.0897E+06     256.507E+03
             353     56.0365E-03     5.67749E-03     55.7481E-03     111.040E-03    -55.3656E-03    -55.6830E-03    -55.2088E-03     110.884E-03    -55.6830E-03     10.1727E-03     124.161E-03     189.483E+06    -20.3815E+06    -62.3299E+06    -227.294E+06    -62.3310E+06    -227.293E+06    -20.3815E+06     136.496E+03
             354     55.9386E-03     4.73110E-03     55.7382E-03     111.054E-03    -55.3698E-03    -55.6995E-03    -55.2600E-03     110.945E-03    -55.6995E-03     8.51434E-03     120.076E-03     201.798E+06    -32.6475E+06    -69.5746E+06    -250.326E+06    -69.5749E+06    -250.326E+06    -32.6475E+06    -7.94489E+03
             355     55.8576E-03     3.78475E-03     55.7292E-03     111.065E-03    -55.4116E-03    -55.6727E-03    -55.3385E-03     110.992E-03    -55.6727E-03     6.92459E-03     116.888E-03     201.835E+06    -48.3381E+06    -76.8336E+06    -262.869E+06    -76.8340E+06    -262.869E+06    -48.3381E+06    -115.156E+03
             356     55.7952E-03     2.83840E-03     55.7230E-03     111.137E-03    -55.5046E-03    -55.6460E-03    -55.4671E-03     111.092E-03    -55.6391E-03     5.38908E-03     114.630E-03     200.407E+06    -64.2782E+06    -83.4207E+06    -273.522E+06    -83.4219E+06    -273.520E+06    -64.2782E+06    -139.488E+03
             357     55.7497E-03     1.89219E-03     55.7175E-03     111.136E-03    -55.5199E-03    -55.6201E-03    -55.5204E-03     111.115E-03    -55.5980E-03     3.63193E-03     113.001E-03     198.227E+06    -78.6434E+06    -88.8606E+06    -281.747E+06    -88.8619E+06    -281.746E+06    -78.6434E+06    -101.547E+03
             358     55.7229E-03     946.462E-06     55.7149E-03     111.100E-03    -55.3366E-03    -55.7679E-03    -55.7288E-03     111.094E-03    -55.3697E-03     1.82732E-03     112.093E-03     196.052E+06    -89.6789E+06    -93.4438E+06    -287.574E+06    -92.8560E+06    -287.570E+06    -90.2708E+06    -361.732E+03
             359     57.3099E-03     16.0942E-03     55.0036E-03     113.250E-03    -54.4415E-03    -58.8449E-03    -53.5230E-03     108.885E-03    -55.3983E-03     43.8774E-03     202.451E-03     162.178E+06     171.046E+06     129.032E+06    -7.96920E+06    -7.96614E+06     171.043E+06     129.032E+06     343.746E+03
             360     56.9685E-03     15.1465E-03     54.9180E-03     114.459E-03    -55.3458E-03    -59.1467E-03    -53.6479E-03     108.961E-03    -55.3458E-03     58.3943E-03     223.256E-03     160.903E+06     165.647E+06     108.002E+06    -15.6998E+06    -15.6970E+06     165.644E+06     108.002E+06     340.454E+03
             361     56.6806E-03     14.1993E-03     54.8732E-03     112.349E-03    -55.1989E-03    -57.2127E-03    -53.7389E-03     108.875E-03    -55.1989E-03     47.5433E-03     206.266E-03     158.575E+06     158.485E+06     65.5883E+06    -22.5480E+06    -22.5472E+06     158.484E+06     65.5883E+06     106.219E+03
             362     56.3930E-03     13.2516E-03     54.8139E-03     112.185E-03    -55.0669E-03    -57.2232E-03    -53.8472E-03     108.809E-03    -55.0669E-03     46.7217E-03     205.805E-03     143.366E+06     133.774E+06     22.7582E+06    -27.7993E+06    -27.7958E+06     133.771E+06     22.7582E+06     614.224E+03
             363     56.1363E-03     12.3046E-03     54.7711E-03     110.942E-03    -55.1280E-03    -55.8913E-03    -54.0414E-03     109.092E-03    -55.1280E-03     34.7088E-03     191.502E-03     85.9982E+06     64.6225E+06     5.15667E+06    -31.1075E+06    -31.0993E+06     64.6143E+06     5.15667E+06     193.986E+03
             364     55.9045E-03     11.3573E-03     54.7387E-03     110.808E-03    -55.2779E-03    -55.5616E-03    -54.4117E-03     109.676E-03    -55.2952E-03     27.1136E-03     176.607E-03     43.9371E+06     8.71826E+06    -16.2455E+06    -40.1566E+06    -34.2175E+06    -15.4582E+06     1.99190E+06    -233.178E+03
             365     55.6946E-03     10.4106E-03     54.7130E-03     110.618E-03    -55.2538E-03    -55.4004E-03    -54.5473E-03     109.912E-03    -55.4004E-03     21.5168E-03     162.741E-03     63.1653E+06     1.09318E+06    -37.4335E+06    -70.6522E+06    -37.4483E+06    -70.6374E+06     1.09318E+06    -34.0442E+03
             366     55.5055E-03     9.46349E-03     54.6928E-03     110.739E-03    -55.2689E-03    -55.4903E-03    -54.7454E-03     110.216E-03    -55.4903E-03     18.5858E-03     151.856E-03     97.2036E+06     1.03843E+06    -40.8326E+06    -109.959E+06    -40.8387E+06    -109.953E+06     1.03843E+06     194.718E+03
             367     55.3326E-03     8.51733E-03     54.6731E-03     110.820E-03    -55.2842E-03    -55.5483E-03    -54.8883E-03     110.424E-03    -55.5483E-03     16.1348E-03     143.008E-03     122.960E+06    -2.81421E+06    -45.2242E+06    -141.287E+06    -45.2264E+06    -141.285E+06    -2.81421E+06     387.557E+03
             368     55.1794E-03     7.57037E-03     54.6576E-03     110.811E-03    -55.2292E-03    -55.6024E-03    -54.9450E-03     110.527E-03    -55.6024E-03     13.6891E-03     135.331E-03     145.938E+06    -8.08930E+06    -50.2569E+06    -170.444E+06    -50.2578E+06    -170.443E+06    -8.08930E+06     304.666E+03
             369     55.0435E-03     6.62381E-03     54.6435E-03     110.917E-03    -55.2767E-03    -55.6487E-03    -55.0647E-03     110.705E-03    -55.6487E-03     11.8306E-03     129.179E-03     167.621E+06    -13.3020E+06    -56.0536E+06    -198.143E+06    -56.0539E+06    -198.142E+06    -13.3020E+06     38.1858E+03
             370     54.9261E-03     5.67738E-03     54.6319E-03     111.083E-03    -55.4052E-03    -55.6850E-03    -55.2481E-03     110.926E-03    -55.6850E-03     10.1933E-03     124.186E-03     189.050E+06    -20.4140E+06    -62.5687E+06    -226.960E+06    -62.5692E+06    -226.959E+06    -20.4140E+06     81.8204E+03
             371     54.8262E-03     4.73132E-03     54.6216E-03     111.118E-03    -55.4407E-03    -55.6938E-03    -55.3286E-03     111.006E-03    -55.6938E-03     8.59891E-03     120.122E-03     201.621E+06    -32.0824E+06    -69.5163E+06    -249.761E+06    -69.5167E+06    -249.761E+06    -32.0824E+06     115.428E+03
             372     54.7446E-03     3.78473E-03     54.6137E-03     111.052E-03    -55.4155E-03    -55.6553E-03    -55.3398E-03     110.977E-03    -55.6553E-03     7.06262E-03     116.861E-03     201.667E+06    -48.2753E+06    -76.9350E+06    -262.699E+06    -76.9355E+06    -262.698E+06    -48.2753E+06     60.4880E+03
             373     54.6799E-03     2.83850E-03     54.6062E-03     111.095E-03    -55.4922E-03    -55.6162E-03    -55.4547E-03     111.051E-03    -55.6093E-03     5.35104E-03     114.612E-03     199.112E+06    -65.8389E+06    -83.8828E+06    -273.296E+06    -83.8839E+06    -273.295E+06    -65.8389E+06    -162.376E+03
             374     54.6346E-03     1.89254E-03     54.6018E-03     111.052E-03    -55.4713E-03    -55.5859E-03    -55.4579E-03     111.032E-03    -55.5789E-03     3.60021E-03     112.951E-03     197.569E+06    -80.6577E+06    -89.0229E+06    -282.245E+06    -89.0238E+06    -282.244E+06    -80.6577E+06    -346.276E+03
             375     54.6065E-03     945.776E-06     54.5983E-03     111.125E-03    -55.4016E-03    -55.7276E-03    -55.5559E-03     111.118E-03    -55.5660E-03     2.03223E-03     112.088E-03     197.004E+06    -88.9008E+06    -92.1975E+06    -287.526E+06    -91.6064E+06    -287.525E+06    -89.4926E+06     84.7330E+03
             376     56.2390E-03     16.0946E-03     53.8868E-03     113.460E-03    -54.5701E-03    -58.9113E-03    -53.7736E-03     109.145E-03    -55.3934E-03     43.7933E-03     202.755E-03     161.097E+06     170.690E+06     128.788E+06    -7.19643E+06    -7.19432E+06     170.688E+06     128.788E+06    -128.275E+03
             377     55.8937E-03     15.1473E-03     53.8021E-03     114.429E-03    -55.3294E-03    -59.1116E-03    -53.5950E-03     108.912E-03    -55.3294E-03     58.7417E-03     223.110E-03     159.415E+06     164.841E+06     107.000E+06    -14.8996E+06    -14.8848E+06     164.827E+06     107.000E+06     883.274E+03
             378     55.6010E-03     14.1988E-03     53.7574E-03     112.157E-03    -55.1899E-03    -57.0474E-03    -53.5322E-03     108.642E-03    -55.1899E-03     47.8811E-03     206.039E-03     158.576E+06     158.447E+06     64.7632E+06    -22.7666E+06    -22.7466E+06     158.427E+06     64.7632E+06     1.38065E+06
             379     55.3082E-03     13.2518E-03     53.6972E-03     112.190E-03    -55.0681E-03    -57.2260E-03    -53.8673E-03     108.832E-03    -55.0681E-03     46.6464E-03     205.919E-03     144.297E+06     134.575E+06     23.1392E+06    -28.1323E+06    -28.1183E+06     134.561E+06     23.1392E+06     487.807E+03
             380     55.0486E-03     12.3040E-03     53.6560E-03     110.945E-03    -55.1280E-03    -55.8888E-03    -54.0341E-03     109.090E-03    -55.1280E-03     34.7302E-03     191.409E-03     86.4977E+06     65.3202E+06     5.38225E+06    -31.0280E+06    -31.0112E+06     65.3033E+06     5.38225E+06    -187.567E+03
             381     54.8110E-03     11.3572E-03     53.6215E-03     110.703E-03    -55.2372E-03    -55.4976E-03    -54.3133E-03     109.583E-03    -55.3015E-03     26.9451E-03     176.586E-03     43.9513E+06     8.82709E+06    -16.1694E+06    -40.1385E+06    -33.8695E+06    -15.7693E+06     2.15801E+06    -178.447E+03
             382     54.5993E-03     10.4103E-03     53.5976E-03     110.712E-03    -55.2906E-03    -55.4639E-03    -54.6462E-03     110.011E-03    -55.4069E-03     21.4527E-03     162.921E-03     63.3428E+06     1.21764E+06    -37.3599E+06    -70.7893E+06    -37.3831E+06    -70.7660E+06     1.21764E+06    -177.778E+03
             383     54.4051E-03     9.46396E-03     53.5757E-03     110.829E-03    -55.3096E-03    -55.5429E-03    -54.8506E-03     110.313E-03    -55.4858E-03     18.4591E-03     151.906E-03     97.1925E+06     860.107E+03    -41.1106E+06    -110.142E+06    -41.1157E+06    -110.137E+06     860.107E+03     45.7024E+03
             384     54.2303E-03     8.51701E-03     53.5573E-03     110.769E-03    -55.2364E-03    -55.5424E-03    -54.8426E-03     110.375E-03    -55.5424E-03     16.1033E-03     142.952E-03     123.042E+06    -2.70317E+06    -45.3322E+06    -141.312E+06    -45.3345E+06    -141.310E+06    -2.70317E+06     274.690E+03
             385     54.0737E-03     7.57064E-03     53.5411E-03     110.809E-03    -55.2304E-03    -55.5963E-03    -54.9423E-03     110.521E-03    -55.5963E-03     13.7756E-03     135.324E-03     145.632E+06    -7.98786E+06    -50.1520E+06    -170.023E+06    -50.1527E+06    -170.022E+06    -7.98786E+06     189.509E+03
             386     53.9360E-03     6.62406E-03     53.5277E-03     110.898E-03    -55.2639E-03    -55.6411E-03    -55.0494E-03     110.683E-03    -55.6411E-03     11.9068E-03     129.135E-03     167.380E+06    -13.4676E+06    -55.5918E+06    -197.865E+06    -55.5921E+06    -197.865E+06    -13.4676E+06    -20.4433E+03
             387     53.8158E-03     5.67744E-03     53.5155E-03     111.019E-03    -55.3427E-03    -55.6871E-03    -55.1841E-03     110.860E-03    -55.6871E-03     10.2271E-03     124.099E-03     189.435E+06    -20.5740E+06    -61.9623E+06    -227.263E+06    -61.9632E+06    -227.262E+06    -20.5740E+06    -28.1965E+03
             388     53.7142E-03     4.73082E-03     53.5055E-03     111.150E-03    -55.4640E-03    -55.7046E-03    -55.3537E-03     111.040E-03    -55.7046E-03     8.52892E-03     120.164E-03     202.201E+06    -31.3626E+06    -69.1565E+06    -249.770E+06    -69.1576E+06    -249.769E+06    -31.3626E+06     73.8688E+03
             389     53.6308E-03     3.78493E-03     53.4971E-03     111.120E-03    -55.4843E-03    -55.6552E-03    -55.4085E-03     111.045E-03    -55.6552E-03     7.07748E-03     116.907E-03     201.837E+06    -47.2126E+06    -76.7367E+06    -262.141E+06    -76.7375E+06    -262.140E+06    -47.2126E+06     269.529E+03
             390     53.5655E-03     2.83863E-03     53.4903E-03     111.031E-03    -55.4381E-03    -55.6090E-03    -55.3920E-03     110.985E-03    -55.6090E-03     5.45830E-03     114.520E-03     199.229E+06    -65.0255E+06    -83.3156E+06    -272.698E+06    -83.3165E+06    -272.697E+06    -65.0255E+06         453.945
             391     53.5188E-03     1.89217E-03     53.4853E-03     111.053E-03    -55.4580E-03    -55.6005E-03    -55.4370E-03     111.032E-03    -55.6005E-03     3.64052E-03     112.949E-03     198.408E+06    -79.6740E+06    -88.5846E+06    -282.359E+06    -88.5853E+06    -282.358E+06    -79.6740E+06    -364.913E+03
             392     53.4912E-03     946.294E-06     53.4828E-03     111.173E-03    -55.4472E-03    -55.7259E-03    -55.5868E-03     111.165E-03    -55.5789E-03     2.12071E-03     112.154E-03     197.227E+06    -89.3702E+06    -92.9055E+06    -288.322E+06    -92.6571E+06    -288.321E+06    -89.6198E+06     52.9730E+03
             393     55.1691E-03     16.0947E-03     52.7692E-03     113.252E-03    -54.5562E-03    -58.7802E-03    -53.6862E-03     108.992E-03    -55.3903E-03     43.7533E-03     202.784E-03     162.065E+06     170.083E+06     127.834E+06    -8.90927E+06    -8.90699E+06     170.080E+06     127.834E+06    -291.306E+03
             394     54.8213E-03     15.1464E-03     52.6874E-03     114.415E-03    -55.3249E-03    -59.1456E-03    -53.6622E-03     108.932E-03    -55.3249E-03     58.6862E-03     223.157E-03     159.697E+06     162.865E+06     105.980E+06    -17.0066E+06    -16.9904E+06     162.849E+06     105.980E+06     938.764E+03
             395     54.5217E-03     14.1993E-03     52.6402E-03     112.244E-03    -55.1849E-03    -57.1490E-03    -53.6556E-03     108.751E-03    -55.1849E-03     47.8273E-03     206.049E-03     158.854E+06     158.805E+06     65.6539E+06    -22.6073E+06    -22.5863E+06     158.784E+06     65.6539E+06     1.52559E+06
             396     54.2262E-03     13.2513E-03     52.5821E-03     112.117E-03    -55.0641E-03    -57.1525E-03    -53.8486E-03     108.813E-03    -55.0641E-03     46.2909E-03     205.913E-03     144.405E+06     136.327E+06     24.5610E+06    -26.4120E+06    -26.3981E+06     136.313E+06     24.5610E+06     331.254E+03
             397     53.9600E-03     12.3048E-03     52.5383E-03     110.885E-03    -55.1221E-03    -55.8349E-03    -53.9881E-03     109.038E-03    -55.1221E-03     34.6378E-03     191.340E-03     86.0546E+06     65.8205E+06     5.86875E+06    -29.9506E+06    -29.9381E+06     65.8079E+06     5.86875E+06     8.21881E+03
             398     53.7212E-03     11.3574E-03     52.5070E-03     110.694E-03    -55.2400E-03    -55.4970E-03    -54.3174E-03     109.571E-03    -55.2966E-03     27.0095E-03     176.595E-03     43.7923E+06     8.84169E+06    -16.0027E+06    -40.0183E+06    -33.5119E+06    -15.8747E+06     2.20727E+06    -72.8744E+03
             399     53.5025E-03     10.4102E-03     52.4800E-03     110.706E-03    -55.2441E-03    -55.5043E-03    -54.6355E-03     109.998E-03    -55.4047E-03     21.5400E-03     162.859E-03     63.3534E+06     1.66126E+06    -36.9064E+06    -70.4324E+06    -36.9244E+06    -70.4144E+06     1.66126E+06    -21.0652E+03
             400     53.3069E-03     9.46396E-03     52.4600E-03     110.767E-03    -55.2453E-03    -55.5437E-03    -54.7854E-03     110.250E-03    -55.4866E-03     18.4748E-03     151.849E-03     97.1937E+06     761.374E+03    -40.9193E+06    -110.175E+06    -40.9210E+06    -110.173E+06     761.374E+03     128.263E+03
             401     53.1281E-03     8.51722E-03     52.4409E-03     110.780E-03    -55.2444E-03    -55.5444E-03    -54.8440E-03     110.380E-03    -55.5444E-03     16.2356E-03     142.994E-03     122.982E+06    -3.20993E+06    -45.1802E+06    -141.613E+06    -45.1811E+06    -141.612E+06    -3.20993E+06    -73.1946E+03
             402     52.9688E-03     7.57042E-03     52.4250E-03     110.839E-03    -55.2578E-03    -55.5962E-03    -54.9673E-03     110.549E-03    -55.5962E-03     13.8326E-03     135.332E-03     145.353E+06    -8.17015E+06    -49.8860E+06    -169.794E+06    -49.8868E+06    -169.794E+06    -8.17015E+06     4.26201E+03
             403     52.8282E-03     6.62385E-03     52.4113E-03     110.919E-03    -55.2881E-03    -55.6399E-03    -55.0720E-03     110.703E-03    -55.6399E-03     11.9554E-03     129.130E-03     166.992E+06    -13.4954E+06    -55.6312E+06    -197.503E+06    -55.6314E+06    -197.503E+06    -13.4954E+06     36.6014E+03
             404     52.7060E-03     5.67745E-03     52.3993E-03     111.023E-03    -55.3564E-03    -55.6830E-03    -55.1968E-03     110.864E-03    -55.6830E-03     10.2539E-03     124.110E-03     189.182E+06    -20.8832E+06    -62.1608E+06    -227.270E+06    -62.1615E+06    -227.270E+06    -20.8832E+06    -15.5111E+03
             405     52.6023E-03     4.73126E-03     52.3891E-03     111.110E-03    -55.4283E-03    -55.7012E-03    -55.3178E-03     110.999E-03    -55.7012E-03     8.54298E-03     120.138E-03     201.895E+06    -32.1465E+06    -69.5117E+06    -250.094E+06    -69.5125E+06    -250.094E+06    -32.1465E+06     72.2486E+03
             406     52.5174E-03     3.78470E-03     52.3808E-03     111.095E-03    -55.4499E-03    -55.6637E-03    -55.3745E-03     111.020E-03    -55.6637E-03     7.04421E-03     116.898E-03     201.505E+06    -47.0439E+06    -76.7350E+06    -261.709E+06    -76.7355E+06    -261.709E+06    -47.0439E+06     58.5218E+03
             407     52.4509E-03     2.83848E-03     52.3741E-03     111.067E-03    -55.4590E-03    -55.6256E-03    -55.4144E-03     111.023E-03    -55.6256E-03     5.36525E-03     114.543E-03     199.501E+06    -63.9536E+06    -83.3772E+06    -272.394E+06    -83.3776E+06    -272.394E+06    -63.9536E+06    -159.609E+03
             408     52.4034E-03     1.89223E-03     52.3692E-03     111.096E-03    -55.5061E-03    -55.5966E-03    -55.4856E-03     111.076E-03    -55.5966E-03     3.59486E-03     112.983E-03     198.136E+06    -79.3796E+06    -89.6810E+06    -282.436E+06    -89.6817E+06    -282.435E+06    -79.3796E+06    -53.4726E+03
             409     52.3744E-03     945.994E-06     52.3659E-03     111.117E-03    -55.3720E-03    -55.7433E-03    -55.7204E-03     111.109E-03    -55.3875E-03     2.13149E-03     112.131E-03     196.310E+06    -90.2062E+06    -94.2559E+06    -288.491E+06    -94.0090E+06    -288.489E+06    -90.4558E+06     15.0213E+03
             410     54.1034E-03     16.0944E-03     51.6542E-03     113.213E-03    -54.4155E-03    -58.8525E-03    -53.6069E-03     108.939E-03    -55.3871E-03     43.7183E-03     202.608E-03     161.425E+06     169.714E+06     127.654E+06    -8.56408E+06    -8.55944E+06     169.710E+06     127.654E+06     575.845E+03
             411     53.7486E-03     15.1471E-03     51.5701E-03     114.554E-03    -55.3222E-03    -59.2700E-03    -53.7922E-03     109.076E-03    -55.3222E-03     58.6239E-03     223.242E-03     158.869E+06     162.749E+06     106.209E+06    -16.1821E+06    -16.1719E+06     162.739E+06     106.209E+06    -10.8301E+03
             412     53.4456E-03     14.1992E-03     51.5249E-03     112.328E-03    -55.1803E-03    -57.2164E-03    -53.6948E-03     108.806E-03    -55.1803E-03     47.9701E-03     206.179E-03     158.369E+06     159.009E+06     66.1901E+06    -21.8451E+06    -21.8370E+06     159.001E+06     66.1901E+06    -46.1692E+03
             413     53.1439E-03     13.2526E-03     51.4650E-03     112.111E-03    -55.0608E-03    -57.1435E-03    -53.7872E-03     108.755E-03    -55.0608E-03     46.5997E-03     205.823E-03     144.660E+06     136.840E+06     24.7592E+06    -26.1399E+06    -26.1330E+06     136.833E+06     24.7592E+06     836.192E+03
             414     52.8753E-03     12.3041E-03     51.4238E-03     110.893E-03    -55.1200E-03    -55.8486E-03    -53.9880E-03     109.032E-03    -55.1200E-03     34.7890E-03     191.386E-03     86.1421E+06      66.043E+06     5.93489E+06    -29.7297E+06    -29.7217E+06     66.0350E+06     5.93489E+06     719.723E+03
             415     52.6294E-03     11.3571E-03     51.3894E-03     110.769E-03    -55.2868E-03    -55.5339E-03    -54.3900E-03     109.630E-03    -55.2916E-03     27.2030E-03     176.576E-03     43.1215E+06     8.70863E+06    -15.5940E+06    -39.3390E+06    -32.9512E+06    -15.6600E+06     2.38669E+06     209.227E+03
             416     52.4091E-03     10.4109E-03     51.3647E-03     110.627E-03    -55.2241E-03    -55.4422E-03    -54.5607E-03     109.921E-03    -55.3995E-03     21.4881E-03     162.693E-03     63.2094E+06     1.66328E+06    -36.6354E+06    -70.2550E+06    -36.6401E+06    -70.2504E+06     1.66328E+06     256.674E+03
             417     52.2080E-03     9.46330E-03     51.3432E-03     110.654E-03    -55.1843E-03    -55.4896E-03    -54.6710E-03     110.141E-03    -55.4896E-03     18.4011E-03     151.804E-03     97.0008E+06     669.981E+03    -40.5741E+06    -109.987E+06    -40.5751E+06    -109.986E+06     669.981E+03     31.5512E+03
             418     52.0267E-03     8.51697E-03     51.3249E-03     110.824E-03    -55.2833E-03    -55.5521E-03    -54.8845E-03     110.426E-03    -55.5521E-03     16.2036E-03     143.087E-03     123.108E+06    -3.29352E+06    -44.8382E+06    -141.733E+06    -44.8393E+06    -141.732E+06    -3.29352E+06    -131.279E+03
             419     51.8642E-03     7.57055E-03     51.3087E-03     110.911E-03    -55.3248E-03    -55.5999E-03    -55.0364E-03     110.623E-03    -55.5999E-03     13.7906E-03     135.417E-03     145.436E+06    -8.20073E+06    -50.0578E+06    -169.958E+06    -50.0584E+06    -169.957E+06    -8.20073E+06     14.3164E+03
             420     51.7211E-03     6.62400E-03     51.2952E-03     110.953E-03    -55.3194E-03    -55.6351E-03    -55.1074E-03     110.741E-03    -55.6351E-03     11.8331E-03     129.164E-03     166.749E+06    -13.4743E+06    -55.8501E+06    -197.302E+06    -55.8503E+06    -197.302E+06    -13.4743E+06     80.2500E+03
             421     51.5962E-03     5.67754E-03     51.2829E-03     110.980E-03    -55.3130E-03    -55.6780E-03    -55.1544E-03     110.821E-03    -55.6780E-03     10.2408E-03     124.071E-03     189.178E+06    -20.8762E+06    -62.2977E+06    -227.308E+06    -62.2980E+06    -227.308E+06    -20.8762E+06     98.2204E+03
             422     51.4908E-03     4.73095E-03     51.2730E-03     111.076E-03    -55.3911E-03    -55.7037E-03    -55.2767E-03     110.962E-03    -55.7037E-03     8.68858E-03     120.084E-03     201.695E+06    -32.3379E+06    -69.3230E+06    -249.938E+06    -69.3232E+06    -249.938E+06    -32.3379E+06     68.5337E+03
             423     51.4040E-03     3.78477E-03     51.2645E-03     111.119E-03    -55.4667E-03    -55.6692E-03    -55.3916E-03     111.044E-03    -55.6692E-03     7.01943E-03     116.926E-03     200.999E+06    -47.3837E+06    -76.9015E+06    -261.483E+06    -76.9018E+06    -261.483E+06    -47.3837E+06    -46.8178E+03
             424     51.3363E-03     2.83849E-03     51.2578E-03     111.127E-03    -55.5222E-03    -55.6202E-03    -55.4794E-03     111.084E-03    -55.6202E-03     5.26356E-03     114.608E-03     199.287E+06    -63.7616E+06    -84.0282E+06    -272.352E+06    -84.0286E+06    -272.351E+06    -63.7616E+06    -134.559E+03
             425     51.2879E-03     1.89250E-03     51.2529E-03     111.096E-03    -55.5246E-03    -55.5769E-03    -55.5236E-03     111.075E-03    -55.5576E-03     3.60108E-03     112.968E-03     198.464E+06    -79.3405E+06    -89.4332E+06    -282.615E+06    -89.4340E+06    -282.614E+06    -79.3405E+06    -77.6585E+03
             426     51.2586E-03     946.335E-06     51.2499E-03     111.004E-03    -55.3186E-03    -55.6856E-03    -55.6631E-03     110.996E-03    -55.3337E-03     2.02892E-03     111.998E-03     196.650E+06    -90.3089E+06    -93.8875E+06    -288.718E+06    -93.3396E+06    -288.716E+06    -90.8588E+06    -266.696E+03
             427     53.0389E-03     16.0946E-03     50.5380E-03     113.317E-03    -54.4719E-03    -58.9220E-03    -53.6600E-03     108.976E-03    -55.3922E-03     43.7998E-03     202.533E-03     160.248E+06     170.308E+06     128.201E+06    -6.76533E+06    -6.76130E+06     170.304E+06     128.201E+06     609.883E+03
             428     52.6783E-03     15.1465E-03     50.4538E-03     114.486E-03    -55.3332E-03    -59.2178E-03    -53.6696E-03     108.938E-03    -55.3332E-03     58.8991E-03     223.064E-03     158.670E+06     164.340E+06     106.817E+06    -14.5992E+06    -14.5902E+06     164.331E+06     106.817E+06     48.6711E+03
             429     52.3704E-03     14.1995E-03     50.4087E-03     112.257E-03    -55.2015E-03    -57.1352E-03    -53.5452E-03     108.667E-03    -55.2015E-03     48.3519E-03     206.053E-03     157.868E+06     158.467E+06     66.0652E+06    -22.0167E+06    -22.0089E+06     158.459E+06     66.0652E+06    -250.072E+03
             430     52.0637E-03     13.2507E-03     50.3493E-03     112.364E-03    -55.0783E-03    -57.3803E-03    -53.9596E-03     108.944E-03    -55.0783E-03     47.0208E-03     205.978E-03     144.473E+06     135.747E+06     24.3127E+06    -27.1032E+06    -27.0979E+06     135.742E+06     24.3127E+06     564.659E+03
             431     51.7899E-03     12.3047E-03     50.3070E-03     111.182E-03    -55.1196E-03    -56.1443E-03    -54.3098E-03     109.348E-03    -55.1196E-03     34.5999E-03     191.740E-03     86.4426E+06     65.9466E+06     5.69487E+06    -30.0925E+06    -30.0803E+06     65.9344E+06     5.69487E+06     926.858E+03
             432     51.5408E-03     11.3576E-03     50.2738E-03     110.711E-03    -55.1743E-03    -55.5832E-03    -54.3580E-03     109.594E-03    -55.2817E-03     26.9501E-03     176.511E-03      43.214E+06     9.01836E+06    -15.3187E+06    -39.0375E+06    -32.9521E+06    -15.1014E+06     2.71567E+06     774.856E+03
             433     51.3149E-03     10.4103E-03     50.2478E-03     110.516E-03    -55.1609E-03    -55.3920E-03    -54.4638E-03     109.819E-03    -55.3920E-03     21.3411E-03     162.672E-03     63.2971E+06     1.75614E+06    -36.4645E+06    -70.1736E+06    -36.4890E+06    -70.1492E+06     1.75614E+06     352.340E+03
             434     51.1118E-03     9.46429E-03     50.2279E-03     110.663E-03    -55.1969E-03    -55.4853E-03    -54.6860E-03     110.152E-03    -55.4853E-03     18.3608E-03     151.885E-03     97.2478E+06     1.02943E+06    -40.4785E+06    -109.962E+06    -40.4820E+06    -109.958E+06     1.02943E+06     120.288E+03
             435     50.9254E-03     8.51691E-03     50.2081E-03     110.763E-03    -55.2290E-03    -55.5493E-03    -54.8352E-03     110.370E-03    -55.5493E-03     16.0855E-03     142.999E-03     122.957E+06    -3.02154E+06    -45.0779E+06    -141.412E+06    -45.0810E+06    -141.409E+06    -3.02154E+06     160.588E+03
             436     50.7605E-03     7.57042E-03     50.1928E-03     110.901E-03    -55.3172E-03    -55.6001E-03    -55.0310E-03     110.614E-03    -55.6001E-03     13.7531E-03     135.377E-03     145.391E+06    -8.10359E+06    -50.0637E+06    -169.839E+06    -50.0638E+06    -169.839E+06    -8.10359E+06     47.5014E+03
             437     50.6138E-03     6.62412E-03     50.1785E-03     110.973E-03    -55.3402E-03    -55.6326E-03    -55.1263E-03     110.759E-03    -55.6326E-03     11.8831E-03     129.174E-03     166.857E+06    -13.3738E+06    -55.7173E+06    -197.304E+06    -55.7176E+06    -197.303E+06    -13.3738E+06    -24.1713E+03
             438     50.4876E-03     5.67755E-03     50.1673E-03     110.988E-03    -55.3231E-03    -55.6724E-03    -55.1665E-03     110.832E-03    -55.6724E-03     10.1734E-03     124.077E-03     189.154E+06    -20.5196E+06    -62.0394E+06    -226.961E+06    -62.0397E+06    -226.961E+06    -20.5196E+06    -20.7475E+03
             439     50.3792E-03     4.73105E-03     50.1565E-03     111.063E-03    -55.3816E-03    -55.6989E-03    -55.2690E-03     110.951E-03    -55.6989E-03     8.61987E-03     120.048E-03     202.141E+06    -31.7714E+06    -69.1638E+06    -249.972E+06    -69.1638E+06    -249.972E+06    -31.7714E+06    -22.5193E+03
             440     50.2909E-03     3.78474E-03     50.1483E-03     111.114E-03    -55.4691E-03    -55.6583E-03    -55.3952E-03     111.040E-03    -55.6583E-03     6.96293E-03     116.900E-03     201.099E+06    -47.5020E+06    -76.4851E+06    -261.473E+06    -76.4853E+06    -261.473E+06    -47.5020E+06    -49.8110E+03
             441     50.2217E-03     2.83863E-03     50.1414E-03     111.100E-03    -55.5054E-03    -55.6064E-03    -55.4628E-03     111.057E-03    -55.6064E-03     5.25806E-03     114.584E-03     199.009E+06    -64.4465E+06    -83.0338E+06    -272.035E+06    -83.0343E+06    -272.035E+06    -64.4465E+06    -168.747E+03
             442     50.1725E-03     1.89230E-03     50.1368E-03     111.070E-03    -55.4875E-03    -55.5885E-03    -55.4857E-03     111.049E-03    -55.5692E-03     3.68149E-03     112.905E-03     199.700E+06    -78.5573E+06    -88.4372E+06    -282.991E+06    -88.4383E+06    -282.990E+06    -78.5573E+06    -110.916E+03
             443     50.1426E-03     946.212E-06     50.1336E-03     111.044E-03    -55.3848E-03    -55.6615E-03    -55.6170E-03     111.036E-03    -55.4214E-03     2.11737E-03     111.993E-03     197.204E+06    -89.6021E+06    -93.8098E+06    -288.865E+06    -93.2652E+06    -288.860E+06    -90.1520E+06     468.757E+03
             444     51.9767E-03     16.0944E-03     49.4221E-03     113.262E-03    -54.5222E-03    -58.8722E-03    -53.6732E-03     108.939E-03    -55.3990E-03     43.6628E-03     202.534E-03     161.343E+06     170.402E+06     128.716E+06    -7.66595E+06    -7.66435E+06     170.400E+06     128.716E+06     191.322E+03
             445     51.6102E-03     15.1467E-03     49.3375E-03     114.264E-03    -55.3479E-03    -59.0254E-03    -53.5188E-03     108.757E-03    -55.3479E-03     58.5709E-03     223.000E-03     160.091E+06     165.232E+06     107.556E+06    -15.2198E+06    -15.2169E+06     165.229E+06     107.556E+06     278.234E+03
             446     51.2972E-03     14.1980E-03     49.2932E-03     112.289E-03    -55.2139E-03    -57.1525E-03    -53.6008E-03     108.737E-03    -55.2139E-03     48.0988E-03     206.172E-03     158.068E+06     157.909E+06     65.1908E+06    -22.7251E+06    -22.7221E+06     157.906E+06     65.1908E+06     67.9649E+03
             447     50.9846E-03     13.2517E-03     49.2323E-03     112.552E-03    -55.0812E-03    -57.5711E-03    -54.1889E-03     109.170E-03    -55.0812E-03     46.7935E-03     206.181E-03     144.543E+06     134.749E+06     23.3203E+06    -28.2649E+06    -28.2615E+06     134.746E+06     23.3203E+06     424.848E+03
             448     50.7057E-03     12.3044E-03     49.1901E-03     111.208E-03    -55.1158E-03    -56.1648E-03    -54.3597E-03     109.402E-03    -55.1158E-03     34.3431E-03     191.762E-03     87.6954E+06     66.3122E+06     5.53767E+06    -31.3978E+06    -31.3862E+06     66.3006E+06     5.53767E+06     848.699E+03
             449     50.4529E-03     11.3579E-03     49.1578E-03     110.685E-03    -55.1501E-03    -55.5676E-03    -54.3253E-03     109.566E-03    -55.2742E-03     26.9703E-03     176.475E-03     44.2033E+06     9.58274E+06    -15.5921E+06    -39.6476E+06    -33.7193E+06    -14.4737E+06     2.53604E+06     699.230E+03
             450     50.2232E-03     10.4110E-03     49.1323E-03     110.487E-03    -55.1192E-03    -55.3890E-03    -54.4002E-03     109.768E-03    -55.3890E-03     21.6828E-03     162.623E-03     63.3450E+06     1.95479E+06    -36.3600E+06    -69.9851E+06    -36.3885E+06    -69.9566E+06     1.95479E+06     485.466E+03
             451     50.0144E-03     9.46338E-03     49.1109E-03     110.735E-03    -55.2615E-03    -55.4833E-03    -54.7382E-03     110.212E-03    -55.4833E-03     18.5665E-03     151.893E-03     97.4169E+06     1.45466E+06    -40.2702E+06    -109.763E+06    -40.2810E+06    -109.752E+06     1.45466E+06     451.645E+03
             452     49.8260E-03     8.51737E-03     49.0926E-03     110.776E-03    -55.2552E-03    -55.5408E-03    -54.8605E-03     110.381E-03    -55.5408E-03     16.1168E-03     142.940E-03     122.767E+06    -2.84989E+06    -45.0832E+06    -141.078E+06    -45.0871E+06    -141.074E+06    -2.84989E+06     358.359E+03
             453     49.6565E-03     7.57053E-03     49.0760E-03     110.766E-03    -55.1887E-03    -55.5963E-03    -54.8989E-03     110.476E-03    -55.5963E-03     13.8183E-03     135.231E-03     145.230E+06    -8.16131E+06    -50.0009E+06    -169.696E+06    -50.0023E+06    -169.694E+06    -8.16131E+06     134.052E+03
             454     49.5078E-03     6.62384E-03     49.0627E-03     110.972E-03    -55.3338E-03    -55.6408E-03    -55.1173E-03     110.755E-03    -55.6408E-03     11.9628E-03     129.189E-03     166.968E+06    -13.1667E+06    -55.4837E+06    -197.204E+06    -55.4839E+06    -197.204E+06    -13.1667E+06    -110.839E+03
             455     49.3780E-03     5.67753E-03     49.0505E-03     111.145E-03    -55.4818E-03    -55.6682E-03    -55.3257E-03     110.989E-03    -55.6682E-03     10.1481E-03     124.226E-03     188.904E+06    -20.3589E+06    -62.2317E+06    -226.667E+06    -62.2319E+06    -226.666E+06    -20.3589E+06    -75.2437E+03
             456     49.2685E-03     4.73139E-03     49.0408E-03     111.081E-03    -55.4255E-03    -55.6700E-03    -55.3160E-03     110.971E-03    -55.6700E-03     8.51420E-03     120.062E-03     201.457E+06    -31.9025E+06    -69.4625E+06    -249.463E+06    -69.4626E+06    -249.463E+06    -31.9025E+06     9.00679E+03
             457     49.1775E-03     3.78484E-03     49.0316E-03     110.954E-03    -55.3375E-03    -55.6285E-03    -55.2632E-03     110.879E-03    -55.6285E-03     6.97373E-03     116.734E-03     200.475E+06    -48.8632E+06    -76.6509E+06    -261.720E+06    -76.6527E+06    -261.719E+06    -48.8632E+06    -335.159E+03
             458     49.1075E-03     2.83853E-03     49.0254E-03     111.024E-03    -55.4329E-03    -55.6011E-03    -55.3901E-03     110.981E-03    -55.6011E-03     5.26555E-03     114.520E-03     198.523E+06    -66.2552E+06    -83.0046E+06    -272.572E+06    -83.0066E+06    -272.570E+06    -66.2552E+06    -368.612E+03
             459     49.0570E-03     1.89235E-03     49.0205E-03     111.074E-03    -55.4810E-03    -55.6009E-03    -55.4605E-03     111.053E-03    -55.6009E-03     3.60026E-03     112.899E-03     200.109E+06    -78.9516E+06    -88.2131E+06    -283.519E+06    -88.2140E+06    -283.518E+06    -78.9516E+06     79.1130E+03
             460     49.0267E-03     945.964E-06     49.0176E-03     111.150E-03    -55.4416E-03    -55.7127E-03    -55.6297E-03     111.143E-03    -55.5172E-03     2.12402E-03     112.068E-03     197.873E+06    -87.8336E+06    -91.7358E+06    -287.613E+06    -91.7418E+06    -287.606E+06    -87.8336E+06     347.920E+03
             461     50.9157E-03     16.0944E-03     48.3051E-03     113.174E-03    -54.5356E-03    -58.7234E-03    -53.6296E-03     108.944E-03    -55.3992E-03     43.4382E-03     202.696E-03     161.193E+06     170.102E+06     128.665E+06    -7.73734E+06    -7.73305E+06     170.097E+06     128.665E+06    -95.8427E+03
             462     50.5451E-03     15.1465E-03     48.2223E-03     114.343E-03    -55.3378E-03    -59.0648E-03    -53.6475E-03     108.925E-03    -55.3378E-03     58.2159E-03     223.290E-03     160.593E+06     164.941E+06     107.102E+06    -16.0648E+06    -16.0542E+06     164.930E+06     107.102E+06     252.193E+03
             463     50.2258E-03     14.1992E-03     48.1769E-03     112.468E-03    -55.1869E-03    -57.3353E-03    -53.8285E-03     108.961E-03    -55.1869E-03     47.8966E-03     206.279E-03     158.801E+06     157.957E+06     64.5182E+06    -23.4552E+06    -23.4443E+06     157.946E+06     64.5182E+06     937.367E+03
             464     49.9068E-03     13.2515E-03     48.1153E-03     112.231E-03    -55.0570E-03    -57.2801E-03    -53.9512E-03     108.902E-03    -55.0570E-03     46.4112E-03     205.837E-03     144.868E+06     134.781E+06     23.0829E+06    -28.6521E+06    -28.6469E+06     134.776E+06     23.0829E+06     725.496E+03
             465     49.6239E-03     12.3049E-03     48.0742E-03     110.791E-03    -55.1175E-03    -55.7463E-03    -53.9282E-03     108.973E-03    -55.1175E-03     34.3828E-03     191.314E-03     87.7598E+06     66.6577E+06     5.90815E+06    -31.2883E+06    -31.2813E+06     66.6507E+06     5.90815E+06     141.341E+03
             466     49.3654E-03     11.3573E-03     48.0411E-03     110.730E-03    -55.2701E-03    -55.4967E-03    -54.3395E-03     109.594E-03    -55.2915E-03     27.1844E-03     176.520E-03     44.3149E+06     9.89605E+06    -15.4983E+06    -39.5466E+06    -33.4082E+06    -14.4426E+06     2.70200E+06     157.396E+03
             467     49.1322E-03     10.4103E-03     48.0167E-03     110.743E-03    -55.2866E-03    -55.4840E-03    -54.6479E-03     110.017E-03    -55.3967E-03     21.8082E-03     162.832E-03     63.2568E+06     2.21919E+06    -36.3459E+06    -69.6838E+06    -36.3636E+06    -69.6661E+06     2.21919E+06     421.134E+03
             468     48.9189E-03     9.46407E-03     47.9947E-03     110.727E-03    -55.2283E-03    -55.5132E-03    -54.7429E-03     110.208E-03    -55.4797E-03     18.4858E-03     151.790E-03     97.4166E+06     1.47329E+06    -40.2395E+06    -109.712E+06    -40.2512E+06    -109.701E+06     1.47329E+06     501.584E+03
             469     48.7262E-03     8.51710E-03     47.9761E-03     110.737E-03    -55.2141E-03    -55.5384E-03    -54.8218E-03     110.345E-03    -55.5384E-03     16.0672E-03     142.929E-03     123.004E+06    -2.42447E+06    -44.6202E+06    -140.910E+06    -44.6252E+06    -140.905E+06    -2.42447E+06     386.575E+03
             470     48.5543E-03     7.57052E-03     47.9605E-03     110.814E-03    -55.2383E-03    -55.5914E-03    -54.9485E-03     110.524E-03    -55.5914E-03     13.8194E-03     135.313E-03     145.197E+06    -7.59062E+06    -49.5957E+06    -169.134E+06    -49.5972E+06    -169.133E+06    -7.59062E+06     189.835E+03
             471     48.4015E-03     6.62383E-03     47.9462E-03     110.942E-03    -55.3114E-03    -55.6340E-03    -55.0959E-03     110.726E-03    -55.6340E-03     11.9340E-03     129.146E-03     166.820E+06    -13.2134E+06    -55.5486E+06    -197.105E+06    -55.5488E+06    -197.105E+06    -13.2134E+06     72.6432E+03
             472     48.2693E-03     5.67756E-03     47.9343E-03     111.117E-03    -55.4564E-03    -55.6643E-03    -55.2999E-03     110.960E-03    -55.6643E-03     10.1610E-03     124.206E-03     189.029E+06    -20.5731E+06    -62.1348E+06    -226.898E+06    -62.1349E+06    -226.898E+06    -20.5731E+06    -67.7925E+03
             473     48.1574E-03     4.73138E-03     47.9244E-03     111.112E-03    -55.4655E-03    -55.6606E-03    -55.3547E-03     111.001E-03    -55.6606E-03     8.56380E-03     120.112E-03     200.975E+06    -32.3155E+06    -69.0505E+06    -249.090E+06    -69.0507E+06    -249.090E+06    -32.3155E+06    -113.714E+03
             474     48.0654E-03     3.78508E-03     47.9161E-03     110.946E-03    -55.3429E-03    -55.6207E-03    -55.2663E-03     110.870E-03    -55.6207E-03     7.09152E-03     116.705E-03     200.821E+06     -48.061E+06    -75.8117E+06    -261.267E+06    -75.8133E+06    -261.265E+06     -48.061E+06    -280.223E+03
             475     47.9929E-03     2.83841E-03     47.9089E-03     110.984E-03    -55.3949E-03    -55.6033E-03    -55.3508E-03     110.940E-03    -55.6033E-03     5.33244E-03     114.428E-03     200.541E+06    -64.6473E+06    -82.4052E+06    -273.426E+06    -82.4070E+06    -273.425E+06    -64.6473E+06    -284.168E+03
             476     47.9416E-03     1.89229E-03     47.9043E-03     111.125E-03    -55.4864E-03    -55.6460E-03    -55.5389E-03     111.106E-03    -55.5742E-03     3.46095E-03     112.965E-03     200.265E+06    -78.4420E+06    -87.8667E+06    -283.231E+06    -87.8675E+06    -283.230E+06    -78.4420E+06    -201.915E+03
             477     47.9107E-03     946.198E-06     47.9013E-03     111.044E-03    -55.3204E-03    -55.7262E-03    -55.6811E-03     111.038E-03    -55.3594E-03     1.90653E-03     111.990E-03     197.528E+06    -88.3125E+06    -91.6595E+06    -287.478E+06    -91.4703E+06    -287.476E+06    -88.5038E+06    -600.977E+03
             478     49.8579E-03     16.0945E-03     47.1887E-03     113.215E-03    -54.4495E-03    -58.7948E-03    -53.5960E-03     108.969E-03    -55.4022E-03     43.5249E-03     202.725E-03     160.520E+06     169.442E+06     127.929E+06    -7.73617E+06    -7.72594E+06     169.432E+06     127.929E+06    -120.739E+03
             479     49.4820E-03     15.1467E-03     47.1068E-03     114.754E-03    -55.3254E-03    -59.4400E-03    -53.9716E-03     109.285E-03    -55.3254E-03     58.6774E-03     223.488E-03     160.177E+06     164.046E+06     106.347E+06    -16.4787E+06    -16.4583E+06     164.026E+06     106.347E+06     1.20765E+06
             480     49.1547E-03     14.1997E-03     47.0590E-03     112.551E-03    -55.1630E-03    -57.4528E-03    -53.9190E-03     109.017E-03    -55.1630E-03     48.1339E-03     206.185E-03     159.551E+06     159.175E+06     65.7281E+06    -23.1964E+06    -23.1804E+06     159.159E+06     65.7281E+06     1.48279E+06
             481     48.8335E-03     13.2528E-03     47.0008E-03     111.880E-03    -55.0449E-03    -56.9453E-03    -53.5964E-03     108.531E-03    -55.0449E-03     46.5005E-03     205.512E-03     144.140E+06     135.824E+06     24.6437E+06    -26.6768E+06    -26.6724E+06     135.819E+06     24.6437E+06     153.790E+03
             482     48.5430E-03     12.3040E-03     46.9578E-03     110.628E-03    -55.1219E-03    -55.5885E-03    -53.7448E-03     108.784E-03    -55.1219E-03     34.5560E-03     191.191E-03     86.3147E+06     66.1584E+06     6.36736E+06    -29.8091E+06    -29.7985E+06     66.1478E+06     6.36736E+06    -155.001E+03
             483     48.2807E-03     11.3570E-03     46.9259E-03     110.841E-03    -55.3000E-03    -55.5810E-03    -54.4555E-03     109.716E-03    -55.3000E-03     27.0636E-03     176.705E-03     43.8341E+06     9.66985E+06    -15.1051E+06    -39.0428E+06    -33.1361E+06    -14.4689E+06     3.12699E+06     35.6858E+03
             484     48.0406E-03     10.4106E-03     46.8990E-03     110.858E-03    -55.3263E-03    -55.5736E-03    -54.8088E-03     110.160E-03    -55.3930E-03     21.3794E-03     163.040E-03     63.6133E+06     2.30315E+06    -36.3662E+06    -69.9461E+06    -36.3947E+06    -69.9176E+06     2.30315E+06    -47.6226E+03
             485     47.8249E-03     9.46413E-03     46.8791E-03     110.672E-03    -55.1968E-03    -55.5040E-03    -54.7265E-03     110.169E-03    -55.4705E-03     18.2392E-03     151.778E-03     97.5649E+06     1.78330E+06    -40.0668E+06    -109.600E+06    -40.0708E+06    -109.596E+06     1.78330E+06     289.836E+03
             486     47.6275E-03     8.51705E-03     46.8597E-03     110.680E-03    -55.1632E-03    -55.5296E-03    -54.7712E-03     110.288E-03    -55.5296E-03     16.0449E-03     142.900E-03     122.980E+06    -2.13658E+06    -44.4311E+06    -140.612E+06    -44.4347E+06    -140.608E+06    -2.13658E+06     295.931E+03
             487     47.4517E-03     7.57059E-03     46.8439E-03     110.863E-03    -55.2964E-03    -55.5813E-03    -55.0116E-03     110.579E-03    -55.5813E-03     13.7138E-03     135.380E-03     145.377E+06    -7.10926E+06    -49.2102E+06    -168.867E+06    -49.2109E+06    -168.866E+06    -7.10926E+06     202.588E+03
             488     47.2962E-03     6.62430E-03     46.8300E-03     110.901E-03    -55.2860E-03    -55.6206E-03    -55.0690E-03     110.684E-03    -55.6206E-03     11.9753E-03     129.087E-03     166.963E+06    -12.7716E+06    -54.7052E+06    -196.677E+06    -54.7057E+06    -196.676E+06    -12.7716E+06     201.411E+03
             489     47.1609E-03     5.67754E-03     46.8180E-03     110.945E-03    -55.2891E-03    -55.6629E-03    -55.1299E-03     110.786E-03    -55.6629E-03     10.2402E-03     124.022E-03     189.302E+06    -20.6587E+06    -61.1817E+06    -226.914E+06    -61.1821E+06    -226.914E+06    -20.6587E+06    -150.897E+03
             490     47.0465E-03     4.73099E-03     46.8080E-03     111.105E-03    -55.4418E-03    -55.6805E-03    -55.3312E-03     110.995E-03    -55.6805E-03     8.54317E-03     120.104E-03     201.707E+06    -31.8949E+06    -68.2586E+06    -249.288E+06    -68.2606E+06    -249.286E+06    -31.8949E+06    -489.107E+03
             491     46.9526E-03     3.78478E-03     46.7998E-03     111.108E-03    -55.4947E-03    -55.6376E-03    -55.4202E-03     111.034E-03    -55.6376E-03     6.99788E-03     116.859E-03     202.371E+06    -45.7941E+06    -75.2811E+06    -261.261E+06    -75.2833E+06    -261.259E+06    -45.7941E+06    -163.317E+03
             492     46.8790E-03     2.83876E-03     46.7930E-03     111.030E-03    -55.4631E-03    -55.5868E-03    -55.4191E-03     110.986E-03    -55.5868E-03     5.33498E-03     114.443E-03     201.586E+06    -62.6412E+06    -82.5573E+06    -273.376E+06    -82.5602E+06    -273.373E+06    -62.6412E+06     397.561E+03
             493     46.8262E-03     1.89236E-03     46.7879E-03     111.035E-03    -55.4470E-03    -55.5948E-03    -55.4986E-03     111.014E-03    -55.5230E-03     3.55263E-03     112.892E-03     198.717E+06    -79.6022E+06    -89.2260E+06    -282.922E+06    -89.2288E+06    -282.919E+06    -79.6022E+06     92.1582E+03
             494     46.7945E-03     946.598E-06     46.7849E-03     110.933E-03    -55.2795E-03    -55.6562E-03    -55.6289E-03     110.927E-03    -55.3007E-03     1.83857E-03     111.928E-03     196.168E+06    -90.6410E+06    -93.4836E+06    -288.203E+06    -93.2949E+06    -288.200E+06    -90.8323E+06    -609.879E+03
             495     48.8040E-03     16.0938E-03     46.0740E-03     113.380E-03    -54.3448E-03    -59.0477E-03    -53.6540E-03     109.045E-03    -55.4038E-03     43.7371E-03     202.607E-03     160.262E+06     167.967E+06     127.098E+06    -8.76547E+06    -8.75726E+06     167.959E+06     127.098E+06     116.193E+03
             496     48.4183E-03     15.1467E-03     45.9881E-03     114.880E-03    -55.3342E-03    -59.5403E-03    -53.9905E-03     109.330E-03    -55.3342E-03     59.0420E-03     223.455E-03     158.684E+06     162.877E+06     106.939E+06    -15.6672E+06    -15.6546E+06     162.865E+06     106.939E+06     1.01648E+06
             497     48.0882E-03     14.1997E-03     45.9439E-03     112.436E-03    -55.1740E-03    -57.3364E-03    -53.7762E-03     108.875E-03    -55.1740E-03     48.2322E-03     206.215E-03     159.405E+06     160.830E+06     66.9335E+06    -21.1215E+06    -21.1142E+06     160.822E+06     66.9335E+06     783.025E+03
             498     47.7592E-03     13.2513E-03     45.8840E-03     112.080E-03    -55.0513E-03    -57.1249E-03    -53.7669E-03     108.722E-03    -55.0513E-03     46.5094E-03     205.769E-03     144.824E+06     136.850E+06     24.5582E+06    -26.3310E+06    -26.3261E+06     136.845E+06     24.5582E+06     274.490E+03
             499     47.4658E-03     12.3047E-03     45.8432E-03     110.915E-03    -55.1143E-03    -55.8651E-03    -54.0283E-03     109.078E-03    -55.1143E-03     34.6119E-03     191.438E-03     87.0933E+06     66.6464E+06     6.27675E+06    -30.3922E+06    -30.3742E+06     66.6283E+06     6.27675E+06     160.083E+03
             500     47.1952E-03     11.3576E-03     45.8082E-03     110.855E-03    -55.2372E-03    -55.6491E-03    -54.4649E-03     109.712E-03    -55.2784E-03     27.2143E-03     176.663E-03     44.3827E+06     9.89481E+06    -15.2395E+06    -39.6457E+06    -33.2614E+06    -14.5508E+06     2.82179E+06    -38.8958E+03
             501     46.9521E-03     10.4109E-03     45.7834E-03     110.656E-03    -55.2222E-03    -55.4744E-03    -54.6222E-03     109.963E-03    -55.3812E-03     21.3079E-03     162.867E-03     63.8456E+06     2.03337E+06    -36.4000E+06    -70.5837E+06    -36.4304E+06    -70.5532E+06     2.03337E+06     32.2786E+03
             502     46.7308E-03     9.46388E-03     45.7624E-03     110.690E-03    -55.2513E-03    -55.4662E-03    -54.7441E-03     110.183E-03    -55.4662E-03     18.2921E-03     151.804E-03     97.4144E+06     1.67849E+06    -40.1198E+06    -109.545E+06    -40.1203E+06    -109.544E+06     1.67849E+06     14.3693E+03
             503     46.5304E-03     8.51763E-03     45.7441E-03     110.740E-03    -55.2348E-03    -55.5173E-03    -54.8380E-03     110.343E-03    -55.5173E-03     16.1688E-03     142.918E-03     122.590E+06    -2.20908E+06    -44.3486E+06    -140.233E+06    -44.3489E+06    -140.233E+06    -2.20908E+06     47.0472E+03
             504     46.3501E-03     7.57070E-03     45.7276E-03     110.780E-03    -55.2239E-03    -55.5706E-03    -54.9307E-03     110.487E-03    -55.5706E-03     13.8922E-03     135.250E-03     145.484E+06    -7.23896E+06    -49.0286E+06    -169.018E+06    -49.0294E+06    -169.018E+06    -7.23896E+06     129.235E+03
             505     46.1914E-03     6.62405E-03     45.7139E-03     110.876E-03    -55.2678E-03    -55.6169E-03    -55.0515E-03     110.660E-03    -55.6169E-03     11.9498E-03     129.079E-03     167.041E+06    -12.6295E+06    -54.1769E+06    -196.497E+06    -54.1777E+06    -196.496E+06    -12.6295E+06     115.268E+03
             506     46.0533E-03     5.67758E-03     45.7020E-03     110.948E-03    -55.3009E-03    -55.6561E-03    -55.1428E-03     110.790E-03    -55.6561E-03     10.2078E-03     124.001E-03     188.989E+06    -20.4968E+06    -60.7205E+06    -226.337E+06    -60.7213E+06    -226.336E+06    -20.4968E+06    -142.896E+03
             507     45.9360E-03     4.73111E-03     45.6917E-03     111.069E-03    -55.4059E-03    -55.6798E-03    -55.2979E-03     110.961E-03    -55.6798E-03     8.43311E-03     120.053E-03     202.252E+06    -31.1542E+06    -68.0633E+06    -249.301E+06    -68.0657E+06    -249.299E+06    -31.1542E+06    -428.985E+03
             508     45.8398E-03     3.78493E-03     45.6833E-03     111.108E-03    -55.4914E-03    -55.6376E-03    -55.4201E-03     111.037E-03    -55.6376E-03     6.84921E-03     116.875E-03     203.184E+06    -45.7666E+06    -76.0675E+06    -262.365E+06    -76.0699E+06    -262.363E+06    -45.7666E+06    -2.70448E+03
             509     45.7650E-03     2.83867E-03     45.6769E-03     111.063E-03    -55.5065E-03    -55.5718E-03    -55.4630E-03     111.019E-03    -55.5718E-03     5.32307E-03     114.504E-03     201.138E+06    -63.1144E+06    -83.3310E+06    -273.527E+06    -83.3346E+06    -273.524E+06    -63.1144E+06     712.229E+03
             510     45.7111E-03     1.89260E-03     45.6719E-03     110.925E-03    -55.4023E-03    -55.5298E-03    -55.3811E-03     110.903E-03    -55.5298E-03     3.64510E-03     112.787E-03     197.832E+06    -79.8045E+06    -89.1355E+06    -282.094E+06    -89.1392E+06    -282.091E+06    -79.8045E+06     690.811E+03
             511     45.6788E-03     945.801E-06     45.6690E-03     111.013E-03    -55.3451E-03    -55.6715E-03    -55.5631E-03     111.007E-03    -55.4470E-03     1.82482E-03     112.009E-03     195.909E+06    -90.7178E+06    -93.3091E+06    -287.902E+06    -93.3118E+06    -287.899E+06    -90.7178E+06     59.8394E+03
             512     47.7510E-03     16.0946E-03     44.9569E-03     113.421E-03    -54.5273E-03    -58.9521E-03    -53.7658E-03     109.102E-03    -55.3941E-03     43.8449E-03     202.672E-03     159.699E+06     168.052E+06     127.022E+06    -8.15153E+06    -8.14926E+06     168.049E+06     127.022E+06     345.648E+03
             513     47.3599E-03     15.1469E-03     44.8724E-03     114.496E-03    -55.3322E-03    -59.1754E-03    -53.6653E-03     108.985E-03    -55.3322E-03     58.7035E-03     223.209E-03     157.646E+06     162.039E+06     106.012E+06    -15.4181E+06    -15.4066E+06     162.027E+06     106.012E+06    -538.537E+03
             514     47.0223E-03     14.1984E-03     44.8275E-03     112.238E-03    -55.1943E-03    -57.1292E-03    -53.6083E-03     108.717E-03    -55.1943E-03     47.9233E-03     206.227E-03     158.751E+06     159.757E+06     66.4604E+06    -21.5924E+06    -21.5734E+06     159.737E+06     66.4604E+06     139.227E+03
             515     46.6879E-03     13.2521E-03     44.7677E-03     112.368E-03    -55.0678E-03    -57.3863E-03    -54.0641E-03     109.046E-03    -55.0678E-03     46.3374E-03     206.094E-03     145.486E+06     137.842E+06     25.5946E+06    -26.1934E+06    -26.1800E+06     137.828E+06     25.5946E+06     849.254E+03
             516     46.3883E-03     12.3046E-03     44.7266E-03     111.175E-03    -55.1085E-03    -56.1182E-03    -54.2726E-03     109.329E-03    -55.1085E-03     34.7931E-03     191.632E-03     87.1664E+06     67.7477E+06     7.18520E+06    -29.3169E+06    -29.2944E+06     67.7252E+06     7.18520E+06     207.559E+03
             517     46.1128E-03     11.3579E-03     44.6921E-03     110.755E-03    -55.1863E-03    -55.6064E-03    -54.3601E-03     109.588E-03    -55.2656E-03     27.4693E-03     176.456E-03     43.5310E+06     9.42491E+06    -15.1211E+06    -39.1205E+06    -32.6248E+06    -15.0423E+06     2.85045E+06     320.083E+03
             518     45.8643E-03     10.4106E-03     44.6672E-03     110.509E-03    -55.1781E-03    -55.3792E-03    -54.4796E-03     109.810E-03    -55.3792E-03     21.3701E-03     162.649E-03     63.5855E+06     2.30858E+06    -36.1551E+06    -70.0613E+06    -36.1680E+06    -70.0485E+06     2.30858E+06     281.337E+03
             519     45.6381E-03     9.46402E-03     44.6461E-03     110.664E-03    -55.2213E-03    -55.4714E-03    -54.7053E-03     110.148E-03    -55.4714E-03     18.4495E-03     151.780E-03     97.0251E+06     1.60333E+06    -40.0609E+06    -109.159E+06    -40.0612E+06    -109.158E+06     1.60333E+06    -83.7635E+03
             520     45.4332E-03     8.51716E-03     44.6277E-03     110.806E-03    -55.2969E-03    -55.5229E-03    -54.8914E-03     110.400E-03    -55.5229E-03     16.3445E-03     142.985E-03     122.430E+06    -2.36368E+06    -44.1994E+06    -140.155E+06    -44.2001E+06    -140.155E+06    -2.36368E+06    -156.421E+03
             521     45.2495E-03     7.57077E-03     44.6116E-03     110.853E-03    -55.2998E-03    -55.5701E-03    -55.0044E-03     110.558E-03    -55.5701E-03     13.9482E-03     135.327E-03     145.538E+06    -7.40934E+06    -49.0313E+06    -169.198E+06    -49.0322E+06    -169.197E+06    -7.40934E+06    -60.9501E+03
             522     45.0869E-03     6.62417E-03     44.5976E-03     110.895E-03    -55.3003E-03    -55.6087E-03    -55.0871E-03     110.682E-03    -55.6087E-03     11.8644E-03     129.100E-03     166.934E+06    -12.9321E+06    -54.9186E+06    -196.836E+06    -54.9195E+06    -196.835E+06    -12.9321E+06    -7.98297E+03
             523     44.9459E-03     5.67768E-03     44.5858E-03     110.988E-03    -55.3623E-03    -55.6378E-03    -55.2072E-03     110.833E-03    -55.6378E-03     10.1174E-03     124.053E-03     188.551E+06    -20.0124E+06     -61.148E+06    -225.709E+06    -61.1504E+06    -225.706E+06    -20.0124E+06     131.192E+03
             524     44.8259E-03     4.73140E-03     44.5755E-03     110.996E-03    -55.3581E-03    -55.6526E-03    -55.2484E-03     110.886E-03    -55.6526E-03     8.50318E-03     119.970E-03     201.636E+06    -31.9512E+06    -68.7494E+06    -249.421E+06    -68.7514E+06    -249.419E+06    -31.9512E+06     198.761E+03
             525     44.7276E-03     3.78488E-03     44.5672E-03     110.991E-03    -55.3849E-03    -55.6249E-03    -55.3115E-03     110.918E-03    -55.6249E-03     6.94084E-03     116.766E-03     203.219E+06    -46.9985E+06    -76.2687E+06    -263.229E+06    -76.2689E+06    -263.229E+06    -46.9985E+06     152.890E+03
             526     44.6508E-03     2.83867E-03     44.5605E-03     111.025E-03    -55.4540E-03    -55.5860E-03    -55.4108E-03     110.982E-03    -55.5860E-03     5.28715E-03     114.489E-03     201.141E+06    -63.5096E+06    -82.8731E+06    -273.572E+06    -82.8739E+06    -273.572E+06    -63.5096E+06     225.064E+03
             527     44.5963E-03     1.89232E-03     44.5561E-03     111.013E-03    -55.4246E-03    -55.5970E-03    -55.4498E-03     110.993E-03    -55.5521E-03     3.51121E-03     112.875E-03     198.440E+06    -78.3019E+06    -88.1102E+06    -281.434E+06    -88.1131E+06    -281.431E+06    -78.3019E+06     596.045E+03
             528     44.5631E-03     946.246E-06     44.5531E-03     111.025E-03    -55.3399E-03    -55.6880E-03    -55.6011E-03     111.019E-03    -55.4208E-03     1.87541E-03     111.989E-03     196.233E+06    -88.4534E+06    -92.6376E+06    -286.735E+06    -91.8020E+06    -286.732E+06    -89.2923E+06     786.222E+03
             529     46.7008E-03     16.0946E-03     43.8398E-03     113.371E-03    -54.6361E-03    -58.8504E-03    -53.7842E-03     109.056E-03    -55.3870E-03     43.8983E-03     202.756E-03     159.727E+06     169.355E+06     127.660E+06    -7.06340E+06    -7.05990E+06     169.351E+06     127.660E+06     383.802E+03
             530     46.3049E-03     15.1467E-03     43.7575E-03     114.447E-03    -55.3196E-03    -59.1887E-03    -53.6998E-03     108.958E-03    -55.3196E-03     58.5398E-03     223.272E-03     158.425E+06     163.099E+06     106.137E+06    -15.4575E+06    -15.4439E+06     163.086E+06     106.137E+06    -430.543E+03
             531     45.9595E-03     14.1995E-03     43.7110E-03     112.131E-03    -55.1829E-03    -57.0435E-03    -53.5683E-03     108.655E-03    -55.1829E-03     47.5870E-03     206.149E-03     158.138E+06     158.456E+06     66.1072E+06    -22.2679E+06    -22.2203E+06     158.408E+06     66.1072E+06    -876.872E+03
             532     45.6186E-03     13.2511E-03     43.6517E-03     112.206E-03    -55.0664E-03    -57.2347E-03    -53.8968E-03     108.868E-03    -55.0664E-03     46.5028E-03     205.911E-03     144.438E+06     137.029E+06     25.7668E+06    -25.8301E+06    -25.7848E+06     136.984E+06     25.7668E+06    -147.637E+03
             533     45.3122E-03     12.3048E-03     43.6095E-03     111.243E-03    -55.1100E-03    -56.1923E-03    -54.3459E-03     109.397E-03    -55.1100E-03     34.7128E-03     191.713E-03     86.7812E+06     67.2113E+06     7.17252E+06    -29.2552E+06    -29.2272E+06     67.1833E+06     7.17252E+06     1.00150E+06
             534     45.0325E-03     11.3576E-03     43.5767E-03     110.748E-03    -55.1519E-03    -55.6318E-03    -54.3936E-03     109.621E-03    -55.2629E-03     27.0772E-03     176.480E-03     43.4222E+06     9.75826E+06    -14.4011E+06    -38.5308E+06    -32.4106E+06    -14.1352E+06     3.37214E+06     796.177E+03
             535     44.7777E-03     10.4109E-03     43.5506E-03     110.421E-03    -55.0915E-03    -55.3780E-03    -54.3880E-03     109.717E-03    -55.3780E-03     21.4164E-03     162.528E-03     63.4051E+06     2.55467E+06    -35.6567E+06    -69.5402E+06    -35.6598E+06    -69.5370E+06     2.55467E+06     138.690E+03
             536     44.5474E-03     9.46375E-03     43.5306E-03     110.620E-03    -55.1725E-03    -55.4787E-03    -54.6560E-03     110.104E-03    -55.4787E-03     18.4621E-03     151.834E-03     96.9716E+06     2.11808E+06    -39.6336E+06    -108.620E+06    -39.6338E+06    -108.619E+06     2.11808E+06    -8.78960E+03
             537     44.3368E-03     8.51704E-03     43.5111E-03     110.835E-03    -55.3198E-03    -55.5328E-03    -54.9157E-03     110.431E-03    -55.5328E-03     16.3046E-03     143.039E-03     122.526E+06    -2.36694E+06    -44.3945E+06    -140.289E+06    -44.3951E+06    -140.289E+06    -2.36694E+06    -50.4988E+03
             538     44.1490E-03     7.57071E-03     43.4951E-03     110.940E-03    -55.3856E-03    -55.5733E-03    -55.0957E-03     110.650E-03    -55.5733E-03     13.8359E-03     135.436E-03     145.431E+06    -7.55712E+06    -49.6407E+06    -169.372E+06    -49.6414E+06    -169.372E+06    -7.55712E+06     23.8009E+03
             539     43.9833E-03     6.62428E-03     43.4816E-03     110.935E-03    -55.3434E-03    -55.6020E-03    -55.1268E-03     110.718E-03    -55.6020E-03     11.9679E-03     129.106E-03     166.437E+06    -12.8472E+06    -55.3566E+06    -196.395E+06    -55.3574E+06    -196.394E+06    -12.8472E+06     98.5534E+03
             540     43.8385E-03     5.67788E-03     43.4692E-03     110.948E-03    -55.3281E-03    -55.6277E-03    -55.1697E-03     110.789E-03    -55.6277E-03     10.2184E-03     124.001E-03     188.499E+06    -20.6221E+06    -62.0081E+06    -226.350E+06    -62.0103E+06    -226.348E+06    -20.6221E+06     297.625E+03
             541     43.7165E-03     4.73130E-03     43.4597E-03     110.973E-03    -55.3448E-03    -55.6445E-03    -55.2334E-03     110.861E-03    -55.6445E-03     8.57437E-03     119.955E-03     201.177E+06    -32.4026E+06    -68.9931E+06    -249.329E+06    -68.9957E+06    -249.326E+06    -32.4026E+06     476.514E+03
             542     43.6153E-03     3.78493E-03     43.4507E-03     110.943E-03    -55.3415E-03    -55.6223E-03    -55.2664E-03     110.868E-03    -55.6223E-03     7.01376E-03     116.722E-03     202.509E+06    -47.6624E+06    -76.4559E+06    -262.995E+06    -76.4574E+06    -262.994E+06    -47.6624E+06     118.998E+03
             543     43.5373E-03     2.83855E-03     43.4447E-03     111.015E-03    -55.4334E-03    -55.5989E-03    -55.3917E-03     110.972E-03    -55.5977E-03     5.26888E-03     114.487E-03     200.978E+06    -63.6143E+06    -83.0493E+06    -273.548E+06    -83.0498E+06    -273.548E+06    -63.6143E+06    -126.019E+03
             544     43.4807E-03     1.89233E-03     43.4395E-03     111.087E-03    -55.4983E-03    -55.5991E-03    -55.5252E-03     111.067E-03    -55.5529E-03     3.48153E-03     112.954E-03     198.783E+06    -77.7812E+06    -88.0291E+06    -281.461E+06    -88.0317E+06    -281.458E+06    -77.7812E+06    -2.13413E+03
             545     43.4472E-03     946.413E-06     43.4369E-03     110.985E-03    -55.3341E-03    -55.6546E-03    -55.6305E-03     110.979E-03    -55.3520E-03     1.91465E-03     111.948E-03     196.062E+06    -87.2499E+06    -92.4944E+06    -285.877E+06    -91.6587E+06    -285.874E+06    -88.0888E+06     180.708E+03
             546     45.6562E-03     16.0945E-03     42.7254E-03     113.407E-03    -54.5379E-03    -58.9162E-03    -53.7596E-03     109.100E-03    -55.3870E-03     43.6178E-03     202.682E-03     161.086E+06     169.879E+06     128.011E+06    -7.97384E+06     -7.9698E+06     169.875E+06     128.011E+06     153.344E+03
             547     45.2500E-03     15.1468E-03     42.6395E-03     114.602E-03    -55.3164E-03    -59.2993E-03    -53.7937E-03     109.096E-03    -55.3164E-03     58.7033E-03     223.249E-03     158.980E+06     164.556E+06     107.552E+06    -14.6394E+06    -14.6179E+06     164.535E+06     107.552E+06    -492.736E+03
             548     44.9001E-03     14.1996E-03     42.5957E-03     112.224E-03    -55.1649E-03    -57.1101E-03    -53.6317E-03     108.746E-03    -55.1649E-03     47.6509E-03     206.053E-03     156.997E+06     158.154E+06     65.8446E+06    -21.0609E+06    -21.0019E+06     158.095E+06     65.8446E+06    -909.687E+03
             549     44.5524E-03     13.2521E-03     42.5358E-03     112.126E-03    -55.0457E-03    -57.1801E-03    -53.8156E-03     108.761E-03    -55.0457E-03     46.7307E-03     205.687E-03     144.303E+06     135.203E+06     23.4737E+06    -27.4591E+06    -27.4103E+06     135.154E+06     23.4737E+06     267.398E+03
             550     44.2380E-03     12.3043E-03     42.4924E-03     111.053E-03    -55.1053E-03    -56.0139E-03    -54.1685E-03     109.207E-03    -55.1053E-03     34.5727E-03     191.548E-03     88.2549E+06     67.2678E+06     6.31138E+06    -31.1561E+06    -31.1385E+06     67.2502E+06     6.31138E+06     772.197E+03
             551     43.9534E-03     11.3582E-03     42.4605E-03     110.673E-03    -55.1657E-03    -55.5339E-03    -54.3244E-03     109.566E-03    -55.2682E-03     26.8891E-03     176.521E-03     44.7177E+06     10.7216E+06    -14.6203E+06    -39.1624E+06    -33.1781E+06    -13.1532E+06     3.27029E+06     353.062E+03
             552     43.6936E-03     10.4106E-03     42.4352E-03     110.524E-03    -55.1752E-03    -55.3827E-03    -54.4485E-03     109.797E-03    -55.3827E-03     21.7680E-03     162.630E-03     63.0635E+06     2.21569E+06    -36.0045E+06    -69.4531E+06    -36.0107E+06    -69.4470E+06     2.21569E+06     161.022E+03
             553     43.4569E-03     9.46376E-03     42.4139E-03     110.726E-03    -55.2718E-03    -55.4776E-03    -54.7553E-03     110.210E-03    -55.4776E-03     18.4617E-03     151.892E-03     97.0860E+06     2.10395E+06    -39.8486E+06    -108.789E+06    -39.8500E+06    -108.788E+06     2.10395E+06     178.003E+03
             554     43.2421E-03     8.51736E-03     42.3950E-03     110.785E-03    -55.2697E-03    -55.5286E-03    -54.8707E-03     110.386E-03    -55.5286E-03     16.2090E-03     142.952E-03     122.375E+06    -2.21887E+06    -44.6812E+06    -140.087E+06    -44.6830E+06    -140.085E+06    -2.21887E+06     358.684E+03
             555     43.0497E-03     7.57057E-03     42.3788E-03     110.866E-03    -55.3098E-03    -55.5737E-03    -55.0183E-03     110.575E-03    -55.5737E-03     13.8654E-03     135.327E-03     145.067E+06    -7.84746E+06    -50.0040E+06    -169.299E+06    -50.0045E+06    -169.298E+06    -7.84746E+06     159.907E+03
             556     42.8798E-03     6.62428E-03     42.3651E-03     110.935E-03    -55.3369E-03    -55.6083E-03    -55.1219E-03     110.720E-03    -55.6083E-03     11.9141E-03     129.117E-03     166.470E+06    -13.2375E+06    -55.6268E+06    -196.784E+06    -55.6272E+06    -196.784E+06    -13.2375E+06     138.440E+03
             557     42.7324E-03     5.67757E-03     42.3535E-03     110.946E-03    -55.3122E-03    -55.6397E-03    -55.1530E-03     110.786E-03    -55.6397E-03     10.2519E-03     123.986E-03     188.668E+06    -20.4813E+06    -61.8934E+06    -226.390E+06    -61.8942E+06    -226.390E+06    -20.4813E+06     260.281E+03
             558     42.6068E-03     4.73132E-03     42.3433E-03     111.020E-03    -55.3752E-03    -55.6609E-03    -55.2623E-03     110.907E-03    -55.6609E-03     8.62312E-03     120.007E-03     201.485E+06    -31.4465E+06    -68.8560E+06    -248.991E+06    -68.8574E+06    -248.990E+06    -31.4465E+06     337.920E+03
             559     42.5041E-03     3.78492E-03     42.3353E-03     111.008E-03    -55.4004E-03    -55.6268E-03    -55.3261E-03     110.934E-03    -55.6268E-03     6.98822E-03     116.783E-03     202.086E+06    -46.7539E+06    -76.3248E+06    -261.956E+06    -76.3268E+06    -261.954E+06    -46.7539E+06     225.966E+03
             560     42.4232E-03     2.83854E-03     42.3281E-03     111.003E-03    -55.4225E-03    -55.5925E-03    -55.3806E-03     110.959E-03    -55.5913E-03     5.27206E-03     114.463E-03     200.937E+06    -63.7987E+06    -83.5401E+06    -273.826E+06    -83.5454E+06    -273.821E+06    -63.7987E+06    -428.136E+03
             561     42.3657E-03     1.89253E-03     42.3234E-03     111.000E-03    -55.4334E-03    -55.5767E-03    -55.4148E-03     110.980E-03    -55.5754E-03     3.54710E-03     112.896E-03     198.134E+06    -78.7240E+06    -89.3005E+06    -281.904E+06    -89.3059E+06    -281.899E+06    -78.7240E+06    -722.004E+03
             562     42.3312E-03     945.956E-06     42.3206E-03     111.085E-03    -55.3447E-03    -55.7446E-03    -55.6616E-03     111.078E-03    -55.4208E-03     2.01336E-03     112.105E-03     194.519E+06    -88.4345E+06    -94.2285E+06    -285.782E+06    -92.9169E+06    -285.780E+06    -89.7486E+06    -565.092E+03
             563     44.6119E-03     16.0946E-03     41.6075E-03     113.347E-03    -54.5091E-03    -58.8646E-03    -53.6871E-03     109.049E-03    -55.3891E-03     43.6771E-03     202.641E-03     160.847E+06     170.451E+06     128.461E+06    -7.18369E+06    -7.17255E+06     170.439E+06     128.461E+06    -358.868E+03
             564     44.2013E-03     15.1471E-03     41.5249E-03     114.482E-03    -55.3196E-03    -59.1406E-03    -53.6076E-03     108.949E-03    -55.3196E-03     58.9290E-03     223.090E-03     159.701E+06     164.652E+06     106.166E+06    -15.5814E+06    -15.5451E+06     164.615E+06     106.166E+06    -573.454E+03
             565     43.8413E-03     14.1988E-03     41.4783E-03     112.455E-03    -55.1701E-03    -57.3289E-03    -53.8115E-03     108.937E-03    -55.1701E-03     48.0412E-03     206.289E-03     157.676E+06     156.493E+06     64.3829E+06    -23.8698E+06    -23.8302E+06     156.454E+06     64.3829E+06     393.893E+03
             566     43.4886E-03     13.2520E-03     41.4203E-03     112.380E-03    -55.0375E-03    -57.4310E-03    -54.0930E-03     109.042E-03    -55.0375E-03     46.6037E-03     205.874E-03     145.439E+06     135.951E+06     24.3854E+06    -28.1565E+06    -28.1429E+06     135.937E+06     24.3854E+06     696.884E+03
             567     43.1670E-03     12.3052E-03     41.3760E-03     110.651E-03    -54.9844E-03    -55.7311E-03    -53.7767E-03     108.810E-03    -55.0982E-03     34.4989E-03     191.046E-03     88.5424E+06     68.1749E+06     6.71032E+06    -30.3904E+06    -30.3855E+06     68.1699E+06     6.71032E+06    -259.617E+03
             568     42.8763E-03     11.3569E-03     41.3448E-03     110.526E-03    -55.1407E-03    -55.4161E-03    -54.1495E-03     109.402E-03    -55.2842E-03     27.0217E-03     176.469E-03      43.703E+06     9.84207E+06    -15.2891E+06    -38.5708E+06    -33.3808E+06    -13.7121E+06     3.07505E+06    -271.728E+03
             569     42.6099E-03     10.4104E-03     41.3186E-03     110.794E-03    -55.3531E-03    -55.4722E-03    -54.7042E-03     110.065E-03    -55.3930E-03     21.8336E-03     162.906E-03     62.8125E+06     2.00917E+06    -36.7479E+06    -69.1553E+06    -36.7533E+06    -69.1499E+06     2.00917E+06     122.462E+03
             570     42.3684E-03     9.46419E-03     41.2978E-03     110.823E-03    -55.3704E-03    -55.4719E-03    -54.8541E-03     110.306E-03    -55.4719E-03     18.4634E-03     151.912E-03     97.2754E+06     1.80306E+06    -40.4065E+06    -109.326E+06    -40.4080E+06    -109.325E+06     1.80306E+06     199.625E+03
             571     42.1485E-03     8.51724E-03     41.2790E-03     110.769E-03    -55.2630E-03    -55.5183E-03    -54.8694E-03     110.376E-03    -55.5183E-03     16.0994E-03     142.949E-03     122.450E+06    -1.69317E+06    -44.4111E+06    -139.700E+06    -44.4135E+06    -139.698E+06    -1.69317E+06     388.357E+03
             572     41.9516E-03     7.57073E-03     41.2629E-03     110.755E-03    -55.1996E-03    -55.5688E-03    -54.9119E-03     110.467E-03    -55.5688E-03     13.7640E-03     135.212E-03     145.191E+06    -7.44817E+06    -49.5463E+06    -169.006E+06    -49.5475E+06    -169.005E+06    -7.44817E+06     320.623E+03
             573     41.7774E-03     6.62399E-03     41.2489E-03     110.860E-03    -55.2519E-03    -55.6171E-03    -55.0404E-03     110.649E-03    -55.6171E-03     11.8133E-03     129.062E-03     167.123E+06    -12.9069E+06    -55.4469E+06    -197.175E+06    -55.4473E+06    -197.175E+06    -12.9069E+06     173.967E+03
             574     41.6265E-03     5.67778E-03     41.2375E-03     110.989E-03    -55.3434E-03    -55.6545E-03    -55.1872E-03     110.832E-03    -55.6545E-03     10.1588E-03     124.059E-03     188.853E+06    -19.8270E+06    -61.9465E+06    -226.161E+06    -61.9471E+06    -226.160E+06    -19.8270E+06     263.489E+03
             575     41.4977E-03     4.73109E-03     41.2271E-03     111.045E-03    -55.3933E-03    -55.6699E-03    -55.2814E-03     110.933E-03    -55.6699E-03     8.59199E-03     120.029E-03     201.331E+06    -31.4236E+06    -69.4174E+06    -249.019E+06    -69.4179E+06    -249.018E+06    -31.4236E+06     252.986E+03
             576     41.3922E-03     3.78493E-03     41.2188E-03     111.032E-03    -55.4227E-03    -55.6301E-03    -55.3481E-03     110.958E-03    -55.6301E-03     6.99973E-03     116.810E-03     201.444E+06    -46.6957E+06    -76.7689E+06    -261.450E+06    -76.7700E+06    -261.449E+06    -46.6957E+06     108.225E+03
             577     41.3096E-03     2.83885E-03     41.2119E-03     110.968E-03    -55.3861E-03    -55.5959E-03    -55.3424E-03     110.925E-03    -55.5959E-03     5.32296E-03     114.449E-03     199.699E+06    -64.3519E+06    -83.7167E+06    -272.954E+06    -83.7222E+06    -272.949E+06    -64.3519E+06    -312.740E+03
             578     41.2507E-03     1.89209E-03     41.2073E-03     111.006E-03    -55.4081E-03    -55.6067E-03    -55.3998E-03     110.985E-03    -55.5941E-03     3.63365E-03     112.919E-03     197.339E+06    -80.4374E+06     -89.646E+06    -282.185E+06    -89.6561E+06    -282.175E+06    -80.4374E+06    -894.144E+03
             579     41.2154E-03     946.105E-06     41.2045E-03     111.161E-03    -55.4252E-03    -55.7407E-03    -55.6755E-03     111.154E-03    -55.4834E-03     1.97919E-03     112.185E-03     195.159E+06    -89.1773E+06    -94.3746E+06    -286.876E+06    -93.0682E+06    -286.869E+06    -90.4914E+06    -1.01756E+06
             580     43.5731E-03     16.0944E-03     40.4918E-03     113.128E-03    -54.4376E-03    -58.7419E-03    -53.4932E-03     108.839E-03    -55.3974E-03     43.7586E-03     202.644E-03     161.678E+06     170.182E+06     128.208E+06    -8.29719E+06    -8.27521E+06     170.160E+06     128.208E+06    -76.2075E+03
             581     43.1535E-03     15.1463E-03     40.4081E-03     114.542E-03    -55.3333E-03    -59.2069E-03    -53.6927E-03     109.028E-03    -55.3333E-03     58.8307E-03     223.241E-03     161.223E+06     164.196E+06     105.679E+06    -17.6679E+06    -17.6390E+06     164.167E+06     105.679E+06     812.270E+03
             582     42.7878E-03     14.1990E-03     40.3631E-03     112.648E-03    -55.1800E-03    -57.5235E-03    -53.9654E-03     109.090E-03    -55.1800E-03     48.3286E-03     206.377E-03     158.471E+06     157.040E+06     65.1177E+06    -24.2185E+06    -24.2059E+06     157.028E+06     65.1177E+06     216.716E+03
             583     42.4245E-03     13.2525E-03     40.3015E-03     112.276E-03    -55.0469E-03    -57.3198E-03    -53.9898E-03     108.946E-03    -55.0469E-03     46.4097E-03     205.983E-03     145.543E+06     136.703E+06     25.4921E+06    -27.6428E+06    -27.6326E+06     136.693E+06     25.4921E+06    -976.625E+03
             584     42.1009E-03     12.3048E-03     40.2626E-03     110.725E-03    -54.9916E-03    -55.7941E-03    -53.8400E-03     108.885E-03    -55.1054E-03     34.6246E-03     191.164E-03     88.1671E+06     68.1252E+06     6.97293E+06    -30.1162E+06    -30.1035E+06     68.1125E+06     6.97293E+06    -484.439E+03
             585     41.8002E-03     11.3573E-03     40.2277E-03     110.696E-03    -55.1336E-03    -55.5919E-03    -54.2925E-03     109.546E-03    -55.2825E-03     27.2763E-03     176.593E-03     43.7007E+06     10.0006E+06    -15.3191E+06    -38.4295E+06    -33.2177E+06    -13.6967E+06     3.16643E+06    -117.602E+03
             586     41.5286E-03     10.4108E-03     40.2025E-03     110.724E-03    -55.2889E-03    -55.4676E-03    -54.6629E-03     110.019E-03    -55.3883E-03     21.5125E-03     162.926E-03     62.9638E+06     2.06442E+06    -36.7715E+06    -69.2585E+06    -36.7737E+06    -69.2563E+06     2.06442E+06    -21.3158E+03
             587     41.2807E-03     9.46374E-03     40.1812E-03     110.794E-03    -55.3489E-03    -55.4680E-03    -54.8307E-03     110.276E-03    -55.4680E-03     18.4950E-03     151.930E-03     97.0958E+06     1.44852E+06    -40.7002E+06    -109.484E+06    -40.7007E+06    -109.484E+06     1.44852E+06    -13.7079E+03
             588     41.0559E-03     8.51762E-03     40.1626E-03     110.821E-03    -55.3203E-03    -55.5136E-03    -54.9259E-03     110.426E-03    -55.5136E-03     16.1198E-03     143.026E-03     122.314E+06    -1.99306E+06    -45.0616E+06    -139.943E+06    -45.0628E+06    -139.942E+06    -1.99306E+06     123.500E+03
             589     40.8542E-03     7.57089E-03     40.1466E-03     110.747E-03    -55.1954E-03    -55.5635E-03    -54.9077E-03     110.459E-03    -55.5635E-03     13.7657E-03     135.220E-03     145.061E+06    -6.82877E+06    -49.7133E+06    -168.465E+06    -49.7154E+06    -168.462E+06    -6.82877E+06     458.504E+03
             590     40.6758E-03     6.62418E-03     40.1328E-03     110.792E-03    -55.1812E-03    -55.6145E-03    -54.9675E-03     110.578E-03    -55.6145E-03     11.8735E-03     128.994E-03     167.003E+06    -12.5097E+06    -55.4494E+06    -196.769E+06    -55.4508E+06    -196.767E+06    -12.5097E+06     325.618E+03
             591     40.5203E-03     5.67739E-03     40.1206E-03     110.975E-03    -55.3258E-03    -55.6557E-03    -55.1695E-03     110.818E-03    -55.6557E-03     10.1501E-03     124.058E-03     188.883E+06    -20.2202E+06    -62.4380E+06    -226.620E+06    -62.4385E+06    -226.619E+06    -20.2202E+06     233.648E+03
             592     40.3891E-03     4.73144E-03     40.1110E-03     111.037E-03    -55.3851E-03    -55.6723E-03    -55.2734E-03     110.925E-03    -55.6723E-03     8.59781E-03     120.042E-03     200.820E+06    -31.8984E+06    -69.9477E+06    -248.993E+06    -69.9485E+06    -248.993E+06    -31.8984E+06     366.739E+03
             593     40.2806E-03     3.78487E-03     40.1023E-03     110.944E-03    -55.3234E-03    -55.6429E-03    -55.2469E-03     110.868E-03    -55.6429E-03     7.08039E-03     116.763E-03     199.795E+06    -48.2675E+06    -77.4775E+06    -261.012E+06    -77.4784E+06    -261.011E+06    -48.2675E+06     119.441E+03
             594     40.1965E-03     2.83832E-03     40.0961E-03     111.046E-03    -55.3997E-03    -55.6604E-03    -55.3953E-03     111.001E-03    -55.6201E-03     5.38907E-03     114.573E-03     197.870E+06    -65.7924E+06    -84.0039E+06    -272.072E+06    -84.0061E+06    -272.070E+06    -65.7924E+06    -238.311E+03
             595     40.1358E-03     1.89238E-03     40.0911E-03     111.154E-03    -55.5198E-03    -55.6409E-03    -55.5579E-03     111.132E-03    -55.5817E-03     3.64772E-03     113.054E-03     197.369E+06    -80.7588E+06    -89.1216E+06    -282.144E+06    -89.1288E+06    -282.136E+06    -80.7588E+06    -651.506E+03
             596     40.0988E-03     946.224E-06     40.0876E-03     111.068E-03    -55.4026E-03    -55.6683E-03    -55.6620E-03     111.062E-03    -55.4026E-03     1.85454E-03     112.053E-03     196.350E+06    -89.8587E+06    -94.1152E+06    -288.300E+06    -93.2532E+06    -288.293E+06    -90.7270E+06    -647.488E+03
             597     42.5378E-03     16.0942E-03     39.3756E-03     113.132E-03    -54.3950E-03    -58.7685E-03    -53.4958E-03     108.860E-03    -55.3961E-03     43.4906E-03     202.626E-03     160.694E+06     169.004E+06     127.427E+06    -8.36236E+06    -8.34549E+06     168.987E+06     127.427E+06     590.492E+03
             598     42.1108E-03     15.1465E-03     39.2926E-03     114.666E-03    -55.3309E-03    -59.3297E-03    -53.8227E-03     109.159E-03    -55.3309E-03     58.8422E-03     223.350E-03     159.272E+06     164.664E+06     107.364E+06    -14.8761E+06    -14.8600E+06     164.648E+06     107.364E+06     1.02691E+06
             599     41.7351E-03     14.1995E-03     39.2453E-03     112.414E-03    -55.1796E-03    -57.3045E-03    -53.7526E-03     108.863E-03    -55.1796E-03     48.2144E-03     206.147E-03     158.482E+06     159.521E+06     66.1615E+06    -21.4136E+06    -21.4032E+06     159.510E+06     66.1615E+06    -244.991E+03
             600     41.3667E-03     13.2513E-03     39.1868E-03     112.018E-03    -55.0635E-03    -57.0542E-03    -53.7438E-03     108.708E-03    -55.0635E-03     46.1721E-03     205.979E-03     144.756E+06     136.039E+06     24.2257E+06    -27.2297E+06    -27.2155E+06     136.024E+06     24.2257E+06    -1.44572E+06
             601     41.0338E-03     12.3039E-03     39.1457E-03     111.097E-03    -55.1200E-03    -56.0406E-03    -54.2148E-03     109.272E-03    -55.1200E-03     34.5653E-03     191.665E-03     87.9353E+06     67.2011E+06     6.49321E+06    -31.0017E+06    -30.9898E+06     67.1892E+06     6.49321E+06    -647.842E+03
             602     40.7277E-03     11.3580E-03     39.1119E-03     110.888E-03    -55.2219E-03    -55.7022E-03    -54.4929E-03     109.730E-03    -55.2738E-03     27.4220E-03     176.681E-03     44.7005E+06     10.4700E+06    -15.4748E+06    -39.2916E+06    -33.7071E+06    -13.5469E+06     2.95772E+06     26.9250E+03
             603     40.4492E-03     10.4107E-03     39.0865E-03     110.579E-03    -55.2369E-03    -55.3787E-03    -54.5196E-03     109.862E-03    -55.3787E-03     21.6672E-03     162.776E-03     62.9414E+06     2.06599E+06    -36.6507E+06    -69.3293E+06    -36.6524E+06    -69.3276E+06     2.06599E+06        -156.192
             604     40.1953E-03     9.46407E-03     39.0652E-03     110.718E-03    -55.2731E-03    -55.4676E-03    -54.7516E-03     110.196E-03    -55.4676E-03     18.5451E-03     151.861E-03     96.9842E+06     1.21811E+06    -40.6812E+06    -109.547E+06    -40.6817E+06    -109.547E+06     1.21811E+06     8.52815E+03
             605     39.9647E-03     8.51719E-03     39.0465E-03     110.783E-03    -55.2733E-03    -55.5222E-03    -54.8798E-03     110.390E-03    -55.5222E-03     16.0922E-03     143.020E-03     122.608E+06    -2.09730E+06    -45.3211E+06    -140.408E+06    -45.3217E+06    -140.407E+06    -2.09730E+06     72.6141E+03
             606     39.7583E-03     7.57069E-03     39.0308E-03     110.811E-03    -55.2541E-03    -55.5700E-03    -54.9655E-03     110.522E-03    -55.5700E-03     13.8009E-03     135.312E-03     144.720E+06    -6.90329E+06    -50.3803E+06    -168.349E+06    -50.3816E+06    -168.348E+06    -6.90329E+06     300.357E+03
             607     39.5753E-03     6.62422E-03     39.0169E-03     110.836E-03    -55.2274E-03    -55.6115E-03    -55.0098E-03     110.618E-03    -55.6115E-03     11.9854E-03     129.013E-03     166.229E+06    -12.9240E+06    -56.1227E+06    -196.462E+06    -56.1246E+06    -196.460E+06    -12.9240E+06     391.052E+03
             608     39.4160E-03     5.67777E-03     39.0049E-03     110.914E-03    -55.2590E-03    -55.6561E-03    -55.0991E-03     110.754E-03    -55.6561E-03     10.2662E-03     123.967E-03     188.590E+06    -20.6594E+06    -62.6206E+06    -226.670E+06    -62.6218E+06    -226.669E+06    -20.6594E+06     339.313E+03
             609     39.2804E-03     4.73099E-03     38.9945E-03     110.987E-03    -55.3169E-03    -55.6867E-03    -55.2046E-03     110.875E-03    -55.6867E-03     8.60151E-03     120.013E-03     200.407E+06    -32.1819E+06    -69.6791E+06    -248.661E+06    -69.6799E+06    -248.660E+06    -32.1819E+06     238.144E+03
             610     39.1700E-03     3.78474E-03     38.9867E-03     111.000E-03    -55.3535E-03    -55.6666E-03    -55.2774E-03     110.924E-03    -55.6666E-03     7.07341E-03     116.839E-03     199.587E+06    -48.0821E+06    -76.7383E+06    -260.401E+06    -76.7388E+06    -260.400E+06    -48.0821E+06     56.4963E+03
             611     39.0826E-03     2.83833E-03     38.9794E-03     111.135E-03    -55.4711E-03    -55.6770E-03    -55.4660E-03     111.090E-03    -55.6367E-03     5.41801E-03     114.653E-03     198.398E+06    -65.3305E+06    -83.4591E+06    -272.114E+06    -83.4607E+06    -272.113E+06    -65.3305E+06    -326.882E+03
             612     39.0206E-03     1.89238E-03     38.9746E-03     111.169E-03    -55.5376E-03    -55.6378E-03    -55.5637E-03     111.149E-03    -55.5911E-03     3.60643E-03     113.071E-03     198.031E+06    -79.9375E+06    -89.2169E+06    -282.423E+06    -89.2202E+06    -282.420E+06    -79.9375E+06    -9.84041E+03
             613     38.9836E-03     946.261E-06     38.9722E-03     111.076E-03    -55.3975E-03    -55.6809E-03    -55.6582E-03     111.069E-03    -55.4135E-03     1.96984E-03     112.058E-03     197.019E+06    -89.8969E+06    -94.0755E+06    -288.965E+06    -93.2094E+06    -288.963E+06    -90.7652E+06     500.755E+03
             614     41.5078E-03     16.0946E-03     38.2605E-03     113.520E-03    -54.5351E-03    -58.9958E-03    -53.8753E-03     109.250E-03    -55.3849E-03     43.5070E-03     202.756E-03     159.663E+06     169.413E+06     127.936E+06    -6.87087E+06    -6.86409E+06     169.406E+06     127.936E+06     290.005E+03
             615     41.0703E-03     15.1469E-03     38.1752E-03     114.506E-03    -55.2743E-03    -59.2037E-03    -53.6901E-03     109.031E-03    -55.3137E-03     58.5769E-03     223.157E-03     159.316E+06     164.858E+06     107.421E+06    -14.7403E+06    -14.7281E+06     164.846E+06     107.421E+06     54.5153E+03
             616     40.6876E-03     14.1991E-03     38.1296E-03     111.927E-03    -55.1391E-03    -56.8683E-03    -53.3019E-03     108.400E-03    -55.1784E-03     47.8695E-03     205.782E-03     158.737E+06     159.822E+06     65.4789E+06    -21.2802E+06    -21.2615E+06     159.803E+06     65.4789E+06     66.5356E+03
             617     40.3113E-03     13.2516E-03     38.0709E-03     112.175E-03    -55.0730E-03    -57.2072E-03    -53.8650E-03     108.833E-03    -55.0730E-03     46.4408E-03     205.968E-03     144.443E+06     135.933E+06     23.4405E+06    -26.7486E+06    -26.7381E+06     135.922E+06     23.4405E+06    -57.6346E+03
             618     39.9696E-03     12.3049E-03     38.0284E-03     111.182E-03    -55.1255E-03    -56.1288E-03    -54.3068E-03     109.360E-03    -55.1255E-03     34.5094E-03     191.758E-03     87.3296E+06     66.6330E+06     6.27603E+06    -30.7458E+06    -30.7427E+06     66.6299E+06     6.27603E+06    -408.111E+03
             619     39.6569E-03     11.3574E-03     37.9957E-03     110.835E-03    -55.2619E-03    -55.6185E-03    -54.4545E-03     109.687E-03    -55.2787E-03     27.3476E-03     176.611E-03     44.3758E+06     10.1651E+06    -15.2767E+06    -39.2351E+06    -33.4681E+06    -13.8461E+06     2.96756E+06    -300.457E+03
             620     39.3715E-03     10.4108E-03     37.9701E-03     110.676E-03    -55.2799E-03    -55.4417E-03    -54.6147E-03     109.951E-03    -55.3817E-03     21.7711E-03     162.851E-03     63.1405E+06     2.09306E+06    -36.8606E+06    -69.6174E+06    -36.8659E+06    -69.6122E+06     2.09306E+06    -20.9422E+03
             621     39.1111E-03     9.46392E-03     37.9488E-03     110.653E-03    -55.2100E-03    -55.4699E-03    -54.6899E-03     110.133E-03    -55.4699E-03     18.5228E-03     151.763E-03     96.7859E+06     1.52884E+06    -40.6695E+06    -109.049E+06    -40.6702E+06    -109.049E+06     1.52884E+06     190.627E+03
             622     38.8746E-03     8.51736E-03     37.9301E-03     110.712E-03    -55.1991E-03    -55.5285E-03    -54.8034E-03     110.316E-03    -55.5285E-03     16.1156E-03     142.946E-03     122.723E+06    -2.32272E+06    -44.9965E+06    -140.613E+06    -44.9978E+06    -140.612E+06    -2.32272E+06    -4.06398E+03
             623     38.6628E-03     7.57062E-03     37.9144E-03     110.830E-03    -55.2670E-03    -55.5818E-03    -54.9810E-03     110.544E-03    -55.5818E-03     13.7450E-03     135.369E-03     145.322E+06    -7.00703E+06    -49.9896E+06    -168.954E+06    -49.9912E+06    -168.952E+06    -7.00703E+06     47.6341E+03
             624     38.4754E-03     6.62407E-03     37.9009E-03     110.890E-03    -55.2743E-03    -55.6233E-03    -55.0572E-03     110.673E-03    -55.6233E-03     11.9708E-03     129.074E-03     166.333E+06     -12.462E+06    -55.8000E+06    -196.152E+06    -55.8016E+06    -196.150E+06     -12.462E+06     415.454E+03
             625     38.3117E-03     5.67750E-03     37.8887E-03     110.915E-03    -55.2520E-03    -55.6651E-03    -55.0918E-03     110.755E-03    -55.6651E-03     10.2824E-03     123.977E-03     188.240E+06    -20.5274E+06    -62.3640E+06    -226.135E+06    -62.3652E+06    -226.134E+06    -20.5274E+06     390.338E+03
             626     38.1730E-03     4.73114E-03     37.8787E-03     111.004E-03    -55.3250E-03    -55.6950E-03    -55.2129E-03     110.892E-03    -55.6950E-03     8.58523E-03     120.038E-03     199.824E+06    -32.7232E+06    -69.5376E+06    -248.366E+06    -69.5384E+06    -248.365E+06    -32.7232E+06    -26.6404E+03
             627     38.0588E-03     3.78455E-03     37.8701E-03     111.107E-03    -55.4613E-03    -55.6635E-03    -55.3869E-03     111.033E-03    -55.6635E-03     7.00006E-03     116.949E-03     199.276E+06    -48.2497E+06    -76.8770E+06    -260.255E+06    -76.8775E+06    -260.255E+06    -48.2497E+06    -241.378E+03
             628     37.9695E-03     2.83866E-03     37.8632E-03     111.080E-03    -55.4607E-03    -55.6289E-03    -55.4161E-03     111.035E-03    -55.6289E-03     5.36099E-03     114.581E-03     198.844E+06    -64.9771E+06    -83.6060E+06    -272.420E+06    -83.6068E+06    -272.420E+06    -64.9771E+06     65.0593E+03
             629     37.9057E-03     1.89214E-03     37.8585E-03     111.076E-03    -55.4517E-03    -55.6288E-03    -55.4311E-03     111.055E-03    -55.6288E-03     3.61395E-03     112.975E-03     198.299E+06    -79.8029E+06    -89.3325E+06    -282.672E+06    -89.3354E+06    -282.669E+06    -79.8029E+06     549.288E+03
             630     37.8675E-03     945.967E-06     37.8557E-03     111.235E-03    -55.4853E-03    -55.7509E-03    -55.6784E-03     111.228E-03    -55.5508E-03     1.97935E-03     112.233E-03     196.876E+06    -89.5841E+06    -93.0503E+06    -288.158E+06    -92.9700E+06    -288.151E+06    -89.6707E+06     136.734E+03
             631     40.4801E-03     16.0945E-03     37.1430E-03     113.639E-03    -54.6475E-03    -59.0381E-03    -53.9747E-03     109.311E-03    -55.3826E-03     43.9744E-03     202.836E-03     161.194E+06     170.078E+06     127.946E+06    -7.96534E+06    -7.95952E+06     170.073E+06     127.946E+06    -70.2118E+03
             632     40.0356E-03     15.1480E-03     37.0592E-03     114.455E-03    -55.2762E-03    -59.1883E-03    -53.6483E-03     108.954E-03    -55.3156E-03     58.6088E-03     223.205E-03     160.271E+06     165.148E+06     107.116E+06    -15.6016E+06    -15.5917E+06     165.138E+06     107.116E+06    -475.933E+03
             633     39.6454E-03     14.1991E-03     37.0155E-03     112.003E-03    -55.1448E-03    -56.9470E-03    -53.3506E-03     108.446E-03    -55.1841E-03     48.0381E-03     205.706E-03     158.405E+06     158.900E+06     65.3957E+06    -21.9738E+06    -21.9626E+06     158.889E+06     65.3957E+06     60.6860E+03
             634     39.2574E-03     13.2511E-03     36.9534E-03     112.197E-03    -55.0750E-03    -57.2340E-03    -53.8347E-03     108.798E-03    -55.0750E-03     46.8121E-03     205.748E-03     144.274E+06     136.120E+06     24.2336E+06    -26.4463E+06    -26.4384E+06     136.112E+06     24.2336E+06     785.887E+03
             635     38.9093E-03     12.3042E-03     36.9126E-03     111.094E-03    -55.1298E-03    -56.0452E-03    -54.2264E-03     109.276E-03    -55.1298E-03     34.4441E-03     191.778E-03     87.0800E+06     67.2010E+06     6.83896E+06    -29.8032E+06    -29.8004E+06     67.1982E+06     6.83896E+06     135.901E+03
             636     38.5888E-03     11.3575E-03     36.8796E-03     110.884E-03    -55.2776E-03    -55.6456E-03    -54.5042E-03     109.749E-03    -55.2835E-03     27.2183E-03     176.723E-03     44.0828E+06     9.88637E+06    -15.3394E+06    -39.1601E+06    -33.4156E+06    -14.0639E+06     2.86642E+06    -137.149E+03
             637     38.2955E-03     10.4107E-03     36.8533E-03     110.659E-03    -55.2614E-03    -55.4441E-03    -54.6061E-03     109.944E-03    -55.3841E-03     21.6147E-03     162.842E-03     63.1387E+06     1.83351E+06    -36.8707E+06    -69.8530E+06    -36.8813E+06    -69.8424E+06     1.83351E+06     -51.112E+03
             638     38.0297E-03     9.46415E-03     36.8333E-03     110.641E-03    -55.1963E-03    -55.4734E-03    -54.6767E-03     110.121E-03    -55.4734E-03     18.5219E-03     151.749E-03     96.5423E+06     1.43669E+06    -40.4816E+06    -108.851E+06    -40.4830E+06    -108.849E+06     1.43669E+06    -18.0064E+03
             639     37.7860E-03     8.51702E-03     36.8136E-03     110.712E-03    -55.1966E-03    -55.5315E-03    -54.7960E-03     110.312E-03    -55.5315E-03     16.2060E-03     142.905E-03     122.501E+06    -2.60186E+06    -44.9543E+06    -140.578E+06    -44.9555E+06    -140.577E+06    -2.60186E+06    -84.6179E+03
             640     37.5691E-03     7.57054E-03     36.7985E-03     110.806E-03    -55.2372E-03    -55.5896E-03    -54.9517E-03     110.520E-03    -55.5896E-03     13.7283E-03     135.348E-03     145.569E+06    -7.22819E+06    -50.0994E+06    -169.405E+06    -50.1010E+06    -169.404E+06    -7.22819E+06     23.7767E+03
             641     37.3759E-03     6.62398E-03     36.7842E-03     110.891E-03    -55.2664E-03    -55.6371E-03    -55.0504E-03     110.675E-03    -55.6371E-03     11.9382E-03     129.129E-03     166.553E+06    -12.2760E+06    -55.7865E+06    -196.243E+06    -55.7883E+06    -196.241E+06    -12.2760E+06     393.274E+03
             642     37.2085E-03     5.67759E-03     36.7728E-03     110.992E-03    -55.3239E-03    -55.6735E-03    -55.1660E-03     110.834E-03    -55.6735E-03     10.2112E-03     124.079E-03     187.760E+06    -20.4198E+06    -62.4246E+06    -225.597E+06    -62.4260E+06    -225.596E+06    -20.4198E+06     412.603E+03
             643     37.0656E-03     4.73091E-03     36.7625E-03     111.091E-03    -55.4186E-03    -55.6855E-03    -55.3054E-03     110.978E-03    -55.6855E-03     8.64401E-03     120.132E-03     198.797E+06    -33.4134E+06    -69.9237E+06    -247.897E+06    -69.9249E+06    -247.896E+06    -33.4134E+06     167.029E+03
             644     36.9483E-03     3.78501E-03     36.7539E-03     111.067E-03    -55.4385E-03    -55.6426E-03    -55.3627E-03     110.992E-03    -55.6426E-03     7.05116E-03     116.919E-03     198.350E+06    -49.6581E+06    -77.3379E+06    -260.355E+06    -77.3388E+06    -260.354E+06    -49.6581E+06    -42.6241E+03
             645     36.8565E-03     2.83847E-03     36.7471E-03     111.051E-03    -55.4432E-03    -55.6167E-03    -55.3999E-03     111.008E-03    -55.6167E-03     5.28814E-03     114.553E-03     198.954E+06     -65.108E+06    -84.0488E+06    -272.815E+06    -84.0499E+06    -272.814E+06     -65.108E+06     268.240E+03
             646     36.7913E-03     1.89224E-03     36.7426E-03     111.084E-03    -55.4729E-03    -55.6173E-03    -55.4682E-03     111.064E-03    -55.6021E-03     3.52698E-03     112.968E-03     198.192E+06    -79.2966E+06    -89.2039E+06    -282.211E+06    -89.2068E+06    -282.208E+06    -79.2966E+06     184.508E+03
             647     36.7512E-03     946.003E-06     36.7390E-03     111.135E-03    -55.4362E-03    -55.6991E-03    -55.6436E-03     111.129E-03    -55.4858E-03     1.74170E-03     112.136E-03     196.088E+06    -90.4478E+06    -93.3605E+06    -287.965E+06    -93.0231E+06    -287.958E+06    -90.7917E+06    -346.887E+03
             648     39.4579E-03     16.0946E-03     36.0262E-03     113.175E-03    -54.5706E-03    -58.7042E-03    -53.5942E-03     108.884E-03    -55.3901E-03     43.8052E-03     202.611E-03     160.916E+06     170.233E+06     127.721E+06    -7.61990E+06    -7.61545E+06     170.228E+06     127.721E+06    -432.654E+03
             649     39.0042E-03     15.1456E-03     35.9436E-03     114.416E-03    -55.3332E-03    -59.1628E-03    -53.6836E-03     108.937E-03    -55.3332E-03     58.5279E-03     223.417E-03     160.051E+06     165.351E+06     107.018E+06    -15.2945E+06    -15.2893E+06     165.345E+06     107.018E+06    -799.077E+03
             650     38.6048E-03     14.1994E-03     35.8986E-03     112.471E-03    -55.1904E-03    -57.3980E-03    -53.8579E-03     108.931E-03    -55.1904E-03     48.1135E-03     206.244E-03     158.178E+06     158.618E+06     66.0437E+06    -22.0732E+06    -22.0692E+06     158.614E+06     66.0437E+06     141.180E+03
             651     38.2099E-03     13.2522E-03     35.8382E-03     112.125E-03    -55.0630E-03    -57.1723E-03    -53.8080E-03     108.761E-03    -55.0630E-03     46.6136E-03     205.669E-03     144.529E+06     136.276E+06     24.7377E+06    -26.6936E+06    -26.6883E+06     136.270E+06     24.7377E+06     448.051E+03
             652     37.8513E-03     12.3041E-03     35.7957E-03     110.891E-03    -55.1215E-03    -55.8532E-03    -54.0370E-03     109.075E-03    -55.1215E-03     34.3588E-03     191.543E-03     87.0227E+06     67.1469E+06     6.63455E+06    -29.8056E+06    -29.7927E+06     67.1340E+06     6.63455E+06     407.910E+03
             653     37.5231E-03     11.3577E-03     35.7629E-03     110.828E-03    -55.2637E-03    -55.5984E-03    -54.4553E-03     109.705E-03    -55.2838E-03     27.0598E-03     176.749E-03     43.7148E+06     10.0490E+06    -15.0316E+06    -38.6155E+06    -32.8249E+06    -13.8384E+06     3.06521E+06     434.772E+03
             654     37.2231E-03     10.4107E-03     35.7376E-03     110.610E-03    -55.2624E-03    -55.3882E-03    -54.5439E-03     109.892E-03    -55.3882E-03     21.6785E-03     162.761E-03     62.7441E+06     1.92105E+06    -36.5252E+06    -69.3306E+06    -36.5322E+06    -69.3237E+06     1.92105E+06     136.797E+03
             655     36.9493E-03     9.46363E-03     35.7168E-03     110.702E-03    -55.2521E-03    -55.4794E-03    -54.7334E-03     110.183E-03    -55.4794E-03     18.4942E-03     151.832E-03     96.5766E+06     1.14026E+06    -40.6729E+06    -109.164E+06    -40.6750E+06    -109.162E+06     1.14026E+06    -83.1019E+03
             656     36.7000E-03     8.51734E-03     35.6980E-03     110.741E-03    -55.2185E-03    -55.5342E-03    -54.8227E-03     110.345E-03    -55.5342E-03     16.1314E-03     142.917E-03     122.399E+06    -2.73928E+06    -45.2580E+06    -140.656E+06    -45.2588E+06    -140.656E+06    -2.73928E+06     64.6545E+03
             657     36.4761E-03     7.57047E-03     35.6819E-03     110.785E-03    -55.2109E-03    -55.5914E-03    -54.9259E-03     110.500E-03    -55.5914E-03     13.6952E-03     135.306E-03     145.287E+06    -7.69748E+06    -50.6334E+06    -169.594E+06    -50.6341E+06    -169.593E+06    -7.69748E+06     177.824E+03
             658     36.2783E-03     6.62391E-03     35.6684E-03     110.892E-03    -55.2638E-03    -55.6411E-03    -55.0519E-03     110.680E-03    -55.6411E-03     11.8338E-03     129.127E-03     166.198E+06    -12.7236E+06    -56.6462E+06    -196.457E+06    -56.6477E+06    -196.455E+06    -12.7236E+06     353.269E+03
             659     36.1053E-03     5.67731E-03     35.6562E-03     111.040E-03    -55.3766E-03    -55.6711E-03    -55.2189E-03     110.883E-03    -55.6711E-03     10.2018E-03     124.110E-03     186.880E+06    -20.9221E+06    -63.2624E+06    -225.300E+06    -63.2642E+06    -225.298E+06    -20.9221E+06     469.026E+03
             660     35.9589E-03     4.73135E-03     35.6463E-03     111.105E-03    -55.4440E-03    -55.6755E-03    -55.3310E-03     110.992E-03    -55.6755E-03     8.64512E-03     120.152E-03     198.086E+06    -33.5764E+06    -69.9426E+06    -247.290E+06    -69.9435E+06    -247.289E+06    -33.5764E+06     183.012E+03
             661     35.8379E-03     3.78465E-03     35.6375E-03     111.034E-03    -55.4083E-03    -55.6406E-03    -55.3326E-03     110.958E-03    -55.6406E-03     7.03357E-03     116.851E-03     199.311E+06    -48.4732E+06    -76.8897E+06    -260.433E+06    -76.8909E+06    -260.432E+06    -48.4732E+06     148.192E+03
             662     35.7439E-03     2.83855E-03     35.6310E-03     111.090E-03    -55.4921E-03    -55.6083E-03    -55.4551E-03     111.047E-03    -55.6022E-03     5.28980E-03     114.570E-03     199.480E+06    -64.4132E+06    -83.5810E+06    -272.718E+06    -83.5822E+06    -272.717E+06    -64.4132E+06     150.179E+03
             663     35.6762E-03     1.89253E-03     35.6260E-03     111.085E-03    -55.5258E-03    -55.5652E-03    -55.5266E-03     111.064E-03    -55.5440E-03     3.57991E-03     112.964E-03     198.127E+06    -79.3345E+06    -89.2277E+06    -282.185E+06    -89.2300E+06    -282.183E+06    -79.3345E+06    -145.046E+03
             664     35.6357E-03     946.514E-06     35.6232E-03     110.961E-03    -55.3266E-03    -55.6343E-03    -55.6152E-03     110.954E-03    -55.3391E-03     1.92373E-03     111.952E-03     196.018E+06    -90.4599E+06    -93.9864E+06      -288.2E+06    -93.7356E+06    -288.194E+06    -90.7172E+06     461.601E+03
             665     38.4419E-03     16.0942E-03     34.9107E-03     113.088E-03    -54.4429E-03    -58.7170E-03    -53.5374E-03     108.862E-03    -55.3962E-03     43.4916E-03     202.574E-03     161.432E+06     170.713E+06     128.032E+06    -7.71558E+06    -7.71402E+06     170.711E+06     128.032E+06    -293.629E+03
             666     37.9792E-03     15.1472E-03     34.8279E-03     114.496E-03    -55.3332E-03    -59.2141E-03    -53.7885E-03     109.071E-03    -55.3332E-03     58.3495E-03     223.393E-03     160.566E+06     165.158E+06     106.716E+06    -16.0659E+06    -16.0628E+06     165.155E+06     106.716E+06    -649.944E+03
             667     37.5676E-03     14.1989E-03     34.7810E-03     112.433E-03    -55.1844E-03    -57.3446E-03    -53.8635E-03     108.951E-03    -55.1844E-03     47.7580E-03     206.297E-03     158.295E+06     158.305E+06     66.0619E+06    -22.5718E+06    -22.5605E+06     158.294E+06     66.0619E+06    -566.641E+03
             668     37.1655E-03     13.2520E-03     34.7226E-03     112.191E-03    -55.0549E-03    -57.2449E-03    -53.8923E-03     108.839E-03    -55.0549E-03     46.6846E-03     205.783E-03     144.573E+06     136.288E+06     24.9708E+06    -26.7632E+06    -26.7443E+06     136.269E+06     24.9708E+06     178.283E+03
             669     36.7982E-03     12.3050E-03     34.6799E-03     110.848E-03    -55.1115E-03    -55.8288E-03    -53.9492E-03     108.968E-03    -55.1115E-03     34.9079E-03     191.393E-03     86.9599E+06     66.6059E+06     6.24955E+06    -30.1978E+06    -30.1784E+06     66.5864E+06     6.24955E+06     693.995E+03
             670     36.4605E-03     11.3572E-03     34.6466E-03     110.641E-03    -55.2676E-03    -55.4124E-03    -54.2656E-03     109.511E-03    -55.2848E-03     27.0942E-03     176.618E-03     43.6408E+06     9.91214E+06    -15.1044E+06    -38.5334E+06    -33.1429E+06    -13.6052E+06     3.02239E+06     559.898E+03
             671     36.1528E-03     10.4104E-03     34.6215E-03     110.687E-03    -55.3305E-03    -55.3956E-03    -54.6146E-03     109.971E-03    -55.3956E-03     21.6455E-03     162.854E-03     62.5290E+06     2.22369E+06    -36.4343E+06    -68.7055E+06    -36.4613E+06    -68.6785E+06     2.22369E+06     454.105E+03
             672     35.8712E-03     9.46406E-03     34.6002E-03     110.725E-03    -55.2694E-03    -55.4850E-03    -54.7564E-03     110.212E-03    -55.4850E-03     18.3941E-03     151.866E-03     96.5968E+06     1.40538E+06    -40.6950E+06    -108.958E+06    -40.6990E+06    -108.954E+06     1.40538E+06     368.320E+03
             673     35.6152E-03     8.51709E-03     34.5819E-03     110.740E-03    -55.2057E-03    -55.5394E-03    -54.8086E-03     110.343E-03    -55.5394E-03     16.1730E-03     142.945E-03     122.409E+06    -2.85428E+06    -45.5549E+06    -140.821E+06    -45.5580E+06    -140.818E+06    -2.85428E+06     341.011E+03
             674     35.3849E-03     7.57057E-03     34.5656E-03     110.853E-03    -55.2716E-03    -55.5931E-03    -54.9816E-03     110.563E-03    -55.5931E-03     13.8130E-03     135.366E-03     145.025E+06    -7.74042E+06    -50.7170E+06    -169.377E+06    -50.7176E+06    -169.376E+06    -7.74042E+06     219.532E+03
             675     35.1815E-03     6.62401E-03     34.5523E-03     110.939E-03    -55.3116E-03    -55.6348E-03    -55.1012E-03     110.729E-03    -55.6348E-03     11.7932E-03     129.150E-03     166.352E+06    -12.7088E+06    -56.2525E+06    -196.479E+06    -56.2530E+06    -196.478E+06    -12.7088E+06     209.174E+03
             676     35.0036E-03     5.67767E-03     34.5400E-03     111.000E-03    -55.3422E-03    -55.6636E-03    -55.1838E-03     110.842E-03    -55.6636E-03     10.2296E-03     124.088E-03     187.080E+06    -20.6216E+06    -62.5995E+06    -225.090E+06    -62.6005E+06    -225.089E+06    -20.6216E+06     114.164E+03
             677     34.8525E-03     4.73098E-03     34.5299E-03     111.079E-03    -55.4170E-03    -55.6815E-03    -55.3033E-03     110.965E-03    -55.6815E-03     8.65604E-03     120.109E-03     199.121E+06    -32.0050E+06    -69.6061E+06    -247.222E+06    -69.6074E+06    -247.221E+06    -32.0050E+06     13.2990E+03
             678     34.7285E-03     3.78503E-03     34.5216E-03     111.063E-03    -55.4366E-03    -55.6449E-03    -55.3610E-03     110.988E-03    -55.6449E-03     7.04428E-03     116.857E-03     199.885E+06    -47.2451E+06    -77.0413E+06    -260.308E+06    -77.0426E+06    -260.306E+06    -47.2451E+06     184.452E+03
             679     34.6312E-03     2.83863E-03     34.5147E-03     111.049E-03    -55.4566E-03    -55.6024E-03    -55.4173E-03     111.003E-03    -55.5963E-03     5.43830E-03     114.534E-03     198.117E+06    -65.4487E+06    -84.1378E+06    -272.169E+06    -84.1394E+06    -272.168E+06    -65.4487E+06     227.508E+03
             680     34.5616E-03     1.89236E-03     34.5098E-03     111.058E-03    -55.4976E-03    -55.5659E-03    -55.4822E-03     111.036E-03    -55.5599E-03     3.65163E-03     112.943E-03     197.402E+06    -80.7782E+06    -90.0226E+06    -282.614E+06    -90.0245E+06    -282.612E+06    -80.7782E+06     361.695E+03
             681     34.5203E-03     945.945E-06     34.5073E-03     111.043E-03    -55.3780E-03    -55.6648E-03    -55.6377E-03     111.036E-03    -55.3982E-03     2.01651E-03     112.020E-03     195.687E+06    -90.3540E+06    -93.7772E+06    -287.712E+06    -93.7880E+06    -287.701E+06    -90.3540E+06     164.199E+03
             682     37.4312E-03     16.0943E-03     33.7946E-03     113.359E-03    -54.4211E-03    -58.9767E-03    -53.7231E-03     109.076E-03    -55.3918E-03     43.6294E-03     202.661E-03     161.336E+06     170.643E+06     127.946E+06    -7.70534E+06    -7.70471E+06     170.642E+06     127.946E+06    -194.651E+03
             683     36.9574E-03     15.1466E-03     33.7110E-03     114.658E-03    -55.3215E-03    -59.3530E-03    -53.8800E-03     109.185E-03    -55.3215E-03     58.5772E-03     223.336E-03     160.349E+06     165.826E+06     107.171E+06    -15.1629E+06    -15.1625E+06     165.826E+06     107.171E+06    -209.346E+03
             684     36.5376E-03     14.1998E-03     33.6654E-03     112.207E-03    -55.1726E-03    -57.1309E-03    -53.6360E-03     108.712E-03    -55.1726E-03     47.7405E-03     206.073E-03     157.964E+06     157.734E+06     64.9919E+06    -22.7782E+06    -22.7696E+06     157.725E+06     64.9919E+06    -525.734E+03
             685     36.1246E-03     13.2515E-03     33.6063E-03     112.095E-03    -55.0553E-03    -57.1418E-03    -53.7842E-03     108.738E-03    -55.0553E-03     46.6143E-03     205.794E-03     144.789E+06     135.077E+06     23.4136E+06    -28.2062E+06    -28.1890E+06     135.059E+06     23.4136E+06     81.4797E+03
             686     35.7478E-03     12.3043E-03     33.5635E-03     110.883E-03    -55.1194E-03    -55.8441E-03    -53.9714E-03     109.010E-03    -55.1194E-03     34.8988E-03     191.427E-03     88.3527E+06     67.1874E+06     6.13968E+06    -31.2485E+06    -31.2373E+06     67.1762E+06     6.13968E+06     526.647E+03
             687     35.4025E-03     11.3575E-03     33.5312E-03     110.752E-03    -55.2874E-03    -55.5031E-03    -54.3480E-03     109.600E-03    -55.2904E-03     27.3576E-03     176.604E-03     44.2337E+06     9.91041E+06    -15.6438E+06    -39.0719E+06    -34.1581E+06    -13.4359E+06     2.78868E+06     349.388E+03
             688     35.0845E-03     10.4107E-03     33.5043E-03     110.682E-03    -55.2602E-03    -55.4600E-03    -54.6156E-03     109.975E-03    -55.3972E-03     21.4947E-03     162.880E-03     62.5636E+06     2.01712E+06    -36.9623E+06    -68.8151E+06    -36.9892E+06    -68.7882E+06     2.01712E+06     428.682E+03
             689     34.7964E-03     9.46374E-03     33.4847E-03     110.661E-03    -55.1963E-03    -55.4898E-03    -54.6870E-03     110.152E-03    -55.4898E-03     18.3384E-03     151.831E-03     96.7348E+06     1.69838E+06    -40.7287E+06    -108.876E+06    -40.7333E+06    -108.871E+06     1.69838E+06     541.328E+03
             690     34.5320E-03     8.51707E-03     33.4651E-03     110.772E-03    -55.2327E-03    -55.5472E-03    -54.8339E-03     110.373E-03    -55.5472E-03     16.1912E-03     142.991E-03     122.404E+06    -2.31606E+06    -45.1889E+06    -140.304E+06    -45.1921E+06    -140.300E+06    -2.31606E+06     391.739E+03
             691     34.2957E-03     7.57038E-03     33.4497E-03     110.856E-03    -55.2719E-03    -55.5997E-03    -54.9814E-03     110.566E-03    -55.5997E-03     13.8475E-03     135.363E-03     144.960E+06    -7.38981E+06    -49.8670E+06    -168.818E+06    -49.8671E+06    -168.818E+06    -7.38981E+06     100.576E+03
             692     34.0854E-03     6.62408E-03     33.4356E-03     110.950E-03    -55.3144E-03    -55.6414E-03    -55.0961E-03     110.732E-03    -55.6414E-03     12.0062E-03     129.159E-03     166.537E+06    -12.8849E+06    -55.5610E+06    -196.583E+06    -55.5618E+06    -196.582E+06    -12.8849E+06    -80.6120E+03
             693     33.9030E-03     5.67753E-03     33.4243E-03     111.040E-03    -55.3631E-03    -55.6732E-03    -55.1997E-03     110.876E-03    -55.6732E-03     10.3989E-03     124.140E-03     187.503E+06    -20.1181E+06    -61.8458E+06    -224.951E+06    -61.8483E+06    -224.948E+06    -20.1181E+06    -25.9920E+03
             694     33.7468E-03     4.73121E-03     33.4135E-03     111.087E-03    -55.4052E-03    -55.6961E-03    -55.2880E-03     110.970E-03    -55.6961E-03     8.78720E-03     120.087E-03     200.073E+06    -31.0463E+06    -69.1748E+06    -247.416E+06    -69.1772E+06    -247.414E+06    -31.0463E+06     179.345E+03
             695     33.6191E-03     3.78470E-03     33.4054E-03     111.085E-03    -55.4393E-03    -55.6608E-03    -55.3623E-03     111.008E-03    -55.6608E-03     7.11261E-03     116.881E-03     200.385E+06    -46.8042E+06    -76.7766E+06    -260.436E+06    -76.7774E+06    -260.435E+06    -46.8042E+06     70.8109E+03
             696     33.5191E-03     2.83848E-03     33.3987E-03     111.067E-03    -55.4504E-03    -55.6248E-03    -55.4049E-03     111.021E-03    -55.6248E-03     5.42781E-03     114.552E-03     199.109E+06    -64.4103E+06    -83.7344E+06    -272.417E+06    -83.7355E+06    -272.416E+06    -64.4103E+06     304.949E+03
             697     33.4471E-03     1.89222E-03     33.3935E-03     111.081E-03    -55.4770E-03    -55.6113E-03    -55.4561E-03     111.060E-03    -55.6113E-03     3.61792E-03     112.959E-03     197.643E+06    -79.7477E+06    -89.3116E+06    -281.962E+06    -89.3135E+06    -281.961E+06    -79.7477E+06     427.273E+03
             698     33.4042E-03     946.328E-06     33.3908E-03     111.171E-03    -55.4442E-03    -55.7294E-03    -55.6764E-03     111.165E-03    -55.4906E-03     1.95218E-03     112.142E-03     195.537E+06    -89.9484E+06    -93.0453E+06    -287.004E+06    -92.7752E+06    -286.996E+06    -90.2266E+06    -145.845E+03
             699     36.4273E-03     16.0944E-03     32.6790E-03     113.444E-03    -54.5323E-03    -58.9606E-03    -53.7659E-03     109.103E-03    -55.3856E-03     43.8220E-03     202.516E-03     161.776E+06     170.680E+06     127.738E+06    -8.19816E+06    -8.19730E+06     170.679E+06     127.738E+06    -292.198E+03
             700     35.9410E-03     15.1473E-03     32.5932E-03     114.527E-03    -55.3133E-03    -59.2324E-03    -53.7395E-03     109.034E-03    -55.3133E-03     58.4804E-03     223.136E-03     160.682E+06     164.950E+06     105.851E+06    -16.4555E+06    -16.4545E+06     164.949E+06     105.851E+06     22.5667E+03
             701     35.5124E-03     14.1988E-03     32.5504E-03     112.236E-03    -55.1711E-03    -57.1602E-03    -53.6556E-03     108.731E-03    -55.1711E-03     47.7402E-03     206.145E-03     158.313E+06     157.600E+06     64.4403E+06    -23.3665E+06    -23.3631E+06     157.597E+06     64.4403E+06     578.364E+03
             702     35.0879E-03     13.2521E-03     32.4891E-03     112.110E-03    -55.0561E-03    -57.1465E-03    -53.7933E-03     108.757E-03    -55.0561E-03     46.4728E-03     205.793E-03     144.873E+06     135.040E+06     23.4415E+06    -28.3770E+06    -28.3739E+06     135.037E+06     23.4415E+06     282.061E+03
             703     34.7034E-03     12.3044E-03     32.4488E-03     110.841E-03    -55.1196E-03    -55.7890E-03    -53.9535E-03     109.005E-03    -55.1196E-03     34.6140E-03     191.332E-03     88.7880E+06     67.4214E+06     6.10743E+06    -31.5707E+06    -31.5653E+06     67.4160E+06     6.10743E+06    -219.008E+03
             704     34.3457E-03     11.3572E-03     32.4136E-03     110.776E-03    -55.2293E-03    -55.5815E-03    -54.3493E-03     109.609E-03    -55.2946E-03     27.5110E-03     176.468E-03     44.6150E+06     10.3964E+06    -15.5840E+06    -38.9876E+06    -34.2239E+06    -12.9792E+06     3.02772E+06     124.519E+03
             705     34.0212E-03     10.4108E-03     32.3891E-03     110.645E-03    -55.2081E-03    -55.4641E-03    -54.5614E-03     109.935E-03    -55.4013E-03     21.5330E-03     162.785E-03     62.4787E+06     1.53146E+06    -37.4956E+06    -69.1320E+06    -37.5080E+06    -69.1197E+06     1.53146E+06     201.950E+03
             706     33.7230E-03     9.46362E-03     32.3679E-03     110.714E-03    -55.2370E-03    -55.4900E-03    -54.7255E-03     110.203E-03    -55.4900E-03     18.3735E-03     151.820E-03     96.4886E+06     1.17958E+06    -40.8867E+06    -109.071E+06    -40.8889E+06    -109.069E+06     1.17958E+06     99.7593E+03
             707     33.4517E-03     8.51712E-03     32.3492E-03     110.765E-03    -55.2325E-03    -55.5466E-03    -54.8364E-03     110.369E-03    -55.5466E-03     16.1418E-03     142.939E-03     121.935E+06    -2.35589E+06    -44.8189E+06    -139.765E+06    -44.8204E+06    -139.764E+06    -2.35589E+06     143.980E+03
             708     33.2077E-03     7.57056E-03     32.3332E-03     110.790E-03    -55.1985E-03    -55.6051E-03    -54.9080E-03     110.499E-03    -55.6051E-03     13.8407E-03     135.247E-03     144.640E+06    -7.84295E+06    -49.8206E+06    -168.801E+06    -49.8212E+06    -168.801E+06    -7.84295E+06     78.3919E+03
             709     32.9915E-03     6.62363E-03     32.3197E-03     110.927E-03    -55.2723E-03    -55.6580E-03    -55.0539E-03     110.708E-03    -55.6580E-03     12.0084E-03     129.120E-03     166.211E+06    -13.1784E+06    -55.6078E+06    -196.476E+06    -55.6089E+06    -196.475E+06    -13.1784E+06    -117.452E+03
             710     32.8025E-03     5.67731E-03     32.3075E-03     111.090E-03    -55.3945E-03    -55.6916E-03    -55.2334E-03     110.929E-03    -55.6916E-03     10.3169E-03     124.170E-03     187.079E+06    -20.6619E+06    -62.1649E+06    -224.981E+06    -62.1674E+06    -224.979E+06    -20.6619E+06     27.4442E+03
             711     32.6423E-03     4.73099E-03     32.2976E-03     111.132E-03    -55.4349E-03    -55.7071E-03    -55.3188E-03     111.016E-03    -55.7071E-03     8.75845E-03     120.143E-03     198.823E+06    -32.3737E+06    -69.2942E+06    -247.042E+06    -69.2962E+06    -247.040E+06    -32.3737E+06     152.031E+03
             712     32.5099E-03     3.78466E-03     32.2888E-03     111.111E-03    -55.4485E-03    -55.6769E-03    -55.3721E-03     111.035E-03    -55.6769E-03     7.06830E-03     116.897E-03     200.524E+06    -46.9626E+06    -76.6716E+06    -260.656E+06    -76.6727E+06    -260.655E+06    -46.9626E+06    -113.020E+03
             713     32.4069E-03     2.83855E-03     32.2823E-03     111.103E-03    -55.4649E-03    -55.6486E-03    -55.4221E-03     111.060E-03    -55.6486E-03     5.27808E-03     114.580E-03     200.512E+06    -62.8697E+06    -83.3301E+06    -272.769E+06    -83.3309E+06    -272.768E+06    -62.8697E+06    -48.3351E+03
             714     32.3328E-03     1.89229E-03     32.2773E-03     111.088E-03    -55.4499E-03    -55.6468E-03    -55.4284E-03     111.067E-03    -55.6468E-03     3.70538E-03     112.974E-03     197.732E+06    -78.4698E+06    -89.0275E+06    -281.234E+06    -89.0281E+06    -281.233E+06    -78.4698E+06     166.742E+03
             715     32.2882E-03     945.772E-06     32.2744E-03     111.256E-03    -55.4109E-03    -55.8499E-03    -55.7433E-03     111.248E-03    -55.5096E-03     2.15103E-03     112.256E-03     194.942E+06    -89.8658E+06    -93.2973E+06    -286.485E+06    -93.0219E+06    -286.482E+06    -90.1440E+06     135.841E+03
             716     35.4287E-03     16.0948E-03     31.5618E-03     113.357E-03    -54.5363E-03    -58.8955E-03    -53.6554E-03     108.974E-03    -55.3932E-03     44.0455E-03     202.540E-03     162.237E+06     170.534E+06     127.487E+06    -8.84987E+06    -8.84462E+06     170.529E+06     127.487E+06     354.095E+03
             717     34.9331E-03     15.1463E-03     31.4787E-03     114.609E-03    -55.3266E-03    -59.3111E-03    -53.7564E-03     109.054E-03    -55.3266E-03     58.8335E-03     223.225E-03     160.813E+06     164.377E+06     105.604E+06    -17.1170E+06    -17.1111E+06     164.371E+06     105.604E+06     572.040E+03
             718     34.4915E-03     14.1995E-03     31.4330E-03     112.331E-03    -55.1817E-03    -57.2198E-03    -53.7375E-03     108.849E-03    -55.1817E-03     47.6662E-03     206.252E-03     158.862E+06     157.899E+06     64.8463E+06    -23.6927E+06    -23.6902E+06     157.897E+06     64.8463E+06     298.974E+03
             719     34.0575E-03     13.2517E-03     31.3736E-03     112.142E-03    -55.0636E-03    -57.1652E-03    -53.8183E-03     108.795E-03    -55.0636E-03     46.5298E-03     205.785E-03     145.347E+06     136.428E+06      24.975E+06    -27.6763E+06    -27.6740E+06     136.426E+06      24.975E+06    -88.8934E+03
             720     33.6613E-03     12.3046E-03     31.3317E-03     111.010E-03    -55.1154E-03    -55.9543E-03    -54.0885E-03     109.144E-03    -55.1154E-03     34.8855E-03     191.378E-03     87.9147E+06     67.5665E+06     6.68738E+06    -30.5926E+06    -30.5882E+06     67.5621E+06     6.68738E+06    -266.207E+03
             721     33.2953E-03     11.3577E-03     31.2982E-03     110.688E-03    -55.1474E-03    -55.5775E-03    -54.2895E-03     109.536E-03    -55.2842E-03     27.3131E-03     176.379E-03     44.1855E+06     10.0250E+06    -15.6336E+06    -39.1300E+06    -33.5628E+06    -13.8811E+06     2.70534E+06    -152.998E+03
             722     32.9593E-03     10.4099E-03     31.2721E-03     110.523E-03    -55.1634E-03    -55.3988E-03    -54.4621E-03     109.822E-03    -55.3988E-03     21.3993E-03     162.601E-03     62.3558E+06     1.65849E+06    -36.7965E+06    -69.0544E+06    -36.8247E+06    -69.0262E+06     1.65849E+06    -45.5520E+03
             723     32.6535E-03     9.46397E-03     31.2519E-03     110.733E-03    -55.2572E-03    -55.4900E-03    -54.7439E-03     110.220E-03    -55.4900E-03     18.4115E-03     151.795E-03     96.1368E+06     887.734E+03    -40.6427E+06    -108.899E+06    -40.6440E+06    -108.898E+06     887.734E+03    -65.6176E+03
             724     32.3734E-03     8.51707E-03     31.2329E-03     110.781E-03    -55.2381E-03    -55.5490E-03    -54.8398E-03     110.383E-03    -55.5490E-03     16.1819E-03     142.943E-03     121.953E+06    -2.64905E+06    -45.0625E+06    -140.080E+06    -45.0632E+06    -140.079E+06    -2.64905E+06     19.7688E+03
             725     32.1220E-03     7.57023E-03     31.2173E-03     110.844E-03    -55.2460E-03    -55.6064E-03    -54.9597E-03     110.557E-03    -55.6064E-03     13.7403E-03     135.303E-03     144.355E+06    -7.54342E+06    -49.9474E+06    -168.325E+06    -49.9480E+06    -168.325E+06    -7.54342E+06     51.3257E+03
             726     31.8985E-03     6.62399E-03     31.2031E-03     110.930E-03    -55.2770E-03    -55.6548E-03    -55.0635E-03     110.716E-03    -55.6548E-03     11.8778E-03     129.130E-03     166.179E+06    -12.9745E+06    -55.5793E+06    -196.288E+06    -55.5798E+06    -196.288E+06    -12.9745E+06    -98.5909E+03
             727     31.7038E-03     5.67737E-03     31.1913E-03     111.045E-03    -55.3549E-03    -55.6905E-03    -55.1982E-03     110.888E-03    -55.6905E-03     10.1664E-03     124.143E-03     187.393E+06    -20.7270E+06    -62.0895E+06    -225.320E+06    -62.0902E+06    -225.320E+06    -20.7270E+06    -154.420E+03
             728     31.5380E-03     4.73097E-03     31.1811E-03     111.129E-03    -55.4339E-03    -55.7085E-03    -55.3227E-03     111.018E-03    -55.7085E-03     8.57445E-03     120.154E-03     198.712E+06    -32.3803E+06    -69.1990E+06    -246.901E+06    -69.1996E+06    -246.901E+06    -32.3803E+06     22.5177E+03
             729     31.4016E-03     3.78478E-03     31.1727E-03     111.063E-03    -55.4003E-03    -55.6808E-03    -55.3245E-03     110.987E-03    -55.6808E-03     7.05778E-03     116.857E-03     199.759E+06    -47.5247E+06    -76.5810E+06    -260.184E+06    -76.5819E+06    -260.183E+06    -47.5247E+06     9.43025E+03
             730     31.2951E-03     2.83839E-03     31.1661E-03     111.103E-03    -55.4522E-03    -55.6640E-03    -55.4079E-03     111.059E-03    -55.6640E-03     5.35999E-03     114.582E-03     199.903E+06    -63.8267E+06    -83.6806E+06    -272.868E+06    -83.6823E+06    -272.867E+06    -63.8267E+06    -374.185E+03
             731     31.2187E-03     1.89214E-03     31.1613E-03     111.198E-03    -55.5178E-03    -55.6889E-03    -55.5431E-03     111.177E-03    -55.6424E-03     3.67462E-03     113.083E-03     197.753E+06    -78.6630E+06    -89.1212E+06    -281.400E+06    -89.1227E+06    -281.398E+06    -78.6630E+06    -91.1168E+03
             732     31.1724E-03     946.146E-06     31.1580E-03     111.196E-03    -55.4320E-03    -55.7673E-03    -55.6997E-03     111.188E-03    -55.4921E-03     2.10798E-03     112.191E-03     194.821E+06    -89.9151E+06    -93.0768E+06    -286.282E+06    -92.9499E+06    -286.280E+06    -90.0438E+06     86.8639E+03
             733     34.4386E-03     16.0939E-03     30.4467E-03     113.224E-03    -54.4495E-03    -58.8317E-03    -53.5587E-03     108.901E-03    -55.3990E-03     43.7249E-03     202.548E-03     160.826E+06     169.820E+06     127.402E+06    -7.93022E+06    -7.92302E+06     169.813E+06     127.402E+06     782.293E+03
             734     33.9298E-03     15.1465E-03     30.3615E-03     114.580E-03    -55.3437E-03    -59.2573E-03    -53.7037E-03     109.027E-03    -55.3437E-03     59.0098E-03     223.192E-03     159.411E+06     164.450E+06     106.600E+06    -15.3802E+06    -15.3735E+06     164.443E+06     106.600E+06     729.307E+03
             735     33.4771E-03     14.1990E-03     30.3167E-03     112.425E-03    -55.1992E-03    -57.3012E-03    -53.8028E-03     108.926E-03    -55.1992E-03     47.8927E-03     206.361E-03     158.115E+06     158.629E+06     65.8819E+06    -22.0138E+06    -22.0096E+06     158.625E+06     65.8819E+06    -155.026E+03
             736     33.0329E-03     13.2517E-03     30.2582E-03     112.325E-03    -55.0708E-03    -57.3361E-03    -54.0012E-03     108.991E-03    -55.0708E-03     46.5753E-03     205.956E-03     145.264E+06     137.200E+06     25.3305E+06    -26.6865E+06    -26.6835E+06     137.197E+06     25.3305E+06    -616.400E+03
             737     32.6242E-03     12.3042E-03     30.2150E-03     111.126E-03    -55.1138E-03    -56.0615E-03    -54.1914E-03     109.256E-03    -55.1138E-03     34.8923E-03     191.469E-03     87.5970E+06     67.9468E+06     7.02459E+06    -29.7817E+06    -29.7787E+06     67.9439E+06     7.02459E+06    -183.983E+03
             738     32.2485E-03     11.3576E-03     30.1823E-03     110.745E-03    -55.2022E-03    -55.5787E-03    -54.3732E-03     109.611E-03    -55.2738E-03     27.1614E-03     176.431E-03     43.7472E+06     9.69389E+06    -15.3411E+06    -39.1530E+06    -32.9752E+06    -14.3920E+06     2.56698E+06    -104.987E+03
             739     31.9032E-03     10.4112E-03     30.1566E-03     110.469E-03    -55.1151E-03    -55.3908E-03    -54.4060E-03     109.758E-03    -55.3894E-03     21.5252E-03     162.465E-03     62.6306E+06     1.97206E+06    -36.2336E+06    -69.2594E+06    -36.2578E+06    -69.2352E+06     1.97206E+06     40.3753E+03
             740     31.5866E-03     9.46334E-03     30.1356E-03     110.643E-03    -55.1642E-03    -55.4888E-03    -54.6551E-03     110.134E-03    -55.4888E-03     18.3146E-03     151.759E-03     96.5886E+06     1.62744E+06    -40.2144E+06    -108.694E+06    -40.2165E+06    -108.691E+06     1.62744E+06     278.620E+03
             741     31.2979E-03     8.51692E-03     30.1167E-03     110.823E-03    -55.2806E-03    -55.5483E-03    -54.8928E-03     110.436E-03    -55.5483E-03     15.9677E-03     143.016E-03     122.185E+06    -2.30613E+06    -44.9178E+06    -140.024E+06    -44.9206E+06    -140.021E+06    -2.30613E+06    -37.6818E+03
             742     31.0385E-03     7.57067E-03     30.1011E-03     110.855E-03    -55.2706E-03    -55.5993E-03    -54.9877E-03     110.572E-03    -55.5993E-03     13.6679E-03     135.357E-03     144.306E+06    -7.27153E+06    -49.9763E+06    -168.087E+06    -49.9780E+06    -168.085E+06    -7.27153E+06    -101.680E+03
             743     30.8078E-03     6.62395E-03     30.0873E-03     110.918E-03    -55.2787E-03    -55.6423E-03    -55.0626E-03     110.702E-03    -55.6423E-03     11.9509E-03     129.129E-03     165.871E+06    -13.0127E+06    -55.7451E+06    -196.043E+06    -55.7457E+06    -196.042E+06    -13.0127E+06    -40.3919E+03
             744     30.6062E-03     5.67748E-03     30.0750E-03     111.034E-03    -55.3578E-03    -55.6766E-03    -55.1977E-03     110.874E-03    -55.6766E-03     10.2804E-03     124.139E-03     187.517E+06    -20.7777E+06    -62.2952E+06    -225.552E+06    -62.2957E+06    -225.552E+06    -20.7777E+06    -220.389E+03
             745     30.4349E-03     4.73114E-03     30.0649E-03     111.064E-03    -55.3839E-03    -55.6969E-03    -55.2730E-03     110.953E-03    -55.6969E-03     8.54430E-03     120.096E-03     199.145E+06    -32.2087E+06    -69.3221E+06    -247.271E+06    -69.3224E+06    -247.271E+06    -32.2087E+06    -103.663E+03
             746     30.2939E-03     3.78464E-03     30.0565E-03     111.010E-03    -55.3561E-03    -55.6747E-03    -55.2824E-03     110.936E-03    -55.6747E-03     6.96612E-03     116.810E-03     199.141E+06    -47.8095E+06    -76.6058E+06    -259.742E+06    -76.6060E+06    -259.741E+06    -47.8095E+06     108.852E+03
             747     30.1834E-03     2.83820E-03     30.0496E-03     111.143E-03    -55.4952E-03    -55.6632E-03    -55.4637E-03     111.099E-03    -55.6510E-03     5.30089E-03     114.603E-03     199.270E+06    -64.7205E+06    -83.1616E+06    -272.505E+06    -83.1632E+06    -272.503E+06    -64.7205E+06    -242.317E+03
             748     30.1043E-03     1.89231E-03     30.0447E-03     111.217E-03    -55.5726E-03    -55.6544E-03    -55.6114E-03     111.198E-03    -55.5958E-03     3.55159E-03     113.073E-03     198.366E+06    -79.1052E+06    -88.6193E+06    -282.038E+06    -88.6239E+06    -282.034E+06    -79.1052E+06    -739.049E+03
             749     30.0565E-03     946.391E-06     30.0416E-03     111.055E-03    -55.4147E-03    -55.6428E-03    -55.6246E-03     111.048E-03    -55.4259E-03     2.04290E-03     112.012E-03     195.847E+06    -89.2283E+06    -92.6950E+06    -286.770E+06    -92.5710E+06    -286.766E+06    -89.3570E+06    -17.6732E+03
             750     33.4553E-03     16.0947E-03     29.3295E-03     113.247E-03    -54.5438E-03    -58.7473E-03    -53.6463E-03     108.995E-03    -55.3927E-03     43.4654E-03     202.523E-03     160.132E+06     169.960E+06     127.533E+06    -7.07592E+06    -7.07182E+06     169.956E+06     127.533E+06     494.147E+03
             751     32.9362E-03     15.1466E-03     29.2467E-03     114.337E-03    -55.3358E-03    -58.9934E-03    -53.5081E-03     108.851E-03    -55.3358E-03     58.6611E-03     222.951E-03     158.590E+06     164.690E+06     106.507E+06    -14.3275E+06    -14.3222E+06     164.685E+06     106.507E+06     235.500E+03
             752     32.4687E-03     14.1981E-03     29.1998E-03     112.212E-03    -55.2067E-03    -57.0833E-03    -53.5938E-03     108.723E-03    -55.2067E-03     47.7941E-03     206.116E-03     157.368E+06     159.043E+06     66.1691E+06    -20.8030E+06    -20.7971E+06     159.037E+06     66.1691E+06    -201.792E+03
             753     32.0130E-03     13.2517E-03     29.1414E-03     112.502E-03    -55.0816E-03    -57.5055E-03    -54.1634E-03     109.160E-03    -55.0816E-03     46.7062E-03     206.202E-03     145.078E+06     137.068E+06     24.8770E+06    -26.4401E+06    -26.4376E+06     137.065E+06     24.8770E+06    -155.274E+03
             754     31.5936E-03     12.3049E-03     29.0989E-03     111.277E-03    -55.1154E-03    -56.2151E-03    -54.3412E-03     109.403E-03    -55.1154E-03     34.9160E-03     191.629E-03     87.8492E+06     67.6219E+06     6.32409E+06    -30.2037E+06    -30.1999E+06     67.6181E+06     6.32409E+06     78.1706E+03
             755     31.2060E-03     11.3576E-03     29.0658E-03     110.703E-03    -55.2153E-03    -55.5246E-03    -54.3454E-03     109.582E-03    -55.2737E-03     27.0284E-03     176.327E-03     43.8506E+06     9.64989E+06    -15.3835E+06    -39.2250E+06    -33.3359E+06    -14.1463E+06     2.52351E+06     223.938E+03
             756     30.8501E-03     10.4103E-03     29.0406E-03     110.607E-03    -55.2172E-03    -55.4228E-03    -54.5367E-03     109.886E-03    -55.3832E-03     21.6913E-03     162.578E-03     62.4958E+06     1.48757E+06    -36.8118E+06    -69.5364E+06    -36.8219E+06    -69.5264E+06     1.48757E+06     387.598E+03
             757     30.5236E-03     9.46414E-03     29.0193E-03     110.687E-03    -55.1866E-03    -55.5104E-03    -54.7159E-03     110.178E-03    -55.4722E-03     18.3118E-03     151.730E-03     96.2183E+06     1.49113E+06    -40.4358E+06    -108.447E+06    -40.4396E+06    -108.443E+06     1.49113E+06     318.455E+03
             758     30.2253E-03     8.51734E-03     29.0004E-03     110.693E-03    -55.1695E-03    -55.5321E-03    -54.7825E-03     110.306E-03    -55.5321E-03     15.9558E-03     142.859E-03     121.722E+06    -2.51042E+06    -44.8322E+06    -139.665E+06    -44.8359E+06    -139.661E+06    -2.51042E+06     55.7296E+03
             759     29.9572E-03     7.57043E-03     28.9849E-03     110.827E-03    -55.2521E-03    -55.5884E-03    -54.9669E-03     110.541E-03    -55.5884E-03     13.7089E-03     135.309E-03     144.461E+06    -7.72248E+06    -50.1447E+06    -168.626E+06    -50.1478E+06    -168.623E+06    -7.72248E+06    -110.086E+03
             760     29.7185E-03     6.62393E-03     28.9709E-03     110.931E-03    -55.3038E-03    -55.6290E-03    -55.0909E-03     110.718E-03    -55.6290E-03     11.8606E-03     129.123E-03     165.739E+06    -12.9162E+06    -55.8636E+06    -195.880E+06    -55.8646E+06    -195.879E+06    -12.9162E+06    -38.5201E+03
             761     29.5102E-03     5.67756E-03     28.9589E-03     110.977E-03    -55.3175E-03    -55.6624E-03    -55.1589E-03     110.819E-03    -55.6624E-03     10.2347E-03     124.063E-03     187.234E+06    -20.9592E+06    -62.5454E+06    -225.461E+06    -62.5456E+06    -225.461E+06    -20.9592E+06    -110.964E+03
             762     29.3328E-03     4.73108E-03     28.9487E-03     111.042E-03    -55.3775E-03    -55.6821E-03    -55.2670E-03     110.932E-03    -55.6821E-03     8.52538E-03     120.078E-03     198.793E+06    -33.0305E+06    -69.8761E+06    -247.641E+06    -69.8765E+06    -247.641E+06    -33.0305E+06    -229.732E+03
             763     29.1868E-03     3.78475E-03     28.9404E-03     111.076E-03    -55.4510E-03    -55.6430E-03    -55.3785E-03     111.003E-03    -55.6430E-03     6.90931E-03     116.888E-03     198.427E+06    -48.4654E+06    -76.7560E+06    -259.474E+06    -76.7567E+06    -259.473E+06    -48.4654E+06    -151.315E+03
             764     29.0722E-03     2.83871E-03     28.9333E-03     111.094E-03    -55.5037E-03    -55.6070E-03    -55.4724E-03     111.050E-03    -55.5949E-03     5.30213E-03     114.556E-03     198.636E+06    -64.8195E+06    -83.2943E+06    -271.996E+06    -83.2952E+06    -271.995E+06    -64.8195E+06    -182.915E+03
             765     28.9903E-03     1.89247E-03     28.9284E-03     111.056E-03    -55.4999E-03    -55.5676E-03    -55.5048E-03     111.037E-03    -55.5434E-03     3.45979E-03     112.907E-03     198.144E+06    -79.5644E+06    -89.1129E+06    -282.277E+06    -89.1170E+06    -282.273E+06    -79.5644E+06    -355.637E+03
             766     28.9411E-03     946.003E-06     28.9257E-03     110.978E-03    -55.3330E-03    -55.6467E-03    -55.6297E-03     110.972E-03    -55.3441E-03     1.84046E-03     111.932E-03     196.055E+06    -90.0087E+06    -93.1354E+06    -287.596E+06    -92.9710E+06    -287.586E+06    -90.1834E+06    -521.714E+03
             767     32.4816E-03     16.0944E-03     28.2140E-03     113.347E-03    -54.5247E-03    -58.8879E-03    -53.7401E-03     109.069E-03    -55.3941E-03     43.6919E-03     202.719E-03     160.701E+06     170.497E+06     127.580E+06    -7.25624E+06    -7.25174E+06     170.492E+06     127.580E+06     81.0887E+03
             768     31.9491E-03     15.1468E-03     28.1304E-03     114.453E-03    -55.3257E-03    -59.1582E-03    -53.6852E-03     108.980E-03    -55.3257E-03     58.5450E-03     223.168E-03     160.187E+06     165.974E+06     106.701E+06    -14.9759E+06    -14.9698E+06     165.967E+06     106.701E+06    -158.547E+03
             769     31.4701E-03     14.1996E-03     28.0845E-03     112.067E-03    -55.1902E-03    -56.9910E-03    -53.4915E-03     108.567E-03    -55.1902E-03     47.7522E-03     205.738E-03     158.215E+06     158.497E+06     64.8292E+06    -22.2696E+06    -22.2669E+06     158.494E+06     64.8292E+06     30.4281E+03
             770     30.9997E-03     13.2506E-03     28.0251E-03     112.293E-03    -55.0787E-03    -57.3141E-03    -53.9585E-03     108.937E-03    -55.0787E-03     46.6496E-03     205.953E-03     145.347E+06     136.346E+06     23.7582E+06    -27.4446E+06    -27.4434E+06     136.345E+06     23.7582E+06     390.695E+03
             771     30.5675E-03     12.3042E-03     27.9817E-03     111.217E-03    -55.1232E-03    -56.1552E-03    -54.3273E-03     109.389E-03    -55.1232E-03     34.4774E-03     191.688E-03     88.3237E+06     67.2927E+06     6.03043E+06    -31.0658E+06    -31.0626E+06     67.2895E+06     6.03043E+06     420.708E+03
             772     30.1703E-03     11.3577E-03     27.9508E-03     110.814E-03    -55.2177E-03    -55.6246E-03    -54.4578E-03     109.705E-03    -55.2761E-03     26.9115E-03     176.481E-03     44.1303E+06     9.72900E+06    -15.4877E+06    -39.2943E+06    -33.8598E+06    -13.8242E+06     2.63099E+06     508.134E+03
             773     29.8014E-03     10.4108E-03     27.9238E-03     110.671E-03    -55.2047E-03    -55.5014E-03    -54.6134E-03     109.952E-03    -55.3734E-03     21.6845E-03     162.652E-03     62.0776E+06     1.26510E+06    -36.9682E+06    -69.1418E+06    -37.0032E+06    -69.1068E+06     1.26510E+06     387.779E+03
             774     29.4644E-03     9.46419E-03     27.9031E-03     110.651E-03    -55.1727E-03    -55.4980E-03    -54.6985E-03     110.138E-03    -55.4598E-03     18.3826E-03     151.658E-03     95.7631E+06     974.128E+03    -40.8112E+06    -108.464E+06    -40.8142E+06    -108.461E+06     974.128E+03     54.3742E+03
             775     29.1565E-03     8.51719E-03     27.8848E-03     110.702E-03    -55.1890E-03    -55.5231E-03    -54.7914E-03     110.304E-03    -55.5231E-03     16.1788E-03     142.849E-03     121.521E+06    -2.47291E+06    -45.0519E+06    -139.471E+06    -45.0529E+06    -139.470E+06    -2.47291E+06     117.570E+03
             776     28.8782E-03     7.57058E-03     27.8682E-03     110.875E-03    -55.3149E-03    -55.5743E-03    -55.0288E-03     110.589E-03    -55.5743E-03     13.7195E-03     135.332E-03     144.439E+06    -7.66413E+06    -50.1501E+06    -168.559E+06    -50.1516E+06    -168.558E+06    -7.66413E+06     34.2062E+03
             777     28.6315E-03     6.62434E-03     27.8547E-03     110.927E-03    -55.3291E-03    -55.6060E-03    -55.1231E-03     110.720E-03    -55.6060E-03     11.6719E-03     129.150E-03     165.989E+06    -12.8601E+06    -55.8796E+06    -196.105E+06    -55.8806E+06    -196.104E+06    -12.8601E+06    -171.154E+03
             778     28.4155E-03     5.67765E-03     27.8425E-03     110.917E-03    -55.2855E-03    -55.6336E-03    -55.1320E-03     110.763E-03    -55.6336E-03     10.0657E-03     123.987E-03     186.973E+06    -20.9704E+06    -62.3479E+06    -225.133E+06    -62.3483E+06    -225.133E+06    -20.9704E+06    -107.483E+03
             779     28.2318E-03     4.73112E-03     27.8326E-03     111.012E-03    -55.3742E-03    -55.6515E-03    -55.2661E-03     110.904E-03    -55.6515E-03     8.43935E-03     120.018E-03     198.944E+06    -32.9157E+06    -69.4401E+06    -247.566E+06    -69.4410E+06    -247.566E+06    -32.9157E+06    -294.218E+03
             780     28.0801E-03     3.78501E-03     27.8238E-03     111.036E-03    -55.4435E-03    -55.6089E-03    -55.3707E-03     110.963E-03    -55.6089E-03     6.92639E-03     116.850E-03     198.918E+06    -47.7157E+06    -76.6456E+06    -259.478E+06    -76.6484E+06    -259.475E+06    -47.7157E+06    -111.232E+03
             781     27.9618E-03     2.83871E-03     27.8173E-03     110.991E-03    -55.4425E-03    -55.5602E-03    -55.3981E-03     110.946E-03    -55.5602E-03     5.36771E-03     114.473E-03     198.398E+06    -64.6925E+06    -83.7947E+06    -271.883E+06    -83.7967E+06    -271.881E+06    -64.6925E+06     141.011E+03
             782     27.8765E-03     1.89239E-03     27.8122E-03     110.974E-03    -55.4513E-03    -55.5309E-03    -55.4429E-03     110.954E-03    -55.5187E-03     3.56667E-03     112.846E-03     197.479E+06    -80.1775E+06    -89.7543E+06    -282.237E+06    -89.7586E+06    -282.233E+06    -80.1775E+06    -251.240E+03
             783     27.8257E-03     946.545E-06     27.8095E-03     110.947E-03    -55.3543E-03    -55.5938E-03    -55.5767E-03     110.941E-03    -55.3654E-03     1.78028E-03     111.905E-03     196.621E+06    -90.3308E+06    -93.4015E+06    -288.456E+06    -93.1590E+06    -288.443E+06    -90.5858E+06    -402.939E+03
             784     31.5164E-03     16.0940E-03     27.0974E-03     113.343E-03    -54.4445E-03    -58.9589E-03    -53.6971E-03     109.039E-03    -55.4015E-03     43.8834E-03     202.726E-03     161.486E+06     170.429E+06     127.457E+06    -8.14307E+06    -8.13985E+06     170.426E+06     127.457E+06    -33.0757E+03
             785     30.9699E-03     15.1468E-03     27.0131E-03     114.541E-03    -55.3311E-03    -59.2512E-03    -53.7728E-03     109.063E-03    -55.3311E-03     58.5367E-03     223.279E-03     161.467E+06     165.909E+06     106.378E+06    -16.4587E+06    -16.4557E+06     165.906E+06     106.378E+06    -45.6280E+03
             786     30.4789E-03     14.1986E-03     26.9696E-03     112.465E-03    -55.1782E-03    -57.4032E-03    -53.8174E-03     108.879E-03    -55.1782E-03     48.3580E-03     205.992E-03     159.084E+06     158.698E+06     64.6825E+06    -23.0023E+06    -23.0011E+06     158.697E+06     64.6825E+06     317.172E+03
             787     29.9945E-03     13.2526E-03     26.9080E-03     112.381E-03    -55.0523E-03    -57.4308E-03    -54.0491E-03     109.000E-03    -55.0523E-03     46.6685E-03     205.913E-03     145.089E+06     136.289E+06     23.8454E+06    -27.2105E+06    -27.2092E+06     136.288E+06     23.8454E+06     405.460E+03
             788     29.5500E-03     12.3045E-03     26.8663E-03     110.841E-03    -55.1089E-03    -55.8024E-03    -54.0426E-03     109.081E-03    -55.1089E-03     33.8507E-03     191.460E-03     87.6175E+06     66.8535E+06     6.35347E+06    -30.6700E+06    -30.6641E+06     66.8475E+06     6.35347E+06     471.269E+03
             789     29.1379E-03     11.3572E-03     26.8334E-03     110.784E-03    -55.2728E-03    -55.5404E-03    -54.4369E-03     109.680E-03    -55.2728E-03     26.8002E-03     176.557E-03     43.8479E+06     9.82452E+06    -15.2892E+06    -38.7094E+06    -33.6562E+06    -13.5762E+06     3.05840E+06     533.285E+03
             790     28.7590E-03     10.4111E-03     26.8084E-03     110.614E-03    -55.1803E-03    -55.4599E-03    -54.5576E-03     109.901E-03    -55.3695E-03     21.6195E-03     162.576E-03     61.7135E+06     1.37728E+06    -36.8530E+06    -68.4982E+06    -36.8872E+06    -68.4639E+06     1.37728E+06     313.450E+03
             791     28.4098E-03     9.46377E-03     26.7872E-03     110.639E-03    -55.1965E-03    -55.4602E-03    -54.6774E-03     110.120E-03    -55.4602E-03     18.4861E-03     151.630E-03     95.6434E+06     851.018E+03    -40.8032E+06    -108.445E+06    -40.8065E+06    -108.442E+06     851.018E+03    -47.8412E+03
             792     28.0910E-03     8.51736E-03     26.7686E-03     110.872E-03    -55.3697E-03    -55.5141E-03    -54.9768E-03     110.479E-03    -55.5141E-03     16.0976E-03     143.005E-03     121.419E+06    -2.58346E+06    -45.4200E+06    -139.540E+06    -45.4226E+06    -139.537E+06    -2.58346E+06     96.1141E+03
             793     27.8030E-03     7.57093E-03     26.7524E-03     110.869E-03    -55.3346E-03    -55.5510E-03    -55.0494E-03     110.584E-03    -55.5510E-03     13.7042E-03     135.278E-03     143.915E+06    -7.97905E+06    -50.3195E+06    -168.283E+06    -50.3215E+06    -168.281E+06    -7.97905E+06     140.252E+03
             794     27.5469E-03     6.62429E-03     26.7386E-03     110.894E-03    -55.3316E-03    -55.5779E-03    -55.1253E-03     110.688E-03    -55.5779E-03     11.6763E-03     129.101E-03     165.613E+06    -13.2396E+06    -55.9316E+06    -196.002E+06    -55.9322E+06    -196.001E+06    -13.2396E+06    -164.909E+03
             795     27.3233E-03     5.67798E-03     26.7268E-03     110.974E-03    -55.3888E-03    -55.5925E-03    -55.2378E-03     110.823E-03    -55.5925E-03     9.98156E-03     124.035E-03     186.741E+06    -20.7891E+06    -62.5163E+06    -224.836E+06    -62.5166E+06    -224.835E+06    -20.7891E+06    -101.471E+03
             796     27.1322E-03     4.73166E-03     26.7164E-03     110.916E-03    -55.3342E-03    -55.5950E-03    -55.2285E-03     110.810E-03    -55.5950E-03     8.34728E-03     119.910E-03     198.514E+06    -32.9499E+06    -69.7767E+06    -247.267E+06    -69.7776E+06    -247.266E+06    -32.9499E+06    -110.705E+03
             797     26.9750E-03     3.78503E-03     26.7081E-03     110.822E-03    -55.2754E-03    -55.5643E-03    -55.2038E-03     110.751E-03    -55.5643E-03     6.85931E-03     116.630E-03     198.836E+06    -48.4187E+06    -77.4309E+06    -260.134E+06     -77.434E+06    -260.131E+06    -48.4187E+06    -10.1943E+03
             798     26.8516E-03     2.83871E-03     26.7011E-03     110.864E-03    -55.3257E-03    -55.5496E-03    -55.2820E-03     110.820E-03    -55.5496E-03     5.32565E-03     114.349E-03     198.030E+06    -64.8719E+06    -83.9894E+06    -271.697E+06    -83.9921E+06    -271.694E+06    -64.8719E+06     266.502E+03
             799     26.7634E-03     1.89249E-03     26.6964E-03     110.922E-03    -55.3734E-03    -55.5552E-03    -55.3517E-03     110.900E-03    -55.5552E-03     3.72251E-03     112.806E-03     196.912E+06    -80.6663E+06    -89.6383E+06    -281.871E+06    -89.6426E+06    -281.867E+06    -80.6663E+06    -246.480E+03
             800     26.7098E-03     945.901E-06     26.6931E-03     111.095E-03    -55.4119E-03    -55.6849E-03    -55.5877E-03     111.088E-03    -55.5019E-03     1.96846E-03     112.064E-03     196.550E+06    -91.1033E+06    -93.6104E+06    -288.883E+06    -93.5365E+06    -288.876E+06    -91.1837E+06    -71.3884E+03
             801     30.5618E-03     16.0943E-03     25.9806E-03     113.258E-03    -54.5177E-03    -58.7906E-03    -53.6017E-03     108.953E-03    -55.4018E-03     43.8649E-03     202.672E-03     160.531E+06     170.025E+06     127.425E+06    -7.46505E+06    -7.46273E+06     170.023E+06     127.425E+06    -59.4008E+03
             802     30.0016E-03     15.1461E-03     25.8977E-03     114.601E-03    -55.3381E-03    -59.2621E-03    -53.8186E-03     109.157E-03    -55.3381E-03     58.2421E-03     223.420E-03     160.087E+06     165.786E+06     107.124E+06    -14.9403E+06    -14.9381E+06     165.784E+06     107.124E+06    -83.2155E+03
             803     29.4951E-03     14.1990E-03     25.8525E-03     112.676E-03    -55.1754E-03    -57.5717E-03    -54.0284E-03     109.132E-03    -55.1754E-03     48.0843E-03     206.284E-03     158.270E+06     159.185E+06     65.4968E+06    -21.5091E+06     -21.507E+06     159.183E+06     65.4968E+06     434.112E+03
             804     28.9959E-03     13.2516E-03     25.7907E-03     112.300E-03    -55.0337E-03    -57.3685E-03    -53.9996E-03     108.931E-03    -55.0337E-03     46.5660E-03     205.863E-03     144.376E+06     135.673E+06     23.1274E+06    -26.8072E+06    -26.8038E+06     135.670E+06     23.1274E+06     671.466E+03
             805     28.5402E-03     12.3053E-03     25.7512E-03     110.851E-03    -55.0927E-03    -55.8315E-03    -54.0147E-03     109.034E-03    -55.0927E-03     34.4631E-03     191.385E-03     86.8393E+06     66.3877E+06     5.47697E+06    -30.2217E+06    -30.2111E+06     66.3770E+06     5.47697E+06     736.954E+03
             806     28.1132E-03     11.3580E-03     25.7167E-03     110.711E-03    -55.2150E-03    -55.5319E-03    -54.3403E-03     109.571E-03    -55.2662E-03     27.1056E-03     176.454E-03     43.3287E+06     9.80124E+06    -15.4236E+06    -38.3208E+06    -33.1398E+06    -13.5079E+06     2.70456E+06     765.097E+03
             807     27.7213E-03     10.4105E-03     25.6922E-03     110.569E-03    -55.2365E-03    -55.3695E-03    -54.5482E-03     109.880E-03    -55.3689E-03     21.2701E-03     162.592E-03     60.9298E+06     1.49764E+06    -36.5582E+06    -67.5691E+06    -36.5989E+06    -67.5284E+06     1.49764E+06     409.966E+03
             808     27.3599E-03     9.46408E-03     25.6709E-03     110.765E-03    -55.3373E-03    -55.4504E-03    -54.8170E-03     110.245E-03    -55.4504E-03     18.5241E-03     151.699E-03     94.8707E+06     365.520E+03    -41.0480E+06    -108.033E+06    -41.0524E+06    -108.028E+06     365.520E+03     167.666E+03
             809     27.0288E-03     8.51746E-03     25.6517E-03     110.878E-03    -55.3954E-03    -55.4923E-03    -55.0070E-03     110.490E-03    -55.4923E-03     15.9935E-03     142.983E-03     121.162E+06    -3.34222E+06    -45.8136E+06    -139.954E+06    -45.8181E+06    -139.950E+06    -3.34222E+06     168.600E+03
             810     26.7306E-03     7.57106E-03     25.6360E-03     110.846E-03    -55.3378E-03    -55.5258E-03    -55.0599E-03     110.568E-03    -55.5258E-03     13.5358E-03     135.247E-03     143.356E+06    -8.27225E+06    -50.5977E+06    -167.996E+06    -50.6006E+06    -167.993E+06    -8.27225E+06     173.033E+03
             811     26.4646E-03     6.62446E-03     25.6221E-03     110.862E-03    -55.3341E-03    -55.5483E-03    -55.1291E-03     110.657E-03    -55.5483E-03     11.6383E-03     129.005E-03     164.863E+06    -13.5646E+06    -56.4419E+06    -195.613E+06    -56.4431E+06    -195.612E+06    -13.5646E+06    -11.1251E+03
             812     26.2320E-03     5.67816E-03     25.6101E-03     110.939E-03    -55.3900E-03    -55.5596E-03    -55.2398E-03     110.789E-03    -55.5596E-03     9.95383E-03     123.984E-03     186.759E+06    -20.6060E+06    -63.0598E+06    -224.914E+06    -63.0599E+06    -224.914E+06    -20.6060E+06    -55.5477E+03
             813     26.0340E-03     4.73187E-03     25.6003E-03     110.871E-03    -55.3327E-03    -55.5533E-03    -55.2268E-03     110.765E-03    -55.5533E-03     8.35738E-03     119.845E-03     198.584E+06    -32.4945E+06    -70.1732E+06    -247.184E+06    -70.1734E+06    -247.184E+06    -32.4945E+06     101.788E+03
             814     25.8704E-03     3.78540E-03     25.5920E-03     110.703E-03    -55.2060E-03    -55.5167E-03    -55.1338E-03     110.631E-03    -55.5167E-03     6.87843E-03     116.494E-03     198.636E+06    -48.8211E+06    -77.4851E+06    -260.186E+06    -77.4860E+06    -260.185E+06    -48.8211E+06    -148.447E+03
             815     25.7422E-03     2.83876E-03     25.5852E-03     110.713E-03    -55.2091E-03    -55.5179E-03    -55.1658E-03     110.669E-03    -55.5179E-03     5.29577E-03     114.218E-03     197.548E+06    -65.9576E+06    -84.2849E+06    -271.971E+06    -84.2879E+06    -271.968E+06    -65.9576E+06    -379.754E+03
             816     25.6501E-03     1.89217E-03     25.5802E-03     110.871E-03    -55.3216E-03    -55.5584E-03    -55.3009E-03     110.850E-03    -55.5584E-03     3.60357E-03     112.766E-03     197.144E+06    -80.0749E+06    -89.1088E+06    -281.543E+06    -89.1142E+06    -281.538E+06    -80.0749E+06     265.458E+03
             817     25.5947E-03     945.998E-06     25.5772E-03     111.138E-03    -55.3947E-03    -55.7448E-03    -55.6413E-03     111.131E-03    -55.4913E-03     2.01249E-03     112.107E-03     197.034E+06    -90.1450E+06    -92.9829E+06    -288.567E+06    -92.9861E+06    -288.564E+06    -90.1450E+06     325.839E+03
             818     29.6199E-03     16.0943E-03     24.8658E-03     113.375E-03    -54.5489E-03    -58.8799E-03    -53.7351E-03     109.077E-03    -55.3964E-03     43.6826E-03     202.725E-03     160.275E+06     170.101E+06     127.350E+06    -7.18661E+06    -7.18037E+06     170.094E+06     127.350E+06    -544.068E+03
             819     29.0430E-03     15.1466E-03     24.7806E-03     114.734E-03    -55.3303E-03    -59.4014E-03    -53.9176E-03     109.250E-03    -55.3303E-03     58.6065E-03     223.405E-03     159.682E+06     165.282E+06     106.804E+06    -14.9450E+06    -14.9427E+06     165.280E+06     106.804E+06     28.7577E+03
             820     28.5219E-03     14.2001E-03     24.7357E-03     112.433E-03    -55.1649E-03    -57.3469E-03    -53.7978E-03     108.884E-03    -55.1649E-03     48.1151E-03     206.033E-03     158.051E+06     158.184E+06     64.2468E+06    -22.2272E+06    -22.2209E+06     158.178E+06     64.2468E+06     913.320E+03
             821     28.0093E-03     13.2523E-03     24.6758E-03     112.080E-03    -55.0349E-03    -57.1527E-03    -53.7668E-03     108.695E-03    -55.0349E-03     46.7219E-03     205.614E-03     144.390E+06     135.099E+06     22.0780E+06    -27.2716E+06    -27.2603E+06     135.087E+06     22.0780E+06     1.30616E+06
             822     27.5361E-03     12.3039E-03     24.6343E-03     111.022E-03    -55.1019E-03    -55.9975E-03    -54.1533E-03     109.178E-03    -55.1019E-03     34.6716E-03     191.507E-03     87.7947E+06     66.8485E+06     5.00521E+06    -30.8390E+06    -30.8203E+06     66.8299E+06     5.00521E+06     1.18290E+06
             823     27.0961E-03     11.3576E-03     24.6009E-03     110.836E-03    -55.2128E-03    -55.6581E-03    -54.4800E-03     109.710E-03    -55.2640E-03     27.0129E-03     176.555E-03     43.2804E+06     9.79419E+06    -15.8578E+06    -38.1152E+06    -33.7453E+06    -12.7523E+06     2.31871E+06     802.188E+03
             824     26.6900E-03     10.4110E-03     24.5757E-03     110.671E-03    -55.3022E-03    -55.4127E-03    -54.6661E-03     109.978E-03    -55.3557E-03     21.3282E-03     162.642E-03     60.3027E+06     1.13774E+06    -37.1326E+06    -67.0202E+06    -37.1854E+06    -66.9674E+06     1.13774E+06     597.026E+03
             825     26.3149E-03     9.46426E-03     24.5540E-03     110.818E-03    -55.3798E-03    -55.4622E-03    -54.9007E-03     110.304E-03    -55.4270E-03     18.4341E-03     151.727E-03     94.5292E+06     106.441E+03    -41.2098E+06    -107.884E+06    -41.2233E+06    -107.870E+06     106.441E+03     565.920E+03
             826     25.9718E-03     8.51778E-03     24.5353E-03     110.789E-03    -55.3310E-03    -55.4645E-03    -54.9476E-03     110.406E-03    -55.4645E-03     15.8726E-03     142.876E-03     121.016E+06    -3.42830E+06    -45.8491E+06    -139.886E+06    -45.8528E+06    -139.882E+06    -3.42830E+06     337.206E+03
             827     25.6616E-03     7.57115E-03     24.5192E-03     110.819E-03    -55.3409E-03    -55.4976E-03    -55.0666E-03     110.545E-03    -55.4976E-03     13.4589E-03     135.222E-03     142.724E+06    -8.41332E+06    -51.3730E+06    -167.661E+06    -51.3758E+06    -167.658E+06    -8.41332E+06     335.166E+03
             828     25.3854E-03     6.62495E-03     24.5057E-03     110.822E-03    -55.3235E-03    -55.5161E-03    -55.1185E-03     110.617E-03    -55.5161E-03     11.6304E-03     128.928E-03     164.139E+06    -13.8986E+06    -57.0698E+06    -195.283E+06    -57.0709E+06    -195.282E+06    -13.8986E+06     65.5538E+03
             829     25.1433E-03     5.67823E-03     24.4938E-03     110.794E-03    -55.2659E-03    -55.5337E-03    -55.1170E-03     110.645E-03    -55.5337E-03     9.90964E-03     123.799E-03     186.559E+06    -21.0751E+06    -63.3328E+06    -225.116E+06    -63.3345E+06    -225.115E+06    -21.0751E+06    -382.903E+03
             830     24.9371E-03     4.73176E-03     24.4840E-03     110.833E-03    -55.3089E-03    -55.5390E-03    -55.2033E-03     110.727E-03    -55.5390E-03     8.34228E-03     119.774E-03     198.967E+06    -32.0892E+06    -70.2836E+06    -247.358E+06    -70.2851E+06    -247.357E+06    -32.0892E+06    -287.482E+03
             831     24.7671E-03     3.78542E-03     24.4761E-03     110.763E-03    -55.3030E-03    -55.4854E-03    -55.2320E-03     110.692E-03    -55.4854E-03     6.82059E-03     116.543E-03     198.218E+06    -48.2098E+06    -77.4389E+06    -259.366E+06    -77.4392E+06    -259.365E+06    -48.2098E+06    -59.7619E+03
             832     24.6334E-03     2.83898E-03     24.4693E-03     110.684E-03    -55.2550E-03    -55.4471E-03    -55.2135E-03     110.643E-03    -55.4471E-03     5.17401E-03     114.188E-03     197.332E+06    -66.2343E+06    -84.5423E+06    -272.021E+06    -84.5444E+06    -272.019E+06    -66.2343E+06    -237.552E+03
             833     24.5372E-03     1.89259E-03     24.4641E-03     110.753E-03    -55.3210E-03    -55.4401E-03    -55.3059E-03     110.733E-03    -55.4351E-03     3.57336E-03     112.653E-03     197.360E+06    -80.7077E+06    -90.2200E+06    -282.626E+06    -90.2250E+06    -282.621E+06    -80.7077E+06     177.371E+03
             834     24.4789E-03     946.349E-06     24.4606E-03     110.815E-03    -55.2134E-03    -55.6024E-03    -55.5776E-03     110.808E-03    -55.2311E-03     1.95940E-03     111.806E-03     195.400E+06    -90.8726E+06    -94.2092E+06    -287.902E+06    -94.2125E+06    -287.899E+06    -90.8726E+06     270.042E+03
             835     28.6881E-03     16.0943E-03     23.7483E-03     113.453E-03    -54.5476E-03    -58.9565E-03    -53.8106E-03     109.149E-03    -55.3893E-03     43.7334E-03     202.663E-03     161.415E+06     170.405E+06     126.874E+06    -8.28943E+06    -8.28285E+06     170.399E+06     126.874E+06    -592.927E+03
             836     28.0975E-03     15.1472E-03     23.6650E-03     114.549E-03    -55.3299E-03    -59.2383E-03    -53.6936E-03     109.005E-03    -55.3299E-03     59.0321E-03     223.032E-03     159.854E+06     163.746E+06     106.001E+06    -16.5586E+06    -16.5500E+06     163.738E+06     106.001E+06     446.105E+03
             837     27.5580E-03     14.1985E-03     23.6187E-03     112.183E-03    -55.1819E-03    -57.0819E-03    -53.5157E-03     108.617E-03    -55.1819E-03     48.2547E-03     205.900E-03     158.147E+06     156.596E+06     64.0634E+06    -23.9654E+06    -23.9517E+06     156.583E+06     64.0634E+06     1.48062E+06
             838     27.0312E-03     13.2511E-03     23.5605E-03     112.362E-03    -55.0530E-03    -57.3988E-03    -54.0011E-03     108.964E-03    -55.0530E-03     46.9700E-03     205.849E-03     146.239E+06     135.750E+06     22.5797E+06    -29.0760E+06    -29.0626E+06     135.736E+06     22.5797E+06     1.47051E+06
             839     26.5414E-03     12.3050E-03     23.5166E-03     111.206E-03    -55.1042E-03    -56.1682E-03    -54.3353E-03     109.373E-03    -55.1042E-03     34.4941E-03     191.529E-03     89.4978E+06     68.0986E+06     5.37769E+06    -31.7512E+06    -31.7347E+06     68.0821E+06     5.37769E+06     877.867E+03
             840     26.0869E-03     11.3579E-03     23.4846E-03     110.846E-03    -55.2512E-03    -55.6333E-03    -54.5433E-03     109.756E-03    -55.2512E-03     26.6973E-03     176.470E-03     43.2143E+06     9.39933E+06    -16.2828E+06    -38.4619E+06    -34.2116E+06    -12.8508E+06     1.71695E+06     495.992E+03
             841     25.6653E-03     10.4108E-03     23.4589E-03     110.824E-03    -55.3345E-03    -55.5353E-03    -54.8349E-03     110.124E-03    -55.3345E-03     21.3998E-03     162.608E-03     60.1732E+06     908.104E+03    -37.3330E+06    -67.1069E+06    -37.4024E+06    -67.0375E+06     908.104E+03     797.770E+03
             842     25.2767E-03     9.46466E-03     23.4378E-03     110.801E-03    -55.3344E-03    -55.4916E-03    -54.9336E-03     110.304E-03    -55.3959E-03     18.1198E-03     151.651E-03     94.2042E+06     116.604E+03    -41.4149E+06    -107.557E+06    -41.4399E+06    -107.532E+06     116.604E+03     1.02393E+06
             843     24.9201E-03     8.51799E-03     23.4191E-03     110.689E-03    -55.2687E-03    -55.4278E-03    -54.8895E-03     110.309E-03    -55.4278E-03     15.7774E-03     142.687E-03     120.243E+06    -3.85872E+06    -46.1657E+06    -139.469E+06    -46.1796E+06    -139.455E+06    -3.85872E+06     689.871E+03
             844     24.5979E-03     7.57149E-03     23.4036E-03     110.714E-03    -55.2677E-03    -55.4652E-03    -54.9941E-03     110.441E-03    -55.4652E-03     13.4384E-03     135.052E-03     142.390E+06    -8.50839E+06    -51.2076E+06    -167.341E+06    -51.2097E+06    -167.339E+06    -8.50839E+06     324.502E+03
             845     24.3097E-03     6.62480E-03     23.3896E-03     110.758E-03    -55.2852E-03    -55.4879E-03    -55.0820E-03     110.554E-03    -55.4879E-03     11.5628E-03     128.822E-03     163.722E+06    -13.9913E+06    -56.9831E+06    -194.896E+06    -56.9837E+06    -194.895E+06    -13.9913E+06     28.6201E+03
             846     24.0582E-03     5.67858E-03     23.3784E-03     110.764E-03    -55.2678E-03    -55.5024E-03    -55.1236E-03     110.620E-03    -55.5024E-03     9.74669E-03     123.740E-03     185.655E+06    -21.6981E+06    -63.6128E+06    -224.704E+06    -63.6147E+06    -224.702E+06    -21.6981E+06    -478.501E+03
             847     23.8424E-03     4.73185E-03     23.3682E-03     110.757E-03    -55.2700E-03    -55.5031E-03    -55.1683E-03     110.655E-03    -55.5031E-03     8.17924E-03     119.699E-03     197.991E+06    -33.4631E+06    -71.1676E+06    -247.568E+06    -71.1701E+06    -247.566E+06    -33.4631E+06    -609.477E+03
             848     23.6647E-03     3.78551E-03     23.3599E-03     110.748E-03    -55.3308E-03    -55.4419E-03    -55.2640E-03     110.680E-03    -55.4409E-03     6.66231E-03     116.527E-03     197.108E+06    -49.6273E+06    -78.7136E+06    -259.615E+06    -78.7146E+06    -259.614E+06    -49.6273E+06    -239.889E+03
             849     23.5253E-03     2.83935E-03     23.3534E-03     110.739E-03    -55.3263E-03    -55.4282E-03    -55.3551E-03     110.698E-03    -55.3591E-03     5.11439E-03     114.200E-03     197.060E+06    -66.0267E+06     -85.178E+06    -271.914E+06    -85.1793E+06    -271.913E+06    -66.0267E+06     310.068E+03
             850     23.4253E-03     1.89292E-03     23.3486E-03     110.586E-03    -55.2354E-03    -55.3592E-03    -55.3153E-03     110.566E-03    -55.2594E-03     3.53905E-03     112.445E-03     197.197E+06    -80.8512E+06    -91.2035E+06    -282.989E+06    -91.2050E+06    -282.987E+06    -80.8512E+06     433.370E+03
             851     23.3642E-03     946.471E-06     23.3450E-03     110.354E-03    -55.0031E-03    -55.3549E-03    -55.3484E-03     110.347E-03    -55.0031E-03     1.82603E-03     111.356E-03     193.814E+06    -92.1391E+06    -95.8863E+06    -287.784E+06    -95.4239E+06    -287.783E+06    -92.6024E+06    -95.1908E+03
             852     27.7717E-03     16.0946E-03     22.6326E-03     113.273E-03    -54.4999E-03    -58.8297E-03    -53.6140E-03     108.952E-03    -55.3944E-03     44.0221E-03     202.502E-03     161.473E+06     170.245E+06     126.377E+06    -8.60128E+06    -8.59310E+06     170.237E+06     126.377E+06     285.462E+03
             853     27.1637E-03     15.1462E-03     22.5490E-03     114.478E-03    -55.3471E-03    -59.1880E-03    -53.6497E-03     108.939E-03    -55.3471E-03     58.9254E-03     222.983E-03     159.093E+06     162.626E+06     105.936E+06    -16.7500E+06    -16.7355E+06     162.611E+06     105.936E+06     891.900E+03
             854     26.6094E-03     14.1991E-03     22.5044E-03     112.404E-03    -55.2072E-03    -57.3018E-03    -53.8090E-03     108.911E-03    -55.2072E-03     47.8644E-03     206.122E-03     157.738E+06     156.554E+06     66.3734E+06    -23.6061E+06    -23.5961E+06     156.544E+06     66.3734E+06     1.18265E+06
             855     26.0638E-03     13.2517E-03     22.4436E-03     112.400E-03    -55.0597E-03    -57.4305E-03    -54.1234E-03     109.093E-03    -55.0597E-03     46.3828E-03     205.746E-03     145.470E+06     136.746E+06     25.0238E+06    -27.3183E+06    -27.3129E+06     136.740E+06     25.0238E+06     826.921E+03
             856     25.5580E-03     12.3045E-03     22.4012E-03     111.123E-03    -55.0927E-03    -56.0907E-03    -54.2803E-03     109.312E-03    -55.0927E-03     34.3010E-03     191.316E-03     88.2397E+06     68.0644E+06     5.93717E+06    -30.2334E+06    -30.2211E+06     68.0522E+06     5.93717E+06     511.285E+03
             857     25.0876E-03     11.3578E-03     22.3693E-03     111.028E-03    -55.2301E-03    -55.8303E-03    -54.7329E-03     109.931E-03    -55.2301E-03     26.8117E-03     176.460E-03     42.6983E+06     9.19457E+06    -16.1624E+06    -38.0757E+06    -33.9419E+06    -12.7207E+06     1.61903E+06     756.674E+03
             858     24.6496E-03     10.4116E-03     22.3428E-03     110.881E-03    -55.2762E-03    -55.6450E-03    -54.9364E-03     110.197E-03    -55.3002E-03     21.1283E-03     162.457E-03     60.2564E+06     559.475E+03    -37.2517E+06    -67.5237E+06    -37.3472E+06    -67.4282E+06     559.475E+03     1.17125E+06
             859     24.2465E-03     9.46496E-03     22.3228E-03     110.680E-03    -55.2896E-03    -55.4170E-03    -54.8723E-03     110.203E-03    -55.3565E-03     17.7797E-03     151.428E-03     93.9429E+06     55.2829E+03    -41.1015E+06    -107.312E+06    -41.1360E+06    -107.277E+06     55.2829E+03     1.34359E+06
             860     23.8750E-03     8.51838E-03     22.3036E-03     110.654E-03    -55.2855E-03    -55.3846E-03    -54.9100E-03     110.279E-03    -55.3846E-03     15.6966E-03     142.508E-03     119.401E+06    -3.95334E+06    -45.4835E+06    -138.490E+06    -45.5003E+06    -138.473E+06    -3.95334E+06     920.534E+03
             861     23.5391E-03     7.57167E-03     22.2881E-03     110.633E-03    -55.2388E-03    -55.4175E-03    -54.9767E-03     110.370E-03    -55.4175E-03     13.1325E-03     134.838E-03     142.117E+06    -8.81887E+06    -50.5024E+06    -167.099E+06    -50.5052E+06    -167.097E+06    -8.81887E+06     403.912E+03
             862     23.2387E-03     6.62517E-03     22.2743E-03     110.615E-03    -55.1952E-03    -55.4427E-03    -55.0031E-03     110.423E-03    -55.4427E-03     11.2456E-03     128.598E-03     163.158E+06    -14.2148E+06    -56.7513E+06    -194.410E+06    -56.7535E+06    -194.408E+06    -14.2148E+06     408.349E+03
             863     22.9753E-03     5.67851E-03     22.2625E-03     110.726E-03    -55.2875E-03    -55.4509E-03    -55.1497E-03     110.589E-03    -55.4509E-03     9.51639E-03     123.649E-03     184.478E+06    -22.4737E+06    -63.9972E+06    -224.147E+06    -63.9991E+06    -224.145E+06    -22.4737E+06     122.797E+03
             864     22.7507E-03     4.73238E-03     22.2530E-03     110.723E-03    -55.3086E-03    -55.4329E-03    -55.2129E-03     110.628E-03    -55.4329E-03     7.94010E-03     119.619E-03     197.085E+06    -34.4886E+06    -71.7364E+06    -247.514E+06    -71.7377E+06    -247.513E+06    -34.4886E+06    -358.543E+03
             865     22.5642E-03     3.78573E-03     22.2444E-03     110.612E-03    -55.2713E-03    -55.3643E-03    -55.2078E-03     110.548E-03    -55.3633E-03     6.49242E-03     116.341E-03     197.476E+06    -50.0713E+06    -79.4419E+06    -260.548E+06    -79.4429E+06    -260.547E+06    -50.0713E+06    -356.684E+03
             866     22.4182E-03     2.83928E-03     22.2377E-03     110.617E-03    -55.2585E-03    -55.3746E-03    -55.3311E-03     110.579E-03    -55.2644E-03     4.92527E-03     114.066E-03     196.493E+06    -66.8663E+06    -86.2855E+06    -272.293E+06    -86.2872E+06    -272.291E+06    -66.8663E+06     308.551E+03
             867     22.3135E-03     1.89337E-03     22.2331E-03     110.382E-03    -55.1246E-03    -55.2699E-03    -55.2428E-03     110.365E-03    -55.1339E-03     3.33310E-03     112.245E-03     195.527E+06    -81.8128E+06    -92.0351E+06    -282.220E+06    -92.0371E+06    -282.218E+06    -81.8128E+06     453.047E+03
             868     22.2501E-03     946.901E-06     22.2299E-03     110.074E-03    -54.9205E-03    -55.1595E-03    -55.1441E-03     110.068E-03    -54.9299E-03     1.87486E-03     111.077E-03     192.841E+06    -92.5650E+06    -96.8409E+06    -287.498E+06    -96.3793E+06    -287.496E+06    -93.0282E+06     120.795E+03
             869     26.8689E-03     16.0938E-03     21.5158E-03     113.272E-03    -54.4667E-03    -58.8595E-03    -53.6635E-03     109.012E-03    -55.4020E-03     43.8043E-03     202.514E-03     160.439E+06     169.546E+06     126.198E+06    -8.07981E+06    -8.06891E+06     169.535E+06     126.198E+06     1.13657E+06
             870     26.2445E-03     15.1463E-03     21.4328E-03     114.691E-03    -55.3439E-03    -59.3839E-03    -53.9402E-03     109.247E-03    -55.3439E-03     58.4577E-03     223.091E-03     158.514E+06     162.415E+06     105.206E+06    -16.4174E+06    -16.4093E+06     162.407E+06     105.206E+06     929.399E+03
             871     25.6705E-03     14.1988E-03     21.3861E-03     112.596E-03    -55.1912E-03    -57.5114E-03    -54.0081E-03     109.093E-03    -55.1912E-03     47.9191E-03     206.022E-03     157.278E+06     157.525E+06     66.1578E+06    -22.0715E+06    -22.0680E+06     157.521E+06     66.1578E+06    -41.6782E+03
             872     25.1092E-03     13.2527E-03     21.3270E-03     112.346E-03    -55.0376E-03    -57.4014E-03    -54.0685E-03     109.013E-03    -55.0376E-03     46.4894E-03     205.423E-03     144.779E+06     136.749E+06     24.5704E+06    -26.2760E+06    -26.2665E+06     136.739E+06     24.5704E+06     341.812E+03
             873     24.5862E-03     12.3048E-03     21.2855E-03     111.222E-03    -55.0636E-03    -56.2172E-03    -54.4145E-03     109.420E-03    -55.0636E-03     34.2788E-03     191.134E-03     87.8828E+06     67.9079E+06     5.53843E+06    -29.9438E+06    -29.9183E+06     67.8825E+06     5.53843E+06     1.22094E+06
             874     24.0968E-03     11.3581E-03     21.2520E-03     111.149E-03    -55.1841E-03    -55.9977E-03    -54.9371E-03     110.088E-03    -55.1841E-03     26.2726E-03     176.284E-03     42.9654E+06     9.78971E+06    -15.5346E+06    -38.0486E+06    -33.2676E+06    -12.3192E+06     1.79328E+06     1.39976E+06
             875     23.6428E-03     10.4122E-03     21.2266E-03     110.711E-03    -55.2179E-03    -55.5353E-03    -54.8743E-03     110.074E-03    -55.2419E-03     20.4195E-03     162.114E-03     60.0892E+06     7.92381E+03    -36.7473E+06    -68.0324E+06    -36.8766E+06    -67.9030E+06     7.92381E+03     1.39109E+06
             876     23.2232E-03     9.46528E-03     21.2067E-03     110.600E-03    -55.2637E-03    -55.3641E-03    -54.8732E-03     110.140E-03    -55.2943E-03     17.4254E-03     151.096E-03     93.3199E+06    -447.128E+03    -40.4312E+06    -106.982E+06    -40.4634E+06    -106.949E+06    -447.128E+03     1.32454E+06
             877     22.8362E-03     8.51871E-03     21.1879E-03     110.647E-03    -55.2883E-03    -55.3752E-03    -55.0007E-03     110.297E-03    -55.3128E-03     15.1585E-03     142.277E-03     118.643E+06    -4.34162E+06    -44.7634E+06    -137.832E+06    -44.7811E+06    -137.814E+06    -4.34162E+06     1.22949E+06
             878     22.4852E-03     7.57243E-03     21.1718E-03     110.547E-03    -55.2452E-03    -55.3300E-03    -55.0039E-03     110.305E-03    -55.3300E-03     12.5834E-03     134.540E-03     141.256E+06    -9.60427E+06    -50.1923E+06    -166.694E+06    -50.2070E+06    -166.680E+06    -9.60427E+06     1.18880E+06
             879     22.1719E-03     6.62573E-03     21.1588E-03     110.470E-03    -55.1594E-03    -55.3418E-03    -54.9857E-03     110.296E-03    -55.3418E-03     10.6939E-03     128.311E-03     162.318E+06    -15.1114E+06    -56.5091E+06    -194.100E+06    -56.5211E+06    -194.088E+06    -15.1114E+06     1.15343E+06
             880     21.8959E-03     5.67912E-03     21.1466E-03     110.507E-03    -55.1814E-03    -55.3438E-03    -55.0561E-03     110.382E-03    -55.3438E-03     9.05229E-03     123.301E-03     183.664E+06    -23.0345E+06    -63.6060E+06    -223.568E+06    -63.6109E+06    -223.563E+06    -23.0345E+06     746.165E+03
             881     21.6606E-03     4.73258E-03     21.1372E-03     110.580E-03    -55.2505E-03    -55.3481E-03    -55.1959E-03     110.496E-03    -55.3181E-03     7.44923E-03     119.374E-03     196.886E+06    -34.1827E+06    -71.2767E+06    -246.958E+06    -71.2776E+06    -246.957E+06    -34.1827E+06     164.147E+03
             882     21.4656E-03     3.78641E-03     21.1290E-03     110.437E-03    -55.1986E-03    -55.2616E-03    -55.1709E-03     110.380E-03    -55.2317E-03     6.13564E-03     116.070E-03     198.494E+06    -48.9927E+06    -79.2093E+06    -260.828E+06    -79.2101E+06    -260.828E+06    -48.9927E+06     91.5399E+03
             883     21.3123E-03     2.83998E-03     21.1223E-03     110.222E-03    -55.0539E-03    -55.1832E-03    -55.0613E-03     110.188E-03    -55.1421E-03     4.65005E-03     113.612E-03     197.201E+06    -66.5270E+06    -86.4852E+06    -272.878E+06    -86.4862E+06    -272.877E+06    -66.5270E+06     254.594E+03
             884     21.2027E-03     1.89320E-03     21.1180E-03     110.085E-03    -54.9839E-03    -55.1113E-03    -55.0096E-03     110.070E-03    -55.0702E-03     3.10477E-03     111.949E-03     194.621E+06    -82.4406E+06    -91.9073E+06    -281.585E+06    -91.9088E+06    -281.584E+06    -82.4406E+06     284.477E+03
             885     21.1365E-03     946.384E-06     21.1153E-03     110.046E-03    -54.8524E-03    -55.1960E-03    -55.1801E-03     110.040E-03    -54.8629E-03     1.76079E-03     111.029E-03     192.533E+06    -92.3049E+06    -96.0934E+06    -286.701E+06    -95.4547E+06    -286.699E+06    -92.9458E+06     191.309E+03
             886     25.9841E-03     16.0944E-03     20.3996E-03     113.612E-03    -54.5679E-03    -59.1065E-03    -53.9924E-03     109.327E-03    -55.3967E-03     43.9278E-03     202.738E-03     159.501E+06     169.140E+06     126.086E+06    -7.43240E+06    -7.42403E+06     169.132E+06     126.086E+06     1.12679E+06
             887     25.3400E-03     15.1470E-03     20.3146E-03     114.872E-03    -55.3152E-03    -59.5957E-03    -54.1474E-03     109.424E-03    -55.3152E-03     58.4875E-03     223.028E-03     158.308E+06     164.184E+06     105.530E+06    -14.6410E+06    -14.6360E+06     164.179E+06     105.530E+06     562.403E+03
             888     24.7490E-03     14.2001E-03     20.2699E-03     112.416E-03    -55.1511E-03    -57.3654E-03    -53.8773E-03     108.928E-03    -55.1511E-03     47.7346E-03     205.539E-03     156.520E+06     157.122E+06     63.6391E+06    -21.5772E+06    -21.5664E+06     157.111E+06     63.6391E+06     173.835E+03
             889     24.1666E-03     13.2512E-03     20.2097E-03     112.539E-03    -54.9986E-03    -57.6300E-03    -54.3189E-03     109.228E-03    -54.9986E-03     46.3140E-03     205.310E-03     144.977E+06     135.579E+06     21.9668E+06    -27.4016E+06    -27.3843E+06     135.562E+06     21.9668E+06     848.101E+03
             890     23.6255E-03     12.3056E-03     20.1677E-03     111.624E-03    -55.0006E-03    -56.6795E-03    -54.9204E-03     109.865E-03    -55.0006E-03     33.9631E-03     190.951E-03     88.8407E+06     68.3444E+06     4.44913E+06    -30.7345E+06    -30.7007E+06     68.3106E+06     4.44913E+06     1.41275E+06
             891     23.1172E-03     11.3598E-03     20.1335E-03     111.037E-03    -55.0939E-03    -55.9829E-03    -54.9763E-03     110.031E-03    -55.0939E-03     25.5189E-03     175.661E-03     42.8257E+06     9.52531E+06    -15.8469E+06    -38.5981E+06    -33.0322E+06    -12.6550E+06     767.427E+03     1.62473E+06
             892     22.6460E-03     10.4127E-03     20.1102E-03     110.603E-03    -55.1368E-03    -55.5150E-03    -54.9380E-03     110.026E-03    -55.1368E-03     19.4499E-03     161.679E-03     59.0419E+06    -554.045E+03    -35.8027E+06    -67.6355E+06    -35.9412E+06    -67.4971E+06    -554.045E+03     1.45142E+06
             893     22.2078E-03     9.46639E-03     20.0892E-03     110.621E-03    -55.1660E-03    -55.4873E-03    -55.0784E-03     110.212E-03    -55.1660E-03     16.3980E-03     150.636E-03     92.3802E+06    -1.23821E+06    -39.8382E+06    -106.542E+06    -39.8761E+06    -106.504E+06    -1.23821E+06     1.52349E+06
             894     21.8045E-03     8.52010E-03     20.0710E-03     110.449E-03    -55.1461E-03    -55.3214E-03    -55.0154E-03     110.155E-03    -55.1583E-03     13.8593E-03     141.701E-03     117.847E+06    -5.43980E+06    -44.7906E+06    -137.858E+06    -44.8347E+06    -137.814E+06    -5.43980E+06     1.95992E+06
             895     21.4374E-03     7.57323E-03     20.0551E-03     110.286E-03    -55.1352E-03    -55.1800E-03    -54.9554E-03     110.083E-03    -55.1569E-03     11.5097E-03     133.965E-03     140.159E+06    -10.8932E+06    -50.4056E+06    -166.548E+06    -50.4485E+06    -166.505E+06    -10.8932E+06     2.14237E+06
             896     21.1091E-03     6.62689E-03     20.0419E-03     110.225E-03    -55.1003E-03    -55.1560E-03    -54.9650E-03     110.080E-03    -55.1470E-03     9.71531E-03     127.815E-03     160.979E+06    -16.2438E+06    -56.5067E+06    -193.517E+06    -56.5388E+06    -193.485E+06    -16.2438E+06     2.02721E+06
             897     20.8205E-03     5.68031E-03     20.0307E-03     110.143E-03    -55.0212E-03    -55.1400E-03    -54.9259E-03     110.040E-03    -55.1319E-03     8.20994E-03     122.737E-03     181.920E+06    -23.8798E+06    -63.3901E+06    -222.285E+06    -63.4092E+06    -222.265E+06    -23.8798E+06     1.53710E+06
             898     20.5730E-03     4.73365E-03     20.0210E-03     110.107E-03    -54.9912E-03    -55.1347E-03    -54.9503E-03     110.036E-03    -55.1048E-03     6.79997E-03     118.719E-03     196.052E+06    -34.9045E+06    -71.1847E+06    -246.545E+06    -71.1920E+06    -246.538E+06    -34.9045E+06     984.426E+03
             899     20.3681E-03     3.78710E-03     20.0129E-03     109.971E-03    -54.9383E-03    -55.0579E-03    -54.9203E-03     109.923E-03    -55.0280E-03     5.58352E-03     115.496E-03     198.179E+06    -49.4666E+06    -79.0395E+06    -260.734E+06    -79.0431E+06    -260.730E+06    -49.4666E+06     680.574E+03
             900     20.2077E-03     2.84035E-03     20.0071E-03     109.774E-03    -54.8296E-03    -54.9592E-03    -54.8010E-03     109.745E-03    -54.9592E-03     4.25281E-03     113.081E-03     196.827E+06    -66.8023E+06    -86.4258E+06    -272.642E+06    -86.4266E+06    -272.641E+06    -66.8023E+06     297.283E+03
             901     20.0923E-03     1.89332E-03     20.0029E-03     109.726E-03    -54.8250E-03    -54.9099E-03    -54.8127E-03     109.714E-03    -54.9099E-03     2.75112E-03     111.526E-03     194.236E+06    -82.1313E+06    -92.0695E+06    -281.116E+06    -92.0717E+06    -281.114E+06    -82.1313E+06    -10.7028E+03
             902     20.0220E-03     946.919E-06     19.9996E-03     109.743E-03    -54.7281E-03    -55.0183E-03    -54.9404E-03     109.739E-03    -54.8023E-03     1.39520E-03     110.692E-03     192.549E+06    -91.8834E+06    -96.0314E+06    -286.466E+06    -95.3954E+06    -286.461E+06    -92.5243E+06     124.658E+03
             903     25.1175E-03     16.0940E-03     19.2840E-03     113.705E-03    -54.6189E-03    -59.1681E-03    -54.0040E-03     109.316E-03    -55.3941E-03     44.4791E-03     202.713E-03     159.084E+06     168.754E+06     125.903E+06    -7.32505E+06    -7.32077E+06     168.750E+06     125.903E+06     508.945E+03
             904     24.4548E-03     15.1472E-03     19.1989E-03     115.066E-03    -55.3064E-03    -59.8195E-03    -54.2732E-03     109.520E-03    -55.3064E-03     58.9636E-03     222.919E-03     159.108E+06     164.946E+06     105.686E+06    -14.8412E+06    -14.8318E+06     164.937E+06     105.686E+06     689.641E+03
             905     23.8433E-03     14.1993E-03     19.1541E-03     112.985E-03    -55.1084E-03    -57.9805E-03    -54.5718E-03     109.576E-03    -55.1084E-03     47.4252E-03     205.525E-03     157.022E+06     157.311E+06     63.6407E+06    -22.0198E+06    -22.0047E+06     157.296E+06     63.6407E+06     1.25645E+06
             906     23.2427E-03     13.2537E-03     19.0935E-03     112.941E-03    -54.9054E-03    -58.1293E-03    -54.9570E-03     109.769E-03    -54.9054E-03     45.4528E-03     204.842E-03     144.896E+06     135.790E+06     21.6546E+06    -26.8267E+06    -26.8087E+06     135.772E+06     21.6546E+06     1.49261E+06
             907     22.6796E-03     12.3070E-03     19.0500E-03     111.477E-03    -54.8772E-03    -56.6765E-03    -55.0357E-03     109.837E-03    -54.8772E-03     32.7687E-03     190.029E-03     87.9159E+06     67.6960E+06     3.12286E+06    -30.0790E+06    -30.0463E+06     67.6632E+06     3.12286E+06     1.40852E+06
             908     22.1526E-03     11.3606E-03     19.0177E-03     111.084E-03    -54.9422E-03    -56.1940E-03    -55.2844E-03     110.174E-03    -54.9422E-03     24.2156E-03     174.907E-03     41.1226E+06     8.22788E+06    -16.7434E+06    -37.9147E+06    -32.9314E+06    -13.1055E+06    -393.313E+03     1.49445E+06
             909     21.6608E-03     10.4145E-03     18.9928E-03     110.761E-03    -54.9321E-03    -55.8778E-03    -55.3924E-03     110.275E-03    -54.9321E-03     17.7775E-03     160.986E-03     57.9396E+06    -1.32578E+06    -35.8830E+06    -67.0292E+06    -36.0426E+06    -66.8696E+06    -1.32578E+06     1.78767E+06
             910     21.2046E-03     9.46889E-03     18.9730E-03     110.448E-03    -54.9081E-03    -55.5714E-03    -55.2491E-03     110.125E-03    -54.9081E-03     14.5396E-03     149.714E-03     91.5518E+06    -2.44621E+06    -40.0838E+06    -106.702E+06    -40.1663E+06    -106.619E+06    -2.44621E+06     2.27721E+06
             911     20.7824E-03     8.52219E-03     18.9547E-03     110.111E-03    -54.8582E-03    -55.2741E-03    -55.0521E-03     109.889E-03    -54.8582E-03     11.9633E-03     140.678E-03     117.178E+06    -6.64115E+06    -44.9214E+06    -138.104E+06    -45.0097E+06    -138.016E+06    -6.64115E+06     2.82380E+06
             912     20.3985E-03     7.57589E-03     18.9395E-03     109.794E-03    -54.8225E-03    -55.0043E-03    -54.8610E-03     109.651E-03    -54.8225E-03     9.62010E-03     132.878E-03     138.945E+06    -12.1910E+06    -50.3657E+06    -166.213E+06    -50.4608E+06    -166.118E+06    -12.1910E+06     3.22967E+06
             913     20.0534E-03     6.62888E-03     18.9261E-03     109.583E-03    -54.7878E-03    -54.8231E-03    -54.7214E-03     109.481E-03    -54.7880E-03     8.07092E-03     126.690E-03     159.172E+06    -17.7708E+06    -56.6973E+06    -192.783E+06    -56.7725E+06    -192.707E+06    -17.7708E+06     3.07727E+06
             914     19.7503E-03     5.68223E-03     18.9152E-03     109.469E-03    -54.7218E-03    -54.7641E-03    -54.6589E-03     109.398E-03    -54.7561E-03     6.73876E-03     121.702E-03     179.441E+06    -25.4542E+06    -63.8037E+06    -220.947E+06    -63.8601E+06    -220.890E+06    -25.4542E+06     2.84623E+06
             915     19.4898E-03     4.73527E-03     18.9058E-03     109.269E-03    -54.5645E-03    -54.7246E-03    -54.5147E-03     109.219E-03    -54.7246E-03     5.62686E-03     117.579E-03     193.952E+06    -36.6132E+06    -71.3838E+06    -245.573E+06    -71.4159E+06    -245.541E+06    -36.6132E+06     2.03875E+06
             916     19.2744E-03     3.78809E-03     18.8985E-03     109.098E-03    -54.4519E-03    -54.6747E-03    -54.4192E-03     109.066E-03    -54.6747E-03     4.54218E-03     114.441E-03     196.902E+06    -51.0755E+06    -78.9641E+06    -260.401E+06    -78.9710E+06    -260.394E+06    -51.0755E+06     1.06062E+06
             917     19.1048E-03     2.84098E-03     18.8924E-03     109.133E-03    -54.5237E-03    -54.6274E-03    -54.5044E-03     109.114E-03    -54.6274E-03     3.48169E-03     112.319E-03     195.852E+06    -66.8457E+06    -85.7049E+06    -271.399E+06    -85.7074E+06    -271.397E+06    -66.8457E+06     468.441E+03
             918     18.9823E-03     1.89434E-03     18.8876E-03     109.069E-03    -54.5090E-03    -54.5683E-03    -54.5000E-03     109.060E-03    -54.5683E-03     2.33428E-03     110.763E-03     194.361E+06    -81.6724E+06    -91.7381E+06    -280.842E+06    -91.7403E+06    -280.839E+06    -81.6724E+06    -9.54283E+03
             919     18.9092E-03     946.958E-06     18.8855E-03     109.031E-03    -54.3943E-03    -54.6411E-03    -54.5170E-03     109.029E-03    -54.5157E-03     1.21260E-03     109.920E-03     191.767E+06    -92.4824E+06    -96.8498E+06    -286.389E+06    -96.0842E+06    -286.385E+06    -93.2524E+06     245.441E+03
             920     24.2713E-03     16.0943E-03     18.1678E-03     113.743E-03    -54.6241E-03    -59.1963E-03    -54.0918E-03     109.403E-03    -55.3885E-03     44.4509E-03     202.552E-03     159.078E+06     168.183E+06     125.777E+06    -7.75535E+06    -7.74803E+06     168.175E+06     125.777E+06     386.410E+03
             921     23.5882E-03     15.1461E-03     18.0831E-03     115.514E-03    -55.2853E-03    -60.2757E-03    -54.8315E-03     110.070E-03    -55.2853E-03     58.4668E-03     222.612E-03     159.140E+06     164.068E+06     105.842E+06    -15.5964E+06    -15.5843E+06     164.055E+06     105.842E+06     1.00752E+06
             922     22.9563E-03     14.2008E-03     18.0368E-03     113.773E-03    -55.0363E-03    -58.8479E-03    -55.5821E-03     110.507E-03    -55.0363E-03     46.6829E-03     205.168E-03     157.520E+06     157.464E+06     64.9068E+06    -22.4347E+06    -22.4214E+06     157.450E+06     64.9068E+06     1.36967E+06
             923     22.3354E-03     13.2556E-03     17.9766E-03     113.470E-03    -54.7498E-03    -58.8079E-03    -55.8127E-03     110.475E-03    -54.7498E-03     44.2857E-03     203.923E-03     145.790E+06     136.552E+06     22.0374E+06    -27.0805E+06    -27.0620E+06     136.533E+06     22.0374E+06     1.63748E+06
             924     21.7531E-03     12.3094E-03     17.9353E-03     111.740E-03    -54.6421E-03    -57.1645E-03    -55.6995E-03     110.275E-03    -54.6421E-03     30.9223E-03     188.725E-03     88.1784E+06     67.9389E+06     2.14706E+06    -30.1204E+06    -30.0853E+06     67.9038E+06     2.14706E+06     1.62349E+06
             925     21.2031E-03     11.3635E-03     17.9009E-03     111.255E-03    -54.6359E-03    -56.6792E-03    -55.9464E-03     110.523E-03    -54.6359E-03     21.6130E-03     173.428E-03     40.6543E+06     7.73341E+06    -17.1119E+06    -38.1688E+06    -32.7475E+06    -13.2422E+06    -1.55752E+06     1.78544E+06
             926     20.6913E-03     10.4188E-03     17.8768E-03     110.693E-03    -54.5434E-03    -56.2076E-03    -55.8698E-03     110.355E-03    -54.5434E-03     14.7001E-03     159.346E-03     57.2145E+06    -2.41549E+06    -35.8359E+06    -67.4488E+06    -36.1078E+06    -67.1769E+06    -2.41549E+06     2.41345E+06
             927     20.2143E-03     9.47240E-03     17.8576E-03     110.046E-03    -54.4434E-03    -55.6400E-03    -55.4367E-03     109.843E-03    -54.4434E-03     11.3834E-03     148.007E-03     91.0322E+06    -3.58050E+06    -40.0621E+06    -107.055E+06    -40.2182E+06    -106.899E+06    -3.58050E+06     3.18233E+06
             928     19.7729E-03     8.52653E-03     17.8400E-03     109.478E-03    -54.3345E-03    -55.1678E-03    -55.0360E-03     109.346E-03    -54.3345E-03     9.00744E-03     138.817E-03     116.326E+06    -8.18545E+06    -44.8264E+06    -138.357E+06    -44.9996E+06    -138.184E+06    -8.18545E+06     3.95655E+06
             929     19.3699E-03     7.57982E-03     17.8253E-03     109.020E-03    -54.2412E-03    -54.8053E-03    -54.7302E-03     108.945E-03    -54.2412E-03     6.75850E-03     131.079E-03     137.470E+06    -13.5929E+06    -50.2037E+06    -165.646E+06    -50.3854E+06    -165.465E+06    -13.5929E+06     4.51112E+06
             930     19.0077E-03     6.63300E-03     17.8128E-03     108.536E-03    -54.1549E-03    -54.4028E-03    -54.3539E-03     108.487E-03    -54.1551E-03     5.32393E-03     124.844E-03     157.436E+06    -19.3202E+06    -56.3399E+06    -191.951E+06    -56.5036E+06    -191.787E+06    -19.3202E+06     4.58516E+06
             931     18.6877E-03     5.68556E-03     17.8018E-03     108.180E-03    -54.0600E-03    -54.1307E-03    -54.0633E-03     108.149E-03    -54.0961E-03     4.22520E-03     119.805E-03     177.491E+06    -26.8967E+06    -63.2285E+06    -219.724E+06    -63.3467E+06    -219.605E+06    -26.8967E+06     4.13749E+06
             932     18.4128E-03     4.73821E-03     17.7927E-03     107.956E-03    -53.9156E-03    -54.0579E-03    -53.8946E-03     107.935E-03    -54.0579E-03     3.43947E-03     115.849E-03     191.680E+06    -37.2619E+06    -70.6502E+06    -243.422E+06    -70.7200E+06    -243.352E+06    -37.2619E+06     3.23031E+06
             933     18.1849E-03     3.79045E-03     17.7855E-03     107.768E-03    -53.7902E-03    -54.0007E-03    -53.7764E-03     107.754E-03    -54.0007E-03     2.78945E-03     112.796E-03     194.914E+06    -51.7236E+06    -78.6508E+06    -258.668E+06    -78.6810E+06    -258.638E+06    -51.7236E+06     1.91647E+06
             934     18.0049E-03     2.84284E-03     17.7791E-03     107.714E-03    -53.7679E-03    -53.9598E-03    -53.7594E-03     107.705E-03    -53.9598E-03     2.14270E-03     110.705E-03     193.874E+06    -68.5021E+06    -85.8901E+06    -270.424E+06    -85.8946E+06    -270.419E+06    -68.5021E+06     750.058E+03
             935     17.8757E-03     1.89499E-03     17.7750E-03     107.730E-03    -53.8000E-03    -53.9378E-03    -53.7959E-03     107.726E-03    -53.9378E-03     1.44061E-03     109.291E-03     193.747E+06    -82.6581E+06    -91.3022E+06    -280.560E+06    -91.3039E+06    -280.558E+06    -82.6581E+06     257.529E+03
             936     17.7973E-03     947.499E-06     17.7720E-03     107.827E-03    -53.7174E-03    -54.1116E-03    -54.0603E-03     107.825E-03    -53.7672E-03     865.102E-06     108.582E-03     192.164E+06    -91.9315E+06    -95.8706E+06    -286.030E+06    -95.1102E+06    -286.021E+06    -92.7015E+06     705.934E+03
             937     23.4465E-03     16.0940E-03     17.0505E-03     114.525E-03    -54.7688E-03    -59.7731E-03    -54.9360E-03     110.278E-03    -55.3588E-03     44.6840E-03     202.727E-03     158.348E+06     167.698E+06     125.655E+06    -7.38716E+06    -7.37943E+06     167.690E+06     125.655E+06     186.721E+03
             938     22.7438E-03     15.1487E-03     16.9646E-03     116.478E-03    -55.1901E-03    -61.3344E-03    -56.0541E-03     111.197E-03    -55.1901E-03     57.9062E-03     221.829E-03     158.165E+06     163.303E+06     105.974E+06    -15.1621E+06    -15.1407E+06     163.281E+06     105.974E+06     1.19281E+06
             939     22.0890E-03     14.2029E-03     16.9175E-03     114.249E-03    -54.8711E-03    -59.5326E-03    -56.5126E-03     111.229E-03    -54.8711E-03     45.1206E-03     203.602E-03     156.560E+06     156.861E+06     65.3614E+06    -21.8972E+06    -21.8764E+06     156.840E+06     65.3614E+06     1.54811E+06
             940     21.4472E-03     13.2578E-03     16.8587E-03     114.134E-03    -54.4868E-03    -59.7380E-03    -57.1000E-03     111.496E-03    -54.4868E-03     41.5600E-03     202.393E-03     145.203E+06     136.513E+06     22.1059E+06    -26.2930E+06    -26.2773E+06     136.498E+06     22.1059E+06     1.45689E+06
             941     20.8430E-03     12.3141E-03     16.8165E-03     112.639E-03    -54.2278E-03    -58.4587E-03    -57.3065E-03     111.487E-03    -54.2278E-03     27.3675E-03     187.105E-03     88.2037E+06     68.6778E+06     1.81126E+06    -29.3393E+06    -29.2778E+06     68.6162E+06     1.81126E+06     1.91471E+06
             942     20.2727E-03     11.3704E-03     16.7838E-03     111.380E-03    -54.0817E-03    -57.3580E-03    -56.8614E-03     110.884E-03    -54.0817E-03     17.5883E-03     170.989E-03     39.9754E+06     7.32502E+06    -17.1965E+06    -38.0896E+06    -32.3907E+06    -12.9738E+06    -2.59663E+06     2.57517E+06
             943     19.7375E-03     10.4246E-03     16.7600E-03     110.337E-03    -53.8743E-03    -56.5285E-03    -56.3456E-03     110.155E-03    -53.8743E-03     10.4100E-03     156.658E-03     56.7397E+06    -3.69637E+06    -35.2044E+06    -68.2364E+06    -35.7245E+06    -67.7162E+06    -3.69637E+06     3.21830E+06
             944     19.2395E-03     9.48007E-03     16.7417E-03     109.544E-03    -53.6614E-03    -55.9184E-03    -55.8407E-03     109.466E-03    -53.6614E-03     6.49427E-03     145.542E-03     91.1188E+06    -4.23430E+06    -39.4329E+06    -107.600E+06    -39.7053E+06    -107.327E+06    -4.23430E+06     4.25217E+06
             945     18.7765E-03     8.53343E-03     16.7254E-03     108.488E-03    -53.4461E-03    -55.0587E-03    -55.0168E-03     108.447E-03    -53.4461E-03     4.05065E-03     136.032E-03     115.693E+06    -8.78505E+06    -44.2139E+06    -137.978E+06    -44.5185E+06    -137.673E+06    -8.78505E+06     5.27267E+06
             946     18.3525E-03     7.58672E-03     16.7110E-03     107.622E-03    -53.2605E-03    -54.3702E-03    -54.3493E-03     107.601E-03    -53.2605E-03     2.03377E-03     128.174E-03     136.662E+06    -14.5822E+06    -49.4402E+06    -165.280E+06    -49.7334E+06    -164.987E+06    -14.5822E+06     5.77860E+06
             947     17.9707E-03     6.63961E-03     16.6991E-03     106.861E-03    -53.0993E-03    -53.7724E-03    -53.7603E-03     106.849E-03    -53.0993E-03     1.00367E-03     122.020E-03     156.298E+06    -19.8522E+06    -55.2171E+06    -190.791E+06    -55.4905E+06    -190.518E+06    -19.8522E+06     6.03650E+06
             948     17.6332E-03     5.69179E-03     16.6893E-03     106.200E-03    -52.9549E-03    -53.2512E-03    -53.2116E-03     106.192E-03    -52.9863E-03     447.924E-06     116.969E-03     175.783E+06    -27.3530E+06    -62.0038E+06    -217.864E+06    -62.2185E+06    -217.650E+06    -27.3530E+06     5.61156E+06
             949     17.3418E-03     4.74311E-03     16.6806E-03     105.802E-03    -52.8518E-03    -52.9684E-03    -52.9027E-03     105.796E-03    -52.9114E-03     165.272E-06     113.093E-03     189.559E+06    -37.7918E+06    -69.6424E+06    -241.241E+06    -69.7835E+06    -241.100E+06    -37.7918E+06     4.76214E+06
             950     17.0994E-03     3.79488E-03     16.6730E-03     105.505E-03    -52.7061E-03    -52.8209E-03    -52.7022E-03     105.502E-03    -52.8209E-03     207.832E-06     110.127E-03     192.358E+06    -52.1021E+06    -77.6445E+06    -255.919E+06    -77.7257E+06    -255.838E+06    -52.1021E+06     3.52353E+06
             951     16.9086E-03     2.84611E-03     16.6674E-03     105.324E-03    -52.5688E-03    -52.7676E-03    -52.5668E-03     105.322E-03    -52.7676E-03     179.326E-06     108.052E-03     191.960E+06    -69.1185E+06    -85.0697E+06    -268.498E+06    -85.0995E+06    -268.469E+06    -69.1185E+06     1.85469E+06
             952     16.7709E-03     1.89723E-03     16.6633E-03     105.360E-03    -52.6212E-03    -52.7474E-03    -52.6205E-03     105.360E-03    -52.7474E-03     128.480E-06     106.734E-03     193.089E+06    -83.0926E+06    -91.1099E+06    -280.052E+06    -91.1191E+06    -280.043E+06    -83.0926E+06     946.953E+03
             953     16.6872E-03     948.662E-06     16.6602E-03     105.439E-03    -52.5685E-03    -52.8741E-03    -52.8598E-03     105.439E-03    -52.5824E-03     65.4310E-06     106.072E-03     191.156E+06    -92.2356E+06    -95.6096E+06    -285.047E+06    -95.6318E+06    -285.025E+06    -92.2356E+06     467.957E+03
             954     22.6456E-03     16.0950E-03     15.9303E-03     115.802E-03    -55.0660E-03    -60.7556E-03    -56.3492E-03     111.621E-03    -55.2914E-03     45.4619E-03     202.870E-03     158.578E+06     166.929E+06     124.753E+06    -8.43268E+06    -8.42876E+06     166.925E+06     124.753E+06     252.829E+03
             955     21.9220E-03     15.1505E-03     15.8441E-03     117.945E-03    -55.0099E-03    -62.9878E-03    -57.9235E-03     112.881E-03    -55.0099E-03     56.9597E-03     220.696E-03     158.302E+06     162.471E+06     104.383E+06    -16.2502E+06    -16.2304E+06     162.452E+06     104.383E+06     609.296E+03
             956     21.2463E-03     14.2072E-03     15.7974E-03     115.608E-03    -54.5434E-03    -61.2119E-03    -58.5735E-03     112.970E-03    -54.5434E-03     42.6290E-03     201.849E-03     156.619E+06     157.162E+06     64.2654E+06    -21.6009E+06    -21.5809E+06     157.142E+06     64.2654E+06     1.01090E+06
             957     20.5822E-03     13.2646E-03     15.7377E-03     115.173E-03    -53.9888E-03    -61.2777E-03    -59.1231E-03     113.018E-03    -53.9888E-03     37.5596E-03     200.223E-03     144.720E+06     136.076E+06     20.7757E+06    -25.7779E+06    -25.7574E+06     136.055E+06     20.7757E+06     1.61700E+06
             958     19.9549E-03     12.3225E-03     15.6958E-03     113.232E-03    -53.5432E-03    -59.7427E-03    -58.9657E-03     112.455E-03    -53.5432E-03     22.2040E-03     184.647E-03     88.2709E+06     68.6299E+06     672.968E+03    -29.2894E+06    -29.1934E+06     68.5338E+06     672.968E+03     2.50622E+06
             959     19.3632E-03     11.3793E-03     15.6666E-03     111.640E-03    -53.2079E-03    -58.4959E-03    -58.2464E-03     111.391E-03    -53.2079E-03     11.6295E-03     168.236E-03     40.2712E+06     7.92951E+06    -16.8267E+06    -38.0265E+06    -31.8254E+06    -12.2568E+06    -2.84150E+06     3.14508E+06
             960     18.8050E-03     10.4359E-03     15.6435E-03     110.004E-03    -52.8201E-03    -57.2486E-03    -57.1899E-03     109.946E-03    -52.8201E-03     4.22037E-03     153.494E-03     57.0519E+06    -4.12581E+06    -34.5892E+06    -69.0720E+06    -35.3250E+06    -68.3362E+06    -4.12581E+06     4.21167E+06
             961     18.2823E-03     9.49050E-03     15.6260E-03     108.699E-03    -52.4346E-03    -56.2947E-03    -56.2705E-03     108.674E-03    -52.4346E-03    -14.4814E-06     142.222E-03     91.4634E+06    -4.54927E+06    -39.1436E+06    -108.195E+06    -39.5867E+06    -107.752E+06    -4.54927E+06     5.39833E+06
             962     17.7974E-03     8.54580E-03     15.6114E-03     107.197E-03    -52.0484E-03    -55.1543E-03    -55.1213E-03     107.164E-03    -52.0484E-03    -2.62838E-03     132.546E-03     115.480E+06    -8.57611E+06    -43.5310E+06    -137.421E+06    -43.9672E+06    -136.985E+06    -8.57611E+06     6.34402E+06
             963     17.3510E-03     7.59860E-03     15.5987E-03     105.520E-03    -51.7130E-03    -53.8003E-03    -53.7537E-03     105.473E-03    -51.7130E-03    -4.26055E-03     124.199E-03     136.359E+06    -14.7827E+06    -48.3058E+06    -164.751E+06    -48.7290E+06    -164.328E+06    -14.7827E+06     6.94372E+06
             964     16.9473E-03     6.65015E-03     15.5880E-03     104.227E-03    -51.4447E-03    -52.7847E-03    -52.7291E-03     104.171E-03    -51.4447E-03    -4.85969E-03     117.910E-03     155.507E+06    -20.1633E+06    -53.8153E+06    -189.732E+06    -54.2287E+06    -189.319E+06    -20.1633E+06     7.41615E+06
             965     16.5897E-03     5.70125E-03     15.5793E-03     103.277E-03    -51.2468E-03    -52.0339E-03    -51.9827E-03     103.226E-03    -51.2468E-03    -4.74537E-03     112.933E-03     173.872E+06    -27.3416E+06    -60.6356E+06    -215.438E+06    -61.0044E+06    -215.069E+06    -27.3416E+06     7.41240E+06
             966     16.2805E-03     4.75202E-03     15.5716E-03     102.496E-03    -51.0880E-03    -51.4192E-03    -51.3738E-03     102.458E-03    -51.0959E-03    -4.12138E-03     108.970E-03     187.497E+06    -37.9310E+06    -68.3343E+06    -238.754E+06    -68.6020E+06    -238.487E+06    -37.9310E+06     6.61688E+06
             967     16.0221E-03     3.80154E-03     15.5646E-03     101.941E-03    -50.9110E-03    -51.0455E-03    -50.9769E-03     101.916E-03    -50.9548E-03    -3.29661E-03     106.017E-03     190.078E+06    -51.7226E+06    -75.7151E+06    -252.625E+06    -75.8723E+06    -252.467E+06    -51.7226E+06     4.96144E+06
             968     15.8180E-03     2.85123E-03     15.5589E-03     101.710E-03    -50.8059E-03    -50.9123E-03    -50.8343E-03     101.695E-03    -50.8691E-03    -2.46422E-03     104.064E-03     191.943E+06    -66.2155E+06    -82.4482E+06    -265.726E+06    -82.5211E+06    -265.653E+06    -66.2155E+06     3.41024E+06
             969     15.6703E-03     1.90097E-03     15.5546E-03     101.553E-03    -50.7388E-03    -50.8219E-03    -50.7513E-03     101.547E-03    -50.8029E-03    -1.59106E-03     102.691E-03     194.135E+06    -79.7362E+06    -88.7710E+06    -278.203E+06    -88.8148E+06    -278.159E+06    -79.7362E+06     2.54082E+06
             970     15.5809E-03     950.446E-06     15.5519E-03     101.486E-03    -50.6751E-03    -50.8152E-03    -50.7763E-03     101.484E-03    -50.7118E-03    -844.662E-06     102.006E-03     190.726E+06    -90.5035E+06    -94.2050E+06    -283.046E+06    -93.3737E+06    -283.027E+06    -91.3535E+06     591.427E+03
             971     21.8746E-03     16.0968E-03     14.8119E-03     117.834E-03    -55.1715E-03    -62.7221E-03    -58.6518E-03     113.763E-03    -55.1715E-03     46.5235E-03     203.285E-03     158.703E+06     166.749E+06     124.919E+06    -8.62874E+06    -8.62091E+06     166.741E+06     124.919E+06     967.052E+03
             972     21.1293E-03     15.1549E-03     14.7233E-03     120.069E-03    -54.7115E-03    -65.4056E-03    -60.7041E-03     115.368E-03    -54.7115E-03     55.0859E-03     219.499E-03     158.475E+06     163.096E+06     103.854E+06    -15.9697E+06    -15.9646E+06     163.091E+06     103.854E+06     45.7465E+03
             973     20.4314E-03     14.2142E-03     14.6765E-03     117.612E-03    -54.0219E-03    -63.6929E-03    -61.4597E-03     115.379E-03    -54.0219E-03     39.7194E-03     200.310E-03     156.677E+06     156.258E+06     61.6907E+06    -22.5791E+06    -22.5662E+06     156.245E+06     61.6907E+06     583.049E+03
             974     19.7449E-03     13.2752E-03     14.6161E-03     116.559E-03    -53.2346E-03    -63.4055E-03    -61.6596E-03     114.813E-03    -53.2346E-03     33.7278E-03     198.135E-03     146.424E+06     135.550E+06     17.7923E+06    -27.8422E+06    -27.8078E+06     135.516E+06     17.7923E+06     2.28387E+06
             975     19.0954E-03     12.3346E-03     14.5771E-03     114.080E-03    -52.5591E-03    -61.5878E-03    -61.1119E-03     113.604E-03    -52.5591E-03     17.0136E-03     182.304E-03     90.5980E+06     69.7469E+06    -574.649E+03    -30.5803E+06    -30.5033E+06     69.6699E+06    -574.649E+03     2.43463E+06
             976     18.4779E-03     11.3941E-03     14.5467E-03     112.174E-03    -51.9700E-03    -60.2710E-03    -60.1742E-03     112.078E-03    -51.9700E-03     5.15739E-03     165.630E-03     40.9877E+06     7.74736E+06    -17.0799E+06    -39.1855E+06    -32.6797E+06    -12.3291E+06    -3.50924E+06     3.32415E+06
             977     17.8980E-03     10.4518E-03     14.5292E-03     109.873E-03    -51.3152E-03    -58.6123E-03    -58.5708E-03     109.831E-03    -51.3152E-03    -3.01431E-03     150.491E-03     57.2930E+06    -4.62764E+06    -34.4546E+06    -69.9347E+06    -35.5553E+06     -68.834E+06    -4.62764E+06     4.91815E+06
             978     17.3499E-03     9.50813E-03     14.5125E-03     107.529E-03    -50.6845E-03    -56.8573E-03    -56.7496E-03     107.422E-03    -50.6845E-03    -7.34154E-03     138.341E-03     92.0094E+06    -4.52482E+06    -38.3934E+06    -108.592E+06    -38.9318E+06    -108.053E+06    -4.52482E+06     6.04097E+06
             979     16.8394E-03     8.56214E-03     14.5001E-03     105.291E-03    -50.0814E-03    -55.1992E-03    -55.0101E-03     105.102E-03    -50.0814E-03    -10.1765E-03     128.307E-03     116.152E+06    -7.92132E+06    -42.4029E+06    -137.359E+06    -42.9444E+06    -136.817E+06    -7.92132E+06     7.10899E+06
             980     16.3693E-03     7.61519E-03     14.4901E-03     102.984E-03    -49.5387E-03    -53.4277E-03    -53.1910E-03     102.747E-03    -49.5387E-03    -11.4663E-03     119.676E-03     136.397E+06    -14.0871E+06    -47.2163E+06    -163.967E+06    -47.7857E+06    -163.398E+06    -14.0871E+06     8.06872E+06
             981     15.9422E-03     6.66620E-03     14.4815E-03     100.819E-03    -49.0818E-03    -51.7308E-03    -51.4903E-03     100.578E-03    -49.0818E-03    -11.5566E-03     112.833E-03      154.85E+06    -20.3207E+06    -52.5782E+06    -188.747E+06    -53.1716E+06    -188.154E+06    -20.3207E+06     8.90447E+06
             982     15.5612E-03     5.71572E-03     14.4735E-03     99.1696E-03    -48.7432E-03    -50.4239E-03    -50.2053E-03     98.9511E-03    -48.7432E-03    -10.8902E-03     107.547E-03     172.873E+06    -26.7830E+06    -58.7001E+06    -213.381E+06    -59.2460E+06    -212.835E+06    -26.7830E+06     9.08064E+06
             983     15.2311E-03     4.76394E-03     14.4670E-03     97.9156E-03    -48.4780E-03    -49.4359E-03    -49.2660E-03     97.7458E-03    -48.4780E-03    -9.42654E-03     103.462E-03     186.164E+06    -35.9538E+06    -65.7263E+06    -235.196E+06    -66.1357E+06    -234.786E+06    -35.9538E+06     8.17703E+06
             984     14.9549E-03     3.81200E-03     14.4609E-03     96.9446E-03    -48.2341E-03    -48.7137E-03    -48.6019E-03     96.8329E-03    -48.2341E-03    -7.58826E-03     100.382E-03     187.988E+06    -50.1227E+06    -73.3004E+06    -248.587E+06    -73.5783E+06    -248.309E+06    -50.1227E+06     6.64882E+06
             985     14.7355E-03     2.85928E-03     14.4554E-03     96.3589E-03    -48.0691E-03    -48.2916E-03    -48.2274E-03     96.2948E-03    -48.0691E-03    -5.71804E-03     98.2942E-03     189.948E+06    -65.3561E+06    -81.3279E+06    -262.767E+06    -81.5032E+06    -262.592E+06    -65.3561E+06     5.21720E+06
             986     14.5768E-03     1.90635E-03     14.4516E-03     95.9443E-03    -47.9262E-03    -48.0193E-03    -47.9631E-03     95.9137E-03    -47.9518E-03    -3.86015E-03     96.8665E-03     192.025E+06    -77.9130E+06    -87.6667E+06    -274.603E+06     -87.742E+06    -274.527E+06    -77.9130E+06     3.57301E+06
             987     14.4804E-03     953.133E-06     14.4490E-03     95.7466E-03    -47.8326E-03    -47.9141E-03    -47.8793E-03     95.7374E-03    -47.8582E-03    -1.86561E-03     96.1729E-03     188.600E+06    -89.0356E+06    -93.1025E+06    -279.623E+06    -92.2939E+06    -279.582E+06    -89.8856E+06     2.47815E+06
             988     21.1318E-03     16.0995E-03     13.6878E-03     120.943E-03    -54.9967E-03    -65.9590E-03    -61.9825E-03     116.967E-03    -54.9967E-03     47.9999E-03     204.633E-03     157.360E+06     167.008E+06     127.160E+06    -6.38003E+06    -6.37046E+06     166.998E+06     127.160E+06     737.133E+03
             989     20.3670E-03     15.1616E-03     13.5993E-03     122.755E-03    -54.3069E-03    -68.4106E-03    -63.9873E-03     118.332E-03    -54.3069E-03     54.1127E-03     218.817E-03     157.716E+06     163.207E+06     104.473E+06    -14.8833E+06    -14.8434E+06     163.167E+06     104.473E+06     1.67055E+06
             990     19.6462E-03     14.2244E-03     13.5514E-03     119.849E-03    -53.3654E-03    -66.5017E-03    -64.5450E-03     117.892E-03    -53.3654E-03     37.7801E-03     199.510E-03     156.069E+06     154.414E+06     60.5291E+06    -23.9356E+06    -23.8772E+06     154.355E+06     60.5291E+06     2.57731E+06
             991     18.9368E-03     13.2867E-03     13.4932E-03     118.456E-03    -52.3111E-03    -66.2197E-03    -64.7904E-03     117.027E-03    -52.3111E-03     30.3460E-03     197.013E-03     148.389E+06     136.620E+06     17.9103E+06    -29.0908E+06    -29.0499E+06     136.579E+06     17.9103E+06     1.66626E+06
             992     18.2633E-03     12.3502E-03     13.4544E-03     115.566E-03    -51.3333E-03    -64.3025E-03    -64.0237E-03     115.287E-03    -51.3333E-03     12.2044E-03     180.885E-03     92.0237E+06     70.9917E+06    -618.635E+03    -30.8565E+06    -30.7547E+06     70.8899E+06    -618.635E+03     1.58674E+06
             993     17.6229E-03     11.4118E-03     13.4289E-03     112.941E-03    -50.4211E-03    -62.5757E-03    -62.5113E-03     112.877E-03    -50.4211E-03    -620.581E-06     163.584E-03     40.0920E+06     6.75522E+06    -17.4493E+06    -39.1260E+06    -32.7121E+06    -13.0989E+06    -4.00911E+06     3.44954E+06
             994     17.0161E-03     10.4721E-03     13.4121E-03     109.887E-03    -49.4399E-03    -60.4863E-03    -60.3265E-03     109.727E-03    -49.4399E-03    -9.52947E-03     147.995E-03     57.2286E+06    -4.66462E+06    -34.0506E+06    -69.8282E+06    -35.1895E+06    -68.6893E+06    -4.66462E+06     5.13987E+06
             995     16.4443E-03     9.52963E-03     13.4015E-03     106.541E-03    -48.4863E-03    -58.0453E-03    -57.7146E-03     106.210E-03    -48.4863E-03    -14.2279E-03     134.981E-03     92.1802E+06    -4.30625E+06    -37.6602E+06    -108.458E+06    -38.2777E+06    -107.840E+06    -4.30625E+06     6.43727E+06
             996     15.9067E-03     8.58433E-03     13.3915E-03     103.177E-03    -47.5841E-03    -55.5625E-03    -55.0549E-03     102.669E-03    -47.5841E-03    -17.4963E-03     124.036E-03     117.046E+06    -7.54579E+06    -41.7736E+06    -137.838E+06    -42.3828E+06    -137.229E+06    -7.54579E+06     7.58009E+06
             997     15.4107E-03     7.63661E-03     13.3855E-03     99.9895E-03    -46.7673E-03    -53.1955E-03    -52.5805E-03     99.3745E-03    -46.7673E-03    -18.9785E-03     114.872E-03     137.138E+06    -12.7837E+06    -46.1494E+06    -163.507E+06    -46.8426E+06    -162.814E+06    -12.7837E+06     8.96322E+06
             998     14.9576E-03     6.68679E-03     13.3798E-03     96.8650E-03    -46.0486E-03    -50.8054E-03    -50.1969E-03     96.2565E-03    -46.0486E-03    -18.5133E-03     107.347E-03     154.976E+06    -18.9652E+06    -51.3926E+06    -187.573E+06    -52.1471E+06    -186.818E+06    -18.9652E+06     10.0635E+06
             999     14.5522E-03     5.73462E-03     13.3747E-03     94.2032E-03    -45.4717E-03    -48.7271E-03    -48.1886E-03     93.6647E-03    -45.4717E-03    -17.1476E-03     101.365E-03     170.746E+06    -26.3607E+06    -57.4664E+06    -210.511E+06    -58.1565E+06    -209.821E+06    -26.3607E+06     10.1747E+06
            1000     14.1984E-03     4.78113E-03     13.3692E-03     92.1210E-03    -45.0107E-03    -47.1009E-03    -46.6730E-03     91.6931E-03    -45.0107E-03    -15.0503E-03     96.7537E-03     183.853E+06    -34.7394E+06    -64.0498E+06    -231.476E+06    -64.5880E+06    -230.938E+06    -34.7394E+06     9.34461E+06
            1001     13.9011E-03     3.82589E-03     13.3643E-03     90.4270E-03    -44.6117E-03    -45.8062E-03    -45.5147E-03     90.1355E-03    -44.6117E-03    -12.1911E-03     93.2453E-03     186.718E+06    -48.1061E+06    -71.4635E+06    -245.364E+06    -71.9325E+06    -244.895E+06    -48.1061E+06     8.91776E+06
            1002     13.6646E-03     2.87013E-03     13.3598E-03     89.2277E-03    -44.3273E-03    -44.8938E-03    -44.7238E-03     89.0577E-03    -44.3273E-03    -9.18403E-03     90.7742E-03     186.939E+06    -63.8729E+06    -78.9581E+06    -257.869E+06    -79.2916E+06    -257.535E+06    -63.8729E+06     7.40603E+06
            1003     13.4932E-03     1.91366E-03     13.3568E-03     88.4837E-03    -44.1350E-03    -44.3461E-03    -44.2637E-03     88.4025E-03    -44.1361E-03    -6.20288E-03     89.2106E-03     188.661E+06    -76.6494E+06    -85.9943E+06    -269.799E+06    -86.1316E+06    -269.661E+06    -76.6494E+06     4.78294E+06
            1004     13.3882E-03     956.928E-06     13.3540E-03     88.0765E-03    -43.9260E-03    -44.1491E-03    -44.1238E-03     88.0522E-03    -43.9271E-03    -3.15336E-03     88.4418E-03     186.047E+06    -86.7312E+06    -90.4525E+06    -274.589E+06    -90.5127E+06    -274.529E+06    -86.7312E+06     2.88461E+06
            1005     20.4223E-03     16.1035E-03     12.5598E-03     124.239E-03    -54.7889E-03    -69.4077E-03    -65.4256E-03     120.257E-03    -54.7889E-03     50.1075E-03     206.297E-03     158.236E+06     166.303E+06     127.443E+06    -7.70104E+06    -7.68959E+06     166.292E+06     127.443E+06     281.471E+03
            1006     19.6365E-03     15.1682E-03     12.4706E-03     125.724E-03    -53.9157E-03    -71.7651E-03    -67.4987E-03     121.458E-03    -53.9157E-03     53.9884E-03     219.137E-03     156.747E+06     160.305E+06     108.771E+06    -15.2962E+06    -15.2327E+06     160.242E+06     108.771E+06      3.0082E+06
            1007     18.8933E-03     14.2335E-03     12.4243E-03     122.726E-03    -52.7216E-03    -70.0175E-03    -68.2430E-03     120.951E-03    -52.7216E-03     36.6771E-03     200.124E-03     154.993E+06     155.452E+06     69.8792E+06    -21.0453E+06    -20.9736E+06     155.380E+06     69.8792E+06     3.18921E+06
            1008     18.1613E-03     13.3016E-03     12.3654E-03     120.914E-03    -51.3123E-03    -69.6830E-03    -68.4786E-03     119.709E-03    -51.3123E-03     27.9136E-03     197.062E-03     146.050E+06     138.836E+06     24.0640E+06    -24.5970E+06    -24.5617E+06     138.800E+06     24.0640E+06     1.28451E+06
            1009     17.4642E-03     12.3675E-03     12.3306E-03     117.473E-03    -49.9660E-03    -67.5723E-03    -67.3941E-03     117.294E-03    -49.9660E-03     8.18324E-03     180.583E-03     89.3830E+06     70.8114E+06     932.963E+03    -27.9985E+06    -27.8767E+06     70.6896E+06     932.963E+03     1.82966E+06
            1010     16.7981E-03     11.4325E-03     12.3074E-03     113.923E-03    -48.6908E-03    -65.2687E-03    -65.1586E-03     113.812E-03    -48.6908E-03    -5.86659E-03     162.505E-03     40.2979E+06     7.50386E+06    -16.3637E+06    -38.7404E+06    -31.0729E+06    -13.3305E+06    -3.19683E+06     3.75610E+06
            1011     16.1657E-03     10.4942E-03     12.2964E-03     109.949E-03    -47.3559E-03    -62.6269E-03    -62.2715E-03     109.594E-03    -47.3559E-03    -15.0787E-03     146.277E-03     58.2076E+06    -3.94092E+06    -32.9536E+06    -70.2948E+06    -33.9537E+06    -69.2947E+06    -3.94092E+06     5.25055E+06
            1012     15.5654E-03     9.55340E-03     12.2887E-03     105.862E-03    -46.0308E-03    -59.8282E-03    -59.1792E-03     105.213E-03    -46.0308E-03    -20.3351E-03     132.718E-03     92.9344E+06    -3.12233E+06    -36.5774E+06    -108.098E+06    -37.2631E+06    -107.413E+06    -3.12233E+06     6.82050E+06
            1013     15.0020E-03     8.60956E-03     12.2856E-03     101.333E-03    -44.7525E-03    -56.5565E-03    -55.6350E-03     100.412E-03    -44.7525E-03    -23.7877E-03     120.671E-03     118.353E+06    -5.63045E+06    -40.6098E+06    -137.483E+06    -41.2924E+06    -136.801E+06    -5.63045E+06     8.00607E+06
            1014     14.4765E-03     7.66197E-03     12.2826E-03     96.7612E-03    -43.5852E-03    -53.1489E-03    -52.0712E-03     95.6835E-03    -43.5852E-03    -25.1560E-03     110.398E-03     138.907E+06    -10.6709E+06    -45.0979E+06    -163.535E+06    -45.8422E+06    -162.790E+06    -10.6709E+06     9.32334E+06
            1015     13.9952E-03     6.71104E-03     12.2812E-03     92.5624E-03    -42.5422E-03    -50.0106E-03    -48.9402E-03     91.4920E-03    -42.5422E-03    -24.4457E-03     102.010E-03     155.897E+06    -16.5802E+06    -49.9671E+06    -186.451E+06    -50.8369E+06    -185.581E+06    -16.5802E+06     10.8451E+06
            1016     13.5618E-03     5.75750E-03     12.2790E-03     88.7915E-03    -41.6507E-03    -47.1354E-03    -46.1813E-03     87.8374E-03    -41.6507E-03    -22.4986E-03     95.0601E-03     169.066E+06    -24.1409E+06    -55.3948E+06    -206.640E+06    -56.1936E+06    -205.841E+06    -24.1409E+06     10.8871E+06
            1017     13.1832E-03     4.80122E-03     12.2778E-03     85.5477E-03    -40.9124E-03    -44.6159E-03    -43.8493E-03     84.7811E-03    -40.9124E-03    -19.6912E-03     89.4807E-03     183.204E+06    -32.2345E+06    -61.7574E+06    -228.400E+06    -62.4014E+06    -227.756E+06    -32.2345E+06     10.2972E+06
            1018     12.8622E-03     3.84331E-03     12.2745E-03     82.8491E-03    -40.2954E-03    -42.5354E-03    -41.9996E-03     82.3133E-03    -40.2954E-03    -16.0981E-03     85.1971E-03     187.289E+06    -43.3530E+06    -68.4922E+06    -241.911E+06    -69.0779E+06    -241.325E+06    -43.3530E+06     10.0529E+06
            1019     12.6061E-03     2.88346E-03     12.2719E-03     80.8161E-03    -39.8362E-03    -40.9703E-03    -40.6469E-03     80.4927E-03    -39.8362E-03    -12.2564E-03     82.0777E-03     185.992E+06    -58.1539E+06    -74.8757E+06    -251.889E+06    -75.3107E+06    -251.454E+06    -58.1539E+06     8.64054E+06
            1020     12.4191E-03     1.92273E-03     12.2694E-03     79.5066E-03    -39.5115E-03    -39.9944E-03    -39.8387E-03     79.3510E-03    -39.5115E-03    -8.24592E-03     80.1051E-03     186.998E+06    -72.5808E+06    -80.4962E+06    -263.362E+06    -80.6318E+06    -263.148E+06    -72.6589E+06     6.07266E+06
            1021     12.3048E-03     961.567E-06     12.2672E-03     78.7686E-03    -39.1742E-03    -39.5940E-03    -39.5465E-03     78.7211E-03    -39.1742E-03    -4.29623E-03     79.0919E-03     185.555E+06    -82.7147E+06    -84.5601E+06    -269.170E+06    -84.5149E+06    -269.105E+06    -82.8246E+06     2.83466E+06
            1022     19.7483E-03     16.1064E-03     11.4271E-03     127.640E-03    -54.5687E-03    -73.0440E-03    -69.1171E-03     123.713E-03    -54.5687E-03     51.6743E-03     208.183E-03     158.607E+06     165.120E+06     127.284E+06    -8.96276E+06     -8.9498E+06     165.107E+06     127.284E+06     589.015E+03
            1023     18.9430E-03     15.1746E-03     11.3389E-03     128.819E-03    -53.4986E-03    -75.3855E-03    -71.3421E-03     124.775E-03    -53.4986E-03     53.3909E-03     220.249E-03     156.714E+06     158.940E+06     113.052E+06    -15.4928E+06    -15.4366E+06     158.884E+06     113.052E+06     167.023E+03
            1024     18.1769E-03     14.2451E-03     11.2906E-03     125.532E-03    -52.0392E-03    -73.5607E-03    -71.9803E-03     123.952E-03    -52.0392E-03     35.2417E-03     201.274E-03     153.957E+06     155.894E+06     76.7158E+06    -18.8379E+06    -18.7819E+06     155.838E+06     76.7158E+06     289.094E+03
            1025     17.4218E-03     13.3145E-03     11.2358E-03     123.108E-03    -50.2818E-03    -72.9175E-03    -71.8934E-03     122.084E-03    -50.2818E-03     25.9496E-03     197.545E-03     144.725E+06     139.013E+06     26.2417E+06    -23.0489E+06    -23.0033E+06     138.968E+06     26.2417E+06     2.28677E+06
            1026     16.6992E-03     12.3851E-03     11.2014E-03     119.349E-03    -48.5968E-03    -70.8289E-03    -70.6801E-03     119.200E-03    -48.5968E-03     5.40742E-03     181.045E-03     89.3294E+06     71.2329E+06     1.95067E+06    -27.3771E+06    -27.1971E+06     71.0528E+06     1.95067E+06     3.50720E+06
            1027     16.0099E-03     11.4531E-03     11.1868E-03     115.123E-03    -46.9637E-03    -68.1922E-03    -68.0040E-03     114.935E-03    -46.9637E-03    -9.80525E-03     162.563E-03     41.2980E+06     8.88996E+06    -14.7207E+06    -38.4842E+06    -30.1987E+06    -12.7980E+06    -1.31826E+06     4.21913E+06
            1028     15.3492E-03     10.5172E-03     11.1798E-03     110.179E-03    -45.2595E-03    -64.9662E-03    -64.4265E-03     109.639E-03    -45.2595E-03    -19.0303E-03     145.713E-03     59.8643E+06    -2.32307E+06    -31.8943E+06    -70.6174E+06    -32.9373E+06    -69.5745E+06    -2.32307E+06     5.36715E+06
            1029     14.7209E-03     9.57825E-03     11.1786E-03     105.052E-03    -43.5641E-03    -61.4974E-03    -60.5708E-03     104.126E-03    -43.5641E-03    -24.5486E-03     131.341E-03     95.0431E+06    -1.12314E+06    -35.4343E+06    -108.508E+06    -36.1061E+06    -107.836E+06    -1.12314E+06     6.90536E+06
            1030     14.1270E-03     8.63529E-03     11.1805E-03     99.4673E-03    -41.9194E-03    -57.5354E-03    -56.2772E-03     98.2091E-03    -41.9194E-03    -27.9001E-03     118.359E-03     120.300E+06    -2.42714E+06    -39.3310E+06    -136.822E+06    -40.0789E+06    -136.074E+06    -2.42714E+06     8.41309E+06
            1031     13.5725E-03     7.68779E-03     11.1853E-03     93.7849E-03    -40.3818E-03    -53.3936E-03    -51.9664E-03     92.3576E-03    -40.3818E-03    -28.8016E-03     107.092E-03     141.415E+06    -6.71603E+06    -43.9399E+06    -162.985E+06    -44.6895E+06    -162.236E+06    -6.71603E+06     9.31989E+06
            1032     13.0600E-03     6.73625E-03     11.1887E-03     88.3624E-03    -38.9720E-03    -49.3831E-03    -47.9484E-03     86.9277E-03    -38.9720E-03    -27.9227E-03     97.5267E-03     158.408E+06    -11.8571E+06    -48.1736E+06    -185.247E+06    -48.9409E+06    -184.480E+06    -11.8571E+06     10.1689E+06
            1033     12.5970E-03     5.78116E-03     11.1921E-03     83.3249E-03    -37.7397E-03    -45.5753E-03    -44.2786E-03     82.0282E-03    -37.7397E-03    -25.6685E-03     89.3320E-03     170.828E+06    -18.2070E+06    -52.4870E+06    -203.549E+06    -53.2342E+06    -202.801E+06    -18.2070E+06     10.5663E+06
            1034     12.1884E-03     4.82280E-03     11.1937E-03     78.9007E-03    -36.6889E-03    -42.1868E-03    -41.1443E-03     77.8582E-03    -36.6889E-03    -22.2902E-03     82.6200E-03     185.318E+06    -26.0021E+06    -57.9326E+06    -225.190E+06    -58.5922E+06    -224.530E+06    -26.0021E+06     10.4430E+06
            1035     11.8418E-03     3.86142E-03     11.1945E-03     75.1202E-03    -35.7936E-03    -39.3075E-03    -38.5655E-03     74.3782E-03    -35.7936E-03    -18.2412E-03     77.3190E-03     189.025E+06    -36.4360E+06    -64.0169E+06    -237.719E+06    -64.5679E+06    -237.168E+06    -36.4360E+06     9.73251E+06
            1036     11.5633E-03     2.89804E-03     11.1942E-03     72.1211E-03    -35.0911E-03    -37.0254E-03    -36.5711E-03     71.6668E-03    -35.0911E-03    -13.8694E-03     73.3013E-03     186.337E+06    -50.6897E+06    -69.9789E+06    -245.866E+06    -70.3799E+06    -245.465E+06    -50.6897E+06     8.28003E+06
            1037     11.3588E-03     1.93289E-03     11.1931E-03     69.9995E-03    -34.5742E-03    -35.4250E-03    -35.2043E-03     69.7789E-03    -34.5742E-03    -9.35843E-03     70.5779E-03     186.858E+06    -65.9800E+06    -75.1039E+06    -257.165E+06    -75.2515E+06    -256.940E+06    -66.0581E+06     6.30506E+06
            1038     11.2336E-03     966.628E-06     11.1919E-03     68.7551E-03    -34.1444E-03    -34.6094E-03    -34.5385E-03     68.6842E-03    -34.1444E-03    -4.95146E-03     69.1060E-03     184.798E+06    -76.6735E+06    -79.1284E+06    -262.669E+06    -79.1086E+06    -262.579E+06    -76.7834E+06     3.79060E+06
            1039     19.1175E-03     16.1106E-03     10.2921E-03     131.322E-03    -54.3388E-03    -77.0469E-03    -73.2377E-03     127.512E-03    -54.3388E-03     52.2563E-03     210.154E-03     157.144E+06     165.250E+06     129.609E+06    -6.60906E+06    -6.60287E+06     165.244E+06     129.609E+06     430.813E+03
            1040     18.2926E-03     15.1830E-03     10.2029E-03     131.447E-03    -52.9691E-03    -78.6291E-03    -74.7598E-03     127.577E-03    -52.9691E-03     53.1392E-03     220.798E-03     156.919E+06     160.975E+06     108.920E+06    -14.7572E+06    -14.7248E+06     160.942E+06     108.920E+06    -1.16807E+06
            1041     17.5036E-03     14.2552E-03     10.1571E-03     127.763E-03    -51.2503E-03    -76.6595E-03    -75.1999E-03     126.304E-03    -51.2503E-03     34.3961E-03     201.839E-03     154.463E+06     153.326E+06     68.7356E+06    -23.2112E+06    -23.1755E+06     153.290E+06     68.7356E+06    -696.854E+03
            1042     16.7257E-03     13.3293E-03     10.1035E-03     124.763E-03    -49.2832E-03    -75.5993E-03    -74.7146E-03     123.879E-03    -49.2832E-03     24.1422E-03     197.799E-03     146.600E+06     137.264E+06     25.2436E+06    -27.6764E+06    -27.6409E+06     137.228E+06     25.2436E+06     1.91683E+06
            1043     15.9766E-03     12.4005E-03     10.0737E-03     120.291E-03    -47.3446E-03    -73.0250E-03    -72.8939E-03     120.160E-03    -47.3446E-03     3.15511E-03     181.136E-03     91.5486E+06     71.8023E+06     3.96117E+06    -29.6534E+06    -29.4781E+06     71.6269E+06     3.96117E+06     3.25518E+06
            1044     15.2594E-03     11.4710E-03     10.0631E-03     115.703E-03    -45.4396E-03    -70.2975E-03    -70.0568E-03     115.462E-03    -45.4396E-03    -11.9889E-03     162.868E-03     42.2812E+06     9.98915E+06    -14.0822E+06    -37.8346E+06    -31.3002E+06    -12.3106E+06     1.68314E+06     4.22325E+06
            1045     14.5717E-03     10.5379E-03     10.0641E-03     110.020E-03    -43.4496E-03    -66.6234E-03    -66.0324E-03     109.429E-03    -43.4496E-03    -20.1448E-03     145.851E-03     62.6716E+06     1.70060E+06    -32.4323E+06    -69.6678E+06    -33.7678E+06    -68.3323E+06     1.70060E+06     5.23256E+06
            1046     13.9122E-03     9.59990E-03     10.0693E-03     103.831E-03    -41.4725E-03    -62.3692E-03    -61.4084E-03     102.870E-03    -41.4725E-03    -24.9923E-03     130.706E-03     98.7102E+06     2.73119E+06    -35.9382E+06    -109.360E+06    -36.5003E+06    -108.798E+06     2.73119E+06     6.32074E+06
            1047     13.2874E-03     8.65716E-03     10.0801E-03     97.5376E-03    -39.5442E-03    -57.9738E-03    -56.6993E-03     96.2631E-03    -39.5442E-03    -27.9716E-03     117.311E-03     123.627E+06     2.97564E+06    -38.6156E+06    -136.034E+06    -39.2164E+06    -135.433E+06     2.97564E+06     7.49089E+06
            1048     12.6991E-03     7.71004E-03     10.0907E-03     91.1390E-03    -37.7044E-03    -53.4309E-03    -52.0137E-03     89.7219E-03    -37.7044E-03    -28.4481E-03     105.388E-03     145.860E+06     1.16613E+06    -41.6126E+06    -161.252E+06    -42.1513E+06    -160.713E+06     1.16613E+06     7.75621E+06
            1049     12.1543E-03     6.75862E-03     10.1019E-03     84.7062E-03    -35.9729E-03    -48.7291E-03    -47.3076E-03     83.2846E-03    -35.9729E-03    -27.3677E-03     94.6655E-03     164.023E+06    -3.18549E+06    -44.8656E+06    -183.994E+06    -45.3384E+06    -183.522E+06    -3.18549E+06     7.98735E+06
            1050     11.6571E-03     5.80207E-03     10.1106E-03     78.5967E-03    -34.4249E-03    -44.1659E-03    -42.8799E-03     77.3106E-03    -34.4249E-03    -24.9689E-03     85.2392E-03     175.625E+06    -9.38021E+06    -48.9183E+06    -201.385E+06    -49.4441E+06    -200.859E+06    -9.38021E+06     8.85540E+06
            1051     11.2165E-03     4.84152E-03     10.1178E-03     73.1819E-03    -33.0790E-03    -40.0873E-03    -39.0411E-03     72.1357E-03    -33.0790E-03    -21.6400E-03     77.3796E-03     189.178E+06    -16.8163E+06    -53.7653E+06    -221.708E+06    -54.2549E+06    -221.218E+06    -16.8163E+06     8.86732E+06
            1052     10.8403E-03     3.87782E-03     10.1230E-03     68.4308E-03    -31.9044E-03    -36.5180E-03    -35.7613E-03     67.6740E-03    -31.9044E-03    -17.6894E-03     70.9582E-03     191.992E+06    -28.3580E+06    -58.6966E+06    -233.676E+06    -59.0472E+06    -233.326E+06    -28.3580E+06     7.53432E+06
            1053     10.5363E-03     2.91092E-03     10.1262E-03     64.5571E-03    -30.9522E-03    -33.6077E-03    -33.1436E-03     64.0930E-03    -30.9522E-03    -13.3415E-03     65.9835E-03     189.567E+06    -41.8591E+06    -63.3245E+06    -241.204E+06    -63.5634E+06    -240.965E+06    -41.8591E+06     6.33033E+06
            1054     10.3123E-03     1.94201E-03     10.1277E-03     61.7124E-03    -30.2228E-03    -31.4879E-03    -31.2612E-03     61.4856E-03    -30.2228E-03    -8.96283E-03     62.4362E-03     190.756E+06    -54.4973E+06    -68.1467E+06    -251.676E+06    -68.3026E+06    -251.521E+06    -54.4973E+06     5.13548E+06
            1055     10.1744E-03     971.462E-06     10.1279E-03     59.8071E-03    -29.6448E-03    -30.1612E-03    -30.0857E-03     59.7316E-03    -29.6448E-03    -4.86993E-03     60.2782E-03     187.119E+06    -65.8405E+06    -71.8524E+06    -255.859E+06    -71.3366E+06    -255.796E+06    -66.4193E+06     2.65374E+06
            1056     18.5329E-03     16.1152E-03     9.15259E-03     134.791E-03    -54.1398E-03    -80.7835E-03    -76.9618E-03     130.969E-03    -54.1398E-03     53.3950E-03     211.549E-03     158.087E+06     165.652E+06     130.547E+06    -6.97036E+06    -6.96812E+06     165.650E+06     130.547E+06    -425.297E+03
            1057     17.6889E-03     15.1893E-03     9.06540E-03     133.963E-03    -52.5462E-03    -81.6189E-03    -77.7540E-03     130.098E-03    -52.5462E-03     53.9304E-03     220.867E-03     157.806E+06     160.871E+06     110.298E+06    -15.4219E+06    -15.4065E+06     160.856E+06     110.298E+06     763.891E+03
            1058     16.8766E-03     14.2651E-03     9.01796E-03     129.544E-03    -50.6223E-03    -79.1452E-03    -77.6858E-03     128.084E-03    -50.6223E-03     34.7671E-03     202.026E-03     155.130E+06     152.917E+06     69.7693E+06    -23.9474E+06    -23.9317E+06     152.902E+06     69.7693E+06     1.01241E+06
            1059     16.0755E-03     13.3407E-03     8.96913E-03     125.569E-03    -48.4772E-03    -77.2164E-03    -76.3389E-03     124.691E-03    -48.4772E-03     24.3593E-03     197.577E-03     146.156E+06     136.093E+06     26.7529E+06    -29.2669E+06    -29.2610E+06     136.087E+06     26.7529E+06     441.399E+03
            1060     15.3013E-03     12.4150E-03     8.94413E-03     119.937E-03    -46.4079E-03    -73.5847E-03    -73.4531E-03     119.805E-03    -46.4079E-03     4.04377E-03     180.370E-03     92.6029E+06     70.9337E+06     7.35367E+06    -32.1710E+06    -32.0179E+06     70.7807E+06     7.35367E+06     2.18828E+06
            1061     14.5540E-03     11.4847E-03     8.93990E-03     114.506E-03    -44.4159E-03    -70.1414E-03    -69.9663E-03     114.330E-03    -44.4159E-03    -9.83043E-03     162.363E-03     47.7082E+06     13.1100E+06    -14.3749E+06    -39.6396E+06    -34.7355E+06    -12.0594E+06     5.89032E+06     3.62693E+06
            1062     13.8347E-03     10.5511E-03     8.94844E-03     108.589E-03    -42.3585E-03    -66.2860E-03    -65.8717E-03     108.175E-03    -42.3585E-03    -16.5286E-03     146.067E-03     67.6717E+06     7.67979E+06    -35.8812E+06    -68.9101E+06    -36.9012E+06    -67.8902E+06     7.67979E+06     3.96187E+06
            1063     13.1433E-03     9.61316E-03     8.96285E-03     102.118E-03    -40.2931E-03    -61.8338E-03    -61.1954E-03     101.480E-03    -40.2931E-03    -19.8885E-03     131.008E-03     102.332E+06     9.31330E+06    -38.3599E+06    -107.878E+06    -38.6917E+06    -107.546E+06     9.31330E+06     3.74657E+06
            1064     12.4827E-03     8.67059E-03     8.97993E-03     95.5570E-03    -38.2527E-03    -57.2770E-03    -56.4704E-03     94.7504E-03    -38.2527E-03    -21.5190E-03     117.797E-03     127.742E+06     10.1501E+06    -38.9605E+06    -134.762E+06    -39.1845E+06    -134.538E+06     10.1501E+06     2.84500E+06
            1065     11.8587E-03     7.72339E-03     8.99883E-03     88.9991E-03    -36.2883E-03    -52.6971E-03    -51.8230E-03     88.1250E-03    -36.2883E-03    -21.5306E-03     105.721E-03     152.242E+06     10.5204E+06    -39.1330E+06    -160.282E+06    -39.3022E+06    -160.113E+06     10.5204E+06     3.46883E+06
            1066     11.2763E-03     6.77104E-03     9.01706E-03     82.3961E-03    -34.3946E-03    -47.9926E-03    -47.1224E-03     81.5259E-03    -34.3946E-03    -20.6379E-03     94.4914E-03     171.943E+06     7.91845E+06    -41.4347E+06    -183.254E+06    -41.6141E+06    -183.074E+06     7.91845E+06      4.4501E+06
            1067     10.7430E-03     5.81445E-03     9.03345E-03     75.9432E-03    -32.6308E-03    -43.3026E-03    -42.5134E-03     75.1539E-03    -32.6308E-03    -18.8041E-03     84.3124E-03     183.790E+06     2.31600E+06    -44.9320E+06    -200.427E+06    -45.1646E+06    -200.195E+06     2.31600E+06     5.46700E+06
            1068     10.2663E-03     4.85335E-03     9.04661E-03     69.9009E-03    -31.0351E-03    -38.8539E-03    -38.1989E-03     69.2459E-03    -31.0351E-03    -16.3612E-03     75.4449E-03     193.631E+06    -6.90095E+06    -49.0101E+06    -218.073E+06    -49.2113E+06    -217.872E+06    -6.90095E+06     5.17169E+06
            1069     9.85699E-03     3.88797E-03     9.05781E-03     64.5202E-03    -29.6311E-03    -34.8819E-03    -34.3996E-03     64.0379E-03    -29.6311E-03    -13.4309E-03     67.9720E-03     196.543E+06    -18.3473E+06    -53.0324E+06    -229.885E+06    -53.1312E+06    -229.786E+06    -18.3473E+06     3.02917E+06
            1070     9.52320E-03     2.91934E-03     9.06470E-03     60.0257E-03    -28.4658E-03    -31.5607E-03    -31.2605E-03     59.7255E-03    -28.4658E-03    -10.1655E-03     62.0220E-03     196.559E+06    -30.9837E+06    -56.6001E+06    -239.028E+06    -56.6709E+06    -238.957E+06    -30.9837E+06     2.16604E+06
            1071     9.27640E-03     1.94782E-03     9.06960E-03     56.5786E-03    -27.5391E-03    -29.0375E-03    -28.8888E-03     56.4299E-03    -27.5391E-03    -6.82162E-03     57.7568E-03     195.348E+06    -45.7450E+06    -59.7406E+06    -247.615E+06    -59.7873E+06    -247.569E+06    -45.7450E+06     2.01472E+06
            1072     9.12415E-03     974.754E-06     9.07193E-03     54.2628E-03    -26.8589E-03    -27.4031E-03    -27.3522E-03     54.2120E-03    -26.8589E-03    -3.81566E-03     55.0904E-03     191.031E+06    -58.4338E+06    -63.3469E+06    -251.838E+06    -62.7909E+06    -251.815E+06    -59.0126E+06     1.33792E+06
            1073     17.9977E-03     16.1165E-03     8.01094E-03     138.270E-03    -54.0918E-03    -84.3495E-03    -80.2691E-03     134.190E-03    -54.0918E-03     55.9325E-03     212.199E-03     159.702E+06     165.059E+06     131.022E+06    -8.87053E+06    -8.86743E+06     165.056E+06     131.022E+06    -117.023E+03
            1074     17.1360E-03     15.1946E-03     7.92260E-03     136.304E-03    -52.3315E-03    -84.1963E-03    -79.9965E-03     132.104E-03    -52.3315E-03     57.1419E-03     220.153E-03     157.780E+06     159.099E+06     111.535E+06    -16.5323E+06    -16.5167E+06     159.083E+06     111.535E+06     684.283E+03
            1075     16.3028E-03     14.2720E-03     7.87992E-03     130.338E-03    -50.3027E-03    -80.2303E-03    -78.4347E-03     128.542E-03    -50.3027E-03     38.4985E-03     201.010E-03     154.221E+06     153.331E+06     71.8290E+06    -22.2050E+06    -22.1827E+06     153.309E+06     71.8290E+06     1.33588E+06
            1076     15.4765E-03     13.3474E-03     7.83385E-03     124.749E-03    -48.1621E-03    -76.6534E-03    -75.4617E-03     123.558E-03    -48.1621E-03     28.7803E-03     195.704E-03     144.021E+06     134.940E+06     29.3156E+06    -28.8166E+06    -28.7524E+06     134.876E+06     29.3156E+06     1.91743E+06
            1077     14.6743E-03     12.4193E-03     7.81642E-03     117.531E-03    -46.2181E-03    -71.3670E-03    -71.1297E-03     117.294E-03    -46.2181E-03     10.4948E-03     178.330E-03     95.2413E+06     71.0246E+06     13.2276E+06    -34.8163E+06    -34.6449E+06     70.8532E+06     13.2276E+06     2.65831E+06
            1078     13.8969E-03     11.4877E-03     7.82032E-03     111.379E-03    -44.4277E-03    -67.0320E-03    -66.9365E-03     111.283E-03    -44.4277E-03     499.996E-06     161.553E-03     55.9478E+06     18.1883E+06    -12.7955E+06    -41.5727E+06    -38.1323E+06    -11.0217E+06     12.9740E+06     2.28492E+06
            1079     13.1426E-03     10.5516E-03     7.83535E-03     105.806E-03    -42.6042E-03    -63.2823E-03    -63.1313E-03     105.655E-03    -42.6042E-03    -4.03869E-03     146.692E-03     73.8740E+06     14.6497E+06    -39.7911E+06    -67.9244E+06    -40.4926E+06    -67.2230E+06     14.6497E+06     640.897E+03
            1080     12.4149E-03     9.61182E-03     7.85758E-03     99.9690E-03    -40.7669E-03    -59.2527E-03    -59.0407E-03     99.7570E-03    -40.7669E-03    -5.34458E-03     132.640E-03     106.336E+06     17.9518E+06    -39.7870E+06    -104.421E+06    -40.2727E+06    -103.936E+06     17.9518E+06    -2.54454E+06
            1081     11.7158E-03     8.66738E-03     7.88263E-03     94.3770E-03    -38.9244E-03    -55.4594E-03    -55.2144E-03     94.1320E-03    -38.9244E-03    -5.26829E-03     120.715E-03     134.799E+06     18.9052E+06    -38.7231E+06    -134.946E+06    -39.1210E+06    -134.548E+06     18.9052E+06    -4.71701E+06
            1082     11.0512E-03     7.71929E-03     7.90831E-03     88.9375E-03    -37.0903E-03    -51.8441E-03    -51.5928E-03     88.6862E-03    -37.0903E-03    -5.61402E-03     109.407E-03     161.731E+06     19.7705E+06    -38.9734E+06    -163.054E+06    -39.2074E+06    -162.820E+06     19.7705E+06    -3.12926E+06
            1083     10.4286E-03     6.76777E-03     7.93425E-03     83.2024E-03    -35.2363E-03    -47.9619E-03    -47.7143E-03     82.9548E-03    -35.2363E-03    -5.92374E-03     98.5017E-03     180.003E+06     18.5027E+06    -41.0298E+06    -183.659E+06    -41.0970E+06    -183.592E+06     18.5027E+06    -776.315E+03
            1084     9.85344E-03     5.81190E-03     7.95688E-03     77.2206E-03    -33.4118E-03    -43.8036E-03    -43.5817E-03     76.9987E-03    -33.4118E-03    -5.76516E-03     88.2445E-03     190.439E+06     11.3297E+06    -44.2628E+06    -200.658E+06    -44.3425E+06    -200.578E+06     11.3297E+06    -351.342E+03
            1085     9.33686E-03     4.85176E-03     7.97730E-03     71.2330E-03    -31.6719E-03    -39.5585E-03    -39.3775E-03     71.0519E-03    -31.6719E-03    -5.29572E-03     78.8719E-03     195.521E+06    -1.22241E+06    -46.8088E+06    -215.400E+06    -46.9077E+06    -215.301E+06    -1.22241E+06    -1.03349E+06
            1086     8.88860E-03     3.88754E-03     7.99339E-03     65.6952E-03    -30.1102E-03    -35.5862E-03    -35.4501E-03     65.5591E-03    -30.1102E-03    -4.57835E-03     70.6271E-03     198.708E+06    -13.7187E+06    -49.9687E+06    -228.036E+06    -50.0511E+06    -227.953E+06    -13.7187E+06    -2.39812E+06
            1087     8.52212E-03     2.91948E-03     8.00645E-03     60.8893E-03    -28.7716E-03    -32.1226E-03    -32.0351E-03     60.8017E-03    -28.7716E-03    -3.68845E-03     63.8879E-03     199.484E+06    -28.5323E+06    -54.3547E+06    -239.544E+06    -54.4096E+06    -239.489E+06    -28.5323E+06    -2.48249E+06
            1088     8.24808E-03     1.94845E-03     8.01463E-03     56.9611E-03    -27.6966E-03    -29.2638E-03    -29.2199E-03     56.9173E-03    -27.6966E-03    -2.70843E-03     58.9163E-03     195.361E+06    -46.7237E+06    -58.4703E+06    -247.606E+06    -58.4927E+06    -247.583E+06    -46.7237E+06    -1.44898E+06
            1089     8.07920E-03     974.448E-06     8.02021E-03     54.4767E-03    -26.9839E-03    -27.4932E-03    -27.4772E-03     54.4608E-03    -26.9839E-03    -1.52975E-03     55.8370E-03     192.443E+06    -56.9993E+06    -60.4927E+06    -251.147E+06    -60.5124E+06    -251.127E+06    -56.9993E+06     409.334E+03
            1090     17.5157E-03     16.1141E-03     6.86546E-03     141.430E-03    -54.4204E-03    -87.1861E-03    -82.1853E-03     136.429E-03    -54.4204E-03     61.8084E-03     211.818E-03     159.057E+06     164.914E+06     132.661E+06    -7.77767E+06    -7.76659E+06     164.903E+06     132.661E+06     1.12225E+06
            1091     16.6354E-03     15.1921E-03     6.77772E-03     137.617E-03    -52.6086E-03    -85.2323E-03    -79.7896E-03     132.175E-03    -52.6086E-03     65.7671E-03     218.055E-03     158.254E+06     159.468E+06     109.449E+06    -17.1080E+06    -17.0982E+06     159.458E+06     109.449E+06     798.804E+03
            1092     15.7812E-03     14.2686E-03     6.74179E-03     129.883E-03    -50.6711E-03    -79.4196E-03    -76.4553E-03     126.919E-03    -50.6711E-03     48.6044E-03     198.698E-03     155.017E+06     151.187E+06     66.7077E+06    -26.1688E+06    -26.1187E+06     151.137E+06     66.7077E+06     2.08020E+06
            1093     14.9299E-03     13.3416E-03     6.70089E-03     122.043E-03    -48.8440E-03    -73.2489E-03    -70.9464E-03     119.741E-03    -48.8440E-03     39.7915E-03     191.920E-03     145.578E+06     133.791E+06     30.8713E+06    -32.6566E+06    -32.5325E+06     133.666E+06     30.8713E+06     4.25328E+06
            1094     14.0998E-03     12.4093E-03     6.69436E-03     112.747E-03    -47.3942E-03    -65.4138E-03    -64.2827E-03     111.616E-03    -47.3942E-03     25.4739E-03     175.260E-03     99.8949E+06     72.7075E+06     20.2135E+06    -37.4735E+06    -37.3656E+06     72.5995E+06     20.2135E+06     3.13160E+06
            1095     13.2856E-03     11.4698E-03     6.70447E-03     107.464E-03    -46.2184E-03    -61.3058E-03    -60.2149E-03     106.373E-03    -46.2184E-03     22.3335E-03     161.180E-03     63.6222E+06     22.8832E+06    -7.90981E+06    -44.0293E+06    -40.7775E+06    -9.53287E+06     21.2545E+06    -957.400E+03
            1096     12.4936E-03     10.5290E-03     6.72537E-03     103.673E-03    -45.0160E-03    -58.6791E-03    -57.7266E-03     102.720E-03    -45.0160E-03     19.7144E-03     147.956E-03     81.8987E+06     24.4184E+06    -36.8999E+06    -67.4364E+06    -40.7738E+06    -63.5625E+06     24.4184E+06    -6.24984E+06
            1097     11.7254E-03     9.58436E-03     6.75467E-03     99.9470E-03    -43.7819E-03    -56.1901E-03    -55.1558E-03     98.9127E-03    -43.7819E-03     20.1468E-03     136.340E-03     114.080E+06     27.9468E+06    -38.1515E+06    -103.493E+06    -40.1901E+06    -101.455E+06     27.9468E+06    -10.6731E+06
            1098     10.9838E-03     8.63793E-03     6.78449E-03     97.0247E-03    -42.4912E-03    -54.5534E-03    -53.4754E-03     95.9468E-03    -42.4912E-03     20.7245E-03     127.059E-03     145.564E+06     28.7416E+06    -39.1771E+06    -138.145E+06    -40.9572E+06    -136.365E+06     28.7416E+06    -12.3889E+06
            1099     10.2758E-03     7.69024E-03     6.81556E-03     93.7985E-03    -41.0728E-03    -52.7402E-03    -51.8028E-03     92.8610E-03    -41.0728E-03     18.9775E-03     117.345E-03     173.809E+06     29.2791E+06    -40.6516E+06    -168.538E+06    -41.9260E+06    -167.264E+06     29.2791E+06    -11.6269E+06
            1100     9.60783E-03     6.74017E-03     6.84695E-03     89.7316E-03    -39.5019E-03    -50.2319E-03    -49.4641E-03     88.9638E-03    -39.5019E-03     16.6528E-03     107.752E-03     190.214E+06     27.1991E+06    -41.2929E+06    -187.719E+06    -42.1417E+06    -186.870E+06     27.1991E+06    -9.42890E+06
            1101     8.98749E-03     5.78737E-03     6.87614E-03     85.0103E-03    -37.8303E-03    -47.1839E-03    -46.5877E-03     84.4140E-03    -37.8303E-03     14.1456E-03     98.3667E-03     196.125E+06     16.4741E+06    -42.6206E+06    -202.299E+06    -43.1318E+06    -201.788E+06     16.4741E+06    -7.96926E+06
            1102     8.42516E-03     4.83126E-03     6.90233E-03     79.8239E-03    -36.1238E-03    -43.7098E-03    -43.2809E-03     79.3950E-03    -36.1238E-03     11.4428E-03     89.3893E-03     197.124E+06    -719.263E+03    -45.6682E+06    -216.297E+06    -46.0864E+06    -215.879E+06    -719.263E+03    -7.91793E+06
            1103     7.93374E-03     3.87119E-03     6.92518E-03     74.5446E-03    -34.5126E-03    -40.0447E-03    -39.7674E-03     74.2674E-03    -34.5126E-03     8.77080E-03     80.9868E-03     197.967E+06    -18.2319E+06    -50.0124E+06    -230.082E+06    -50.3130E+06    -229.781E+06    -18.2319E+06    -6.94003E+06
            1104     7.52664E-03     2.90763E-03     6.94234E-03     69.6643E-03    -33.1118E-03    -36.5644E-03    -36.4051E-03     69.5050E-03    -33.1118E-03     6.23579E-03     73.7926E-03     198.760E+06    -34.7216E+06    -55.4356E+06    -242.931E+06    -55.5910E+06    -242.776E+06    -34.7216E+06    -5.25279E+06
            1105     7.22175E-03     1.94059E-03     6.95614E-03     65.6660E-03    -31.9839E-03    -33.6818E-03    -33.6079E-03     65.5921E-03    -31.9839E-03     3.85296E-03     68.3380E-03     196.608E+06    -48.8657E+06    -59.9371E+06    -250.751E+06    -60.0116E+06    -250.676E+06    -48.8657E+06    -3.47416E+06
            1106     7.03064E-03     971.249E-06     6.96323E-03     62.9345E-03    -31.2030E-03    -31.7325E-03    -31.7080E-03     62.9099E-03    -31.2030E-03     2.10608E-03     64.8119E-03     191.814E+06    -58.5851E+06    -63.6401E+06    -252.859E+06    -63.6669E+06    -252.832E+06    -58.5851E+06    -1.52845E+06
            1107     17.0849E-03     16.0994E-03     5.71882E-03     142.893E-03    -55.4054E-03    -87.6664E-03    -81.1783E-03     136.405E-03    -55.4054E-03     70.3263E-03     209.758E-03     161.052E+06     165.523E+06     132.479E+06    -9.47226E+06    -9.43301E+06     165.483E+06     132.479E+06     2.48146E+06
            1108     16.1866E-03     15.1746E-03     5.63363E-03     137.583E-03    -53.8187E-03    -83.8941E-03    -76.5322E-03     130.221E-03    -53.8187E-03     76.8618E-03     214.649E-03     160.502E+06     158.754E+06     113.000E+06    -19.3237E+06    -19.2445E+06     158.675E+06     113.000E+06     3.16110E+06
            1109     15.3109E-03     14.2473E-03     5.60697E-03     127.628E-03    -52.2738E-03    -75.4942E-03    -70.6490E-03     122.783E-03    -52.2738E-03     60.9410E-03     193.998E-03     156.584E+06     149.008E+06     71.4610E+06    -29.4045E+06    -29.2256E+06     148.829E+06     71.4610E+06     5.10112E+06
            1110     14.4329E-03     13.3140E-03     5.57180E-03     116.918E-03    -51.0505E-03    -65.9659E-03    -61.8474E-03     112.800E-03    -51.0505E-03     52.5551E-03     182.486E-03     149.326E+06     133.745E+06     32.4431E+06    -37.5518E+06    -37.3633E+06     133.556E+06     32.4431E+06     5.55099E+06
            1111     13.5722E-03     12.3703E-03     5.58399E-03     107.515E-03    -50.4182E-03    -57.1655E-03    -53.6512E-03     104.042E-03    -50.4593E-03     44.9311E-03     167.887E-03     107.617E+06     76.3490E+06     23.3719E+06    -42.1843E+06    -41.8644E+06     76.0292E+06     23.3719E+06     1.02642E+06
            1112     12.7174E-03     11.4212E-03     5.59371E-03     105.351E-03    -49.9510E-03    -55.4061E-03    -51.0277E-03     101.297E-03    -50.2755E-03     48.3744E-03     158.433E-03     72.6633E+06     30.0450E+06     61.4015E+03    -47.9403E+06    -41.6823E+06    -4.85777E+06     28.7061E+06    -7.89129E+06
            1113     11.8853E-03     10.4730E-03     5.61930E-03     104.442E-03    -49.6184E-03    -54.7821E-03    -50.7225E-03     100.844E-03    -50.0797E-03     45.6508E-03     147.186E-03     90.7110E+06     32.5321E+06    -29.8781E+06    -71.0334E+06    -40.2595E+06    -60.6520E+06     32.5321E+06    -15.2320E+06
            1114     11.0752E-03     9.52487E-03     5.65131E-03     104.709E-03    -49.6295E-03    -55.0670E-03    -50.8130E-03     100.633E-03    -49.8074E-03     48.6554E-03     140.842E-03     123.970E+06     35.2931E+06    -35.1160E+06    -107.612E+06    -40.5742E+06    -102.154E+06     35.2931E+06    -18.3562E+06
            1115     10.2883E-03     8.57716E-03     5.68169E-03     105.484E-03    -49.3567E-03    -56.1436E-03    -52.0853E-03     101.426E-03    -49.3567E-03     49.1491E-03     135.260E-03     156.388E+06     35.8525E+06    -37.6424E+06    -143.557E+06    -42.0185E+06    -139.181E+06     35.8525E+06    -20.6155E+06
            1116     9.53346E-03     7.63076E-03     5.71474E-03     104.884E-03    -48.6414E-03    -56.2607E-03    -52.7569E-03     101.380E-03    -48.6414E-03     45.7953E-03     128.148E-03     185.013E+06     34.5255E+06    -38.6448E+06    -175.754E+06    -42.5207E+06    -171.879E+06     34.5255E+06    -22.0741E+06
            1117     8.81698E-03     6.68428E-03     5.74975E-03     103.148E-03    -47.6605E-03    -55.4848E-03    -52.5409E-03     100.205E-03    -47.6605E-03     41.7252E-03     121.318E-03     199.265E+06     27.7322E+06    -39.7412E+06    -196.376E+06    -42.6795E+06    -193.437E+06     27.7322E+06    -20.5728E+06
            1118     8.14587E-03     5.73680E-03     5.78310E-03     100.440E-03    -46.4464E-03    -53.9900E-03    -51.6383E-03     98.0883E-03    -46.4464E-03     36.8438E-03     114.281E-03     200.123E+06     12.2459E+06    -41.4218E+06    -209.024E+06    -43.2959E+06    -207.150E+06     12.2459E+06    -16.8425E+06
            1119     7.53155E-03     4.78744E-03     5.81418E-03     96.8074E-03    -45.0770E-03    -51.7359E-03    -49.9985E-03     95.0700E-03    -45.0770E-03     31.0832E-03     107.011E-03     198.755E+06    -7.46209E+06    -45.4518E+06    -222.326E+06    -46.4123E+06    -221.366E+06    -7.46209E+06    -12.4376E+06
            1120     6.98861E-03     3.83583E-03     5.84184E-03     92.5220E-03    -43.6997E-03    -48.8276E-03    -47.6636E-03     91.3580E-03    -43.6997E-03     24.8007E-03     99.6748E-03     198.624E+06    -25.3873E+06    -51.3314E+06    -235.634E+06    -51.7552E+06    -235.210E+06    -25.3873E+06    -8.63460E+06
            1121     6.53400E-03     2.88053E-03     5.86479E-03     88.1529E-03    -42.4454E-03    -45.7120E-03    -45.0282E-03     87.4691E-03    -42.4454E-03     18.4348E-03     92.9034E-03     199.101E+06    -41.3193E+06    -56.9689E+06    -247.712E+06    -57.1739E+06    -247.507E+06    -41.3193E+06    -6.05913E+06
            1122     6.18767E-03     1.92236E-03     5.88148E-03     84.4719E-03    -41.4197E-03    -43.0522E-03    -42.7270E-03     84.1467E-03    -41.4197E-03     12.2470E-03     87.6106E-03     197.265E+06    -54.0847E+06    -62.0071E+06    -255.161E+06    -62.1044E+06    -255.064E+06    -54.0847E+06    -4.11526E+06
            1123     5.97119E-03     961.967E-06     5.89319E-03     81.9244E-03    -40.5468E-03    -41.3773E-03    -41.2704E-03     81.8175E-03    -40.5468E-03     6.61801E-03     84.2630E-03     192.964E+06    -62.0954E+06    -66.0866E+06    -257.014E+06    -66.0924E+06    -256.966E+06    -62.1374E+06    -2.86296E+06
            1124     16.7077E-03     16.0705E-03     4.56996E-03     141.695E-03    -57.3609E-03    -84.5373E-03    -75.1909E-03     132.349E-03    -57.3609E-03     83.1211E-03     208.948E-03     162.453E+06     165.195E+06     132.195E+06    -11.2140E+06    -11.0324E+06     165.013E+06     132.195E+06     5.19699E+06
            1125     15.7948E-03     15.1421E-03     4.49383E-03     136.193E-03    -56.3281E-03    -79.9214E-03    -68.2241E-03     124.496E-03    -56.3281E-03     95.2067E-03     215.027E-03     162.034E+06     157.507E+06     114.316E+06    -21.5625E+06    -21.3513E+06     157.296E+06     114.316E+06     5.84305E+06
            1126     14.8963E-03     14.2080E-03     4.47547E-03     124.361E-03    -55.6180E-03    -68.7763E-03    -58.7085E-03     114.293E-03    -55.6180E-03     82.4885E-03     191.489E-03     157.314E+06     147.991E+06     79.3974E+06    -30.8003E+06    -30.4898E+06     147.680E+06     79.3974E+06      7.4237E+06
            1127     13.9907E-03     13.2626E-03     4.45472E-03     113.650E-03    -53.2115E-03    -60.5102E-03    -48.1803E-03     103.550E-03    -55.4418E-03     77.0710E-03     175.538E-03     153.264E+06     137.246E+06     36.9928E+06    -37.9280E+06    -37.7097E+06     137.027E+06     36.9928E+06     5.47958E+06
            1128     13.0985E-03     12.3076E-03     4.48258E-03     109.901E-03    -53.6633E-03    -56.2922E-03    -43.0959E-03     98.9760E-03    -55.9347E-03     77.4904E-03     165.066E-03     112.160E+06     82.8434E+06     20.0194E+06    -41.7333E+06    -40.4337E+06     81.5439E+06     20.0194E+06    -4.73127E+06
            1129     12.2031E-03     11.3489E-03     4.48532E-03     111.749E-03    -54.7606E-03    -57.0162E-03    -44.0473E-03     100.837E-03    -56.8169E-03     79.6846E-03     158.949E-03     73.6576E+06     31.4138E+06     2.82457E+06    -50.0999E+06    -40.5184E+06    -1.12135E+06     25.7782E+06    -16.1415E+06
            1130     11.3327E-03     10.3943E-03     4.51535E-03     111.589E-03    -53.9536E-03    -57.6566E-03    -45.7708E-03     103.407E-03    -57.6566E-03     70.7884E-03     147.758E-03     92.2506E+06     28.8443E+06    -23.9563E+06    -77.2626E+06    -41.4234E+06    -59.7954E+06     28.8443E+06    -22.5612E+06
            1131     10.4762E-03     9.43981E-03     4.54330E-03     115.078E-03    -55.9048E-03    -59.1528E-03    -48.4050E-03     106.795E-03    -58.3696E-03     73.0483E-03     145.931E-03     127.353E+06     29.8086E+06    -30.4226E+06    -115.851E+06    -41.3082E+06    -104.966E+06     29.8086E+06    -27.7090E+06
            1132     9.64359E-03     8.49176E-03     4.57042E-03     118.320E-03    -57.4259E-03    -60.8737E-03    -52.1452E-03     111.058E-03    -58.8927E-03     70.1182E-03     142.923E-03     161.167E+06     30.9298E+06    -30.2824E+06    -151.370E+06    -39.0408E+06    -142.612E+06     30.9298E+06    -30.7340E+06
            1133     8.83967E-03     7.54680E-03     4.60277E-03     119.928E-03    -58.1224E-03    -61.7956E-03    -54.6478E-03     113.800E-03    -59.1425E-03     65.2699E-03     139.157E-03     190.103E+06     26.5431E+06    -32.3388E+06    -185.622E+06    -39.1413E+06    -178.819E+06     26.5431E+06    -31.2864E+06
            1134     8.06955E-03     6.60429E-03     4.63692E-03     120.997E-03    -58.7651E-03    -62.2279E-03    -56.6905E-03     115.790E-03    -59.0954E-03     60.6923E-03     136.376E-03     201.845E+06     13.6300E+06    -37.0613E+06    -208.374E+06    -42.0009E+06    -203.435E+06     13.6300E+06    -28.4565E+06
            1135     7.34149E-03     5.66299E-03     4.67204E-03     121.141E-03    -58.7522E-03    -62.3722E-03    -58.1559E-03     116.925E-03    -58.7522E-03     54.8383E-03     133.215E-03     200.611E+06    -4.24739E+06    -43.3501E+06    -221.290E+06    -46.3316E+06    -218.308E+06    -4.24739E+06    -22.4697E+06
            1136     6.66599E-03     4.72247E-03     4.70465E-03     120.139E-03    -58.1884E-03    -61.9451E-03    -58.7633E-03     116.957E-03    -58.1884E-03     47.5243E-03     129.293E-03     200.689E+06    -20.7661E+06    -48.6844E+06    -233.845E+06    -50.0478E+06    -232.482E+06    -20.7661E+06    -15.2226E+06
            1137     6.06013E-03     3.78095E-03     4.73598E-03     118.218E-03    -57.4974E-03    -60.7249E-03    -58.5468E-03     116.039E-03    -57.4974E-03     38.9948E-03     124.930E-03     201.015E+06    -33.5014E+06    -53.6120E+06    -243.778E+06    -54.0731E+06    -243.317E+06    -33.5014E+06    -8.63697E+06
            1138     5.54436E-03     2.83841E-03     4.76271E-03     115.730E-03    -56.7337E-03    -58.9944E-03    -57.6903E-03     114.426E-03    -56.7337E-03     29.7325E-03     120.465E-03     199.657E+06    -46.7419E+06    -59.1239E+06    -252.244E+06    -59.2621E+06    -252.106E+06    -46.7419E+06    -4.80657E+06
            1139     5.14468E-03     1.89368E-03     4.78349E-03     113.250E-03    -56.0494E-03    -57.2007E-03    -56.5726E-03     112.622E-03    -56.0494E-03     20.1160E-03     116.591E-03     197.563E+06    -59.3463E+06    -64.2154E+06    -259.279E+06    -64.2839E+06    -259.210E+06    -59.3463E+06    -3.54186E+06
            1140     4.88912E-03     947.116E-06     4.79650E-03     111.508E-03    -55.2709E-03    -56.2320E-03    -55.7205E-03     111.298E-03    -55.5728E-03     11.0998E-03     114.095E-03     196.048E+06    -65.6590E+06    -67.8012E+06    -262.761E+06    -66.8418E+06    -262.723E+06    -66.6564E+06    -2.38845E+06
            1141     16.3829E-03     16.0200E-03     3.42915E-03     137.505E-03    -60.5713E-03    -77.0667E-03    -62.9076E-03     123.346E-03    -60.5713E-03     101.234E-03     214.494E-03     161.146E+06     164.730E+06     132.650E+06    -10.0360E+06    -9.67436E+06     164.368E+06     132.650E+06     7.60512E+06
            1142     15.4453E-03     15.0753E-03     3.36082E-03     133.429E-03    -59.1608E-03    -74.3160E-03    -56.3148E-03     116.720E-03    -60.4522E-03     111.619E-03     209.713E-03     159.067E+06     155.713E+06     113.346E+06    -20.0289E+06    -19.6203E+06     155.305E+06     113.346E+06     7.91648E+06
            1143     14.5185E-03     14.1257E-03     3.35435E-03     120.025E-03    -55.6811E-03    -64.3617E-03    -45.8255E-03     106.538E-03    -60.7303E-03     94.0234E-03     178.080E-03     157.120E+06     150.190E+06     81.1714E+06    -28.5034E+06    -28.0935E+06     149.780E+06     81.1714E+06     7.29740E+06
            1144     13.5812E-03     13.1610E-03     3.35214E-03     112.458E-03    -50.0053E-03    -62.4356E-03    -37.9831E-03     99.6608E-03    -61.6610E-03     87.1777E-03     161.825E-03     154.837E+06     142.917E+06     33.9519E+06    -31.1220E+06    -31.0297E+06     142.824E+06     33.9519E+06     2.09821E+06
            1145     12.6568E-03     12.1978E-03     3.37785E-03     114.918E-03    -51.4912E-03    -63.4538E-03    -37.4199E-03     100.647E-03    -63.2545E-03     92.2534E-03     157.479E-03     111.844E+06     88.5590E+06     2.83421E+06    -33.9731E+06    -32.3842E+06     86.9701E+06     2.83421E+06    -7.60020E+06
            1146     11.7356E-03     11.2412E-03     3.37039E-03     120.503E-03    -55.2726E-03    -65.2729E-03    -41.5403E-03     106.571E-03    -65.0737E-03     93.5553E-03     155.859E-03     65.3695E+06     23.7149E+06    -9.44993E+06    -49.2712E+06     -36.345E+06     1.64083E+06     -301.97E+03    -20.1110E+06
            1147     10.8391E-03     10.2906E-03     3.40458E-03     123.509E-03    -56.8108E-03    -66.7246E-03    -46.6405E-03     113.339E-03    -66.7246E-03     83.0119E-03     149.839E-03     79.9012E+06     6.56695E+06    -21.3649E+06    -82.4887E+06    -38.1210E+06    -59.8588E+06     693.116E+03    -29.4148E+06
            1148     9.94784E-03     9.34069E-03     3.42213E-03     128.600E-03    -60.4059E-03    -68.1877E-03    -50.8693E-03     119.064E-03    -68.1877E-03     82.3108E-03     150.629E-03     116.202E+06     2.94914E+06    -24.8281E+06    -123.159E+06    -37.2820E+06    -107.629E+06    -126.876E+03    -35.9675E+06
            1149     9.07493E-03     8.39548E-03     3.44532E-03     131.502E-03    -61.9235E-03    -69.5961E-03    -54.2358E-03     123.814E-03    -69.5961E-03     75.2551E-03     148.469E-03     150.671E+06    -594.621E+03    -26.8671E+06    -161.502E+06    -37.6676E+06    -149.585E+06    -1.71024E+06    -37.9306E+06
            1150     8.22314E-03     7.45296E-03     3.47469E-03     134.933E-03    -64.0232E-03    -70.9623E-03    -57.4963E-03     128.406E-03    -70.9623E-03     70.6645E-03     148.432E-03     183.051E+06    -3.98904E+06    -31.1378E+06    -198.285E+06    -39.4911E+06    -189.932E+06    -3.98904E+06    -35.9828E+06
            1151     7.39636E-03     6.51337E-03     3.50458E-03     139.062E-03    -66.8633E-03    -72.2337E-03    -61.3591E-03     133.464E-03    -72.1400E-03     66.7438E-03     150.043E-03     200.087E+06    -11.4794E+06    -37.4932E+06    -222.998E+06    -42.6787E+06    -217.812E+06    -11.4794E+06    -30.0963E+06
            1152     6.60459E-03     5.57817E-03     3.53618E-03     142.756E-03    -69.2865E-03    -73.4814E-03    -65.1668E-03     138.185E-03    -73.0301E-03     61.3722E-03     151.596E-03     202.181E+06    -23.5965E+06    -45.3601E+06    -235.625E+06    -48.0387E+06    -232.947E+06    -23.5965E+06    -21.8761E+06
            1153     5.85724E-03     4.64538E-03     3.56760E-03     145.546E-03    -71.0815E-03    -74.4726E-03    -68.3940E-03     142.058E-03    -73.6719E-03     54.2736E-03     152.444E-03     203.164E+06    -36.0137E+06    -53.1544E+06    -247.131E+06    -54.3512E+06    -245.934E+06    -36.0137E+06    -14.6074E+06
            1154     5.17153E-03     3.71520E-03     3.59751E-03     147.375E-03    -72.4272E-03    -74.9456E-03    -70.8724E-03     144.948E-03    -74.0731E-03     45.6185E-03     152.681E-03     201.779E+06    -46.1393E+06    -58.9247E+06    -253.968E+06    -59.3183E+06    -253.574E+06    -46.1393E+06    -7.80592E+06
            1155     4.57183E-03     2.78600E-03     3.62488E-03     148.344E-03    -73.3799E-03    -74.9594E-03    -72.6258E-03     146.867E-03    -74.2367E-03     35.5683E-03     152.411E-03     197.575E+06    -55.1548E+06    -63.4302E+06    -256.712E+06    -63.4977E+06    -256.644E+06    -55.1548E+06    -3.30670E+06
            1156     4.09205E-03     1.85764E-03     3.64610E-03     148.549E-03    -73.8798E-03    -74.6688E-03    -73.5709E-03     147.828E-03    -74.2567E-03     24.6035E-03     151.643E-03     197.979E+06    -62.4735E+06    -66.4688E+06    -262.400E+06    -66.4940E+06    -262.374E+06    -62.4735E+06    -1.52822E+06
            1157     3.77655E-03     929.170E-06     3.66046E-03     148.451E-03    -73.9456E-03    -74.4990E-03    -73.8197E-03     148.207E-03    -74.3803E-03     13.6350E-03     150.973E-03     197.138E+06    -68.0218E+06    -70.8168E+06    -266.538E+06    -68.9325E+06    -266.524E+06    -69.9193E+06    -46.3862E+03
            1158     16.1057E-03     15.9419E-03     2.29092E-03     133.439E-03    -63.9452E-03    -69.5051E-03    -52.7349E-03     117.382E-03    -64.6584E-03     107.917E-03     209.718E-03     157.658E+06     164.235E+06     133.463E+06    -6.52559E+06    -5.89858E+06     163.608E+06     133.463E+06     9.50404E+06
            1159     15.1592E-03     14.9931E-03     2.23792E-03     127.735E-03    -58.2343E-03    -69.5559E-03    -48.2466E-03     113.542E-03    -65.3512E-03     98.4550E-03     181.764E-03     155.893E+06     157.385E+06     114.160E+06    -15.2428E+06    -14.6260E+06     156.769E+06     114.160E+06     8.30026E+06
            1160     14.2142E-03     14.0364E-03     2.24080E-03     116.538E-03    -50.1968E-03    -66.3223E-03    -40.3097E-03     106.651E-03    -66.3223E-03     77.9440E-03     153.053E-03     155.086E+06     156.748E+06     77.9743E+06    -19.4529E+06    -19.2095E+06     156.504E+06     77.9743E+06     2.83853E+06
            1161     13.2687E-03     13.0768E-03     2.24857E-03     115.031E-03    -47.1137E-03    -67.8141E-03    -39.1205E-03     107.038E-03    -67.8141E-03     68.4655E-03     144.222E-03     152.271E+06     143.398E+06     19.8109E+06    -23.1660E+06    -21.8124E+06     143.386E+06     18.4696E+06    -357.017E+03
            1162     12.3248E-03     12.1150E-03     2.26438E-03     116.939E-03    -47.0488E-03    -69.9065E-03    -39.0728E-03     108.963E-03    -69.9065E-03     67.7992E-03     141.518E-03     123.215E+06     93.7152E+06    -17.0246E+06    -37.9962E+06    -25.7188E+06     93.0082E+06    -28.5950E+06    -4.96963E+06
            1163     11.3742E-03     11.1484E-03     2.25556E-03     121.362E-03    -49.0739E-03    -72.3218E-03    -41.2022E-03     113.490E-03    -72.3218E-03     68.0876E-03     141.609E-03     77.2735E+06     26.0514E+06    -29.8839E+06    -60.3505E+06    -28.5242E+06     10.7939E+06    -46.4528E+06    -18.5763E+06
            1164     10.4438E-03     10.1935E-03     2.27277E-03     129.475E-03    -54.7233E-03    -74.7469E-03    -48.6723E-03     123.424E-03    -74.7469E-03     63.0143E-03     144.888E-03     73.0849E+06    -8.24858E+06    -45.2989E+06    -87.9770E+06    -29.2365E+06    -60.6494E+06    -51.6386E+06    -31.1395E+06
            1165     9.52907E-03     9.25114E-03     2.28465E-03     136.779E-03    -59.7638E-03    -77.0153E-03    -54.0666E-03     131.082E-03    -77.0153E-03     63.3414E-03     149.317E-03     100.946E+06    -18.0834E+06    -52.1603E+06    -126.490E+06    -31.9757E+06    -112.598E+06    -52.1603E+06    -35.2487E+06
            1166     8.62218E-03     8.30801E-03     2.30628E-03     140.600E-03    -61.3420E-03    -79.3154E-03    -56.4593E-03     135.718E-03    -79.3154E-03     60.5218E-03     150.455E-03     132.453E+06    -27.3581E+06    -53.4087E+06    -168.945E+06    -37.7429E+06    -159.168E+06    -52.8009E+06    -35.1215E+06
            1167     7.72542E-03     7.36643E-03     2.32763E-03     146.749E-03    -65.0477E-03    -81.7876E-03    -60.6147E-03     142.316E-03    -81.7876E-03     59.4673E-03     154.778E-03     168.059E+06    -33.3349E+06    -54.9976E+06    -210.386E+06    -43.7854E+06    -203.663E+06    -51.2703E+06    -32.4803E+06
            1168     6.84638E-03     6.43002E-03     2.35112E-03     154.046E-03    -69.8672E-03    -84.2228E-03    -66.0092E-03     150.188E-03    -84.2228E-03     57.1114E-03     160.533E-03     192.031E+06    -38.6494E+06    -55.4697E+06    -238.454E+06    -49.2208E+06    -234.665E+06    -48.6870E+06    -26.1147E+06
            1169     5.98907E-03     5.49799E-03     2.37509E-03     161.271E-03    -74.8357E-03    -86.4697E-03    -71.6807E-03     158.116E-03    -86.4697E-03     53.0125E-03     166.560E-03     200.263E+06    -45.0956E+06    -55.7816E+06    -250.442E+06    -53.5236E+06    -248.704E+06    -49.0922E+06    -17.5340E+06
            1170     5.16395E-03     4.57238E-03     2.39995E-03     168.236E-03    -79.7592E-03    -88.4914E-03    -77.3459E-03     165.823E-03    -88.4914E-03     47.5049E-03     172.493E-03     203.682E+06    -51.4682E+06    -58.3717E+06    -258.477E+06    -58.3453E+06    -257.891E+06    -52.0807E+06    -10.0075E+06
            1171     4.38308E-03     3.65110E-03     2.42506E-03     174.454E-03    -84.2278E-03    -90.2048E-03    -82.5279E-03     172.754E-03    -90.2048E-03     40.6522E-03     177.955E-03     201.544E+06    -58.2386E+06    -63.2399E+06    -262.205E+06    -63.4129E+06    -262.032E+06    -58.2386E+06    -5.26639E+06
            1172     3.66962E-03     2.73451E-03     2.44716E-03     179.576E-03    -87.9797E-03    -91.5833E-03    -86.9297E-03     178.526E-03    -91.5833E-03     32.3600E-03     182.541E-03     197.003E+06    -63.3240E+06    -66.4837E+06    -261.877E+06    -65.9351E+06    -261.841E+06    -63.9088E+06    -2.03316E+06
            1173     3.06568E-03     1.82106E-03     2.46620E-03     183.555E-03    -90.9387E-03    -92.6132E-03    -90.4155E-03     183.032E-03    -92.6132E-03     22.8432E-03     186.050E-03     197.761E+06    -65.1521E+06    -68.1991E+06    -264.419E+06    -67.6233E+06    -264.410E+06    -65.7369E+06     360.030E+03
            1174     2.63997E-03     909.607E-06     2.47832E-03     186.026E-03    -92.7273E-03    -93.2911E-03    -92.6754E-03     185.848E-03    -93.1645E-03     12.8231E-03     188.232E-03     197.871E+06    -67.2518E+06    -70.5226E+06    -266.738E+06    -69.5947E+06    -266.723E+06    -68.1939E+06     1.09625E+06
            1175     15.9199E-03     15.8788E-03     1.14363E-03     141.573E-03    -64.5691E-03    -77.0110E-03    -61.1242E-03     129.864E-03    -68.7475E-03     94.3564E-03     190.429E-03     159.984E+06     168.135E+06     137.921E+06    -4.77869E+06    -4.16696E+06     167.524E+06     137.921E+06     7.62066E+06
            1176     14.9737E-03     14.9315E-03     1.12335E-03     123.025E-03    -53.6614E-03    -69.4450E-03    -47.3130E-03     116.676E-03    -69.4450E-03     62.2701E-03     152.820E-03     156.294E+06     164.989E+06     116.834E+06    -8.95518E+06    -8.58167E+06     164.615E+06     116.834E+06     2.49278E+06
            1177     14.0127E-03     13.9675E-03     1.12434E-03     116.721E-03    -45.9447E-03    -70.7312E-03    -41.7114E-03     112.488E-03    -70.7312E-03     48.0323E-03     138.754E-03     152.225E+06     160.302E+06     70.6786E+06    -12.4201E+06    -12.3797E+06     160.262E+06     70.6786E+06    -248.581E+03
            1178     13.0586E-03     13.0100E-03     1.12539E-03     119.794E-03    -47.2827E-03    -72.3932E-03    -44.0482E-03     116.560E-03    -72.3932E-03     42.1890E-03     138.169E-03     151.140E+06     141.720E+06     11.3924E+06    -22.0575E+06    -15.8860E+06     141.668E+06     5.27261E+06    -179.603E+03
            1179     12.1149E-03     12.0615E-03     1.13692E-03     122.796E-03    -48.5113E-03    -74.3034E-03    -45.8923E-03     120.177E-03    -74.3034E-03     39.3440E-03     138.099E-03     141.864E+06     97.5264E+06    -17.3894E+06    -56.5264E+06    -17.1810E+06     97.3179E+06    -56.5264E+06    -3.23633E+06
            1180     11.1641E-03     11.1057E-03     1.13983E-03     124.422E-03    -47.8635E-03    -76.6466E-03    -45.6282E-03     122.187E-03    -76.6466E-03     35.9054E-03     136.246E-03     108.656E+06     32.0166E+06    -29.1626E+06    -90.5311E+06    -17.9574E+06     20.8115E+06    -90.5311E+06    -11.8299E+06
            1181     10.2090E-03     10.1462E-03     1.13108E-03     128.541E-03    -49.0319E-03    -79.5131E-03    -47.4660E-03     126.975E-03    -79.5131E-03     29.5665E-03     137.152E-03     85.9690E+06    -11.1885E+06    -64.8120E+06    -106.733E+06    -22.3435E+06    -58.4112E+06    -101.979E+06    -19.4063E+06
            1182     9.26511E-03     9.19461E-03     1.14081E-03     135.790E-03    -53.0336E-03    -82.6719E-03    -51.5452E-03     134.302E-03    -82.6719E-03     29.2442E-03     142.373E-03     97.7302E+06    -24.1044E+06    -96.2402E+06    -133.277E+06    -30.3123E+06    -118.254E+06    -105.056E+06    -21.7756E+06
            1183     8.32787E-03     8.24726E-03     1.15592E-03     144.405E-03    -58.3618E-03    -85.9764E-03    -56.7412E-03     142.785E-03    -85.9764E-03     32.4282E-03     149.724E-03     122.726E+06    -34.1532E+06    -101.401E+06    -172.693E+06    -38.3431E+06    -168.503E+06    -101.401E+06    -21.0563E+06
            1184     7.39866E-03     7.30583E-03     1.16834E-03     154.091E-03    -64.6794E-03    -89.3748E-03    -63.0463E-03     152.458E-03    -89.3748E-03     33.9064E-03     158.254E-03     156.026E+06    -43.9318E+06    -94.0070E+06    -217.397E+06    -46.5753E+06    -214.753E+06    -94.0070E+06    -18.9239E+06
            1185     6.47851E-03     6.37003E-03     1.18057E-03     163.882E-03    -71.1102E-03    -92.7690E-03    -69.6706E-03     162.442E-03    -92.7690E-03     32.8916E-03     167.073E-03     183.968E+06    -52.7282E+06    -83.2233E+06    -249.507E+06    -54.3510E+06    -247.884E+06    -83.2233E+06    -15.8219E+06
            1186     5.57137E-03     5.44198E-03     1.19375E-03     173.806E-03    -77.7362E-03    -96.0784E-03    -76.5671E-03     172.637E-03    -96.0784E-03     30.6394E-03     176.333E-03     197.037E+06    -59.2253E+06    -73.5549E+06    -262.859E+06    -59.9472E+06    -262.137E+06    -73.5549E+06    -10.4134E+06
            1187     4.67778E-03     4.51938E-03     1.20699E-03     183.902E-03    -84.6611E-03    -99.2180E-03    -83.7640E-03     183.005E-03    -99.2180E-03     27.7165E-03     186.022E-03     201.784E+06    -62.3703E+06    -68.1221E+06    -266.936E+06    -63.1424E+06    -266.740E+06    -67.5458E+06    -5.04831E+06
            1188     3.80607E-03     3.60495E-03     1.22087E-03     193.694E-03    -91.5820E-03    -102.069E-03    -90.9473E-03     193.059E-03    -102.069E-03     23.9344E-03     195.684E-03     200.934E+06    -64.5349E+06    -66.6913E+06    -266.530E+06    -65.1841E+06    -266.475E+06    -66.0963E+06    -2.25393E+06
            1189     2.96552E-03     2.69622E-03     1.23481E-03     202.480E-03    -97.9318E-03    -104.508E-03    -97.5350E-03     202.083E-03    -104.508E-03     19.2822E-03     204.421E-03     199.256E+06    -65.7184E+06    -67.0743E+06    -265.647E+06    -66.3807E+06    -265.627E+06    -66.4327E+06    -777.232E+03
            1190     2.18310E-03     1.79336E-03     1.24491E-03     209.650E-03    -103.222E-03    -106.415E-03    -103.022E-03     209.449E-03    -106.415E-03     13.6703E-03     211.580E-03     199.111E+06    -65.8413E+06    -67.9153E+06    -265.979E+06    -67.3566E+06    -265.953E+06    -66.4262E+06     157.909E+03
            1191     1.54011E-03     896.036E-06     1.25262E-03     214.430E-03    -106.644E-03    -107.782E-03    -106.867E-03     214.362E-03    -107.491E-03     7.67428E-03     216.394E-03     198.080E+06    -66.5277E+06    -68.2680E+06    -265.470E+06    -68.1192E+06    -265.449E+06    -66.6971E+06    -390.511E+03
            1192     62.4195E-03     946.263E-06     62.4124E-03     110.998E-03    -55.3233E-03    -55.6798E-03    -55.6223E-03     110.992E-03    -55.3745E-03     1.81092E-03     112.057E-03     194.811E+06    -91.0578E+06    -95.2636E+06    -287.916E+06    -94.7461E+06    -287.910E+06    -91.5810E+06     364.588E+03
            1193     62.4445E-03     1.89230E-03     62.4158E-03     111.067E-03    -55.4777E-03    -55.5996E-03    -55.4961E-03     111.048E-03    -55.5617E-03     3.52001E-03     112.963E-03     198.412E+06    -79.2596E+06    -90.2635E+06    -282.918E+06    -90.2655E+06    -282.916E+06    -79.2596E+06     434.414E+03
            1194     62.4847E-03     2.83859E-03     62.4202E-03     111.079E-03    -55.4886E-03    -55.6071E-03    -55.4434E-03     111.034E-03    -55.6071E-03     5.37311E-03     114.565E-03     200.587E+06    -64.9470E+06    -84.3884E+06    -274.502E+06    -84.3900E+06    -274.501E+06    -64.9470E+06     359.924E+03
            1195     62.5421E-03     3.78483E-03     62.4275E-03     111.047E-03    -55.4241E-03    -55.6474E-03    -55.3490E-03     110.972E-03    -55.6474E-03     7.04246E-03     116.870E-03     201.596E+06    -48.5014E+06    -77.5819E+06    -263.016E+06    -77.5838E+06    -263.014E+06    -48.5014E+06     178.257E+03
            1196     62.6141E-03     4.73100E-03     62.4351E-03     111.053E-03    -55.3869E-03    -55.6842E-03    -55.2745E-03     110.941E-03    -55.6842E-03     8.58992E-03     120.068E-03     202.417E+06    -32.3113E+06    -70.0190E+06    -250.901E+06    -70.0202E+06    -250.899E+06    -32.3113E+06    -45.2007E+03
            1197     62.7034E-03     5.67777E-03     62.4458E-03     110.974E-03    -55.3134E-03    -55.6655E-03    -55.1530E-03     110.814E-03    -55.6655E-03     10.2968E-03     124.047E-03     190.646E+06    -20.3019E+06    -62.5839E+06    -228.516E+06    -62.5845E+06    -228.516E+06    -20.3019E+06     62.5794E+03
            1198     62.8076E-03     6.62405E-03     62.4573E-03     110.880E-03    -55.2617E-03    -55.6290E-03    -55.0485E-03     110.666E-03    -55.6290E-03     11.8638E-03     129.084E-03     168.619E+06    -12.5574E+06    -55.8094E+06    -198.568E+06    -55.8102E+06    -198.568E+06    -12.5574E+06     202.029E+03
            1199     62.9281E-03     7.57071E-03     62.4710E-03     110.768E-03    -55.2056E-03    -55.5798E-03    -54.9216E-03     110.484E-03    -55.5798E-03     13.6813E-03     135.279E-03     147.441E+06    -7.37684E+06    -50.0587E+06    -171.433E+06    -50.0596E+06    -171.432E+06    -7.37684E+06     188.228E+03
            1200     63.0642E-03     8.51729E-03     62.4864E-03     110.678E-03    -55.1686E-03    -55.5200E-03    -54.7755E-03     110.285E-03    -55.5200E-03     16.0670E-03     142.868E-03     125.170E+06    -2.50406E+06    -44.8051E+06    -143.276E+06    -44.8059E+06    -143.276E+06    -2.50406E+06     101.062E+03
            1201     63.2182E-03     9.46420E-03     62.5058E-03     110.735E-03    -55.2840E-03    -55.4774E-03    -54.7912E-03     110.231E-03    -55.4668E-03     18.2420E-03     151.870E-03     99.0284E+06     1.58112E+06    -40.1685E+06    -111.356E+06    -40.1701E+06    -111.354E+06     1.58112E+06     189.868E+03
            1202     63.3866E-03     10.4106E-03     62.5258E-03     110.821E-03    -55.3572E-03    -55.5036E-03    -54.7547E-03     110.103E-03    -55.3877E-03     21.6517E-03     162.843E-03     64.2908E+06     2.14820E+06    -36.3687E+06    -70.9535E+06    -36.3822E+06    -70.9400E+06     2.14820E+06     332.729E+03
            1203     63.5757E-03     11.3573E-03     62.5530E-03     110.944E-03    -55.2987E-03    -55.6743E-03    -54.5405E-03     109.810E-03    -55.2987E-03     27.2301E-03     176.785E-03     43.6179E+06     9.31951E+06    -14.2385E+06    -38.9772E+06    -32.6272E+06    -15.1342E+06     3.86518E+06     263.178E+03
            1204     63.7824E-03     12.3036E-03     62.5845E-03     110.971E-03    -55.1360E-03    -55.8971E-03    -54.0412E-03     109.115E-03    -55.1360E-03     34.6908E-03     191.579E-03     86.1678E+06     65.6977E+06     6.90469E+06    -29.8757E+06    -29.8660E+06     65.6880E+06     6.90469E+06     702.282E+03
            1205     64.0142E-03     13.2518E-03     62.6275E-03     112.024E-03    -55.0671E-03    -57.0547E-03    -53.7189E-03     108.688E-03    -55.0671E-03     46.5060E-03     205.756E-03     143.989E+06     135.347E+06     24.4210E+06    -27.0268E+06    -27.0129E+06     135.334E+06     24.4210E+06     1.32727E+06
            1206     64.2742E-03     14.1995E-03     62.6861E-03     112.356E-03    -55.1805E-03    -57.2233E-03    -53.7129E-03     108.845E-03    -55.1805E-03     47.9621E-03     206.147E-03     158.383E+06     158.329E+06     66.0532E+06    -22.6389E+06    -22.6327E+06     158.323E+06     66.0532E+06     439.407E+03
            1207     64.5353E-03     15.1462E-03     62.7327E-03     114.554E-03    -55.3273E-03    -59.1753E-03    -53.7106E-03     109.089E-03    -55.3273E-03     58.6396E-03     223.244E-03     159.640E+06     163.596E+06     106.708E+06    -16.2229E+06    -16.2168E+06     163.590E+06     106.708E+06    -482.825E+03
            1208     64.8444E-03     16.0946E-03     62.8153E-03     113.134E-03    -54.4440E-03    -58.6990E-03    -53.5121E-03     108.900E-03    -55.3970E-03     43.5846E-03     202.579E-03     161.750E+06     170.125E+06     128.414E+06    -8.37580E+06    -8.37118E+06     170.120E+06     128.414E+06    -119.982E+03
            1209     63.5358E-03     945.868E-06     63.5288E-03     111.125E-03    -55.4372E-03    -55.6918E-03    -55.5938E-03     111.119E-03    -55.5288E-03     1.88337E-03     112.176E-03     194.899E+06    -92.0567E+06    -95.1003E+06    -288.455E+06    -94.5806E+06    -288.452E+06    -92.5788E+06    -247.262E+03
            1210     63.5598E-03     1.89243E-03     63.5316E-03     111.015E-03    -55.4432E-03    -55.5807E-03    -55.4220E-03     110.994E-03    -55.5807E-03     3.62623E-03     112.957E-03     196.958E+06    -82.2346E+06    -90.7825E+06    -283.287E+06    -90.7831E+06    -283.286E+06    -82.2346E+06     285.281E+03
            1211     63.6001E-03     2.83851E-03     63.5367E-03     111.016E-03    -55.4346E-03    -55.5958E-03    -55.3909E-03     110.973E-03    -55.5958E-03     5.33722E-03     114.550E-03     199.060E+06    -66.4266E+06    -85.2018E+06    -274.147E+06    -85.2038E+06    -274.145E+06    -66.4266E+06    -37.6690E+03
            1212     63.6558E-03     3.78492E-03     63.5432E-03     110.988E-03    -55.3754E-03    -55.6332E-03    -55.3011E-03     110.914E-03    -55.6332E-03     6.97305E-03     116.812E-03     201.438E+06    -48.6074E+06    -78.1364E+06    -263.136E+06    -78.1381E+06    -263.135E+06    -48.6074E+06    -116.756E+03
            1213     63.7277E-03     4.73137E-03     63.5518E-03     111.071E-03    -55.4115E-03    -55.6736E-03    -55.2990E-03     110.958E-03    -55.6736E-03     8.61727E-03     120.085E-03     202.667E+06    -31.9411E+06    -70.3268E+06    -251.026E+06    -70.3270E+06    -251.026E+06    -31.9411E+06     2.62874E+03
            1214     63.8146E-03     5.67735E-03     63.5615E-03     110.980E-03    -55.3231E-03    -55.6598E-03    -55.1655E-03     110.822E-03    -55.6598E-03     10.2008E-03     124.050E-03     190.797E+06    -19.9840E+06    -62.8472E+06    -228.545E+06    -62.8474E+06    -228.545E+06    -19.9840E+06    -71.4701E+03
            1215     63.9179E-03     6.62424E-03     63.5737E-03     110.819E-03    -55.2062E-03    -55.6197E-03    -54.9963E-03     110.609E-03    -55.6197E-03     11.7737E-03     129.001E-03     168.684E+06    -12.7993E+06    -56.3030E+06    -198.955E+06    -56.3035E+06    -198.955E+06    -12.7993E+06     43.3982E+03
            1216     64.0361E-03     7.57079E-03     63.5870E-03     110.825E-03    -55.2648E-03    -55.5734E-03    -54.9842E-03     110.544E-03    -55.5734E-03     13.5992E-03     135.309E-03     147.262E+06    -7.47879E+06    -50.4363E+06    -171.423E+06    -50.4370E+06    -171.423E+06    -7.47879E+06     30.5931E+03
            1217     64.1707E-03     8.51728E-03     63.6029E-03     110.789E-03    -55.2760E-03    -55.5239E-03    -54.8860E-03     110.399E-03    -55.5239E-03     16.0175E-03     142.972E-03     124.888E+06    -2.51752E+06    -45.2100E+06    -143.088E+06    -45.2117E+06    -143.087E+06    -2.51752E+06    -35.0276E+03
            1218     64.3215E-03     9.46390E-03     63.6215E-03     110.751E-03    -55.2905E-03    -55.4835E-03    -54.7817E-03     110.232E-03    -55.4729E-03     18.5072E-03     151.830E-03     98.8071E+06     1.19566E+06    -40.6055E+06    -111.518E+06    -40.6071E+06    -111.517E+06     1.19566E+06    -94.0179E+03
            1219     64.4889E-03     10.4106E-03     63.6430E-03     110.705E-03    -55.3268E-03    -55.4198E-03    -54.6276E-03     109.976E-03    -55.3899E-03     21.8425E-03     162.756E-03     64.3929E+06     2.23554E+06    -36.2072E+06    -71.0658E+06    -36.2123E+06    -71.0607E+06     2.23554E+06    -23.7335E+03
            1220     64.6733E-03     11.3574E-03     63.6682E-03     110.718E-03    -55.2683E-03    -55.4888E-03    -54.3211E-03     109.566E-03    -55.2848E-03     27.3648E-03     176.572E-03     44.0069E+06      9.0778E+06    -14.8096E+06    -39.8300E+06    -33.0125E+06    -15.9060E+06     3.35666E+06     271.456E+03
            1221     64.8793E-03     12.3051E-03     63.7017E-03     111.003E-03    -55.1175E-03    -55.9475E-03    -54.0937E-03     109.149E-03    -55.1175E-03     34.7539E-03     191.446E-03     85.4974E+06     64.8354E+06     6.70497E+06    -30.2139E+06    -30.1997E+06     64.8213E+06     6.70497E+06     877.060E+03
            1222     65.1055E-03     13.2516E-03     63.7426E-03     112.311E-03    -55.0577E-03    -57.3482E-03    -53.9968E-03     108.960E-03    -55.0577E-03     46.6156E-03     206.005E-03     143.452E+06     135.310E+06     24.3579E+06    -26.4441E+06    -26.4289E+06     135.294E+06     24.3579E+06     1.36148E+06
            1223     65.3641E-03     14.1988E-03     63.8033E-03     112.305E-03    -55.1790E-03    -57.1811E-03    -53.6522E-03     108.776E-03    -55.1790E-03     48.0296E-03     206.154E-03     158.622E+06     159.215E+06     65.8462E+06    -21.8720E+06    -21.8596E+06     159.203E+06     65.8462E+06     1.35233E+06
            1224     65.6204E-03     15.1470E-03     63.8483E-03     114.483E-03    -55.3260E-03    -59.1267E-03    -53.6265E-03     108.982E-03    -55.3260E-03     58.7190E-03     223.194E-03     160.288E+06     164.240E+06     107.052E+06    -16.3172E+06    -16.3067E+06     164.229E+06     107.052E+06     292.291E+03
            1225     65.9266E-03     16.0942E-03     63.9319E-03     113.283E-03    -54.4695E-03    -58.8373E-03    -53.6248E-03     108.995E-03    -55.3935E-03     43.7574E-03     202.689E-03     161.948E+06     170.012E+06     128.396E+06    -8.66118E+06    -8.65389E+06     170.004E+06     128.396E+06    -651.971E+03
            1226     64.6520E-03     946.247E-06     64.6450E-03     111.102E-03    -55.4235E-03    -55.6822E-03    -55.6353E-03     111.096E-03    -55.4639E-03     1.92789E-03     112.107E-03     197.259E+06    -90.1432E+06    -93.2016E+06    -288.899E+06    -93.0940E+06    -288.898E+06    -90.2521E+06     114.671E+03
            1227     64.6754E-03     1.89221E-03     64.6477E-03     111.061E-03    -55.4496E-03    -55.6199E-03    -55.4715E-03     111.040E-03    -55.5767E-03     3.63243E-03     113.004E-03     197.761E+06    -81.5086E+06    -89.8357E+06    -283.274E+06    -89.8361E+06    -283.273E+06    -81.5086E+06    -147.975E+03
            1228     64.7153E-03     2.83861E-03     64.6530E-03     110.971E-03    -55.3915E-03    -55.5944E-03    -55.3476E-03     110.927E-03    -55.5944E-03     5.34583E-03     114.512E-03     199.088E+06    -66.1512E+06    -84.4392E+06    -273.672E+06    -84.4416E+06    -273.669E+06    -66.1512E+06    -181.140E+03
            1229     64.7699E-03     3.78485E-03     64.6592E-03     110.999E-03    -55.3915E-03    -55.6287E-03    -55.3168E-03     110.924E-03    -55.6287E-03     6.99122E-03     116.824E-03     201.755E+06    -48.2069E+06    -77.7055E+06    -263.050E+06    -77.7084E+06    -263.047E+06    -48.2069E+06    -262.177E+03
            1230     64.8408E-03     4.73122E-03     64.6680E-03     111.027E-03    -55.3772E-03    -55.6662E-03    -55.2657E-03     110.915E-03    -55.6662E-03     8.58475E-03     120.046E-03     202.930E+06    -32.4016E+06    -70.2687E+06    -251.569E+06    -70.2696E+06    -251.568E+06    -32.4016E+06    -229.997E+03
            1231     64.9267E-03     5.67785E-03     64.6780E-03     110.950E-03    -55.3019E-03    -55.6489E-03    -55.1444E-03     110.793E-03    -55.6489E-03     10.1882E-03     123.995E-03     191.135E+06    -20.2532E+06    -62.8907E+06    -229.077E+06    -62.8911E+06    -229.077E+06    -20.2532E+06     67.5375E+03
            1232     65.0278E-03     6.62403E-03     64.6895E-03     110.891E-03    -55.2795E-03    -55.6162E-03    -55.0659E-03     110.678E-03    -55.6162E-03     11.8832E-03     129.049E-03     168.847E+06    -12.5644E+06    -56.2730E+06    -198.949E+06    -56.2736E+06    -198.949E+06    -12.5644E+06     159.460E+03
            1233     65.1447E-03     7.57071E-03     64.7033E-03     110.846E-03    -55.2858E-03    -55.5767E-03    -55.0014E-03     110.562E-03    -55.5767E-03     13.6951E-03     135.298E-03     147.157E+06    -7.23511E+06    -50.4556E+06    -171.140E+06    -50.4562E+06    -171.140E+06    -7.23511E+06     14.0966E+03
            1234     65.2772E-03     8.51728E-03     64.7192E-03     110.804E-03    -55.2934E-03    -55.5282E-03    -54.9029E-03     110.414E-03    -55.5282E-03     16.0350E-03     143.008E-03     124.695E+06    -2.27868E+06    -45.3760E+06    -142.739E+06    -45.3773E+06    -142.737E+06    -2.27868E+06    -169.108E+03
            1235     65.4258E-03     9.46389E-03     64.7377E-03     110.717E-03    -55.2633E-03    -55.4770E-03    -54.7380E-03     110.191E-03    -55.4770E-03     18.6007E-03     151.819E-03     99.0087E+06     1.39261E+06    -40.7208E+06    -111.602E+06    -40.7224E+06    -111.601E+06     1.39261E+06    -269.659E+03
            1236     65.5906E-03     10.4108E-03     64.7591E-03     110.549E-03    -55.2009E-03    -55.3845E-03    -54.4787E-03     109.827E-03    -55.3845E-03     21.7500E-03     162.651E-03     64.8538E+06     1.78882E+06    -37.0612E+06    -71.9654E+06    -37.0716E+06    -71.9550E+06     1.78882E+06    -10.3611E+03
            1237     65.7725E-03     11.3578E-03     64.7844E-03     110.673E-03    -55.1994E-03    -55.5115E-03    -54.3076E-03     109.541E-03    -55.2708E-03     27.1189E-03     176.513E-03     44.5705E+06     8.68050E+06    -15.5844E+06    -40.7705E+06    -34.1373E+06    -16.4601E+06     2.92297E+06     380.262E+03
            1238     65.9748E-03     12.3046E-03     64.8172E-03     111.018E-03    -55.1076E-03    -55.9811E-03    -54.1498E-03     109.187E-03    -55.1076E-03     34.5568E-03     191.479E-03     85.5184E+06     64.1520E+06     6.59976E+06    -31.0246E+06    -31.0193E+06     64.1467E+06     6.59976E+06     429.549E+03
            1239     66.2000E-03     13.2520E-03     64.8600E-03     112.311E-03    -55.0527E-03    -57.3575E-03    -54.0016E-03     108.956E-03    -55.0527E-03     46.6053E-03     206.098E-03     143.347E+06     134.249E+06     23.7230E+06    -27.5137E+06     -27.509E+06     134.244E+06     23.7230E+06     720.905E+03
            1240     66.4535E-03     14.1991E-03     64.9188E-03     112.255E-03    -55.1719E-03    -57.1371E-03    -53.6055E-03     108.724E-03    -55.1719E-03     48.0003E-03     206.235E-03     158.923E+06     159.285E+06     64.9799E+06    -22.2425E+06    -22.2308E+06     159.273E+06     64.9799E+06     1.32600E+06
            1241     66.7068E-03     15.1469E-03     64.9644E-03     114.444E-03    -55.3183E-03    -59.1169E-03    -53.5775E-03     108.904E-03    -55.3183E-03     58.8218E-03     223.166E-03     160.147E+06     165.850E+06     107.742E+06    -14.7193E+06    -14.7119E+06     165.843E+06     107.742E+06     853.280E+03
            1242     67.0101E-03     16.0949E-03     65.0485E-03     113.411E-03    -54.5354E-03    -58.8929E-03    -53.7038E-03     109.074E-03    -55.3876E-03     43.7509E-03     202.698E-03     160.973E+06     170.733E+06     129.489E+06    -6.81760E+06    -6.81417E+06     170.729E+06     129.489E+06    -201.081E+03
            1243     65.7681E-03     946.324E-06     65.7613E-03     111.037E-03    -55.3447E-03    -55.6956E-03    -55.6450E-03     111.031E-03    -55.3888E-03     1.88732E-03     112.043E-03     197.401E+06    -89.8220E+06    -93.3678E+06    -288.959E+06    -92.7564E+06    -288.955E+06    -90.4367E+06    -254.922E+03
            1244     65.7916E-03     1.89229E-03     65.7644E-03     111.055E-03    -55.4536E-03    -55.6052E-03    -55.4765E-03     111.034E-03    -55.5620E-03     3.58170E-03     112.962E-03     198.924E+06    -79.3437E+06    -89.0154E+06    -282.893E+06    -89.0162E+06    -282.892E+06    -79.3437E+06    -249.744E+03
            1245     65.8298E-03     2.83860E-03     65.7685E-03     111.004E-03    -55.4247E-03    -55.5928E-03    -55.3803E-03     110.960E-03    -55.5928E-03     5.35453E-03     114.504E-03     200.515E+06    -64.6768E+06    -83.5837E+06    -273.916E+06    -83.5846E+06    -273.915E+06    -64.6768E+06     66.0490E+03
            1246     65.8846E-03     3.78506E-03     65.7758E-03     111.003E-03    -55.3977E-03    -55.6262E-03    -55.3226E-03     110.928E-03    -55.6262E-03     7.03155E-03     116.823E-03     202.047E+06    -47.8599E+06    -76.7344E+06    -262.754E+06    -76.7358E+06    -262.752E+06    -47.8599E+06    -70.2811E+03
            1247     65.9538E-03     4.73118E-03     65.7839E-03     110.984E-03    -55.3451E-03    -55.6584E-03    -55.2349E-03     110.874E-03    -55.6584E-03     8.52694E-03     120.008E-03     203.304E+06    -32.4986E+06    -69.7406E+06    -251.820E+06    -69.7415E+06    -251.820E+06    -32.4986E+06    -244.534E+03
            1248     66.0384E-03     5.67770E-03     65.7939E-03     110.922E-03    -55.2861E-03    -55.6393E-03    -55.1293E-03     110.765E-03    -55.6393E-03     10.1656E-03     123.968E-03     191.464E+06    -20.4624E+06    -62.7208E+06    -229.494E+06    -62.7212E+06    -229.494E+06    -20.4624E+06     92.6296E+03
            1249     66.1386E-03     6.62445E-03     65.8060E-03     110.926E-03    -55.3197E-03    -55.6106E-03    -55.1065E-03     110.713E-03    -55.6106E-03     11.8712E-03     129.089E-03     169.102E+06    -12.1586E+06    -55.8491E+06    -198.798E+06    -55.8497E+06    -198.797E+06    -12.1586E+06     174.336E+03
            1250     66.2536E-03     7.57064E-03     65.8196E-03     110.835E-03    -55.2800E-03    -55.5747E-03    -54.9944E-03     110.550E-03    -55.5747E-03     13.7216E-03     135.300E-03     147.475E+06    -6.76208E+06    -50.0673E+06    -171.020E+06    -50.0677E+06    -171.019E+06    -6.76208E+06    -33.8374E+03
            1251     66.3840E-03     8.51734E-03     65.8353E-03     110.761E-03    -55.2544E-03    -55.5231E-03    -54.8557E-03     110.363E-03    -55.5231E-03     16.1879E-03     142.994E-03     124.995E+06    -1.97988E+06    -45.0777E+06    -142.755E+06    -45.0780E+06    -142.755E+06    -1.97988E+06    -101.390E+03
            1252     66.5307E-03     9.46391E-03     65.8542E-03     110.702E-03    -55.2586E-03    -55.4679E-03    -54.7337E-03     110.177E-03    -55.4679E-03     18.6084E-03     151.831E-03     99.2646E+06     1.34554E+06    -41.0281E+06    -111.951E+06    -41.0331E+06    -111.946E+06     1.34554E+06     106.689E+03
            1253     66.6926E-03     10.4107E-03     65.8750E-03     110.562E-03    -55.2145E-03    -55.3877E-03    -54.5078E-03     109.846E-03    -55.3784E-03     21.6443E-03     162.643E-03     65.0020E+06     1.61579E+06    -37.5763E+06     -72.314E+06    -37.5902E+06    -72.3001E+06     1.61579E+06     367.466E+03
            1254     66.8721E-03     11.3578E-03     65.9005E-03     110.747E-03    -55.2148E-03    -55.5666E-03    -54.3746E-03     109.610E-03    -55.2698E-03     27.1846E-03     176.534E-03     44.4676E+06     8.63869E+06    -15.6691E+06    -40.6859E+06    -34.1035E+06    -16.5208E+06     2.90791E+06     398.371E+03
            1255     67.0724E-03     12.3046E-03     65.9341E-03     110.998E-03    -55.1079E-03    -55.9534E-03    -54.1077E-03     109.152E-03    -55.1079E-03     34.6782E-03     191.496E-03     85.5721E+06     63.8486E+06     6.34716E+06    -31.4568E+06    -31.4503E+06     63.8421E+06     6.34716E+06     657.723E+03
            1256     67.2932E-03     13.2518E-03     65.9755E-03     112.163E-03    -55.0481E-03    -57.2112E-03    -53.8453E-03     108.797E-03    -55.0481E-03     46.6518E-03     205.898E-03     143.409E+06     133.510E+06     23.1281E+06    -28.3891E+06    -28.3837E+06     133.505E+06     23.1281E+06     538.382E+03
            1257     67.5451E-03     14.1996E-03     66.0357E-03     112.264E-03    -55.1627E-03    -57.1551E-03    -53.6507E-03     108.760E-03    -55.1627E-03     47.7869E-03     206.131E-03     159.258E+06     158.908E+06     64.6397E+06    -22.9919E+06    -22.9893E+06     158.905E+06     64.6397E+06     74.5354E+03
            1258     67.7937E-03     15.1470E-03     66.0800E-03     114.527E-03    -55.3134E-03    -59.2174E-03    -53.6822E-03     108.992E-03    -55.3134E-03     58.7352E-03     223.163E-03     161.897E+06     166.844E+06     108.094E+06    -15.7236E+06    -15.7193E+06     166.840E+06     108.094E+06     361.578E+03
            1259     68.0944E-03     16.0946E-03     66.1650E-03     113.413E-03    -54.5454E-03    -58.9032E-03    -53.7059E-03     109.057E-03    -55.3866E-03     43.7766E-03     202.654E-03     162.293E+06     171.179E+06     129.710E+06    -7.78223E+06    -7.77958E+06     171.177E+06     129.710E+06     326.680E+03
            1260     66.8841E-03     945.907E-06     66.8774E-03     111.004E-03    -55.3156E-03    -55.6902E-03    -55.6237E-03     110.997E-03    -55.3754E-03     1.96542E-03     111.988E-03     197.731E+06    -89.2225E+06    -92.8493E+06    -288.736E+06    -92.3511E+06    -288.728E+06    -89.7283E+06    -487.239E+03
            1261     66.9070E-03     1.89261E-03     66.8802E-03     111.014E-03    -55.4725E-03    -55.5421E-03    -55.4523E-03     110.994E-03    -55.5421E-03     3.57720E-03     112.897E-03     199.010E+06    -79.2712E+06    -89.0097E+06    -282.932E+06    -89.0136E+06    -282.928E+06    -79.2712E+06     33.4212E+03
            1262     66.9453E-03     2.83862E-03     66.8851E-03     111.057E-03    -55.4848E-03    -55.5853E-03    -55.4411E-03     111.014E-03    -55.5853E-03     5.31582E-03     114.552E-03     200.914E+06    -64.1895E+06    -83.1348E+06    -273.862E+06    -83.1366E+06    -273.860E+06    -64.1895E+06    -352.909E+03
            1263     66.9987E-03     3.78473E-03     66.8917E-03     110.959E-03    -55.3558E-03    -55.6244E-03    -55.2813E-03     110.885E-03    -55.6244E-03     6.99596E-03     116.767E-03     202.981E+06    -47.6441E+06    -76.2318E+06    -263.361E+06    -76.2338E+06    -263.359E+06    -47.6441E+06     104.025E+03
            1264     67.0673E-03     4.73145E-03     66.9002E-03     110.979E-03    -55.3423E-03    -55.6533E-03    -55.2328E-03     110.869E-03    -55.6533E-03     8.50205E-03     119.973E-03     203.789E+06    -31.7384E+06    -69.3717E+06    -251.686E+06    -69.3739E+06    -251.684E+06    -31.7384E+06     446.755E+03
            1265     67.1505E-03     5.67777E-03     66.9100E-03     110.978E-03    -55.3450E-03    -55.6404E-03    -55.1871E-03     110.820E-03    -55.6404E-03     10.1972E-03     124.029E-03     191.586E+06    -19.8617E+06    -62.2270E+06    -229.063E+06    -62.2281E+06    -229.062E+06    -19.8617E+06     109.374E+03
            1266     67.2492E-03     6.62401E-03     66.9222E-03     110.858E-03    -55.2553E-03    -55.6064E-03    -55.0404E-03     110.643E-03    -55.6064E-03     11.9155E-03     129.009E-03     169.376E+06    -12.4143E+06    -55.6738E+06    -199.202E+06    -55.6753E+06    -199.200E+06    -12.4143E+06     71.3029E+03
            1267     67.3625E-03     7.57088E-03     66.9357E-03     110.777E-03    -55.2300E-03    -55.5627E-03    -54.9430E-03     110.490E-03    -55.5627E-03     13.7497E-03     135.237E-03     147.652E+06    -6.89226E+06    -50.0173E+06    -171.281E+06    -50.0184E+06    -171.280E+06    -6.89226E+06     177.318E+03
            1268     67.4911E-03     8.51747E-03     66.9514E-03     110.770E-03    -55.2720E-03    -55.5125E-03    -54.8727E-03     110.370E-03    -55.5125E-03     16.2061E-03     143.011E-03     125.348E+06    -2.09711E+06    -45.1965E+06    -143.244E+06    -45.1977E+06    -143.243E+06    -2.09711E+06     190.120E+03
            1269     67.6357E-03     9.46426E-03     66.9703E-03     110.691E-03    -55.2629E-03    -55.4585E-03    -54.7476E-03     110.176E-03    -55.4585E-03     18.4419E-03     151.806E-03     99.5556E+06     1.47832E+06    -40.8803E+06    -112.127E+06    -40.8862E+06    -112.121E+06     1.47832E+06     461.143E+03
            1270     67.7951E-03     10.4109E-03     66.9910E-03     110.628E-03    -55.2758E-03    -55.4011E-03    -54.5860E-03     109.912E-03    -55.3748E-03     21.6275E-03     162.692E-03     65.0833E+06     2.13139E+06    -36.9723E+06    -71.9217E+06    -36.9830E+06    -71.9110E+06     2.13139E+06     506.248E+03
            1271     67.9725E-03     11.3575E-03     67.0169E-03     110.781E-03    -55.2712E-03    -55.5428E-03    -54.4022E-03     109.641E-03    -55.2712E-03     27.2530E-03     176.518E-03     44.4005E+06     8.53458E+06    -15.5329E+06    -40.7073E+06    -33.9796E+06    -16.7021E+06     2.97611E+06     502.696E+03
            1272     68.1696E-03     12.3048E-03     67.0498E-03     110.865E-03    -55.1073E-03    -55.8232E-03    -53.9999E-03     109.042E-03    -55.1073E-03     34.4474E-03     191.449E-03     84.2325E+06     63.2372E+06     6.78620E+06    -30.4819E+06    -30.4727E+06     63.2280E+06     6.78620E+06     609.366E+03
            1273     68.3883E-03     13.2522E-03     67.0920E-03     112.127E-03    -55.0433E-03    -57.1877E-03    -53.8024E-03     108.742E-03    -55.0433E-03     46.7216E-03     205.866E-03     142.182E+06     133.849E+06     24.3223E+06    -26.6299E+06    -26.6247E+06     133.844E+06     24.3223E+06     284.199E+03
            1274     68.6363E-03     14.1994E-03     67.1514E-03     112.388E-03    -55.1591E-03    -57.3212E-03    -53.7981E-03     108.865E-03    -55.1591E-03     47.9021E-03     206.159E-03     158.910E+06     159.131E+06     65.7761E+06    -22.2584E+06    -22.2567E+06     159.129E+06     65.7761E+06    -79.3479E+03
            1275     68.8827E-03     15.1470E-03     67.1967E-03     114.574E-03    -55.3140E-03    -59.3046E-03    -53.8335E-03     109.103E-03    -55.3140E-03     58.4076E-03     223.295E-03     161.529E+06     166.527E+06     108.388E+06    -15.6036E+06    -15.5997E+06     166.523E+06     108.388E+06     149.180E+03
            1276     69.1790E-03     16.0948E-03     67.2807E-03     113.312E-03    -54.4593E-03    -58.8914E-03    -53.6456E-03     108.996E-03    -55.3891E-03     43.7393E-03     202.617E-03     162.166E+06     171.316E+06     129.493E+06    -7.61737E+06    -7.61231E+06     171.311E+06     129.493E+06     449.126E+03
            1277     68.0000E-03     946.517E-06     67.9934E-03     110.972E-03    -55.3530E-03    -55.6230E-03    -55.6010E-03     110.966E-03    -55.3686E-03     1.92366E-03     111.958E-03     197.134E+06    -89.7682E+06    -93.5516E+06    -288.755E+06    -93.5674E+06    -288.739E+06    -89.7682E+06     129.408E+03
            1278     68.0228E-03     1.89228E-03     67.9964E-03     111.035E-03    -55.4725E-03    -55.5656E-03    -55.4831E-03     111.014E-03    -55.5344E-03     3.58517E-03     112.937E-03     198.032E+06    -80.0549E+06    -89.2423E+06    -282.504E+06    -89.2489E+06    -282.498E+06    -80.0549E+06    -282.664E+03
            1279     68.0606E-03     2.83861E-03     68.0014E-03     110.975E-03    -55.4185E-03    -55.5749E-03    -55.3751E-03     110.932E-03    -55.5749E-03     5.31290E-03     114.491E-03     200.117E+06    -65.3203E+06    -83.6774E+06    -273.914E+06    -83.6791E+06    -273.912E+06    -65.3203E+06    -425.589E+03
            1280     68.1130E-03     3.78509E-03     68.0077E-03     110.962E-03    -55.3676E-03    -55.6172E-03    -55.2935E-03     110.888E-03    -55.6172E-03     6.96450E-03     116.745E-03     204.023E+06    -47.3029E+06    -77.1031E+06    -264.540E+06    -77.1055E+06    -264.537E+06    -47.3029E+06     190.428E+03
            1281     68.1805E-03     4.73130E-03     68.0161E-03     111.016E-03    -55.3805E-03    -55.6527E-03    -55.2696E-03     110.905E-03    -55.6527E-03     8.55834E-03     119.992E-03     204.280E+06    -30.9486E+06    -69.3033E+06    -251.662E+06    -69.3059E+06    -251.660E+06    -30.9486E+06     624.742E+03
            1282     68.2629E-03     5.67769E-03     68.0264E-03     110.945E-03    -55.3184E-03    -55.6382E-03    -55.1612E-03     110.788E-03    -55.6382E-03     10.1768E-03     124.003E-03     191.500E+06    -19.6124E+06    -61.9351E+06    -228.713E+06    -61.9366E+06    -228.711E+06    -19.6124E+06     234.866E+03
            1283     68.3598E-03     6.62439E-03     68.0381E-03     110.799E-03    -55.2079E-03    -55.5979E-03    -54.9935E-03     110.584E-03    -55.5979E-03     11.8941E-03     128.966E-03     169.824E+06    -12.3684E+06    -55.3408E+06    -199.534E+06    -55.3425E+06    -199.533E+06    -12.3684E+06     141.279E+03
            1284     68.4716E-03     7.57097E-03     68.0517E-03     110.781E-03    -55.2432E-03    -55.5537E-03    -54.9530E-03     110.490E-03    -55.5537E-03     13.8260E-03     135.249E-03     147.899E+06    -6.99247E+06    -49.7798E+06    -171.539E+06    -49.7826E+06    -171.536E+06    -6.99247E+06     398.554E+03
            1285     68.5986E-03     8.51748E-03     68.0678E-03     110.819E-03    -55.3225E-03    -55.5097E-03    -54.9264E-03     110.423E-03    -55.5097E-03     16.1582E-03     143.040E-03     125.615E+06    -1.98497E+06    -45.1112E+06    -143.419E+06    -45.1146E+06    -143.415E+06    -1.98497E+06     523.726E+03
            1286     68.7410E-03     9.46391E-03     68.0864E-03     110.720E-03    -55.2908E-03    -55.4589E-03    -54.7828E-03     110.212E-03    -55.4589E-03     18.3137E-03     151.831E-03     99.9995E+06     1.71104E+06    -40.4229E+06    -112.352E+06    -40.4276E+06    -112.348E+06     1.71104E+06     536.858E+03
            1287     68.8983E-03     10.4108E-03     68.1072E-03     110.598E-03    -55.2553E-03    -55.3923E-03    -54.5587E-03     109.884E-03    -55.3753E-03     21.5837E-03     162.707E-03     65.3021E+06     2.14844E+06    -36.6505E+06    -72.1528E+06    -36.6648E+06    -72.1384E+06     2.14844E+06     550.215E+03
            1288     69.0734E-03     11.3579E-03     68.1332E-03     110.692E-03    -55.2352E-03    -55.5013E-03    -54.3189E-03     109.540E-03    -55.2665E-03     27.3494E-03     176.388E-03     43.7680E+06     8.22024E+06    -15.3708E+06    -40.2756E+06    -33.3774E+06    -17.1858E+06     3.13709E+06     505.160E+03
            1289     69.2679E-03     12.3044E-03     68.1663E-03     110.938E-03    -55.1004E-03    -55.9120E-03    -54.0803E-03     109.106E-03    -55.1004E-03     34.5634E-03     191.486E-03     84.2074E+06     63.4607E+06     6.85338E+06    -30.1404E+06    -30.1370E+06     63.4573E+06     6.85338E+06     48.6307E+03
            1290     69.4826E-03     13.2521E-03     68.2071E-03     112.255E-03    -55.0480E-03    -57.3032E-03    -53.9531E-03     108.905E-03    -55.0480E-03     46.5329E-03     206.026E-03     143.150E+06     134.505E+06     24.6077E+06    -27.1369E+06    -27.1361E+06     134.504E+06     24.6077E+06    -11.1762E+03
            1291     69.7299E-03     14.1998E-03     68.2688E-03     112.325E-03    -55.1685E-03    -57.2603E-03    -53.7632E-03     108.828E-03    -55.1685E-03     47.7431E-03     206.121E-03     158.772E+06     158.913E+06     65.8418E+06    -22.4265E+06    -22.4257E+06     158.912E+06     65.8418E+06     365.798E+03
            1292     69.9717E-03     15.1465E-03     68.3127E-03     114.582E-03    -55.3205E-03    -59.3096E-03    -53.8355E-03     109.108E-03    -55.3205E-03     58.4591E-03     223.364E-03     160.961E+06     165.916E+06     107.941E+06    -15.5659E+06    -15.5633E+06     165.914E+06     107.941E+06     392.164E+03
            1293     70.2650E-03     16.0942E-03     68.3970E-03     113.323E-03    -54.3662E-03    -58.9535E-03    -53.6101E-03     109.008E-03    -55.3946E-03     43.8207E-03     202.667E-03     162.421E+06     171.347E+06     129.401E+06    -7.89050E+06    -7.88606E+06     171.342E+06     129.401E+06     515.246E+03
            1294     69.1163E-03     946.070E-06     69.1099E-03     111.029E-03    -55.3603E-03    -55.6736E-03    -55.5879E-03     111.023E-03    -55.4395E-03     1.90533E-03     112.059E-03     195.434E+06    -90.8124E+06    -94.4586E+06    -288.037E+06    -93.6376E+06    -288.019E+06    -91.6508E+06    -595.986E+03
            1295     69.1384E-03     1.89240E-03     69.1125E-03     110.963E-03    -55.3930E-03    -55.5751E-03    -55.4035E-03     110.942E-03    -55.5439E-03     3.59387E-03     112.869E-03     198.131E+06    -79.8989E+06    -89.2999E+06    -282.529E+06    -89.3056E+06    -282.524E+06    -79.8989E+06    -867.651E+03
            1296     69.1755E-03     2.83872E-03     69.1173E-03     110.949E-03    -55.3974E-03    -55.5718E-03    -55.3536E-03     110.905E-03    -55.5718E-03     5.33003E-03     114.414E-03     202.135E+06    -63.3531E+06    -83.4514E+06    -274.707E+06    -83.4548E+06    -274.704E+06    -63.3531E+06     51.7404E+03
            1297     69.2275E-03     3.78497E-03     69.1239E-03     110.992E-03    -55.3987E-03    -55.6160E-03    -55.3249E-03     110.918E-03    -55.6160E-03     6.96051E-03     116.744E-03     205.492E+06    -45.5328E+06    -76.6528E+06    -264.775E+06    -76.6555E+06    -264.773E+06    -45.5328E+06     314.075E+03
            1298     69.2942E-03     4.73135E-03     69.1325E-03     111.036E-03    -55.3994E-03    -55.6505E-03    -55.2868E-03     110.923E-03    -55.6505E-03     8.61303E-03     120.000E-03     204.824E+06    -30.6509E+06    -68.9882E+06    -251.916E+06    -68.9892E+06    -251.915E+06    -30.6509E+06     268.493E+03
            1299     69.3751E-03     5.67782E-03     69.1424E-03     110.930E-03    -55.3083E-03    -55.6339E-03    -55.1538E-03     110.776E-03    -55.6339E-03     10.1098E-03     124.002E-03     191.569E+06    -19.4511E+06    -61.3586E+06    -228.482E+06    -61.3596E+06    -228.482E+06    -19.4511E+06     326.996E+03
            1300     69.4707E-03     6.62426E-03     69.1542E-03     110.831E-03    -55.2412E-03    -55.5956E-03    -55.0327E-03     110.622E-03    -55.5956E-03     11.7214E-03     129.039E-03     170.426E+06    -12.2049E+06    -54.9347E+06    -199.914E+06    -54.9363E+06    -199.913E+06    -12.2049E+06     274.757E+03
            1301     69.5810E-03     7.57089E-03     69.1679E-03     110.805E-03    -55.2651E-03    -55.5558E-03    -54.9750E-03     110.515E-03    -55.5558E-03     13.8234E-03     135.249E-03     148.377E+06    -7.07765E+06    -49.3868E+06    -171.989E+06    -49.3909E+06    -171.985E+06    -7.07765E+06     560.408E+03
            1302     69.7064E-03     8.51746E-03     69.1841E-03     110.757E-03    -55.2600E-03    -55.5108E-03    -54.8638E-03     110.361E-03    -55.5108E-03     16.1565E-03     142.942E-03     125.807E+06    -1.71051E+06    -44.5510E+06    -143.270E+06    -44.5574E+06    -143.264E+06    -1.71051E+06     765.015E+03
            1303     69.8469E-03     9.46419E-03     69.2028E-03     110.698E-03    -55.2630E-03    -55.4543E-03    -54.7459E-03     110.181E-03    -55.4543E-03     18.4643E-03     151.809E-03     100.158E+06     1.67624E+06    -40.5502E+06    -112.571E+06    -40.5582E+06    -112.563E+06     1.67624E+06     721.386E+03
            1304     70.0020E-03     10.4108E-03     69.2235E-03     110.618E-03    -55.2732E-03    -55.3876E-03    -54.5694E-03     109.897E-03    -55.3705E-03     21.7178E-03     162.750E-03     65.3967E+06     2.16433E+06    -36.5185E+06    -72.3152E+06    -36.5400E+06    -72.2937E+06     2.16433E+06     701.193E+03
            1305     70.1743E-03     11.3576E-03     69.2491E-03     110.635E-03    -55.2300E-03    -55.4549E-03    -54.2903E-03     109.502E-03    -55.2613E-03     27.1387E-03     176.431E-03     44.0287E+06     8.18787E+06    -15.2204E+06    -40.6402E+06    -33.4589E+06    -17.3509E+06     3.13699E+06     553.521E+03
            1306     70.3665E-03     12.3057E-03     69.2821E-03     111.085E-03    -55.0985E-03    -56.0577E-03    -54.2186E-03     109.246E-03    -55.0985E-03     34.6264E-03     191.553E-03     85.6325E+06     63.8582E+06     6.45355E+06    -31.3662E+06    -31.3636E+06     63.8556E+06     6.45355E+06     223.052E+03
            1307     70.5799E-03     13.2514E-03     69.3247E-03     112.444E-03    -55.0624E-03    -57.4715E-03    -54.1467E-03     109.120E-03    -55.0624E-03     46.4800E-03     206.199E-03     144.302E+06     134.779E+06     24.7004E+06    -28.3296E+06    -28.3291E+06     134.779E+06     24.7004E+06     143.723E+03
            1308     70.8215E-03     14.1985E-03     69.3836E-03     112.221E-03    -55.1845E-03    -57.1152E-03    -53.6330E-03     108.739E-03    -55.1845E-03     47.6880E-03     206.099E-03     159.100E+06     158.593E+06     65.5845E+06    -23.3028E+06    -23.3015E+06     158.592E+06     65.5845E+06     411.340E+03
            1309     71.0627E-03     15.1474E-03     69.4296E-03     114.410E-03    -55.3224E-03    -59.1011E-03    -53.6082E-03     108.917E-03    -55.3224E-03     58.5968E-03     223.116E-03     161.358E+06     165.526E+06     107.267E+06    -16.3845E+06    -16.3814E+06     165.523E+06     107.267E+06     529.119E+03
            1310     71.3520E-03     16.0947E-03     69.5131E-03     113.254E-03    -54.4305E-03    -58.8643E-03    -53.6044E-03     108.954E-03    -55.3900E-03     43.7171E-03     202.577E-03     162.728E+06     171.275E+06     129.385E+06    -8.26942E+06    -8.26729E+06     171.273E+06     129.385E+06     334.209E+03
            1311     70.2318E-03     945.961E-06     70.2254E-03     111.026E-03    -55.3241E-03    -55.7050E-03    -55.6190E-03     111.019E-03    -55.4034E-03     1.97203E-03     112.073E-03     195.303E+06    -88.4231E+06    -92.8904E+06    -285.918E+06    -92.0635E+06    -285.907E+06    -89.2614E+06    -1.41218E+06
            1312     70.2543E-03     1.89250E-03     70.2289E-03     110.941E-03    -55.3946E-03    -55.5537E-03    -55.3849E-03     110.920E-03    -55.5430E-03     3.59245E-03     112.806E-03     200.681E+06    -77.4530E+06    -88.2298E+06    -283.256E+06    -88.2373E+06    -283.249E+06    -77.4530E+06    -640.316E+03
            1313     70.2906E-03     2.83875E-03     70.2333E-03     110.982E-03    -55.4295E-03    -55.5751E-03    -55.3856E-03     110.939E-03    -55.5751E-03     5.32615E-03     114.397E-03     205.000E+06    -61.1784E+06    -82.7004E+06    -276.035E+06    -82.7051E+06    -276.031E+06    -61.1784E+06     414.792E+03
            1314     70.3422E-03     3.78504E-03     70.2403E-03     111.010E-03    -55.4177E-03    -55.6185E-03    -55.3442E-03     110.937E-03    -55.6185E-03     6.95468E-03     116.757E-03     206.293E+06    -44.5876E+06    -75.5194E+06    -264.572E+06    -75.5225E+06    -264.569E+06    -44.5876E+06     500.042E+03
            1315     70.4075E-03     4.73139E-03     70.2484E-03     110.993E-03    -55.3629E-03    -55.6484E-03    -55.2518E-03     110.882E-03    -55.6484E-03     8.55048E-03     119.964E-03     205.254E+06    -30.2483E+06    -67.8597E+06    -251.689E+06    -67.8612E+06    -251.687E+06    -30.2483E+06     196.123E+03
            1316     70.4879E-03     5.67776E-03     70.2589E-03     110.947E-03    -55.3285E-03    -55.6303E-03    -55.1719E-03     110.791E-03    -55.6303E-03     10.1707E-03     124.001E-03     192.303E+06    -19.5799E+06    -60.8957E+06    -229.158E+06    -60.9000E+06    -229.154E+06    -19.5799E+06     440.217E+03
            1317     70.5817E-03     6.62424E-03     70.2702E-03     110.956E-03    -55.3556E-03    -55.6001E-03    -55.1440E-03     110.745E-03    -55.6001E-03     11.8226E-03     129.148E-03     170.583E+06    -12.1208E+06    -54.8332E+06    -199.978E+06    -54.8399E+06    -199.972E+06    -12.1208E+06     820.321E+03
            1318     70.6908E-03     7.57074E-03     70.2842E-03     110.826E-03    -55.2733E-03    -55.5682E-03    -54.9863E-03     110.539E-03    -55.5682E-03     13.7564E-03     135.299E-03     148.731E+06    -6.90308E+06    -49.4715E+06    -172.256E+06    -49.4780E+06    -172.249E+06    -6.90308E+06     878.164E+03
            1319     70.8143E-03     8.51742E-03     70.3002E-03     110.657E-03    -55.1609E-03    -55.5191E-03    -54.7712E-03     110.268E-03    -55.5191E-03     16.0106E-03     142.849E-03     126.362E+06    -1.76025E+06    -44.6507E+06    -143.913E+06    -44.6601E+06    -143.904E+06    -1.76025E+06     938.206E+03
            1320     70.9528E-03     9.46427E-03     70.3188E-03     110.626E-03    -55.1895E-03    -55.4546E-03    -54.6819E-03     110.119E-03    -55.4546E-03     18.2876E-03     151.780E-03     100.402E+06     2.03331E+06    -40.4049E+06    -112.498E+06    -40.4181E+06    -112.484E+06     2.03331E+06     948.047E+03
            1321     71.1062E-03     10.4111E-03     70.3399E-03     110.625E-03    -55.2690E-03    -55.3936E-03    -54.5889E-03     109.919E-03    -55.3671E-03     21.4997E-03     162.780E-03     65.6247E+06     2.17710E+06    -36.7657E+06    -72.6150E+06    -36.7888E+06    -72.5918E+06     2.17710E+06     774.977E+03
            1322     71.2759E-03     11.3580E-03     70.3651E-03     110.800E-03    -55.2662E-03    -55.5739E-03    -54.4569E-03     109.683E-03    -55.2662E-03     26.9692E-03     176.629E-03     44.5214E+06     8.44399E+06    -15.0601E+06    -40.9560E+06    -33.5677E+06    -17.3528E+06     3.34832E+06     768.718E+03
            1323     71.4655E-03     12.3040E-03     70.3984E-03     111.113E-03    -55.1105E-03    -56.0636E-03    -54.1910E-03     109.240E-03    -55.1105E-03     34.8814E-03     191.540E-03     85.6094E+06     64.3406E+06     7.27341E+06    -30.8860E+06    -30.8714E+06     64.3260E+06     7.27341E+06     976.521E+03
            1324     71.6774E-03     13.2520E-03     70.4417E-03     112.254E-03    -55.0619E-03    -57.2813E-03    -53.9404E-03     108.913E-03    -55.0619E-03     46.6183E-03     205.978E-03     143.443E+06     134.256E+06     24.8461E+06    -27.9032E+06    -27.8969E+06     134.250E+06     24.8461E+06     522.127E+03
            1325     71.9156E-03     14.1995E-03     70.4998E-03     112.313E-03    -55.1809E-03    -57.1966E-03    -53.6960E-03     108.812E-03    -55.1809E-03     47.8914E-03     206.173E-03     158.665E+06     158.394E+06     65.8007E+06    -22.9620E+06    -22.9607E+06     158.392E+06     65.8007E+06     263.756E+03
            1326     72.1530E-03     15.1461E-03     70.5453E-03     114.434E-03    -55.3246E-03    -59.1125E-03    -53.6142E-03     108.936E-03    -55.3246E-03     58.7499E-03     223.145E-03     161.323E+06     165.899E+06     107.734E+06    -15.9733E+06    -15.9720E+06     165.898E+06     107.734E+06     311.575E+03
            1327     72.4399E-03     16.0948E-03     70.6292E-03     113.158E-03    -54.5185E-03    -58.7085E-03    -53.5730E-03     108.892E-03    -55.3889E-03     43.5938E-03     202.565E-03     162.502E+06     171.391E+06     129.427E+06    -7.94265E+06    -7.94229E+06     171.391E+06     129.427E+06     79.1580E+03
            1328     71.3486E-03     946.572E-06     71.3423E-03     110.889E-03    -55.3195E-03    -55.5696E-03    -55.5630E-03     110.882E-03    -55.3195E-03     2.01173E-03     111.940E-03     195.018E+06    -88.0803E+06    -92.9752E+06    -285.490E+06    -92.4834E+06    -285.480E+06    -88.5822E+06     47.3881E+03
            1329     71.3694E-03     1.89234E-03     71.3443E-03     111.035E-03    -55.4703E-03    -55.5708E-03    -55.5053E-03     111.015E-03    -55.5160E-03     3.50922E-03     112.922E-03     200.317E+06    -77.9546E+06    -89.2311E+06    -283.641E+06    -89.2413E+06    -283.630E+06    -77.9546E+06     251.008E+03
            1330     71.4061E-03     2.83873E-03     71.3497E-03     110.973E-03    -55.4151E-03    -55.5790E-03    -55.3713E-03     110.930E-03    -55.5790E-03     5.32553E-03     114.418E-03     204.718E+06    -62.6797E+06    -83.4055E+06    -276.922E+06    -83.4104E+06    -276.917E+06    -62.6797E+06     603.617E+03
            1331     71.4564E-03     3.78497E-03     71.3561E-03     110.964E-03    -55.3769E-03    -55.6100E-03    -55.3023E-03     110.889E-03    -55.6100E-03     7.00171E-03     116.735E-03     204.914E+06    -46.1977E+06    -75.9819E+06    -264.345E+06    -75.9863E+06    -264.341E+06    -46.1977E+06     505.465E+03
            1332     71.5214E-03     4.73128E-03     71.3648E-03     110.974E-03    -55.3555E-03    -55.6378E-03    -55.2456E-03     110.864E-03    -55.6378E-03     8.51437E-03     119.972E-03     204.645E+06    -31.4515E+06    -68.4742E+06    -252.058E+06    -68.4764E+06    -252.056E+06    -31.4515E+06     204.580E+03
            1333     71.6000E-03     5.67798E-03     71.3745E-03     110.955E-03    -55.3383E-03    -55.6273E-03    -55.1800E-03     110.796E-03    -55.6273E-03     10.2118E-03     124.001E-03     192.924E+06    -19.8343E+06    -61.4182E+06    -230.131E+06    -61.4242E+06    -230.125E+06    -19.8343E+06     728.149E+03
            1334     71.6935E-03     6.62436E-03     71.3868E-03     111.004E-03    -55.3984E-03    -55.6031E-03    -55.1842E-03     110.790E-03    -55.6031E-03     11.9090E-03     129.186E-03     170.710E+06    -11.9729E+06    -55.1831E+06    -200.113E+06    -55.1945E+06    -200.101E+06    -11.9729E+06     1.23943E+06
            1335     71.8005E-03     7.57055E-03     71.4003E-03     110.883E-03    -55.3171E-03    -55.5793E-03    -55.0345E-03     110.600E-03    -55.5793E-03     13.6549E-03     135.405E-03     149.019E+06    -6.75956E+06    -49.7793E+06    -172.538E+06    -49.7920E+06    -172.525E+06    -6.75956E+06     1.22651E+06
            1336     71.9222E-03     8.51736E-03     71.4161E-03     110.714E-03    -55.2031E-03    -55.5334E-03    -54.8138E-03     110.325E-03    -55.5334E-03     15.9986E-03     142.925E-03     126.571E+06    -1.75101E+06    -44.8328E+06    -144.167E+06    -44.8481E+06    -144.152E+06    -1.75101E+06     1.20075E+06
            1337     72.0593E-03     9.46395E-03     71.4351E-03     110.684E-03    -55.2389E-03    -55.4702E-03    -54.7347E-03     110.180E-03    -55.4702E-03     18.2411E-03     151.844E-03     100.423E+06     2.10887E+06    -40.4122E+06    -112.459E+06    -40.4302E+06    -112.441E+06     2.10887E+06     1.12003E+06
            1338     72.2101E-03     10.4107E-03     71.4557E-03     110.580E-03    -55.2333E-03    -55.3914E-03    -54.5491E-03     109.886E-03    -55.3820E-03     21.2937E-03     162.736E-03     65.8419E+06     2.18389E+06    -36.8381E+06    -72.8745E+06    -36.8792E+06    -72.8334E+06     2.18389E+06     956.075E+03
            1339     72.3783E-03     11.3576E-03     71.4816E-03     110.755E-03    -55.2060E-03    -55.5944E-03    -54.3908E-03     109.620E-03    -55.2748E-03     27.1334E-03     176.526E-03     44.2969E+06     8.09081E+06    -15.3160E+06    -41.0741E+06    -33.6138E+06    -17.7711E+06     3.08567E+06     856.016E+03
            1340     72.5654E-03     12.3052E-03     71.5144E-03     111.002E-03    -55.1109E-03    -55.9527E-03    -54.0707E-03     109.120E-03    -55.1109E-03     34.9933E-03     191.367E-03     84.6232E+06     63.8643E+06     7.23921E+06    -30.1789E+06    -30.1646E+06     63.8500E+06     7.23921E+06     996.316E+03
            1341     72.7740E-03     13.2518E-03     71.5573E-03     112.089E-03    -55.0518E-03    -57.1189E-03    -53.7538E-03     108.724E-03    -55.0518E-03     46.6830E-03     205.717E-03     142.723E+06     134.698E+06     25.6020E+06    -26.5673E+06    -26.5592E+06     134.689E+06     25.6020E+06     795.717E+03
            1342     73.0100E-03     14.1995E-03     71.6159E-03     112.306E-03    -55.1674E-03    -57.1750E-03    -53.6542E-03     108.785E-03    -55.1674E-03     47.9688E-03     206.162E-03     157.994E+06     158.381E+06     66.5184E+06    -22.1278E+06    -22.1257E+06     158.379E+06     66.5184E+06     371.445E+03
            1343     73.2456E-03     15.1474E-03     71.6623E-03     114.666E-03    -55.3192E-03    -59.3262E-03    -53.8030E-03     109.143E-03    -55.3192E-03     58.8842E-03     223.303E-03     160.927E+06     165.739E+06     108.160E+06    -15.6320E+06    -15.6310E+06     165.738E+06     108.160E+06     411.514E+03
            1344     73.5276E-03     16.0944E-03     71.7445E-03     113.439E-03    -54.5121E-03    -58.9275E-03    -53.7370E-03     109.129E-03    -55.3926E-03     43.8848E-03     202.719E-03     163.316E+06     172.043E+06     129.732E+06    -8.22954E+06    -8.22881E+06     172.042E+06     129.732E+06     213.189E+03
            1345     72.4638E-03     946.214E-06     72.4576E-03     110.918E-03    -55.2955E-03    -55.6185E-03    -55.5771E-03     110.910E-03    -55.3296E-03     2.11670E-03     111.951E-03     195.780E+06    -89.8378E+06    -93.6025E+06    -287.463E+06    -93.1097E+06    -287.454E+06    -90.3397E+06     1.16066E+06
            1346     72.4859E-03     1.89257E-03     72.4612E-03     111.039E-03    -55.4745E-03    -55.5644E-03    -55.4994E-03     111.020E-03    -55.5204E-03     3.47201E-03     112.942E-03     199.499E+06    -79.2177E+06    -89.5146E+06    -283.620E+06    -89.5259E+06    -283.609E+06    -79.2177E+06     1.16108E+06
            1347     72.5209E-03     2.83853E-03     72.4654E-03     110.982E-03    -55.4182E-03    -55.5786E-03    -55.3752E-03     110.939E-03    -55.5786E-03     5.25252E-03     114.454E-03     203.901E+06    -63.7058E+06    -83.3834E+06    -276.692E+06    -83.3929E+06    -276.682E+06    -63.7058E+06     274.551E+03
            1348     72.5714E-03     3.78513E-03     72.4726E-03     110.892E-03    -55.3077E-03    -55.6006E-03    -55.2317E-03     110.816E-03    -55.6006E-03     7.05862E-03     116.683E-03     204.248E+06    -47.4396E+06    -76.0436E+06    -264.444E+06    -76.0526E+06    -264.435E+06    -47.4396E+06     203.926E+03
            1349     72.6351E-03     4.73151E-03     72.4808E-03     111.027E-03    -55.4039E-03    -55.6344E-03    -55.2938E-03     110.916E-03    -55.6344E-03     8.53268E-03     120.027E-03     204.932E+06    -31.5391E+06    -68.9933E+06    -252.578E+06    -68.9978E+06    -252.574E+06    -31.5391E+06     620.127E+03
            1350     72.7126E-03     5.67768E-03     72.4906E-03     111.038E-03    -55.4097E-03    -55.6349E-03    -55.2517E-03     110.880E-03    -55.6349E-03     10.2010E-03     124.099E-03     193.443E+06    -19.7787E+06    -62.3203E+06    -230.929E+06    -62.3259E+06    -230.924E+06    -19.7787E+06     944.150E+03
            1351     72.8050E-03     6.62414E-03     72.5031E-03     110.926E-03    -55.3187E-03    -55.6100E-03    -55.1039E-03     110.711E-03    -55.6100E-03     11.9228E-03     129.118E-03     171.339E+06    -12.1939E+06    -55.6270E+06    -201.051E+06    -55.6386E+06    -201.039E+06    -12.1939E+06     1.25319E+06
            1352     72.9108E-03     7.57088E-03     72.5166E-03     110.869E-03    -55.3036E-03    -55.5807E-03    -55.0213E-03     110.587E-03    -55.5807E-03     13.6495E-03     135.362E-03     149.593E+06    -6.51492E+06    -49.6281E+06    -172.908E+06    -49.6483E+06    -172.888E+06    -6.51492E+06     1.54179E+06
            1353     73.0307E-03     8.51713E-03     72.5323E-03     110.822E-03    -55.3019E-03    -55.5366E-03    -54.9070E-03     110.427E-03    -55.5366E-03     16.1139E-03     143.033E-03     126.872E+06    -1.48904E+06    -44.7519E+06    -144.264E+06    -44.7760E+06    -144.240E+06    -1.48904E+06     1.53246E+06
            1354     73.1660E-03     9.46398E-03     72.5513E-03     110.750E-03    -55.2923E-03    -55.4794E-03    -54.7715E-03     110.229E-03    -55.4794E-03     18.5432E-03     151.842E-03     100.544E+06     2.19711E+06    -40.5364E+06    -112.525E+06    -40.5657E+06    -112.495E+06     2.19711E+06     1.38149E+06
            1355     73.3153E-03     10.4104E-03     72.5724E-03     110.638E-03    -55.2492E-03    -55.4306E-03    -54.5844E-03     109.938E-03    -55.3952E-03     21.4251E-03     162.801E-03     65.8106E+06     2.48004E+06    -36.9086E+06    -72.4850E+06    -36.9682E+06    -72.4255E+06     2.48004E+06     1.21202E+06
            1356     73.4801E-03     11.3578E-03     72.5970E-03     110.705E-03    -55.2180E-03    -55.5325E-03    -54.3295E-03     109.571E-03    -55.2868E-03     27.1012E-03     176.551E-03     44.6428E+06     8.76017E+06    -15.0332E+06    -40.7375E+06    -33.5540E+06    -17.0602E+06     3.60369E+06     941.221E+03
            1357     73.6664E-03     12.3043E-03     72.6316E-03     110.738E-03    -55.1108E-03    -55.7032E-03    -53.8748E-03     108.910E-03    -55.1108E-03     34.4983E-03     191.297E-03     84.5287E+06     63.4186E+06     6.97378E+06    -30.5391E+06    -30.5303E+06     63.4098E+06     6.97378E+06     363.748E+03
            1358     73.8706E-03     13.2524E-03     72.6721E-03     112.038E-03    -55.0367E-03    -57.0941E-03    -53.6938E-03     108.637E-03    -55.0367E-03     46.7628E-03     205.681E-03     142.420E+06     134.031E+06     24.7384E+06    -26.8045E+06    -26.8009E+06     134.027E+06     24.7384E+06     408.173E+03
            1359     74.1066E-03     14.1998E-03     72.7335E-03     112.354E-03    -55.1523E-03    -57.2369E-03    -53.7042E-03     108.822E-03    -55.1523E-03     47.9082E-03     206.117E-03     157.842E+06     158.386E+06     66.5205E+06    -21.7927E+06    -21.7877E+06     158.381E+06     66.5205E+06     874.367E+03
            1360     74.3365E-03     15.1472E-03     72.7769E-03     114.659E-03    -55.3125E-03    -59.3337E-03    -53.8380E-03     109.163E-03    -55.3125E-03     58.4888E-03     223.251E-03     160.926E+06     165.595E+06     108.463E+06    -15.7083E+06    -15.7037E+06     165.590E+06     108.463E+06     845.882E+03
            1361     74.6196E-03     16.0948E-03     72.8632E-03     113.464E-03    -54.4814E-03    -58.9997E-03    -53.7427E-03     109.114E-03    -55.3878E-03     43.7913E-03     202.577E-03     163.431E+06     172.452E+06     130.133E+06    -7.93948E+06    -7.93751E+06     172.450E+06     130.133E+06     379.148E+03
            1362     73.5800E-03     946.080E-06     73.5739E-03     111.000E-03    -55.3189E-03    -55.6786E-03    -55.5945E-03     110.993E-03    -55.3954E-03     2.11187E-03     111.999E-03     198.848E+06    -88.7602E+06    -92.8653E+06    -289.620E+06    -92.1394E+06    -289.614E+06    -89.4918E+06     951.487E+03
            1363     73.6014E-03     1.89236E-03     73.5771E-03     110.943E-03    -55.4176E-03    -55.5263E-03    -55.3963E-03     110.922E-03    -55.5263E-03     3.67495E-03     112.847E-03     200.556E+06    -79.0864E+06    -88.3331E+06    -284.069E+06    -88.3414E+06    -284.061E+06    -79.0864E+06     1.21429E+06
            1364     73.6365E-03     2.83875E-03     73.5817E-03     110.998E-03    -55.4542E-03    -55.5572E-03    -55.4141E-03     110.956E-03    -55.5546E-03     5.26103E-03     114.524E-03     202.361E+06    -65.0399E+06    -83.1900E+06    -275.803E+06    -83.1987E+06    -275.795E+06    -65.0399E+06     449.603E+03
            1365     73.6853E-03     3.78494E-03     73.5880E-03     110.957E-03    -55.3720E-03    -55.6021E-03    -55.3009E-03     110.884E-03    -55.5995E-03     6.94197E-03     116.789E-03     203.552E+06    -48.6201E+06    -77.1823E+06    -264.898E+06    -77.1901E+06    -264.890E+06    -48.6201E+06     198.972E+03
            1366     73.7492E-03     4.73145E-03     73.5972E-03     111.021E-03    -55.3871E-03    -55.6456E-03    -55.2748E-03     110.909E-03    -55.6456E-03     8.60427E-03     120.016E-03     205.412E+06    -31.6464E+06    -69.7258E+06    -253.399E+06    -69.7310E+06    -253.394E+06    -31.6464E+06     761.844E+03
            1367     73.8258E-03     5.67771E-03     73.6071E-03     111.059E-03    -55.4169E-03    -55.6453E-03    -55.2578E-03     110.900E-03    -55.6453E-03     10.2506E-03     124.110E-03     194.111E+06    -19.1827E+06    -62.3105E+06    -231.208E+06    -62.3186E+06    -231.200E+06    -19.1827E+06     1.13916E+06
            1368     73.9163E-03     6.62420E-03     73.6189E-03     110.886E-03    -55.2696E-03    -55.6167E-03    -55.0554E-03     110.672E-03    -55.6167E-03     11.8952E-03     129.094E-03     172.117E+06    -11.9851E+06    -55.7497E+06    -201.744E+06    -55.7617E+06    -201.732E+06    -11.9851E+06     1.32056E+06
            1369     74.0211E-03     7.57068E-03     73.6329E-03     110.773E-03    -55.2178E-03    -55.5751E-03    -54.9292E-03     110.484E-03    -55.5751E-03     13.7865E-03     135.257E-03     150.403E+06    -6.62399E+06    -49.7827E+06    -173.867E+06    -49.8046E+06    -173.845E+06    -6.62399E+06     1.59864E+06
            1370     74.1394E-03     8.51751E-03     73.6486E-03     110.864E-03    -55.3523E-03    -55.5340E-03    -54.9571E-03     110.463E-03    -55.5281E-03     16.2512E-03     143.053E-03     127.154E+06    -1.29788E+06    -44.7894E+06    -144.410E+06    -44.8284E+06    -144.371E+06    -1.29788E+06     1.89570E+06
            1371     74.2729E-03     9.46387E-03     73.6675E-03     110.773E-03    -55.3097E-03    -55.4831E-03    -54.8006E-03     110.258E-03    -55.4773E-03     18.4431E-03     151.865E-03     100.693E+06     2.32666E+06    -40.7025E+06    -112.611E+06    -40.7484E+06    -112.565E+06     2.32666E+06     1.75946E+06
            1372     74.4201E-03     10.4110E-03     73.6882E-03     110.710E-03    -55.2666E-03    -55.4754E-03    -54.6347E-03     110.000E-03    -55.3978E-03     21.5363E-03     162.879E-03     65.9764E+06     3.00093E+06    -36.7262E+06    -72.0619E+06    -36.8264E+06    -71.9617E+06     3.00093E+06     1.46893E+06
            1373     74.5837E-03     11.3569E-03     73.7140E-03     110.722E-03    -55.2906E-03    -55.4654E-03    -54.3379E-03     109.594E-03    -55.2906E-03     27.0736E-03     176.595E-03     44.9376E+06     9.15311E+06    -14.8903E+06    -40.5477E+06    -33.7525E+06    -16.5505E+06     4.01801E+06     1.23590E+06
            1374     74.7661E-03     12.3048E-03     73.7466E-03     110.785E-03    -55.1162E-03    -55.7479E-03    -53.9119E-03     108.949E-03    -55.1162E-03     34.5242E-03     191.376E-03     85.8011E+06     64.3357E+06     7.52139E+06    -31.1546E+06    -31.1354E+06     64.3165E+06     7.52139E+06     838.001E+03
            1375     74.9690E-03     13.2521E-03     73.7884E-03     112.112E-03    -55.0471E-03    -57.1757E-03    -53.8368E-03     108.773E-03    -55.0471E-03     46.4763E-03     205.831E-03     143.323E+06     133.602E+06     24.2960E+06    -28.4454E+06    -28.4375E+06     133.594E+06     24.2960E+06     282.324E+03
            1376     75.2022E-03     14.1997E-03     73.8495E-03     112.208E-03    -55.1594E-03    -57.1103E-03    -53.6422E-03     108.740E-03    -55.1594E-03     47.5282E-03     206.001E-03     158.606E+06     157.150E+06     64.6778E+06    -24.0527E+06    -24.0489E+06     157.147E+06     64.6778E+06     352.228E+03
            1377     75.4305E-03     15.1467E-03     73.8941E-03     114.427E-03    -55.3149E-03    -59.1209E-03    -53.6422E-03     108.948E-03    -55.3149E-03     58.4237E-03     223.213E-03     161.854E+06     166.016E+06     107.800E+06    -16.4565E+06    -16.4526E+06     166.012E+06     107.800E+06     679.900E+03
            1378     75.7085E-03     16.0948E-03     73.9780E-03     113.258E-03    -54.4674E-03    -58.8345E-03    -53.6034E-03     108.944E-03    -55.3852E-03     43.7146E-03     202.563E-03     163.585E+06     172.621E+06     130.327E+06    -7.91771E+06    -7.91604E+06     172.620E+06     130.327E+06     372.067E+03
            1379     74.6962E-03     946.237E-06     74.6902E-03     110.963E-03    -55.3133E-03    -55.6499E-03    -55.5990E-03     110.956E-03    -55.3571E-03     2.06596E-03     111.963E-03     199.907E+06    -89.6431E+06    -93.0999E+06    -291.243E+06    -92.3721E+06    -291.239E+06    -90.3747E+06     136.072E+03
            1380     74.7168E-03     1.89259E-03     74.6928E-03     110.895E-03    -55.4004E-03    -55.5012E-03    -55.3792E-03     110.874E-03    -55.5012E-03     3.64372E-03     112.852E-03     200.626E+06    -81.0016E+06    -88.7078E+06    -285.338E+06    -88.7133E+06    -285.332E+06    -81.0016E+06     789.722E+03
            1381     74.7520E-03     2.83887E-03     74.6981E-03     110.957E-03    -55.4395E-03    -55.5333E-03    -55.3979E-03     110.913E-03    -55.5307E-03     5.35322E-03     114.535E-03     200.808E+06    -66.3740E+06    -83.9799E+06    -275.320E+06    -83.9862E+06    -275.314E+06    -66.3740E+06     1.00424E+06
            1382     74.8003E-03     3.78495E-03     74.7045E-03     111.075E-03    -55.4902E-03    -55.6023E-03    -55.4179E-03     111.000E-03    -55.5997E-03     7.01141E-03     116.920E-03     203.457E+06    -48.1915E+06    -77.6476E+06    -264.727E+06    -77.6514E+06    -264.724E+06    -48.1915E+06     627.817E+03
            1383     74.8625E-03     4.73116E-03     74.7128E-03     111.046E-03    -55.4045E-03    -55.6574E-03    -55.2910E-03     110.932E-03    -55.6574E-03     8.65294E-03     120.059E-03     205.737E+06    -32.1125E+06    -70.3530E+06    -254.261E+06    -70.3567E+06    -254.258E+06    -32.1125E+06     630.086E+03
            1384     74.9389E-03     5.67785E-03     74.7235E-03     110.924E-03    -55.2871E-03    -55.6475E-03    -55.1269E-03     110.764E-03    -55.6475E-03     10.2826E-03     123.991E-03     194.515E+06    -19.6241E+06    -62.7472E+06    -232.053E+06    -62.7570E+06    -232.043E+06    -19.6241E+06     1.22121E+06
            1385     75.0283E-03     6.62405E-03     74.7353E-03     110.867E-03    -55.2574E-03    -55.6108E-03    -55.0439E-03     110.653E-03    -55.6108E-03     11.8777E-03     129.069E-03     172.636E+06    -11.8579E+06    -56.0910E+06    -202.291E+06    -56.1060E+06    -202.276E+06    -11.8579E+06     1.47151E+06
            1386     75.1311E-03     7.57102E-03     74.7486E-03     110.833E-03    -55.2778E-03    -55.5691E-03    -54.9872E-03     110.543E-03    -55.5691E-03     13.8304E-03     135.315E-03     150.712E+06    -7.05107E+06    -50.5462E+06    -174.707E+06    -50.5670E+06    -174.686E+06    -7.05107E+06     1.58092E+06
            1387     75.2488E-03     8.51746E-03     74.7652E-03     110.816E-03    -55.3025E-03    -55.5295E-03    -54.9096E-03     110.417E-03    -55.5237E-03     16.2131E-03     142.976E-03     127.318E+06    -1.52608E+06    -45.1536E+06    -144.843E+06    -45.1934E+06    -144.803E+06    -1.52608E+06     1.91411E+06
            1388     75.3805E-03     9.46396E-03     74.7840E-03     110.777E-03    -55.3048E-03    -55.4911E-03    -54.8119E-03     110.267E-03    -55.4739E-03     18.3540E-03     151.901E-03     101.072E+06     2.84171E+06    -40.2550E+06    -112.523E+06    -40.3128E+06    -112.465E+06     2.84171E+06     1.97478E+06
            1389     75.5252E-03     10.4105E-03     74.8042E-03     110.644E-03    -55.2337E-03    -55.4449E-03    -54.5642E-03     109.921E-03    -55.3914E-03     21.7143E-03     162.781E-03     66.3388E+06     3.14219E+06    -36.4075E+06    -72.3903E+06    -36.5635E+06    -72.2343E+06     3.14219E+06     1.84666E+06
            1390     75.6880E-03     11.3580E-03     74.8309E-03     110.693E-03    -55.1923E-03    -55.5321E-03    -54.3287E-03     109.579E-03    -55.2813E-03     26.9744E-03     176.466E-03     45.0405E+06     9.14284E+06    -14.6045E+06    -40.7047E+06    -33.7201E+06    -16.4997E+06     4.05343E+06     1.73021E+06
            1391     75.8659E-03     12.3048E-03     74.8614E-03     111.136E-03    -55.1183E-03    -56.0858E-03    -54.2348E-03     109.285E-03    -55.1183E-03     34.6615E-03     191.654E-03     86.1985E+06     64.6842E+06     7.49675E+06    -31.1283E+06    -31.0885E+06     64.6444E+06     7.49675E+06     1.68729E+06
            1392     76.0695E-03     13.2513E-03     74.9064E-03     112.270E-03    -55.0701E-03    -57.3062E-03    -53.9664E-03     108.930E-03    -55.0701E-03     46.6097E-03     206.063E-03     143.713E+06     134.253E+06     24.9352E+06    -28.2565E+06    -28.2374E+06     134.234E+06     24.9352E+06     1.29424E+06
            1393     76.2966E-03     14.1985E-03     74.9638E-03     112.132E-03    -55.1818E-03    -57.0085E-03    -53.5000E-03     108.623E-03    -55.1818E-03     47.8995E-03     205.962E-03     158.945E+06     157.588E+06     65.4559E+06    -24.1134E+06    -24.1052E+06     157.580E+06     65.4559E+06     346.127E+03
            1394     76.5255E-03     15.1473E-03     75.0114E-03     114.319E-03    -55.3232E-03    -58.9826E-03    -53.5395E-03     108.876E-03    -55.3232E-03     58.5059E-03     223.164E-03     162.581E+06     166.181E+06     107.691E+06    -17.1172E+06    -17.1146E+06     166.178E+06     107.691E+06    -317.021E+03
            1395     76.7987E-03     16.0948E-03     75.0932E-03     113.130E-03    -54.4616E-03    -58.6998E-03    -53.5604E-03     108.919E-03    -55.3897E-03     43.5680E-03     202.621E-03     163.860E+06     172.592E+06     130.189E+06    -8.25934E+06    -8.25655E+06     172.589E+06     130.189E+06    -256.000E+03
            1396     75.8117E-03     946.226E-06     75.8058E-03     110.939E-03    -55.2861E-03    -55.6544E-03    -55.6462E-03     110.932E-03    -55.2875E-03     2.01785E-03     111.994E-03     199.040E+06    -90.2432E+06    -93.5121E+06    -290.878E+06    -93.1718E+06    -290.876E+06    -90.5860E+06    -621.792E+03
            1397     75.8328E-03     1.89235E-03     75.8092E-03     110.967E-03    -55.4557E-03    -55.5173E-03    -55.4403E-03     110.947E-03    -55.5125E-03     3.56032E-03     112.921E-03     202.376E+06    -79.9382E+06    -88.9297E+06    -286.616E+06    -88.9334E+06    -286.612E+06    -79.9382E+06     161.022E+03
            1398     75.8667E-03     2.83871E-03     75.8136E-03     110.942E-03    -55.4077E-03    -55.5478E-03    -55.3633E-03     110.897E-03    -55.5478E-03     5.35226E-03     114.497E-03     202.653E+06    -64.9323E+06    -83.5066E+06    -276.175E+06    -83.5135E+06    -276.168E+06    -64.9323E+06     913.954E+03
            1399     75.9154E-03     3.78524E-03     75.8210E-03     111.034E-03    -55.4503E-03    -55.5976E-03    -55.3749E-03     110.959E-03    -55.5976E-03     7.04594E-03     116.869E-03     204.231E+06    -47.6346E+06    -76.8838E+06    -264.868E+06    -76.8924E+06    -264.859E+06    -47.6346E+06     1.18314E+06
            1400     75.9767E-03     4.73126E-03     75.8292E-03     111.085E-03    -55.4425E-03    -55.6541E-03    -55.3299E-03     110.972E-03    -55.6541E-03     8.62166E-03     120.118E-03     206.257E+06    -31.8162E+06    -70.0173E+06    -254.476E+06    -70.0263E+06    -254.467E+06    -31.8162E+06     1.21835E+06
            1401     76.0515E-03     5.67754E-03     75.8393E-03     110.890E-03    -55.2559E-03    -55.6454E-03    -55.0957E-03     110.730E-03    -55.6454E-03     10.2777E-03     123.971E-03     195.113E+06    -20.0852E+06    -63.1281E+06    -233.100E+06    -63.1395E+06    -233.089E+06    -20.0852E+06     1.32773E+06
            1402     76.1401E-03     6.62471E-03     75.8513E-03     110.872E-03    -55.2717E-03    -55.6074E-03    -55.0588E-03     110.659E-03    -55.6074E-03     11.8661E-03     129.066E-03     172.967E+06    -12.1846E+06    -56.4889E+06    -202.973E+06    -56.5056E+06    -202.956E+06    -12.1846E+06     1.54955E+06
            1403     76.2420E-03     7.57065E-03     75.8652E-03     110.908E-03    -55.3480E-03    -55.5721E-03    -55.0593E-03     110.619E-03    -55.5721E-03     13.7917E-03     135.389E-03     150.969E+06    -6.73628E+06    -50.5164E+06    -174.740E+06    -50.5364E+06    -174.720E+06    -6.73628E+06     1.56837E+06
            1404     76.3577E-03     8.51717E-03     75.8812E-03     110.709E-03    -55.1940E-03    -55.5231E-03    -54.7934E-03     110.308E-03    -55.5231E-03     16.2343E-03     142.855E-03     128.001E+06    -1.81516E+06    -45.1936E+06    -145.804E+06    -45.2220E+06    -145.776E+06    -1.81516E+06     1.65552E+06
            1405     76.4877E-03     9.46424E-03     75.8999E-03     110.674E-03    -55.2195E-03    -55.4714E-03    -54.7040E-03     110.147E-03    -55.4601E-03     18.6346E-03     151.757E-03     101.291E+06     2.35173E+06    -40.4602E+06    -113.175E+06    -40.5212E+06    -113.114E+06     2.35173E+06     1.99716E+06
            1406     76.6317E-03     10.4110E-03     75.9212E-03     110.654E-03    -55.2478E-03    -55.4433E-03    -54.6063E-03     109.946E-03    -55.3773E-03     21.5472E-03     162.707E-03     66.3355E+06     3.25276E+06    -36.4834E+06    -72.2830E+06    -36.6860E+06    -72.0803E+06     3.25276E+06     2.15602E+06
            1407     76.7901E-03     11.3578E-03     75.9455E-03     110.889E-03    -55.1906E-03    -55.7351E-03    -54.5330E-03     109.776E-03    -55.2796E-03     26.9028E-03     176.673E-03     44.6907E+06     9.14136E+06    -14.3890E+06    -40.2482E+06    -33.2365E+06    -16.6684E+06     4.40897E+06     1.99689E+06
            1408     76.9700E-03     12.3043E-03     75.9801E-03     111.114E-03    -55.1236E-03    -56.0561E-03    -54.2229E-03     109.281E-03    -55.1236E-03     34.5608E-03     191.761E-03     85.3810E+06     64.1461E+06     7.47282E+06    -30.6572E+06    -30.6048E+06     64.0936E+06     7.47282E+06     1.93343E+06
            1409     77.1675E-03     13.2518E-03     76.0211E-03     112.053E-03    -55.0628E-03    -57.0858E-03    -53.7056E-03     108.673E-03    -55.0628E-03     46.6902E-03     205.858E-03     143.369E+06     134.419E+06     24.6796E+06    -27.5577E+06    -27.5360E+06     134.397E+06     24.6796E+06     1.71897E+06
            1410     77.3950E-03     14.1999E-03     76.0812E-03     112.340E-03    -55.1723E-03    -57.2297E-03    -53.6321E-03     108.743E-03    -55.1723E-03     48.4950E-03     205.943E-03     158.640E+06     159.644E+06     67.2059E+06    -21.5663E+06    -21.5582E+06     159.636E+06     67.2059E+06     663.768E+03
            1411     77.6184E-03     15.1462E-03     76.1263E-03     114.594E-03    -55.3236E-03    -59.2685E-03    -53.7990E-03     109.124E-03    -55.3236E-03     58.7124E-03     223.377E-03     160.553E+06     166.646E+06     109.203E+06    -14.2908E+06    -14.2877E+06     166.643E+06     109.203E+06    -565.003E+03
            1412     77.8912E-03     16.0944E-03     76.2103E-03     113.124E-03    -54.4075E-03    -58.7717E-03    -53.5560E-03     108.893E-03    -55.3929E-03     43.5722E-03     202.736E-03     161.983E+06     171.690E+06     129.679E+06    -7.12910E+06    -7.12437E+06     171.686E+06     129.679E+06    -307.869E+03
            1413     76.9283E-03     946.323E-06     76.9225E-03     110.899E-03    -55.3562E-03    -55.5479E-03    -55.5297E-03     110.891E-03    -55.3669E-03     2.10885E-03     111.990E-03     198.651E+06    -89.2015E+06    -93.9283E+06    -290.149E+06    -93.5891E+06    -290.145E+06    -89.5443E+06    -393.843E+03
            1414     76.9482E-03     1.89251E-03     76.9249E-03     111.034E-03    -55.4867E-03    -55.5518E-03    -55.4954E-03     111.012E-03    -55.5218E-03     3.68628E-03     112.961E-03     204.207E+06    -78.0706E+06     -89.693E+06    -287.822E+06    -89.6962E+06    -287.819E+06    -78.0706E+06     326.107E+03
            1415     76.9825E-03     2.83867E-03     76.9301E-03     111.047E-03    -55.4598E-03    -55.5987E-03    -55.4407E-03     111.002E-03    -55.5734E-03     5.36621E-03     114.592E-03     203.685E+06    -64.5784E+06    -83.9084E+06    -277.198E+06    -83.9167E+06    -277.190E+06    -64.5784E+06     1.06540E+06
            1416     77.0297E-03     3.78479E-03     76.9367E-03     110.939E-03    -55.3442E-03    -55.6105E-03    -55.2701E-03     110.865E-03    -55.6105E-03     6.98191E-03     116.799E-03     204.033E+06    -48.8464E+06    -77.5890E+06    -265.686E+06    -77.6045E+06    -265.670E+06    -48.8464E+06     1.69975E+06
            1417     77.0909E-03     4.73151E-03     76.9456E-03     110.975E-03    -55.3396E-03    -55.6473E-03    -55.2286E-03     110.864E-03    -55.6473E-03     8.54989E-03     120.011E-03     206.469E+06    -32.0396E+06    -70.3718E+06    -254.949E+06    -70.3892E+06    -254.931E+06    -32.0396E+06     1.78625E+06
            1418     77.1644E-03     5.67795E-03     76.9553E-03     111.014E-03    -55.3756E-03    -55.6428E-03    -55.2177E-03     110.856E-03    -55.6428E-03     10.2114E-03     124.086E-03     195.780E+06    -19.5390E+06    -63.1225E+06    -233.417E+06    -63.1360E+06    -233.404E+06    -19.5390E+06     1.50439E+06
            1419     77.2519E-03     6.62395E-03     76.9674E-03     110.937E-03    -55.3224E-03    -55.6177E-03    -55.1046E-03     110.719E-03    -55.6177E-03     11.9879E-03     129.136E-03     173.701E+06    -12.0107E+06    -56.1700E+06    -203.512E+06    -56.1843E+06    -203.497E+06    -12.0107E+06     1.42698E+06
            1420     77.3529E-03     7.57082E-03     76.9816E-03     110.785E-03    -55.2227E-03    -55.5763E-03    -54.9346E-03     110.497E-03    -55.5763E-03     13.7858E-03     135.253E-03     151.425E+06    -6.37885E+06    -50.1310E+06    -174.838E+06    -50.1521E+06    -174.817E+06    -6.37885E+06     1.60121E+06
            1421     77.4666E-03     8.51764E-03     76.9969E-03     110.707E-03    -55.1980E-03    -55.5187E-03    -54.8016E-03     110.311E-03    -55.5187E-03     16.1283E-03     142.892E-03     128.596E+06    -1.59718E+06    -45.1837E+06    -146.266E+06    -45.2086E+06    -146.241E+06    -1.59718E+06     1.55225E+06
            1422     77.5954E-03     9.46429E-03     77.0160E-03     110.669E-03    -55.2337E-03    -55.4570E-03    -54.7155E-03     110.151E-03    -55.4570E-03     18.4920E-03     151.738E-03     101.921E+06     2.23120E+06    -40.5323E+06    -113.965E+06    -40.5773E+06    -113.920E+06     2.23120E+06     1.69397E+06
            1423     77.7375E-03     10.4111E-03     77.0372E-03     110.676E-03    -55.2799E-03    -55.4387E-03    -54.6456E-03     109.980E-03    -55.3772E-03     21.3529E-03     162.732E-03     67.0271E+06     3.68438E+06    -36.0673E+06    -72.7351E+06    -36.2504E+06    -72.5520E+06     3.68438E+06     2.00471E+06
            1424     77.8948E-03     11.3574E-03     77.0624E-03     110.910E-03    -55.2809E-03    -55.6678E-03    -54.5176E-03     109.760E-03    -55.2809E-03     27.2986E-03     176.705E-03     45.2402E+06     9.47824E+06    -14.1581E+06    -40.6526E+06    -32.9041E+06    -17.1887E+06     4.76031E+06     2.09111E+06
            1425     78.0718E-03     12.3043E-03     77.0961E-03     110.885E-03    -55.1173E-03    -55.8411E-03    -54.0053E-03     109.049E-03    -55.1173E-03     34.6224E-03     191.465E-03     84.3623E+06     64.1338E+06     8.31882E+06    -29.5693E+06    -29.5110E+06     64.0756E+06     8.31882E+06     1.89942E+06
            1426     78.2665E-03     13.2520E-03     77.1364E-03     112.153E-03    -55.0560E-03    -57.2023E-03    -53.8287E-03     108.780E-03    -55.0560E-03     46.6160E-03     205.816E-03     142.705E+06     135.681E+06     26.2110E+06    -25.5149E+06    -25.5013E+06     135.667E+06     26.2110E+06     1.30103E+06
            1427     78.4921E-03     14.1994E-03     77.1971E-03     112.445E-03    -55.1777E-03    -57.3399E-03    -53.7827E-03     108.888E-03    -55.1777E-03     48.1695E-03     206.085E-03     159.313E+06     160.859E+06     67.9168E+06    -21.0033E+06    -21.0010E+06     160.857E+06     67.9168E+06     470.305E+03
            1428     78.7148E-03     15.1474E-03     77.2436E-03     114.489E-03    -55.3279E-03    -59.1751E-03    -53.7120E-03     109.026E-03    -55.3279E-03     58.4282E-03     223.365E-03     160.678E+06     165.633E+06     108.960E+06    -15.2415E+06    -15.2388E+06     165.630E+06     108.960E+06     181.642E+03
            1429     78.9828E-03     16.0945E-03     77.3256E-03     113.282E-03    -54.5123E-03    -58.8243E-03    -53.6571E-03     108.994E-03    -55.3913E-03     43.7510E-03     202.807E-03     162.396E+06     171.378E+06     129.583E+06    -7.81437E+06    -7.80994E+06     171.374E+06     129.583E+06     485.011E+03
            1430     78.0432E-03     946.223E-06     78.0375E-03     110.911E-03    -55.3411E-03    -55.5748E-03    -55.5561E-03     110.903E-03    -55.3518E-03     2.20058E-03     112.011E-03     197.888E+06    -91.3691E+06    -95.6663E+06    -291.349E+06    -95.6867E+06    -291.329E+06    -91.3691E+06     1.19699E+06
            1431     78.0646E-03     1.89257E-03     78.0416E-03     111.050E-03    -55.4901E-03    -55.5638E-03    -55.5068E-03     111.029E-03    -55.5256E-03     3.69625E-03     113.015E-03     202.765E+06    -80.3638E+06    -91.4515E+06    -288.424E+06    -91.4600E+06    -288.415E+06    -80.3638E+06     1.16730E+06
            1432     78.0976E-03     2.83854E-03     78.0460E-03     111.066E-03    -55.4653E-03    -55.6117E-03    -55.4461E-03     111.021E-03    -55.5864E-03     5.36780E-03     114.619E-03     203.589E+06     -65.431E+06    -85.4966E+06    -278.250E+06    -85.5045E+06    -278.242E+06     -65.431E+06     1.17711E+06
            1433     78.1451E-03     3.78492E-03     78.0533E-03     110.961E-03    -55.3465E-03    -55.6306E-03    -55.2729E-03     110.887E-03    -55.6306E-03     6.95931E-03     116.810E-03     205.642E+06    -47.8462E+06    -78.0230E+06    -266.872E+06    -78.0367E+06    -266.858E+06    -47.8462E+06     1.58959E+06
            1434     78.2043E-03     4.73134E-03     78.0610E-03     110.960E-03    -55.3139E-03    -55.6582E-03    -55.2028E-03     110.849E-03    -55.6582E-03     8.54678E-03     119.989E-03     207.282E+06    -31.4728E+06    -70.1066E+06    -255.322E+06    -70.1236E+06    -255.305E+06    -31.4728E+06     1.76214E+06
            1435     78.2783E-03     5.67778E-03     78.0721E-03     111.005E-03    -55.3625E-03    -55.6463E-03    -55.2035E-03     110.846E-03    -55.6463E-03     10.2463E-03     124.089E-03     196.362E+06    -19.1736E+06    -62.6419E+06    -233.603E+06    -62.6569E+06    -233.588E+06    -19.1736E+06     1.58787E+06
            1436     78.3639E-03     6.62432E-03     78.0834E-03     110.928E-03    -55.3102E-03    -55.6197E-03    -55.0914E-03     110.709E-03    -55.6197E-03     12.0126E-03     129.129E-03     174.344E+06    -11.6189E+06    -55.8847E+06    -203.813E+06    -55.8986E+06    -203.799E+06    -11.6189E+06     1.41885E+06
            1437     78.4636E-03     7.57078E-03     78.0975E-03     110.800E-03    -55.2369E-03    -55.5766E-03    -54.9514E-03     110.515E-03    -55.5766E-03     13.7343E-03     135.257E-03     151.929E+06    -6.25214E+06    -49.9780E+06    -175.225E+06    -49.9975E+06    -175.206E+06    -6.25214E+06     1.53600E+06
            1438     78.5760E-03     8.51741E-03     78.1130E-03     110.777E-03    -55.2605E-03    -55.5237E-03    -54.8696E-03     110.386E-03    -55.5237E-03     16.0201E-03     142.995E-03     128.974E+06    -1.06515E+06    -44.7872E+06    -146.156E+06    -44.8080E+06    -146.135E+06    -1.06515E+06     1.43801E+06
            1439     78.7036E-03     9.46390E-03     78.1325E-03     110.685E-03    -55.2315E-03    -55.4664E-03    -54.7118E-03     110.165E-03    -55.4664E-03     18.5123E-03     151.693E-03     102.700E+06     2.48692E+06    -40.0667E+06    -114.550E+06    -40.0980E+06    -114.519E+06     2.48692E+06     1.44872E+06
            1440     78.8435E-03     10.4106E-03     78.1531E-03     110.580E-03    -55.2313E-03    -55.3854E-03    -54.5171E-03     109.859E-03    -55.3786E-03     21.7020E-03     162.632E-03     67.7896E+06     3.30223E+06    -35.8719E+06    -74.0199E+06    -35.9970E+06    -73.8948E+06     3.30223E+06     1.73287E+06
            1441     78.9998E-03     11.3581E-03     78.1791E-03     110.652E-03    -55.2504E-03    -55.4359E-03    -54.2689E-03     109.503E-03    -55.2685E-03     27.3128E-03     176.372E-03     45.6075E+06     9.98757E+06    -13.5050E+06    -40.6549E+06    -32.3911E+06    -16.9958E+06     5.21455E+06     2.06257E+06
            1442     79.1737E-03     12.3053E-03     78.2116E-03     110.919E-03    -55.0980E-03    -55.8913E-03    -54.0692E-03     109.096E-03    -55.0980E-03     34.4736E-03     191.393E-03     84.4622E+06     64.6578E+06     8.76852E+06    -29.1085E+06    -29.0499E+06     64.5992E+06     8.76852E+06     1.51596E+06
            1443     79.3671E-03     13.2524E-03     78.2528E-03     112.549E-03    -55.0558E-03    -57.5990E-03    -54.1985E-03     109.148E-03    -55.0558E-03     46.9076E-03     206.234E-03     142.936E+06     135.874E+06     26.8537E+06    -25.6856E+06    -25.6760E+06     135.864E+06     26.8537E+06     1.13013E+06
            1444     79.5913E-03     14.1986E-03     78.3146E-03     112.399E-03    -55.1858E-03    -57.2856E-03    -53.7442E-03     108.857E-03    -55.1858E-03     48.0138E-03     206.243E-03     160.207E+06     161.185E+06     68.2748E+06    -21.8680E+06    -21.8441E+06     161.161E+06     68.2748E+06     1.66839E+06
            1445     79.8083E-03     15.1464E-03     78.3579E-03     114.316E-03    -55.3224E-03    -58.9897E-03    -53.4714E-03     108.798E-03    -55.3224E-03     58.5080E-03     223.080E-03     161.800E+06     165.797E+06     108.412E+06    -16.4009E+06    -16.3807E+06     165.777E+06     108.412E+06     1.42009E+06
            1446     80.0773E-03     16.0951E-03     78.4431E-03     113.404E-03    -54.5867E-03    -58.8616E-03    -53.6964E-03     109.036E-03    -55.3837E-03     43.9057E-03     202.567E-03     163.393E+06     171.788E+06     129.430E+06    -8.59708E+06    -8.59391E+06     171.785E+06     129.430E+06     515.384E+03
            1447     79.1603E-03     946.302E-06     79.1547E-03     111.070E-03    -55.3453E-03    -55.7270E-03    -55.6887E-03     111.062E-03    -55.3758E-03     2.20700E-03     112.157E-03     199.512E+06    -92.0962E+06    -95.7587E+06    -293.403E+06    -95.3769E+06    -293.383E+06    -92.4976E+06     1.70874E+06
            1448     79.1796E-03     1.89218E-03     79.1570E-03     111.037E-03    -55.4545E-03    -55.5844E-03    -55.4455E-03     111.015E-03    -55.5715E-03     3.69253E-03     113.006E-03     202.817E+06    -81.1350E+06    -91.1454E+06    -288.740E+06    -91.1551E+06    -288.730E+06    -81.1350E+06     1.26424E+06
            1449     79.2136E-03     2.83870E-03     79.1627E-03     110.973E-03    -55.3868E-03    -55.5962E-03    -55.3422E-03     110.928E-03    -55.5962E-03     5.39392E-03     114.487E-03     205.590E+06    -64.3813E+06    -85.1530E+06    -279.490E+06    -85.1607E+06    -279.482E+06    -64.3813E+06     1.16705E+06
            1450     79.2591E-03     3.78496E-03     79.1687E-03     111.012E-03    -55.3955E-03    -55.6311E-03    -55.3212E-03     110.938E-03    -55.6311E-03     6.97660E-03     116.810E-03     207.673E+06    -46.3931E+06    -77.6971E+06    -267.913E+06    -77.7074E+06    -267.903E+06    -46.3931E+06     1.38979E+06
            1451     79.3188E-03     4.73125E-03     79.1776E-03     111.046E-03    -55.3940E-03    -55.6642E-03    -55.2808E-03     110.933E-03    -55.6642E-03     8.63725E-03     120.079E-03     207.675E+06    -31.5169E+06    -69.9805E+06    -255.713E+06    -69.9949E+06    -255.699E+06    -31.5169E+06     1.62807E+06
            1452     79.3908E-03     5.67775E-03     79.1875E-03     110.942E-03    -55.2963E-03    -55.6515E-03    -55.1352E-03     110.781E-03    -55.6515E-03     10.3078E-03     124.050E-03     196.438E+06    -19.3671E+06    -62.4349E+06    -233.737E+06    -62.4519E+06    -233.720E+06    -19.3671E+06     1.70224E+06
            1453     79.4767E-03     6.62428E-03     79.2001E-03     110.860E-03    -55.2486E-03    -55.6148E-03    -55.0338E-03     110.645E-03    -55.6148E-03     11.9151E-03     129.056E-03     174.325E+06    -11.6139E+06    -55.8459E+06    -203.778E+06    -55.8608E+06    -203.763E+06    -11.6139E+06     1.47538E+06
            1454     79.5743E-03     7.57081E-03     79.2133E-03     110.834E-03    -55.2801E-03    -55.5709E-03    -54.9862E-03     110.540E-03    -55.5709E-03     13.9046E-03     135.260E-03     152.431E+06    -6.47611E+06    -49.9000E+06    -175.890E+06    -49.9140E+06    -175.876E+06    -6.47611E+06     1.31856E+06
            1455     79.6863E-03     8.51722E-03     79.2299E-03     110.785E-03    -55.2788E-03    -55.5214E-03    -54.8739E-03     110.380E-03    -55.5214E-03     16.3337E-03     142.936E-03     129.174E+06    -1.17028E+06    -44.5769E+06    -146.381E+06     -44.599E+06    -146.358E+06    -1.17028E+06     1.46115E+06
            1456     79.8112E-03     9.46414E-03     79.2481E-03     110.627E-03    -55.1812E-03    -55.4625E-03    -54.6584E-03     110.104E-03    -55.4625E-03     18.5593E-03     151.694E-03     102.895E+06     2.46644E+06    -40.1266E+06    -114.797E+06    -40.1605E+06    -114.763E+06     2.46644E+06     1.55849E+06
            1457     79.9504E-03     10.4113E-03     79.2696E-03     110.537E-03    -55.1897E-03    -55.3788E-03    -54.4720E-03     109.809E-03    -55.3690E-03     21.7977E-03     162.559E-03     67.9410E+06     2.90559E+06    -36.2857E+06    -74.5208E+06    -36.4064E+06    -74.4000E+06     2.90559E+06     1.65989E+06
            1458     80.1042E-03     11.3578E-03     79.2949E-03     110.658E-03    -55.2405E-03    -55.4494E-03    -54.3205E-03     109.547E-03    -55.2587E-03     26.9159E-03     176.448E-03     44.9442E+06     9.14062E+06    -13.7694E+06    -40.5527E+06    -32.6947E+06    -17.3788E+06     4.89210E+06     1.62086E+06
            1459     80.2762E-03     12.3052E-03     79.3275E-03     110.994E-03    -55.0948E-03    -55.9704E-03    -54.1499E-03     109.173E-03    -55.0948E-03     34.3771E-03     191.547E-03     85.6592E+06     64.8552E+06     8.57752E+06    -30.2168E+06    -30.1625E+06     64.8010E+06     8.57752E+06     1.75969E+06
            1460     80.4689E-03     13.2516E-03     79.3703E-03     112.339E-03    -55.0466E-03    -57.3970E-03    -53.9640E-03     108.906E-03    -55.0466E-03     47.1226E-03     206.037E-03     144.664E+06     135.270E+06     25.4024E+06    -28.3812E+06    -28.3398E+06     135.229E+06     25.4024E+06     2.19973E+06
            1461     80.6895E-03     14.1996E-03     79.4302E-03     112.274E-03    -55.1601E-03    -57.1792E-03    -53.6176E-03     108.712E-03    -55.1601E-03     48.1395E-03     206.081E-03     160.671E+06     160.395E+06     67.0442E+06    -23.2923E+06    -23.2594E+06     160.363E+06     67.0442E+06     2.16229E+06
            1462     80.9049E-03     15.1475E-03     79.4742E-03     114.645E-03    -55.3052E-03    -59.3125E-03    -53.7569E-03     109.090E-03    -55.3052E-03     58.8847E-03     223.201E-03     162.257E+06     167.721E+06     109.386E+06    -15.1647E+06    -15.1446E+06     167.700E+06     109.386E+06     1.47657E+06
            1463     81.1712E-03     16.0945E-03     79.5595E-03     113.486E-03    -54.4676E-03    -59.0251E-03    -53.7374E-03     109.112E-03    -55.3811E-03     43.9114E-03     202.670E-03     163.343E+06     172.723E+06     130.036E+06    -7.70439E+06    -7.70159E+06     172.721E+06     130.036E+06     472.327E+03
            1464     80.2758E-03     945.860E-06     80.2702E-03     111.172E-03    -55.4313E-03    -55.7420E-03    -55.6369E-03     111.164E-03    -55.5286E-03     2.17218E-03     112.230E-03     201.192E+06    -92.3565E+06    -95.4601E+06    -295.076E+06    -95.0607E+06    -295.074E+06    -92.7579E+06     544.024E+03
            1465     80.2960E-03     1.89239E-03     80.2737E-03     110.988E-03    -55.3994E-03    -55.5919E-03    -55.3775E-03     110.966E-03    -55.5919E-03     3.70489E-03     112.915E-03     203.680E+06    -81.6776E+06    -91.1511E+06    -289.891E+06    -91.1577E+06    -289.884E+06    -81.6776E+06     1.01023E+06
            1466     80.3285E-03     2.83862E-03     80.2783E-03     110.929E-03    -55.3600E-03    -55.5842E-03    -55.3153E-03     110.885E-03    -55.5842E-03     5.39424E-03     114.428E-03     205.663E+06    -65.6981E+06    -85.3307E+06    -280.412E+06    -85.3423E+06    -280.400E+06    -65.6981E+06     1.48638E+06
            1467     80.3745E-03     3.78508E-03     80.2853E-03     110.963E-03    -55.3699E-03    -55.6092E-03    -55.2937E-03     110.886E-03    -55.6092E-03     7.06186E-03     116.765E-03     206.401E+06    -48.7748E+06    -78.5968E+06    -268.421E+06    -78.6106E+06    -268.407E+06    -48.7748E+06     1.59195E+06
            1468     80.4329E-03     4.73134E-03     80.2936E-03     111.051E-03    -55.4158E-03    -55.6508E-03    -55.3013E-03     110.936E-03    -55.6508E-03     8.69714E-03     120.078E-03     207.058E+06    -32.5781E+06    -71.1367E+06    -256.175E+06    -71.1507E+06    -256.161E+06    -32.5781E+06     1.59606E+06
            1469     80.5045E-03     5.67771E-03     80.3040E-03     110.954E-03    -55.3163E-03    -55.6442E-03    -55.1541E-03     110.792E-03    -55.6442E-03     10.3430E-03     124.035E-03     195.945E+06    -20.1159E+06    -63.4895E+06    -234.091E+06    -63.5028E+06    -234.078E+06    -20.1159E+06     1.47828E+06
            1470     80.5886E-03     6.62428E-03     80.3159E-03     110.827E-03    -55.2208E-03    -55.6071E-03    -55.0024E-03     110.608E-03    -55.6071E-03     12.0126E-03     128.984E-03     173.717E+06    -12.2474E+06    -56.3429E+06    -203.746E+06    -56.3558E+06    -203.733E+06    -12.2474E+06     1.35984E+06
            1471     80.6858E-03     7.57096E-03     80.3299E-03     110.762E-03    -55.2177E-03    -55.5613E-03    -54.9245E-03     110.469E-03    -55.5613E-03     13.8889E-03     135.218E-03     152.249E+06    -6.84863E+06    -50.3406E+06    -176.093E+06    -50.3524E+06    -176.081E+06    -6.84863E+06     1.21090E+06
            1472     80.7959E-03     8.51790E-03     80.3456E-03     110.744E-03    -55.2501E-03    -55.5079E-03    -54.8486E-03     110.342E-03    -55.5079E-03     16.2569E-03     142.901E-03     129.231E+06    -1.63685E+06    -45.0020E+06    -146.904E+06    -45.0202E+06    -146.886E+06    -1.63685E+06     1.29268E+06
            1473     80.9201E-03     9.46413E-03     80.3647E-03     110.715E-03    -55.2682E-03    -55.4734E-03    -54.7787E-03     110.207E-03    -55.4543E-03     18.3305E-03     151.912E-03     102.947E+06     2.43384E+06    -40.1785E+06    -114.876E+06    -40.2049E+06    -114.849E+06     2.43384E+06     1.36023E+06
            1474     81.0562E-03     10.4109E-03     80.3848E-03     110.565E-03    -55.2129E-03    -55.4000E-03    -54.5318E-03     109.855E-03    -55.3711E-03     21.5180E-03     162.667E-03     68.1228E+06     3.16222E+06    -35.7544E+06    -74.6440E+06    -35.8537E+06    -74.5446E+06     3.16222E+06     1.49600E+06
            1475     81.2099E-03     11.3580E-03     80.4117E-03     110.702E-03    -55.1925E-03    -55.5471E-03    -54.3577E-03     109.582E-03    -55.2619E-03     27.0139E-03     176.471E-03     45.2939E+06     8.78752E+06    -13.8599E+06    -41.4916E+06    -32.7914E+06    -18.1710E+06     4.39849E+06     1.61853E+06
            1476     81.3791E-03     12.3043E-03     80.4435E-03     110.908E-03    -55.0944E-03    -55.8893E-03    -54.0356E-03     109.055E-03    -55.0944E-03     34.6644E-03     191.552E-03     84.0574E+06     63.3792E+06     8.09978E+06    -29.8450E+06    -29.7759E+06     63.3102E+06     8.09978E+06     2.36195E+06
            1477     81.5705E-03     13.2526E-03     80.4868E-03     112.061E-03    -55.0329E-03    -57.1394E-03    -53.7140E-03     108.636E-03    -55.0329E-03     47.0579E-03     205.693E-03     142.755E+06     135.292E+06     26.1570E+06    -26.0255E+06    -25.9607E+06     135.227E+06     26.1570E+06     3.16252E+06
            1478     81.7877E-03     14.2002E-03     80.5455E-03     112.386E-03    -55.1488E-03    -57.3008E-03    -53.7911E-03     108.876E-03    -55.1488E-03     47.8034E-03     206.067E-03     160.607E+06     161.387E+06     67.8526E+06    -22.0860E+06    -22.0517E+06     161.353E+06     67.8526E+06     2.22693E+06
            1479     82.0027E-03     15.1471E-03     80.5916E-03     114.713E-03    -55.3069E-03    -59.4101E-03    -53.9690E-03     109.272E-03    -55.3069E-03     58.3019E-03     223.358E-03     163.155E+06     168.022E+06     109.273E+06    -15.9437E+06    -15.9331E+06     168.011E+06     109.273E+06     1.24360E+06
            1480     82.2649E-03     16.0946E-03     80.6752E-03     113.325E-03    -54.4324E-03    -58.9220E-03    -53.6811E-03     109.036E-03    -55.3839E-03     43.6336E-03     202.691E-03     163.716E+06     173.488E+06     130.403E+06    -7.43249E+06    -7.42853E+06     173.484E+06     130.403E+06     720.631E+03
            1481     81.3921E-03     946.168E-06     81.3866E-03     111.104E-03    -55.3716E-03    -55.7337E-03    -55.6594E-03     111.097E-03    -55.4384E-03     2.10793E-03     112.121E-03     200.990E+06    -93.5051E+06    -96.8497E+06    -296.137E+06    -96.5257E+06    -296.136E+06    -93.8306E+06     29.0789E+03
            1482     81.4115E-03     1.89234E-03     81.3895E-03     111.007E-03    -55.4189E-03    -55.5943E-03    -55.4243E-03     110.987E-03    -55.5683E-03     3.62318E-03     112.928E-03     203.100E+06    -83.9638E+06    -92.6799E+06    -291.262E+06    -92.6837E+06    -291.258E+06    -83.9638E+06     736.033E+03
            1483     81.4441E-03     2.83869E-03     81.3946E-03     110.915E-03    -55.3600E-03    -55.5708E-03    -55.3162E-03     110.871E-03    -55.5708E-03     5.32133E-03     114.434E-03     203.821E+06    -69.2834E+06    -87.0607E+06    -281.344E+06    -87.0711E+06    -281.334E+06    -69.2834E+06     1.36673E+06
            1484     81.4891E-03     3.78500E-03     81.4011E-03     110.903E-03    -55.3223E-03    -55.5968E-03    -55.2461E-03     110.827E-03    -55.5968E-03     7.06782E-03     116.721E-03     204.869E+06    -51.2246E+06    -80.1183E+06    -268.957E+06    -80.1302E+06    -268.945E+06    -51.2246E+06     1.39612E+06
            1485     81.5473E-03     4.73150E-03     81.4100E-03     110.971E-03    -55.3549E-03    -55.6336E-03    -55.2400E-03     110.856E-03    -55.6336E-03     8.70301E-03     119.987E-03     206.542E+06    -33.7576E+06    -72.1762E+06    -256.778E+06    -72.1848E+06    -256.769E+06    -33.7576E+06     1.16882E+06
            1486     81.6175E-03     5.67781E-03     81.4198E-03     110.950E-03    -55.3313E-03    -55.6264E-03    -55.1701E-03     110.789E-03    -55.6264E-03     10.3152E-03     124.012E-03     195.233E+06    -21.0824E+06    -64.4087E+06    -234.316E+06    -64.4149E+06    -234.310E+06    -21.0824E+06     983.974E+03
            1487     81.7009E-03     6.62442E-03     81.4319E-03     110.897E-03    -55.2990E-03    -55.5985E-03    -55.0814E-03     110.680E-03    -55.5985E-03     11.9876E-03     129.046E-03     172.635E+06    -13.1706E+06    -57.2903E+06    -203.564E+06    -57.2970E+06    -203.557E+06    -13.1706E+06     907.629E+03
            1488     81.7968E-03     7.57090E-03     81.4456E-03     110.818E-03    -55.2700E-03    -55.5647E-03    -54.9858E-03     110.534E-03    -55.5647E-03     13.7016E-03     135.326E-03     151.332E+06    -7.34056E+06    -50.7398E+06    -175.616E+06    -50.7463E+06     -175.61E+06    -7.34056E+06     740.351E+03
            1489     81.9056E-03     8.51727E-03     81.4616E-03     110.687E-03    -55.1847E-03    -55.5115E-03    -54.7931E-03     110.295E-03    -55.5115E-03     16.0319E-03     142.907E-03     129.241E+06    -2.08321E+06    -44.7415E+06    -147.208E+06    -44.7472E+06    -147.202E+06    -2.08321E+06     595.939E+03
            1490     82.0286E-03     9.46447E-03     81.4807E-03     110.694E-03    -55.2367E-03    -55.4689E-03    -54.7371E-03     110.175E-03    -55.4497E-03     18.4996E-03     151.775E-03     103.276E+06     1.92259E+06    -39.5979E+06    -115.553E+06    -39.6131E+06    -115.538E+06     1.92259E+06     959.750E+03
            1491     82.1637E-03     10.4107E-03     81.5015E-03     110.627E-03    -55.2552E-03    -55.4119E-03    -54.5861E-03     109.915E-03    -55.3685E-03     21.5911E-03     162.701E-03     68.2335E+06     2.36283E+06    -35.7803E+06    -75.5692E+06    -35.8752E+06    -75.4743E+06     2.36283E+06     1.45647E+06
            1492     82.3138E-03     11.3577E-03     81.5265E-03     110.620E-03    -55.1874E-03    -55.4689E-03    -54.2538E-03     109.474E-03    -55.2568E-03     27.2547E-03     176.291E-03     44.7497E+06     7.99971E+06    -14.4435E+06    -41.8123E+06    -32.7197E+06    -19.1341E+06     3.59777E+06     2.10679E+06
            1493     82.4838E-03     12.3054E-03     81.5608E-03     110.883E-03    -55.0845E-03    -55.8634E-03    -54.0392E-03     109.059E-03    -55.0845E-03     34.4930E-03     191.532E-03     83.0315E+06     62.3874E+06     7.27408E+06    -29.6983E+06    -29.6156E+06     62.3047E+06     7.27408E+06     2.09942E+06
            1494     82.6700E-03     13.2523E-03     81.6009E-03     112.192E-03    -54.9814E-03    -57.3209E-03    -53.9565E-03     108.828E-03    -54.9814E-03     46.5839E-03     205.794E-03     142.468E+06     134.775E+06     24.2686E+06    -25.8296E+06    -25.7919E+06     134.738E+06     24.2686E+06     2.32233E+06
            1495     82.8888E-03     14.1995E-03     81.6635E-03     112.331E-03    -55.1096E-03    -57.2886E-03    -53.7879E-03     108.830E-03    -55.1096E-03     47.7266E-03     206.007E-03     160.108E+06     162.073E+06     66.4503E+06    -20.6020E+06    -20.5525E+06     162.024E+06     66.4503E+06     2.93418E+06
            1496     83.0991E-03     15.1466E-03     81.7070E-03     114.504E-03    -55.3139E-03    -59.1936E-03    -53.7266E-03     109.037E-03    -55.3139E-03     58.3022E-03     223.379E-03     162.178E+06     168.644E+06     109.234E+06    -14.3884E+06    -14.3551E+06     168.610E+06     109.234E+06     2.30740E+06
            1497     83.3602E-03     16.0946E-03     81.7917E-03     113.239E-03    -54.4339E-03    -58.8304E-03    -53.5553E-03     108.911E-03    -55.3812E-03     43.7951E-03     202.566E-03     164.428E+06     174.351E+06     130.444E+06    -7.54753E+06    -7.53810E+06     174.342E+06     130.444E+06     1.12926E+06
            1498     82.5083E-03     946.335E-06     82.5029E-03     110.981E-03    -55.3225E-03    -55.6617E-03    -55.6307E-03     110.974E-03    -55.3462E-03     1.97736E-03     111.961E-03     201.531E+06    -93.0939E+06    -97.0449E+06    -296.563E+06    -96.7215E+06    -296.561E+06    -93.4194E+06    -56.9893E+03
            1499     82.5276E-03     1.89227E-03     82.5059E-03     111.031E-03    -55.4650E-03    -55.5712E-03    -55.4775E-03     111.010E-03    -55.5377E-03     3.65699E-03     112.902E-03     204.879E+06    -82.8865E+06    -92.6205E+06    -292.429E+06    -92.6236E+06    -292.426E+06    -82.8865E+06     751.417E+03
            1500     82.5588E-03     2.83859E-03     82.5100E-03     110.964E-03    -55.4019E-03    -55.5760E-03    -55.3648E-03     110.920E-03    -55.5685E-03     5.36616E-03     114.445E-03     204.689E+06    -68.8747E+06    -87.2095E+06    -282.059E+06    -87.2145E+06    -282.054E+06    -68.8747E+06     831.968E+03
            1501     82.6041E-03     3.78501E-03     82.5173E-03     110.897E-03    -55.3180E-03    -55.5969E-03    -55.2415E-03     110.821E-03    -55.5969E-03     7.08532E-03     116.700E-03     205.087E+06    -51.8119E+06    -80.1840E+06    -269.562E+06    -80.1897E+06    -269.556E+06    -51.8119E+06     838.400E+03
            1502     82.6611E-03     4.73135E-03     82.5256E-03     110.922E-03    -55.3172E-03    -55.6239E-03    -55.2019E-03     110.807E-03    -55.6239E-03     8.71146E-03     119.945E-03     205.876E+06    -35.0873E+06    -72.7051E+06    -257.143E+06    -72.7101E+06    -257.138E+06    -35.0873E+06     865.354E+03
            1503     82.7314E-03     5.67804E-03     82.5363E-03     110.974E-03    -55.3674E-03    -55.6155E-03    -55.2077E-03     110.814E-03    -55.6155E-03     10.2746E-03     124.051E-03     193.587E+06    -22.4185E+06    -65.0156E+06    -233.733E+06    -65.0184E+06    -233.730E+06    -22.4185E+06     366.855E+03
            1504     82.8134E-03     6.62424E-03     82.5480E-03     110.950E-03    -55.3552E-03    -55.5963E-03    -55.1394E-03     110.734E-03    -55.5963E-03     11.9362E-03     129.128E-03     171.697E+06    -14.3408E+06    -57.4482E+06    -203.469E+06    -57.4524E+06    -203.465E+06    -14.3408E+06    -164.393E+03
            1505     82.9085E-03     7.57066E-03     82.5621E-03     110.816E-03    -55.2689E-03    -55.5646E-03    -54.9774E-03     110.524E-03    -55.5646E-03     13.8646E-03     135.268E-03     150.572E+06    -8.55307E+06    -50.6614E+06    -175.678E+06    -50.6655E+06    -175.674E+06    -8.55307E+06    -305.045E+03
            1506     83.0159E-03     8.51743E-03     82.5778E-03     110.684E-03    -55.1867E-03    -55.5125E-03    -54.7887E-03     110.286E-03    -55.5125E-03     16.1764E-03     142.870E-03     128.771E+06    -3.06459E+06    -44.7800E+06    -147.475E+06    -44.7814E+06    -147.473E+06    -3.06459E+06    -142.590E+03
            1507     83.1370E-03     9.46402E-03     82.5966E-03     110.570E-03    -55.1344E-03    -55.4444E-03    -54.6070E-03     110.042E-03    -55.4444E-03     18.6307E-03     151.590E-03     103.474E+06     908.208E+03    -39.8772E+06    -116.652E+06    -39.8871E+06    -116.642E+06     908.208E+03     543.374E+03
            1508     83.2716E-03     10.4115E-03     82.6182E-03     110.619E-03    -55.2163E-03    -55.4316E-03    -54.5799E-03     109.909E-03    -55.3577E-03     21.5895E-03     162.651E-03     68.2016E+06     1.79156E+06    -35.6673E+06    -76.1045E+06    -35.7436E+06    -76.0282E+06     1.79156E+06     1.27913E+06
            1509     83.4198E-03     11.3580E-03     82.6429E-03     110.731E-03    -55.2534E-03    -55.5132E-03    -54.4001E-03     109.618E-03    -55.2534E-03     26.8809E-03     176.529E-03     43.3529E+06     6.64150E+06    -14.7903E+06    -41.5511E+06    -32.2155E+06    -20.3987E+06     2.91424E+06     1.90463E+06
            1510     83.5867E-03     12.3050E-03     82.6760E-03     111.076E-03    -55.0944E-03    -56.0460E-03    -54.2139E-03     109.244E-03    -55.0944E-03     34.5500E-03     191.661E-03     83.4022E+06     62.5410E+06     6.97415E+06    -29.9256E+06    -29.8266E+06     62.4420E+06     6.97415E+06     2.47200E+06
            1511     83.7735E-03     13.2517E-03     82.7187E-03     112.382E-03    -55.0042E-03    -57.4855E-03    -54.1286E-03     109.026E-03    -55.0042E-03     46.6472E-03     205.956E-03     144.026E+06     134.569E+06     23.3003E+06    -27.9085E+06    -27.8610E+06     134.521E+06     23.3003E+06     2.37214E+06
            1512     83.9875E-03     14.1988E-03     82.7786E-03     112.067E-03    -55.1226E-03    -57.0079E-03    -53.5034E-03     108.562E-03    -55.1226E-03     47.7610E-03     205.893E-03     160.312E+06     160.218E+06     64.0146E+06    -22.8605E+06    -22.8259E+06     160.184E+06     64.0146E+06     2.39330E+06
            1513     84.1978E-03     15.1475E-03     82.8241E-03     114.246E-03    -55.3090E-03    -58.9438E-03    -53.4434E-03     108.746E-03    -55.3090E-03     58.5326E-03     223.093E-03     163.637E+06     169.436E+06     108.253E+06    -15.4704E+06    -15.4250E+06     169.391E+06     108.253E+06     2.77101E+06
            1514     84.4552E-03     16.0950E-03     82.9074E-03     113.326E-03    -54.5228E-03    -58.8388E-03    -53.6658E-03     109.005E-03    -55.3738E-03     43.8126E-03     202.583E-03     166.011E+06     176.108E+06     130.687E+06    -7.86013E+06    -7.83590E+06     176.084E+06     130.687E+06     1.74315E+06
            1515     83.6240E-03     946.089E-06     83.6186E-03     110.876E-03    -55.3360E-03    -55.5438E-03    -55.4980E-03     110.868E-03    -55.3741E-03     2.05491E-03     111.836E-03     201.518E+06    -93.4418E+06    -98.3008E+06    -297.333E+06    -97.6690E+06    -297.332E+06    -94.0751E+06     283.214E+03
            1516     83.6435E-03     1.89276E-03     83.6220E-03     110.946E-03    -55.4464E-03    -55.5039E-03    -55.4322E-03     110.925E-03    -55.4964E-03     3.70531E-03     112.746E-03     205.760E+06    -82.2927E+06    -93.3930E+06    -293.351E+06    -93.3952E+06    -293.348E+06    -82.2927E+06     577.494E+03
            1517     83.6748E-03     2.83872E-03     83.6266E-03     110.999E-03    -55.4627E-03    -55.5531E-03    -55.4253E-03     110.954E-03    -55.5456E-03     5.40408E-03     114.418E-03     205.587E+06    -67.6955E+06    -87.3109E+06    -282.336E+06    -87.3148E+06    -282.332E+06    -67.6955E+06     696.581E+03
            1518     83.7189E-03     3.78497E-03     83.6332E-03     110.963E-03    -55.3899E-03    -55.5946E-03    -55.3139E-03     110.887E-03    -55.5946E-03     7.06463E-03     116.737E-03     205.734E+06    -51.3979E+06    -80.5308E+06    -270.102E+06    -80.5360E+06    -270.097E+06    -51.3979E+06     816.637E+03
            1519     83.7757E-03     4.73153E-03     83.6419E-03     110.996E-03    -55.3855E-03    -55.6295E-03    -55.2709E-03     110.881E-03    -55.6295E-03     8.69144E-03     120.001E-03     205.067E+06    -35.7416E+06    -72.7628E+06    -256.772E+06    -72.7669E+06    -256.768E+06    -35.7416E+06     424.909E+03
            1520     83.8447E-03     5.67771E-03     83.6522E-03     110.953E-03    -55.3468E-03    -55.6172E-03    -55.1852E-03     110.792E-03    -55.6172E-03     10.3273E-03     124.035E-03     191.455E+06    -23.8275E+06    -64.5509E+06    -232.346E+06    -64.5595E+06    -232.338E+06    -23.8275E+06    -738.033E+03
            1521     83.9262E-03     6.62419E-03     83.6644E-03     110.851E-03    -55.2650E-03    -55.5868E-03    -55.0463E-03     110.632E-03    -55.5868E-03     12.0145E-03     129.041E-03     170.628E+06    -15.8190E+06    -57.0510E+06    -203.272E+06    -57.0689E+06    -203.254E+06    -15.8190E+06    -1.47523E+06
            1522     84.0196E-03     7.57100E-03     83.6778E-03     110.763E-03    -55.2331E-03    -55.5476E-03    -54.9389E-03     110.469E-03    -55.5476E-03     13.9234E-03     135.195E-03     149.956E+06    -10.0521E+06    -50.6688E+06    -176.114E+06    -50.6875E+06    -176.095E+06    -10.0521E+06    -1.42678E+06
            1523     84.1266E-03     8.51759E-03     83.6943E-03     110.728E-03    -55.2461E-03    -55.5004E-03    -54.8511E-03     110.333E-03    -55.5004E-03     16.1334E-03     142.928E-03     128.322E+06    -4.67264E+06    -45.1744E+06    -148.310E+06    -45.1880E+06    -148.296E+06    -4.67264E+06    -1.02948E+06
            1524     84.2458E-03     9.46436E-03     83.7125E-03     110.650E-03    -55.2236E-03    -55.4415E-03    -54.7077E-03     110.135E-03    -55.4415E-03     18.4339E-03     151.752E-03     103.101E+06    -466.052E+03    -40.0465E+06    -117.405E+06    -40.0554E+06    -117.396E+06    -466.052E+03    -339.301E+03
            1525     84.3786E-03     10.4110E-03     83.7339E-03     110.540E-03    -55.1680E-03    -55.4073E-03    -54.5039E-03     109.826E-03    -55.3577E-03     21.6055E-03     162.539E-03     67.8614E+06     703.004E+03    -35.5478E+06    -76.8320E+06    -35.5744E+06    -76.8055E+06     703.004E+03     533.323E+03
            1526     84.5266E-03     11.3578E-03     83.7601E-03     110.866E-03    -55.1845E-03    -55.7164E-03    -54.5269E-03     109.749E-03    -55.2577E-03     26.9740E-03     176.636E-03     42.7134E+06     5.70910E+06    -14.9245E+06    -41.8490E+06    -31.9576E+06    -21.3172E+06     2.21036E+06     1.38497E+06
            1527     84.6904E-03     12.3045E-03     83.7918E-03     111.332E-03    -55.1077E-03    -56.2848E-03    -54.4125E-03     109.460E-03    -55.1077E-03     34.9256E-03     191.815E-03     81.5126E+06     61.2519E+06     6.33545E+06    -28.8146E+06    -28.7135E+06     61.1508E+06     6.33545E+06     2.95043E+06
            1528     84.8771E-03     13.2518E-03     83.8363E-03     112.208E-03    -55.0696E-03    -57.2388E-03    -53.8965E-03     108.866E-03    -55.0696E-03     46.6085E-03     205.891E-03     141.927E+06     134.469E+06     25.4029E+06    -25.6836E+06    -25.5844E+06     134.369E+06     25.4029E+06     3.74402E+06
            1529     85.0871E-03     14.1992E-03     83.8940E-03     112.066E-03    -55.1772E-03    -56.9526E-03    -53.4582E-03     108.572E-03    -55.1772E-03     47.7704E-03     205.989E-03     159.317E+06     159.783E+06     65.9021E+06    -22.4030E+06    -22.3491E+06     159.729E+06     65.9021E+06     2.82183E+06
            1530     85.2951E-03     15.1468E-03     83.9394E-03     114.433E-03    -55.3093E-03    -59.1420E-03    -53.6547E-03     108.946E-03    -55.3093E-03     58.7036E-03     223.202E-03     163.669E+06     168.846E+06     107.358E+06    -16.2384E+06    -16.2049E+06     168.813E+06     107.358E+06     2.34914E+06
            1531     85.5518E-03     16.0950E-03     84.0242E-03     113.256E-03    -54.5059E-03    -58.8375E-03    -53.7061E-03     108.998E-03    -55.3791E-03     43.5441E-03     202.616E-03     167.131E+06     177.969E+06     130.776E+06    -7.65846E+06    -7.63337E+06     177.944E+06     130.776E+06     1.86138E+06
            1532     84.7401E-03     946.464E-06     84.7348E-03     110.890E-03    -55.2641E-03    -55.6293E-03    -55.6077E-03     110.883E-03    -55.2785E-03     2.08450E-03     111.804E-03     200.581E+06    -96.3043E+06    -100.222E+06    -298.804E+06    -99.5914E+06    -298.802E+06    -96.9377E+06     90.2759E+03
            1533     84.7587E-03     1.89235E-03     84.7376E-03     110.921E-03    -55.4163E-03    -55.5114E-03    -55.4163E-03     110.900E-03    -55.4910E-03     3.56278E-03     112.716E-03     203.536E+06    -85.2964E+06    -95.2468E+06    -293.579E+06    -95.2475E+06    -293.578E+06    -85.2964E+06     366.704E+03
            1534     84.7905E-03     2.83892E-03     84.7429E-03     110.934E-03    -55.4172E-03    -55.5414E-03    -55.3738E-03     110.891E-03    -55.5414E-03     5.30866E-03     114.314E-03     204.741E+06    -68.7214E+06    -89.1859E+06    -282.859E+06    -89.1885E+06    -282.856E+06    -68.7214E+06     457.612E+03
            1535     84.8338E-03     3.78509E-03     84.7493E-03     111.055E-03    -55.4792E-03    -55.5995E-03    -55.4038E-03     110.979E-03    -55.5995E-03     7.03302E-03     116.773E-03     205.571E+06    -50.9548E+06    -81.3889E+06    -270.019E+06    -81.3918E+06    -270.016E+06    -50.9548E+06     302.698E+03
            1536     84.8900E-03     4.73117E-03     84.7580E-03     111.052E-03    -55.4337E-03    -55.6380E-03    -55.3188E-03     110.937E-03    -55.6380E-03     8.70661E-03     120.025E-03     202.792E+06    -36.6810E+06    -72.9712E+06    -255.156E+06    -72.9790E+06    -255.148E+06    -36.6810E+06    -670.189E+03
            1537     84.9583E-03     5.67763E-03     84.7683E-03     110.861E-03    -55.2561E-03    -55.6139E-03    -55.0937E-03     110.698E-03    -55.6139E-03     10.3466E-03     123.925E-03     188.652E+06    -25.9908E+06    -64.7120E+06    -230.984E+06    -64.7465E+06    -230.950E+06    -25.9908E+06    -2.12306E+06
            1538     85.0386E-03     6.62448E-03     84.7802E-03     110.808E-03    -55.2263E-03    -55.5739E-03    -55.0086E-03     110.590E-03    -55.5739E-03     11.9894E-03     128.962E-03     168.720E+06    -17.7653E+06    -57.3530E+06    -202.743E+06    -57.4069E+06    -202.689E+06    -17.7653E+06    -2.71935E+06
            1539     85.1316E-03     7.57088E-03     84.7943E-03     110.778E-03    -55.2561E-03    -55.5376E-03    -54.9688E-03     110.490E-03    -55.5376E-03     13.7658E-03     135.243E-03     148.801E+06    -11.8044E+06    -50.8766E+06    -176.232E+06    -50.9355E+06    -176.173E+06    -11.8044E+06    -2.62015E+06
            1540     85.2366E-03     8.51748E-03     84.8100E-03     110.767E-03    -55.2911E-03    -55.4972E-03    -54.8973E-03     110.374E-03    -55.4972E-03     16.0964E-03     142.980E-03     127.887E+06    -6.30316E+06    -45.1793E+06    -149.068E+06    -45.2306E+06    -149.016E+06    -6.30316E+06    -2.22012E+06
            1541     85.3553E-03     9.46403E-03     84.8290E-03     110.744E-03    -55.3144E-03    -55.4444E-03    -54.8042E-03     110.233E-03    -55.4444E-03     18.3558E-03     151.891E-03     102.829E+06    -1.90798E+06    -40.0235E+06    -118.283E+06    -40.0604E+06    -118.246E+06    -1.90798E+06    -1.55472E+06
            1542     85.4861E-03     10.4108E-03     84.8498E-03     110.570E-03    -55.2246E-03    -55.3856E-03    -54.5372E-03     109.862E-03    -55.3655E-03     21.4958E-03     162.587E-03     67.9745E+06    -920.262E+03    -35.5650E+06    -78.5972E+06    -35.5891E+06    -78.5732E+06    -920.262E+03    -546.321E+03
            1543     85.6320E-03     11.3584E-03     84.8753E-03     110.876E-03    -55.1926E-03    -55.7180E-03    -54.5100E-03     109.741E-03    -55.2658E-03     27.1870E-03     176.569E-03     42.3875E+06     4.49827E+06    -15.3978E+06    -42.9147E+06    -31.9468E+06    -22.7226E+06     855.108E+03     832.588E+03
            1544     85.7964E-03     12.3046E-03     84.9095E-03     111.183E-03    -55.1076E-03    -56.1315E-03    -54.2713E-03     109.323E-03    -55.1076E-03     34.8262E-03     191.715E-03     79.3844E+06     58.6641E+06     4.59744E+06    -28.9562E+06    -28.8838E+06     58.5916E+06     4.59744E+06     2.46589E+06
            1545     85.9784E-03     13.2512E-03     84.9511E-03     111.983E-03    -55.0518E-03    -57.0300E-03    -53.6980E-03     108.651E-03    -55.0518E-03     46.4296E-03     205.804E-03     140.790E+06     132.876E+06     22.9188E+06    -25.5472E+06    -25.4512E+06     132.780E+06     22.9188E+06     3.84709E+06
            1546     86.1879E-03     14.2000E-03     85.0101E-03     112.270E-03    -55.1700E-03    -57.1628E-03    -53.6483E-03     108.756E-03    -55.1700E-03     47.9464E-03     206.153E-03     159.201E+06     160.961E+06     66.2210E+06    -20.6835E+06    -20.6003E+06     160.878E+06     66.2210E+06     3.78470E+06
            1547     86.3948E-03     15.1471E-03     85.0566E-03     114.738E-03    -55.3239E-03    -59.4211E-03    -53.9431E-03     109.260E-03    -55.3239E-03     58.7567E-03     223.470E-03     163.062E+06     169.391E+06     108.959E+06    -14.8839E+06    -14.8202E+06     169.328E+06     108.959E+06     3.19889E+06
            1548     86.6475E-03     16.0939E-03     85.1397E-03     113.144E-03    -54.3279E-03    -58.8803E-03    -53.5675E-03     108.893E-03    -55.3896E-03     43.6412E-03     202.577E-03     168.660E+06     179.443E+06     131.304E+06    -8.03709E+06    -7.99859E+06     179.404E+06     131.304E+06     2.29278E+06
            1549     85.8559E-03     946.052E-06     85.8507E-03     111.048E-03    -55.2996E-03    -55.7514E-03    -55.6765E-03     111.042E-03    -55.3683E-03     1.88360E-03     111.892E-03     200.422E+06    -96.6705E+06    -100.718E+06    -299.070E+06    -100.174E+06    -299.066E+06    -97.2182E+06     270.144E+03
            1550     85.8748E-03     1.89245E-03     85.8539E-03     110.962E-03    -55.3993E-03    -55.5700E-03    -55.4000E-03     110.943E-03    -55.5497E-03     3.50530E-03     112.719E-03     202.263E+06    -86.2752E+06    -96.2900E+06    -293.316E+06    -96.2913E+06    -293.315E+06    -86.2752E+06     168.671E+03
            1551     85.9053E-03     2.83856E-03     85.8584E-03     110.944E-03    -55.3938E-03    -55.5709E-03    -55.3491E-03     110.899E-03    -55.5709E-03     5.36285E-03     114.283E-03     203.718E+06    -70.1284E+06     -90.082E+06    -283.028E+06    -90.0829E+06    -283.027E+06    -70.1284E+06    -212.751E+03
            1552     85.9490E-03     3.78503E-03     85.8657E-03     111.011E-03    -55.4232E-03    -55.6089E-03    -55.3453E-03     110.934E-03    -55.6089E-03     7.15082E-03     116.670E-03     203.728E+06    -52.4724E+06    -82.3152E+06    -269.442E+06    -82.3208E+06    -269.436E+06    -52.4724E+06    -723.599E+03
            1553     86.0046E-03     4.73123E-03     85.8744E-03     111.009E-03    -55.3941E-03    -55.6301E-03    -55.2796E-03     110.894E-03    -55.6301E-03     8.69672E-03     119.952E-03     199.058E+06    -38.3248E+06    -73.8285E+06    -252.736E+06    -73.8665E+06    -252.698E+06    -38.3248E+06    -2.17915E+06
            1554     86.0718E-03     5.67783E-03     85.8843E-03     110.905E-03    -55.3053E-03    -55.6047E-03    -55.1437E-03     110.744E-03    -55.6047E-03     10.3194E-03     123.945E-03     185.155E+06    -28.1146E+06    -65.5886E+06    -229.128E+06    -65.6819E+06    -229.034E+06    -28.1146E+06    -3.71402E+06
            1555     86.1517E-03     6.62409E-03     85.8967E-03     110.858E-03    -55.2776E-03    -55.5730E-03    -55.0603E-03     110.641E-03    -55.5730E-03     11.9837E-03     128.986E-03     166.427E+06    -20.2055E+06    -58.1550E+06    -202.319E+06    -58.2905E+06    -202.183E+06    -20.2055E+06    -4.29431E+06
            1556     86.2433E-03     7.57080E-03     85.9103E-03     110.785E-03    -55.2566E-03    -55.5401E-03    -54.9705E-03     110.499E-03    -55.5401E-03     13.7349E-03     135.211E-03     147.147E+06    -14.1504E+06    -51.6248E+06    -176.398E+06    -51.7703E+06    -176.252E+06    -14.1504E+06    -4.15788E+06
            1557     86.3474E-03     8.51749E-03     85.9263E-03     110.750E-03    -55.2666E-03    -55.4992E-03    -54.8671E-03     110.351E-03    -55.4992E-03     16.2009E-03     142.897E-03     126.663E+06    -8.23378E+06    -45.7951E+06    -149.386E+06     -45.933E+06    -149.248E+06    -8.23378E+06    -3.66457E+06
            1558     86.4649E-03     9.46406E-03     85.9454E-03     110.786E-03    -55.3068E-03    -55.5005E-03    -54.8472E-03     110.273E-03    -55.4465E-03     18.4317E-03     151.888E-03     102.173E+06    -3.86191E+06    -40.4785E+06    -119.235E+06    -40.5940E+06    -119.120E+06    -3.86191E+06    -2.91490E+06
            1559     86.5938E-03     10.4108E-03     85.9657E-03     110.816E-03    -55.3317E-03    -55.5256E-03    -54.7826E-03     110.122E-03    -55.3803E-03     21.3374E-03     162.919E-03     67.7026E+06    -2.64361E+06    -35.7387E+06    -79.9990E+06    -35.8161E+06    -79.9216E+06    -2.64361E+06    -1.70462E+06
            1560     86.7386E-03     11.3569E-03     85.9919E-03     110.780E-03    -55.2871E-03    -55.5359E-03    -54.3987E-03     109.643E-03    -55.2875E-03     27.1503E-03     176.638E-03     41.2606E+06     1.95925E+06    -16.6532E+06    -44.2225E+06    -32.3922E+06    -25.4097E+06    -1.11459E+06     245.979E+03
            1561     86.9012E-03     12.3044E-03     86.0257E-03     110.713E-03    -55.1071E-03    -55.6864E-03    -53.8511E-03     108.878E-03    -55.1076E-03     34.5438E-03     191.372E-03     77.4341E+06     55.3761E+06     2.34595E+06    -29.9125E+06    -29.8509E+06     55.3146E+06     2.34595E+06     2.18146E+06
            1562     87.0812E-03     13.2528E-03     86.0668E-03     112.064E-03    -55.0387E-03    -57.1327E-03    -53.8214E-03     108.752E-03    -55.0387E-03     46.2603E-03     205.847E-03     141.136E+06     131.253E+06     20.5944E+06    -27.4408E+06    -27.3548E+06     131.167E+06     20.5944E+06     3.63576E+06
            1563     87.2890E-03     14.1990E-03     86.1264E-03     112.432E-03    -55.1642E-03    -57.3288E-03    -53.8102E-03     108.913E-03    -55.1642E-03     48.0107E-03     206.208E-03     162.558E+06     161.596E+06     63.5911E+06    -23.9473E+06    -23.8182E+06     161.467E+06     63.5911E+06     4.77285E+06
            1564     87.4940E-03     15.1466E-03     86.1729E-03     114.479E-03    -55.3204E-03    -59.1861E-03    -53.6883E-03     108.981E-03    -55.3204E-03     58.7108E-03     223.231E-03     166.472E+06     170.542E+06     107.584E+06    -17.7609E+06    -17.6545E+06     170.436E+06     107.584E+06     4.06159E+06
            1565     87.7450E-03     16.0949E-03     86.2562E-03     113.058E-03    -54.3668E-03    -58.7569E-03    -53.4569E-03     108.775E-03    -55.3837E-03     43.7106E-03     202.447E-03     171.153E+06     181.115E+06     132.022E+06    -9.20389E+06    -9.17124E+06     181.082E+06     132.022E+06     1.88309E+06
            1566     86.9723E-03     945.989E-06     86.9671E-03     111.052E-03    -55.3813E-03    -55.6707E-03    -55.5944E-03     111.044E-03    -55.4500E-03     2.09014E-03     111.831E-03     199.215E+06    -98.0933E+06    -102.034E+06    -299.232E+06    -101.490E+06    -299.228E+06     -98.641E+06     98.5064E+03
            1567     86.9902E-03     1.89224E-03     86.9696E-03     111.023E-03    -55.4434E-03    -55.5863E-03    -55.4456E-03     111.002E-03    -55.5629E-03     3.66716E-03     112.694E-03     201.819E+06    -86.8157E+06    -97.1729E+06    -293.575E+06    -97.1748E+06    -293.573E+06    -86.8157E+06    -96.1939E+03
            1568     87.0212E-03     2.83868E-03     86.9749E-03     111.008E-03    -55.4351E-03    -55.5892E-03    -55.3884E-03     110.961E-03    -55.5892E-03     5.48070E-03     114.291E-03     201.978E+06    -71.0538E+06    -90.8427E+06    -282.140E+06    -90.8449E+06    -282.138E+06    -71.0538E+06    -349.128E+03
            1569     87.0640E-03     3.78478E-03     86.9817E-03     110.943E-03    -55.3471E-03    -55.6123E-03    -55.2684E-03     110.864E-03    -55.6123E-03     7.19886E-03     116.586E-03     199.962E+06    -54.6546E+06    -83.1938E+06    -267.327E+06    -83.2340E+06    -267.287E+06    -54.6546E+06    -2.03010E+06
            1570     87.1190E-03     4.73144E-03     86.9905E-03     110.962E-03    -55.3549E-03    -55.6185E-03    -55.2413E-03     110.848E-03    -55.6185E-03     8.65400E-03     119.896E-03     194.901E+06    -40.7660E+06    -74.5534E+06    -250.336E+06    -74.6641E+06    -250.225E+06    -40.7660E+06    -4.16358E+06
            1571     87.1854E-03     5.67754E-03     87.0004E-03     110.970E-03    -55.3765E-03    -55.5966E-03    -55.2137E-03     110.808E-03    -55.5966E-03     10.3583E-03     124.000E-03     181.285E+06    -30.1823E+06    -66.4723E+06    -226.853E+06    -66.6704E+06    -226.655E+06    -30.1823E+06    -5.47217E+06
            1572     87.2645E-03     6.62414E-03     87.0127E-03     110.874E-03    -55.3004E-03    -55.5753E-03    -55.0805E-03     110.654E-03    -55.5753E-03     12.0584E-03     129.017E-03     163.857E+06    -22.3539E+06    -59.0070E+06    -201.428E+06    -59.2958E+06    -201.139E+06    -22.3539E+06    -6.28147E+06
            1573     87.3549E-03     7.57066E-03     87.0262E-03     110.807E-03    -55.2788E-03    -55.5418E-03    -54.9863E-03     110.515E-03    -55.5418E-03     13.8860E-03     135.176E-03     145.346E+06    -16.6309E+06    -52.2654E+06    -176.468E+06    -52.5834E+06    -176.150E+06    -16.6309E+06    -6.16469E+06
            1574     87.4583E-03     8.51719E-03     87.0425E-03     110.828E-03    -55.3230E-03    -55.5207E-03    -54.9436E-03     110.431E-03    -55.5033E-03     16.1744E-03     142.940E-03     125.020E+06    -10.6824E+06    -46.2868E+06    -149.598E+06    -46.5928E+06    -149.291E+06    -10.6824E+06    -5.51371E+06
            1575     87.5743E-03     9.46414E-03     87.0614E-03     110.848E-03    -55.3400E-03    -55.5287E-03    -54.9021E-03     110.338E-03    -55.4572E-03     18.3492E-03     151.927E-03     101.439E+06    -6.22576E+06    -40.8880E+06    -120.410E+06    -41.1623E+06    -120.135E+06    -6.22576E+06    -4.56691E+06
            1576     87.7029E-03     10.4102E-03     87.0829E-03     110.749E-03    -55.2727E-03    -55.5146E-03    -54.6882E-03     110.040E-03    -55.3894E-03     21.5509E-03     162.851E-03     67.5430E+06    -5.42059E+06    -36.8285E+06    -82.4288E+06    -37.0098E+06    -82.2475E+06    -5.42059E+06    -2.80279E+06
            1577     87.8454E-03     11.3572E-03     87.1081E-03     110.635E-03    -55.2118E-03    -55.4686E-03    -54.2393E-03     109.480E-03    -55.2856E-03     27.3655E-03     176.506E-03     39.6622E+06    -1.46637E+06    -18.7703E+06    -45.8029E+06    -33.4762E+06    -28.6828E+06    -3.88067E+06    -464.377E+03
            1578     88.0054E-03     12.3047E-03     87.1409E-03     110.782E-03    -55.0994E-03    -55.7723E-03    -53.9172E-03     108.928E-03    -55.0998E-03     34.7458E-03     191.327E-03     75.5610E+06     52.1707E+06    -232.476E+03    -30.7940E+06    -30.6986E+06     52.0753E+06    -232.476E+03     2.45895E+06
            1579     88.1844E-03     13.2514E-03     87.1831E-03     112.217E-03    -55.0380E-03    -57.2929E-03    -53.9544E-03     108.879E-03    -55.0380E-03     46.4928E-03     205.856E-03     141.221E+06     129.478E+06     17.9827E+06    -29.0615E+06    -28.8827E+06     129.299E+06     17.9827E+06     5.15497E+06
            1580     88.3915E-03     14.1994E-03     87.2435E-03     112.293E-03    -55.1600E-03    -57.1870E-03    -53.6682E-03     108.775E-03    -55.1600E-03     47.9527E-03     206.022E-03     164.002E+06     161.900E+06     61.0915E+06    -25.3708E+06    -25.1926E+06     161.722E+06     61.0915E+06     5.64942E+06
            1581     88.5928E-03     15.1469E-03     87.2883E-03     114.260E-03    -55.3079E-03    -58.9584E-03    -53.4602E-03     108.762E-03    -55.3079E-03     58.5963E-03     223.047E-03     168.337E+06     172.866E+06     106.949E+06    -17.9163E+06    -17.8374E+06     172.787E+06     106.949E+06     3.25748E+06
            1582     88.8419E-03     16.0950E-03     87.3719E-03     113.067E-03    -54.4233E-03    -58.6927E-03    -53.4488E-03     108.775E-03    -55.3751E-03     43.6038E-03     202.437E-03     172.350E+06     183.021E+06     132.953E+06    -8.79315E+06    -8.78717E+06     183.015E+06     132.953E+06     686.798E+03
            1583     88.0878E-03     946.536E-06     88.0827E-03     110.902E-03    -55.3257E-03    -55.5769E-03    -55.5691E-03     110.895E-03    -55.3257E-03     2.13739E-03     111.609E-03     196.248E+06    -101.390E+06    -104.743E+06    -299.274E+06    -104.634E+06    -299.272E+06    -101.501E+06    -564.123E+03
            1584     88.1064E-03     1.89250E-03     88.0861E-03     111.081E-03    -55.5067E-03    -55.5791E-03    -55.5399E-03     111.059E-03    -55.5244E-03     3.70367E-03     112.682E-03     199.583E+06    -89.2606E+06    -99.4854E+06    -293.719E+06    -99.4946E+06    -293.710E+06    -89.2606E+06    -850.325E+03
            1585     88.1364E-03     2.83844E-03     88.0907E-03     111.028E-03    -55.4506E-03    -55.5922E-03    -55.4141E-03     110.982E-03    -55.5823E-03     5.47487E-03     114.283E-03     197.922E+06    -73.8489E+06    -92.5191E+06    -280.401E+06    -92.5511E+06    -280.369E+06    -73.8489E+06     -1.7153E+06
            1586     88.1790E-03     3.78494E-03     88.0978E-03     110.942E-03    -55.3509E-03    -55.6054E-03    -55.2721E-03     110.863E-03    -55.6054E-03     7.19735E-03     116.587E-03     194.219E+06    -57.5061E+06    -84.0207E+06    -263.590E+06    -84.1230E+06    -263.488E+06    -57.5061E+06    -3.87367E+06
            1587     88.2332E-03     4.73108E-03     88.1063E-03     110.952E-03    -55.3478E-03    -55.6120E-03    -55.2315E-03     110.836E-03    -55.6120E-03     8.75602E-03     119.879E-03     189.954E+06    -43.4842E+06    -75.5093E+06    -247.402E+06    -75.7429E+06    -247.168E+06    -43.4842E+06    -6.13096E+06
            1588     88.2998E-03     5.67776E-03     88.1170E-03     110.916E-03    -55.3274E-03    -55.5845E-03    -55.1626E-03     110.751E-03    -55.5845E-03     10.4285E-03     123.947E-03     177.010E+06    -32.6407E+06    -67.3481E+06    -224.419E+06    -67.7341E+06    -224.033E+06    -32.6407E+06    -7.59027E+06
            1589     88.3773E-03     6.62405E-03     88.1288E-03     110.881E-03    -55.3117E-03    -55.5655E-03    -55.0913E-03     110.660E-03    -55.5655E-03     12.0738E-03     129.032E-03     160.653E+06    -24.8035E+06    -59.8670E+06    -200.087E+06    -60.4027E+06    -199.552E+06    -24.8035E+06    -8.51773E+06
            1590     88.4671E-03     7.57070E-03     88.1425E-03     110.871E-03    -55.3465E-03    -55.5368E-03    -55.0492E-03     110.573E-03    -55.5368E-03     13.9999E-03     135.212E-03     143.083E+06    -19.4265E+06    -52.9966E+06    -176.304E+06    -53.6127E+06    -175.688E+06    -19.4265E+06    -8.58188E+06
            1591     88.5693E-03     8.51724E-03     88.1588E-03     110.959E-03    -55.4358E-03    -55.5405E-03    -55.0618E-03     110.550E-03    -55.5056E-03     16.4258E-03     143.024E-03     123.493E+06    -13.2907E+06    -46.7663E+06    -150.027E+06    -47.3475E+06    -149.446E+06    -13.2907E+06    -7.64010E+06
            1592     88.6843E-03     9.46300E-03     88.1780E-03     110.816E-03    -55.3333E-03    -55.5003E-03    -54.8497E-03     110.297E-03    -55.4654E-03     18.5113E-03     151.947E-03     100.854E+06    -8.77977E+06    -41.7330E+06    -121.952E+06    -42.2368E+06    -121.448E+06    -8.77977E+06    -6.28191E+06
            1593     88.8109E-03     10.4106E-03     88.1986E-03     110.460E-03    -55.1181E-03    -55.3828E-03    -54.4103E-03     109.752E-03    -55.3828E-03     21.4907E-03     162.553E-03     68.0662E+06    -8.22978E+06    -37.3510E+06    -85.7030E+06    -37.7445E+06    -85.3094E+06    -8.22978E+06    -4.23267E+06
            1594     88.9519E-03     11.3578E-03     88.2238E-03     110.634E-03    -55.1343E-03    -55.5398E-03    -54.2778E-03     109.505E-03    -55.2670E-03     27.0843E-03     176.436E-03     39.5506E+06     -3.7849E+06    -19.7271E+06    -48.1650E+06    -33.8205E+06    -31.4949E+06    -6.36153E+06    -1.53931E+06
            1595     89.1106E-03     12.3046E-03     88.2570E-03     111.016E-03    -55.0930E-03    -55.9985E-03    -54.1495E-03     109.167E-03    -55.0930E-03     34.6961E-03     191.571E-03     72.0036E+06     47.7600E+06    -2.83770E+06    -31.1770E+06    -31.0776E+06     47.6606E+06    -2.83770E+06     2.37945E+06
            1596     89.2886E-03     13.2521E-03     88.2997E-03     112.206E-03    -55.0309E-03    -57.2873E-03    -53.9041E-03     108.823E-03    -55.0309E-03     46.7938E-03     205.838E-03     138.272E+06     126.483E+06     14.7365E+06    -27.9685E+06    -27.7491E+06     126.263E+06     14.7365E+06     5.79405E+06
            1597     89.4929E-03     14.1990E-03     88.3593E-03     112.211E-03    -55.1514E-03    -57.1070E-03    -53.5860E-03     108.690E-03    -55.1514E-03     47.8930E-03     206.003E-03     163.487E+06     163.540E+06     60.0546E+06    -22.5996E+06    -22.4506E+06     163.391E+06     60.0546E+06     4.92637E+06
            1598     89.6925E-03     15.1471E-03     88.4043E-03     114.349E-03    -55.3090E-03    -59.0218E-03    -53.5584E-03     108.886E-03    -55.3090E-03     58.3910E-03     223.097E-03     168.051E+06     175.571E+06     108.424E+06    -15.1295E+06    -15.0930E+06     175.534E+06     108.424E+06     2.47239E+06
            1599     89.9398E-03     16.0947E-03     88.4880E-03     113.093E-03    -54.3550E-03    -58.7563E-03    -53.4538E-03     108.811E-03    -55.3754E-03     43.5784E-03     202.440E-03     172.226E+06     184.716E+06     133.856E+06    -7.17579E+06    -7.16583E+06     184.706E+06     133.856E+06     987.001E+03
            1600     89.2040E-03     946.090E-06     89.1990E-03     110.971E-03    -55.3216E-03    -55.6494E-03    -55.6219E-03     110.963E-03    -55.3411E-03     2.25412E-03     111.568E-03     193.840E+06    -101.487E+06    -105.299E+06    -297.185E+06    -105.201E+06    -297.172E+06    -101.598E+06    -323.138E+03
            1601     89.2223E-03     1.89234E-03     89.2022E-03     111.039E-03    -55.4727E-03    -55.5705E-03    -55.4829E-03     111.018E-03    -55.5390E-03     3.64139E-03     112.566E-03     196.587E+06    -90.4220E+06    -100.407E+06    -291.790E+06    -100.436E+06    -291.761E+06    -90.4220E+06    -2.19752E+06
            1602     89.2524E-03     2.83859E-03     89.2073E-03     111.001E-03    -55.4341E-03    -55.5774E-03    -55.3976E-03     110.955E-03    -55.5675E-03     5.48638E-03     114.220E-03     193.080E+06    -76.7539E+06     -93.251E+06    -277.525E+06    -93.3560E+06    -277.420E+06    -76.7539E+06    -4.04612E+06
            1603     89.2939E-03     3.78477E-03     89.2136E-03     110.938E-03    -55.3646E-03    -55.5862E-03    -55.2844E-03     110.857E-03    -55.5862E-03     7.24916E-03     116.577E-03     187.354E+06    -61.2447E+06    -85.3495E+06    -259.444E+06    -85.6046E+06    -259.189E+06    -61.2447E+06    -6.34379E+06
            1604     89.3482E-03     4.73128E-03     89.2229E-03     110.931E-03    -55.3429E-03    -55.5973E-03    -55.2240E-03     110.812E-03    -55.5973E-03     8.85777E-03     119.847E-03     184.009E+06    -46.4986E+06     -76.765E+06    -243.752E+06    -77.2337E+06    -243.283E+06    -46.4986E+06    -8.55799E+06
            1605     89.4130E-03     5.67747E-03     89.2326E-03     110.901E-03    -55.3249E-03    -55.5710E-03    -55.1585E-03     110.734E-03    -55.5710E-03     10.4758E-03     123.932E-03     172.336E+06    -35.5350E+06    -68.2052E+06    -221.857E+06    -68.9029E+06    -221.159E+06    -35.5350E+06    -10.1707E+06
            1606     89.4906E-03     6.62420E-03     89.2451E-03     110.929E-03    -55.3653E-03    -55.5583E-03    -55.1455E-03     110.710E-03    -55.5583E-03     12.0627E-03     129.064E-03     156.741E+06    -27.1618E+06    -60.4954E+06    -197.881E+06    -61.3812E+06    -196.995E+06    -27.1618E+06    -10.8781E+06
            1607     89.5789E-03     7.57053E-03     89.2585E-03     110.917E-03    -55.3860E-03    -55.5367E-03    -55.0908E-03     110.622E-03    -55.5367E-03     13.9503E-03     135.304E-03     140.806E+06    -21.7414E+06    -53.6818E+06    -175.770E+06    -54.7493E+06    -174.703E+06    -21.7414E+06    -11.2365E+06
            1608     89.6807E-03     8.51692E-03     89.2753E-03     110.784E-03    -55.2767E-03    -55.5136E-03    -54.8729E-03     110.363E-03    -55.4961E-03     16.6372E-03     142.862E-03     122.867E+06    -16.6703E+06    -47.5438E+06    -151.993E+06    -48.6095E+06    -150.928E+06    -16.6703E+06    -10.3832E+06
            1609     89.7945E-03     9.46404E-03     89.2943E-03     110.699E-03    -55.2185E-03    -55.5015E-03    -54.7473E-03     110.169E-03    -55.4423E-03     18.7262E-03     151.777E-03     100.242E+06    -11.9328E+06    -42.1385E+06    -123.755E+06    -43.0204E+06    -122.873E+06    -11.9328E+06    -8.35035E+06
            1610     89.9189E-03     10.4104E-03     89.3143E-03     110.636E-03    -55.2202E-03    -55.4621E-03    -54.6159E-03     109.938E-03    -55.3682E-03     21.3792E-03     162.694E-03     68.0070E+06    -10.7223E+06    -37.4715E+06    -87.8388E+06    -38.2796E+06    -87.0307E+06    -10.7223E+06    -6.12529E+06
            1611     90.0589E-03     11.3573E-03     89.3399E-03     110.818E-03    -55.2079E-03    -55.6451E-03    -54.4607E-03     109.693E-03    -55.2672E-03     27.0392E-03     176.544E-03     37.7113E+06    -7.85445E+06    -21.6494E+06    -49.9762E+06    -34.3909E+06    -35.6109E+06    -9.47829E+06    -2.82811E+06
            1612     90.2163E-03     12.3044E-03     89.3733E-03     111.009E-03    -55.1034E-03    -55.9660E-03    -54.1561E-03     109.199E-03    -55.1034E-03     34.3681E-03     191.610E-03     67.2517E+06     42.4310E+06    -5.40083E+06    -30.8953E+06    -30.8302E+06     42.3658E+06    -5.40083E+06     1.30408E+06
            1613     90.3918E-03     13.2513E-03     89.4152E-03     112.036E-03    -55.0279E-03    -57.1088E-03    -53.7578E-03     108.685E-03    -55.0279E-03     46.4433E-03     205.695E-03     136.074E+06     124.150E+06     11.7781E+06    -27.0458E+06    -26.9238E+06     124.028E+06     11.7781E+06     4.14543E+06
            1614     90.5954E-03     14.1996E-03     89.4757E-03     112.151E-03    -55.1387E-03    -57.0592E-03    -53.5373E-03     108.629E-03    -55.1387E-03     47.8557E-03     205.879E-03     164.888E+06     165.261E+06     57.6773E+06    -21.9234E+06    -21.8289E+06     165.166E+06     57.6773E+06     3.93384E+06
            1615     90.7930E-03     15.1467E-03     89.5206E-03     114.400E-03    -55.3087E-03    -59.0529E-03    -53.5921E-03     108.939E-03    -55.3087E-03     58.3515E-03     223.242E-03     169.235E+06     176.908E+06     107.792E+06    -15.3130E+06    -15.2821E+06     176.877E+06     107.792E+06     2.36801E+06
            1616     91.0384E-03     16.0947E-03     89.6044E-03     113.055E-03    -54.3102E-03    -58.7438E-03    -53.3876E-03     108.765E-03    -55.3760E-03     43.6128E-03     202.531E-03     173.238E+06     185.579E+06     133.642E+06    -7.65577E+06    -7.64105E+06     185.564E+06     133.642E+06     1.65631E+06
            1617     90.3201E-03     946.133E-06     90.3152E-03     111.058E-03    -55.3799E-03    -55.6765E-03    -55.6384E-03     111.048E-03    -55.4084E-03     2.46470E-03     111.576E-03     191.008E+06    -102.105E+06    -105.589E+06    -294.828E+06    -104.729E+06    -294.810E+06    -102.982E+06    -505.273E+03
            1618     90.3381E-03     1.89224E-03     90.3183E-03     111.021E-03    -55.4689E-03    -55.5571E-03    -55.4470E-03     110.999E-03    -55.5571E-03     3.73455E-03     112.508E-03     191.191E+06    -92.1103E+06    -101.004E+06    -287.559E+06    -101.085E+06    -287.479E+06    -92.1103E+06    -3.44997E+06
            1619     90.3678E-03     2.83860E-03     90.3232E-03     110.963E-03    -55.4102E-03    -55.5633E-03    -55.3641E-03     110.917E-03    -55.5633E-03     5.45448E-03     114.145E-03     186.944E+06    -78.7182E+06    -94.5808E+06    -273.066E+06    -94.8105E+06    -272.836E+06    -78.7182E+06    -6.05043E+06
            1620     90.4092E-03     3.78485E-03     90.3299E-03     110.898E-03    -55.3425E-03    -55.5681E-03    -55.2634E-03     110.818E-03    -55.5681E-03     7.20494E-03     116.534E-03     179.594E+06    -64.4183E+06    -86.7526E+06    -254.105E+06    -87.2578E+06    -253.600E+06    -64.4183E+06    -8.92637E+06
            1621     90.4623E-03     4.73110E-03     90.3385E-03     110.907E-03    -55.3430E-03    -55.5778E-03    -55.2228E-03     110.787E-03    -55.5778E-03     8.89268E-03     119.831E-03     177.047E+06    -50.2800E+06    -78.5065E+06    -239.730E+06    -79.3661E+06    -238.870E+06    -50.2800E+06    -11.5370E+06
            1622     90.5272E-03     5.67770E-03     90.3490E-03     110.930E-03    -55.3669E-03    -55.5591E-03    -55.1982E-03     110.762E-03    -55.5591E-03     10.5589E-03     123.944E-03     166.511E+06    -38.9363E+06    -70.0772E+06    -218.808E+06    -71.2755E+06    -217.609E+06    -38.9363E+06    -13.0979E+06
            1623     90.6035E-03     6.62379E-03     90.3611E-03     110.941E-03    -55.3800E-03    -55.5540E-03    -55.1533E-03     110.714E-03    -55.5540E-03     12.2337E-03     129.038E-03     152.309E+06    -30.1388E+06    -61.8595E+06    -195.803E+06    -63.3555E+06    -194.307E+06    -30.1388E+06    -13.8913E+06
            1624     90.6919E-03     7.57026E-03     90.3754E-03     110.858E-03    -55.3299E-03    -55.5303E-03    -55.0281E-03     110.556E-03    -55.5303E-03     14.1109E-03     135.257E-03     137.716E+06    -24.4750E+06    -54.3409E+06    -174.670E+06    -56.0728E+06    -172.938E+06    -24.4750E+06    -14.1907E+06
            1625     90.7913E-03     8.51706E-03     90.3909E-03     110.680E-03    -55.1950E-03    -55.4826E-03    -54.7837E-03     110.268E-03    -55.4826E-03     16.4407E-03     142.813E-03     122.019E+06    -19.9614E+06    -47.9923E+06    -153.544E+06    -49.7687E+06    -151.768E+06    -19.9614E+06    -13.4843E+06
            1626     90.9042E-03     9.46404E-03     90.4102E-03     110.633E-03    -55.1899E-03    -55.4615E-03    -54.7093E-03     110.111E-03    -55.4198E-03     18.5693E-03     151.625E-03     100.345E+06    -15.6745E+06    -42.1795E+06    -126.572E+06    -43.8283E+06    -124.923E+06    -15.6745E+06    -11.5283E+06
            1627     91.0285E-03     10.4106E-03     90.4312E-03     110.774E-03    -55.2966E-03    -55.5238E-03    -54.7709E-03     110.080E-03    -55.3550E-03     21.3508E-03     162.833E-03     68.6957E+06    -13.6633E+06    -37.0370E+06    -90.8165E+06    -38.5582E+06    -89.2954E+06    -13.6633E+06    -8.72797E+06
            1628     91.1657E-03     11.3571E-03     90.4555E-03     111.013E-03    -55.2686E-03    -55.7722E-03    -54.6251E-03     109.866E-03    -55.2686E-03     27.2854E-03     176.665E-03     36.1153E+06    -11.9748E+06    -23.3101E+06    -51.9291E+06    -34.4105E+06    -40.2317E+06    -12.5718E+06    -4.87403E+06
            1629     91.3228E-03     12.3039E-03     90.4901E-03     111.083E-03    -55.1118E-03    -56.0188E-03    -54.2055E-03     109.270E-03    -55.1118E-03     34.4645E-03     191.623E-03     62.6788E+06     36.9976E+06    -8.52468E+06    -30.8065E+06    -30.5692E+06     36.7603E+06    -8.52468E+06    -310.744E+03
            1630     91.4955E-03     13.2513E-03     90.5309E-03     112.068E-03    -55.0361E-03    -57.1311E-03    -53.7909E-03     108.728E-03    -55.0361E-03     46.3257E-03     205.861E-03     134.872E+06     121.875E+06     9.00167E+06    -27.3837E+06    -27.3217E+06     121.813E+06     9.00167E+06     3.01902E+06
            1631     91.6972E-03     14.1989E-03     90.5912E-03     111.997E-03    -55.1402E-03    -56.9052E-03    -53.3731E-03     108.465E-03    -55.1402E-03     47.8746E-03     205.754E-03     167.304E+06     166.169E+06     55.0312E+06    -23.5146E+06    -23.4490E+06     166.104E+06     55.0312E+06     3.45598E+06
            1632     91.8937E-03     15.1469E-03     90.6367E-03     114.186E-03    -55.3052E-03    -58.8406E-03    -53.3664E-03     108.712E-03    -55.3052E-03     58.3392E-03     222.982E-03     171.112E+06     177.324E+06     106.197E+06    -17.1522E+06    -17.1124E+06     177.284E+06     106.197E+06     2.71782E+06
            1633     92.1363E-03     16.0948E-03     90.7197E-03     113.042E-03    -54.3226E-03    -58.7071E-03    -53.3498E-03     108.734E-03    -55.3721E-03     43.7116E-03     202.448E-03     175.520E+06     186.872E+06     133.666E+06    -9.07057E+06    -9.04873E+06     186.850E+06     133.666E+06     1.71189E+06
            1634     91.4358E-03     946.162E-06     91.4309E-03     110.998E-03    -55.4198E-03    -55.5772E-03    -55.5209E-03     110.989E-03    -55.4671E-03     2.28116E-03     111.501E-03     183.807E+06    -105.910E+06    -109.565E+06    -291.517E+06    -108.713E+06    -291.492E+06    -106.787E+06    -1.53728E+06
            1635     91.4544E-03     1.89239E-03     91.4348E-03     110.997E-03    -55.4706E-03    -55.5318E-03    -55.4473E-03     110.974E-03    -55.5318E-03     3.86909E-03     112.473E-03     182.321E+06    -95.3597E+06    -103.844E+06    -281.734E+06    -104.011E+06    -281.567E+06    -95.3597E+06    -4.92348E+06
            1636     91.4834E-03     2.83832E-03     91.4393E-03     110.969E-03    -55.4277E-03    -55.5503E-03    -55.3805E-03     110.921E-03    -55.5503E-03     5.52739E-03     114.139E-03     178.597E+06    -81.4843E+06    -96.9762E+06    -267.303E+06    -97.4158E+06    -266.863E+06    -81.4843E+06    -8.34271E+06
            1637     91.5245E-03     3.78478E-03     91.4463E-03     110.866E-03    -55.3200E-03    -55.5555E-03    -55.2401E-03     110.786E-03    -55.5555E-03     7.24181E-03     116.497E-03     170.706E+06    -67.5426E+06    -89.1773E+06    -248.003E+06    -90.0148E+06    -247.165E+06    -67.5426E+06    -11.2505E+06
            1638     91.5770E-03     4.73122E-03     91.4547E-03     110.909E-03    -55.3541E-03    -55.5665E-03    -55.2324E-03     110.788E-03    -55.5665E-03     8.94651E-03     119.818E-03     169.029E+06    -53.2781E+06    -80.6988E+06    -234.327E+06    -82.0534E+06    -232.972E+06    -53.2781E+06    -14.1748E+06
            1639     91.6415E-03     5.67741E-03     91.4654E-03     110.898E-03    -55.3419E-03    -55.5471E-03    -55.1692E-03     110.725E-03    -55.5471E-03     10.6762E-03     123.884E-03     159.901E+06    -42.3748E+06    -72.1845E+06    -215.074E+06    -74.1651E+06    -213.094E+06    -42.3748E+06    -16.4557E+06
            1640     91.7169E-03     6.62399E-03     91.4773E-03     110.852E-03    -55.3032E-03    -55.5388E-03    -55.0723E-03     110.621E-03    -55.5388E-03     12.3479E-03     128.949E-03     147.561E+06    -34.0296E+06    -63.4932E+06    -194.098E+06    -66.0199E+06    -191.571E+06    -34.0296E+06    -17.7948E+06
            1641     91.8038E-03     7.57061E-03     91.4911E-03     110.835E-03    -55.3276E-03    -55.5113E-03    -55.0258E-03     110.533E-03    -55.5113E-03     14.1172E-03     135.190E-03     133.893E+06    -28.0097E+06    -55.4122E+06    -173.482E+06    -58.2274E+06    -170.667E+06    -28.0097E+06    -17.8388E+06
            1642     91.9029E-03     8.51706E-03     91.5073E-03     110.808E-03    -55.3331E-03    -55.4731E-03    -54.9329E-03     110.408E-03    -55.4731E-03     16.2446E-03     142.960E-03     120.345E+06    -22.8184E+06    -48.1722E+06    -153.812E+06    -51.1480E+06    -150.837E+06    -22.8184E+06    -17.2962E+06
            1643     92.0138E-03     9.46338E-03     91.5258E-03     110.694E-03    -55.2790E-03    -55.4209E-03    -54.7532E-03     110.168E-03    -55.4209E-03     18.6144E-03     151.583E-03     101.062E+06    -19.1945E+06    -41.7162E+06    -129.592E+06    -44.5809E+06    -126.728E+06    -19.1945E+06    -15.4792E+06
            1644     92.1372E-03     10.4105E-03     91.5472E-03     110.688E-03    -55.2841E-03    -55.4333E-03    -54.6639E-03     109.988E-03    -55.3538E-03     21.4469E-03     162.712E-03     70.9605E+06    -17.2093E+06    -35.8543E+06    -95.5372E+06    -38.6299E+06    -92.7616E+06    -17.2093E+06    -12.3185E+06
            1645     92.2740E-03     11.3573E-03     91.5724E-03     110.933E-03    -55.2612E-03    -55.6937E-03    -54.5511E-03     109.790E-03    -55.2612E-03     27.1966E-03     176.581E-03     36.5557E+06    -15.1113E+06    -23.9704E+06    -55.0536E+06    -33.8085E+06    -44.8747E+06    -15.4522E+06    -7.79030E+06
            1646     92.4284E-03     12.3040E-03     91.6058E-03     111.190E-03    -55.1062E-03    -56.1307E-03    -54.2958E-03     109.355E-03    -55.1062E-03     34.6828E-03     191.634E-03     58.0670E+06     31.3888E+06    -11.9401E+06    -31.1235E+06    -30.3493E+06     30.5002E+06    -11.8257E+06    -2.21588E+06
            1647     92.6001E-03     13.2512E-03     91.6470E-03     112.223E-03    -55.0375E-03    -57.2879E-03    -53.9656E-03     108.901E-03    -55.0375E-03     46.3040E-03     206.107E-03     132.216E+06     118.501E+06     6.02745E+06    -27.0368E+06    -26.9833E+06     118.447E+06     6.02745E+06     2.26673E+06
            1648     92.8001E-03     14.1987E-03     91.7075E-03     111.939E-03    -55.1439E-03    -56.8337E-03    -53.3142E-03     108.420E-03    -55.1439E-03     47.8301E-03     205.757E-03     167.662E+06     166.611E+06     52.9747E+06    -23.0168E+06    -22.9295E+06     166.524E+06     52.9747E+06     3.96154E+06
            1649     92.9936E-03     15.1468E-03     91.7517E-03     114.028E-03    -55.3071E-03    -58.6932E-03    -53.2107E-03     108.546E-03    -55.3071E-03     58.4076E-03     222.783E-03     171.680E+06     178.318E+06     105.424E+06    -17.0190E+06    -16.9622E+06     178.261E+06     105.424E+06     2.97707E+06
            1650     93.2362E-03     16.0953E-03     91.8365E-03     112.912E-03    -54.2677E-03    -58.6439E-03    -53.2522E-03     108.621E-03    -55.3687E-03     43.5622E-03     202.306E-03     176.382E+06     188.373E+06     134.058E+06    -8.74267E+06    -8.72799E+06     188.359E+06     134.058E+06     1.06275E+06
            1651     92.5522E-03     946.009E-06     92.5474E-03     111.017E-03    -55.3974E-03    -55.6208E-03    -55.5410E-03     111.009E-03    -55.4692E-03     2.15066E-03     111.504E-03     176.162E+06    -107.944E+06    -111.453E+06    -285.834E+06    -110.641E+06    -285.751E+06    -108.840E+06    -2.93508E+06
            1652     92.5699E-03     1.89236E-03     92.5505E-03     110.891E-03    -55.3782E-03    -55.5202E-03    -55.3541E-03     110.867E-03    -55.5202E-03     3.88611E-03     112.350E-03     172.965E+06    -97.5711E+06    -106.008E+06    -274.552E+06    -106.283E+06    -274.276E+06    -97.5711E+06    -6.55344E+06
            1653     92.5995E-03     2.83868E-03     92.5560E-03     110.901E-03    -55.3924E-03    -55.5180E-03    -55.3441E-03     110.853E-03    -55.5180E-03     5.61199E-03     114.054E-03     169.449E+06    -83.6104E+06    -99.2875E+06    -260.330E+06    -99.9919E+06    -259.626E+06    -83.6104E+06    -10.1887E+06
            1654     92.6394E-03     3.78477E-03     92.5621E-03     110.909E-03    -55.3857E-03    -55.5339E-03    -55.3032E-03     110.826E-03    -55.5339E-03     7.34333E-03     116.540E-03     161.603E+06    -69.5480E+06    -91.1341E+06    -240.829E+06    -92.4842E+06    -239.479E+06    -69.5480E+06    -13.9148E+06
            1655     92.6920E-03     4.73106E-03     92.5712E-03     110.923E-03    -55.3759E-03    -55.5586E-03    -55.2524E-03     110.799E-03    -55.5586E-03     9.02939E-03     119.833E-03     160.922E+06    -55.3934E+06    -81.9725E+06    -227.943E+06    -84.1034E+06    -225.812E+06    -55.3934E+06    -17.2285E+06
            1656     92.7552E-03     5.67752E-03     92.5813E-03     110.864E-03    -55.3164E-03    -55.5400E-03    -55.1440E-03     110.692E-03    -55.5400E-03     10.6588E-03     123.862E-03     153.430E+06    -44.7307E+06     -72.666E+06    -210.205E+06    -75.7205E+06    -207.151E+06    -44.7307E+06    -20.0314E+06
            1657     92.8303E-03     6.62398E-03     92.5936E-03     110.847E-03    -55.3081E-03    -55.5318E-03    -55.0821E-03     110.622E-03    -55.5318E-03     12.2262E-03     128.947E-03     142.824E+06    -36.9153E+06    -64.0073E+06    -191.343E+06    -67.9005E+06    -187.450E+06    -36.9153E+06    -21.7510E+06
            1658     92.9163E-03     7.57033E-03     92.6074E-03     110.838E-03    -55.3432E-03    -55.5033E-03    -55.0451E-03     110.540E-03    -55.5033E-03     14.0173E-03     135.160E-03     130.712E+06    -31.5413E+06    -56.0057E+06    -172.749E+06    -60.4771E+06    -168.277E+06    -31.5413E+06    -22.2294E+06
            1659     93.0147E-03     8.51675E-03     92.6240E-03     110.802E-03    -55.3385E-03    -55.4677E-03    -54.9389E-03     110.402E-03    -55.4677E-03     16.2385E-03     142.894E-03     118.212E+06    -26.2577E+06    -48.2062E+06    -153.897E+06    -53.1022E+06    -149.001E+06    -26.2577E+06    -22.0262E+06
            1660     93.1240E-03     9.46369E-03     92.6419E-03     110.752E-03    -55.3261E-03    -55.4221E-03    -54.7966E-03     110.222E-03    -55.4221E-03     18.6769E-03     151.630E-03     101.792E+06    -22.7729E+06    -41.0878E+06    -132.453E+06    -45.9632E+06    -127.577E+06    -22.7729E+06    -20.3459E+06
            1661     93.2464E-03     10.4100E-03     92.6635E-03     110.708E-03    -55.3151E-03    -55.4051E-03    -54.6482E-03     109.988E-03    -55.3520E-03     21.7499E-03     162.625E-03     74.1026E+06    -21.5646E+06    -34.8337E+06    -101.343E+06    -39.5803E+06    -96.5963E+06    -21.5646E+06    -16.8512E+06
            1662     93.3817E-03     11.3571E-03     92.6885E-03     110.809E-03    -55.2555E-03    -55.5727E-03    -54.4536E-03     109.690E-03    -55.2555E-03     26.9695E-03     176.459E-03     38.5327E+06    -18.9619E+06    -25.0375E+06    -60.0768E+06    -33.9363E+06    -50.7623E+06    -19.3776E+06    -11.7740E+06
            1663     93.5349E-03     12.3044E-03     92.7220E-03     111.111E-03    -55.0977E-03    -56.0700E-03    -54.2184E-03     109.260E-03    -55.0977E-03     34.7276E-03     191.424E-03     54.8557E+06     25.6323E+06    -15.7396E+06    -32.6882E+06    -29.6194E+06     22.4491E+06    -15.6252E+06    -4.56935E+06
            1664     93.7060E-03     13.2510E-03     92.7644E-03     112.139E-03    -55.0159E-03    -57.2264E-03    -53.9211E-03     108.834E-03    -55.0159E-03     46.3077E-03     205.966E-03     129.404E+06     113.992E+06     1.20677E+06    -27.1094E+06    -27.0748E+06     113.957E+06     1.20677E+06     1.47426E+06
            1665     93.9020E-03     14.1988E-03     92.8223E-03     112.007E-03    -55.1222E-03    -56.9074E-03    -53.4074E-03     108.507E-03    -55.1222E-03     47.8132E-03     205.831E-03     168.234E+06     166.976E+06     49.4330E+06    -22.6564E+06    -22.5852E+06     166.905E+06     49.4330E+06     3.48565E+06
            1666     94.0958E-03     15.1467E-03     92.8688E-03     114.147E-03    -55.3045E-03    -58.7890E-03    -53.2910E-03     108.649E-03    -55.3045E-03     58.6665E-03     222.850E-03     171.344E+06     180.009E+06     104.877E+06    -15.1936E+06    -15.1477E+06     179.963E+06     104.877E+06     2.55617E+06
            1667     94.3347E-03     16.0945E-03     92.9516E-03     112.719E-03    -54.1305E-03    -58.5737E-03    -53.0691E-03     108.456E-03    -55.3721E-03     43.5916E-03     202.283E-03     176.190E+06     189.598E+06     134.774E+06    -7.43494E+06    -7.42447E+06     189.587E+06     134.774E+06     1.19223E+06
            1668     93.6686E-03     946.086E-06     93.6639E-03     110.995E-03    -55.2826E-03    -55.7128E-03    -55.6711E-03     110.987E-03    -55.3161E-03     2.21952E-03     111.468E-03     168.015E+06    -108.906E+06    -111.654E+06    -278.277E+06    -110.880E+06    -278.156E+06    -109.802E+06    -3.90338E+06
            1669     93.6857E-03     1.89216E-03     93.6666E-03     110.895E-03    -55.3719E-03    -55.5280E-03    -55.3654E-03     110.871E-03    -55.5112E-03     3.83966E-03     112.348E-03     162.994E+06     -99.045E+06    -107.386E+06    -265.990E+06    -107.801E+06    -265.575E+06     -99.045E+06    -7.75106E+06
            1670     93.7147E-03     2.83860E-03     93.6717E-03     110.838E-03    -55.3368E-03    -55.5089E-03    -55.2883E-03     110.789E-03    -55.5089E-03     5.60759E-03     113.990E-03     159.664E+06    -84.6328E+06    -100.390E+06    -251.569E+06    -101.467E+06    -250.492E+06    -84.6328E+06    -12.1919E+06
            1671     93.7552E-03     3.78488E-03     93.6788E-03     110.899E-03    -55.3925E-03    -55.5192E-03    -55.3102E-03     110.816E-03    -55.5192E-03     7.34474E-03     116.522E-03     152.563E+06    -70.4958E+06    -91.5631E+06    -232.475E+06    -93.6070E+06    -230.431E+06    -70.4958E+06    -16.6041E+06
            1672     93.8066E-03     4.73102E-03     93.6873E-03     110.940E-03    -55.4046E-03    -55.5483E-03    -55.2808E-03     110.816E-03    -55.5483E-03     9.03329E-03     119.844E-03     152.423E+06    -57.0744E+06    -82.3514E+06    -220.551E+06    -85.5437E+06    -217.359E+06    -57.0744E+06    -20.5157E+06
            1673     93.8695E-03     5.67736E-03     93.6977E-03     110.901E-03    -55.3567E-03    -55.5387E-03    -55.1843E-03     110.729E-03    -55.5387E-03     10.6711E-03     123.901E-03     146.572E+06    -46.4274E+06    -72.6404E+06    -204.335E+06    -77.1246E+06    -199.851E+06    -46.4274E+06    -23.6441E+06
            1674     93.9436E-03     6.62363E-03     93.7098E-03     110.873E-03    -55.3300E-03    -55.5333E-03    -55.1002E-03     110.644E-03    -55.5333E-03     12.3238E-03     128.946E-03     138.173E+06    -38.8630E+06    -63.4097E+06    -187.659E+06    -69.1167E+06    -181.952E+06    -38.8630E+06    -25.8080E+06
            1675     94.0290E-03     7.57013E-03     93.7238E-03     110.771E-03    -55.2768E-03    -55.4990E-03    -54.9720E-03     110.466E-03    -55.4990E-03     14.1789E-03     135.064E-03     128.260E+06    -34.1304E+06    -54.7586E+06    -171.438E+06    -61.4384E+06    -164.758E+06    -34.1304E+06    -26.9418E+06
            1676     94.1258E-03     8.51695E-03     93.7397E-03     110.768E-03    -55.3155E-03    -55.4612E-03    -54.9057E-03     110.359E-03    -55.4612E-03     16.4319E-03     142.754E-03     116.737E+06    -29.2075E+06    -47.1188E+06    -153.849E+06    -54.3903E+06    -146.577E+06    -29.2075E+06    -26.7626E+06
            1677     94.2349E-03     9.46315E-03     93.7586E-03     110.782E-03    -55.3640E-03    -55.4279E-03    -54.8478E-03     110.255E-03    -55.4176E-03     18.6473E-03     151.738E-03     102.459E+06    -26.0603E+06    -40.2643E+06    -134.847E+06    -47.8443E+06    -127.267E+06    -26.0603E+06    -25.5436E+06
            1678     94.3552E-03     10.4102E-03     93.7792E-03     110.692E-03    -55.3163E-03    -55.4047E-03    -54.6487E-03     109.966E-03    -55.3459E-03     21.8075E-03     162.521E-03     78.2083E+06    -26.1907E+06    -34.0320E+06    -107.969E+06    -41.6521E+06    -100.349E+06    -26.1907E+06    -22.2592E+06
            1679     94.4902E-03     11.3569E-03     93.8052E-03     110.859E-03    -55.2493E-03    -55.6332E-03    -54.5078E-03     109.738E-03    -55.2533E-03     27.0640E-03     176.474E-03     44.2013E+06    -22.1212E+06    -26.6410E+06    -68.3149E+06    -35.7619E+06    -57.0644E+06    -24.2507E+06    -16.8228E+06
            1680     94.6401E-03     12.3036E-03     93.8369E-03     110.958E-03    -55.0937E-03    -55.9317E-03    -54.0871E-03     109.114E-03    -55.0937E-03     34.5969E-03     191.401E-03     52.2793E+06     18.0789E+06    -21.0047E+06    -37.0403E+06    -30.4736E+06     11.5122E+06    -21.0047E+06    -8.39337E+06
            1681     94.8112E-03     13.2519E-03     93.8805E-03     111.875E-03    -54.9820E-03    -57.0055E-03    -53.7035E-03     108.573E-03    -54.9820E-03     46.2499E-03     205.609E-03     124.932E+06     107.438E+06    -5.43327E+06    -26.5748E+06    -26.4417E+06     107.305E+06    -5.43327E+06     175.303E+03
            1682     95.0048E-03     14.1991E-03     93.9377E-03     112.034E-03    -55.0814E-03    -56.9716E-03    -53.4927E-03     108.555E-03    -55.0814E-03     47.6784E-03     205.861E-03     170.536E+06     167.719E+06     43.7114E+06    -23.0728E+06    -23.0256E+06     167.672E+06     43.7114E+06     2.93395E+06
            1683     95.1973E-03     15.1468E-03     93.9845E-03     114.106E-03    -55.2931E-03    -58.7688E-03    -53.2609E-03     108.599E-03    -55.2931E-03     58.6490E-03     222.742E-03     174.029E+06     180.734E+06     102.205E+06    -17.6426E+06    -17.6166E+06     180.708E+06     102.205E+06     2.10718E+06
            1684     95.4340E-03     16.0953E-03     94.0670E-03     112.541E-03    -54.0723E-03    -58.4756E-03    -52.8905E-03     108.257E-03    -55.3732E-03     43.6827E-03     202.089E-03     179.053E+06     191.018E+06     135.269E+06    -9.21117E+06    -9.20070E+06     191.007E+06     135.269E+06     1.23506E+06
            1685     94.7846E-03     946.284E-06     94.7799E-03     110.881E-03    -55.2699E-03    -55.6116E-03    -55.5915E-03     110.873E-03    -55.2818E-03     2.16969E-03     111.355E-03     157.515E+06    -110.608E+06    -112.461E+06    -269.039E+06    -112.497E+06    -268.841E+06    -110.770E+06    -4.98100E+06
            1686     94.8018E-03     1.89236E-03     94.7829E-03     110.919E-03    -55.4284E-03    -55.4957E-03    -55.4216E-03     110.896E-03    -55.4789E-03     3.86740E-03     112.385E-03     152.703E+06    -99.3504E+06    -107.011E+06    -255.683E+06    -107.652E+06    -255.043E+06    -99.3504E+06    -9.29502E+06
            1687     94.8302E-03     2.83836E-03     94.7878E-03     110.871E-03    -55.3733E-03    -55.5050E-03    -55.3213E-03     110.819E-03    -55.5050E-03     5.78558E-03     114.027E-03     149.610E+06    -84.9288E+06    -99.8274E+06    -241.407E+06    -101.371E+06    -239.863E+06    -84.9288E+06    -14.2485E+06
            1688     94.8707E-03     3.78469E-03     94.7952E-03     110.832E-03    -55.3319E-03    -55.5138E-03    -55.2459E-03     110.746E-03    -55.5138E-03     7.52335E-03     116.444E-03     143.271E+06    -70.7467E+06    -91.0439E+06    -223.061E+06    -93.9356E+06    -220.169E+06    -70.7467E+06    -19.0464E+06
            1689     94.9215E-03     4.73103E-03     94.8036E-03     110.923E-03    -55.3988E-03    -55.5373E-03    -55.2716E-03     110.796E-03    -55.5373E-03     9.14538E-03     119.795E-03     144.019E+06    -57.2682E+06    -81.6011E+06    -211.900E+06    -86.0161E+06    -207.485E+06    -57.2682E+06    -23.3641E+06
            1690     94.9841E-03     5.67725E-03     94.8143E-03     110.917E-03    -55.3805E-03    -55.5287E-03    -55.2021E-03     110.739E-03    -55.5287E-03     10.8575E-03     123.885E-03     139.812E+06    -47.3862E+06    -71.9294E+06    -197.844E+06    -78.1248E+06    -191.649E+06    -47.3862E+06    -27.0003E+06
            1691     95.0572E-03     6.62366E-03     94.8262E-03     110.832E-03    -55.2970E-03    -55.5210E-03    -55.0621E-03     110.598E-03    -55.5210E-03     12.4559E-03     128.887E-03     133.206E+06    -40.1962E+06    -62.0190E+06    -182.957E+06    -70.1250E+06    -174.851E+06    -40.1962E+06    -30.0345E+06
            1692     95.1418E-03     7.57029E-03     94.8401E-03     110.745E-03    -55.2582E-03    -55.4855E-03    -54.9503E-03     110.437E-03    -55.4855E-03     14.2499E-03     135.006E-03     125.843E+06    -35.8644E+06    -53.0158E+06    -169.385E+06    -62.4912E+06    -159.909E+06    -35.8644E+06    -31.6632E+06
            1693     95.2376E-03     8.51667E-03     94.8561E-03     110.788E-03    -55.3439E-03    -55.4508E-03    -54.9252E-03     110.369E-03    -55.4502E-03     16.6158E-03     142.713E-03     116.267E+06    -31.5900E+06    -45.4278E+06    -154.145E+06    -55.6028E+06    -143.970E+06    -31.5900E+06    -31.5284E+06
            1694     95.3457E-03     9.46360E-03     94.8749E-03     110.835E-03    -55.4077E-03    -55.4505E-03    -54.9188E-03     110.308E-03    -55.4124E-03     18.6782E-03     151.783E-03     103.456E+06    -28.5247E+06    -38.6477E+06    -136.634E+06    -49.3029E+06    -125.979E+06    -28.5247E+06    -30.3770E+06
            1695     95.4648E-03     10.4097E-03     94.8955E-03     110.708E-03    -55.3434E-03    -55.4094E-03    -54.6883E-03     109.991E-03    -55.3473E-03     21.6574E-03     162.549E-03     82.8576E+06    -27.8860E+06    -32.9984E+06    -113.162E+06    -43.2021E+06    -101.787E+06    -29.0573E+06    -27.9814E+06
            1696     95.5980E-03     11.3571E-03     94.9210E-03     110.767E-03    -55.2463E-03    -55.5471E-03    -54.4124E-03     109.636E-03    -55.2503E-03     27.1464E-03     176.362E-03     52.2348E+06    -22.9445E+06    -29.2455E+06    -77.8004E+06    -37.4765E+06    -63.6749E+06    -28.8389E+06    -22.5312E+06
            1697     95.7479E-03     12.3039E-03     94.9541E-03     110.871E-03    -55.0856E-03    -55.8561E-03    -54.0341E-03     109.049E-03    -55.0856E-03     34.4191E-03     191.399E-03     51.5698E+06     10.7249E+06    -26.8391E+06    -43.9392E+06    -32.5031E+06    -711.118E+03    -26.8391E+06    -13.1244E+06
            1698     95.9144E-03     13.2512E-03     94.9946E-03     111.925E-03    -54.9463E-03    -57.0904E-03    -53.7348E-03     108.569E-03    -54.9463E-03     46.5144E-03     205.441E-03     120.685E+06     98.2188E+06    -15.2463E+06    -28.4687E+06    -28.0144E+06     97.7645E+06    -15.2463E+06    -3.04453E+06
            1699     96.1103E-03     14.1991E-03     95.0557E-03     111.910E-03    -55.0275E-03    -56.9079E-03    -53.4290E-03     108.431E-03    -55.0275E-03     47.5007E-03     205.654E-03     171.897E+06     166.682E+06     34.2746E+06    -23.1245E+06    -23.0814E+06     166.639E+06     34.2746E+06     2.27210E+06
            1700     96.2976E-03     15.1469E-03     95.0989E-03     113.819E-03    -55.2680E-03    -58.5484E-03    -53.0638E-03     108.335E-03    -55.2680E-03     58.1622E-03     222.471E-03     174.430E+06     182.448E+06     99.7413E+06    -16.4550E+06    -16.4210E+06     182.414E+06     99.7413E+06     2.42751E+06
            1701     96.5344E-03     16.0953E-03     95.1832E-03     112.360E-03    -53.9863E-03    -58.4085E-03    -52.6925E-03     108.020E-03    -55.3627E-03     43.6998E-03     201.752E-03     179.288E+06     191.868E+06     136.229E+06    -8.53825E+06    -8.53000E+06     191.860E+06     136.229E+06     843.517E+03
            1702     95.9008E-03     946.033E-06     95.8961E-03     110.839E-03    -55.2848E-03    -55.5546E-03    -55.4957E-03     110.830E-03    -55.3352E-03     2.16615E-03     111.312E-03     148.083E+06    -108.178E+06    -109.529E+06    -256.930E+06    -109.569E+06    -256.610E+06    -108.458E+06    -6.26563E+06
            1703     95.9180E-03     1.89236E-03     95.8993E-03     110.812E-03    -55.3759E-03    -55.4417E-03    -55.3507E-03     110.787E-03    -55.4417E-03     4.00145E-03     112.283E-03     142.728E+06    -98.3575E+06    -105.027E+06    -244.255E+06    -106.007E+06    -243.275E+06    -98.3575E+06    -11.2548E+06
            1704     95.9462E-03     2.83859E-03     95.9042E-03     110.846E-03    -55.3845E-03    -55.4664E-03    -55.3303E-03     110.791E-03    -55.4664E-03     5.91139E-03     113.995E-03     140.503E+06    -83.7501E+06    -97.3459E+06    -230.530E+06    -99.4461E+06    -228.430E+06    -83.7501E+06    -16.1747E+06
            1705     95.9859E-03     3.78480E-03     95.9112E-03     110.806E-03    -55.3320E-03    -55.4862E-03    -55.2408E-03     110.714E-03    -55.4862E-03     7.74529E-03     116.394E-03     134.501E+06    -69.5008E+06    -88.9120E+06    -212.623E+06    -92.5942E+06    -208.941E+06    -69.5008E+06    -20.8010E+06
            1706     96.0367E-03     4.73107E-03     95.9201E-03     110.859E-03    -55.3597E-03    -55.5118E-03    -55.2268E-03     110.727E-03    -55.5118E-03     9.35867E-03     119.715E-03     135.945E+06    -56.2134E+06    -79.7406E+06    -202.384E+06    -85.4750E+06    -196.650E+06    -56.2134E+06    -25.6666E+06
            1707     96.0984E-03     5.67740E-03     95.9305E-03     110.860E-03    -55.3484E-03    -55.5005E-03    -55.1656E-03     110.677E-03    -55.5005E-03     10.9900E-03     123.804E-03     133.258E+06    -46.7838E+06    -69.5155E+06    -189.940E+06    -77.7970E+06    -181.659E+06    -46.7838E+06    -30.1987E+06
            1708     96.1710E-03     6.62377E-03     95.9426E-03     110.839E-03    -55.3273E-03    -55.4948E-03    -55.0892E-03     110.601E-03    -55.4948E-03     12.5473E-03     128.847E-03     128.318E+06    -40.2332E+06    -59.7069E+06    -177.167E+06    -70.3763E+06    -166.498E+06    -40.2332E+06    -33.6093E+06
            1709     96.2545E-03     7.57013E-03     95.9563E-03     110.824E-03    -55.3453E-03    -55.4751E-03    -55.0395E-03     110.513E-03    -55.4706E-03     14.3090E-03     135.014E-03     122.735E+06    -36.6223E+06    -51.4233E+06    -166.065E+06    -63.8706E+06    -153.618E+06    -36.6223E+06    -35.5428E+06
            1710     96.3496E-03     8.51687E-03     95.9724E-03     110.834E-03    -55.3924E-03    -55.4498E-03    -54.9759E-03     110.413E-03    -55.4447E-03     16.6658E-03     142.736E-03     115.648E+06    -33.4671E+06    -43.7184E+06    -153.883E+06    -57.4786E+06    -140.122E+06    -33.4671E+06    -36.2893E+06
            1711     96.4567E-03     9.46300E-03     95.9913E-03     110.825E-03    -55.4028E-03    -55.4509E-03    -54.9155E-03     110.296E-03    -55.4098E-03     18.7040E-03     151.694E-03     105.462E+06    -30.3614E+06    -36.4906E+06    -138.724E+06    -50.6643E+06    -124.013E+06    -30.8987E+06    -35.8494E+06
            1712     96.5744E-03     10.4100E-03     96.0117E-03     110.690E-03    -55.3229E-03    -55.4107E-03    -54.6754E-03     109.977E-03    -55.3455E-03     21.5961E-03     162.571E-03     87.9126E+06    -27.3515E+06    -32.8119E+06    -117.822E+06    -44.1257E+06    -102.335E+06    -31.5254E+06    -33.6266E+06
            1713     96.7059E-03     11.3563E-03     96.0368E-03     110.646E-03    -55.2187E-03    -55.4563E-03    -54.2935E-03     109.505E-03    -55.2413E-03     27.2098E-03     176.205E-03     61.7249E+06    -20.8657E+06    -32.5943E+06    -87.2190E+06    -38.1506E+06    -69.9342E+06    -32.5943E+06    -28.5332E+06
            1714     96.8541E-03     12.3042E-03     96.0693E-03     110.989E-03    -55.0784E-03    -55.9720E-03    -54.1633E-03     109.181E-03    -55.0784E-03     34.3699E-03     191.306E-03     52.4554E+06     4.73637E+06    -32.0183E+06     -51.116E+06    -32.8882E+06    -13.4915E+06    -32.0183E+06    -18.3750E+06
            1715     97.0203E-03     13.2517E-03     96.1110E-03     112.002E-03    -54.9252E-03    -57.1756E-03    -53.8562E-03     108.683E-03    -54.9252E-03     46.2327E-03     205.543E-03     115.736E+06     88.3083E+06    -24.3961E+06    -30.1507E+06    -28.7974E+06     86.9550E+06    -24.3961E+06    -6.85108E+06
            1716     97.2135E-03     14.1988E-03     96.1710E-03     111.531E-03    -54.9797E-03    -56.6210E-03    -53.1235E-03     108.033E-03    -54.9797E-03     47.5645E-03     205.358E-03     172.055E+06     163.563E+06     23.6334E+06    -23.6637E+06    -23.6229E+06     163.523E+06     23.6334E+06    -1.01019E+06
            1717     97.3999E-03     15.1472E-03     96.2148E-03     113.481E-03    -55.2309E-03    -58.3031E-03    -52.8245E-03     108.002E-03    -55.2309E-03     58.1359E-03     222.320E-03     173.624E+06     182.335E+06     95.5717E+06    -15.4682E+06    -15.4351E+06     182.301E+06     95.5717E+06     1.02191E+06
            1718     97.6338E-03     16.0961E-03     96.2978E-03     112.150E-03    -53.8861E-03    -58.3204E-03    -52.5475E-03     107.833E-03    -55.3423E-03     43.7620E-03     201.672E-03     178.517E+06     192.536E+06     137.225E+06    -6.97023E+06    -6.95506E+06     192.520E+06     137.225E+06     1.44521E+06
            1719     97.0166E-03     946.164E-06     97.0120E-03     110.737E-03    -55.1559E-03    -55.5814E-03    -55.5337E-03     110.728E-03    -55.1944E-03     2.26459E-03     111.206E-03     138.879E+06    -103.781E+06    -104.984E+06    -243.255E+06    -105.256E+06    -242.842E+06    -103.922E+06    -6.88002E+06
            1720     97.0337E-03     1.89248E-03     97.0153E-03     110.719E-03    -55.3027E-03    -55.4213E-03    -55.3050E-03     110.692E-03    -55.3919E-03     4.15092E-03     112.184E-03     133.764E+06    -93.9410E+06    -100.569E+06    -230.844E+06    -101.868E+06    -229.545E+06    -93.9410E+06    -12.5504E+06
            1721     97.0617E-03     2.83866E-03     97.0202E-03     110.724E-03    -55.3175E-03    -55.4116E-03    -55.2614E-03     110.668E-03    -55.4116E-03     6.02042E-03     113.864E-03     132.615E+06    -80.5901E+06    -93.1343E+06    -219.018E+06    -96.0138E+06    -216.139E+06    -80.5901E+06    -18.3415E+06
            1722     97.1013E-03     3.78499E-03     97.0275E-03     110.762E-03    -55.3359E-03    -55.4344E-03    -55.2405E-03     110.666E-03    -55.4344E-03     7.90885E-03     116.308E-03     127.778E+06    -66.5193E+06    -83.8721E+06    -202.054E+06    -88.4977E+06    -197.428E+06    -66.5193E+06    -22.7409E+06
            1723     97.1517E-03     4.73122E-03     97.0364E-03     110.806E-03    -55.3440E-03    -55.4696E-03    -55.2073E-03     110.669E-03    -55.4696E-03     9.49981E-03     119.644E-03     129.535E+06    -52.6457E+06    -74.2634E+06    -191.623E+06    -81.0632E+06    -184.823E+06    -52.6457E+06    -27.2257E+06
            1724     97.2126E-03     5.67757E-03     97.0467E-03     110.794E-03    -55.3187E-03    -55.4626E-03    -55.1319E-03     110.607E-03    -55.4626E-03     11.0970E-03     123.719E-03     127.396E+06    -43.4725E+06    -65.0738E+06    -180.282E+06    -74.8943E+06    -170.462E+06    -43.4725E+06    -31.9978E+06
            1725     97.2846E-03     6.62397E-03     97.0588E-03     110.872E-03    -55.3648E-03    -55.4906E-03    -55.1497E-03     110.628E-03    -55.4614E-03     12.7160E-03     128.824E-03     123.672E+06    -38.1537E+06    -56.7769E+06    -170.066E+06    -69.5278E+06    -157.316E+06    -38.1537E+06    -35.6968E+06
            1726     97.3673E-03     7.57041E-03     97.0726E-03     110.928E-03    -55.4279E-03    -55.5005E-03    -55.1601E-03     110.611E-03    -55.4511E-03     14.4796E-03     135.080E-03     119.822E+06    -35.3633E+06    -48.1884E+06    -161.040E+06    -63.6541E+06    -145.575E+06    -35.3633E+06    -38.6754E+06
            1727     97.4614E-03     8.51637E-03     97.0886E-03     110.863E-03    -55.4241E-03    -55.4549E-03    -55.0135E-03     110.432E-03    -55.4346E-03     16.8545E-03     142.742E-03     115.680E+06    -33.3448E+06    -39.4763E+06    -151.921E+06    -57.1997E+06    -134.178E+06    -33.3653E+06    -40.9066E+06
            1728     97.5675E-03     9.46330E-03     97.1075E-03     110.741E-03    -55.3656E-03    -55.4094E-03    -54.8321E-03     110.194E-03    -55.3961E-03     19.0091E-03     151.495E-03     108.165E+06    -30.2365E+06    -33.9022E+06    -140.163E+06    -50.8434E+06    -121.106E+06    -32.3520E+06    -41.1802E+06
            1729     97.6843E-03     10.4096E-03     97.1281E-03     110.606E-03    -55.2820E-03    -55.3624E-03    -54.6020E-03     109.889E-03    -55.3246E-03     21.6947E-03     162.397E-03     93.6922E+06    -24.8828E+06    -33.4914E+06    -122.451E+06    -44.8095E+06    -102.524E+06    -33.4914E+06    -39.2261E+06
            1730     97.8137E-03     11.3573E-03     97.1521E-03     110.794E-03    -55.2026E-03    -55.6104E-03    -54.4552E-03     109.661E-03    -55.2252E-03     27.1301E-03     176.263E-03     71.7305E+06    -17.8157E+06    -35.4720E+06    -96.3436E+06    -39.2151E+06    -74.9442E+06    -35.4720E+06    -34.5801E+06
            1731     97.9610E-03     12.3039E-03     97.1852E-03     111.219E-03    -55.0821E-03    -56.1795E-03    -54.3459E-03     109.385E-03    -55.0821E-03     34.6226E-03     191.395E-03     55.3118E+06     26.0847E+03    -36.4874E+06    -59.8674E+06    -33.3176E+06    -26.5237E+06    -36.4874E+06    -25.2178E+06
            1732     98.1261E-03     13.2502E-03     97.2274E-03     111.840E-03    -54.9132E-03    -57.0134E-03    -53.7334E-03     108.560E-03    -54.9132E-03     46.0006E-03     205.601E-03     110.560E+06     78.8170E+06    -29.5341E+06    -33.7640E+06    -27.1959E+06     74.0435E+06    -31.3287E+06    -12.3607E+06
            1733     98.3157E-03     14.1993E-03     97.2850E-03     111.258E-03    -54.9590E-03    -56.3808E-03    -52.8677E-03     107.770E-03    -54.9842E-03     47.5307E-03     205.176E-03     169.513E+06     159.233E+06     22.6652E+06    -24.5632E+06    -22.6416E+06     159.106E+06     20.8705E+06    -3.08510E+06
            1734     98.5027E-03     15.1479E-03     97.3310E-03     113.234E-03    -55.2130E-03    -58.0878E-03    -52.6581E-03     107.829E-03    -55.2382E-03     57.9166E-03     222.224E-03     174.011E+06     180.192E+06     95.2569E+06    -18.1619E+06    -18.1409E+06     180.171E+06     95.2569E+06    -247.336E+03
            1735     98.7326E-03     16.0963E-03     97.4116E-03     111.769E-03    -53.7203E-03    -58.1355E-03    -52.3390E-03     107.571E-03    -55.3190E-03     43.3682E-03     201.526E-03     180.992E+06     192.347E+06     135.926E+06    -10.0120E+06    -10.0003E+06     192.336E+06     135.926E+06      733.29E+03
            1736     98.1330E-03     946.482E-06     98.1285E-03     110.585E-03    -55.1037E-03    -55.4840E-03    -55.4540E-03     110.576E-03    -55.1248E-03     2.28222E-03     111.060E-03     130.314E+06    -96.7906E+06    -98.5655E+06    -227.979E+06    -98.5619E+06    -227.393E+06    -97.3803E+06    -8.05584E+06
            1737     98.1496E-03     1.89244E-03     98.1313E-03     110.621E-03    -55.2696E-03    -55.3577E-03    -55.2713E-03     110.593E-03    -55.3281E-03     4.17021E-03     112.087E-03     126.627E+06    -86.9083E+06    -93.4036E+06    -216.612E+06    -94.9536E+06    -215.062E+06    -86.9083E+06    -13.4247E+06
            1738     98.1775E-03     2.83896E-03     98.1365E-03     110.628E-03    -55.2794E-03    -55.3539E-03    -55.2212E-03     110.570E-03    -55.3538E-03     6.15620E-03     113.760E-03     125.297E+06    -74.1699E+06    -85.9176E+06    -204.919E+06    -89.5668E+06    -201.270E+06    -74.1699E+06    -19.8992E+06
            1739     98.2168E-03     3.78522E-03     98.1438E-03     110.623E-03    -55.2551E-03    -55.3743E-03    -55.1567E-03     110.524E-03    -55.3743E-03     8.02186E-03     116.149E-03     123.046E+06    -61.6034E+06    -76.9575E+06    -191.590E+06    -82.8734E+06    -185.674E+06    -61.6034E+06    -25.2522E+06
            1740     98.2667E-03     4.73153E-03     98.1527E-03     110.701E-03    -55.2950E-03    -55.4105E-03    -55.1559E-03     110.556E-03    -55.4053E-03     9.75110E-03     119.492E-03     124.535E+06    -48.1448E+06    -67.5328E+06    -181.224E+06    -75.5862E+06    -173.171E+06    -48.1448E+06    -28.9466E+06
            1741     98.3269E-03     5.67783E-03     98.1629E-03     110.820E-03    -55.3513E-03    -55.4567E-03    -55.1985E-03     110.627E-03    -55.4166E-03     11.2884E-03     123.716E-03     123.739E+06    -37.1275E+06    -57.9561E+06    -169.955E+06    -68.6682E+06    -159.243E+06    -37.1275E+06    -32.8299E+06
            1742     98.3988E-03     6.62429E-03     98.1756E-03     110.913E-03    -55.3947E-03    -55.5063E-03    -55.2175E-03     110.661E-03    -55.4320E-03     12.8983E-03     128.832E-03     121.848E+06    -31.4829E+06    -48.8328E+06    -161.039E+06    -62.6116E+06    -147.260E+06    -31.4829E+06    -36.7231E+06
            1743     98.4806E-03     7.57032E-03     98.1892E-03     110.909E-03    -55.4215E-03    -55.4942E-03    -55.1680E-03     110.583E-03    -55.4215E-03     14.6886E-03     135.022E-03     118.241E+06    -30.5347E+06    -40.3149E+06    -153.296E+06    -57.7958E+06    -135.816E+06    -30.5347E+06    -40.7837E+06
            1744     98.5736E-03     8.51705E-03     98.2049E-03     110.794E-03    -55.3735E-03    -55.4349E-03    -54.9669E-03     110.355E-03    -55.4017E-03     17.0169E-03     142.609E-03     115.842E+06    -29.9959E+06    -32.9528E+06    -147.261E+06    -53.5955E+06    -126.597E+06    -30.0164E+06    -43.9492E+06
            1745     98.6786E-03     9.46318E-03     98.2237E-03     110.645E-03    -55.3099E-03    -55.3636E-03    -54.7552E-03     110.085E-03    -55.3581E-03     19.2331E-03     151.281E-03     110.605E+06    -26.4477E+06    -30.7761E+06    -139.088E+06    -49.2292E+06    -116.456E+06    -30.6270E+06    -45.0457E+06
            1746     98.7941E-03     10.4107E-03     98.2440E-03     110.758E-03    -55.2712E-03    -55.5160E-03    -54.7669E-03     110.029E-03    -55.2913E-03     21.8956E-03     162.372E-03     99.4275E+06    -20.3823E+06    -33.1569E+06    -125.461E+06    -44.6749E+06    -101.168E+06    -33.1569E+06    -44.1987E+06
            1747     98.9225E-03     11.3565E-03     98.2685E-03     111.085E-03    -55.2185E-03    -55.8669E-03    -54.7443E-03     109.962E-03    -55.2185E-03     27.0822E-03     176.485E-03     81.6610E+06    -13.6968E+06    -35.5906E+06    -103.785E+06    -39.4783E+06    -78.0030E+06    -35.5906E+06    -40.5442E+06
            1748     99.0683E-03     12.3034E-03     98.3014E-03     111.033E-03    -55.0878E-03    -55.9888E-03    -54.1507E-03     109.195E-03    -55.0878E-03     34.5836E-03     191.227E-03     63.8531E+06    -78.2595E+03    -38.7008E+06    -70.8077E+06    -33.6926E+06    -37.1934E+06    -38.7008E+06    -33.0764E+06
            1749     99.2313E-03     13.2519E-03     98.3425E-03     111.664E-03    -54.8902E-03    -56.8620E-03    -53.5627E-03     108.365E-03    -54.8902E-03     46.1366E-03     205.368E-03     105.543E+06     67.1497E+06    -33.0754E+06    -42.7008E+06    -27.6388E+06     56.6202E+06    -37.6078E+06    -19.9945E+06
            1750     99.4198E-03     14.1991E-03     98.4007E-03     111.355E-03    -54.9103E-03    -56.5097E-03    -53.0133E-03     107.884E-03    -54.9356E-03     47.4377E-03     205.225E-03     162.364E+06     149.448E+06     16.5297E+06    -27.0931E+06    -22.0207E+06     148.908E+06     11.9972E+06    -4.91560E+06
            1751     99.6042E-03     15.1476E-03     98.4456E-03     113.077E-03    -55.1707E-03    -57.9710E-03    -52.5466E-03     107.678E-03    -55.1960E-03     57.7738E-03     222.055E-03     173.321E+06     180.300E+06     90.0936E+06    -16.6058E+06    -16.5913E+06     180.285E+06     90.0936E+06     944.027E+03
            1752     99.8331E-03     16.0966E-03     98.5269E-03     111.333E-03    -53.4359E-03    -57.9910E-03    -51.9344E-03     107.131E-03    -55.2901E-03     43.1395E-03     200.988E-03     180.492E+06     192.387E+06     135.848E+06    -9.40918E+06    -9.39929E+06     192.378E+06     135.848E+06    -150.563E+03
            1753     99.2486E-03     946.076E-06     99.2441E-03     110.499E-03    -55.1355E-03    -55.3664E-03    -55.2959E-03     110.490E-03    -55.1967E-03     2.23834E-03     110.978E-03     126.058E+06    -84.0089E+06    -86.9677E+06    -211.516E+06    -86.9916E+06    -210.926E+06    -84.5754E+06    -8.09673E+06
            1754     99.2655E-03     1.89291E-03     99.2475E-03     110.480E-03    -55.2122E-03    -55.2752E-03    -55.1843E-03     110.450E-03    -55.2734E-03     4.30172E-03     111.947E-03     122.813E+06    -76.4195E+06    -82.1716E+06    -201.984E+06    -83.9771E+06    -200.179E+06    -76.4195E+06    -14.0320E+06
            1755     99.2933E-03     2.83895E-03     99.2527E-03     110.528E-03    -55.2418E-03    -55.2892E-03    -55.1820E-03     110.467E-03    -55.2874E-03     6.31331E-03     113.646E-03     119.352E+06    -64.7078E+06    -74.9345E+06    -188.822E+06    -79.0649E+06    -184.691E+06    -64.7078E+06    -20.8174E+06
            1756     99.3323E-03     3.78536E-03     99.2601E-03     110.499E-03    -55.1840E-03    -55.3202E-03    -55.0838E-03     110.399E-03    -55.3202E-03     8.10360E-03     116.023E-03     121.145E+06    -51.8295E+06    -67.6051E+06    -180.056E+06    -74.0082E+06    -173.653E+06    -51.8295E+06    -26.0160E+06
            1757     99.3814E-03     4.73206E-03     99.2687E-03     110.578E-03    -55.2436E-03    -55.3407E-03    -55.0993E-03     110.427E-03    -55.3341E-03     9.94809E-03     119.307E-03     121.472E+06    -41.1006E+06    -59.2620E+06    -170.599E+06    -68.4967E+06    -161.365E+06    -41.1006E+06    -30.3869E+06
            1758     99.4422E-03     5.67837E-03     99.2800E-03     110.790E-03    -55.3465E-03    -55.4344E-03    -55.2318E-03     110.587E-03    -55.3465E-03     11.5803E-03     123.616E-03     120.700E+06    -31.7338E+06    -48.9896E+06    -160.104E+06    -61.5425E+06    -147.551E+06    -31.7338E+06    -35.0885E+06
            1759     99.5125E-03     6.62430E-03     99.2918E-03     110.863E-03    -55.3786E-03    -55.4755E-03    -55.2134E-03     110.601E-03    -55.3786E-03     13.1579E-03     128.742E-03     121.479E+06    -24.6852E+06    -38.8061E+06    -152.572E+06    -54.2303E+06    -137.148E+06    -24.6852E+06    -38.8032E+06
            1760     99.5943E-03     7.57107E-03     99.3061E-03     110.773E-03    -55.3672E-03    -55.4109E-03    -55.0702E-03     110.432E-03    -55.3672E-03     15.0037E-03     134.783E-03     117.410E+06    -22.6619E+06    -30.9047E+06    -143.947E+06    -49.0452E+06    -125.807E+06    -22.6619E+06    -41.4450E+06
            1761     99.6858E-03     8.51707E-03     99.3213E-03     110.752E-03    -55.3219E-03    -55.4421E-03    -54.9720E-03     110.307E-03    -55.3465E-03     17.1362E-03     142.437E-03     115.310E+06    -22.1892E+06    -25.3249E+06    -139.009E+06    -46.2410E+06    -117.930E+06    -22.3520E+06    -44.1596E+06
            1762     99.7899E-03     9.46426E-03     99.3400E-03     110.788E-03    -55.2851E-03    -55.5222E-03    -54.9410E-03     110.232E-03    -55.3098E-03     19.1909E-03     151.273E-03     111.943E+06    -19.3067E+06    -25.2306E+06    -133.994E+06    -44.0412E+06    -109.409E+06    -25.0815E+06    -46.9833E+06
            1763     99.9040E-03     10.4104E-03     99.3601E-03     110.901E-03    -55.2571E-03    -55.6543E-03    -54.9119E-03     110.158E-03    -55.2571E-03     22.0919E-03     162.303E-03     104.517E+06    -13.8567E+06    -29.7104E+06    -125.281E+06    -40.9482E+06    -98.1892E+06    -29.7104E+06    -47.7540E+06
            1764     100.033E-03     11.3569E-03     99.3860E-03     111.022E-03    -55.1922E-03    -55.8129E-03    -54.6628E-03     109.871E-03    -55.1922E-03     27.4148E-03     176.204E-03     90.6822E+06    -7.93374E+06    -33.5559E+06    -108.407E+06    -37.2424E+06    -79.0986E+06    -33.5559E+06    -45.4983E+06
            1765     100.175E-03     12.3040E-03     99.4160E-03     110.994E-03    -55.0717E-03    -55.9632E-03    -54.1400E-03     109.171E-03    -55.0717E-03     34.4815E-03     191.168E-03     74.4575E+06     3.44359E+06    -38.9448E+06    -80.3367E+06    -32.8546E+06    -44.0385E+06    -38.9448E+06    -40.2471E+06
            1766     100.336E-03     13.2514E-03     99.4573E-03     111.734E-03    -54.8755E-03    -56.9429E-03    -53.6553E-03     108.446E-03    -54.8755E-03     46.0223E-03     205.339E-03     99.8416E+06     54.3257E+06    -35.7704E+06    -52.3271E+06    -28.3975E+06     36.8121E+06    -42.1864E+06    -27.0184E+06
            1767     100.524E-03     14.1998E-03     99.5160E-03     111.172E-03    -54.7480E-03    -56.4826E-03    -52.9131E-03     107.719E-03    -54.8639E-03     47.2369E-03     205.063E-03     150.532E+06     132.924E+06     4.85654E+06    -31.4190E+06    -23.6972E+06     131.618E+06    -1.55950E+06    -9.19690E+06
            1768     100.705E-03     15.1481E-03     99.5595E-03     112.679E-03    -54.9781E-03    -57.7762E-03    -52.1323E-03     107.151E-03    -55.0940E-03     58.0895E-03     221.650E-03     172.941E+06     179.751E+06     78.6676E+06    -16.3683E+06    -16.3414E+06     179.725E+06     78.6676E+06    -47.0395E+03
            1769     100.933E-03     16.0975E-03     99.6414E-03     110.930E-03    -53.2111E-03    -57.8236E-03    -51.4608E-03     106.572E-03    -55.2155E-03     43.6030E-03     200.323E-03     180.020E+06     193.908E+06     134.791E+06    -7.74123E+06    -7.73462E+06     193.901E+06     134.791E+06     156.205E+03
            1770     100.364E-03     946.555E-06     100.360E-03     110.236E-03    -54.9836E-03    -55.2562E-03    -55.2057E-03     110.226E-03    -55.0237E-03     2.37021E-03     110.707E-03     118.630E+06    -75.3716E+06    -78.4294E+06    -195.495E+06    -78.1516E+06    -194.838E+06    -76.3063E+06    -8.05993E+06
            1771     100.381E-03     1.89276E-03     100.364E-03     110.270E-03    -55.0670E-03    -55.2093E-03    -55.0891E-03     110.237E-03    -55.1544E-03     4.53214E-03     111.725E-03     116.506E+06    -66.5812E+06    -71.5896E+06    -185.488E+06    -73.8112E+06    -183.266E+06    -66.5812E+06    -15.0230E+06
            1772     100.409E-03     2.83946E-03     100.369E-03     110.271E-03    -55.0950E-03    -55.1772E-03    -55.0304E-03     110.205E-03    -55.1756E-03     6.54593E-03     113.380E-03     114.780E+06    -54.4050E+06    -64.4323E+06    -173.839E+06    -68.8915E+06    -169.380E+06    -54.4050E+06    -21.4062E+06
            1773     100.447E-03     3.78601E-03     100.376E-03     110.425E-03    -55.1584E-03    -55.2691E-03    -55.0985E-03     110.318E-03    -55.2214E-03     8.38847E-03     115.921E-03     119.512E+06    -41.0369E+06    -56.2422E+06    -167.389E+06    -62.9119E+06    -160.720E+06    -41.0369E+06    -26.2993E+06
            1774     100.497E-03     4.73215E-03     100.385E-03     110.521E-03    -55.2208E-03    -55.3021E-03    -55.1123E-03     110.361E-03    -55.2507E-03     10.2469E-03     119.198E-03     119.602E+06    -31.3137E+06    -46.4113E+06    -157.713E+06    -56.3747E+06    -147.750E+06    -31.3137E+06    -31.4495E+06
            1775     100.556E-03     5.67874E-03     100.396E-03     110.539E-03    -55.2230E-03    -55.3104E-03    -55.0541E-03     110.319E-03    -55.2601E-03     12.0204E-03     123.282E-03     118.954E+06    -24.0598E+06    -37.5534E+06    -149.184E+06    -51.1318E+06    -135.605E+06    -24.0598E+06    -36.4517E+06
            1776     100.626E-03     6.62532E-03     100.408E-03     110.614E-03    -55.2397E-03    -55.3674E-03    -55.0485E-03     110.332E-03    -55.2768E-03     13.6372E-03     128.370E-03     120.329E+06    -17.9141E+06    -30.1828E+06    -143.896E+06    -47.0202E+06    -127.058E+06    -17.9141E+06    -40.2803E+06
            1777     100.707E-03     7.57150E-03     100.422E-03     110.650E-03    -55.2647E-03    -55.3849E-03    -55.0208E-03     110.286E-03    -55.2647E-03     15.4966E-03     134.459E-03     117.111E+06    -15.9032E+06    -23.4232E+06    -136.558E+06    -42.4945E+06    -117.486E+06    -15.9032E+06    -42.3461E+06
            1778     100.799E-03     8.51853E-03     100.438E-03     110.866E-03    -55.2615E-03    -55.6139E-03    -55.1426E-03     110.395E-03    -55.2615E-03     17.6528E-03     142.222E-03     114.054E+06    -14.5559E+06    -17.5227E+06    -130.041E+06    -38.2965E+06    -108.710E+06    -15.1132E+06    -44.1522E+06
            1779     100.901E-03     9.46415E-03     100.456E-03     110.999E-03    -55.2537E-03    -55.7521E-03    -55.1729E-03     110.420E-03    -55.2537E-03     19.5978E-03     151.236E-03     111.277E+06    -10.6394E+06    -17.4411E+06    -125.050E+06    -35.6100E+06    -100.079E+06    -17.4411E+06    -47.2235E+06
            1780     101.015E-03     10.4107E-03     100.477E-03     110.806E-03    -55.2135E-03    -55.5887E-03    -54.8098E-03     110.027E-03    -55.2135E-03     22.6017E-03     161.942E-03     107.359E+06    -6.43032E+06    -23.9148E+06    -121.346E+06    -34.1761E+06    -93.6006E+06    -23.9148E+06    -49.1509E+06
            1781     101.141E-03     11.3578E-03     100.501E-03     110.827E-03    -55.1399E-03    -55.6788E-03    -54.5018E-03     109.650E-03    -55.1399E-03     27.7400E-03     175.639E-03     96.5742E+06    -1.65642E+06    -29.6137E+06    -108.874E+06    -32.7392E+06    -77.7916E+06    -29.6137E+06    -48.4348E+06
            1782     101.284E-03     12.3050E-03     100.533E-03     111.103E-03    -55.0355E-03    -56.1124E-03    -54.2665E-03     109.257E-03    -55.0355E-03     34.7109E-03     191.109E-03     81.0767E+06     6.46339E+06    -35.9300E+06    -85.6969E+06    -30.9794E+06    -48.2541E+06    -35.9300E+06    -44.5681E+06
            1783     101.442E-03     13.2517E-03     100.572E-03     111.893E-03    -54.8446E-03    -57.1147E-03    -53.7268E-03     108.506E-03    -54.8446E-03     46.7058E-03     205.261E-03     91.3724E+06     40.1483E+06    -36.7169E+06    -59.4531E+06    -29.0546E+06     16.5647E+06    -43.5319E+06    -31.8739E+06
            1784     101.628E-03     14.1997E-03     100.631E-03     110.788E-03    -54.5278E-03    -56.3113E-03    -52.5593E-03     107.241E-03    -54.7324E-03     47.7362E-03     204.600E-03     139.490E+06     115.328E+06    -8.37226E+06    -34.7727E+06    -25.1201E+06     112.490E+06    -15.1872E+06    -14.1556E+06
            1785     101.807E-03     15.1495E-03     100.674E-03     112.019E-03    -54.6964E-03    -57.3785E-03    -51.5592E-03     106.404E-03    -54.9010E-03     58.3079E-03     220.903E-03     173.999E+06     176.215E+06     61.8705E+06    -18.5170E+06    -18.3773E+06     176.075E+06     61.8705E+06    -4.06462E+06
            1786     102.033E-03     16.0999E-03     100.755E-03     110.355E-03    -52.8639E-03    -57.5542E-03    -50.9068E-03     105.921E-03    -55.0767E-03     43.8546E-03     199.450E-03     180.763E+06     193.445E+06     130.124E+06    -9.35224E+06    -9.33072E+06     193.423E+06     130.124E+06    -879.475E+03
            1787     101.481E-03     946.759E-06     101.476E-03     109.804E-03    -54.7658E-03    -55.0405E-03    -55.0281E-03     109.792E-03    -54.7658E-03     2.68450E-03     110.260E-03     116.292E+06    -60.1454E+06    -62.8485E+06    -177.759E+06    -62.7152E+06    -176.958E+06    -61.0801E+06    -8.90729E+06
            1788     101.497E-03     1.89326E-03     101.479E-03     109.917E-03    -54.8904E-03    -55.0292E-03    -54.9453E-03     109.880E-03    -54.9378E-03     4.77707E-03     111.348E-03     112.571E+06    -53.6357E+06    -57.4962E+06    -168.061E+06    -60.0784E+06    -165.479E+06    -53.6357E+06    -16.0741E+06
            1789     101.525E-03     2.83996E-03     101.485E-03     109.980E-03    -54.9364E-03    -55.0447E-03    -54.9170E-03     109.907E-03    -54.9907E-03     6.87871E-03     113.045E-03     113.113E+06    -42.5484E+06    -51.0398E+06    -159.632E+06    -55.7783E+06    -154.893E+06    -42.5484E+06    -22.0829E+06
            1790     101.563E-03     3.78653E-03     101.492E-03     110.153E-03    -55.0375E-03    -55.1169E-03    -54.9880E-03     110.031E-03    -55.0444E-03     8.90707E-03     115.565E-03     117.370E+06    -31.0101E+06    -42.3299E+06    -153.609E+06    -49.8492E+06    -146.089E+06    -31.0101E+06    -27.6786E+06
            1791     101.612E-03     4.73307E-03     101.501E-03     110.214E-03    -55.0740E-03    -55.1397E-03    -54.9486E-03     110.034E-03    -55.0846E-03     10.8748E-03     118.777E-03     118.614E+06    -21.0593E+06    -33.2737E+06    -145.306E+06    -43.8895E+06    -134.690E+06    -21.0593E+06    -32.7155E+06
            1792     101.671E-03     5.67960E-03     101.512E-03     110.167E-03    -55.0554E-03    -55.1091E-03    -54.8119E-03     109.917E-03    -55.1030E-03     12.7835E-03     122.737E-03     118.692E+06    -13.2594E+06    -25.7105E+06    -137.685E+06    -38.9956E+06    -124.400E+06    -13.2594E+06    -36.1329E+06
            1793     101.741E-03     6.62648E-03     101.525E-03     110.284E-03    -55.0669E-03    -55.2150E-03    -54.8573E-03     109.964E-03    -55.1040E-03     14.5220E-03     127.763E-03     119.415E+06    -7.96862E+06    -18.7993E+06    -132.416E+06    -35.1667E+06    -116.049E+06    -7.96862E+06    -39.8122E+06
            1794     101.821E-03     7.57329E-03     101.539E-03     110.582E-03    -55.1074E-03    -55.4746E-03    -55.0719E-03     110.180E-03    -55.1074E-03     16.2959E-03     134.080E-03     118.208E+06    -6.84765E+06    -12.9942E+06    -127.974E+06    -32.0501E+06    -108.918E+06    -6.84765E+06    -42.7042E+06
            1795     101.911E-03     8.51926E-03     101.554E-03     110.775E-03    -55.1232E-03    -55.6570E-03    -55.1213E-03     110.240E-03    -55.1232E-03     18.7782E-03     141.742E-03     114.891E+06    -5.46849E+06    -8.32272E+06    -121.757E+06    -29.0797E+06    -99.6817E+06    -6.78658E+06    -45.1564E+06
            1796     102.014E-03     9.46569E-03     101.574E-03     110.796E-03    -55.1239E-03    -55.6717E-03    -55.0108E-03     110.135E-03    -55.1239E-03     20.9050E-03     150.575E-03     111.867E+06    -1.98378E+06    -8.38555E+06    -116.850E+06    -26.5567E+06    -92.2772E+06    -8.38555E+06    -47.0925E+06
            1797     102.125E-03     10.4124E-03     101.592E-03     110.769E-03    -55.0935E-03    -55.6753E-03    -54.8180E-03     109.912E-03    -55.0935E-03     23.7198E-03     161.383E-03     107.363E+06     378.573E+03    -14.5930E+06    -113.562E+06    -26.0417E+06    -87.1416E+06    -14.5930E+06    -48.0379E+06
            1798     102.251E-03     11.3591E-03     101.618E-03     110.823E-03    -55.0262E-03    -55.8140E-03    -54.5306E-03     109.539E-03    -55.0262E-03     28.9506E-03     175.011E-03     98.0844E+06     3.07002E+06    -22.4231E+06    -104.991E+06    -26.9174E+06    -75.0039E+06    -22.4231E+06    -48.2061E+06
            1799     102.391E-03     12.3057E-03     101.648E-03     111.033E-03    -54.9249E-03    -56.1505E-03    -54.1855E-03     109.068E-03    -54.9249E-03     35.8181E-03     190.446E-03     82.9425E+06     7.78549E+06    -30.8876E+06     -86.582E+06    -27.9127E+06    -50.8839E+06    -30.8876E+06    -45.1734E+06
            1800     102.549E-03     13.2541E-03     101.689E-03     111.737E-03    -54.7372E-03    -57.0408E-03    -53.5594E-03     108.256E-03    -54.7372E-03     47.3538E-03     204.620E-03     82.2210E+06     29.3083E+06    -36.3313E+06    -60.8298E+06    -26.8972E+06     281.284E+03    -41.2369E+06    -35.4969E+06
            1801     102.732E-03     14.2023E-03     101.745E-03     110.562E-03    -54.4416E-03    -56.1837E-03    -52.4546E-03     106.921E-03    -54.5303E-03     48.3467E-03     203.973E-03     131.296E+06     100.128E+06    -24.8416E+06    -36.6189E+06    -22.9852E+06     93.6742E+06    -32.0211E+06    -20.4676E+06
            1802     102.908E-03     15.1515E-03     101.787E-03     111.662E-03    -54.5399E-03    -57.1636E-03    -51.3697E-03     105.957E-03    -54.6286E-03     58.7759E-03     220.204E-03     172.916E+06     169.655E+06     40.1488E+06    -19.7399E+06    -16.9280E+06     169.117E+06     37.8749E+06    -8.01476E+06
            1803     103.132E-03     16.1017E-03     101.867E-03     109.554E-03    -52.2579E-03    -57.3153E-03    -50.2124E-03     105.069E-03    -54.8760E-03     44.2085E-03     198.504E-03     178.141E+06     190.445E+06     123.226E+06    -9.34604E+06    -9.31041E+06     190.409E+06     123.226E+06    -2.13176E+06
            1804     102.595E-03     946.928E-06     102.591E-03     109.260E-03    -54.4619E-03    -54.8000E-03    -54.7598E-03     109.246E-03    -54.4879E-03     2.87212E-03     109.713E-03     112.420E+06    -44.3392E+06    -47.8463E+06    -158.466E+06    -47.5322E+06    -157.503E+06    -45.6161E+06    -9.25352E+06
            1805     102.612E-03     1.89408E-03     102.595E-03     109.314E-03    -54.6214E-03    -54.6954E-03    -54.6280E-03     109.272E-03    -54.6474E-03     5.07214E-03     110.701E-03     109.874E+06    -39.2477E+06    -41.7700E+06    -150.355E+06    -44.5798E+06    -147.545E+06    -39.2477E+06    -16.7566E+06
            1806     102.639E-03     2.84071E-03     102.599E-03     109.449E-03    -54.6915E-03    -54.7607E-03    -54.6718E-03     109.361E-03    -54.6915E-03     7.52096E-03     112.427E-03     112.597E+06    -29.9941E+06    -34.8247E+06    -144.909E+06    -40.1447E+06    -139.589E+06    -29.9941E+06    -23.3757E+06
            1807     102.677E-03     3.78755E-03     102.608E-03     109.488E-03    -54.7220E-03    -54.7681E-03    -54.5999E-03     109.336E-03    -54.7379E-03     9.90925E-03     114.765E-03     116.772E+06    -18.4756E+06    -26.8872E+06    -139.217E+06    -35.1516E+06    -130.953E+06    -18.4756E+06    -29.1171E+06
            1808     102.726E-03     4.73454E-03     102.617E-03     109.531E-03    -54.7338E-03    -54.7997E-03    -54.5526E-03     109.310E-03    -54.7602E-03     11.9688E-03     117.875E-03     120.243E+06    -8.59850E+06    -19.2174E+06    -133.792E+06    -30.0125E+06    -122.997E+06    -8.59850E+06    -33.4445E+06
            1809     102.784E-03     5.68174E-03     102.627E-03     109.658E-03    -54.7615E-03    -54.8999E-03    -54.5892E-03     109.357E-03    -54.7721E-03     13.9796E-03     121.906E-03     119.779E+06    -2.07234E+06    -11.5356E+06    -126.267E+06    -24.8946E+06    -112.908E+06    -2.07234E+06    -36.6795E+06
            1810     102.854E-03     6.62862E-03     102.640E-03     109.854E-03    -54.7938E-03    -55.0608E-03    -54.6706E-03     109.464E-03    -54.7938E-03     15.9705E-03     126.901E-03     120.612E+06     3.77098E+06    -5.27830E+06    -121.074E+06    -20.7195E+06    -105.632E+06     3.77098E+06    -39.3431E+06
            1811     102.934E-03     7.57518E-03     102.655E-03     110.108E-03    -54.8092E-03    -55.2976E-03    -54.7901E-03     109.600E-03    -54.8092E-03     18.1901E-03     133.043E-03     120.472E+06     5.94550E+06    -953.480E+03    -117.781E+06    -18.0029E+06    -100.116E+06     5.32981E+06    -41.8632E+06
            1812     103.024E-03     8.52173E-03     102.671E-03     110.187E-03    -54.8101E-03    -55.3767E-03    -54.7136E-03     109.524E-03    -54.8101E-03     20.8199E-03     140.490E-03     115.869E+06     5.68618E+06     2.59855E+06    -111.694E+06    -16.6193E+06    -90.9364E+06     4.14682E+06    -44.3586E+06
            1813     103.124E-03     9.46919E-03     102.689E-03     110.322E-03    -54.8059E-03    -55.5098E-03    -54.6867E-03     109.499E-03    -54.8059E-03     23.2302E-03     149.151E-03     113.020E+06     6.54495E+06     1.13168E+06    -109.060E+06    -16.6557E+06    -86.3929E+06     1.66548E+06    -45.7207E+06
            1814     103.237E-03     10.4154E-03     102.710E-03     110.592E-03    -54.7840E-03    -55.7929E-03    -54.7605E-03     109.560E-03    -54.7840E-03     26.0202E-03     160.104E-03     107.007E+06     7.30182E+06    -4.70842E+06    -105.130E+06    -16.8257E+06    -81.0026E+06    -4.70842E+06    -46.1129E+06
            1815     103.359E-03     11.3623E-03     102.732E-03     110.786E-03    -54.7429E-03    -56.0569E-03    -54.5542E-03     109.284E-03    -54.7429E-03     31.2933E-03     173.787E-03     97.3855E+06     8.33101E+06    -13.3099E+06    -97.8503E+06    -18.1323E+06    -71.3870E+06    -13.3099E+06    -45.7805E+06
            1816     103.499E-03     12.3099E-03     102.764E-03     111.069E-03    -54.6606E-03    -56.4556E-03    -54.2419E-03     108.856E-03    -54.6606E-03     38.1006E-03     189.150E-03     82.9995E+06     11.3727E+06    -23.4141E+06    -82.6276E+06    -19.6996E+06    -51.5553E+06    -23.4141E+06    -43.6976E+06
            1817     103.654E-03     13.2564E-03     102.803E-03     111.737E-03    -54.5135E-03    -57.2682E-03    -53.5848E-03     108.053E-03    -54.5135E-03     48.7750E-03     203.618E-03     76.4228E+06     25.8577E+06    -32.4592E+06    -57.8629E+06    -20.1123E+06    -10.1239E+06    -34.2281E+06    -37.7678E+06
            1818     103.835E-03     14.2055E-03     102.859E-03     110.592E-03    -54.3070E-03    -56.3349E-03    -52.4860E-03     106.743E-03    -54.3070E-03     49.7538E-03     203.079E-03     121.236E+06     87.5284E+06    -28.8011E+06    -38.0549E+06    -19.4590E+06     76.6702E+06    -36.5388E+06    -25.6877E+06
            1819     104.010E-03     15.1546E-03     102.900E-03     111.471E-03    -54.3210E-03    -57.1837E-03    -51.2702E-03     105.558E-03    -54.3210E-03     59.9481E-03     219.248E-03     166.740E+06     159.233E+06     24.0312E+06    -22.6775E+06    -15.5228E+06     158.047E+06     18.0624E+06    -12.0744E+06
            1820     104.230E-03     16.1061E-03     102.979E-03     108.713E-03    -51.6129E-03    -57.1112E-03    -49.5607E-03     104.110E-03    -54.5597E-03     45.0237E-03     197.499E-03     173.305E+06     185.613E+06     110.523E+06    -8.05072E+06    -7.92627E+06     185.488E+06     110.523E+06    -3.33428E+06
            1821     103.710E-03     947.281E-06     103.706E-03     108.372E-03    -53.9625E-03    -54.4123E-03    -54.3088E-03     108.357E-03    -54.0503E-03     2.90815E-03     108.819E-03     107.163E+06    -28.3645E+06    -31.3927E+06    -137.003E+06    -30.7657E+06    -135.604E+06    -30.3899E+06    -11.3246E+06
            1822     103.726E-03     1.89462E-03     103.709E-03     108.182E-03    -54.0131E-03    -54.1726E-03    -53.9669E-03     108.126E-03    -54.1628E-03     5.77869E-03     109.514E-03     109.091E+06    -22.3968E+06    -24.7652E+06    -132.650E+06    -27.2933E+06    -129.373E+06    -23.1453E+06    -18.3489E+06
            1823     103.754E-03     2.84232E-03     103.715E-03     108.229E-03    -54.0736E-03    -54.1593E-03    -53.9775E-03     108.109E-03    -54.1354E-03     8.68743E-03     111.085E-03     113.171E+06    -14.1536E+06    -17.4755E+06    -128.936E+06    -23.3190E+06    -123.093E+06    -14.1536E+06    -24.6025E+06
            1824     103.791E-03     3.78988E-03     103.722E-03     108.298E-03    -54.1240E-03    -54.1753E-03    -53.9603E-03     108.099E-03    -54.1399E-03     11.2690E-03     113.361E-03     117.182E+06    -5.47070E+06    -10.9198E+06    -125.262E+06    -19.5006E+06    -116.681E+06    -5.47070E+06    -30.0514E+06
            1825     103.840E-03     4.73757E-03     103.731E-03     108.368E-03    -54.1289E-03    -54.2429E-03    -53.9318E-03     108.073E-03    -54.1448E-03     13.7422E-03     116.379E-03     121.331E+06     2.81760E+06    -3.82439E+06    -121.673E+06    -15.0358E+06    -110.462E+06     2.81760E+06    -34.5008E+06
            1826     103.897E-03     5.68479E-03     103.742E-03     108.591E-03    -54.1479E-03    -54.4466E-03    -54.0287E-03     108.173E-03    -54.1479E-03     16.3325E-03     120.305E-03     121.669E+06     8.65225E+06     2.57557E+06    -115.927E+06    -10.7694E+06    -102.582E+06     8.65225E+06    -37.4046E+06
            1827     103.966E-03     6.63207E-03     103.755E-03     108.848E-03    -54.1845E-03    -54.6622E-03    -54.1048E-03     108.291E-03    -54.1845E-03     18.9000E-03     125.142E-03     122.120E+06     14.2945E+06     7.46982E+06    -111.054E+06    -7.28425E+06    -96.3004E+06     14.2945E+06    -39.0901E+06
            1828     104.046E-03     7.57958E-03     103.769E-03     108.939E-03    -54.1932E-03    -54.7436E-03    -54.0259E-03     108.221E-03    -54.1932E-03     21.4824E-03     130.859E-03     122.265E+06     17.0064E+06     11.2401E+06    -107.986E+06    -4.48729E+06    -91.6425E+06     16.3907E+06    -41.0376E+06
            1829     104.135E-03     8.52749E-03     103.786E-03     109.218E-03    -54.1768E-03    -55.0354E-03    -54.1143E-03     108.297E-03    -54.1768E-03     24.3700E-03     138.177E-03     116.431E+06     15.5974E+06     13.3401E+06    -101.945E+06    -3.55432E+06    -84.1492E+06     14.6964E+06    -41.7345E+06
            1830     104.235E-03     9.47427E-03     103.804E-03     109.587E-03    -54.1831E-03    -55.3896E-03    -54.2576E-03     108.455E-03    -54.1831E-03     27.0903E-03     146.766E-03     113.150E+06     16.1600E+06     12.7582E+06    -98.6233E+06    -3.76577E+06    -79.2313E+06     13.2920E+06    -42.8016E+06
            1831     104.346E-03     10.4219E-03     103.824E-03     109.920E-03    -54.1698E-03    -55.7210E-03    -54.3149E-03     108.514E-03    -54.1698E-03     30.2108E-03     157.432E-03     108.699E+06     15.5591E+06     5.71242E+06    -97.6180E+06    -5.10828E+06    -76.9506E+06     5.71242E+06    -43.5957E+06
            1832     104.469E-03     11.3688E-03     103.848E-03     110.620E-03    -54.1636E-03    -56.4591E-03    -54.4970E-03     108.658E-03    -54.1636E-03     35.6942E-03     171.283E-03     97.7734E+06     15.7176E+06    -2.52805E+06    -89.7551E+06    -6.81691E+06    -67.2206E+06    -2.52805E+06    -43.0346E+06
            1833     104.607E-03     12.3153E-03     103.879E-03     111.226E-03    -54.1308E-03    -57.1448E-03    -54.4065E-03     108.488E-03    -54.1308E-03     42.3802E-03     186.736E-03     82.9236E+06     15.9718E+06    -13.2091E+06    -76.9786E+06    -9.08271E+06    -51.9241E+06    -13.2091E+06    -40.9543E+06
            1834     104.761E-03     13.2636E-03     103.918E-03     112.113E-03    -54.0500E-03    -58.1056E-03    -53.8833E-03     107.891E-03    -54.0500E-03     52.4516E-03     201.648E-03     70.8849E+06     25.0120E+06    -23.6162E+06    -53.8090E+06    -13.0549E+06    -15.7420E+06    -23.6162E+06    -36.1234E+06
            1835     104.938E-03     14.2113E-03     103.971E-03     110.944E-03    -53.8940E-03    -57.0760E-03    -52.7306E-03     106.598E-03    -53.8940E-03     53.0239E-03     201.601E-03     105.413E+06     77.5382E+06    -22.0593E+06    -32.4751E+06    -14.8141E+06     64.6462E+06    -26.8284E+06    -27.6644E+06
            1836     105.113E-03     15.1611E-03     104.013E-03     111.498E-03    -53.8631E-03    -57.6454E-03    -51.2491E-03     105.101E-03    -53.8631E-03     62.6526E-03     217.664E-03     152.923E+06     145.724E+06     13.8433E+06    -19.8677E+06    -13.0348E+06     143.660E+06     9.07420E+06    -14.9623E+06
            1837     105.328E-03     16.1119E-03     104.089E-03     108.130E-03    -51.0120E-03    -57.1142E-03    -49.1681E-03     103.257E-03    -54.0855E-03     46.4071E-03     196.050E-03     169.030E+06     178.434E+06     97.3672E+06    -8.74962E+06    -8.57485E+06     178.260E+06     97.3672E+06    -4.33538E+06
            1838     104.823E-03     947.914E-06     104.818E-03     106.368E-03    -53.0662E-03    -53.3028E-03    -53.2161E-03     106.343E-03    -53.1281E-03     3.53139E-03     106.785E-03     101.942E+06    -10.8435E+06    -12.7473E+06    -113.719E+06    -12.8288E+06    -112.121E+06    -12.3603E+06    -12.2107E+06
            1839     104.839E-03     1.89656E-03     104.821E-03     106.225E-03    -53.0353E-03    -53.1902E-03    -52.9839E-03     106.142E-03    -53.1590E-03     6.99361E-03     107.475E-03     104.982E+06    -7.44382E+06    -9.57276E+06    -113.471E+06    -12.0107E+06    -109.702E+06    -8.77495E+06    -19.2249E+06
            1840     104.866E-03     2.84518E-03     104.827E-03     106.148E-03    -53.0195E-03    -53.1302E-03    -52.8672E-03     105.975E-03    -53.1092E-03     10.3287E-03     108.808E-03     109.702E+06    -1.81187E+06    -4.29098E+06    -112.732E+06    -9.77277E+06    -106.267E+06    -2.79476E+06    -25.6043E+06
            1841     104.904E-03     3.79363E-03     104.835E-03     106.180E-03    -53.0480E-03    -53.1341E-03    -52.8133E-03     105.887E-03    -53.0759E-03     13.4519E-03     110.882E-03     114.944E+06     4.57453E+06     2.43988E+06    -111.418E+06    -6.19271E+06    -102.236E+06     4.02439E+06    -30.9845E+06
            1842     104.951E-03     4.74202E-03     104.844E-03     106.266E-03    -53.0550E-03    -53.2137E-03    -52.7622E-03     105.814E-03    -53.0550E-03     16.7186E-03     113.697E-03     119.515E+06     11.5267E+06     8.67271E+06    -109.384E+06    -2.90808E+06    -97.6534E+06     11.3768E+06    -35.2777E+06
            1843     105.009E-03     5.69099E-03     104.855E-03     106.434E-03    -53.0335E-03    -53.4037E-03    -52.7498E-03     105.780E-03    -53.0335E-03     20.1787E-03     117.295E-03     122.187E+06     16.8986E+06     13.1585E+06    -107.106E+06      -7.447E+03    -93.9399E+06     16.8986E+06    -37.5489E+06
            1844     105.078E-03     6.63957E-03     104.868E-03     106.732E-03    -53.0304E-03    -53.7011E-03    -52.8195E-03     105.851E-03    -53.0304E-03     23.4925E-03     121.802E-03     121.200E+06     20.6287E+06     17.7510E+06    -101.968E+06     2.94650E+06    -87.1637E+06     20.6287E+06    -39.3252E+06
            1845     105.157E-03     7.58804E-03     104.882E-03     107.097E-03    -53.0482E-03    -54.0471E-03    -52.9218E-03     105.972E-03    -53.0482E-03     26.5710E-03     127.414E-03     122.956E+06     24.7607E+06     21.1147E+06    -99.9610E+06     5.58010E+06    -84.4264E+06     24.7607E+06    -40.4453E+06
            1846     105.245E-03     8.53631E-03     104.898E-03     107.598E-03    -53.0456E-03    -54.5411E-03    -53.0812E-03     106.138E-03    -53.0456E-03     30.2922E-03     134.456E-03     118.384E+06     25.1218E+06     20.7049E+06    -95.3924E+06     7.05782E+06    -79.9498E+06     23.3262E+06    -39.6971E+06
            1847     105.346E-03     9.48492E-03     104.918E-03     108.169E-03    -53.0644E-03    -55.0906E-03    -53.3165E-03     106.395E-03    -53.0644E-03     33.5520E-03     142.714E-03     112.109E+06     25.3855E+06     20.7018E+06    -88.9525E+06     6.73018E+06    -72.7085E+06     23.1130E+06    -39.3997E+06
            1848     105.455E-03     10.4326E-03     104.938E-03     108.975E-03    -53.0852E-03    -55.8734E-03    -53.7097E-03     106.811E-03    -53.0852E-03     37.1699E-03     153.314E-03     109.654E+06     24.7414E+06     14.8363E+06    -89.4299E+06     5.36656E+06    -72.4663E+06     17.2476E+06    -40.0643E+06
            1849     105.578E-03     11.3807E-03     104.963E-03     110.123E-03    -53.1223E-03    -56.9847E-03    -54.1509E-03     107.289E-03    -53.1223E-03     42.8422E-03     167.080E-03     98.3006E+06     21.4921E+06     8.39851E+06    -82.6332E+06     3.07365E+06    -64.2147E+06     8.39851E+06    -39.5399E+06
            1850     105.716E-03     12.3282E-03     104.995E-03     111.314E-03    -53.1696E-03    -58.1565E-03    -54.4406E-03     107.598E-03    -53.1696E-03     49.3682E-03     182.788E-03     82.5943E+06     17.2253E+06    -2.02754E+06    -72.6373E+06    -1.37261E+06    -54.0393E+06    -2.02754E+06    -36.2136E+06
            1851     105.868E-03     13.2745E-03     105.033E-03     112.837E-03    -53.1886E-03    -59.6813E-03    -54.3530E-03     107.508E-03    -53.1886E-03     59.2290E-03     198.293E-03     65.1939E+06     25.4461E+06    -9.01639E+06    -48.0254E+06    -5.68970E+06    -16.8896E+06    -9.01639E+06    -31.8906E+06
            1852     106.044E-03     14.2227E-03     105.086E-03     111.824E-03    -53.1647E-03    -58.6821E-03    -53.4171E-03     106.559E-03    -53.1647E-03     58.5710E-03     199.101E-03     85.2372E+06     69.1320E+06    -5.19523E+06    -22.4037E+06    -9.12142E+06     56.9239E+06    -6.26944E+06    -25.5624E+06
            1853     106.214E-03     15.1716E-03     105.124E-03     112.379E-03    -53.1603E-03    -59.2109E-03    -51.9393E-03     105.107E-03    -53.1603E-03     67.3981E-03     215.427E-03     133.744E+06     131.030E+06     14.8652E+06    -14.2406E+06    -10.9931E+06     128.856E+06     13.7910E+06    -14.5175E+06
            1854     106.429E-03     16.1230E-03     105.201E-03     108.548E-03    -50.9301E-03    -57.6212E-03    -49.7728E-03     103.158E-03    -53.3881E-03     48.6147E-03     194.906E-03     162.138E+06     170.447E+06     90.5138E+06    -7.74239E+06    -7.53450E+06     170.239E+06     90.5138E+06    -4.97727E+06
            1855     105.932E-03     950.326E-06     105.928E-03     102.714E-03    -51.1837E-03    -51.5308E-03    -51.4898E-03     102.673E-03    -51.1837E-03     4.63686E-03     103.084E-03     92.2269E+06     2.43003E+06    -474.906E+03    -91.2034E+06    -261.645E+03    -89.7912E+06     804.547E+03    -10.4340E+06
            1856     105.949E-03     1.89981E-03     105.932E-03     102.929E-03    -51.3751E-03    -51.5536E-03    -51.4272E-03     102.803E-03    -51.3751E-03     8.52867E-03     104.053E-03     96.1989E+06     4.14249E+06     2.09966E+06    -93.0565E+06     113.417E+03    -89.0966E+06     2.16884E+06    -18.8397E+06
            1857     105.976E-03     2.84955E-03     105.937E-03     102.737E-03    -51.3287E-03    -51.4074E-03    -51.0976E-03     102.463E-03    -51.3646E-03     12.6779E-03     105.137E-03     103.365E+06     8.65804E+06     6.11153E+06    -95.9541E+06     1.59054E+06    -88.8866E+06     6.11153E+06    -26.1321E+06
            1858     106.013E-03     3.80011E-03     105.944E-03     102.585E-03    -51.2508E-03    -51.3336E-03    -50.8181E-03     102.105E-03    -51.2867E-03     16.8702E-03     106.800E-03     109.842E+06     13.3243E+06     11.2271E+06    -97.5450E+06     3.45895E+06    -87.6796E+06     11.2271E+06    -31.5075E+06
            1859     106.060E-03     4.75074E-03     105.953E-03     102.695E-03    -51.2159E-03    -51.4803E-03    -50.7340E-03     101.949E-03    -51.2159E-03     21.0909E-03     109.298E-03     114.400E+06     17.8252E+06     15.3696E+06    -97.7777E+06     5.19771E+06    -85.9209E+06     16.1403E+06    -34.9252E+06
            1860     106.118E-03     5.70094E-03     105.964E-03     102.900E-03    -51.1547E-03    -51.7433E-03    -50.6618E-03     101.818E-03    -51.1547E-03     25.4256E-03     112.542E-03     118.472E+06     21.8601E+06     19.7061E+06    -97.6665E+06     7.18203E+06    -84.1247E+06     20.8424E+06    -37.6367E+06
            1861     106.186E-03     6.65178E-03     105.978E-03     103.251E-03    -51.1057E-03    -52.1394E-03    -50.6669E-03     101.778E-03    -51.1057E-03     29.7219E-03     116.589E-03     117.844E+06     23.5779E+06     23.1235E+06    -94.4924E+06     8.64537E+06    -79.9602E+06     23.5239E+06    -38.6423E+06
            1862     106.265E-03     7.60227E-03     105.993E-03     103.978E-03    -51.1063E-03    -52.8687E-03    -50.9475E-03     102.057E-03    -51.1063E-03     34.0677E-03     121.948E-03     118.284E+06     27.1049E+06     23.3976E+06    -92.9513E+06     8.66595E+06    -78.1657E+06     27.0509E+06    -38.6744E+06
            1863     106.353E-03     8.55237E-03     106.009E-03     104.904E-03    -51.1201E-03    -53.7705E-03    -51.3078E-03     102.442E-03    -51.1201E-03     38.7742E-03     128.704E-03     115.964E+06     27.4903E+06     21.1457E+06    -91.5135E+06     8.34905E+06    -77.2066E+06     25.9800E+06    -37.7182E+06
            1864     106.453E-03     9.50234E-03     106.029E-03     106.008E-03    -51.1753E-03    -54.8251E-03    -51.8556E-03     103.038E-03    -51.1753E-03     42.8865E-03     136.762E-03     107.056E+06     27.4893E+06     20.2975E+06    -82.9668E+06     7.50769E+06    -68.6668E+06     25.9790E+06    -35.8344E+06
            1865     106.564E-03     10.4519E-03     106.050E-03     107.693E-03    -51.2793E-03    -56.4072E-03    -52.8828E-03     104.169E-03    -51.2793E-03     47.1513E-03     147.528E-03     104.230E+06     26.5619E+06     17.2755E+06    -81.9655E+06     5.61544E+06    -66.8202E+06     23.0767E+06    -36.3747E+06
            1866     106.687E-03     11.3995E-03     106.076E-03     109.428E-03    -51.4073E-03    -57.9935E-03    -53.6933E-03     105.128E-03    -51.4073E-03     52.5882E-03     161.311E-03     95.7404E+06     20.0885E+06     12.7214E+06    -79.0752E+06     3.36653E+06    -63.6886E+06     14.0568E+06    -35.5550E+06
            1867     106.824E-03     12.3475E-03     106.108E-03     111.320E-03    -51.5789E-03    -59.7421E-03    -54.4109E-03     105.989E-03    -51.5789E-03     59.0949E-03     177.147E-03     81.2245E+06     14.9254E+06     5.92773E+06    -70.2097E+06     968.322E+03    -56.2527E+06     5.92773E+06    -31.4182E+06
            1868     106.976E-03     13.2953E-03     106.147E-03     113.836E-03    -51.7461E-03    -62.1174E-03    -55.1474E-03     106.866E-03    -51.7461E-03     68.3199E-03     193.610E-03     61.5352E+06     23.3906E+06     1.49919E+06    -44.4374E+06    -3.03574E+06    -18.0111E+06     1.49919E+06    -26.3548E+06
            1869     107.151E-03     14.2419E-03     106.200E-03     113.278E-03    -51.9190E-03    -61.3707E-03    -54.8889E-03     106.796E-03    -51.9190E-03     65.5688E-03     196.020E-03     67.3568E+06     59.4926E+06     8.84588E+06    -16.3046E+06    -7.60088E+06     50.7889E+06     8.84588E+06    -20.2562E+06
            1870     107.317E-03     15.1894E-03     106.237E-03     114.372E-03    -52.0829E-03    -62.2770E-03    -54.1013E-03     106.196E-03    -52.0829E-03     72.8082E-03     213.439E-03     117.808E+06     119.629E+06     23.2793E+06    -11.4009E+06    -9.72152E+06     117.950E+06     23.2793E+06    -11.9470E+06
            1871     107.529E-03     16.1387E-03     106.311E-03     111.102E-03    -51.5480E-03    -59.5616E-03    -52.8418E-03     105.291E-03    -52.4566E-03     50.0750E-03     195.877E-03     157.087E+06     163.732E+06     88.3533E+06    -7.92119E+06    -7.72994E+06     163.541E+06     88.3533E+06    -4.85507E+06
            1872     107.039E-03     952.521E-06     107.034E-03     97.3560E-03    -48.4040E-03    -48.9519E-03    -48.8567E-03     97.2887E-03    -48.4319E-03     5.85047E-03     97.6686E-03     83.0859E+06     14.5126E+06     10.5941E+06    -70.4304E+06     11.9519E+06    -69.1277E+06     11.8521E+06     -9.3835E+06
            1873     107.055E-03     1.90479E-03     107.038E-03     97.4503E-03    -48.6202E-03    -48.8288E-03    -48.5965E-03     97.2460E-03    -48.6481E-03     10.4979E-03     98.4108E-03     87.0820E+06     15.4578E+06     12.6766E+06    -72.9656E+06     11.4536E+06    -69.0091E+06     12.7243E+06    -17.8559E+06
            1874     107.080E-03     2.85755E-03     107.042E-03     97.3267E-03    -48.5861E-03    -48.7378E-03    -48.2858E-03     96.8827E-03    -48.5941E-03     15.7198E-03     99.3700E-03     93.9304E+06     17.5339E+06     13.2003E+06    -78.4769E+06     10.3998E+06    -71.3428E+06     13.2003E+06    -25.0549E+06
            1875     107.117E-03     3.81041E-03     107.049E-03     97.1686E-03    -48.4688E-03    -48.6984E-03    -47.9021E-03     96.3802E-03    -48.4769E-03     21.0073E-03     100.745E-03     100.128E+06     18.8148E+06     13.6913E+06    -83.7496E+06     9.16825E+06    -74.1031E+06     13.6913E+06    -29.8919E+06
            1876     107.164E-03     4.76371E-03     107.058E-03     97.2373E-03    -48.3601E-03    -48.8771E-03    -47.6326E-03     95.9928E-03    -48.3601E-03     26.4316E-03     102.789E-03     103.707E+06     19.2379E+06     14.4132E+06    -86.7717E+06     7.66841E+06    -75.2023E+06     14.4132E+06    -33.0217E+06
            1877     107.222E-03     5.71734E-03     107.069E-03     97.5817E-03    -48.2476E-03    -49.3283E-03    -47.5118E-03     95.7652E-03    -48.2476E-03     32.0101E-03     105.612E-03     105.253E+06     18.8580E+06     16.3957E+06    -87.5913E+06     5.52791E+06    -74.3001E+06     16.4346E+06    -35.1420E+06
            1878     107.289E-03     6.67071E-03     107.082E-03     98.2180E-03    -48.1695E-03    -50.0417E-03    -47.5475E-03     95.7238E-03    -48.1695E-03     37.6434E-03     109.316E-03     106.062E+06     18.5427E+06     16.3635E+06    -88.5578E+06     3.14795E+06    -75.0231E+06     18.2236E+06    -35.1917E+06
            1879     107.368E-03     7.62434E-03     107.097E-03     99.3002E-03    -48.1486E-03    -51.1526E-03    -47.9033E-03     96.0509E-03    -48.1486E-03     43.2352E-03     114.267E-03     104.008E+06     20.7568E+06     13.5440E+06    -86.5554E+06     365.395E+03    -73.3228E+06     20.7028E+06    -33.8581E+06
            1880     107.457E-03     8.57743E-03     107.114E-03     101.026E-03    -48.1901E-03    -52.8275E-03    -48.7470E-03     96.9454E-03    -48.1901E-03     48.9450E-03     120.975E-03     104.019E+06     21.9861E+06     10.3083E+06    -87.2046E+06    -2.85484E+06    -74.0415E+06     21.9861E+06    -33.2367E+06
            1881     107.558E-03     9.52932E-03     107.135E-03     103.278E-03    -48.3192E-03    -54.9492E-03    -50.0800E-03     98.4091E-03    -48.3192E-03     54.1920E-03     129.410E-03     95.8073E+06     20.9782E+06     8.69093E+06    -80.1871E+06    -5.13761E+06    -66.3586E+06     20.9782E+06    -31.8871E+06
            1882     107.670E-03     10.4799E-03     107.158E-03     105.921E-03    -48.5794E-03    -57.3353E-03    -51.7455E-03     100.331E-03    -48.5794E-03     58.9616E-03     140.362E-03     91.4183E+06     21.2373E+06     5.94561E+06    -76.3469E+06    -7.97381E+06    -62.4275E+06     21.2373E+06    -30.7065E+06
            1883     107.794E-03     11.4291E-03     107.187E-03     108.816E-03    -48.8959E-03    -59.9103E-03    -53.5561E-03     102.462E-03    -48.8959E-03     63.9550E-03     154.811E-03     86.8480E+06     14.6994E+06     2.39330E+06    -77.0861E+06    -11.8480E+06    -61.9294E+06     13.7840E+06    -30.9081E+06
            1884     107.930E-03     12.3771E-03     107.218E-03     111.914E-03    -49.2969E-03    -62.6338E-03    -55.3893E-03     104.670E-03    -49.2969E-03     69.4780E-03     171.706E-03     76.5512E+06     8.08972E+06    -3.26098E+06    -73.0763E+06    -14.5630E+06    -59.1695E+06     5.48494E+06    -27.9687E+06
            1885     108.086E-03     13.3232E-03     107.261E-03     115.160E-03    -49.7349E-03    -65.4479E-03    -56.8750E-03     106.587E-03    -49.7349E-03     76.6862E-03     189.483E-03     64.1894E+06     21.3903E+06    -1.39505E+06    -49.8309E+06    -15.4221E+06    -19.7185E+06     5.30490E+06    -22.8768E+06
            1886     108.259E-03     14.2683E-03     107.315E-03     115.393E-03    -50.2123E-03    -65.1830E-03    -57.7350E-03     107.945E-03    -50.2123E-03     71.1949E-03     194.184E-03     62.5478E+06     51.6888E+06     17.4964E+06    -19.6201E+06    -13.8433E+06     45.9120E+06     17.4964E+06    -17.8836E+06
            1887     108.424E-03     15.2129E-03     107.352E-03     117.824E-03    -50.7102E-03    -67.1129E-03    -58.5669E-03     109.278E-03    -50.7102E-03     76.5156E-03     213.642E-03     110.494E+06     111.586E+06     31.9625E+06    -12.3787E+06    -10.8540E+06     110.062E+06     31.9625E+06    -10.7506E+06
            1888     108.636E-03     16.1567E-03     107.428E-03     116.706E-03    -51.4441E-03    -65.2655E-03    -59.4106E-03     110.851E-03    -51.4441E-03     49.8876E-03     200.262E-03     153.262E+06     158.963E+06     91.4528E+06    -6.23339E+06    -6.07404E+06     158.804E+06     91.4528E+06    -4.44696E+06
            1889     108.137E-03     955.734E-06     108.133E-03     89.7467E-03    -44.7052E-03    -45.0413E-03    -44.8662E-03     89.6391E-03    -44.7726E-03     7.05811E-03     89.9974E-03     67.3604E+06     18.3939E+06     14.4664E+06    -50.8098E+06     16.0708E+06    -49.4174E+06     15.3970E+06    -8.99694E+06
            1890     108.153E-03     1.91237E-03     108.136E-03     89.5206E-03    -44.6788E-03    -44.8406E-03    -44.4470E-03     89.1944E-03    -44.7463E-03     12.7361E-03     90.2780E-03     70.4779E+06     17.5698E+06     13.5644E+06    -54.7943E+06     13.7314E+06    -51.0036E+06     13.6121E+06    -15.8026E+06
            1891     108.178E-03     2.86875E-03     108.140E-03     89.5400E-03    -44.6074E-03    -44.9304E-03    -44.2293E-03     88.8390E-03    -44.6074E-03     18.9233E-03     91.1411E-03     76.5544E+06     17.4486E+06     10.9045E+06    -62.1472E+06     10.7233E+06    -55.4219E+06     10.9045E+06    -22.0496E+06
            1892     108.214E-03     3.82550E-03     108.146E-03     89.5719E-03    -44.4752E-03    -45.0964E-03    -43.8426E-03     88.3181E-03    -44.4752E-03     25.4043E-03     92.3549E-03     83.6852E+06     16.2472E+06     8.37907E+06    -71.0772E+06     7.38800E+06    -62.2181E+06     8.37907E+06    -26.3499E+06
            1893     108.260E-03     4.78276E-03     108.155E-03     89.7305E-03    -44.3216E-03    -45.4103E-03    -43.4132E-03     87.7333E-03    -44.3216E-03     32.1327E-03     94.0281E-03     85.9533E+06     12.7195E+06     6.31880E+06    -76.2401E+06     2.86709E+06    -66.3877E+06     6.31880E+06    -27.8893E+06
            1894     108.317E-03     5.74033E-03     108.165E-03     90.3267E-03    -44.1742E-03    -46.1526E-03    -43.2406E-03     87.4146E-03    -44.1742E-03     38.9482E-03     96.5178E-03     84.7140E+06     8.56916E+06     3.91134E+06    -78.3350E+06    -3.66325E+06    -68.1828E+06     5.99154E+06    -27.4841E+06
            1895     108.385E-03     6.69810E-03     108.178E-03     91.5772E-03    -44.1044E-03    -47.4784E-03    -43.5109E-03     87.6097E-03    -44.1044E-03     45.8152E-03     100.166E-03     84.9069E+06     7.77019E+06    -2.50115E+06    -81.3498E+06    -12.1465E+06    -71.4393E+06     7.50503E+06    -26.1333E+06
            1896     108.464E-03     7.65512E-03     108.194E-03     93.4950E-03    -44.1229E-03    -49.3825E-03    -44.2779E-03     88.3904E-03    -44.1229E-03     52.5802E-03     105.194E-03     82.7446E+06     9.18573E+06    -10.1369E+06    -80.7681E+06    -20.4114E+06    -70.4937E+06     9.18573E+06    -24.6873E+06
            1897     108.555E-03     8.61149E-03     108.213E-03     96.3643E-03    -44.2667E-03    -52.1106E-03    -45.8467E-03     90.1004E-03    -44.2667E-03     59.2883E-03     112.325E-03     84.4485E+06     12.8285E+06    -13.9323E+06    -80.8772E+06    -26.1227E+06    -68.6868E+06     12.8285E+06    -25.4750E+06
            1898     108.658E-03     9.56614E-03     108.236E-03     99.9963E-03    -44.5655E-03    -55.4325E-03    -48.2053E-03     92.7692E-03    -44.5655E-03     65.1571E-03     121.582E-03     82.9986E+06     13.9322E+06    -15.5327E+06    -78.8470E+06    -29.6189E+06    -64.7608E+06     13.9322E+06    -25.9281E+06
            1899     108.772E-03     10.5181E-03     108.262E-03     104.059E-03    -45.0673E-03    -58.9884E-03    -51.0841E-03     96.1544E-03    -45.0673E-03     69.8458E-03     133.470E-03     81.7379E+06     17.8709E+06    -14.4592E+06    -74.5213E+06    -30.1576E+06    -58.8229E+06     17.8709E+06    -25.7182E+06
            1900     108.898E-03     11.4678E-03     108.293E-03     108.759E-03    -45.7234E-03    -63.0395E-03    -54.6295E-03     100.349E-03    -45.7234E-03     74.0352E-03     149.614E-03     80.7215E+06     16.1007E+06    -13.4577E+06    -74.5402E+06    -29.3293E+06    -58.6686E+06     16.1007E+06    -26.0558E+06
            1901     109.040E-03     12.4131E-03     108.331E-03     113.330E-03    -46.5278E-03    -66.8250E-03    -58.0359E-03     104.541E-03    -46.5278E-03     77.5792E-03     168.632E-03     76.5431E+06     10.6107E+06    -14.1825E+06    -74.7625E+06    -28.4760E+06    -60.4689E+06     10.6107E+06    -25.4647E+06
            1902     109.195E-03     13.3562E-03     108.375E-03     117.440E-03    -47.3839E-03    -70.0842E-03    -60.4875E-03     107.843E-03    -47.3839E-03     82.6128E-03     188.072E-03     69.2413E+06     23.9518E+06    -52.0635E+03    -53.8785E+06    -24.8595E+06    -18.5314E+06     13.4120E+06    -24.5684E+06
            1903     109.371E-03     14.2984E-03     108.432E-03     118.854E-03    -48.3194E-03    -70.5400E-03    -62.7007E-03     111.014E-03    -48.3194E-03     74.5127E-03     195.194E-03     66.3441E+06     47.0689E+06     28.6403E+06    -26.0015E+06    -19.3844E+06     40.4518E+06     28.6403E+06    -19.6785E+06
            1904     109.535E-03     15.2366E-03     108.470E-03     123.017E-03    -49.2836E-03    -73.7499E-03    -65.4753E-03     114.742E-03    -49.2836E-03     77.9571E-03     216.983E-03     108.922E+06     104.871E+06     39.0843E+06    -15.9506E+06    -14.0953E+06     103.016E+06     39.0843E+06    -11.9849E+06
            1905     109.749E-03     16.1735E-03     108.551E-03     124.947E-03    -50.5528E-03    -74.4585E-03    -68.8801E-03     119.369E-03    -50.5528E-03     49.6132E-03     207.342E-03     152.535E+06     153.149E+06     93.8476E+06    -8.87578E+06    -8.64802E+06     152.922E+06     93.8476E+06    -5.15468E+06
            1906     109.225E-03     960.895E-06     109.221E-03     79.6133E-03    -39.6619E-03    -39.9493E-03    -39.7555E-03     79.4590E-03    -39.7014E-03     7.77421E-03     79.7945E-03     55.1875E+06     22.8959E+06     19.4028E+06    -33.9535E+06     20.8722E+06    -32.8129E+06     20.2858E+06    -7.27439E+06
            1907     109.241E-03     1.92200E-03     109.224E-03     79.4270E-03    -39.5887E-03    -39.8379E-03    -39.3085E-03     78.9371E-03    -39.6282E-03     14.7162E-03     79.9680E-03     56.1137E+06     19.2343E+06     13.8566E+06    -39.3419E+06     16.4208E+06    -36.5284E+06     13.8566E+06    -12.3166E+06
            1908     109.266E-03     2.88357E-03     109.228E-03     79.4465E-03    -39.4433E-03    -40.0039E-03    -38.9521E-03     78.3948E-03    -39.4433E-03     21.8263E-03     80.5832E-03     58.4872E+06     13.9697E+06     5.95664E+06    -48.0869E+06     9.34349E+06    -43.4607E+06     5.95664E+06    -16.1069E+06
            1909     109.301E-03     3.84546E-03     109.233E-03     79.7097E-03    -39.2753E-03    -40.4334E-03    -38.5643E-03     77.8405E-03    -39.2753E-03     29.2533E-03     81.6608E-03     61.2728E+06     4.56621E+06    -2.34724E+06    -59.8238E+06    -982.660E+03    -54.2750E+06    -2.34724E+06    -17.7679E+06
            1910     109.347E-03     4.80766E-03     109.241E-03     80.3052E-03    -39.1046E-03    -41.1967E-03    -38.2286E-03     77.3371E-03    -39.1046E-03     37.0241E-03     83.2957E-03     58.5418E+06    -6.45822E+06    -12.1536E+06    -67.5444E+06    -13.7742E+06    -62.2755E+06    -10.1066E+06    -16.5260E+06
            1911     109.404E-03     5.77029E-03     109.251E-03     81.5701E-03    -38.9951E-03    -42.5710E-03    -38.2590E-03     77.2580E-03    -38.9951E-03     44.9975E-03     85.8996E-03     55.8250E+06    -11.9159E+06    -24.5069E+06    -71.6751E+06    -27.6691E+06    -67.3410E+06    -13.0877E+06    -13.2087E+06
            1912     109.472E-03     6.73243E-03     109.265E-03     83.8004E-03    -39.0231E-03    -44.7768E-03    -38.9947E-03     78.0183E-03    -39.0231E-03     52.8799E-03     89.9331E-03     59.7311E+06    -8.95475E+06    -36.2961E+06    -74.1292E+06    -40.6977E+06    -69.7275E+06    -8.95475E+06    -10.6423E+06
            1913     109.553E-03     7.69390E-03     109.282E-03     87.1347E-03    -39.1952E-03    -47.9424E-03    -40.6926E-03     79.8849E-03    -39.1952E-03     60.5623E-03     95.8349E-03     64.7617E+06    -1.94379E+06    -41.6804E+06    -73.9607E+06    -49.6669E+06    -65.9742E+06    -1.94379E+06    -12.2552E+06
            1914     109.646E-03     8.65310E-03     109.304E-03     91.6397E-03    -39.5800E-03    -52.0642E-03    -43.4560E-03     83.0315E-03    -39.5800E-03     67.9751E-03     104.217E-03     72.5928E+06     6.31928E+06    -39.3726E+06    -76.3353E+06    -53.9036E+06    -61.8043E+06     6.31928E+06    -16.3253E+06
            1915     109.752E-03     9.60925E-03     109.330E-03     96.8285E-03    -40.1989E-03    -56.6227E-03    -47.1543E-03     87.3601E-03    -40.1989E-03     73.7087E-03     114.853E-03     78.9955E+06     11.8929E+06    -34.4047E+06    -79.0144E+06    -53.3365E+06    -60.0825E+06     11.8929E+06    -20.7779E+06
            1916     109.870E-03     10.5622E-03     109.361E-03     102.713E-03    -41.0644E-03    -61.6442E-03    -51.7538E-03     92.8222E-03    -41.0644E-03     78.0932E-03     128.444E-03     81.3154E+06     17.1361E+06    -25.1193E+06    -76.5390E+06    -48.6468E+06    -53.0115E+06     17.1361E+06    -24.9295E+06
            1917     110.003E-03     11.5095E-03     109.399E-03     109.347E-03    -42.1764E-03    -67.1746E-03    -57.0499E-03     99.2228E-03    -42.1764E-03     82.0314E-03     146.451E-03     83.5741E+06     17.3916E+06    -19.4538E+06    -78.1155E+06    -41.0360E+06    -56.5333E+06     17.3916E+06    -26.7975E+06
            1918     110.149E-03     12.4523E-03     109.443E-03     115.539E-03    -43.4954E-03    -72.0523E-03    -62.1393E-03     105.626E-03    -43.4954E-03     83.8906E-03     167.756E-03     82.1647E+06     16.5108E+06    -13.4650E+06    -76.3037E+06    -31.7477E+06    -58.0209E+06     16.5108E+06    -28.0749E+06
            1919     110.307E-03     13.3911E-03     109.491E-03     121.275E-03    -44.9052E-03    -76.3698E-03    -66.3838E-03     111.289E-03    -44.9052E-03     86.5673E-03     189.786E-03     71.4349E+06     26.3315E+06     7.92777E+06    -52.2905E+06    -23.9879E+06    -14.9838E+06     20.9405E+06    -28.4705E+06
            1920     110.486E-03     14.3258E-03     109.553E-03     124.200E-03    -46.4566E-03    -77.7375E-03    -70.0227E-03     116.485E-03    -46.4566E-03     76.1978E-03     199.491E-03     66.8536E+06     43.6304E+06     33.9533E+06    -27.4810E+06    -18.2353E+06     32.0085E+06     36.3296E+06    -21.9354E+06
            1921     110.653E-03     15.2579E-03     109.596E-03     130.059E-03    -48.0192E-03    -82.0534E-03    -74.2902E-03     122.295E-03    -48.0192E-03     78.6789E-03     223.146E-03     105.171E+06     100.113E+06     42.6718E+06    -16.2870E+06    -14.0875E+06     95.5371E+06     45.0481E+06    -11.9671E+06
            1922     110.872E-03     16.1845E-03     109.684E-03     133.882E-03    -49.8874E-03    -84.1240E-03    -78.8905E-03     128.649E-03    -49.8874E-03     50.7797E-03     214.999E-03     148.216E+06     149.877E+06     93.4411E+06    -9.18127E+06    -8.90521E+06     146.763E+06     96.2792E+06    -6.12508E+06
            1923     110.302E-03     966.924E-06     110.298E-03     67.3169E-03    -33.4572E-03    -33.8575E-03    -33.6472E-03     67.1065E-03    -33.4572E-03     8.37629E-03     67.4315E-03     37.2498E+06     15.2233E+06     11.7187E+06    -23.5993E+06     13.8191E+06    -23.1531E+06     12.6766E+06    -3.11028E+06
            1924     110.317E-03     1.93395E-03     110.300E-03     67.3689E-03    -33.4604E-03    -33.9095E-03    -33.2390E-03     66.6984E-03    -33.4604E-03     15.8533E-03     67.7056E-03     32.6788E+06     6.31901E+06     1.13291E+06    -28.4799E+06     5.22878E+06    -27.3896E+06     1.13291E+06    -5.30663E+06
            1925     110.342E-03     2.90147E-03     110.303E-03     67.5018E-03    -33.2831E-03    -34.2210E-03    -32.7698E-03     66.0507E-03    -33.2831E-03     23.6259E-03     68.1911E-03     32.9300E+06    -5.65512E+06    -13.3573E+06    -41.5838E+06    -7.64982E+06    -39.5891E+06    -13.3573E+06    -5.07958E+06
            1926     110.376E-03     3.86933E-03     110.308E-03     68.1521E-03    -33.1073E-03    -35.0442E-03    -32.4702E-03     65.5781E-03    -33.1073E-03     31.7151E-03     69.3329E-03     35.3847E+06    -20.8892E+06    -26.3939E+06    -58.4943E+06    -25.0881E+06    -54.2954E+06    -26.3939E+06    -996.786E+03
            1927     110.421E-03     4.83744E-03     110.315E-03     69.5826E-03    -33.0115E-03    -36.5692E-03    -32.5181E-03     65.5314E-03    -33.0115E-03     40.2377E-03     71.3971E-03     37.3645E+06    -32.3298E+06    -37.9358E+06    -72.0721E+06    -44.7290E+06    -64.0284E+06    -33.5802E+06     3.42136E+06
            1928     110.478E-03     5.80517E-03     110.326E-03     72.0675E-03    -33.0610E-03    -38.9994E-03    -33.1965E-03     66.2646E-03    -33.0610E-03     49.0733E-03     74.7851E-03     42.6414E+06    -31.9628E+06    -51.2286E+06    -80.0306E+06    -61.5357E+06    -69.7234E+06    -31.9628E+06     6.07485E+06
            1929     110.548E-03     6.77220E-03     110.341E-03     75.8172E-03    -33.3103E-03    -42.4921E-03    -34.8743E-03     68.1994E-03    -33.3103E-03     57.8222E-03     79.9800E-03     51.5348E+06    -20.3956E+06    -58.4667E+06    -78.2115E+06    -70.0463E+06    -66.6319E+06    -20.3956E+06     3.99068E+06
            1930     110.631E-03     7.73683E-03     110.360E-03     80.9141E-03    -33.7873E-03    -47.1208E-03    -37.8246E-03     71.6179E-03    -33.7873E-03     66.2732E-03     87.4324E-03     62.3612E+06    -4.83150E+06    -56.0599E+06    -73.9404E+06    -71.4039E+06    -58.5964E+06    -4.83150E+06    -1.95747E+06
            1931     110.729E-03     8.69812E-03     110.386E-03     87.2608E-03    -34.5354E-03    -52.7153E-03    -42.0039E-03     76.5494E-03    -34.5354E-03     74.3046E-03     97.5059E-03     72.7164E+06     7.71868E+06    -46.9488E+06    -74.5988E+06    -68.8701E+06    -52.6776E+06     7.71868E+06    -9.71899E+06
            1932     110.841E-03     9.65523E-03     110.419E-03     94.4380E-03    -35.5777E-03    -58.8466E-03    -47.3778E-03     82.9692E-03    -35.5777E-03     80.5639E-03     110.007E-03     79.4180E+06     13.9522E+06    -36.5603E+06    -77.3793E+06    -63.7805E+06    -50.1591E+06     13.9522E+06    -18.5824E+06
            1933     110.966E-03     10.6061E-03     110.458E-03     102.306E-03    -36.9219E-03    -65.3630E-03    -53.6794E-03     90.6226E-03    -36.9219E-03     85.3099E-03     125.534E-03     82.3726E+06     17.0123E+06    -24.8726E+06    -77.6558E+06    -57.5778E+06    -44.9506E+06     17.0123E+06    -25.3629E+06
            1934     111.106E-03     11.5521E-03     110.504E-03     110.608E-03    -38.5644E-03    -72.0215E-03    -60.4667E-03     99.0527E-03    -38.5644E-03     88.8568E-03     145.023E-03     88.2529E+06     16.3450E+06    -15.8699E+06    -83.2518E+06    -49.5418E+06    -49.5799E+06     16.3450E+06    -32.2992E+06
            1935     111.259E-03     12.4913E-03     110.556E-03     118.870E-03    -40.4698E-03    -78.3833E-03    -67.5680E-03     108.054E-03    -40.4698E-03     89.7146E-03     168.661E-03     90.0762E+06     14.5570E+06    -8.49185E+06    -84.5098E+06    -38.8588E+06    -54.1429E+06     14.5570E+06    -36.8744E+06
            1936     111.424E-03     13.4234E-03     110.613E-03     126.652E-03    -42.5438E-03    -84.0723E-03    -73.9297E-03     116.509E-03    -42.5438E-03     90.1645E-03     193.938E-03     78.4395E+06     24.2383E+06     13.1014E+06    -58.8017E+06    -28.4605E+06    -15.2153E+06     22.2139E+06    -33.4405E+06
            1937     111.608E-03     14.3511E-03     110.682E-03     131.192E-03    -44.7869E-03    -86.3884E-03    -78.9069E-03     123.710E-03    -44.7869E-03     78.0039E-03     206.092E-03     69.1779E+06     40.0734E+06     31.3293E+06    -32.8918E+06    -20.7154E+06     21.1773E+06     38.0489E+06    -24.8249E+06
            1938     111.780E-03     15.2728E-03     110.732E-03     138.216E-03    -47.0064E-03    -91.2160E-03    -83.6430E-03     130.643E-03    -47.0064E-03     80.9714E-03     230.556E-03     101.392E+06     96.4250E+06     42.3776E+06    -17.5048E+06    -13.1018E+06     85.6084E+06     48.7912E+06    -14.1076E+06
            1939     112.006E-03     16.1909E-03     110.829E-03     141.816E-03    -49.4284E-03    -92.4708E-03    -87.3168E-03     136.662E-03    -49.4284E-03     53.8027E-03     221.625E-03     142.197E+06     149.064E+06     94.5723E+06     -6.1421E+06    -5.80646E+06     141.870E+06     101.431E+06    -6.53715E+06
            1940     111.364E-03     973.726E-06     111.360E-03     53.7628E-03    -26.6786E-03    -27.0841E-03    -26.8201E-03     53.4989E-03    -26.6786E-03     8.55583E-03     53.8223E-03     19.8231E+06    -8.90033E+06    -18.1600E+06    -30.1840E+06    -16.8086E+06    -22.1613E+06    -18.2744E+06     1.64935E+06
            1941     111.379E-03     1.94726E-03     111.362E-03     54.0047E-03    -26.6697E-03    -27.3359E-03    -26.5123E-03     53.1811E-03    -26.6697E-03     15.7281E-03     54.1679E-03     21.2480E+06    -16.5422E+06    -30.5664E+06    -40.0396E+06    -26.4816E+06    -29.0279E+06    -31.6388E+06     5.21824E+06
            1942     111.403E-03     2.92119E-03     111.364E-03     54.5543E-03    -26.5561E-03    -27.9995E-03    -26.1845E-03     52.7393E-03    -26.5561E-03     23.7345E-03     54.8733E-03     29.1271E+06    -28.9765E+06    -45.9935E+06    -62.0292E+06    -43.9192E+06    -47.0866E+06    -45.9935E+06     12.6384E+06
            1943     111.437E-03     3.89552E-03     111.369E-03     55.9648E-03    -26.4890E-03    -29.4813E-03    -26.2381E-03     52.7217E-03    -26.4890E-03     32.2489E-03     56.5344E-03     39.3178E+06    -41.1948E+06    -54.7501E+06    -85.1994E+06    -63.0769E+06    -63.3172E+06    -54.7501E+06     20.0858E+06
            1944     111.483E-03     4.86936E-03     111.376E-03     58.6480E-03    -26.5890E-03    -32.0649E-03    -27.0117E-03     53.5947E-03    -26.5890E-03     41.2871E-03     59.6166E-03     48.0855E+06    -45.9911E+06    -54.1758E+06    -97.4300E+06    -76.9118E+06    -69.4146E+06    -51.2704E+06     23.4475E+06
            1945     111.542E-03     5.84221E-03     111.389E-03     62.7954E-03    -26.9231E-03    -35.8698E-03    -28.7554E-03     55.6810E-03    -26.9231E-03     50.8147E-03     64.4713E-03     54.8243E+06    -36.4643E+06    -53.9726E+06    -96.8368E+06    -81.6512E+06    -69.1582E+06    -36.4643E+06     20.2623E+06
            1946     111.614E-03     6.81263E-03     111.406E-03     68.3377E-03    -27.5028E-03    -40.8237E-03    -31.6407E-03     59.1547E-03    -27.5028E-03     60.4513E-03     71.3312E-03     60.3049E+06    -17.4375E+06    -52.4230E+06    -86.6304E+06    -79.8201E+06    -59.2333E+06    -17.4375E+06     12.4208E+06
            1947     111.702E-03     7.77993E-03     111.431E-03     75.2251E-03    -28.3653E-03    -46.8488E-03    -35.8034E-03     64.1798E-03    -28.3653E-03     69.9377E-03     80.4915E-03     66.3391E+06    -407.987E+03    -48.1568E+06    -75.6467E+06    -74.5481E+06    -49.2554E+06    -407.987E+03     3.03664E+06
            1948     111.806E-03     8.74271E-03     111.463E-03     83.4316E-03    -29.5391E-03    -53.9022E-03    -41.3281E-03     70.8574E-03    -29.5391E-03     79.1385E-03     92.2983E-03     72.0304E+06     12.1752E+06    -38.3395E+06    -69.8162E+06    -67.4194E+06    -40.7363E+06     12.1752E+06    -7.02428E+06
            1949     111.926E-03     9.69965E-03     111.504E-03     92.6557E-03    -31.0510E-03    -61.6196E-03    -48.2536E-03     79.2898E-03    -31.0510E-03     86.7111E-03     106.679E-03     78.1655E+06     19.2980E+06    -25.9029E+06    -70.7730E+06    -59.8550E+06    -36.8209E+06     19.2980E+06    -17.9899E+06
            1950     112.060E-03     10.6502E-03     111.552E-03     102.637E-03    -32.9135E-03    -69.7008E-03    -56.2682E-03     89.2041E-03    -32.9135E-03     92.3222E-03     124.121E-03     81.8924E+06     22.4667E+06    -15.5746E+06    -71.2675E+06    -51.2477E+06    -35.5945E+06     22.4667E+06    -26.6362E+06
            1951     112.209E-03     11.5921E-03     111.609E-03     113.031E-03    -35.1309E-03    -77.8691E-03    -64.8754E-03     100.037E-03    -35.1309E-03     96.0573E-03     145.409E-03     90.2231E+06     24.9256E+06    -1.48607E+06    -75.2031E+06    -42.4325E+06    -34.2567E+06     24.9256E+06    -36.2748E+06
            1952     112.372E-03     12.5265E-03     111.672E-03     123.504E-03    -37.6619E-03    -85.8220E-03    -73.8648E-03     111.547E-03    -37.6619E-03     97.0143E-03     171.098E-03     98.7525E+06     18.1876E+06     2.03101E+06    -87.4986E+06    -35.0004E+06    -50.4672E+06     18.1876E+06    -43.0859E+06
            1953     112.549E-03     13.4524E-03     111.742E-03     133.170E-03    -40.4110E-03    -92.7629E-03    -82.0261E-03     122.433E-03    -40.4110E-03     96.0359E-03     199.081E-03     89.6896E+06     24.8702E+06     17.6173E+06    -68.1684E+06    -28.2223E+06    -21.1156E+06     23.6570E+06    -38.2542E+06
            1954     112.737E-03     14.3709E-03     111.818E-03     138.942E-03    -43.3229E-03    -95.6324E-03    -87.9197E-03     131.229E-03    -43.3229E-03     82.4440E-03     213.157E-03     74.1687E+06     39.7436E+06     29.5587E+06    -38.6497E+06    -19.8645E+06     11.9868E+06     38.5304E+06    -29.8093E+06
            1955     112.916E-03     15.2851E-03     111.877E-03     146.112E-03    -46.1474E-03    -99.9651E-03    -91.9920E-03     138.139E-03    -46.1474E-03     86.0502E-03     236.957E-03     99.5000E+06     89.8365E+06     39.2575E+06    -23.0590E+06    -12.7402E+06     70.8522E+06     47.9231E+06    -18.0628E+06
            1956     113.146E-03     16.1965E-03     111.981E-03     148.881E-03    -49.0509E-03    -99.8286E-03    -94.3614E-03     143.414E-03    -49.0509E-03     58.7792E-03     226.639E-03     138.871E+06     144.958E+06     93.1215E+06    -8.24008E+06    -7.88827E+06     134.683E+06     103.044E+06    -6.32275E+06
            1957     112.413E-03     980.050E-06     112.408E-03     40.2569E-03    -19.9690E-03    -20.2880E-03    -19.9929E-03     39.9617E-03    -19.9690E-03     7.83127E-03     40.2808E-03     34.0661E+06    -28.5986E+06    -55.1472E+06    -65.8738E+06    -57.8992E+06    -35.5008E+06    -56.2195E+06     13.2839E+06
            1958     112.426E-03     1.96051E-03     112.409E-03     40.5978E-03    -19.9124E-03    -20.6882E-03    -19.7574E-03     39.6670E-03    -19.9124E-03     14.4752E-03     40.6555E-03     50.4162E+06    -32.3804E+06    -73.1454E+06    -88.4327E+06    -76.0975E+06    -43.6432E+06    -74.2177E+06     21.1358E+06
            1959     112.450E-03     2.94105E-03     112.411E-03     41.9093E-03    -19.9229E-03    -21.9931E-03    -19.9154E-03     39.8316E-03    -19.9229E-03     22.2538E-03     42.0277E-03     57.6933E+06    -43.6128E+06    -80.0143E+06    -109.568E+06    -89.2560E+06    -63.9245E+06    -80.0143E+06     29.8335E+06
            1960     112.484E-03     3.92111E-03     112.416E-03     44.4930E-03    -20.0924E-03    -24.4164E-03    -20.6758E-03     40.7523E-03    -20.0924E-03     30.9173E-03     44.7467E-03     63.5631E+06    -49.0059E+06    -73.9846E+06    -120.727E+06    -94.5296E+06    -75.2034E+06    -73.9846E+06     34.4554E+06
            1961     112.532E-03     4.90019E-03     112.426E-03     48.6250E-03    -20.4828E-03    -28.1606E-03    -22.3640E-03     42.8283E-03    -20.4828E-03     40.3636E-03     49.2230E-03     64.6590E+06    -48.4361E+06    -58.1823E+06    -117.089E+06    -92.8090E+06    -73.3133E+06    -57.5854E+06     32.5316E+06
            1962     112.594E-03     5.87693E-03     112.441E-03     54.3696E-03    -21.1320E-03    -33.2407E-03    -25.1340E-03     46.2630E-03    -21.1320E-03     50.6329E-03     55.6502E-03     62.7535E+06    -35.5123E+06    -48.0998E+06    -102.823E+06    -86.7351E+06    -63.5781E+06    -36.1220E+06     24.7936E+06
            1963     112.672E-03     6.85056E-03     112.463E-03     61.5312E-03    -22.0691E-03    -39.4547E-03    -29.0208E-03     51.0973E-03    -22.0691E-03     61.3832E-03     64.0515E-03     61.8483E+06    -14.8514E+06    -43.3672E+06    -85.4848E+06    -78.4668E+06    -50.3852E+06    -14.8514E+06     14.7799E+06
            1964     112.765E-03     7.81993E-03     112.494E-03     70.1044E-03    -23.3085E-03    -46.7886E-03    -34.2141E-03     57.5299E-03    -23.3085E-03     72.3650E-03     74.7608E-03     63.9959E+06     2.76107E+06    -36.3684E+06    -70.5812E+06    -68.9852E+06    -37.9645E+06     2.76107E+06     3.74111E+06
            1965     112.877E-03     8.78392E-03     112.534E-03     80.1900E-03    -24.8918E-03    -55.3086E-03    -40.9315E-03     65.8129E-03    -24.8918E-03     83.3925E-03     88.2524E-03     67.9418E+06     16.7747E+06    -25.6607E+06    -61.1233E+06    -58.8722E+06    -27.9118E+06     16.7747E+06    -7.35516E+06
            1966     113.006E-03     9.74123E-03     112.586E-03     91.4402E-03    -26.8557E-03    -64.5920E-03    -49.2292E-03     76.0774E-03    -26.8557E-03     92.8747E-03     104.400E-03     75.5094E+06     27.2560E+06    -10.7507E+06    -59.3836E+06    -49.1615E+06    -20.9728E+06     27.2560E+06    -18.6267E+06
            1967     113.152E-03     10.6897E-03     112.646E-03     103.516E-03    -29.2149E-03    -74.2876E-03    -58.8555E-03     88.0843E-03    -29.2149E-03     99.9863E-03     123.598E-03     83.0808E+06     30.6350E+06    -1.62927E+06    -63.5441E+06    -40.3454E+06    -24.8280E+06     30.6350E+06    -29.1808E+06
            1968     113.314E-03     11.6297E-03     112.715E-03     116.215E-03    -31.9663E-03    -84.2309E-03    -69.2920E-03     101.277E-03    -31.9663E-03     105.141E-03     146.645E-03     90.5404E+06     33.8736E+06     12.2789E+06    -65.1292E+06    -34.2660E+06    -18.5843E+06     33.8736E+06    -36.9488E+06
            1969     113.490E-03     12.5590E-03     112.793E-03     128.851E-03    -35.0622E-03    -93.7759E-03    -79.9832E-03     115.059E-03    -35.0622E-03     107.129E-03     173.957E-03     105.129E+06     24.4314E+06     13.0683E+06    -85.8371E+06    -30.2458E+06    -42.5231E+06     24.4314E+06    -44.8681E+06
            1970     113.678E-03     13.4787E-03     112.876E-03     140.148E-03    -38.4183E-03    -101.753E-03    -89.4480E-03     127.843E-03    -38.4183E-03     106.136E-03     203.875E-03     100.388E+06     28.9387E+06     21.7173E+06    -74.8290E+06    -22.4685E+06    -27.8885E+06     26.1840E+06    -44.3634E+06
            1971     113.878E-03     14.3907E-03     112.965E-03     146.435E-03    -41.9123E-03    -104.538E-03    -95.7967E-03     137.694E-03    -41.9123E-03     90.6146E-03     219.389E-03     77.4436E+06     40.0807E+06     23.9230E+06    -43.1435E+06    -15.9402E+06    -525.604E+03     37.3260E+06    -32.1013E+06
            1972     114.059E-03     15.2976E-03     113.028E-03     153.650E-03    -45.2814E-03    -108.358E-03    -99.5667E-03     144.859E-03    -45.2814E-03     93.2397E-03     242.385E-03     98.0620E+06     82.7355E+06     34.4678E+06    -29.4917E+06    -14.4910E+06     54.3317E+06     47.8709E+06    -17.0560E+06
            1973     114.295E-03     16.2040E-03     113.141E-03     156.379E-03    -48.6551E-03    -107.677E-03    -101.646E-03     150.347E-03    -48.6551E-03     64.7912E-03     231.604E-03     136.439E+06     142.232E+06     92.2265E+06    -10.2459E+06    -9.80255E+06     126.648E+06     107.368E+06    -7.47505E+06
            1974     113.446E-03     986.250E-06     113.442E-03     27.6803E-03    -13.6734E-03    -14.0065E-03    -13.6970E-03     27.3709E-03    -13.6734E-03     6.58571E-03     27.6985E-03     84.1344E+06    -59.5783E+06    -134.172E+06    -148.697E+06    -138.101E+06    -69.0737E+06    -135.272E+06     24.2326E+06
            1975     113.460E-03     1.97272E-03     113.443E-03     28.6686E-03    -13.7811E-03    -14.8866E-03    -13.8952E-03     27.6772E-03    -13.7811E-03     12.5798E-03     28.7165E-03     90.4558E+06    -51.6776E+06    -128.018E+06    -150.927E+06    -137.542E+06    -65.0620E+06    -128.018E+06      33.249E+06
            1976     113.484E-03     2.95857E-03     113.445E-03     31.0141E-03    -14.0499E-03    -16.9652E-03    -14.7442E-03     28.7931E-03    -14.0499E-03     19.8554E-03     31.1350E-03     77.0763E+06    -62.0607E+06    -115.323E+06    -149.816E+06    -132.112E+06    -79.7649E+06    -115.323E+06     34.4179E+06
            1977     113.521E-03     3.94348E-03     113.452E-03     34.8181E-03    -14.5206E-03    -20.3034E-03    -16.3055E-03     30.8203E-03    -14.5206E-03     28.3941E-03     35.0967E-03     66.5195E+06    -63.5271E+06    -95.7938E+06    -139.270E+06    -119.087E+06    -83.7109E+06    -95.7938E+06     32.6946E+06
            1978     113.571E-03     4.92631E-03     113.464E-03     40.1453E-03    -15.2215E-03    -24.9335E-03    -18.7212E-03     33.9331E-03    -15.2215E-03     38.1207E-03     40.7827E-03     59.1938E+06    -55.6417E+06    -69.7586E+06    -119.878E+06    -102.409E+06    -73.1107E+06    -69.7586E+06     27.7404E+06
            1979     113.637E-03     5.90648E-03     113.483E-03     47.0152E-03    -16.1730E-03    -30.8445E-03    -22.1090E-03     38.2798E-03    -16.1730E-03     49.0628E-03     48.3177E-03     52.4594E+06    -39.4570E+06    -49.2719E+06    -95.8884E+06    -85.1379E+06    -57.3367E+06    -42.1427E+06     19.7183E+06
            1980     113.720E-03     6.88289E-03     113.511E-03     55.4317E-03    -17.4090E-03    -38.0192E-03    -26.6556E-03     44.0680E-03    -17.4090E-03     61.0265E-03     57.9210E-03     50.0902E+06    -16.1609E+06    -37.6210E+06    -72.9533E+06    -68.6662E+06    -41.9081E+06    -16.1609E+06     10.2860E+06
            1981     113.821E-03     7.85457E-03     113.549E-03     65.4952E-03    -18.9500E-03    -46.5473E-03    -32.6444E-03     51.5923E-03    -18.9500E-03     73.8255E-03     69.9706E-03     54.0693E+06     6.21256E+06    -26.0057E+06    -56.0302E+06    -55.1633E+06    -26.8726E+06     6.21256E+06     1.57418E+06
            1982     113.942E-03     8.81997E-03     113.600E-03     77.3453E-03    -20.8546E-03    -56.4931E-03    -40.3289E-03     61.1812E-03    -20.8546E-03     87.1649E-03     84.9508E-03     62.4264E+06     23.1401E+06    -12.5056E+06    -48.5847E+06    -46.0061E+06    -15.0841E+06     23.1401E+06    -7.75192E+06
            1983     114.083E-03     9.77751E-03     113.663E-03     90.4956E-03    -23.1647E-03    -67.3259E-03    -49.7368E-03     72.9065E-03    -23.1647E-03     99.2215E-03     102.567E-03     71.8681E+06     33.9453E+06     1.65872E+06    -48.0916E+06    -40.0942E+06    -6.33871E+06     33.9453E+06    -18.0060E+06
            1984     114.242E-03     10.7260E-03     113.737E-03     104.629E-03    -25.9188E-03    -78.7027E-03    -60.7296E-03     86.6556E-03    -25.9188E-03     108.875E-03     123.233E-03     83.9892E+06     38.4852E+06     10.1002E+06    -55.9539E+06    -35.6101E+06    -10.2436E+06     38.4852E+06    -29.2480E+06
            1985     114.418E-03     11.6632E-03     113.822E-03     119.368E-03    -29.0943E-03    -90.2616E-03    -72.6207E-03     101.727E-03    -29.0943E-03     116.202E-03     147.635E-03     90.0848E+06     40.3484E+06     18.8716E+06    -58.3454E+06    -30.3835E+06    -9.09034E+06     40.3484E+06    -36.2261E+06
            1986     114.611E-03     12.5900E-03     113.917E-03     133.967E-03    -32.6417E-03    -101.311E-03    -84.7636E-03     117.420E-03    -32.6417E-03     120.051E-03     176.037E-03     102.612E+06     35.1949E+06     21.8387E+06    -73.2748E+06    -25.6291E+06    -25.8070E+06     35.1949E+06    -44.3654E+06
            1987     114.813E-03     13.5053E-03     114.016E-03     146.754E-03    -36.4625E-03    -110.286E-03    -95.5880E-03     132.057E-03    -36.4625E-03     119.092E-03     207.447E-03     103.264E+06     28.5239E+06     20.6867E+06    -78.3209E+06    -22.8803E+06    -32.6527E+06     26.4228E+06    -48.1622E+06
            1988     115.025E-03     14.4121E-03     114.118E-03     153.550E-03    -40.4546E-03    -113.091E-03    -102.960E-03     143.419E-03    -40.4546E-03     100.221E-03     224.974E-03     80.9935E+06     31.3121E+06     10.3546E+06    -56.2063E+06    -19.3264E+06    -24.4242E+06     29.2110E+06    -32.4827E+06
            1989     115.210E-03     15.3136E-03     114.188E-03     161.410E-03    -44.3351E-03    -117.072E-03    -107.618E-03     151.957E-03    -44.3351E-03     99.9306E-03     247.822E-03     96.0559E+06     80.6088E+06     26.9608E+06    -29.9038E+06    -12.9640E+06     44.8127E+06     45.8172E+06    -17.9478E+06
            1990     115.453E-03     16.2113E-03     114.309E-03     164.187E-03    -48.1933E-03    -115.959E-03    -109.588E-03     157.816E-03    -48.1933E-03     69.6514E-03     237.574E-03     130.799E+06     141.167E+06     83.3413E+06    -6.96796E+06    -5.88536E+06     117.050E+06     106.375E+06    -9.10558E+06
            1991     114.468E-03     991.553E-06     114.464E-03     17.6269E-03    -8.58579E-03    -9.03975E-03    -8.74598E-03     17.3331E-03    -8.58579E-03     5.15934E-03     17.6712E-03     125.288E+06    -100.300E+06    -221.012E+06    -229.562E+06    -221.916E+06    -103.424E+06    -225.534E+06     13.7029E+06
            1992     114.483E-03     1.98229E-03     114.466E-03     19.3866E-03    -8.88068E-03    -10.5015E-03    -9.51945E-03     18.4045E-03    -8.88068E-03     10.3548E-03     19.5155E-03     125.253E+06    -77.6673E+06    -192.617E+06      -210.7E+06    -197.323E+06    -83.9564E+06    -199.705E+06     20.2207E+06
            1993     114.508E-03     2.97217E-03     114.470E-03     22.6750E-03    -9.41905E-03    -13.2507E-03    -11.0114E-03     20.4356E-03    -9.41905E-03     17.1769E-03     22.9462E-03     97.5800E+06    -78.6094E+06    -161.628E+06    -185.028E+06    -169.958E+06    -85.4896E+06    -169.817E+06     18.3133E+06
            1994     114.547E-03     3.96006E-03     114.479E-03     27.4497E-03    -10.1970E-03    -17.2481E-03    -13.1988E-03     23.4003E-03    -10.1970E-03     25.5436E-03     27.9389E-03     66.2690E+06    -79.2076E+06    -130.370E+06    -151.931E+06    -141.223E+06    -85.9340E+06    -134.351E+06     12.3099E+06
            1995     114.601E-03     4.94580E-03     114.494E-03     33.5306E-03    -11.1808E-03    -22.3419E-03    -16.0183E-03     27.2070E-03    -11.1808E-03     35.3329E-03     34.3729E-03     47.5038E+06    -65.3163E+06    -95.4803E+06    -116.702E+06    -110.856E+06    -70.9072E+06    -95.7361E+06     7.62189E+06
            1996     114.672E-03     5.92854E-03     114.518E-03     41.0313E-03    -12.3767E-03    -28.6481E-03    -19.6611E-03     32.0443E-03    -12.3767E-03     46.6674E-03     42.4998E-03     38.2590E+06    -45.1709E+06    -61.2883E+06    -87.0728E+06    -82.8668E+06    -52.1098E+06    -58.5554E+06     2.66086E+06
            1997     114.761E-03     6.90763E-03     114.553E-03     50.2280E-03    -13.8162E-03    -36.4027E-03    -24.5039E-03     38.3292E-03    -13.8162E-03     59.6115E-03     52.8175E-03     36.7781E+06    -22.5102E+06    -37.8158E+06    -64.2416E+06    -61.8647E+06    -37.3494E+06    -25.3535E+06    -188.420E+03
            1998     114.870E-03     7.88150E-03     114.600E-03     61.3296E-03    -15.5511E-03    -45.7741E-03    -30.8869E-03     46.4424E-03    -15.5511E-03     74.0732E-03     65.7252E-03     46.0653E+06     3.45809E+06    -18.9568E+06    -48.6725E+06    -48.0424E+06    -19.5869E+06     3.45809E+06    -3.03091E+06
            1999     115.001E-03     8.84881E-03     114.660E-03     74.5485E-03    -17.6542E-03    -56.8912E-03    -39.1190E-03     56.7764E-03    -17.6542E-03     89.8425E-03     81.7497E-03     58.3403E+06     26.4075E+06    -829.107E+03    -39.7832E+06    -36.8458E+06    -3.76653E+06     26.4075E+06    -9.46043E+06
            2000     115.155E-03     9.80771E-03     114.737E-03     89.3076E-03    -20.1719E-03    -69.1271E-03    -49.2904E-03     69.4709E-03    -20.1719E-03     104.766E-03     100.509E-03     67.5698E+06     42.6658E+06     13.0863E+06    -34.6221E+06    -26.9923E+06     5.45649E+06     42.6658E+06    -17.1224E+06
            2001     115.329E-03     10.7565E-03     114.826E-03     105.178E-03    -23.1469E-03    -82.0382E-03    -61.1644E-03     84.3044E-03    -23.1469E-03     117.695E-03     122.199E-03     77.2853E+06     51.1746E+06     18.5955E+06    -36.5697E+06    -22.2026E+06     4.22850E+06     51.1746E+06    -23.9033E+06
            2002     115.523E-03     11.6940E-03     114.929E-03     121.799E-03    -26.5658E-03    -95.2341E-03    -74.2773E-03     100.842E-03    -26.5658E-03     127.976E-03     147.488E-03     85.9777E+06     50.7615E+06     22.4776E+06    -44.9752E+06    -23.0059E+06     508.301E+03     50.7615E+06    -31.1647E+06
            2003     115.731E-03     12.6195E-03     115.041E-03     138.079E-03    -30.4071E-03    -107.657E-03    -87.7569E-03     118.179E-03    -30.4071E-03     133.803E-03     176.493E-03     95.3201E+06     46.9654E+06     22.1709E+06    -57.9454E+06    -26.3773E+06    -9.39719E+06     46.9654E+06    -38.1643E+06
            2004     115.954E-03     13.5326E-03     115.161E-03     152.681E-03    -34.5695E-03    -118.111E-03    -100.582E-03     135.152E-03    -34.5695E-03     132.853E-03     208.970E-03     97.5526E+06     30.0694E+06     11.7802E+06    -74.5869E+06    -30.7990E+06    -31.4480E+06     29.5097E+06    -42.9015E+06
            2005     116.176E-03     14.4344E-03     115.276E-03     161.084E-03    -39.0058E-03    -122.079E-03    -110.326E-03     149.332E-03    -39.0058E-03     110.843E-03     229.613E-03     94.4325E+06     24.7167E+06     5.50691E+06    -76.6337E+06    -26.8720E+06    -43.6951E+06     24.1570E+06    -40.1697E+06
            2006     116.373E-03     15.3273E-03     115.359E-03     169.138E-03    -43.3934E-03    -125.753E-03    -115.578E-03     158.963E-03    -43.3934E-03     106.917E-03     251.914E-03     101.921E+06     72.0162E+06     29.3986E+06    -42.2331E+06    -16.5232E+06     31.3245E+06     44.3805E+06    -25.5432E+06
            2007     116.617E-03     16.2180E-03     115.484E-03     172.093E-03    -47.7245E-03    -124.412E-03    -117.623E-03     165.304E-03    -47.7245E-03     76.0666E-03     242.809E-03     124.948E+06     130.735E+06     76.2988E+06    -10.9357E+06    -9.78144E+06     102.780E+06     103.099E+06    -9.09503E+06
            2008     115.481E-03     994.049E-06     115.477E-03     12.0932E-03    -5.82137E-03    -6.27095E-03    -6.01253E-03     11.8863E-03    -5.87295E-03     3.56966E-03     12.1853E-03     122.305E+06    -110.518E+06    -229.766E+06    -235.634E+06    -230.837E+06    -111.214E+06    -233.867E+06    -4.86379E+06
            2009     115.497E-03     1.98790E-03     115.480E-03     13.8722E-03    -6.13659E-03    -7.73483E-03    -6.95068E-03     13.0880E-03    -6.13659E-03     7.83005E-03     14.1352E-03     131.043E+06    -87.9059E+06    -213.619E+06    -223.590E+06    -214.859E+06    -89.5485E+06    -220.707E+06    -6.85909E+06
            2010     115.525E-03     2.98004E-03     115.486E-03     17.3031E-03    -6.69518E-03    -10.6073E-03    -8.63773E-03     15.3336E-03    -6.69518E-03     14.1593E-03     17.7999E-03     119.265E+06    -78.4139E+06    -192.192E+06    -202.229E+06    -191.381E+06    -81.0731E+06    -200.381E+06    -10.3048E+06
            2011     115.567E-03     3.97032E-03     115.499E-03     22.3432E-03    -7.52468E-03    -14.8174E-03    -11.0277E-03     18.5536E-03    -7.52468E-03     22.4209E-03     23.0926E-03     98.6342E+06    -72.9574E+06    -168.565E+06    -174.132E+06    -164.992E+06    -78.1154E+06    -172.546E+06    -17.9515E+06
            2012     115.625E-03     4.95775E-03     115.519E-03     28.7418E-03    -8.56330E-03    -20.1757E-03    -14.0428E-03     22.6089E-03    -8.56330E-03     32.3593E-03     29.8001E-03     86.2200E+06    -56.5958E+06    -141.309E+06    -144.128E+06    -134.958E+06    -65.2553E+06    -141.819E+06    -24.7425E+06
            2013     115.700E-03     5.94241E-03     115.548E-03     36.6459E-03    -9.86844E-03    -26.7733E-03    -17.8869E-03     27.7596E-03    -9.86844E-03     44.0104E-03     38.2686E-03     72.0968E+06    -38.0647E+06    -100.100E+06    -114.392E+06    -103.187E+06    -49.0150E+06    -100.354E+06    -25.6936E+06
            2014     115.796E-03     6.92307E-03     115.589E-03     46.3095E-03    -11.4736E-03    -34.8270E-03    -22.8755E-03     34.3579E-03    -11.4736E-03     57.5047E-03     48.9352E-03     53.2076E+06    -24.5894E+06    -53.8910E+06    -84.5068E+06    -72.5316E+06    -40.0120E+06    -50.4437E+06    -21.1741E+06
            2015     115.913E-03     7.89888E-03     115.644E-03     57.9157E-03    -13.3299E-03    -44.5873E-03    -29.2957E-03     42.6241E-03    -13.3299E-03     73.0311E-03     62.1273E-03     47.7194E+06    -1.55042E+06    -17.3251E+06    -55.0838E+06    -46.9216E+06    -19.6763E+06    -7.36144E+06    -14.3920E+06
            2016     116.055E-03     8.86805E-03     115.715E-03     71.7814E-03    -15.5091E-03    -56.2716E-03    -37.5422E-03     53.0520E-03    -15.5091E-03     90.4836E-03     78.4483E-03     55.8871E+06     25.9011E+06     7.91706E+06    -36.5254E+06    -32.1386E+06     3.53027E+06     25.9011E+06    -12.7423E+06
            2017     116.222E-03     9.82928E-03     115.805E-03     87.3477E-03    -18.0794E-03    -69.2623E-03    -47.7374E-03     65.8228E-03    -18.0794E-03     107.784E-03     97.4527E-03     70.2195E+06     46.6067E+06     18.7887E+06    -33.0249E+06    -27.1372E+06     12.9010E+06     46.6067E+06    -15.2773E+06
            2018     116.411E-03     10.7801E-03     115.911E-03     104.355E-03    -21.0836E-03    -83.2655E-03    -59.8942E-03     80.9838E-03    -21.0836E-03     123.808E-03     119.411E-03     80.6359E+06     57.3223E+06     25.4239E+06    -33.5284E+06    -23.3525E+06     15.2481E+06     57.3223E+06    -20.8192E+06
            2019     116.622E-03     11.7199E-03     116.032E-03     122.520E-03    -24.5663E-03    -97.9469E-03    -73.8975E-03     98.4705E-03    -24.5663E-03     137.264E-03     144.935E-03     86.8022E+06     62.3004E+06     25.0829E+06    -34.4240E+06    -17.5383E+06     8.19715E+06     62.3004E+06    -24.6855E+06
            2020     116.853E-03     12.6452E-03     116.167E-03     140.595E-03    -28.5186E-03    -112.075E-03    -88.9043E-03     117.424E-03    -28.5186E-03     145.561E-03     174.316E-03     86.4636E+06     61.0671E+06     18.1644E+06    -36.7581E+06    -16.9900E+06    -1.60379E+06     61.0671E+06    -25.0045E+06
            2021     117.092E-03     13.5580E-03     116.304E-03     157.607E-03    -32.9038E-03    -124.699E-03    -104.050E-03     136.959E-03    -32.9038E-03     146.549E-03     207.121E-03     90.4693E+06     49.6149E+06     18.5454E+06    -51.1774E+06    -18.0403E+06    -14.5917E+06     49.6149E+06    -34.0311E+06
            2022     117.338E-03     14.4552E-03     116.444E-03     167.912E-03    -37.6379E-03    -130.265E-03    -116.324E-03     153.971E-03    -37.6379E-03     123.413E-03     230.610E-03     102.380E+06     30.9201E+06     11.8537E+06    -79.5902E+06    -18.7191E+06    -49.0173E+06     30.9201E+06    -40.5605E+06
            2023     117.540E-03     15.3421E-03     116.535E-03     176.000E-03    -42.4517E-03    -133.559E-03    -122.482E-03     164.923E-03    -42.4517E-03     114.547E-03     254.209E-03     107.502E+06     56.6398E+06     37.6136E+06    -58.7890E+06    -20.0988E+06     8.71952E+06     46.8436E+06    -27.9481E+06
            2024     117.791E-03     16.2295E-03     116.668E-03     180.491E-03    -47.2527E-03    -133.289E-03    -125.914E-03     173.116E-03    -47.2527E-03     85.0514E-03     247.549E-03     122.205E+06     121.612E+06     79.3716E+06    -14.0454E+06    -12.1029E+06     87.2254E+06     111.816E+06    -12.5059E+06
            2025     116.492E-03     994.621E-06     116.488E-03     11.4030E-03    -5.54835E-03    -5.85464E-03    -5.69364E-03     11.3146E-03    -5.62092E-03     2.06954E-03     11.5347E-03     91.4986E+06    -92.3387E+06    -180.744E+06    -186.583E+06    -183.506E+06    -94.7364E+06    -181.424E+06    -13.7338E+06
            2026     116.508E-03     1.98838E-03     116.491E-03     12.8150E-03    -5.87319E-03    -6.94230E-03    -6.53042E-03     12.4031E-03    -5.87319E-03     5.18821E-03     13.1969E-03     102.354E+06    -73.3680E+06    -168.570E+06    -180.857E+06    -176.067E+06    -78.1586E+06    -168.570E+06    -21.1824E+06
            2027     116.538E-03     2.98158E-03     116.500E-03     15.5358E-03    -6.34616E-03    -9.18741E-03    -7.93073E-03     14.2792E-03    -6.34616E-03     10.4428E-03     16.2894E-03     107.834E+06    -60.5716E+06    -158.332E+06    -174.838E+06    -166.642E+06    -68.7677E+06    -158.332E+06    -28.3187E+06
            2028     116.583E-03     3.97283E-03     116.516E-03     19.7880E-03    -7.00671E-03    -12.7801E-03    -9.98456E-03     16.9925E-03    -7.00671E-03     17.9815E-03     20.9272E-03     116.363E+06    -45.5061E+06    -148.910E+06    -169.519E+06    -155.127E+06    -59.8982E+06    -148.910E+06    -38.4430E+06
            2029     116.645E-03     4.96195E-03     116.539E-03     25.7736E-03    -7.89449E-03    -17.8858E-03    -12.8479E-03     20.7357E-03    -7.89449E-03     27.7555E-03     27.3093E-03     124.825E+06    -29.9206E+06    -135.795E+06    -163.952E+06    -142.004E+06    -51.6142E+06    -136.049E+06    -48.7575E+06
            2030     116.725E-03     5.94752E-03     116.573E-03     33.7050E-03    -9.08629E-03    -24.6231E-03    -16.7253E-03     25.8072E-03    -9.08629E-03     39.8565E-03     35.7261E-03     118.555E+06    -20.3493E+06    -111.861E+06    -151.187E+06    -125.574E+06    -45.7082E+06    -112.115E+06    -51.4124E+06
            2031     116.827E-03     6.92899E-03     116.621E-03     43.5998E-03    -10.6026E-03    -32.9948E-03    -21.7752E-03     32.3802E-03    -10.6026E-03     54.1507E-03     46.3321E-03     101.805E+06    -13.7700E+06    -77.1682E+06    -130.051E+06    -102.660E+06    -41.1606E+06    -77.1682E+06    -48.9828E+06
            2032     116.951E-03     7.90532E-03     116.684E-03     55.5775E-03    -12.4285E-03    -43.1479E-03    -28.2698E-03     40.6994E-03    -12.4285E-03     70.6374E-03     59.5368E-03     86.0921E+06     1.45839E+06    -39.4180E+06    -96.9638E+06    -71.4661E+06    -26.9502E+06    -36.5071E+06    -41.9373E+06
            2033     117.103E-03     8.87587E-03     116.766E-03     69.5681E-03    -14.6175E-03    -54.9501E-03    -36.3288E-03     50.9469E-03    -14.6175E-03     88.8105E-03     75.5562E-03     69.3954E+06     22.9376E+06    -1.21002E+06    -55.1003E+06    -39.5566E+06    -3.81860E+06     10.0024E+06    -27.0172E+06
            2034     117.282E-03     9.83816E-03     116.868E-03     85.1021E-03    -17.1827E-03    -67.9380E-03    -46.0706E-03     63.2347E-03    -17.1827E-03     107.095E-03     93.9174E-03     66.5394E+06     48.5504E+06     20.8452E+06    -26.4569E+06    -18.3836E+06     12.7719E+06     48.5504E+06    -15.1392E+06
            2035     117.486E-03     10.7923E-03     116.989E-03     102.442E-03    -20.1236E-03    -82.3194E-03    -57.9671E-03     78.0893E-03    -20.1236E-03     124.952E-03     115.206E-03     79.9731E+06     69.3724E+06     30.6003E+06    -20.4131E+06    -12.6184E+06     22.8056E+06     69.3724E+06    -12.6966E+06
            2036     117.717E-03     11.7336E-03     117.131E-03     120.985E-03    -23.5061E-03    -97.4610E-03    -71.8400E-03     95.3642E-03    -23.5061E-03     140.456E-03     139.550E-03     92.0104E+06     74.1795E+06     25.7605E+06    -29.2820E+06    -17.4312E+06     13.9097E+06     74.1795E+06    -15.8572E+06
            2037     117.965E-03     12.6638E-03     117.284E-03     140.522E-03    -27.3813E-03    -113.142E-03    -87.7572E-03     115.137E-03    -27.3813E-03     152.032E-03     168.179E-03     90.9810E+06     72.9004E+06     19.5098E+06    -31.5405E+06    -15.9989E+06     3.96822E+06     72.9004E+06    -21.1750E+06
            2038     118.232E-03     13.5763E-03     117.450E-03     158.780E-03    -31.7546E-03    -127.034E-03    -103.767E-03     135.513E-03    -31.7546E-03     155.925E-03     199.399E-03     93.4514E+06     71.6734E+06     31.4878E+06    -34.3695E+06    -10.2564E+06     7.37470E+06     71.6734E+06    -29.8948E+06
            2039     118.498E-03     14.4749E-03     117.611E-03     171.293E-03    -36.5348E-03    -134.764E-03    -118.360E-03     154.890E-03    -36.5348E-03     135.494E-03     224.960E-03     113.842E+06     44.8929E+06     20.3170E+06    -78.7890E+06    -8.35038E+06    -50.1216E+06     44.8929E+06    -33.8473E+06
            2040     118.720E-03     15.3590E-03     117.722E-03     182.501E-03    -41.6121E-03    -140.898E-03    -129.286E-03     170.890E-03    -41.6121E-03     120.125E-03     255.873E-03     111.503E+06     57.1874E+06     43.5762E+06    -60.4337E+06    -4.89157E+06    -10.1721E+06     55.3936E+06    -23.3144E+06
            2041     118.967E-03     16.2374E-03     117.854E-03     187.979E-03    -46.8438E-03    -141.143E-03    -133.982E-03     180.818E-03    -46.8438E-03     89.3761E-03     253.253E-03     115.329E+06     122.750E+06     74.8895E+06    -5.08518E+06    -2.97928E+06     74.5774E+06     120.956E+06    -12.5141E+06
            2042     117.503E-03     992.748E-06     117.499E-03     14.9673E-03    -7.37297E-03    -7.59463E-03    -7.54955E-03     14.9491E-03    -7.39986E-03     735.963E-06     15.0939E-03     54.5876E+06    -67.7036E+06    -117.263E+06    -125.903E+06    -122.312E+06    -71.2947E+06    -117.263E+06    -13.6536E+06
            2043     117.522E-03     1.98535E-03     117.505E-03     16.1639E-03    -7.70763E-03    -8.45773E-03    -8.34419E-03     16.0503E-03    -7.70763E-03     2.50282E-03     16.5666E-03     69.1690E+06    -50.9475E+06    -107.893E+06    -127.343E+06    -119.635E+06    -58.6560E+06    -107.893E+06    -22.2839E+06
            2044     117.553E-03     2.97653E-03     117.515E-03     18.1165E-03    -8.18123E-03    -9.93360E-03    -9.47658E-03     17.6595E-03    -8.18123E-03     6.01362E-03     19.0021E-03     81.7121E+06    -34.8246E+06    -94.5181E+06    -127.492E+06    -113.101E+06    -49.2158E+06    -94.5181E+06    -32.7773E+06
            2045     117.600E-03     3.96695E-03     117.533E-03     21.0615E-03    -8.76892E-03    -12.2950E-03    -11.0133E-03     19.7797E-03    -8.76892E-03     11.7181E-03     22.5741E-03     96.3048E+06    -17.4934E+06    -82.0459E+06    -127.251E+06    -106.183E+06    -38.5615E+06    -82.0459E+06    -42.8288E+06
            2046     117.664E-03     4.95542E-03     117.559E-03     25.6335E-03    -9.53270E-03    -16.1162E-03    -13.3011E-03     22.8184E-03    -9.53270E-03     20.0243E-03     27.8393E-03     106.946E+06    -8.24529E+06    -69.9900E+06    -130.438E+06    -104.144E+06    -34.5387E+06    -69.9900E+06    -50.0768E+06
            2047     117.748E-03     5.94139E-03     117.598E-03     32.3538E-03    -10.5041E-03    -21.8554E-03    -16.6047E-03     27.1031E-03    -10.5041E-03     31.4319E-03     35.1673E-03     114.859E+06    -4.40546E+06    -62.1631E+06    -135.294E+06    -104.604E+06    -35.0953E+06    -62.1631E+06    -55.3126E+06
            2048     117.855E-03     6.92341E-03     117.652E-03     41.5640E-03    -11.7331E-03    -29.8208E-03    -21.2406E-03     32.9838E-03    -11.7331E-03     46.0709E-03     44.9320E-03     122.683E+06     2.29266E+06    -55.1339E+06    -136.962E+06    -102.058E+06    -32.6120E+06    -55.1339E+06    -60.0983E+06
            2049     117.988E-03     7.90034E-03     117.723E-03     53.4757E-03    -13.3129E-03    -40.1554E-03    -27.5122E-03     40.8325E-03    -13.3129E-03     63.8400E-03     57.6352E-03     125.073E+06     9.74182E+06    -41.0328E+06    -131.720E+06    -93.8445E+06    -28.1341E+06    -41.0328E+06    -62.4757E+06
            2050     118.148E-03     8.86991E-03     117.815E-03     67.5577E-03    -15.2961E-03    -52.2550E-03    -35.3700E-03     50.6727E-03    -15.2961E-03     83.3268E-03     72.9688E-03     112.120E+06     17.4501E+06    -20.3615E+06    -108.494E+06    -75.0212E+06    -19.8569E+06    -16.5274E+06    -54.4272E+06
            2051     118.337E-03     9.83354E-03     117.928E-03     83.2473E-03    -17.7420E-03    -65.5187E-03    -44.9712E-03     62.6999E-03    -17.7420E-03     102.624E-03     90.6292E-03     96.0387E+06     37.9227E+06     10.1763E+06    -67.0507E+06    -44.9738E+06    -266.877E+03      26.289E+06    -37.5954E+06
            2052     118.556E-03     10.7871E-03     118.064E-03     100.398E-03    -20.6283E-03    -79.7879E-03    -56.4399E-03     77.0501E-03    -20.6283E-03     120.979E-03     110.819E-03     89.8367E+06     69.6159E+06     24.2144E+06    -29.1917E+06    -16.3278E+06     11.3505E+06     69.6159E+06    -17.3090E+06
            2053     118.802E-03     11.7318E-03     118.221E-03     118.554E-03    -23.8853E-03    -94.6537E-03    -69.7637E-03     93.6644E-03    -23.8853E-03     136.821E-03     133.408E-03     90.5854E+06     93.5851E+06     30.5482E+06    -8.94735E+06     1.86075E+06     19.7401E+06     93.5851E+06    -7.12086E+06
            2054     119.071E-03     12.6624E-03     118.396E-03     137.486E-03    -27.5487E-03    -109.925E-03    -84.3583E-03     111.920E-03    -27.5487E-03     150.530E-03     158.890E-03     94.2386E+06     94.9725E+06     34.6854E+06    -12.1852E+06     6.91978E+06     15.5804E+06     94.9725E+06    -11.9613E+06
            2055     119.363E-03     13.5802E-03     118.588E-03     154.860E-03    -31.6341E-03    -123.261E-03    -98.9163E-03     130.515E-03    -31.6341E-03     156.893E-03     185.773E-03     97.6091E+06     89.7598E+06     34.6502E+06    -21.8566E+06    -2.76468E+06     15.5583E+06     89.7598E+06    -11.9041E+06
            2056     119.648E-03     14.4860E-03     118.768E-03     170.249E-03    -36.1974E-03    -134.099E-03    -115.810E-03     151.961E-03    -36.1974E-03     142.845E-03     212.432E-03     124.357E+06     70.5863E+06     24.2330E+06    -68.2835E+06    -15.6847E+06    -28.3659E+06     70.5863E+06    -24.9227E+06
            2057     119.908E-03     15.3697E-03     118.919E-03     186.652E-03    -41.2190E-03    -145.456E-03    -132.918E-03     174.115E-03    -41.2190E-03     126.179E-03     252.938E-03     117.315E+06     57.2853E+06     31.8792E+06    -69.1685E+06    -9.22995E+06    -27.3574E+06     56.5834E+06    -34.0975E+06
            2058     120.158E-03     16.2369E-03     119.056E-03     192.062E-03    -46.6215E-03    -145.443E-03    -138.495E-03     185.114E-03    -46.6215E-03     90.6353E-03     257.673E-03     114.170E+06     113.036E+06     61.2129E+06    -13.4404E+06     2.30567E+06     46.1688E+06     112.334E+06    -10.0089E+06
            2059     118.521E-03     989.619E-06     118.517E-03     22.5194E-03    -11.1211E-03    -11.3988E-03    -11.3690E-03     22.5147E-03    -11.1461E-03    -553.781E-06     22.6070E-03     26.6428E+06    -43.7744E+06    -61.1224E+06    -73.3151E+06    -66.2251E+06    -50.8643E+06    -61.1224E+06    -9.53831E+06
            2060     118.540E-03     1.97794E-03     118.523E-03     23.8776E-03    -11.5312E-03    -12.3489E-03    -12.3325E-03     23.8612E-03    -11.5312E-03    -303.559E-06     24.1895E-03     43.5888E+06    -25.4116E+06    -53.5361E+06    -75.0591E+06    -63.3464E+06    -37.1243E+06    -53.5361E+06    -20.1127E+06
            2061     118.573E-03     2.96565E-03     118.536E-03     25.6315E-03    -12.0786E-03    -13.5521E-03    -13.4844E-03     25.5637E-03    -12.0786E-03     1.09404E-03     26.3843E-03     62.0644E+06    -8.56169E+06    -42.2181E+06    -79.5323E+06    -60.9864E+06    -27.1075E+06    -42.2181E+06    -30.7302E+06
            2062     118.621E-03     3.95179E-03     118.555E-03     27.8395E-03    -12.7298E-03    -15.1149E-03    -14.8524E-03     27.5770E-03    -12.7298E-03     4.28009E-03     29.2863E-03     75.0208E+06     990.875E+03    -29.6757E+06    -83.4923E+06    -60.7126E+06    -21.7888E+06    -29.6757E+06    -37.2405E+06
            2063     118.687E-03     4.93685E-03     118.584E-03     30.9024E-03    -13.4819E-03    -17.4332E-03    -16.6255E-03     30.0946E-03    -13.4819E-03     9.79356E-03     33.2430E-03     82.8930E+06     5.07576E+06    -18.9553E+06    -86.2446E+06    -60.7447E+06    -20.4242E+06    -18.9553E+06    -40.6756E+06
            2064     118.774E-03     5.91976E-03     118.626E-03     35.4290E-03    -14.3706E-03    -21.0662E-03    -19.0705E-03     33.4334E-03    -14.3706E-03     18.2936E-03     38.7508E-03     91.8447E+06     9.63819E+06    -10.5006E+06    -89.9928E+06    -61.0626E+06    -21.1032E+06    -8.68938E+06    -44.4167E+06
            2065     118.885E-03     6.90029E-03     118.684E-03     42.1736E-03    -15.4370E-03    -26.7273E-03    -22.5730E-03     38.0192E-03    -15.4370E-03     30.6498E-03     46.3871E-03     104.181E+06     15.7239E+06    -3.17791E+06    -95.9328E+06    -63.8340E+06    -18.2375E+06    -1.31535E+06    -49.7813E+06
            2066     119.023E-03     7.87633E-03     118.762E-03     51.7968E-03    -16.7496E-03    -35.0401E-03    -27.6131E-03     44.3698E-03    -16.7496E-03     46.9952E-03     56.8427E-03     113.715E+06     18.7245E+06    -4.01901E+06    -104.052E+06    -70.3668E+06    -19.0841E+06     104.328E+03    -53.3807E+06
            2067     119.191E-03     8.84780E-03     118.862E-03     64.3324E-03    -18.3988E-03    -45.9290E-03    -34.4413E-03     52.8446E-03    -18.3988E-03     66.3405E-03     70.1628E-03     124.011E+06     22.1575E+06    -4.75882E+06    -112.598E+06    -77.6752E+06    -18.6396E+06     1.11521E+06    -57.1480E+06
            2068     119.391E-03     9.80980E-03     118.987E-03     79.4282E-03    -20.4757E-03    -58.9629E-03    -43.2022E-03     63.6675E-03    -20.4757E-03     87.4196E-03     86.2558E-03     128.142E+06     25.2942E+06     8.50673E+06    -109.742E+06    -77.0999E+06    -12.5017E+06     13.6605E+06    -55.6468E+06
            2069     119.621E-03     10.7640E-03     119.136E-03     96.7767E-03    -23.0489E-03    -73.7768E-03    -54.2870E-03     77.2868E-03    -23.0489E-03     108.310E-03     105.446E-03     121.458E+06     40.8865E+06     15.9681E+06    -86.9471E+06    -60.1017E+06    -10.8774E+06     40.8865E+06    -43.8933E+06
            2070     119.882E-03     11.7065E-03     119.309E-03     114.860E-03    -26.0578E-03    -88.8212E-03    -66.6995E-03     92.7384E-03    -26.0578E-03     126.664E-03     126.320E-03     116.288E+06     73.4528E+06     26.8313E+06    -53.0463E+06    -32.9642E+06     6.74920E+06     73.4528E+06    -28.0913E+06
            2071     120.170E-03     12.6388E-03     119.504E-03     132.574E-03    -29.4649E-03    -103.104E-03    -79.5353E-03     109.005E-03    -29.4649E-03     141.324E-03     148.504E-03     116.472E+06     98.8381E+06     32.2291E+06    -31.6667E+06    -13.9674E+06     14.5298E+06     98.8381E+06    -13.3880E+06
            2072     120.475E-03     13.5639E-03     119.709E-03     148.780E-03    -33.2280E-03    -115.576E-03    -93.1980E-03     126.402E-03    -33.2280E-03     146.755E-03     171.540E-03     115.391E+06     109.821E+06     26.7656E+06    -21.4373E+06    -1.51659E+06     6.84491E+06     109.821E+06    -2.09081E+06
            2073     120.791E-03     14.4741E-03     119.921E-03     162.635E-03    -37.3439E-03    -125.317E-03    -107.452E-03     144.769E-03    -37.3439E-03     138.031E-03     194.561E-03     118.596E+06     113.278E+06     34.3676E+06    -21.4285E+06     5.48813E+06     7.45102E+06     113.278E+06    -6.06489E+06
            2074     121.084E-03     15.3650E-03     120.105E-03     179.315E-03    -41.6925E-03    -137.619E-03    -123.006E-03     164.702E-03    -41.6925E-03     132.308E-03     233.605E-03     107.537E+06     70.9078E+06     19.1844E+06    -49.2550E+06    -9.16029E+06    -20.2084E+06     70.2059E+06    -23.2574E+06
            2075     121.360E-03     16.2387E-03     120.269E-03     190.065E-03    -46.5725E-03    -143.462E-03    -134.784E-03     181.387E-03    -46.5725E-03     98.9740E-03     251.653E-03     120.082E+06     91.4201E+06     32.5789E+06    -43.6142E+06    -17.1689E+06     6.83551E+06     90.7181E+06    -13.7575E+06
            2076     119.548E-03     983.803E-06     119.544E-03     34.1668E-03    -16.8322E-03    -17.3341E-03    -17.1186E-03     34.1495E-03    -17.0305E-03    -1.73591E-03     34.2183E-03     28.0133E+06    -7.14079E+06    -15.1959E+06    -38.1180E+06    -13.2902E+06    -31.9686E+06    -15.1959E+06    -9.10814E+06
            2077     119.569E-03     1.96692E-03     119.553E-03     35.7383E-03    -17.3741E-03    -18.3652E-03    -18.3242E-03     35.6973E-03    -17.3741E-03    -2.88152E-03     35.9192E-03     35.2736E+06     4.72431E+06    -7.44006E+06    -34.4509E+06    -12.6646E+06    -17.0620E+06    -7.44006E+06    -17.7396E+06
            2078     119.603E-03     2.94815E-03     119.566E-03     37.9787E-03    -18.0555E-03    -19.9219E-03    -19.8632E-03     37.9200E-03    -18.0555E-03    -3.39933E-03     38.4503E-03     46.6250E+06     14.2548E+06     770.925E+03    -37.0753E+06    -14.3530E+06    -11.1551E+06     3.45857E+06    -22.8034E+06
            2079     119.652E-03     3.92809E-03     119.588E-03     40.6310E-03    -18.9044E-03    -21.7347E-03    -21.6687E-03     40.5650E-03    -18.9044E-03    -2.81377E-03     41.6105E-03     56.7837E+06     21.8822E+06     6.34603E+06    -40.8141E+06    -17.6429E+06    -9.71293E+06     14.7700E+06    -25.6859E+06
            2080     119.720E-03     4.90560E-03     119.619E-03     43.5871E-03    -19.8681E-03    -23.7375E-03    -23.6350E-03     43.4846E-03    -19.8681E-03    -643.881E-06     45.3331E-03     67.1350E+06     28.3490E+06     10.1216E+06    -45.1659E+06    -20.9381E+06    -10.0282E+06     24.2710E+06    -28.5960E+06
            2081     119.808E-03     5.88153E-03     119.664E-03     47.0745E-03    -20.9351E-03    -26.1435E-03    -25.8541E-03     46.7851E-03    -20.9351E-03     3.53398E-03     49.8763E-03     76.0454E+06     33.5200E+06     12.9072E+06    -49.3298E+06    -24.3167E+06    -10.7514E+06     32.1655E+06    -30.7277E+06
            2082     119.921E-03     6.85464E-03     119.725E-03     51.5550E-03    -22.1270E-03    -29.4171E-03    -28.5424E-03     50.6803E-03    -22.1270E-03     10.4467E-03     55.6009E-03     84.9710E+06     39.5504E+06     16.2401E+06    -52.1914E+06    -28.6635E+06    -7.28783E+06     39.5504E+06    -32.0642E+06
            2083     120.061E-03     7.82570E-03     119.806E-03     57.5312E-03    -23.4903E-03    -34.0272E-03    -31.9681E-03     55.4721E-03    -23.4903E-03     20.4728E-03     62.9405E-03     93.9765E+06     45.5020E+06     15.2359E+06    -57.1301E+06    -32.9388E+06    -8.95534E+06     45.5020E+06    -33.7417E+06
            2084     120.234E-03     8.79122E-03     119.913E-03     65.2919E-03    -25.0486E-03    -40.2462E-03    -36.2449E-03     61.2906E-03    -25.0486E-03     33.8179E-03     72.0331E-03     102.124E+06     50.6953E+06     16.5289E+06    -61.4777E+06    -37.2635E+06    -7.68526E+06     50.6953E+06    -35.7548E+06
            2085     120.440E-03     9.75395E-03     120.044E-03     75.6953E-03    -26.8261E-03    -48.8915E-03    -42.1536E-03     68.9574E-03    -26.8261E-03     50.4488E-03     83.7027E-03     109.708E+06     49.2852E+06     17.5811E+06    -69.7173E+06    -45.1505E+06    -6.98580E+06     49.2852E+06    -39.0452E+06
            2086     120.681E-03     10.7090E-03     120.205E-03     88.5045E-03    -28.9135E-03    -59.6318E-03    -49.6951E-03     78.5678E-03    -28.9135E-03     69.6196E-03     97.6686E-03     117.916E+06     46.4033E+06     10.8322E+06    -81.6667E+06    -56.2618E+06    -14.5727E+06     46.4033E+06    -40.9620E+06
            2087     120.956E-03     11.6542E-03     120.394E-03     102.899E-03    -31.3285E-03    -71.6017E-03    -58.3448E-03     89.6419E-03    -31.3285E-03     89.7903E-03     113.481E-03     125.998E+06     55.7264E+06     12.4331E+06    -83.4484E+06    -64.6722E+06    -6.34321E+06     55.7264E+06    -37.2786E+06
            2088     121.255E-03     12.5920E-03     120.599E-03     119.999E-03    -34.0981E-03    -85.9059E-03    -69.7995E-03     103.892E-03    -34.0981E-03     109.299E-03     133.859E-03      131.22E+06     76.6667E+06     15.2477E+06    -72.1741E+06    -57.4444E+06     517.906E+03     76.6667E+06    -29.8425E+06
            2089     121.582E-03     13.5126E-03     120.829E-03     136.239E-03    -37.1645E-03    -99.0878E-03    -81.7258E-03     118.877E-03    -37.1645E-03     122.675E-03     154.863E-03     129.575E+06     90.9784E+06     13.7060E+06    -56.4501E+06    -36.2652E+06    -6.47890E+06     90.9784E+06    -23.3000E+06
            2090     121.910E-03     14.4229E-03     121.054E-03     147.427E-03    -40.3733E-03    -107.062E-03    -90.4316E-03     130.796E-03    -40.3733E-03     125.542E-03     172.483E-03     124.656E+06     106.869E+06     23.2811E+06    -34.3123E+06    -16.4422E+06     5.41107E+06     106.869E+06    -11.7704E+06
            2091     122.228E-03     15.3384E-03     121.262E-03     159.794E-03    -43.5984E-03    -116.171E-03    -100.083E-03     143.706E-03    -43.5984E-03     129.113E-03     199.229E-03     115.971E+06     100.789E+06     16.5998E+06    -31.0062E+06    -8.17636E+06    -6.23006E+06     100.789E+06    -630.127E+03
            2092     122.538E-03     16.2460E-03     121.456E-03     176.311E-03    -47.2034E-03    -129.061E-03    -118.062E-03     165.312E-03    -47.2034E-03     108.116E-03     230.313E-03     117.047E+06     104.815E+06     31.4829E+06    -28.9949E+06     520.360E+03     1.96762E+06     104.815E+06    -5.54359E+06
            2093     120.591E-03     976.362E-06     120.587E-03     49.6088E-03    -24.4926E-03    -25.1145E-03    -24.9081E-03     49.5815E-03    -24.6718E-03    -2.71524E-03     49.6314E-03     52.5717E+06     39.7058E+06     32.0609E+06    -15.9439E+06     35.8654E+06    -13.3133E+06     33.2707E+06    -9.78807E+06
            2094     120.611E-03     1.95164E-03     120.595E-03     51.1950E-03    -25.0786E-03    -26.1207E-03    -26.0562E-03     51.1304E-03    -25.0786E-03    -4.38609E-03     51.2669E-03     43.2008E+06     36.4054E+06     29.9077E+06    -9.37246E+06     29.1186E+06    -4.03918E+06     31.8613E+06    -11.9388E+06
            2095     120.648E-03     2.92560E-03     120.612E-03     54.3421E-03    -25.8995E-03    -28.4455E-03    -28.3319E-03     54.2285E-03    -25.8995E-03    -6.09268E-03     54.5583E-03     47.3015E+06     41.2647E+06     29.6435E+06    -10.2037E+06     23.1911E+06    -3.50419E+06     41.0176E+06    -12.2255E+06
            2096     120.699E-03     3.89614E-03     120.636E-03     58.4297E-03    -27.0731E-03    -31.3576E-03    -31.1934E-03     58.2655E-03    -27.0731E-03    -7.64024E-03     58.9294E-03     55.9211E+06     53.2883E+06     27.5089E+06    -10.3785E+06     19.4103E+06    -2.27986E+06     53.2883E+06    -12.4626E+06
            2097     120.769E-03     4.86418E-03     120.671E-03     63.1065E-03    -28.5038E-03    -34.6080E-03    -34.3978E-03     62.8963E-03    -28.5038E-03    -8.84217E-03     64.0989E-03     67.4514E+06     64.0602E+06     25.7321E+06    -13.3575E+06     15.4408E+06    -3.06619E+06     64.0602E+06    -13.1985E+06
            2098     120.860E-03     5.82805E-03     120.719E-03     68.2479E-03    -30.1364E-03    -38.1127E-03    -37.8511E-03     67.9863E-03    -30.1364E-03    -9.59418E-03     70.0507E-03     77.5378E+06     72.0228E+06     24.1864E+06    -16.8413E+06     11.7301E+06    -4.38505E+06     72.0228E+06    -14.3350E+06
            2099     120.974E-03     6.78877E-03     120.783E-03     73.5478E-03    -31.9525E-03    -41.5867E-03    -41.2416E-03     73.2027E-03    -31.9525E-03    -9.71974E-03     76.5535E-03     85.8119E+06     81.4153E+06     22.9809E+06    -16.1986E+06     9.17460E+06    -2.39230E+06     81.4153E+06    -14.7203E+06
            2100     121.116E-03     7.74383E-03     120.868E-03     78.4699E-03    -33.9052E-03    -44.5564E-03    -44.0490E-03     77.9625E-03    -33.9052E-03    -8.69378E-03     83.1006E-03     94.6083E+06     89.5201E+06     21.5624E+06    -17.4692E+06     6.46151E+06    -2.36834E+06     89.5201E+06    -14.9332E+06
            2101     121.288E-03     8.69721E-03     120.976E-03     83.3456E-03    -35.9254E-03    -47.4252E-03    -46.5732E-03     82.4936E-03    -35.9254E-03    -6.36858E-03     90.0872E-03     99.6366E+06     92.5116E+06     19.8331E+06    -19.5744E+06     2.27234E+06    -2.01363E+06     92.5116E+06    -14.8422E+06
            2102     121.493E-03     9.64548E-03     121.110E-03     87.8790E-03    -37.9913E-03    -49.8844E-03    -48.4560E-03     86.4506E-03    -37.9913E-03    -2.13214E-03     97.1781E-03     102.853E+06     94.0936E+06     18.9238E+06    -21.2100E+06    -2.10442E+06    -181.777E+03     94.0936E+06    -13.1252E+06
            2103     121.737E-03     10.5890E-03     121.275E-03     91.4259E-03    -40.0410E-03    -51.3584E-03    -48.9912E-03     89.0587E-03    -40.0410E-03     5.13418E-03     103.465E-03     106.630E+06     93.4629E+06     14.5292E+06    -26.0727E+06    -6.21347E+06    -5.33001E+06     93.4629E+06    -12.6528E+06
            2104     122.010E-03     11.5351E-03     121.463E-03     96.3749E-03    -41.8513E-03    -54.5175E-03    -50.5350E-03     92.5904E-03    -42.0494E-03     15.5666E-03     111.873E-03     108.155E+06     93.9325E+06     15.8044E+06    -27.8587E+06    -7.78680E+06    -4.26748E+06     93.9325E+06    -13.0151E+06
            2105     122.322E-03     12.4750E-03     121.684E-03     102.549E-03    -40.7447E-03    -61.8337E-03    -52.9121E-03     96.9258E-03    -44.0432E-03     29.6261E-03     122.516E-03     109.785E+06     94.0361E+06     19.6823E+06    -29.0793E+06    -10.4019E+06     1.00489E+06     94.0361E+06    -14.5467E+06
            2106     122.661E-03     13.4125E-03     121.925E-03     105.747E-03    -36.3423E-03    -69.4307E-03    -52.5032E-03     98.2762E-03    -45.7986E-03     45.9968E-03     129.731E-03     110.895E+06     86.5599E+06     17.7063E+06    -37.8624E+06    -17.7278E+06    -2.42827E+06     86.5599E+06    -14.4944E+06
            2107     123.006E-03     14.3543E-03     122.165E-03     110.707E-03    -36.6727E-03    -74.0525E-03    -55.0528E-03     102.298E-03    -47.2630E-03     61.4325E-03     139.744E-03     112.647E+06     87.6591E+06     11.2278E+06    -38.8050E+06    -22.4378E+06    -5.13953E+06     87.6591E+06    -12.5603E+06
            2108     123.337E-03     15.2830E-03     122.387E-03     125.052E-03    -44.6482E-03    -80.4127E-03    -67.8590E-03     116.732E-03    -48.8825E-03     69.3145E-03     162.208E-03     122.596E+06     99.1787E+06     8.85888E+06    -38.7551E+06    -8.90317E+06    -20.9931E+06     99.1787E+06    -5.07105E+06
            2109     123.664E-03     16.2064E-03     122.598E-03     124.750E-03    -37.1551E-03    -87.5827E-03    -68.3658E-03     118.732E-03    -50.3540E-03     60.4035E-03     169.182E-03     114.096E+06     98.9179E+06     38.8318E+06    -27.9767E+06     9.32654E+06     1.52858E+06     98.9179E+06    -4.74341E+06


