********************************************************************************
Field Output Report, written Mon Apr 21 02:05:02 2025

Source 1
---------

   ODB: F:/Abaqus_calc/Vel_20/odb/Correct/1020_2a_32_rd_2500_cal_30_v_20_f_025.odb
   Step: Step-1
   Frame: Increment   9994338: Step Time =    1.128

Loc 1 : Nodal values from source 1

Output sorted by column "Nodal Label".

Field Output reported at nodes for region: DIE_2A_32_D0_36-1.Region_1
   Computation algorithm: EXTRAPOLATE_COMPUTE_AVERAGE
   Averaged at nodes
   Averaging regions: ODB_REGIONS

      Node Label  COORD.Magnitude     COORD.COOR1     COORD.COOR2
                          @Loc 1          @Loc 1          @Loc 1
------------------------------------------------------------------
               1     238.440E-03     17.2211E-03     237.817E-03


Field Output reported at nodes for region: DIE_2A_32_D0_36-1.Region_2
   Computation algorithm: EXTRAPOLATE_COMPUTE_AVERAGE
   Averaged at nodes
   Averaging regions: ODB_REGIONS

      Node Label  COORD.Magnitude     COORD.COOR1     COORD.COOR2
                          @Loc 1          @Loc 1          @Loc 1
------------------------------------------------------------------
               1     238.440E-03     17.2211E-03     237.817E-03


Field Output reported at nodes for part: WIRE_1-1
   Computation algorithm: EXTRAPOLATE_COMPUTE_AVERAGE
   Averaged at nodes
   Averaging regions: ODB_REGIONS

      Node Label  COORD.Magnitude     COORD.COOR1     COORD.COOR2    PE.Max. Prin    PE.Mid. Prin    PE.Min. Prin         PE.PE11         PE.PE22         PE.PE33         PE.PE12            PEEQ         S.Mises     S.Max. Prin     S.Mid. Prin     S.Min. Prin           S.S11           S.S22           S.S33           S.S12
                          @Loc 1          @Loc 1          @Loc 1          @Loc 1          @Loc 1          @Loc 1          @Loc 1          @Loc 1          @Loc 1          @Loc 1          @Loc 1          @Loc 1          @Loc 1          @Loc 1          @Loc 1          @Loc 1          @Loc 1          @Loc 1          @Loc 1
----------------------------------------------------------------------------------------------------------------------------------------------------------------------------------------------------------------------------------------------------------------------------------------------------------------------------------
               1     105.529E-03     13.1895E-03     104.702E-03     629.742E-03    -309.945E-03    -317.735E-03    -312.661E-03     624.668E-03    -309.945E-03     138.302E-03     711.455E-03     15.2459E+06     17.2189E+06     8.30125E+06    -335.985E+03    -304.570E+03     8.26983E+06     17.2189E+06     330.713E+03
               2     102.583E-03     1.67135E-06     102.583E-03     628.182E-03    -312.518E-03    -314.821E-03    -314.821E-03     628.182E-03    -312.518E-03     788.222E-06     628.792E-03     8.00199E+06    -16.5839E+06    -21.9199E+06    -25.7720E+06    -20.5146E+06    -21.9176E+06    -21.8436E+06    -154.545E+03
               3     7.33364E-06    -7.29867E-06     715.256E-09     781.949E-03    -385.491E-03    -396.597E-03    -385.450E-03     781.907E-03    -396.597E-03     13.9716E-03     781.956E-03     12.5215E+06     5.39031E+06    -1.02238E+06    -9.03858E+06    -1.74490E+06    -1.90337E+06    -1.02238E+06    -7.21401E+06
               4     12.8751E-03     12.8751E-03     715.256E-09         1.01047    -316.875E-03    -691.767E-03    -680.034E-03     998.735E-03    -316.875E-03     281.669E-03         1.10768     238.761E+06     259.078E+06     101.331E+06    -15.6112E+06     171.121E+06     72.3455E+06     101.331E+06     128.158E+06
               5     208.002E-03     13.5124E-03     207.563E-03     407.656E-03    -113.995E-03    -294.674E-03    -113.921E-03     407.582E-03    -294.674E-03     12.4627E-03     567.065E-03     122.174E+06     97.1133E+06     36.4320E+06    -43.5215E+06    -43.4118E+06     36.3222E+06     97.1133E+06    -2.96013E+06
               6     200.707E-03    -32.4282E-06     200.707E-03     679.582E-03    -321.600E-03    -358.544E-03    -315.817E-03     673.799E-03    -358.544E-03    -151.741E-03     697.541E-03     50.6570E+06    -72.9660E+06    -117.549E+06    -128.051E+06    -116.661E+06    -73.8546E+06    -128.051E+06    -6.23102E+06
               7     105.198E-03     12.4633E-03     104.457E-03     636.159E-03    -310.961E-03    -324.187E-03    -314.196E-03     626.167E-03    -310.961E-03     188.680E-03     749.249E-03     14.8383E+06     15.7558E+06     8.13490E+06    -1.26621E+06    -1.06413E+06     7.93283E+06     15.7558E+06     379.989E+03
               8     104.703E-03     11.7303E-03     104.044E-03     634.183E-03    -311.460E-03    -322.556E-03    -311.887E-03     623.514E-03    -311.460E-03     197.016E-03     755.102E-03     15.2261E+06     14.9665E+06     7.97414E+06    -2.48161E+06    -2.14230E+06     7.63483E+06     14.9665E+06     222.429E+03
               9     104.382E-03     10.9975E-03     103.801E-03     626.233E-03    -311.140E-03    -315.616E-03    -308.679E-03     619.296E-03    -311.140E-03     160.958E-03     723.679E-03     15.4756E+06     14.4837E+06     7.86794E+06    -3.17202E+06    -3.00313E+06     7.69906E+06     14.4837E+06     127.217E+03
              10     104.065E-03     10.2484E-03     103.559E-03     625.012E-03    -310.969E-03    -315.502E-03    -309.049E-03     618.560E-03    -310.969E-03     154.815E-03     714.420E-03     14.3320E+06     11.7522E+06     7.32424E+06    -4.23602E+06    -4.20803E+06     7.29624E+06     11.7522E+06     178.212E+03
              11     103.784E-03     9.51773E-03     103.347E-03     622.863E-03    -310.343E-03    -312.885E-03    -307.769E-03     617.746E-03    -310.343E-03     137.928E-03     698.584E-03     15.1506E+06     10.7163E+06     6.97956E+06    -5.93067E+06    -5.79985E+06     6.84874E+06     10.7163E+06     605.690E+03
              12     103.518E-03     8.79017E-03     103.145E-03     620.335E-03    -310.121E-03    -311.784E-03    -306.489E-03     615.982E-03    -311.064E-03     126.871E-03     689.539E-03     16.0404E+06     10.4694E+06     5.87708E+06    -7.32835E+06    -7.06686E+06     5.61559E+06     10.4694E+06     1.34229E+06
              13     103.301E-03     8.05889E-03     102.986E-03     618.027E-03    -309.560E-03    -311.043E-03    -305.942E-03     614.409E-03    -311.043E-03     115.498E-03     681.183E-03     15.5116E+06     8.65366E+06     3.41924E+06    -8.77322E+06    -8.53491E+06     3.18092E+06     8.65366E+06     1.36188E+06
              14     103.084E-03     7.32745E-03     102.823E-03     619.547E-03    -308.773E-03    -311.208E-03    -305.796E-03     616.569E-03    -311.208E-03     104.805E-03     675.030E-03     14.3630E+06     5.59519E+06     610.093E+03    -10.5619E+06    -10.4200E+06     468.180E+03     5.59519E+06     1.03939E+06
              15     102.962E-03     6.58765E-03     102.751E-03     620.173E-03    -308.982E-03    -311.476E-03    -306.645E-03     617.837E-03    -311.476E-03     92.8458E-03     672.642E-03     13.2713E+06     2.83186E+06    -1.11316E+06    -11.9101E+06    -11.8356E+06    -1.18764E+06     2.83186E+06     859.797E+03
              16     102.783E-03     5.86068E-03     102.616E-03     619.906E-03    -309.052E-03    -310.927E-03    -307.314E-03     618.168E-03    -310.927E-03     79.9960E-03     666.349E-03     12.9859E+06     894.329E+03    -2.25398E+06    -13.3477E+06    -13.2652E+06    -2.33646E+06     894.329E+03     892.919E+03
              17     102.684E-03     5.12580E-03     102.556E-03     620.276E-03    -309.134E-03    -311.394E-03    -307.927E-03     619.068E-03    -311.394E-03     66.5871E-03     658.854E-03     11.2203E+06    -2.87038E+06    -5.27301E+06    -15.0557E+06    -14.9766E+06    -5.35209E+06    -2.87038E+06     831.956E+03
              18     102.631E-03     4.39086E-03     102.537E-03     620.822E-03    -309.541E-03    -312.394E-03    -308.794E-03     620.076E-03    -312.394E-03     52.1082E-03     652.784E-03     9.35368E+06    -6.49714E+06    -8.12177E+06    -16.5023E+06    -16.3634E+06    -8.26065E+06    -6.49714E+06     981.865E+03
              19     102.607E-03     3.65629E-03     102.542E-03     622.061E-03    -310.325E-03    -313.709E-03    -309.931E-03     621.666E-03    -313.709E-03     37.7125E-03     645.849E-03     8.00903E+06    -9.60041E+06    -10.8247E+06    -18.1329E+06    -17.8795E+06    -11.0781E+06    -9.60041E+06     1.24600E+06
              20     102.583E-03     2.92467E-03     102.541E-03     624.188E-03    -311.722E-03    -314.236E-03    -311.542E-03     624.008E-03    -314.236E-03     25.3427E-03     640.838E-03     6.30404E+06    -12.4997E+06    -14.0016E+06    -19.3618E+06    -19.0510E+06    -13.7903E+06    -13.0218E+06     785.621E+03
              21     102.568E-03     2.19469E-03     102.545E-03     626.359E-03    -312.536E-03    -314.227E-03    -312.470E-03     626.294E-03    -314.227E-03     14.8948E-03     636.717E-03     5.44409E+06    -15.7588E+06    -17.6011E+06    -21.7401E+06    -20.8877E+06    -16.9634E+06    -17.2489E+06     550.085E+03
              22     102.568E-03     1.46337E-03     102.558E-03     626.865E-03    -312.919E-03    -314.188E-03    -312.903E-03     626.849E-03    -314.188E-03     7.16917E-03     632.016E-03     3.87147E+06    -19.2592E+06    -21.1491E+06    -23.4704E+06    -22.6584E+06    -19.9938E+06    -21.2265E+06     601.466E+03
              23     102.575E-03     731.604E-06     102.572E-03     627.670E-03    -312.808E-03    -314.538E-03    -313.957E-03     627.667E-03    -313.386E-03     2.56430E-03     629.446E-03     5.17967E+06    -18.4726E+06    -22.1399E+06    -24.3632E+06    -21.6034E+06    -21.2706E+06    -22.1017E+06     169.666E+03
              24     100.711E-03     1.17088E-06     100.711E-03     628.652E-03    -313.037E-03    -315.164E-03    -315.164E-03     628.652E-03    -313.037E-03     920.452E-06     629.250E-03     4.90640E+06    -20.5496E+06    -24.0453E+06    -26.0537E+06    -24.5669E+06    -24.1158E+06    -21.9660E+06     318.108E+03
              25     98.8389E-03    -443.112E-09     98.8389E-03     628.565E-03    -313.749E-03    -314.477E-03    -314.477E-03     628.565E-03    -313.749E-03     1.16965E-03     629.175E-03     2.26986E+06    -19.5244E+06    -21.6139E+06    -21.9358E+06    -19.9979E+06    -21.4623E+06    -21.6139E+06    -50.7848E+03
              26     96.9719E-03     1.21375E-06     96.9719E-03     629.221E-03    -314.267E-03    -314.666E-03    -314.666E-03     629.221E-03    -314.267E-03     1.33301E-03     629.815E-03     2.50945E+06    -15.2918E+06    -17.4252E+06    -18.0557E+06    -15.8237E+06    -17.5238E+06    -17.4252E+06     97.3973E+03
              27     95.0938E-03    -796.458E-09     95.0938E-03     629.140E-03    -314.329E-03    -314.571E-03    -314.367E-03     629.139E-03    -314.534E-03     875.612E-06     629.748E-03     4.37948E+06    -16.7143E+06    -18.5560E+06    -21.4499E+06    -19.0303E+06    -19.5154E+06    -18.1745E+06    -555.227E+03
              28     93.2213E-03     1.00917E-06     93.2213E-03     627.720E-03    -313.338E-03    -314.499E-03    -314.295E-03     627.720E-03    -313.543E-03     105.052E-06     628.336E-03     5.38893E+06    -15.8770E+06    -18.0153E+06    -21.8554E+06    -19.2330E+06    -18.8809E+06    -17.6338E+06     465.784E+03
              29     91.3522E-03     1.36254E-06     91.3522E-03     627.476E-03    -312.395E-03    -314.684E-03    -314.684E-03     627.476E-03    -312.395E-03     772.654E-06     628.070E-03     4.19920E+06    -13.0387E+06    -16.2248E+06    -17.6752E+06    -14.7514E+06    -15.9263E+06    -16.2611E+06     846.042E+03
              30     89.4806E-03     854.387E-09     89.4806E-03     628.990E-03    -313.325E-03    -315.018E-03    -314.657E-03     628.990E-03    -313.686E-03     1.77878E-03     629.590E-03     3.54499E+06    -10.7271E+06    -12.7672E+06    -14.5275E+06    -12.7210E+06    -13.1080E+06    -12.1927E+06     173.126E+03
              31     87.6041E-03    -607.781E-09     87.6041E-03     629.505E-03    -313.955E-03    -314.869E-03    -314.509E-03     629.504E-03    -314.315E-03     658.526E-06     630.132E-03     5.83333E+06    -7.34107E+06    -10.5647E+06    -13.9552E+06    -9.05580E+06    -11.1847E+06    -11.6205E+06     100.199E+03
              32     85.7277E-03     2.16152E-06     85.7277E-03     629.259E-03    -313.961E-03    -314.538E-03    -314.513E-03     629.256E-03    -313.983E-03     1.98317E-03     629.883E-03     6.49298E+06    -7.25924E+06    -11.8560E+06    -14.6866E+06    -10.6460E+06    -11.6171E+06    -11.5387E+06    -677.165E+03
              33     83.8580E-03    -1.78034E-06     83.8580E-03     629.567E-03    -314.086E-03    -315.106E-03    -314.084E-03     629.565E-03    -315.106E-03     2.10647E-03     630.156E-03     4.59565E+06    -7.49291E+06    -11.2469E+06    -12.5415E+06    -11.1499E+06    -10.8684E+06    -9.26292E+06     929.554E+03
              34     81.9803E-03     239.831E-09     81.9803E-03     628.242E-03    -312.562E-03    -315.337E-03    -314.340E-03     628.242E-03    -313.560E-03     42.0979E-06     628.833E-03     4.88961E+06    -6.96819E+06    -9.55388E+06    -12.2446E+06    -9.77178E+06    -10.2567E+06    -8.73820E+06    -420.490E+03
              35     80.1103E-03     2.25315E-06     80.1103E-03     627.192E-03    -311.647E-03    -315.128E-03    -315.126E-03     627.190E-03    -311.647E-03     2.10903E-03     627.830E-03     3.85658E+06    -9.50220E+06    -10.8990E+06    -13.7978E+06    -12.1856E+06    -11.9301E+06    -10.0833E+06    -810.075E+03
              36     78.2392E-03     316.682E-09     78.2392E-03     630.141E-03    -313.833E-03    -315.892E-03    -315.531E-03     630.136E-03    -314.189E-03     4.24296E-03     630.764E-03     2.99490E+06    -5.99986E+06    -8.06410E+06    -9.43399E+06    -6.39876E+06    -8.00401E+06    -9.09518E+06     380.414E+03
              37     76.3621E-03    -723.733E-09     76.3621E-03     629.728E-03    -314.252E-03    -315.191E-03    -314.830E-03     629.723E-03    -314.608E-03     301.220E-06     630.322E-03     4.92998E+06    -950.850E+03    -2.48520E+06    -6.23122E+06    -2.39654E+06    -3.80566E+06    -3.46507E+06     1.28212E+06
              38     74.4891E-03     2.23297E-06     74.4891E-03     626.543E-03    -312.734E-03    -313.684E-03    -313.304E-03     626.530E-03    -313.102E-03     2.52652E-03     627.155E-03     5.76479E+06    -4.27195E+06    -5.01293E+06    -10.3473E+06    -7.22481E+06    -7.44563E+06    -4.96172E+06    -291.277E+03
              39     72.6233E-03    -2.56457E-06     72.6233E-03     629.323E-03    -313.979E-03    -315.298E-03    -314.919E-03     629.312E-03    -314.347E-03     3.20533E-03     629.902E-03     5.39157E+06    -6.73830E+06    -7.46317E+06    -12.4325E+06    -9.40939E+06    -9.76143E+06    -7.46317E+06    -456.260E+03
              40     70.7405E-03     3.85645E-06     70.7405E-03     630.248E-03    -314.476E-03    -315.688E-03    -315.425E-03     630.246E-03    -314.736E-03     233.766E-06     630.838E-03     4.86254E+06    -2.85827E+06    -4.95376E+06    -8.01717E+06    -4.20364E+06    -5.95834E+06    -5.66723E+06     602.700E+03
              41     68.8698E-03    -4.39365E-06     68.8698E-03     629.336E-03    -313.767E-03    -315.476E-03    -313.765E-03     629.335E-03    -315.476E-03     2.01309E-03     629.975E-03     4.63119E+06    -662.471E+03    -4.34863E+06    -5.85596E+06    -3.26374E+06    -4.16699E+06    -3.43633E+06    -642.847E+03
              42     66.9888E-03     2.32340E-06     66.9888E-03     630.414E-03    -313.104E-03    -317.182E-03    -315.731E-03     630.413E-03    -314.554E-03    -502.946E-06     631.007E-03     4.73074E+06    -3.02413E+06    -6.73028E+06    -8.35073E+06    -5.52800E+06    -6.64604E+06     -5.9311E+06     364.936E+03
              43     65.1118E-03     1.46684E-06     65.1118E-03     630.116E-03    -313.424E-03    -316.688E-03    -316.686E-03     630.114E-03    -313.424E-03     982.178E-06     630.671E-03     4.03692E+06    -1.43523E+06    -4.73457E+06    -5.93478E+06    -2.78926E+06    -4.97312E+06    -4.34220E+06     294.242E+03
              44     63.2332E-03    -728.625E-09     63.2332E-03     630.804E-03    -314.684E-03    -316.084E-03    -315.318E-03     630.802E-03    -315.447E-03     1.63702E-03     631.395E-03     2.09181E+06    -549.193E+03    -2.07222E+06    -2.88731E+06    -2.00843E+06    -2.64701E+06    -853.278E+03     202.437E+03
              45     61.3512E-03    -385.777E-09     61.3512E-03     632.279E-03    -314.637E-03    -317.285E-03    -316.520E-03     632.278E-03    -315.401E-03     868.566E-06     632.869E-03     2.35411E+06    -399.207E+03    -1.47122E+06    -3.09846E+06    -1.61964E+06    -2.64595E+06    -703.292E+03    -163.640E+03
              46     59.4660E-03     3.16904E-06     59.4660E-03     632.946E-03    -314.308E-03    -318.390E-03    -318.389E-03     632.945E-03    -314.308E-03     963.329E-06     633.537E-03     2.85238E+06     136.752E+03    -1.27636E+06    -3.14191E+06    -940.782E+03    -2.15255E+06    -1.18819E+06    -663.018E+03
              47     57.5888E-03     216.097E-09     57.5888E-03     630.648E-03    -314.184E-03    -316.529E-03    -316.529E-03     630.648E-03    -314.184E-03     217.995E-06     631.245E-03     2.35854E+06     331.434E+03    -1.04820E+06    -2.39122E+06     252.293E+03    -1.63233E+06    -1.72796E+06    -371.901E+03
              48     55.7114E-03     78.2364E-09     55.7114E-03     630.065E-03    -314.300E-03    -315.746E-03    -314.445E-03     630.064E-03    -315.600E-03     1.94933E-03     630.646E-03     3.95509E+06     621.399E+03    -1.18269E+06    -3.89417E+06    -2.42465E+06    -1.91775E+06    -113.054E+03     243.876E+03
              49     53.8349E-03    -1.45126E-06     53.8349E-03     632.139E-03    -315.083E-03    -316.923E-03    -315.622E-03     632.138E-03    -316.382E-03     531.920E-06     632.756E-03     5.50477E+06     1.29584E+06    -1.96615E+06    -4.92229E+06    -1.72830E+06    -2.05985E+06    -1.80444E+06     318.772E+03
              50     51.9485E-03     2.23111E-06     51.9485E-03     631.187E-03    -314.140E-03    -316.888E-03    -316.887E-03     631.186E-03    -314.140E-03     140.434E-06     631.786E-03     6.34681E+06     2.09494E+06    -1.46222E+06    -5.07351E+06    -1.96013E+06    -1.47532E+06    -1.00534E+06    -356.812E+03
              51     50.0729E-03     1.05348E-06     50.0729E-03     629.978E-03    -313.292E-03    -316.502E-03    -316.501E-03     629.977E-03    -313.292E-03     1.87667E-03     630.524E-03     7.46061E+06     5.42437E+06     1.10737E+06    -3.03106E+06     1.19848E+06     1.26509E+06     1.03711E+06     469.904E+03
              52     48.1950E-03     306.029E-09     48.1950E-03     630.972E-03    -314.685E-03    -316.242E-03    -316.241E-03     630.971E-03    -314.685E-03     1.83802E-03     631.534E-03     5.40763E+06     2.60566E+06    -396.011E+03    -3.33891E+06     997.263E+03    -344.917E+03    -1.78161E+06     284.046E+03
              53     46.3177E-03     475.395E-09     46.3177E-03     633.069E-03    -315.651E-03    -317.331E-03    -316.203E-03     633.068E-03    -316.777E-03     2.20700E-03     633.654E-03     2.34295E+06    -1.76924E+06    -2.36138E+06    -4.25734E+06    -3.83969E+06    -2.77903E+06    -1.76924E+06    -586.648E+03
              54     44.4297E-03    -1.57113E-06     44.4297E-03     631.978E-03    -314.234E-03    -317.112E-03    -315.981E-03     631.973E-03    -315.360E-03    -1.40343E-03     632.540E-03     3.01000E+06     1.20581E+06     169.026E+03    -2.13024E+06     87.5235E+03     356.523E+03    -1.19944E+06    -81.3616E+03
              55     42.5579E-03     4.38081E-06     42.5579E-03     630.505E-03    -313.058E-03    -316.852E-03    -314.790E-03     630.486E-03    -315.101E-03     2.77099E-03     631.076E-03     3.59409E+06    -528.912E+03    -2.04289E+06    -4.52244E+06    -2.11849E+06    -2.04158E+06    -2.93417E+06    -121.938E+03
              56     40.6713E-03    -7.50967E-06     40.6713E-03     633.164E-03    -314.559E-03    -318.390E-03    -314.539E-03     633.144E-03    -318.390E-03     2.43155E-03     633.740E-03     3.22650E+06     2.20308E+06    -148.342E+03    -1.47530E+06    -39.9835E+03     506.447E+03     112.977E+03     266.680E+03
              57     38.7940E-03     4.64723E-06     38.7940E-03     632.651E-03    -313.898E-03    -318.413E-03    -316.620E-03     632.646E-03    -315.686E-03    -1.50929E-03     633.204E-03     3.86259E+06     1.93656E+06     468.387E+03    -2.24837E+06     31.9477E+03     278.175E+03    -153.543E+03    -441.629E+03
              58     36.9108E-03    -576.515E-09     36.9108E-03     631.528E-03    -313.712E-03    -317.476E-03    -317.474E-03     631.526E-03    -313.712E-03     2.68371E-03     632.127E-03     3.54312E+06    -1.05736E+06    -2.46722E+06    -4.82503E+06    -3.37911E+06    -2.63988E+06    -2.33061E+06    -479.065E+03
              59     35.0311E-03     2.18333E-06     35.0311E-03     632.556E-03    -315.429E-03    -316.880E-03    -316.464E-03     632.555E-03    -315.843E-03     1.88875E-03     633.176E-03     2.65309E+06    -111.710E+03    -1.72809E+06    -3.05665E+06    -2.01185E+06    -1.49964E+06    -1.38496E+06     352.020E+03
              60     33.1356E-03    -2.70782E-06     33.1356E-03     631.552E-03    -314.989E-03    -316.392E-03    -315.977E-03     631.552E-03    -315.404E-03     174.219E-06     632.131E-03     3.36259E+06     390.845E+03    -1.83608E+06    -3.33266E+06    -1.89848E+06    -1.38647E+06    -1.49295E+06     911.376E+03
              61     31.2397E-03     4.25021E-06     31.2397E-03     632.824E-03    -315.099E-03    -317.445E-03    -317.437E-03     632.817E-03    -315.099E-03     3.32283E-03     633.413E-03     5.46555E+06     7.07175E+06     2.56332E+06     995.036E+03     4.86812E+06     3.19867E+06     2.56332E+06     52.9491E+03
              62     29.3484E-03    -2.41065E-06     29.3484E-03     634.010E-03    -315.999E-03    -317.564E-03    -317.555E-03     634.001E-03    -315.999E-03     1.96023E-03     634.595E-03     7.11133E+06     1.18488E+06    -1.85883E+06    -6.50132E+06    -2.97323E+06    -2.76229E+06    -1.43975E+06    -179.917E+03
              63     27.4554E-03     2.83817E-06     27.4554E-03     631.509E-03    -315.198E-03    -315.989E-03    -315.986E-03     631.505E-03    -315.198E-03     191.867E-06     632.033E-03     8.81287E+06     3.88782E+06    -1.41316E+06    -5.17778E+06    -268.791E+03    -1.44025E+06    -994.077E+03    -354.156E+03
              64     25.5747E-03    -2.38144E-06     25.5747E-03     629.234E-03    -313.702E-03    -315.420E-03    -315.416E-03     629.229E-03    -313.702E-03    -191.449E-06     629.729E-03     11.0032E+06     4.34210E+06    -2.69517E+06    -7.50432E+06    -2.48652E+06    -2.83107E+06    -539.795E+03    -13.3573E+03
              65     23.6952E-03     4.11720E-06     23.6952E-03     627.960E-03    -312.758E-03    -315.262E-03    -315.255E-03     627.954E-03    -312.758E-03     551.607E-06     628.436E-03     12.3545E+06     4.27859E+06    -3.91537E+06    -9.08793E+06    -2.64249E+06    -4.32222E+06    -1.76000E+06    -377.433E+03
              66     21.8184E-03    -1.88225E-06     21.8184E-03     623.691E-03    -310.662E-03    -313.213E-03    -312.025E-03     623.685E-03    -311.844E-03     911.083E-06     624.143E-03     9.83074E+06     4.06438E+06    -2.26301E+06    -6.13090E+06      93.527E+03    -2.16005E+06    -2.26301E+06    -1.03257E+06
              67     19.9547E-03     89.7881E-09     19.9547E-03     613.478E-03    -305.787E-03    -307.844E-03    -306.660E-03     613.476E-03    -306.968E-03    -2.77381E-03     613.884E-03     10.4356E+06    -1.99786E+06    -5.94905E+06    -13.6281E+06    -5.63829E+06    -9.98769E+06    -5.94905E+06     904.324E+03
              68     18.1208E-03     1.18202E-06     18.1208E-03     598.959E-03    -298.592E-03    -300.395E-03    -300.391E-03     598.956E-03    -298.592E-03    -3.24087E-03     599.304E-03     12.1803E+06     520.408E+03    -5.94653E+06    -13.5295E+06    -5.28909E+06    -7.71996E+06    -5.94653E+06    -877.468E+03
              69     16.3090E-03     56.5822E-09     16.3090E-03     580.418E-03    -289.460E-03    -290.804E-03    -290.379E-03     580.410E-03    -289.877E-03    -5.19464E-03     580.688E-03     10.6114E+06    -928.382E+03    -8.17343E+06    -12.9318E+06    -6.74571E+06    -7.11446E+06    -8.17343E+06    -885.619E+03
              70     14.5507E-03    -772.191E-09     14.5507E-03     557.699E-03    -278.592E-03    -279.127E-03    -278.575E-03     557.683E-03    -279.127E-03    -7.28206E-03     557.936E-03     11.7401E+06     654.609E+03    -4.27962E+06    -11.8996E+06    -5.96888E+06    -5.27616E+06    -4.27962E+06     1.02738E+06
              71     12.8159E-03     400.933E-09     12.8159E-03     532.721E-03    -265.917E-03    -266.906E-03    -266.760E-03     532.694E-03    -266.036E-03    -9.27849E-03     532.990E-03     14.5120E+06     7.76032E+06    -595.589E+03    -7.20592E+06     1.16891E+06    -614.512E+03    -595.589E+03     460.608E+03
              72     11.1417E-03     1.02423E-06     11.1417E-03     512.209E-03    -254.986E-03    -257.272E-03    -257.251E-03     512.188E-03    -254.986E-03    -7.83774E-03     512.568E-03     16.3317E+06     8.70772E+06     659.573E+03    -7.93698E+06     526.327E+03     58.4456E+03     845.534E+03     936.269E+03
              73     9.49098E-03     1.25266E-06     9.49098E-03     507.362E-03    -252.821E-03    -254.503E-03    -254.231E-03     507.356E-03    -253.087E-03    -1.94688E-03     507.940E-03     16.2642E+06     12.9000E+06     5.34546E+06    -3.98814E+06     4.66864E+06     4.05726E+06     5.53142E+06     393.332E+03
              74     7.83218E-03    -1.92357E-06     7.83218E-03     528.425E-03    -263.470E-03    -264.851E-03    -263.444E-03     528.400E-03    -264.851E-03     7.38958E-03     529.231E-03     14.9802E+06     15.2060E+06     7.82813E+06    -311.373E+03     8.32931E+06     6.56531E+06     7.82813E+06     255.084E+03
              75     6.10650E-03     183.117E-09     6.10650E-03     587.113E-03    -292.294E-03    -294.820E-03    -293.602E-03     587.010E-03    -293.409E-03     18.5520E-03     587.850E-03     12.8422E+06     11.1005E+06     7.38056E+06    -2.64933E+06     3.55528E+06     4.89588E+06     7.38056E+06    -1.17401E+06
              76     4.24223E-03     2.27798E-06     4.24223E-03     672.631E-03    -334.923E-03    -337.710E-03    -337.572E-03     672.493E-03    -334.923E-03     23.5383E-03     673.025E-03     12.9734E+06     15.6298E+06     6.92012E+06     732.949E+03     9.96039E+06     6.40234E+06     6.92012E+06     1.85342E+06
              77     2.18564E-03    -271.600E-09     2.18564E-03     749.831E-03    -371.496E-03    -378.424E-03    -372.790E-03     749.750E-03    -377.049E-03     18.3677E-03     749.938E-03     13.3360E+06     10.8219E+06     2.61651E+06    -4.48822E+06     2.30513E+06     4.02853E+06     2.61651E+06     339.204E+03
              78     669.282E-06     669.282E-06     715.256E-09     777.282E-03    -384.698E-03    -392.549E-03    -384.621E-03     777.205E-03    -392.549E-03     18.3539E-03     777.266E-03     13.0431E+06     9.54502E+06     1.45942E+06    -5.41420E+06     394.634E+03     3.73618E+06     1.45942E+06    -132.824E+03
              79     1.34505E-03     1.34505E-03     715.256E-09     763.406E-03    -377.050E-03    -386.241E-03    -376.892E-03     763.248E-03    -386.241E-03     26.4926E-03     763.472E-03     14.7120E+06     13.4991E+06     3.11052E+06    -3.33395E+06     2.47004E+06     7.69512E+06     3.11052E+06    -979.514E+03
              80     2.03366E-03     2.03366E-03     715.256E-09     742.404E-03    -361.179E-03    -380.653E-03    -360.936E-03     742.160E-03    -380.653E-03     32.6464E-03     742.768E-03     14.3909E+06     13.4992E+06     2.71702E+06    -2.79659E+06     2.89798E+06     7.80468E+06     2.71702E+06    -1.20086E+06
              81     2.73376E-03     2.73376E-03     715.256E-09     716.592E-03    -341.883E-03    -373.545E-03    -341.547E-03     716.256E-03    -373.545E-03     37.5420E-03     717.478E-03     13.9764E+06     14.6330E+06     3.15139E+06    -929.354E+03     3.13758E+06     10.5660E+06     3.15139E+06    -320.950E+03
              82     3.44857E-03     3.44857E-03     715.256E-09     686.836E-03    -321.283E-03    -365.275E-03    -320.865E-03     686.418E-03    -365.275E-03     40.9815E-03     688.340E-03     14.3968E+06     14.4781E+06     3.81512E+06    -1.80262E+06     2.83341E+06     9.84204E+06     3.81512E+06     155.274E+03
              83     4.18082E-03     4.18082E-03     715.256E-09     656.684E-03    -301.237E-03    -356.150E-03    -300.775E-03     656.222E-03    -356.150E-03     42.0380E-03     658.839E-03     15.0533E+06     14.5792E+06     3.52185E+06    -2.48572E+06     2.79149E+06     9.30195E+06     3.52185E+06    -420.289E+03
              84     4.93086E-03     4.93086E-03     715.256E-09     627.554E-03    -281.976E-03    -345.916E-03    -281.503E-03     627.082E-03    -345.916E-03     41.4341E-03     630.573E-03     15.7512E+06     15.5045E+06     3.62321E+06    -2.31966E+06     3.05328E+06     10.1315E+06     3.62321E+06    -122.339E+03
              85     5.69229E-03     5.69229E-03     715.256E-09     601.923E-03    -264.814E-03    -335.989E-03    -264.337E-03     601.446E-03    -335.989E-03     40.6592E-03     605.979E-03     13.2276E+06     13.1595E+06     3.60331E+06    -1.92781E+06     3.10432E+06     8.12739E+06     3.60331E+06     951.081E+03
              86     6.46681E-03     6.46681E-03     715.256E-09     578.775E-03    -251.401E-03    -326.958E-03    -250.928E-03     578.302E-03    -326.958E-03     39.6465E-03     584.083E-03     10.3443E+06     10.8952E+06     2.23327E+06    -462.966E+03     2.78261E+06     7.64966E+06     2.23327E+06    -1.14026E+06
              87     7.24785E-03     7.24785E-03     715.256E-09     557.104E-03    -240.906E-03    -317.805E-03    -240.472E-03     556.670E-03    -317.805E-03     37.2295E-03     563.646E-03     11.5226E+06     12.9298E+06     2.90401E+06     385.670E+03     3.88793E+06     9.42759E+06     2.90401E+06    -1.65600E+06
              88     8.03762E-03     8.03762E-03     715.256E-09     543.626E-03    -235.128E-03    -310.283E-03    -234.712E-03     543.210E-03    -310.283E-03     35.9930E-03     551.180E-03     15.6035E+06     15.4912E+06     2.34356E+06    -1.74770E+06     3.83196E+06     9.91154E+06     2.34356E+06     878.485E+03
              89     8.82951E-03     8.82951E-03     715.256E-09     539.436E-03    -235.962E-03    -303.805E-03    -235.565E-03     539.039E-03    -303.805E-03     35.0273E-03     548.187E-03     23.3357E+06     18.5427E+06     1.93109E+06    -7.89885E+06     3.58779E+06     7.05606E+06     1.93109E+06    -3.92484E+06
              90     9.61942E-03     9.61942E-03     715.256E-09     544.494E-03    -245.189E-03    -299.051E-03    -244.938E-03     544.244E-03    -299.051E-03     27.2258E-03     554.824E-03     36.3016E+06     27.8728E+06     7.71910E+06    -13.9667E+06     1.83545E+06     12.0706E+06     7.71910E+06     2.99857E+06
              91     10.4080E-03     10.4080E-03     715.256E-09     566.060E-03    -270.302E-03    -296.434E-03    -270.236E-03     565.994E-03    -296.434E-03     9.70768E-03     578.670E-03     43.7199E+06     29.3740E+06     10.9554E+06    -20.3895E+06    -2.55274E+06     11.5373E+06     10.9554E+06    -825.437E+03
              92     11.1738E-03     11.1738E-03     715.256E-09     619.003E-03    -291.942E-03    -328.922E-03    -325.299E-03     618.915E-03    -295.477E-03    -13.9499E-03     637.213E-03     102.931E+06     53.6711E+06     18.6455E+06    -62.2013E+06    -19.9958E+06     11.4656E+06     18.6455E+06     31.1929E+06
              93     11.9019E-03     11.9019E-03     715.256E-09     718.772E-03    -299.057E-03    -421.647E-03    -421.557E-03     718.682E-03    -299.057E-03    -15.7803E-03     746.488E-03     119.628E+06     29.7342E+06    -9.13189E+06    -104.464E+06    -46.6268E+06    -39.3143E+06     2.07936E+06     31.2208E+06
              94     12.5095E-03     12.5095E-03     715.256E-09     896.212E-03    -309.598E-03    -586.190E-03    -580.321E-03     890.344E-03    -309.598E-03     138.405E-03     961.331E-03     158.054E+06     117.729E+06     27.6437E+06    -62.6567E+06     56.8544E+06    -12.9938E+06      38.855E+06     51.8878E+06
              95     13.4755E-03     13.1141E-03     3.09978E-03     861.306E-03    -315.382E-03    -542.775E-03    -527.403E-03     845.935E-03    -315.382E-03     284.579E-03         1.01187     216.561E+06     87.2214E+06    -10.0370E+06    -155.183E+06    -61.8111E+06    -6.15029E+06    -10.0370E+06     64.8288E+06
              96     14.0325E-03     13.1518E-03     4.89308E-03     686.265E-03    -314.162E-03    -368.269E-03    -353.022E-03     671.018E-03    -314.162E-03     250.457E-03     880.804E-03     184.080E+06     53.4140E+06    -50.7382E+06    -139.634E+06    -52.6206E+06    -33.5994E+06    -50.7382E+06     9.98624E+06
              97     14.7643E-03     13.1464E-03     6.71998E-03     658.084E-03    -313.114E-03    -342.481E-03    -334.419E-03     650.022E-03    -313.114E-03     174.612E-03     793.929E-03     147.351E+06     98.0697E+06    -9.97819E+06    -58.3486E+06     29.3906E+06     10.3304E+06    -9.97819E+06     2.20065E+06
              98     15.7045E-03     13.1495E-03     8.58624E-03     650.092E-03    -311.835E-03    -336.549E-03    -332.200E-03     645.743E-03    -311.835E-03     130.668E-03     729.790E-03     110.794E+06     56.6442E+06    -9.30371E+06    -66.8495E+06    -12.3284E+06     2.12304E+06    -9.30371E+06     1.24260E+06
              99     16.8067E-03     13.1516E-03     10.4642E-03     645.364E-03    -312.579E-03    -330.709E-03    -326.431E-03     641.086E-03    -312.579E-03     128.901E-03     719.835E-03     91.0174E+06     56.0584E+06    -4.02445E+06    -45.3227E+06     9.43837E+06     1.29733E+06    -4.02445E+06     1.64230E+06
             100     18.0570E-03     13.1631E-03     12.3608E-03     653.170E-03    -312.836E-03    -337.532E-03    -332.980E-03     648.618E-03    -312.836E-03     134.002E-03     729.755E-03     72.8267E+06     40.4793E+06    -4.30438E+06    -40.7628E+06    -5.53186E+06     5.24830E+06    -4.30438E+06    -1.86241E+06
             101     19.4382E-03     13.1580E-03     14.3077E-03     660.856E-03    -312.564E-03    -345.229E-03    -340.500E-03     656.127E-03    -312.564E-03     137.610E-03     738.424E-03     60.3973E+06     36.7751E+06     1.23008E+06    -29.2912E+06     6.02926E+06     1.45461E+06     1.23008E+06    -874.746E+03
             102     20.9003E-03     13.1644E-03     16.2333E-03     657.956E-03    -312.561E-03    -342.756E-03    -337.776E-03     652.976E-03    -312.561E-03     140.818E-03     738.210E-03     50.4999E+06     23.8919E+06    -2.40552E+06    -31.6780E+06    -7.39700E+06    -389.156E+03    -2.40552E+06    -351.583E+03
             103     22.4185E-03     13.1617E-03     18.1482E-03     655.038E-03    -312.483E-03    -340.424E-03    -335.215E-03     649.828E-03    -312.483E-03     143.648E-03     738.307E-03     43.4273E+06     26.0660E+06     3.11727E+06    -21.1881E+06     3.07604E+06     1.80188E+06     3.11727E+06     528.771E+03
             104     23.9993E-03     13.1609E-03     20.0688E-03     653.480E-03    -311.950E-03    -339.576E-03    -334.095E-03     648.000E-03    -311.950E-03     147.111E-03     738.058E-03     35.8278E+06     17.4856E+06     1.54391E+06    -21.6298E+06    -5.39576E+06     1.25154E+06     1.54391E+06    -680.934E+03
             105     25.6129E-03     13.1626E-03     21.9720E-03     648.772E-03    -311.879E-03    -334.977E-03    -329.272E-03     643.068E-03    -311.879E-03     149.384E-03     733.547E-03     30.0449E+06     18.1133E+06     3.52284E+06    -14.6546E+06     1.32490E+06     2.13380E+06     3.52284E+06     568.553E+03
             106     27.2563E-03     13.1650E-03     23.8661E-03     642.830E-03    -312.538E-03    -328.355E-03    -322.527E-03     637.002E-03    -312.538E-03     150.005E-03     726.919E-03     27.3160E+06     15.8305E+06     2.67916E+06    -13.5196E+06      -932.9E+03     3.24384E+06     2.67916E+06     42.2435E+03
             107     28.9073E-03     13.1656E-03     25.7352E-03     638.328E-03    -312.791E-03    -323.432E-03    -317.638E-03     632.533E-03    -312.791E-03     148.847E-03     722.282E-03     23.2165E+06     15.9581E+06     4.35853E+06    -8.63837E+06       3.795E+06     3.52475E+06     4.35853E+06     905.591E+03
             108     30.5976E-03     13.1685E-03     27.6189E-03     636.688E-03    -312.578E-03    -321.826E-03    -316.288E-03     631.151E-03    -312.578E-03     145.273E-03     720.027E-03     19.9648E+06     10.5324E+06     1.49224E+06    -10.3342E+06    -1.15996E+06     1.35816E+06     1.49224E+06    -384.278E+03
             109     32.3009E-03     13.1696E-03     29.4942E-03     635.166E-03    -312.063E-03    -320.791E-03    -315.425E-03     629.799E-03    -312.063E-03     142.841E-03     717.275E-03     16.9308E+06     9.83149E+06     1.58875E+06    -7.63013E+06     1.25577E+06     945.580E+03     1.58875E+06     606.651E+03
             110     34.0230E-03     13.1706E-03     31.3704E-03     634.879E-03    -311.852E-03    -320.857E-03    -315.610E-03     629.632E-03    -311.852E-03     141.234E-03     716.813E-03     13.8245E+06     7.41783E+06     2.70781E+06    -7.09857E+06    -927.435E+03     1.24670E+06     2.70781E+06    -189.373E+03
             111     35.7732E-03     13.1687E-03     33.2612E-03     634.729E-03    -311.651E-03    -320.954E-03    -315.921E-03     629.696E-03    -311.651E-03     138.337E-03     717.245E-03     11.2732E+06     7.76552E+06     1.92988E+06    -4.65896E+06     1.41094E+06     1.69562E+06     1.92988E+06     261.361E+03
             112     37.5308E-03     13.1710E-03     35.1438E-03     634.595E-03    -312.024E-03    -320.423E-03    -315.393E-03     629.565E-03    -312.024E-03     138.244E-03     717.267E-03     10.4774E+06     5.75666E+06     645.157E+03    -5.80731E+06    -377.164E+03     326.514E+03     645.157E+03    -323.682E+03
             113     39.2978E-03     13.1704E-03     37.0251E-03     634.212E-03    -312.376E-03    -319.931E-03    -314.793E-03     629.074E-03    -312.376E-03     139.656E-03     716.495E-03     9.02164E+06     5.10352E+06     79.0704E+03    -4.94360E+06     396.956E+03    -237.032E+03     79.0704E+03     45.3142E+03
             114     41.0680E-03     13.1721E-03     38.8983E-03     633.772E-03    -312.283E-03    -319.658E-03    -314.496E-03     628.610E-03    -312.283E-03     139.921E-03     715.529E-03     8.18013E+06     4.18008E+06    -534.572E+03    -4.75577E+06    -510.681E+03    -65.0084E+03    -534.572E+03    -96.2766E+03
             115     42.8567E-03     13.1735E-03     40.7818E-03     634.530E-03    -312.209E-03    -320.257E-03    -315.130E-03     629.403E-03    -312.209E-03     139.550E-03     716.066E-03     7.14396E+06     3.93758E+06    -978.579E+03    -3.95836E+06     189.682E+03    -210.467E+03    -978.579E+03     284.498E+03
             116     44.6498E-03     13.1732E-03     42.6623E-03     635.021E-03    -312.157E-03    -320.642E-03    -315.561E-03     629.940E-03    -312.157E-03     138.999E-03     716.469E-03     6.21715E+06     3.39649E+06    -633.997E+03    -3.53072E+06    -231.105E+03     96.8686E+03    -633.997E+03    -231.767E+03
             117     46.4476E-03     13.1769E-03     44.5393E-03     633.961E-03    -311.928E-03    -319.870E-03    -314.791E-03     628.882E-03    -311.928E-03     138.834E-03     715.259E-03     5.74853E+06     3.84611E+06    -232.376E+03    -2.57370E+06     687.511E+03     584.902E+03    -232.376E+03     -25.737E+03
             118     48.2486E-03     13.1774E-03     46.4143E-03     633.782E-03    -311.718E-03    -319.692E-03    -314.584E-03     628.675E-03    -311.718E-03     139.199E-03     715.017E-03     5.02174E+06     2.78835E+06    -673.233E+03    -2.82840E+06    -353.661E+03     313.609E+03    -673.233E+03    -253.834E+03
             119     50.0622E-03     13.1776E-03     48.2967E-03     634.395E-03    -311.712E-03    -320.301E-03    -315.223E-03     629.317E-03    -311.712E-03     138.883E-03     715.828E-03     4.85451E+06     3.11349E+06     38.2006E+03    -2.27284E+06     207.494E+03     633.158E+03     38.2006E+03     282.386E+03
             120     51.8775E-03     13.1780E-03     50.1758E-03     634.197E-03    -311.747E-03    -320.287E-03    -315.290E-03     629.200E-03    -311.747E-03     137.770E-03     716.024E-03     4.91050E+06     2.81280E+06    -528.826E+03    -2.47367E+06    -113.338E+03     452.477E+03    -528.826E+03     61.7761E+03
             121     53.7017E-03     13.1793E-03     52.0594E-03     633.321E-03    -311.493E-03    -319.599E-03    -314.584E-03     628.305E-03    -311.493E-03     137.898E-03     714.890E-03     3.96016E+06     1.49010E+06    -1.27120E+06    -2.66778E+06    -333.943E+03    -843.738E+03    -1.27120E+06    -196.613E+03
             122     55.5272E-03     13.1792E-03     53.9405E-03     632.752E-03    -311.489E-03    -318.943E-03    -313.938E-03     627.747E-03    -311.489E-03     137.664E-03     714.215E-03     4.11697E+06     2.01056E+06    -533.857E+03    -2.54646E+06     155.429E+03    -691.330E+03    -533.857E+03    -351.819E+03
             123     57.3589E-03     13.1749E-03     55.8253E-03     633.910E-03    -311.883E-03    -319.600E-03    -314.467E-03     628.777E-03    -311.883E-03     139.527E-03     715.451E-03     3.59129E+06     1.31881E+06    -967.058E+03    -2.61799E+06     210.696E+03    -1.50988E+06    -967.058E+03    -5.64644E+03
             124     59.1930E-03     13.1790E-03     57.7072E-03     634.643E-03    -311.850E-03    -320.335E-03    -315.081E-03     629.388E-03    -311.850E-03     141.284E-03     715.786E-03     3.43945E+06     936.550E+03    -1.48323E+06    -2.68114E+06    -131.952E+03    -1.61264E+06    -1.48323E+06     198.604E+03
             125     61.0330E-03     13.1810E-03     59.5927E-03     634.868E-03    -311.776E-03    -320.701E-03    -315.627E-03     629.794E-03    -311.776E-03     138.879E-03     716.430E-03     4.13670E+06     2.51329E+06    -978.500E+03    -1.97963E+06     465.855E+03     67.8034E+03    -978.500E+03     50.0716E+03
             126     62.8751E-03     13.1790E-03     61.4784E-03     634.329E-03    -311.643E-03    -320.246E-03    -315.314E-03     629.398E-03    -311.643E-03     136.870E-03     716.339E-03     3.94922E+06     1.75072E+06     290.771E+03    -2.55122E+06    -319.837E+03    -480.661E+03     290.771E+03    -59.1325E+03
             127     64.7209E-03     13.1789E-03     63.3649E-03     632.610E-03    -311.513E-03    -318.932E-03    -313.782E-03     627.460E-03    -311.513E-03     139.589E-03     714.089E-03     4.35948E+06     2.22294E+06     1.11257E+06    -2.53860E+06    -8.89775E+03    -306.771E+03     1.11257E+06     563.640E+03
             128     66.5667E-03     13.1834E-03     65.2481E-03     631.662E-03    -311.458E-03    -318.336E-03    -313.054E-03     626.380E-03    -311.458E-03     141.273E-03     712.270E-03     4.26627E+06     2.81117E+06    -18.2680E+03    -1.88188E+06     -4.4615E+03     933.753E+03    -18.2680E+03    -140.338E+03
             129     68.4208E-03     13.1849E-03     67.1384E-03     632.578E-03    -311.397E-03    -318.916E-03    -313.719E-03     627.382E-03    -311.397E-03     140.246E-03     712.716E-03     4.23107E+06     3.08682E+06    -222.682E+03    -1.59192E+06     295.157E+03     1.19974E+06    -222.682E+03    -132.475E+03
             130     70.2754E-03     13.1862E-03     69.0273E-03     633.456E-03    -311.332E-03    -319.776E-03    -314.650E-03     628.330E-03    -311.332E-03     139.421E-03     714.058E-03     3.74098E+06     2.38086E+06    -495.191E+03    -1.76364E+06    -190.910E+03     808.127E+03    -495.191E+03     145.012E+03
             131     72.1252E-03     13.1858E-03     70.9096E-03     632.427E-03    -311.012E-03    -319.230E-03    -314.193E-03     627.390E-03    -311.012E-03     138.100E-03     713.353E-03     6.01308E+06     5.47813E+06     1.45549E+06    -1.29512E+06     93.2193E+03     1.55036E+06     3.99492E+06    -103.940E+03
             132     73.9785E-03     13.1865E-03     72.7938E-03     631.218E-03    -310.393E-03    -318.443E-03    -313.389E-03     626.163E-03    -310.393E-03     138.197E-03     712.229E-03     5.33343E+06     5.73694E+06     2.39945E+06    -352.636E+03    -131.797E+03     2.17861E+06     5.73694E+06     520.551E+03
             133     75.8425E-03     13.1854E-03     74.6875E-03     630.797E-03    -309.953E-03    -318.496E-03    -313.448E-03     625.749E-03    -309.953E-03     138.070E-03     712.048E-03     4.35219E+06     4.23784E+06     3.01190E+06    -376.937E+03    -229.563E+03     2.86453E+06     4.23784E+06     402.529E+03
             134     77.7002E-03     13.1865E-03     76.5730E-03     630.463E-03    -310.275E-03    -318.248E-03    -313.180E-03     625.394E-03    -310.275E-03     138.315E-03     711.646E-03     6.28384E+06     5.16333E+06     3.46899E+06    -1.72574E+06    -149.932E+03     1.89318E+06     5.16333E+06    -351.484E+03
             135     79.5625E-03     13.1859E-03     78.4622E-03     631.072E-03    -310.875E-03    -318.110E-03    -312.989E-03     625.951E-03    -310.875E-03     139.063E-03     711.763E-03     6.02014E+06     5.16716E+06     2.42827E+06    -1.73537E+06    -57.0476E+03     749.948E+03     5.16716E+06    -236.330E+03
             136     81.4283E-03     13.1866E-03     80.3534E-03     630.692E-03    -310.531E-03    -317.364E-03    -312.201E-03     625.529E-03    -310.531E-03     139.545E-03     710.735E-03     5.29208E+06     4.69623E+06     1.64609E+06    -1.34794E+06    -389.636E+03     687.783E+03     4.69623E+06     498.637E+03
             137     83.3006E-03     13.1868E-03     82.2502E-03     629.358E-03    -309.941E-03    -317.022E-03    -311.801E-03     624.137E-03    -309.941E-03     140.199E-03     709.629E-03     6.94316E+06     6.62631E+06     3.89868E+06    -1.06936E+06    -160.234E+03     2.98955E+06     6.62631E+06     618.220E+03
             138     85.1609E-03     13.1889E-03     84.1334E-03     629.504E-03    -309.793E-03    -317.682E-03    -312.553E-03     624.375E-03    -309.793E-03     139.014E-03     710.681E-03     7.57948E+06     7.66705E+06     5.10881E+06    -800.393E+03    -319.404E+03     4.62783E+06     7.66705E+06     16.7183E+03
             139     87.0216E-03     13.1875E-03     86.0165E-03     630.695E-03    -310.040E-03    -318.247E-03    -313.242E-03     625.690E-03    -310.040E-03     137.465E-03     712.095E-03     7.44048E+06     8.36907E+06     4.11443E+06    -214.822E+03     174.784E+03     3.72483E+06     8.36907E+06    -398.629E+03
             140     88.8777E-03     13.1877E-03     87.8938E-03     630.296E-03    -310.278E-03    -317.872E-03    -312.821E-03     625.245E-03    -310.278E-03     138.035E-03     711.898E-03      9.2849E+06     10.3373E+06     3.27044E+06     40.3928E+03     223.634E+03     3.08720E+06     10.3373E+06     32.1113E+03
             141     90.7351E-03     13.1876E-03     89.7717E-03     629.934E-03    -310.340E-03    -317.596E-03    -312.430E-03     624.768E-03    -310.340E-03     139.542E-03     711.513E-03     8.80371E+06     8.62339E+06     3.22268E+06    -930.053E+03    -758.653E+03     3.05128E+06     8.62339E+06     18.0322E+03
             142     92.5941E-03     13.1887E-03     91.6501E-03     630.368E-03    -310.377E-03    -318.025E-03    -312.823E-03     625.166E-03    -310.377E-03     140.089E-03     711.216E-03     6.78139E+06     7.39425E+06     4.39874E+06    -217.272E+03    -186.777E+03     4.36824E+06     7.39425E+06     199.768E+03
             143     94.4440E-03     13.1884E-03     93.5186E-03     630.452E-03    -310.362E-03    -318.236E-03    -313.080E-03     625.295E-03    -310.362E-03     139.501E-03     710.773E-03     7.59242E+06     7.84722E+06     4.40098E+06    -724.144E+03    -687.741E+03     4.36458E+06     7.84722E+06     256.060E+03
             144     96.2975E-03     13.1899E-03     95.3899E-03     630.726E-03    -310.407E-03    -318.475E-03    -313.394E-03     625.646E-03    -310.407E-03     138.511E-03     711.449E-03     10.9996E+06     11.6395E+06     4.58578E+06    -392.844E+03    -157.342E+03     4.35028E+06     11.6395E+06    -49.2661E+03
             145     98.1517E-03     13.1901E-03     97.2614E-03     629.465E-03    -310.131E-03    -317.601E-03    -312.532E-03     624.396E-03    -310.131E-03     138.204E-03     711.090E-03     12.8878E+06     14.1091E+06     5.92383E+06    -153.171E+03     185.704E+03     5.58496E+06     14.1091E+06     421.835E+03
             146     99.9951E-03     13.1914E-03     99.1212E-03     628.872E-03    -309.873E-03    -317.155E-03    -312.044E-03     623.761E-03    -309.873E-03     138.695E-03     710.563E-03     12.6355E+06     13.3906E+06     7.11264E+06    -1.07750E+06    -750.551E+03     6.78569E+06     13.3906E+06       67.53E+03
             147     101.845E-03     13.1897E-03     100.987E-03     629.731E-03    -309.992E-03    -317.983E-03    -312.871E-03     624.619E-03    -309.992E-03     138.828E-03     711.445E-03     13.8206E+06     15.2540E+06     6.41078E+06    -668.673E+03    -449.412E+03     6.19152E+06     15.2540E+06    -430.019E+03
             148     103.689E-03     13.1903E-03     102.847E-03     629.899E-03    -310.068E-03    -318.107E-03    -313.013E-03     624.805E-03    -310.068E-03     138.614E-03     711.691E-03     15.2340E+06     17.1348E+06      7.0824E+06    -392.713E+03    -366.390E+03     7.05608E+06     17.1348E+06     252.955E+03
             149     107.376E-03     13.1897E-03     106.562E-03     629.088E-03    -309.956E-03    -317.206E-03    -312.056E-03     623.938E-03    -309.956E-03     139.228E-03     710.341E-03     17.2175E+06     18.5303E+06     7.43121E+06    -1.13558E+06    -1.05468E+06     7.35031E+06     18.5303E+06    -16.9818E+03
             150     109.215E-03     13.1910E-03     108.416E-03     628.376E-03    -310.062E-03    -316.662E-03    -311.420E-03     623.134E-03    -310.062E-03     140.378E-03     709.260E-03     18.1984E+06     20.8649E+06     8.28968E+06     60.1420E+03     150.821E+03     8.19900E+06     20.8649E+06     26.7370E+03
             151     111.053E-03     13.1920E-03     110.267E-03     629.083E-03    -309.978E-03    -317.259E-03    -312.138E-03     623.961E-03    -309.978E-03     138.850E-03     710.057E-03     18.2523E+06     20.7536E+06     9.18981E+06    -286.420E+03    -207.937E+03     9.11133E+06     20.7536E+06     17.5117E+03
             152     112.900E-03     13.1905E-03     112.127E-03     630.578E-03    -310.005E-03    -318.254E-03    -313.203E-03     625.527E-03    -310.005E-03     138.084E-03     711.569E-03     18.8254E+06     20.4534E+06     9.10416E+06    -1.25828E+06    -1.19125E+06     9.03713E+06     20.4534E+06    -17.2818E+03
             153     114.745E-03     13.1914E-03     113.985E-03     630.591E-03    -310.199E-03    -318.323E-03    -313.192E-03     625.460E-03    -310.199E-03     139.177E-03     711.539E-03     19.0312E+06     20.9957E+06     8.92550E+06    -878.822E+03    -845.602E+03     8.89228E+06     20.9957E+06     265.673E+03
             154     116.578E-03     13.1903E-03     115.829E-03     629.446E-03    -310.071E-03    -317.728E-03    -312.557E-03     624.275E-03    -310.071E-03     139.592E-03     711.146E-03     20.8418E+06     23.7988E+06     9.83842E+06    -141.275E+03    -82.9744E+03     9.78012E+06     23.7988E+06     422.320E+03
             155     118.422E-03     13.1902E-03     117.685E-03     628.045E-03    -309.855E-03    -316.369E-03    -311.208E-03     622.884E-03    -309.855E-03     139.249E-03     710.408E-03     24.3347E+06     26.8962E+06     10.4350E+06    -1.03485E+06    -953.377E+03     10.3536E+06     26.8962E+06     167.307E+03
             156     120.280E-03     13.1928E-03     119.554E-03     627.959E-03    -309.825E-03    -316.165E-03    -311.017E-03     622.810E-03    -309.825E-03     139.063E-03     710.321E-03     25.8103E+06     28.4979E+06     11.8383E+06    -1.16310E+06    -1.12295E+06     11.7981E+06     28.4979E+06    -90.3187E+03
             157     122.152E-03     13.1926E-03     121.438E-03     629.699E-03    -309.758E-03    -318.138E-03    -313.167E-03     624.727E-03    -309.758E-03     136.903E-03     712.885E-03     26.5761E+06     29.9963E+06     13.2890E+06    -613.938E+03    -580.373E+03     13.2554E+06     29.9963E+06    -67.7587E+03
             158     124.021E-03     13.1876E-03     123.318E-03     629.983E-03    -309.730E-03    -318.396E-03    -313.413E-03     625.000E-03    -309.730E-03     137.098E-03     713.058E-03     28.3623E+06     31.8337E+06     13.1898E+06    -801.610E+03    -713.563E+03     13.1018E+06     31.8337E+06     335.468E+03
             159     125.853E-03     13.1918E-03     125.159E-03     629.439E-03    -309.732E-03    -317.441E-03    -312.206E-03     624.204E-03    -309.732E-03     140.419E-03     712.198E-03     29.1858E+06     31.8645E+06     12.9116E+06    -1.74396E+06    -1.58989E+06     12.7575E+06     31.8645E+06    -78.6472E+03
             160     127.710E-03     13.1913E-03     127.027E-03     629.384E-03    -309.712E-03    -317.382E-03    -312.312E-03     624.315E-03    -309.712E-03     138.151E-03     713.054E-03     30.8400E+06     34.1278E+06     13.4917E+06    -1.32126E+06    -1.05649E+06     13.2269E+06     34.1278E+06     369.521E+03
             161     129.565E-03     13.1902E-03     128.892E-03     629.208E-03    -309.750E-03    -317.529E-03    -312.475E-03     624.154E-03    -309.750E-03     137.949E-03     713.701E-03     32.5705E+06     36.1979E+06     14.0682E+06    -1.20215E+06    -1.02112E+06     13.8871E+06     36.1979E+06     990.210E+03
             162     131.414E-03     13.1912E-03     130.751E-03     628.120E-03    -309.767E-03    -316.361E-03    -311.200E-03     622.959E-03    -309.767E-03     139.248E-03     712.311E-03     32.4524E+06     36.0839E+06     14.6157E+06    -1.24257E+06    -1.21409E+06     14.5872E+06     36.0839E+06     289.860E+03
             163     133.265E-03     13.1925E-03     132.610E-03     627.615E-03    -309.736E-03    -315.681E-03    -310.467E-03     622.401E-03    -309.736E-03     139.857E-03     711.456E-03     33.7455E+06     38.1371E+06     16.1805E+06    -718.525E+03    -632.750E+03     16.0948E+06     38.1371E+06    -268.687E+03
             164     135.115E-03     13.1930E-03     134.469E-03     628.959E-03    -309.706E-03    -317.358E-03    -312.147E-03     623.748E-03    -309.706E-03     140.042E-03     713.112E-03     34.9904E+06     39.0744E+06     16.2590E+06    -1.21059E+06    -1.11698E+06     16.1654E+06     39.0744E+06    -184.825E+03
             165     136.977E-03     13.1918E-03     136.340E-03     629.461E-03    -309.742E-03    -318.021E-03    -312.974E-03     624.413E-03    -309.742E-03     137.939E-03     713.844E-03     36.5576E+06     40.6081E+06     15.8671E+06    -1.36288E+06    -1.32118E+06     15.8254E+06     40.6081E+06     264.080E+03
             166     138.848E-03     13.1904E-03     138.220E-03     628.779E-03    -309.785E-03    -317.212E-03    -312.094E-03     623.661E-03    -309.785E-03     138.776E-03     713.185E-03     38.1335E+06     42.2892E+06     16.2964E+06    -1.47491E+06    -1.43668E+06     16.2582E+06     42.2892E+06     250.435E+03
             167     140.717E-03     13.1911E-03     140.097E-03     627.916E-03    -309.796E-03    -316.420E-03    -311.198E-03     622.694E-03    -309.796E-03     140.061E-03     712.231E-03     37.7083E+06     42.1366E+06     16.3807E+06    -1.13036E+06    -1.06579E+06     16.3161E+06     42.1366E+06    -10.5177E+03
             168     142.577E-03     13.1921E-03     141.965E-03     627.892E-03    -309.786E-03    -316.404E-03    -311.150E-03     622.638E-03    -309.786E-03     140.475E-03     711.955E-03     39.5918E+06     44.3537E+06     17.1830E+06    -1.06163E+06    -972.407E+03     17.0937E+06     44.3537E+06     202.712E+03
             169     144.442E-03     13.1927E-03     143.838E-03     628.311E-03    -309.779E-03    -316.528E-03    -311.349E-03     623.132E-03    -309.779E-03     139.515E-03     712.185E-03     43.2131E+06     48.3406E+06     18.1825E+06    -1.13897E+06    -1.02022E+06     18.0637E+06     48.3406E+06    -32.6726E+03
             170     146.304E-03     13.1938E-03     145.708E-03     628.264E-03    -309.783E-03    -316.156E-03    -310.928E-03     623.037E-03    -309.783E-03     140.126E-03     711.817E-03     45.4123E+06     49.6609E+06     17.6434E+06    -2.29766E+06    -2.16111E+06     17.5068E+06     49.6609E+06     105.222E+03
             171     148.169E-03     13.1961E-03     147.580E-03     628.697E-03    -309.762E-03    -316.611E-03    -311.370E-03     623.456E-03    -309.762E-03     140.377E-03     712.194E-03     47.5587E+06     53.0127E+06     20.2852E+06    -1.54119E+06    -1.45619E+06     20.2002E+06     53.0127E+06     492.202E+03
             172     150.033E-03     13.1948E-03     149.452E-03     628.911E-03    -309.735E-03    -317.216E-03    -312.046E-03     623.741E-03    -309.735E-03     139.499E-03     712.290E-03     50.5238E+06     56.5254E+06     23.4266E+06    -1.58810E+06    -1.50888E+06     23.3474E+06     56.5254E+06     573.632E+03
             173     151.900E-03     13.1969E-03     151.326E-03     628.700E-03    -309.735E-03    -317.161E-03    -311.866E-03     623.405E-03    -309.735E-03     141.137E-03     711.984E-03     54.8631E+06     60.8480E+06     24.4675E+06    -2.19746E+06    -2.04906E+06     24.3191E+06     60.8480E+06    -65.2769E+03
             174     153.762E-03     13.1988E-03     153.195E-03     628.140E-03    -309.738E-03    -316.999E-03    -311.745E-03     622.886E-03    -309.738E-03     140.536E-03     711.351E-03     58.5277E+06     65.6958E+06     24.7758E+06    -1.34354E+06    -1.13238E+06     24.5647E+06     65.6958E+06     284.381E+03
             175     155.640E-03     13.2004E-03     155.080E-03     627.106E-03    -309.725E-03    -316.733E-03    -311.524E-03     621.897E-03    -309.725E-03     139.847E-03     710.159E-03     61.4454E+06     68.3894E+06     28.4120E+06    -2.27799E+06    -2.14921E+06     28.2832E+06     68.3894E+06     1.28858E+06
             176     157.510E-03     13.2011E-03     156.955E-03     627.165E-03    -309.694E-03    -316.873E-03    -311.671E-03     621.964E-03    -309.694E-03     139.756E-03     710.632E-03     66.7767E+06     74.8285E+06     33.1429E+06    -2.17956E+06    -2.15278E+06     33.1161E+06     74.8285E+06     676.445E+03
             177     159.378E-03     13.2019E-03     158.830E-03     626.763E-03    -309.682E-03    -316.348E-03    -311.085E-03     621.500E-03    -309.682E-03     140.499E-03     710.035E-03     71.1779E+06     79.8918E+06     33.9287E+06    -2.09544E+06    -2.04531E+06     33.8786E+06     79.8918E+06     45.3589E+03
             178     161.235E-03     13.2074E-03     160.693E-03     624.701E-03    -309.644E-03    -314.658E-03    -309.231E-03     619.273E-03    -309.644E-03     142.392E-03     707.668E-03     73.1672E+06     82.5935E+06     37.7091E+06    -1.77398E+06    -1.48075E+06     37.4159E+06     82.5935E+06     1.74319E+06
             179     163.104E-03     13.2129E-03     162.568E-03     624.617E-03    -309.583E-03    -314.534E-03    -308.931E-03     619.015E-03    -309.583E-03     144.622E-03     706.843E-03     76.5803E+06     85.7298E+06     44.3150E+06    -2.58858E+06    -2.28224E+06     44.0086E+06     85.7298E+06     1.42895E+06
             180     164.972E-03     13.2171E-03     164.441E-03     626.521E-03    -309.530E-03    -315.658E-03    -310.045E-03     620.907E-03    -309.530E-03     145.002E-03     707.960E-03     78.6722E+06     90.1591E+06     46.5023E+06    -559.365E+03    -502.238E+03     46.4452E+06     90.1591E+06    -294.736E+03
             181     166.814E-03     13.2235E-03     166.289E-03     624.217E-03    -309.541E-03    -313.390E-03    -307.930E-03     618.757E-03    -309.541E-03     142.677E-03     706.285E-03     79.9256E+06     92.4523E+06     50.0443E+06     478.998E+03     579.711E+03     49.9436E+06     92.4523E+06     2.16146E+06
             182     168.589E-03     13.2308E-03     168.069E-03     619.528E-03    -308.810E-03    -309.865E-03    -303.995E-03     614.127E-03    -309.279E-03     141.247E-03     702.030E-03     83.5586E+06     93.8725E+06     56.2480E+06    -1.87948E+06    -1.78778E+06     56.1563E+06     93.8725E+06     2.08627E+06
             183     170.384E-03     13.2465E-03     169.868E-03     619.479E-03    -307.640E-03    -312.492E-03    -306.446E-03     613.903E-03    -308.110E-03     143.692E-03     703.002E-03     88.1107E+06     97.5433E+06     56.5484E+06    -3.57071E+06    -3.35827E+06     56.3359E+06     97.5433E+06    -1.85083E+06
             184     172.262E-03     13.2536E-03     171.751E-03     619.369E-03    -307.328E-03    -314.606E-03    -308.861E-03     613.624E-03    -307.328E-03     146.047E-03     704.327E-03     89.8579E+06     96.9092E+06     56.4489E+06    -6.00083E+06    -5.68151E+06     56.1296E+06     96.9092E+06    -484.054E+03
             185     174.137E-03     13.2684E-03     173.631E-03     612.028E-03    -303.775E-03    -310.157E-03    -300.504E-03     605.861E-03    -307.261E-03     149.874E-03     697.264E-03     94.5846E+06     101.814E+06     67.7363E+06    -4.99091E+06    -4.82055E+06     67.5659E+06     101.814E+06     3.40247E+06
             186     175.950E-03     13.2932E-03     175.448E-03     600.582E-03    -295.535E-03    -305.584E-03    -288.288E-03     593.335E-03    -305.584E-03     160.339E-03     685.734E-03     99.5852E+06     107.776E+06     73.5378E+06    -4.37516E+06    -4.27989E+06     73.4426E+06     107.776E+06     164.309E+03
             187     177.751E-03     13.3328E-03     177.251E-03     588.466E-03    -286.566E-03    -302.478E-03    -277.912E-03     579.812E-03    -302.478E-03     172.932E-03     672.951E-03     99.7154E+06     108.969E+06     73.8797E+06    -3.52837E+06    -3.23178E+06     73.5831E+06     108.969E+06     1.88178E+06
             188     179.441E-03     13.3895E-03     178.941E-03     580.019E-03    -282.281E-03    -298.186E-03    -272.673E-03     570.411E-03    -298.186E-03     181.021E-03     666.959E-03     102.617E+06     111.720E+06     85.2092E+06    -1.34192E+06    -1.04854E+06     84.9158E+06     111.720E+06     4.53223E+06
             189     181.178E-03     13.4419E-03     180.679E-03     582.955E-03    -287.390E-03    -294.965E-03    -278.600E-03     573.144E-03    -293.944E-03     183.872E-03     675.786E-03     109.385E+06     115.090E+06     92.4142E+06    -3.84266E+06    -3.80063E+06     92.3721E+06     115.090E+06     1.67213E+06
             190     183.011E-03     13.4867E-03     182.514E-03     597.929E-03    -291.204E-03    -306.551E-03    -297.761E-03     589.140E-03    -291.204E-03     176.970E-03     694.558E-03     108.991E+06     115.531E+06     88.3585E+06    -4.44558E+06    -4.44185E+06     88.3548E+06     115.531E+06     13.4249E+03
             191     184.974E-03     13.5039E-03     184.480E-03     621.354E-03    -289.316E-03    -332.353E-03    -325.497E-03     614.498E-03    -289.316E-03     160.658E-03     718.759E-03     121.357E+06     134.736E+06     88.6841E+06    -2.48032E+06    -2.14240E+06     88.3461E+06     134.736E+06     3.70556E+06
             192     186.921E-03     13.5048E-03     186.433E-03     644.370E-03    -288.273E-03    -356.156E-03    -350.325E-03     638.539E-03    -288.273E-03     152.269E-03     740.803E-03     134.170E+06     149.528E+06     94.7909E+06    -3.20123E+06    -2.77330E+06     94.3630E+06     149.528E+06     1.84622E+06
             193     188.934E-03     13.5047E-03     188.451E-03     661.402E-03    -287.638E-03    -373.925E-03    -367.800E-03     655.277E-03    -287.638E-03     158.720E-03     755.562E-03     120.913E+06     134.609E+06     91.3852E+06    -1.97533E+06    -1.88314E+06      91.293E+06     134.609E+06    -2.03378E+06
             194     191.009E-03     13.5049E-03     190.531E-03     670.411E-03    -287.428E-03    -383.339E-03    -377.426E-03     664.498E-03    -287.428E-03     157.164E-03     763.184E-03     110.548E+06     120.752E+06     91.1789E+06    -1.18523E+06    -803.676E+03     90.7974E+06     120.752E+06     4.42777E+06
             195     193.060E-03     13.5022E-03     192.587E-03     670.964E-03    -287.311E-03    -384.468E-03    -378.957E-03     665.453E-03    -287.311E-03     152.087E-03     764.035E-03     105.291E+06     99.8103E+06     79.7536E+06    -14.0532E+06    -9.23511E+06     74.9356E+06     99.8103E+06    -9.03114E+06
             196     195.057E-03     13.5042E-03     194.589E-03     673.633E-03    -287.076E-03    -387.311E-03    -382.580E-03     668.903E-03    -287.076E-03     140.419E-03     766.872E-03     92.3245E+06     98.6082E+06     73.3754E+06    -3.51749E+06     7.38510E+06     62.4728E+06     98.6082E+06    -419.899E+03
             197     197.070E-03     13.4919E-03     196.608E-03     665.224E-03    -286.978E-03    -378.839E-03    -375.139E-03     661.524E-03    -286.978E-03     124.076E-03     758.179E-03     94.8989E+06     86.9999E+06     72.0354E+06    -13.4021E+06     1.01687E+06     57.9428E+06     86.6736E+06     31.9498E+06
             198     198.948E-03     13.5034E-03     198.490E-03     645.567E-03    -287.060E-03    -359.389E-03    -355.362E-03     641.540E-03    -287.060E-03     126.852E-03     750.292E-03     120.947E+06     95.1543E+06     69.5524E+06    -34.9535E+06    -20.7120E+06     55.6373E+06     94.8280E+06       2.185E+06
             199     200.855E-03     13.5025E-03     200.401E-03     646.048E-03    -286.933E-03    -359.457E-03    -355.568E-03     642.159E-03    -286.933E-03     124.561E-03     753.432E-03     134.091E+06     135.475E+06     53.8602E+06    -14.4396E+06    -5.91204E+06     45.3327E+06     135.475E+06    -22.5725E+06
             200     202.826E-03     13.5094E-03     202.376E-03     634.623E-03    -287.279E-03    -347.216E-03    -344.099E-03     631.507E-03    -287.279E-03     110.399E-03     723.331E-03     156.099E+06     160.127E+06     31.0988E+06    -13.3260E+06    -5.34997E+06     23.1227E+06     160.127E+06    -16.9083E+06
             201     204.769E-03     13.5106E-03     204.323E-03     582.826E-03    -274.162E-03    -308.703E-03    -290.340E-03     579.251E-03    -288.949E-03     110.512E-03     665.363E-03     181.609E+06     189.766E+06     36.1545E+06    -10.4106E+06     14.0311E+06     11.7128E+06     189.766E+06    -8.58501E+06
             202     206.480E-03     13.5197E-03     206.037E-03     479.064E-03    -187.229E-03    -292.355E-03    -185.011E-03     476.846E-03    -292.355E-03     65.5451E-03     601.633E-03     153.035E+06     149.128E+06     37.8656E+06    -21.1745E+06    -2.41470E+06     19.1058E+06     149.128E+06     1.10905E+06
             203     207.904E-03     12.4761E-03     207.530E-03     379.517E-03    -78.2669E-03    -302.067E-03    -76.5850E-03     377.835E-03    -302.067E-03    -29.6135E-03     533.766E-03     168.183E+06     125.434E+06    -6.89835E+06    -56.4411E+06    -54.9334E+06    -8.40604E+06     125.434E+06    -4.91327E+06
             204     207.393E-03     11.4929E-03     207.074E-03     335.111E-03    -18.2077E-03    -317.510E-03    -9.55404E-03     326.458E-03    -317.510E-03    -100.554E-03     474.883E-03     201.757E+06     168.290E+06    -19.9083E+06    -44.5701E+06    -40.9604E+06    -23.5181E+06     168.290E+06    -8.71604E+06
             205     207.026E-03     10.4834E-03     206.760E-03     326.618E-03     7.01135E-03    -333.917E-03     28.3026E-03     305.327E-03    -333.917E-03    -156.959E-03     450.525E-03     188.884E+06     180.705E+06     13.1852E+06    -23.8558E+06    -12.3819E+06     1.71122E+06     180.705E+06    -16.1298E+06
             206     206.461E-03     9.58493E-03     206.238E-03     343.388E-03     6.22438E-03    -349.844E-03     42.3449E-03     307.267E-03    -349.844E-03    -207.509E-03     458.718E-03     183.015E+06     168.957E+06     11.7844E+06    -31.9658E+06    -11.6099E+06    -8.57150E+06     168.957E+06    -21.7486E+06
             207     205.843E-03     8.70874E-03     205.659E-03     370.138E-03    -6.51650E-03    -363.969E-03     48.3540E-03     315.268E-03    -363.969E-03    -265.002E-03     476.398E-03     173.504E+06     154.189E+06     5.62283E+06    -36.4977E+06    -15.8155E+06    -15.0594E+06     154.189E+06    -21.0464E+06
             208     205.237E-03     7.87695E-03     205.085E-03     409.043E-03    -33.1446E-03    -375.402E-03     45.2856E-03     330.613E-03    -375.402E-03    -337.462E-03     501.763E-03     163.700E+06     140.525E+06     6.21645E+06    -41.5478E+06    -18.9938E+06    -16.3376E+06     140.525E+06    -23.8449E+06
             209     204.629E-03     7.09236E-03     204.506E-03     450.315E-03    -65.2571E-03    -384.015E-03     37.8665E-03     347.192E-03    -384.015E-03    -412.281E-03     530.266E-03     153.222E+06     122.852E+06     8.00870E+06    -50.9970E+06    -23.4371E+06    -19.5512E+06     122.852E+06    -29.4382E+06
             210     204.039E-03     6.35054E-03     203.940E-03     491.575E-03    -101.831E-03    -389.500E-03     24.6228E-03     365.121E-03    -389.500E-03    -485.966E-03     556.698E-03     141.833E+06     95.1232E+06      449.93E+03    -67.6824E+06    -39.6846E+06    -27.5478E+06     95.1232E+06    -33.3461E+06
             211     203.443E-03     5.65956E-03     203.364E-03     532.530E-03    -142.621E-03    -389.480E-03     1.11858E-03     388.790E-03    -389.480E-03    -552.727E-03     581.432E-03     129.213E+06     69.1445E+06     3.67761E+06    -78.8712E+06    -47.2992E+06    -27.8943E+06     69.1445E+06    -40.0958E+06
             212     202.918E-03     5.00317E-03     202.856E-03     573.933E-03    -188.241E-03    -385.420E-03    -34.6912E-03     420.383E-03    -385.420E-03    -611.232E-03     610.898E-03     115.009E+06     45.3782E+06     4.88722E+06    -84.3172E+06    -54.0268E+06    -25.4032E+06     45.3782E+06    -41.8800E+06
             213     202.442E-03     4.36824E-03     202.394E-03     614.677E-03    -235.578E-03    -379.426E-03    -84.0045E-03     463.103E-03    -379.426E-03    -649.974E-03     642.583E-03     103.345E+06     21.3319E+06    -2.09960E+06    -91.4249E+06    -57.3625E+06    -29.1858E+06     14.3557E+06    -45.5362E+06
             214     202.045E-03     3.75635E-03     202.010E-03     646.619E-03    -274.788E-03    -370.977E-03    -141.796E-03     513.627E-03    -370.977E-03    -645.737E-03     665.957E-03     96.3318E+06    -4.43075E+06    -19.0542E+06    -107.232E+06    -67.4248E+06    -44.2383E+06    -19.0542E+06    -49.9882E+06
             215     201.706E-03     3.15102E-03     201.681E-03     662.832E-03    -300.935E-03    -361.336E-03    -197.833E-03     559.730E-03    -361.336E-03    -592.850E-03     678.886E-03     85.6656E+06    -23.5284E+06    -48.3118E+06    -118.199E+06    -82.8469E+06    -58.8809E+06    -48.3118E+06    -45.7667E+06
             216     201.420E-03     2.54371E-03     201.404E-03     664.875E-03    -312.344E-03    -352.567E-03    -241.309E-03     593.840E-03    -352.567E-03    -503.958E-03     680.646E-03     82.0326E+06    -18.6985E+06    -62.4472E+06    -112.950E+06    -83.4620E+06    -48.1862E+06    -62.4472E+06    -43.0508E+06
             217     201.231E-03     1.90121E-03     201.222E-03     665.014E-03    -316.609E-03    -347.795E-03    -271.215E-03     619.620E-03    -347.795E-03    -409.190E-03     678.425E-03     83.3235E+06    -18.0780E+06    -77.7908E+06    -112.654E+06    -88.5186E+06    -42.2130E+06    -77.7908E+06    -41.2063E+06
             218     201.061E-03     1.24860E-03     201.057E-03     670.539E-03    -322.278E-03    -347.544E-03    -295.721E-03     643.982E-03    -347.544E-03    -315.754E-03     684.369E-03     77.2905E+06    -31.0624E+06    -92.6369E+06    -117.767E+06    -98.7975E+06    -50.0323E+06    -92.6369E+06    -35.4098E+06
             219     200.909E-03     608.716E-06     200.908E-03     677.062E-03    -323.635E-03    -353.369E-03    -311.691E-03     665.118E-03    -353.369E-03    -209.215E-03     693.954E-03     62.0452E+06    -55.8952E+06    -106.661E+06    -124.878E+06    -112.401E+06    -63.1217E+06    -111.912E+06    -18.4472E+06
             220     198.783E-03     18.9697E-06     198.783E-03     527.891E-03    -251.344E-03    -276.920E-03    -255.556E-03     524.999E-03    -269.816E-03    -75.1799E-03     539.602E-03       93.46E+06    -102.085E+06    -182.749E+06    -204.490E+06    -193.800E+06    -107.524E+06    -187.999E+06    -21.7976E+06
             221     197.349E-03    -4.76297E-06     197.349E-03     331.729E-03    -161.509E-03    -170.336E-03    -168.606E-03     331.722E-03    -163.232E-03     2.91525E-03     334.544E-03     138.402E+06    -210.890E+06    -326.221E+06    -364.279E+06    -337.091E+06    -216.511E+06    -347.789E+06    -24.6178E+06
             222     196.029E-03     3.14608E-06     196.029E-03     270.780E-03    -133.466E-03    -137.374E-03    -135.546E-03     270.676E-03    -135.190E-03     10.9120E-03     270.939E-03     121.786E+06    -307.735E+06    -405.224E+06    -444.233E+06    -421.972E+06    -308.429E+06    -426.791E+06    -7.92449E+06
             223     194.748E-03     1.13733E-06     194.748E-03     259.764E-03    -127.486E-03    -132.326E-03    -132.043E-03     259.482E-03    -127.486E-03     20.8309E-03     259.890E-03     92.5195E+06    -261.620E+06    -310.233E+06    -364.035E+06    -322.589E+06    -303.066E+06    -310.233E+06     9.27357E+06
             224     193.465E-03     2.42229E-06     193.465E-03     283.078E-03    -139.469E-03    -143.607E-03    -143.199E-03     282.670E-03    -139.469E-03     26.3765E-03     283.165E-03     92.6035E+06    -146.522E+06    -171.860E+06    -248.981E+06    -167.877E+06    -244.881E+06    -154.605E+06      17.673E+06
             225     192.101E-03    -1.78397E-06     192.101E-03     325.829E-03    -161.809E-03    -163.988E-03    -162.859E-03     325.397E-03    -162.506E-03     28.9918E-03     325.916E-03     106.954E+06    -87.4140E+06    -116.397E+06    -205.708E+06    -106.037E+06    -204.341E+06    -99.1422E+06     1.94198E+06
             226     190.681E-03    -2.38757E-06     190.681E-03     379.051E-03    -188.139E-03    -190.907E-03    -189.884E-03     378.725E-03    -188.836E-03     26.8020E-03     379.143E-03     116.157E+06    -81.4855E+06    -97.6471E+06    -204.662E+06    -86.3717E+06    -204.209E+06    -93.2136E+06    -1.82529E+06
             227     189.157E-03     3.44425E-06     189.157E-03     436.180E-03    -216.045E-03    -220.169E-03    -219.933E-03     435.944E-03    -216.045E-03     24.8391E-03     436.343E-03     121.334E+06    -81.5427E+06    -89.5025E+06    -206.659E+06    -86.1935E+06    -206.441E+06    -85.0691E+06     180.845E+03
             228     187.552E-03    -2.55313E-06     187.552E-03     488.310E-03    -242.326E-03    -245.833E-03    -245.662E-03     488.140E-03    -242.326E-03     21.8871E-03     488.591E-03     119.508E+06    -94.7172E+06    -98.9140E+06    -216.244E+06    -94.8263E+06    -216.134E+06    -98.9140E+06    -3.28896E+06
             229     185.855E-03     3.56026E-06     185.855E-03     528.989E-03    -261.131E-03    -267.645E-03    -267.547E-03     528.891E-03    -261.131E-03     17.6258E-03     529.364E-03     115.082E+06    -105.291E+06    -114.620E+06    -224.532E+06    -105.319E+06    -224.504E+06    -114.620E+06     153.121E+03
             230     184.109E-03     2.87609E-06     184.109E-03     556.527E-03    -274.484E-03    -282.123E-03    -282.057E-03     556.461E-03    -274.484E-03     14.5627E-03     556.959E-03     103.823E+06    -122.422E+06    -135.636E+06    -232.185E+06    -127.208E+06    -231.955E+06    -131.081E+06    -2.12732E+06
             231     182.322E-03     1.24911E-06     182.322E-03     569.424E-03    -282.274E-03    -287.679E-03    -287.647E-03     569.391E-03    -282.274E-03     10.3696E-03     569.873E-03     97.4549E+06    -139.971E+06    -151.247E+06    -242.559E+06    -144.870E+06    -242.215E+06    -146.692E+06    -497.796E+03
             232     180.529E-03     2.68206E-06     180.529E-03     575.917E-03    -285.052E-03    -291.352E-03    -291.327E-03     575.892E-03    -285.052E-03     9.28100E-03     576.395E-03     91.6544E+06    -142.408E+06    -153.950E+06    -239.283E+06    -147.431E+06    -239.081E+06    -149.129E+06     917.151E+03
             233     178.731E-03     1.78735E-06     178.731E-03     581.750E-03    -287.800E-03    -293.798E-03    -293.771E-03     581.723E-03    -287.800E-03     9.75549E-03     582.218E-03     86.4742E+06    -153.356E+06    -163.172E+06    -244.319E+06    -158.279E+06    -244.216E+06    -158.351E+06    -515.564E+03
             234     176.939E-03     1.32127E-06     176.939E-03     584.842E-03    -290.131E-03    -294.215E-03    -294.190E-03     584.817E-03    -290.131E-03     9.30244E-03     585.310E-03     105.527E+06    -146.639E+06    -153.361E+06    -255.299E+06    -148.606E+06    -255.059E+06    -151.635E+06     4.72571E+06
             235     175.136E-03     232.752E-09     175.136E-03     589.055E-03    -293.139E-03    -295.550E-03    -294.671E-03     589.028E-03    -293.990E-03     9.75264E-03     589.588E-03     111.715E+06    -137.826E+06    -140.127E+06    -250.671E+06    -139.856E+06    -250.367E+06    -138.400E+06     1.36983E+06
             236     173.329E-03    -1.74842E-06     173.329E-03     595.451E-03    -296.979E-03    -298.410E-03    -296.961E-03     595.434E-03    -298.410E-03     7.04110E-03     596.000E-03     106.808E+06    -151.198E+06    -152.793E+06    -258.795E+06    -152.860E+06    -258.154E+06    -151.772E+06    -7.66513E+06
             237     171.503E-03     19.4863E-09     171.503E-03     600.374E-03    -299.278E-03    -301.698E-03    -301.111E-03     600.367E-03    -299.857E-03     4.96387E-03     600.984E-03     119.173E+06    -148.546E+06    -152.731E+06    -269.744E+06    -150.434E+06    -268.877E+06    -151.710E+06    -947.979E+03
             238     169.677E-03     2.02233E-06     169.677E-03     605.737E-03    -302.019E-03    -303.911E-03    -303.852E-03     605.730E-03    -302.071E-03     4.99315E-03     606.417E-03     121.094E+06    -133.792E+06    -140.593E+06    -258.142E+06    -137.888E+06    -257.682E+06    -136.956E+06     1.74702E+06
             239     167.865E-03    -2.63823E-06     167.865E-03     611.188E-03    -304.532E-03    -305.861E-03    -304.530E-03     611.186E-03    -305.861E-03     2.31117E-03     611.869E-03     117.951E+06    -129.096E+06    -135.677E+06    -250.197E+06    -133.067E+06    -249.864E+06    -132.039E+06     659.651E+03
             240     166.023E-03     1.16220E-06     166.023E-03     614.093E-03    -305.800E-03    -308.219E-03    -306.940E-03     614.091E-03    -307.077E-03     2.17398E-03     614.785E-03     105.464E+06    -121.487E+06    -132.623E+06    -231.908E+06    -129.879E+06    -231.708E+06    -124.430E+06     3.92099E+06
             241     164.174E-03     352.960E-09     164.174E-03     617.877E-03    -307.515E-03    -310.183E-03    -310.181E-03     617.875E-03    -307.515E-03     1.77547E-03     618.570E-03     96.4144E+06    -99.0256E+06    -121.745E+06    -204.664E+06    -107.270E+06    -204.612E+06    -113.552E+06     2.09714E+06
             242     162.316E-03     3.22990E-06     162.316E-03     620.251E-03    -308.594E-03    -311.339E-03    -311.337E-03     620.249E-03    -308.594E-03     2.34820E-03     621.003E-03     76.7836E+06    -100.648E+06    -126.988E+06    -186.914E+06    -112.653E+06    -186.722E+06    -115.175E+06     3.23011E+06
             243     160.459E-03    -1.86763E-06     160.459E-03     621.399E-03    -309.427E-03    -312.495E-03    -310.644E-03     621.396E-03    -311.276E-03     2.48165E-03     622.191E-03     52.4081E+06    -105.678E+06    -127.373E+06    -165.407E+06    -117.659E+06    -165.240E+06    -115.560E+06     2.41527E+06
             244     158.596E-03     32.2902E-09     158.596E-03     622.318E-03    -310.335E-03    -312.276E-03    -310.335E-03     622.318E-03    -312.276E-03    -232.495E-06     623.022E-03     62.6230E+06    -87.3331E+06    -106.785E+06    -157.300E+06    -96.9830E+06    -157.221E+06    -97.2145E+06    -504.545E+03
             245     156.739E-03     420.046E-09     156.739E-03     622.008E-03    -310.826E-03    -311.144E-03    -311.051E-03     622.007E-03    -310.919E-03     746.999E-06     622.636E-03     65.8640E+06    -90.0412E+06    -109.234E+06    -163.347E+06    -99.6692E+06    -163.290E+06    -99.6630E+06    -1.31024E+06
             246     154.875E-03     337.156E-09     154.875E-03     623.966E-03    -311.572E-03    -312.197E-03    -311.796E-03     623.964E-03    -311.971E-03     2.44760E-03     624.616E-03     53.8583E+06    -91.5297E+06    -107.924E+06    -151.670E+06    -99.4717E+06    -150.501E+06    -101.151E+06     4.69463E+06
             247     153.012E-03    -352.067E-09     153.012E-03     625.495E-03    -311.578E-03    -313.610E-03    -313.210E-03     625.494E-03    -311.977E-03     711.967E-06     626.147E-03     30.1107E+06    -85.5000E+06    -97.9228E+06    -118.594E+06    -93.5133E+06    -116.646E+06    -91.8575E+06     5.31928E+06
             248     151.151E-03     3.40114E-06     151.151E-03     625.147E-03    -311.399E-03    -313.623E-03    -313.620E-03     625.144E-03    -311.399E-03     1.67114E-03     625.803E-03     10.7075E+06    -82.1735E+06    -91.1820E+06    -93.8670E+06    -87.4087E+06    -91.2828E+06    -88.5310E+06     1.18797E+06
             249     149.284E-03    -2.04799E-06     149.284E-03     626.334E-03    -311.878E-03    -314.392E-03    -312.466E-03     626.331E-03    -313.801E-03     2.82004E-03     626.997E-03     8.27425E+06    -80.0700E+06    -85.0877E+06    -89.5386E+06    -85.5038E+06    -84.9899E+06    -84.2026E+06    -55.0169E+03
             250     147.415E-03     120.357E-09     147.415E-03     626.928E-03    -312.361E-03    -314.387E-03    -312.360E-03     626.928E-03    -314.387E-03     229.055E-06     627.569E-03     8.99187E+06    -74.7252E+06    -76.5058E+06    -84.3071E+06    -79.3578E+06    -77.3225E+06    -78.8578E+06     1.53443E+06
             251     145.553E-03     527.642E-09     145.553E-03     625.736E-03    -312.052E-03    -313.468E-03    -313.364E-03     625.736E-03    -312.156E-03     409.137E-06     626.352E-03     11.2550E+06    -67.4011E+06    -72.2089E+06    -79.4275E+06    -72.8804E+06    -72.1790E+06    -73.9783E+06     150.284E+03
             252     143.684E-03     1.33938E-06     143.684E-03     625.923E-03    -311.948E-03    -313.749E-03    -313.259E-03     625.922E-03    -312.436E-03     2.00446E-03     626.534E-03     10.3726E+06    -66.9376E+06    -72.0488E+06    -78.2193E+06    -71.6479E+06    -72.0431E+06    -73.5148E+06    -120.232E+03
             253     141.823E-03    -1.21699E-06     141.823E-03     626.018E-03    -312.245E-03    -313.446E-03    -312.956E-03     626.017E-03    -312.733E-03     222.939E-06     626.595E-03     7.20830E+06    -64.6394E+06    -67.4164E+06    -72.2931E+06    -69.0017E+06    -68.3550E+06    -66.9923E+06     581.839E+03
             254     139.955E-03     2.47488E-06     139.955E-03     626.650E-03    -312.605E-03    -313.759E-03    -313.313E-03     626.645E-03    -313.047E-03     1.89530E-03     627.232E-03     6.60150E+06    -61.1433E+06    -64.8142E+06    -68.4814E+06    -65.5897E+06    -65.3530E+06    -63.4962E+06          848.25
             255     138.086E-03    -2.47541E-06     138.086E-03     629.437E-03    -314.138E-03    -315.018E-03    -314.133E-03     629.432E-03    -315.018E-03     2.20244E-03     630.056E-03     9.53906E+06    -56.3889E+06    -61.8033E+06    -67.2085E+06    -60.3369E+06    -62.2442E+06    -62.8195E+06     278.739E+03
             256     136.216E-03     1.99859E-06     136.216E-03     629.543E-03    -313.519E-03    -315.796E-03    -315.357E-03     629.543E-03    -313.958E-03    -313.694E-06     630.175E-03     10.4420E+06    -55.3746E+06    -61.5975E+06    -67.3051E+06    -60.4405E+06    -62.0315E+06    -61.8052E+06     354.235E+03
             257     134.343E-03     1.16140E-06     134.343E-03     627.462E-03    -312.707E-03    -314.686E-03    -314.544E-03     627.462E-03    -312.848E-03     1.41849E-03     628.089E-03     8.61870E+06    -53.9062E+06    -59.8189E+06    -63.2494E+06    -59.6069E+06    -59.6180E+06    -57.7496E+06    -243.806E+03
             258     132.486E-03    -863.103E-09     132.486E-03     627.372E-03    -313.524E-03    -313.725E-03    -313.584E-03     627.371E-03    -313.664E-03     1.02490E-03     627.994E-03     10.1378E+06    -50.7038E+06    -57.2759E+06    -61.7845E+06    -57.8850E+06    -57.3321E+06    -54.5472E+06     216.806E+03
             259     130.613E-03     1.36834E-06     130.613E-03     627.512E-03    -312.811E-03    -314.319E-03    -314.319E-03     627.512E-03    -312.811E-03    -39.2995E-06     628.152E-03     12.2672E+06    -50.2845E+06    -57.3608E+06    -64.3071E+06    -56.7283E+06    -58.1543E+06    -57.0698E+06     1.00035E+06
             260     128.749E-03     1.29776E-06     128.749E-03     627.600E-03    -312.745E-03    -314.400E-03    -314.399E-03     627.599E-03    -312.745E-03     1.46006E-03     628.244E-03     8.46159E+06    -47.1846E+06    -51.5666E+06    -56.5316E+06    -48.5789E+06    -52.7340E+06    -53.9699E+06     399.844E+03
             261     126.884E-03    -486.634E-09     126.884E-03     628.247E-03    -313.458E-03    -313.976E-03    -313.664E-03     628.246E-03    -313.769E-03     554.562E-06     628.862E-03     6.57149E+06    -45.9791E+06    -48.6105E+06    -53.2166E+06    -49.1525E+06    -50.1348E+06    -48.5188E+06    -1.07392E+06
             262     125.010E-03     500.772E-09     125.010E-03     627.450E-03    -312.967E-03    -313.282E-03    -312.966E-03     627.450E-03    -313.282E-03    -420.069E-06     628.045E-03     9.50196E+06    -43.7801E+06    -49.2950E+06    -54.7432E+06    -48.6511E+06    -49.8722E+06    -49.2950E+06     831.107E+03
             263     123.148E-03     115.074E-09     123.148E-03     626.096E-03    -311.763E-03    -313.397E-03    -313.392E-03     626.096E-03    -311.768E-03     353.080E-06     626.698E-03     9.49357E+06    -40.6752E+06    -43.7022E+06    -51.0342E+06    -46.0977E+06    -45.6636E+06    -43.6504E+06     1.17407E+06
             264     121.276E-03     2.76048E-06     121.276E-03     626.013E-03    -311.702E-03    -313.430E-03    -313.429E-03     626.011E-03    -311.702E-03     1.63717E-03     626.611E-03     8.75561E+06    -39.8772E+06    -43.4683E+06    -49.2943E+06    -42.7456E+06    -44.6716E+06    -45.2226E+06    -878.693E+03
             265     119.412E-03    -1.76099E-06     119.412E-03     626.536E-03    -311.456E-03    -314.467E-03    -311.554E-03     626.535E-03    -314.368E-03     2.04629E-03     627.156E-03     8.78396E+06    -36.2550E+06    -41.8871E+06    -46.2958E+06    -40.8528E+06    -41.9848E+06    -41.6004E+06     2.08269E+06
             266     117.540E-03    -1.97546E-06     117.540E-03     626.568E-03    -310.797E-03    -315.585E-03    -312.672E-03     626.566E-03    -313.708E-03    -1.29711E-03     627.132E-03     5.78052E+06    -35.3472E+06    -38.6331E+06    -41.9970E+06    -40.3690E+06    -39.0681E+06    -36.5403E+06     39.5292E+03
             267     115.674E-03     4.93627E-06     115.674E-03     627.365E-03    -311.324E-03    -315.738E-03    -315.734E-03     627.361E-03    -311.324E-03     643.120E-06     627.921E-03     4.82654E+06    -34.1335E+06    -38.3752E+06    -39.2753E+06    -35.0585E+06    -38.2116E+06    -38.5139E+06    -342.528E+03
             268     113.803E-03    -1.02132E-06     113.803E-03     629.229E-03    -312.461E-03    -316.498E-03    -314.995E-03     629.226E-03    -313.961E-03     3.29940E-03     629.853E-03     6.12897E+06    -28.8748E+06    -34.1603E+06    -35.4826E+06    -32.3894E+06    -34.0661E+06    -32.0622E+06     412.818E+03
             269     111.926E-03    -743.711E-09     111.926E-03     629.350E-03    -313.106E-03    -315.811E-03    -314.311E-03     629.349E-03    -314.606E-03     848.774E-06     629.956E-03     5.36927E+06    -30.1640E+06    -33.9483E+06    -36.3016E+06    -33.5581E+06    -33.9747E+06    -32.8811E+06    -329.316E+03
             270     110.056E-03     3.11283E-06     110.056E-03     627.974E-03    -312.986E-03    -314.631E-03    -314.628E-03     627.971E-03    -312.986E-03     2.08791E-03     628.586E-03     4.59426E+06    -29.2913E+06    -31.2745E+06    -34.4278E+06    -31.2103E+06    -31.7750E+06    -32.0084E+06     742.521E+03
             271     108.186E-03    -2.06438E-06     108.186E-03     626.542E-03    -311.923E-03    -314.626E-03    -312.360E-03     626.539E-03    -314.186E-03     1.74936E-03     627.174E-03     4.38430E+06    -25.6922E+06    -28.0036E+06    -30.4590E+06    -28.0493E+06    -28.0659E+06    -28.0396E+06     67.3516E+03
             272     106.320E-03    -875.991E-09     106.320E-03     625.001E-03    -310.965E-03    -313.931E-03    -310.964E-03     625.000E-03    -313.931E-03     181.643E-06     625.618E-03     6.23895E+06    -26.2363E+06    -30.1246E+06    -33.2881E+06    -31.0689E+06    -29.9965E+06    -28.5837E+06     71.4912E+03
             273     104.453E-03     883.305E-09     104.453E-03     625.835E-03    -311.920E-03    -313.166E-03    -312.462E-03     625.834E-03    -312.623E-03     1.06225E-03     626.465E-03     8.68623E+06    -20.5222E+06    -25.7915E+06    -30.4863E+06    -24.9100E+06    -26.1081E+06    -25.7819E+06     764.451E+03
             274     103.353E-03     12.4625E-03     102.599E-03     636.174E-03    -311.011E-03    -324.351E-03    -314.372E-03     626.196E-03    -311.011E-03     188.644E-03     749.210E-03     14.1802E+06     15.5829E+06     7.88804E+06    -655.864E+03    -414.607E+03     7.64678E+06     15.5829E+06     279.873E+03
             275     102.859E-03     11.7312E-03     102.188E-03     634.103E-03    -311.423E-03    -322.294E-03    -311.674E-03     623.483E-03    -311.423E-03     196.489E-03     754.625E-03     13.8444E+06     13.8658E+06      8.9094E+06    -1.71550E+06    -1.17118E+06     8.36508E+06     13.8658E+06     580.499E+03
             276     102.538E-03     10.9978E-03     101.946E-03     626.549E-03    -311.305E-03    -315.630E-03    -308.708E-03     619.626E-03    -311.305E-03     160.804E-03     723.756E-03     13.3065E+06     12.3087E+06     7.74130E+06    -2.62160E+06    -2.28310E+06     7.40280E+06     12.3087E+06     507.666E+03
             277     102.214E-03     10.2479E-03     101.699E-03     625.056E-03    -311.143E-03    -315.520E-03    -309.124E-03     618.660E-03    -311.143E-03     154.074E-03     714.387E-03     12.9143E+06     10.5875E+06     6.42288E+06    -3.87174E+06    -3.75254E+06     6.30369E+06     10.5875E+06     526.235E+03
             278     101.932E-03     9.51980E-03     101.487E-03     622.649E-03    -310.352E-03    -312.598E-03    -307.515E-03     617.567E-03    -310.352E-03     137.468E-03     698.278E-03     14.9035E+06     11.0416E+06     6.68461E+06    -5.55233E+06    -5.32988E+06     6.46216E+06     11.0416E+06     1.25307E+06
             279     101.655E-03     8.79173E-03     101.274E-03     620.110E-03    -310.078E-03    -311.619E-03    -306.296E-03     615.687E-03    -310.978E-03     127.879E-03     689.423E-03     16.0518E+06     10.8583E+06     5.62259E+06    -7.15038E+06    -6.95941E+06     5.43162E+06     10.8583E+06     1.38816E+06
             280     101.446E-03     8.05552E-03     101.125E-03     618.076E-03    -309.803E-03    -310.959E-03    -306.135E-03     614.384E-03    -310.935E-03     116.714E-03     681.217E-03     15.3584E+06     8.84267E+06     4.07549E+06    -8.31969E+06    -8.14755E+06     3.90334E+06     8.84267E+06     1.31135E+06
             281     101.229E-03     7.32707E-03     100.964E-03     619.483E-03    -308.889E-03    -311.050E-03    -305.885E-03     616.454E-03    -311.026E-03     105.692E-03     675.014E-03     14.1503E+06     6.64659E+06     2.19917E+06    -9.16630E+06    -9.02711E+06     2.05998E+06     6.64659E+06     1.13894E+06
             282     101.107E-03     6.59013E-03     100.892E-03     619.633E-03    -308.567E-03    -311.428E-03    -306.201E-03     617.266E-03    -311.428E-03     93.3823E-03     672.133E-03     12.1192E+06     3.01654E+06    -501.714E+03    -10.4214E+06    -10.3639E+06    -559.179E+03     3.01654E+06     739.912E+03
             283     100.923E-03     5.86113E-03     100.753E-03     619.579E-03    -308.399E-03    -311.168E-03    -306.628E-03     617.808E-03    -311.168E-03     80.7199E-03     665.936E-03     10.9935E+06    -7.83469E+03    -2.74683E+06    -12.0948E+06    -11.9613E+06    -2.88034E+06    -7.83469E+03     915.935E+03
             284     100.819E-03     5.12271E-03     100.689E-03     620.153E-03    -308.945E-03    -311.561E-03    -307.721E-03     618.929E-03    -311.561E-03     66.9845E-03     659.095E-03     10.4644E+06    -2.73937E+06    -4.66737E+06    -13.9760E+06    -13.7987E+06    -4.84465E+06    -2.73937E+06     1.11323E+06
             285     100.768E-03     4.38788E-03     100.673E-03     621.452E-03    -310.087E-03    -312.528E-03    -309.343E-03     620.708E-03    -312.528E-03     52.0342E-03     653.473E-03     9.01028E+06    -6.33527E+06    -7.14589E+06    -15.6936E+06    -15.5592E+06    -7.28027E+06    -6.33527E+06     1.03073E+06
             286     100.738E-03     3.65591E-03     100.672E-03     622.948E-03    -310.841E-03    -313.829E-03    -310.454E-03     622.562E-03    -313.829E-03     37.3210E-03     646.166E-03     7.87848E+06    -9.24104E+06    -10.4871E+06    -17.6365E+06    -17.4222E+06    -10.4391E+06    -9.50329E+06     1.16848E+06
             287     100.709E-03     2.92491E-03     100.667E-03     624.386E-03    -311.655E-03    -314.359E-03    -311.490E-03     624.221E-03    -314.359E-03     24.0165E-03     640.744E-03     6.31863E+06    -12.4726E+06    -13.7168E+06    -19.2362E+06    -18.8944E+06    -13.2743E+06     -13.257E+06     1.29779E+06
             288     100.694E-03     2.19377E-03     100.671E-03     626.456E-03    -312.300E-03    -314.467E-03    -312.249E-03     626.405E-03    -314.467E-03     13.0029E-03     636.750E-03     4.74579E+06    -15.2168E+06    -16.4832E+06    -20.2596E+06    -19.5849E+06    -15.5968E+06    -16.7778E+06     625.475E+03
             289     100.697E-03     1.46273E-03     100.686E-03     627.665E-03    -313.380E-03    -314.484E-03    -313.369E-03     627.654E-03    -314.484E-03     5.91961E-03     632.765E-03     3.19751E+06    -17.0484E+06    -18.8040E+06    -20.4618E+06    -19.9522E+06    -17.2401E+06    -19.1219E+06     62.4392E+03
             290     100.701E-03     731.397E-06     100.699E-03     628.472E-03    -313.481E-03    -314.837E-03    -314.542E-03     628.470E-03    -313.774E-03     2.27116E-03     630.233E-03     3.59447E+06    -19.2086E+06    -21.9911E+06    -23.1706E+06    -22.3991E+06    -21.0198E+06    -20.9515E+06     227.187E+03
             291     101.506E-03     12.4641E-03     100.738E-03     636.006E-03    -310.919E-03    -324.287E-03    -314.283E-03     626.002E-03    -310.919E-03     188.875E-03     749.094E-03     13.1616E+06     13.6893E+06     7.56135E+06    -1.14934E+06    -886.261E+03     7.29828E+06     13.6893E+06    -264.755E+03
             292     101.009E-03     11.7318E-03     100.326E-03     634.744E-03    -311.350E-03    -322.705E-03    -312.045E-03     624.084E-03    -311.350E-03     196.975E-03     755.159E-03     13.2956E+06     12.5612E+06     8.67409E+06    -2.15065E+06    -1.71636E+06      8.2398E+06     12.5612E+06     489.652E+03
             293     100.694E-03     10.9999E-03     100.091E-03     626.858E-03    -311.250E-03    -315.858E-03    -308.913E-03     619.913E-03    -311.250E-03     161.119E-03     724.049E-03     12.9956E+06     11.1416E+06     7.17402E+06    -3.29712E+06    -2.92407E+06     6.80097E+06     11.1416E+06     930.284E+03
             294     100.366E-03     10.2489E-03     99.8414E-03     624.020E-03    -311.050E-03    -314.801E-03    -308.414E-03     617.633E-03    -311.050E-03     153.806E-03     713.473E-03     12.6953E+06     9.82573E+06     6.06271E+06    -4.28726E+06    -4.10262E+06     5.87807E+06     9.82573E+06     946.877E+03
             295     100.083E-03     9.51726E-03     99.6291E-03     621.735E-03    -310.357E-03    -311.781E-03    -306.727E-03     616.681E-03    -310.357E-03     136.947E-03     697.522E-03     13.8991E+06     10.3027E+06     5.50771E+06    -5.31165E+06    -5.17583E+06     5.37190E+06     10.3027E+06     1.00766E+06
             296     99.8034E-03     8.78916E-03     99.4157E-03     619.861E-03    -310.226E-03    -311.386E-03    -306.139E-03     615.475E-03    -311.088E-03     127.306E-03     689.373E-03     14.6716E+06     10.4802E+06     5.53531E+06    -5.97280E+06    -5.86446E+06     5.42697E+06     10.4802E+06     1.02582E+06
             297     99.5967E-03     8.05536E-03     99.2704E-03     618.300E-03    -309.897E-03    -311.047E-03    -306.263E-03     614.642E-03    -311.022E-03     116.203E-03     681.359E-03     14.5280E+06     9.26946E+06     5.29851E+06    -6.82689E+06    -6.74875E+06     5.22036E+06     9.26946E+06     829.590E+03
             298     99.3713E-03     7.32725E-03     99.1008E-03     619.766E-03    -308.797E-03    -311.194E-03    -305.786E-03     616.731E-03    -311.170E-03     105.860E-03     675.080E-03     13.4483E+06     6.09663E+06     2.86865E+06    -8.64595E+06    -8.57120E+06      2.7939E+06     6.09663E+06     830.995E+03
             299     99.2527E-03     6.58691E-03     99.0339E-03     619.671E-03    -308.390E-03    -311.618E-03    -305.980E-03     617.261E-03    -311.618E-03     94.2551E-03     672.004E-03     12.2001E+06     2.84170E+06    -99.7292E+03    -10.5343E+06    -10.3881E+06    -245.894E+03     2.84170E+06     1.14321E+06
             300     99.0681E-03     5.85914E-03     98.8946E-03     620.159E-03    -308.754E-03    -311.509E-03    -306.956E-03     618.362E-03    -311.509E-03     81.3401E-03     666.455E-03     10.6950E+06    -16.7258E+03    -2.62406E+06    -11.7509E+06    -11.5533E+06    -2.82168E+06    -16.7258E+03     1.17251E+06
             301     98.9625E-03     5.12349E-03     98.8298E-03     621.079E-03    -309.603E-03    -311.849E-03    -308.383E-03     619.858E-03    -311.849E-03     66.8957E-03     659.870E-03     9.49728E+06    -2.86580E+06    -4.19934E+06    -12.9188E+06    -12.6975E+06    -4.26275E+06    -3.02370E+06     1.30029E+06
             302     98.9099E-03     4.38864E-03     98.8125E-03     622.198E-03    -310.814E-03    -312.556E-03    -310.090E-03     621.474E-03    -312.556E-03     51.3446E-03     654.115E-03     8.60379E+06    -5.58741E+06    -6.10921E+06    -14.4374E+06    -14.1679E+06    -6.22076E+06    -5.74532E+06     1.41864E+06
             303     98.8778E-03     3.65592E-03     98.8102E-03     623.347E-03    -311.506E-03    -313.819E-03    -311.132E-03     622.974E-03    -313.819E-03     36.7606E-03     646.754E-03     7.48348E+06    -8.51883E+06    -9.07663E+06    -16.2454E+06    -15.8891E+06     -9.1707E+06    -8.78108E+06     1.47552E+06
             304     98.8478E-03     2.92604E-03     98.8045E-03     624.109E-03    -311.560E-03    -314.327E-03    -311.398E-03     623.947E-03    -314.327E-03     23.7814E-03     640.623E-03     6.31217E+06    -11.8003E+06    -12.3823E+06    -18.3554E+06    -18.1143E+06    -12.1229E+06    -12.3008E+06     934.433E+03
             305     98.8332E-03     2.19480E-03     98.8088E-03     626.248E-03    -312.095E-03    -314.399E-03    -312.042E-03     626.195E-03    -314.399E-03     13.3882E-03     636.490E-03     5.32147E+06    -14.4868E+06    -15.0935E+06    -20.0672E+06    -19.9705E+06    -14.6067E+06    -15.0702E+06     379.541E+03
             306     98.8296E-03     1.46358E-03     98.8187E-03     627.583E-03    -313.380E-03    -314.378E-03    -313.367E-03     627.570E-03    -314.378E-03     6.24028E-03     632.730E-03     4.34443E+06    -16.5147E+06    -17.6527E+06    -21.0521E+06    -20.8596E+06    -16.7072E+06    -17.6527E+06     675.683E+03
             307     98.8349E-03     732.471E-06     98.8322E-03     628.342E-03    -313.785E-03    -314.428E-03    -314.147E-03     628.340E-03    -314.064E-03     2.20843E-03     630.173E-03     3.02477E+06    -18.4638E+06    -20.3014E+06    -21.6041E+06    -20.4933E+06    -19.5746E+06    -20.3014E+06     452.854E+03
             308     99.6609E-03     12.4627E-03     98.8785E-03     635.812E-03    -310.803E-03    -324.110E-03    -314.114E-03     625.816E-03    -310.803E-03     188.802E-03     748.711E-03     12.2531E+06     12.3644E+06     7.16414E+06    -1.39869E+06    -1.16963E+06     6.93508E+06     12.3644E+06     261.532E+03
             309     99.1695E-03     11.7308E-03     98.4732E-03     635.225E-03    -311.448E-03    -323.368E-03    -312.735E-03     624.592E-03    -311.448E-03     196.805E-03     756.024E-03     12.0658E+06     10.5942E+06     6.88701E+06    -2.64162E+06    -2.39013E+06     6.63552E+06     10.5942E+06     512.263E+03
             310     98.8482E-03     10.9994E-03     98.2343E-03     626.669E-03    -311.228E-03    -316.123E-03    -309.193E-03     619.740E-03    -311.228E-03     160.928E-03     724.242E-03     12.7699E+06     11.0295E+06     7.09601E+06    -3.08954E+06    -2.80579E+06     6.81226E+06     11.0295E+06     627.997E+03
             311     98.5297E-03     10.2486E-03     97.9952E-03     623.922E-03    -311.049E-03    -314.709E-03    -308.319E-03     617.532E-03    -311.049E-03     153.820E-03     713.418E-03     11.9940E+06     10.1955E+06     6.42554E+06    -3.15039E+06    -3.00742E+06     6.28258E+06     10.1955E+06     667.388E+03
             312     98.2405E-03     9.51932E-03     97.7782E-03     621.857E-03    -310.528E-03    -311.626E-03    -306.587E-03     616.818E-03    -310.528E-03     136.746E-03     697.755E-03     12.0863E+06     9.52127E+06     5.57692E+06    -3.97526E+06    -3.89388E+06     5.49554E+06     9.52127E+06     692.441E+03
             313     97.9634E-03     8.79007E-03     97.5683E-03     619.457E-03    -310.069E-03    -311.221E-03    -305.753E-03     615.062E-03    -311.142E-03     127.409E-03     688.976E-03     13.6538E+06     9.98067E+06     5.83118E+06    -5.19212E+06    -5.12656E+06     5.76562E+06     9.98067E+06     765.977E+03
             314     97.7458E-03     8.05423E-03     97.4134E-03     617.317E-03    -309.051E-03    -311.020E-03    -305.348E-03     613.613E-03    -311.020E-03     116.809E-03     680.719E-03     13.8719E+06     8.59179E+06     5.20052E+06    -6.65777E+06    -6.57165E+06     5.11439E+06     8.59179E+06     866.503E+03
             315     97.5244E-03     7.32504E-03     97.2489E-03     619.984E-03    -308.525E-03    -311.437E-03    -305.451E-03     616.910E-03    -311.437E-03     106.518E-03     675.185E-03     12.2165E+06     5.23570E+06     3.09871E+06    -7.87279E+06    -7.74616E+06     2.97208E+06     5.23570E+06     1.05718E+06
             316     97.4066E-03     6.58647E-03     97.1837E-03     621.202E-03    -309.156E-03    -312.049E-03    -306.747E-03     618.793E-03    -312.049E-03     94.3103E-03     673.109E-03     11.1611E+06     2.36603E+06     101.660E+03    -9.69128E+06    -9.51089E+06     -78.724E+03     2.36603E+06     1.29710E+06
             317     97.2182E-03     5.85818E-03     97.0415E-03     621.015E-03    -309.691E-03    -311.618E-03    -307.940E-03     619.264E-03    -311.618E-03     80.3175E-03     667.018E-03     11.1150E+06     774.467E+03    -2.19423E+06    -11.4888E+06    -11.2467E+06    -2.43629E+06     774.467E+03     1.37830E+06
             318     97.1092E-03     5.12169E-03     96.9741E-03     621.652E-03    -310.358E-03    -311.832E-03    -309.169E-03     620.464E-03    -311.832E-03     66.1249E-03     660.056E-03     9.90608E+06    -2.10601E+06    -3.41548E+06    -12.5480E+06    -12.2302E+06    -3.57537E+06    -2.26392E+06     1.57142E+06
             319     97.0500E-03     4.38798E-03     96.9507E-03     622.244E-03    -310.881E-03    -312.495E-03    -310.159E-03     621.522E-03    -312.495E-03     51.2807E-03     654.113E-03     8.75557E+06    -4.75447E+06    -5.16964E+06    -13.7053E+06    -13.3727E+06    -5.34431E+06    -4.91237E+06     1.56824E+06
             320     97.0153E-03     3.65684E-03     96.9464E-03     622.853E-03    -311.105E-03    -313.750E-03    -310.730E-03     622.478E-03    -313.750E-03     36.8066E-03     646.683E-03     7.62782E+06    -7.62977E+06    -8.10218E+06    -15.4749E+06    -15.1330E+06    -8.27302E+06    -7.80082E+06     1.20440E+06
             321     96.9878E-03     2.92470E-03     96.9437E-03     623.750E-03    -311.213E-03    -314.318E-03    -311.047E-03     623.584E-03    -314.318E-03     24.2183E-03     640.550E-03     6.19259E+06    -10.4312E+06    -11.3013E+06    -16.9886E+06    -16.6005E+06    -10.8776E+06    -11.2432E+06     992.014E+03
             322     96.9695E-03     2.19364E-03     96.9447E-03     626.241E-03    -312.061E-03    -314.504E-03    -312.002E-03     626.182E-03    -314.504E-03     14.2302E-03     636.461E-03     4.71864E+06    -13.1497E+06    -14.8194E+06    -18.3034E+06    -17.8902E+06    -13.5628E+06    -14.8194E+06     792.997E+03
             323     96.9640E-03     1.46248E-03     96.9530E-03     627.687E-03    -313.359E-03    -314.551E-03    -313.344E-03     627.671E-03    -314.551E-03     7.06921E-03     632.800E-03     4.79552E+06    -15.1339E+06    -17.7895E+06    -20.1376E+06    -19.2036E+06    -16.0679E+06    -17.7895E+06    -78.1759E+03
             324     96.9643E-03     730.782E-06     96.9616E-03     628.726E-03    -314.014E-03    -314.613E-03    -314.212E-03     628.724E-03    -314.413E-03     2.69392E-03     630.536E-03     3.96639E+06    -15.4772E+06    -18.1707E+06    -19.6050E+06    -17.7755E+06    -17.3067E+06    -18.1707E+06    -368.735E+03
             325     97.8248E-03     12.4628E-03     97.0277E-03     636.257E-03    -310.966E-03    -324.504E-03    -314.532E-03     626.285E-03    -310.966E-03     188.575E-03     748.965E-03     12.3774E+06     13.0227E+06     6.41099E+06    -787.636E+03    -449.059E+03     6.07241E+06     13.0227E+06     712.429E+03
             326     97.3235E-03     11.7313E-03     96.6138E-03     635.061E-03    -311.470E-03    -323.520E-03    -312.883E-03     624.424E-03    -311.470E-03     196.868E-03     756.058E-03     11.6932E+06     11.4965E+06     7.64304E+06    -1.44071E+06    -1.08321E+06     7.28554E+06     11.4965E+06     789.365E+03
             327     96.9940E-03     10.9995E-03     96.3683E-03     626.916E-03    -311.369E-03    -316.442E-03    -309.509E-03     619.984E-03    -311.369E-03     161.019E-03     724.783E-03     11.0708E+06     10.1715E+06     7.00438E+06    -1.98687E+06    -1.69740E+06     6.99768E+06     9.88869E+06     571.497E+03
             328     96.6783E-03     10.2482E-03     96.1336E-03     624.451E-03    -311.126E-03    -315.109E-03    -308.707E-03     618.049E-03    -311.126E-03     154.070E-03     713.796E-03     10.6158E+06     8.89690E+06     5.90424E+06    -2.79208E+06    -2.64037E+06     6.03530E+06     8.61413E+06     714.489E+03
             329     96.3898E-03     9.51775E-03     95.9188E-03     621.531E-03    -310.186E-03    -311.661E-03    -306.260E-03     616.420E-03    -310.475E-03     137.688E-03     697.317E-03     11.3758E+06     9.05048E+06     6.16024E+06    -3.47482E+06    -3.39608E+06     6.08150E+06     9.05048E+06     757.963E+03
             330     96.1105E-03     8.78829E-03     95.7079E-03     618.540E-03    -309.046E-03    -311.300E-03    -304.577E-03     614.044E-03    -311.273E-03     128.727E-03     688.194E-03     12.6796E+06     9.10939E+06     5.99744E+06    -4.81413E+06    -4.72665E+06     5.90996E+06     9.10939E+06     904.587E+03
             331     95.8877E-03     8.05353E-03     95.5489E-03     616.978E-03    -308.580E-03    -311.197E-03    -304.813E-03     613.211E-03    -311.197E-03     117.723E-03     680.525E-03     13.5260E+06     8.22353E+06     5.35224E+06    -6.50415E+06    -6.33055E+06     5.17864E+06     8.22353E+06     1.40104E+06
             332     95.6677E-03     7.32300E-03     95.3870E-03     621.075E-03    -309.453E-03    -311.627E-03    -306.378E-03     618.000E-03    -311.627E-03     106.601E-03     676.286E-03     11.7890E+06     4.42749E+06     2.74945E+06    -8.07554E+06    -7.90182E+06     2.57573E+06     4.42749E+06     1.35300E+06
             333     95.5452E-03     6.58495E-03     95.3181E-03     622.597E-03    -310.116E-03    -312.271E-03    -307.738E-03     620.218E-03    -312.271E-03     93.8151E-03     674.313E-03     10.1118E+06     1.41200E+06     271.426E+03    -9.13856E+06    -8.94917E+06     99.1528E+03     1.39489E+06     1.27946E+06
             334     95.3629E-03     5.85821E-03     95.1828E-03     621.956E-03    -310.481E-03    -311.712E-03    -308.739E-03     620.214E-03    -311.712E-03     80.2241E-03     667.682E-03     10.1689E+06     296.469E+03    -1.57341E+06    -10.5768E+06    -10.3260E+06    -1.80713E+06     279.357E+03     1.32371E+06
             335     95.2472E-03     5.12378E-03     95.1093E-03     622.184E-03    -310.828E-03    -311.783E-03    -309.646E-03     621.002E-03    -311.783E-03     65.9238E-03     660.290E-03     9.80217E+06    -1.83470E+06    -3.29077E+06    -12.2190E+06    -11.9430E+06    -3.56672E+06    -1.83470E+06     1.34433E+06
             336     95.1904E-03     4.38920E-03     95.0891E-03     621.987E-03    -310.416E-03    -312.403E-03    -309.712E-03     621.283E-03    -312.403E-03     50.6432E-03     653.638E-03     9.21823E+06    -4.13102E+06    -5.08567E+06    -13.7573E+06    -13.5089E+06    -4.98962E+06    -4.47551E+06     1.39058E+06
             337     95.1550E-03     3.65514E-03     95.0848E-03     622.542E-03    -310.736E-03    -313.668E-03    -310.378E-03     622.184E-03    -313.668E-03     35.8224E-03     646.480E-03     7.37201E+06    -6.42953E+06    -7.02410E+06    -14.0627E+06    -13.9013E+06    -6.66265E+06    -6.95232E+06     839.853E+03
             338     95.1252E-03     2.92461E-03     95.0802E-03     623.833E-03    -311.359E-03    -314.244E-03    -311.211E-03     623.685E-03    -314.244E-03     22.7422E-03     640.721E-03     5.43999E+06    -9.08100E+06    -9.89434E+06    -14.8538E+06    -14.5793E+06    -9.35551E+06    -9.89434E+06     620.750E+03
             339     95.1037E-03     2.19360E-03     95.0784E-03     625.955E-03    -311.805E-03    -314.514E-03    -311.757E-03     625.907E-03    -314.514E-03     12.7235E-03     636.117E-03     4.22785E+06    -11.5364E+06    -13.3769E+06    -16.2225E+06    -15.7769E+06    -11.9820E+06    -13.3769E+06     636.023E+03
             340     95.0956E-03     1.46225E-03     95.0844E-03     627.583E-03    -313.138E-03    -314.642E-03    -313.126E-03     627.571E-03    -314.642E-03     6.16991E-03     632.609E-03     5.27461E+06    -12.2605E+06    -16.1885E+06    -18.0376E+06    -16.3321E+06    -13.9660E+06    -16.1885E+06     525.472E+03
             341     95.0914E-03     731.226E-06     95.0886E-03     628.829E-03    -314.133E-03    -314.605E-03    -314.150E-03     628.827E-03    -314.586E-03     2.29549E-03     630.614E-03     5.64910E+06    -14.6279E+06    -18.2713E+06    -20.7532E+06    -18.0769E+06    -17.4949E+06    -18.0806E+06      12.667E+03
             342     95.9649E-03     12.4635E-03     95.1521E-03     636.344E-03    -311.049E-03    -324.611E-03    -314.559E-03     626.292E-03    -311.049E-03     189.203E-03     748.666E-03     11.5182E+06     11.6475E+06     6.19356E+06    -1.10849E+06    -702.244E+03     5.78732E+06     11.6475E+06     153.393E+03
             343     95.4623E-03     11.7288E-03     94.7390E-03     634.173E-03    -311.379E-03    -322.997E-03    -312.226E-03     623.401E-03    -311.379E-03     198.028E-03     755.241E-03     11.3742E+06     10.9538E+06     7.11694E+06    -1.83231E+06    -1.40210E+06     6.68673E+06     10.9538E+06     277.961E+03
             344     95.1316E-03     10.9981E-03     94.4937E-03     626.354E-03    -311.336E-03    -316.062E-03    -309.006E-03     619.298E-03    -311.336E-03     162.367E-03     724.607E-03     10.1756E+06     8.92577E+06     6.11448E+06    -2.32065E+06    -2.08764E+06     6.16424E+06       8.643E+06     647.681E+03
             345     94.8148E-03     10.2483E-03     94.2593E-03     624.255E-03    -311.145E-03    -315.035E-03    -308.447E-03     617.667E-03    -311.145E-03     156.320E-03     714.075E-03     9.90129E+06     7.75662E+06     6.13117E+06    -2.83683E+06    -2.66120E+06     6.38630E+06     7.32587E+06     1.09509E+06
             346     94.5334E-03     9.51796E-03     94.0530E-03     621.762E-03    -310.255E-03    -311.933E-03    -306.405E-03     616.523E-03    -310.545E-03     139.375E-03     697.624E-03     11.0238E+06     8.49251E+06     6.20321E+06    -3.44847E+06    -3.29059E+06     6.19332E+06     8.34453E+06     1.14256E+06
             347     94.2528E-03     8.78685E-03     93.8423E-03     619.247E-03    -309.479E-03    -311.546E-03    -305.180E-03     614.814E-03    -311.412E-03     127.839E-03     688.479E-03     12.2515E+06     9.28611E+06     5.92419E+06    -4.24416E+06    -4.11425E+06     5.79428E+06     9.28611E+06     1.12868E+06
             348     94.0229E-03     8.05037E-03     93.6777E-03     617.829E-03    -309.337E-03    -311.260E-03    -305.716E-03     614.207E-03    -311.260E-03     115.475E-03     680.788E-03     12.8409E+06     8.54701E+06     5.43602E+06    -5.52313E+06    -5.39788E+06     5.31077E+06     8.54701E+06     1.12179E+06
             349     93.7925E-03     7.32384E-03     93.5061E-03     621.270E-03    -309.731E-03    -311.617E-03    -306.802E-03     618.340E-03    -311.617E-03     104.073E-03     676.223E-03     11.2523E+06     4.69194E+06     2.82382E+06    -7.35132E+06    -7.14882E+06     2.62132E+06     4.69194E+06     1.30070E+06
             350     93.6671E-03     6.58745E-03     93.4352E-03     622.384E-03    -309.953E-03    -312.213E-03    -307.662E-03     620.092E-03    -312.213E-03     92.1463E-03     673.968E-03     9.71629E+06     1.20961E+06     629.909E+03    -8.75489E+06    -8.45775E+06      349.89E+03     1.19250E+06     1.59895E+06
             351     93.4779E-03     5.85907E-03     93.2941E-03     621.940E-03    -310.225E-03    -311.647E-03    -308.499E-03     620.214E-03    -311.647E-03     79.8750E-03     667.709E-03     9.49358E+06    -66.7811E+03    -413.796E+03    -9.72286E+06    -9.38461E+06    -734.933E+03    -83.8935E+03     1.54721E+06
             352     93.3734E-03     5.12222E-03     93.2328E-03     622.285E-03    -310.635E-03    -311.786E-03    -309.452E-03     621.102E-03    -311.786E-03     65.9588E-03     660.586E-03     8.17688E+06    -2.15949E+06    -3.11932E+06    -10.7581E+06    -10.5609E+06    -3.31648E+06    -2.15949E+06     898.674E+03
             353     93.3173E-03     4.38866E-03     93.2140E-03     622.272E-03    -310.547E-03    -312.358E-03    -309.843E-03     621.569E-03    -312.358E-03     50.6175E-03     653.944E-03     7.16666E+06    -3.33492E+06    -4.45059E+06    -10.9832E+06    -10.8890E+06    -4.20031E+06    -3.67941E+06     454.519E+03
             354     93.2838E-03     3.65698E-03     93.2121E-03     622.564E-03    -310.789E-03    -313.597E-03    -310.430E-03     622.205E-03    -313.597E-03     35.8534E-03     646.366E-03     6.67343E+06    -5.03452E+06    -5.67063E+06    -11.9900E+06    -11.8597E+06    -5.44919E+06    -5.38627E+06     508.397E+03
             355     93.2542E-03     2.92592E-03     93.2083E-03     623.580E-03    -311.290E-03    -314.153E-03    -311.139E-03     623.428E-03    -314.153E-03     23.0513E-03     640.469E-03     5.87801E+06    -7.66278E+06    -8.26570E+06    -13.8018E+06    -13.5830E+06    -8.03366E+06    -8.11368E+06     659.514E+03
             356     93.2395E-03     2.19528E-03     93.2136E-03     625.833E-03    -311.819E-03    -314.256E-03    -311.767E-03     625.781E-03    -314.256E-03     13.2904E-03     636.070E-03     5.23015E+06    -10.0745E+06    -11.3790E+06    -15.8017E+06    -15.3048E+06    -10.5715E+06    -11.3790E+06     885.271E+03
             357     93.2258E-03     1.46319E-03     93.2143E-03     627.110E-03    -313.042E-03    -314.152E-03    -313.035E-03     627.096E-03    -314.145E-03     6.62015E-03     632.141E-03     5.84887E+06    -12.0381E+06    -14.4929E+06    -18.6546E+06    -17.3346E+06    -13.3581E+06    -14.4929E+06     1.17456E+06
             358     93.2188E-03     731.444E-06     93.2159E-03     627.715E-03    -313.536E-03    -314.275E-03    -314.019E-03     627.712E-03    -313.790E-03     2.06219E-03     629.500E-03     6.00531E+06    -14.0868E+06    -16.7498E+06    -20.8458E+06    -18.5512E+06    -16.5721E+06    -16.5590E+06     889.772E+03
             359     94.1062E-03     12.4616E-03     93.2774E-03     635.947E-03    -310.968E-03    -324.255E-03    -314.171E-03     625.862E-03    -310.968E-03     189.597E-03     748.329E-03     9.26182E+06     9.56540E+06     6.12040E+06    -831.878E+03    -617.891E+03     5.90641E+06     9.56540E+06     26.4705E+03
             360     93.6113E-03     11.7293E-03     92.8735E-03     633.827E-03    -311.457E-03    -322.425E-03    -311.689E-03     623.091E-03    -311.457E-03     197.537E-03     754.732E-03     9.74260E+06     9.56810E+06     6.02370E+06    -1.39421E+06    -1.09498E+06     5.72447E+06     9.56810E+06     206.611E+03
             361     93.2748E-03     10.9958E-03     92.6244E-03     625.289E-03    -311.357E-03    -315.019E-03    -308.004E-03     618.274E-03    -311.357E-03     161.688E-03     723.455E-03     9.78267E+06     8.89922E+06     5.89722E+06    -1.94969E+06    -1.74727E+06     5.69480E+06     8.89922E+06     897.965E+03
             362     92.9467E-03     10.2443E-03     92.3805E-03     624.034E-03    -311.315E-03    -314.647E-03    -308.104E-03     617.490E-03    -311.315E-03     155.681E-03     714.274E-03     9.96242E+06     7.74371E+06     6.25441E+06    -2.85792E+06    -2.67841E+06     6.22288E+06     7.59573E+06     965.487E+03
             363     92.6465E-03     9.51468E-03     92.1566E-03     623.304E-03    -310.833E-03    -312.823E-03    -307.652E-03     618.133E-03    -310.833E-03     138.655E-03     699.185E-03     10.5993E+06     7.11218E+06     6.16890E+06    -3.91764E+06    -3.75884E+06     6.15809E+06     6.96420E+06     1.03495E+06
             364     92.3766E-03     8.78620E-03     91.9578E-03     621.142E-03    -310.884E-03    -312.282E-03    -307.443E-03     616.791E-03    -311.371E-03     126.939E-03     690.083E-03     12.2354E+06     7.99275E+06     5.68765E+06    -5.15015E+06    -5.05126E+06     5.58876E+06     7.99275E+06     892.136E+03
             365     92.1607E-03     8.05599E-03     91.8079E-03     618.791E-03    -310.147E-03    -311.349E-03    -306.800E-03     615.235E-03    -311.140E-03     114.609E-03     681.404E-03     12.3867E+06     7.22832E+06     4.44375E+06    -6.26420E+06    -6.19464E+06     4.37419E+06     7.22832E+06     735.968E+03
             366     91.9246E-03     7.32557E-03     91.6322E-03     620.873E-03    -309.093E-03    -311.438E-03    -306.156E-03     617.937E-03    -311.438E-03     104.181E-03     675.452E-03     10.7025E+06     4.81833E+06     3.07128E+06    -6.63938E+06    -6.47978E+06     3.03347E+06     4.69655E+06     1.06716E+06
             367     91.7936E-03     6.58678E-03     91.5569E-03     622.168E-03    -309.880E-03    -312.053E-03    -307.564E-03     619.851E-03    -312.053E-03     92.5787E-03     673.607E-03     8.90654E+06     2.06051E+06     1.37236E+06    -7.14565E+06    -6.92777E+06     1.27626E+06     1.93873E+06     1.24570E+06
             368     91.6058E-03     5.86056E-03     91.4181E-03     621.580E-03    -310.145E-03    -311.597E-03    -308.434E-03     619.869E-03    -311.597E-03     79.5011E-03     667.495E-03     8.21455E+06     717.229E+03    -126.743E+03    -7.83185E+06    -7.55296E+06     142.198E+03     169.396E+03     1.27999E+06
             369     91.5097E-03     5.12261E-03     91.3662E-03     621.610E-03    -310.002E-03    -311.803E-03    -308.828E-03     620.436E-03    -311.803E-03     65.7153E-03     660.037E-03     6.89200E+06    -1.05457E+06    -2.08502E+06    -8.36771E+06    -8.14567E+06    -1.63323E+06    -1.72840E+06     931.504E+03
             370     91.4482E-03     4.38876E-03     91.3428E-03     622.038E-03    -310.284E-03    -312.418E-03    -309.566E-03     621.321E-03    -312.418E-03     51.1641E-03     653.841E-03     6.42977E+06    -3.38732E+06    -3.98312E+06    -10.0921E+06    -9.84819E+06    -3.87810E+06    -3.73625E+06     728.335E+03
             371     91.4092E-03     3.65676E-03     91.3360E-03     622.494E-03    -310.670E-03    -313.684E-03    -310.288E-03     622.112E-03    -313.684E-03     37.1618E-03     646.260E-03     5.94965E+06    -5.56906E+06    -6.49583E+06    -11.9134E+06    -11.5121E+06    -6.25479E+06    -6.21147E+06     899.537E+03
             372     91.3764E-03     2.92487E-03     91.3296E-03     623.520E-03    -311.112E-03    -314.264E-03    -310.942E-03     623.350E-03    -314.264E-03     24.4324E-03     640.366E-03     5.35835E+06    -7.02750E+06    -8.21045E+06    -12.8386E+06    -12.4354E+06    -7.58270E+06    -8.05843E+06     1.22792E+06
             373     91.3563E-03     2.19375E-03     91.3300E-03     626.279E-03    -312.106E-03    -314.321E-03    -312.046E-03     626.219E-03    -314.321E-03     14.4155E-03     636.601E-03     5.21728E+06    -8.86079E+06    -10.5623E+06    -14.6100E+06    -14.0778E+06    -9.39294E+06    -10.5623E+06     1.54013E+06
             374     91.3478E-03     1.46381E-03     91.3360E-03     627.487E-03    -313.442E-03    -314.096E-03    -313.430E-03     627.468E-03    -314.089E-03     7.97349E-03     632.569E-03     5.38940E+06    -10.3976E+06    -13.2104E+06    -16.3663E+06    -15.0943E+06    -11.4503E+06    -13.4297E+06     1.04931E+06
             375     91.3448E-03     732.289E-06     91.3419E-03     627.583E-03    -313.146E-03    -314.320E-03    -314.293E-03     627.579E-03    -313.169E-03     3.12608E-03     629.355E-03     4.93494E+06    -11.9492E+06    -15.2650E+06    -17.3700E+06    -14.9729E+06    -14.1089E+06    -15.5025E+06     655.771E+03
             376     92.2412E-03     12.4614E-03     91.3956E-03     635.875E-03    -311.019E-03    -323.856E-03    -313.717E-03     625.736E-03    -311.019E-03     190.101E-03     748.665E-03     8.16568E+06     8.62239E+06     5.63526E+06    -517.208E+03    -424.797E+03     5.54285E+06     8.62239E+06     311.719E+03
             377     91.7372E-03     11.7295E-03     90.9843E-03     634.055E-03    -311.426E-03    -322.124E-03    -311.394E-03     623.325E-03    -311.426E-03     197.300E-03     754.941E-03     9.04507E+06     8.61170E+06     5.70756E+06    -1.43888E+06    -1.26666E+06     5.53534E+06     8.61170E+06     526.765E+03
             378     91.4142E-03     10.9947E-03     90.7506E-03     625.880E-03    -311.232E-03    -315.347E-03    -308.464E-03     618.997E-03    -311.232E-03     160.288E-03     723.549E-03     9.42079E+06     8.07524E+06     5.71611E+06    -2.19896E+06    -2.00665E+06     5.52380E+06     8.07524E+06     732.875E+03
             379     91.0577E-03     10.2469E-03     90.4793E-03     624.606E-03    -311.312E-03    -315.090E-03    -308.813E-03     618.329E-03    -311.312E-03     152.490E-03     714.449E-03     9.27382E+06     7.08262E+06     5.52903E+06    -2.86105E+06    -2.69485E+06     5.81023E+06     6.63522E+06     742.833E+03
             380     90.7833E-03     9.51455E-03     90.2833E-03     623.430E-03    -310.868E-03    -312.968E-03    -308.010E-03     618.472E-03    -310.868E-03     135.885E-03     699.109E-03     9.89389E+06     6.51230E+06     5.33981E+06    -3.89837E+06    -3.79754E+06     5.68638E+06     6.06490E+06     577.544E+03
             381     90.5071E-03     8.78656E-03     90.0796E-03     620.647E-03    -310.609E-03    -312.309E-03    -307.202E-03     616.278E-03    -311.348E-03     127.224E-03     689.687E-03     11.6550E+06     8.29998E+06     6.13564E+06    -4.20592E+06    -4.13845E+06     6.06816E+06     8.29998E+06     546.080E+03
             382     90.2931E-03     8.05162E-03     89.9334E-03     619.264E-03    -310.316E-03    -311.849E-03    -307.165E-03     615.594E-03    -311.329E-03     116.505E-03     682.554E-03     11.3686E+06     7.62930E+06     4.64206E+06    -4.87611E+06    -4.79323E+06     4.55917E+06     7.62930E+06     750.547E+03
             383     90.0926E-03     7.32161E-03     89.7946E-03     621.993E-03    -309.742E-03    -311.946E-03    -307.017E-03     618.958E-03    -311.636E-03     106.046E-03     677.047E-03     9.59266E+06     4.71104E+06     2.63853E+06    -5.70397E+06    -5.59008E+06     2.64641E+06     4.58926E+06     885.011E+03
             384     89.9252E-03     6.58819E-03     89.6835E-03     622.321E-03    -309.968E-03    -312.219E-03    -307.581E-03     619.934E-03    -312.219E-03     93.9907E-03     674.038E-03     7.91033E+06     2.13733E+06     902.981E+03    -6.27213E+06    -6.11823E+06     1.37374E+06     1.51268E+06     1.00957E+06
             385     89.7519E-03     5.85783E-03     89.5605E-03     621.282E-03    -309.992E-03    -311.748E-03    -308.233E-03     619.523E-03    -311.748E-03     80.5693E-03     667.424E-03     7.91390E+06     921.399E+03    -1.01278E+06    -7.72196E+06    -7.53127E+06     685.564E+03    -967.639E+03     1.14671E+06
             386     89.6429E-03     5.12188E-03     89.4964E-03     621.286E-03    -309.507E-03    -311.811E-03    -308.295E-03     620.073E-03    -311.811E-03     66.7700E-03     659.320E-03     7.63669E+06    -952.797E+03    -3.24508E+06    -9.40606E+06    -9.04692E+06    -1.31194E+06    -3.24508E+06     1.45929E+06
             387     89.5656E-03     4.38793E-03     89.4580E-03     621.457E-03    -309.437E-03    -312.541E-03    -308.693E-03     620.712E-03    -312.541E-03     52.0666E-03     653.024E-03     6.72469E+06    -3.13714E+06    -5.14611E+06    -10.5176E+06    -9.97751E+06    -3.67725E+06    -5.14611E+06     1.83913E+06
             388     89.5215E-03     3.65567E-03     89.4469E-03     622.426E-03    -310.321E-03    -313.868E-03    -309.927E-03     622.032E-03    -313.868E-03     37.7292E-03     646.205E-03     6.10493E+06    -4.48383E+06    -6.64952E+06    -11.3144E+06    -10.7982E+06    -5.00006E+06    -6.64952E+06     1.69008E+06
             389     89.4959E-03     2.92476E-03     89.4481E-03     624.100E-03    -311.340E-03    -314.477E-03    -311.162E-03     623.922E-03    -314.477E-03     25.0364E-03     640.793E-03     4.83906E+06    -6.37462E+06    -8.53066E+06    -11.8813E+06    -11.4535E+06    -6.80243E+06    -8.53066E+06     1.36773E+06
             390     89.4861E-03     2.19385E-03     89.4592E-03     626.723E-03    -312.391E-03    -314.659E-03    -312.328E-03     626.660E-03    -314.659E-03     14.8028E-03     637.008E-03     3.71067E+06    -8.08124E+06    -10.3956E+06    -12.3477E+06    -11.5721E+06    -8.50837E+06    -10.7440E+06     1.03691E+06
             391     89.4793E-03     1.46180E-03     89.4674E-03     628.239E-03    -313.712E-03    -314.620E-03    -313.693E-03     628.220E-03    -314.620E-03     8.29700E-03     633.326E-03     4.15652E+06    -7.95377E+06    -10.8413E+06    -12.6037E+06    -11.1238E+06    -8.86591E+06    -11.4091E+06     773.426E+03
             392     89.4782E-03     730.972E-06     89.4752E-03     628.854E-03    -313.798E-03    -314.801E-03    -314.459E-03     628.849E-03    -314.135E-03     3.89072E-03     630.647E-03     4.15230E+06    -8.96391E+06    -11.6504E+06    -13.4759E+06    -11.6724E+06    -10.8353E+06    -11.5825E+06     445.590E+03
             393     90.3786E-03     12.4617E-03     89.5154E-03     636.033E-03    -311.193E-03    -323.800E-03    -313.729E-03     625.962E-03    -311.193E-03     189.491E-03     748.868E-03     9.16228E+06     9.04058E+06     4.60779E+06    -1.11869E+06    -865.264E+03     4.35437E+06     9.04058E+06     422.915E+03
             394     89.8636E-03     11.7280E-03     89.0950E-03     634.698E-03    -311.474E-03    -322.573E-03    -311.946E-03     624.071E-03    -311.474E-03     196.376E-03     755.372E-03     10.1105E+06     9.88317E+06     5.93445E+06    -1.45422E+06    -1.12500E+06     5.60522E+06     9.88317E+06     522.178E+03
             395     89.5290E-03     10.9995E-03     88.8508E-03     627.295E-03    -311.153E-03    -316.589E-03    -309.757E-03     620.463E-03    -311.153E-03     159.892E-03     724.704E-03     9.73313E+06     8.59670E+06     5.66049E+06    -2.05637E+06    -1.86958E+06     5.81002E+06     8.26037E+06     263.895E+03
             396     89.1840E-03     10.2494E-03     88.5931E-03     625.854E-03    -311.302E-03    -316.439E-03    -310.140E-03     619.555E-03    -311.302E-03     152.997E-03     715.432E-03     7.81665E+06     6.14569E+06     4.59739E+06    -2.32332E+06    -2.22183E+06     5.66061E+06     4.98099E+06     654.902E+03
             397     88.9059E-03     9.51883E-03     88.3949E-03     622.854E-03    -310.669E-03    -312.781E-03    -307.688E-03     617.867E-03    -310.776E-03     136.207E-03     698.728E-03      8.4218E+06     6.77450E+06     5.51684E+06    -2.17391E+06    -2.09608E+06     6.26739E+06     5.94612E+06     460.182E+03
             398     88.6527E-03     8.78413E-03     88.2165E-03     619.266E-03    -309.712E-03    -311.553E-03    -305.518E-03     614.887E-03    -311.369E-03     127.152E-03     688.221E-03     10.2306E+06     8.29877E+06     6.40733E+06    -2.65833E+06    -2.60423E+06     6.35323E+06     8.29877E+06     429.625E+03
             399     88.4253E-03     8.05142E-03     88.0580E-03     618.894E-03    -309.844E-03    -311.847E-03    -306.483E-03     615.223E-03    -311.537E-03     116.432E-03     682.178E-03     9.55855E+06     6.86315E+06     4.25653E+06    -3.66963E+06    -3.52829E+06     4.49551E+06     6.48284E+06     1.01690E+06
             400     88.2275E-03     7.32019E-03     87.9233E-03     621.721E-03    -309.613E-03    -311.987E-03    -306.885E-03     618.683E-03    -311.677E-03     106.077E-03     677.087E-03     8.36060E+06     3.86587E+06     1.96119E+06    -5.24693E+06    -5.05181E+06     2.34205E+06     3.28990E+06     1.17002E+06
             401     88.0494E-03     6.58834E-03     87.8025E-03     621.143E-03    -308.795E-03    -312.190E-03    -306.330E-03     618.678E-03    -312.190E-03     95.4964E-03     672.999E-03     8.08914E+06     1.80868E+06     130.437E+03    -6.96972E+06    -6.67437E+06     948.762E+03     694.996E+03     1.49742E+06
             402     87.8987E-03     5.85407E-03     87.7035E-03     620.883E-03    -309.334E-03    -312.038E-03    -307.462E-03     619.011E-03    -312.038E-03     83.0121E-03     667.084E-03     8.13819E+06     935.975E+03    -1.33436E+06    -8.08115E+06    -7.68243E+06     537.252E+03    -1.33436E+06     1.82319E+06
             403     87.7729E-03     5.12079E-03     87.6234E-03     621.924E-03    -309.992E-03    -312.162E-03    -308.716E-03     620.647E-03    -312.162E-03     68.5501E-03     660.103E-03     7.48356E+06    -260.406E+03    -2.72863E+06    -8.63601E+06    -8.18607E+06    -1.04613E+06    -2.39284E+06     1.76357E+06
             404     87.6848E-03     4.38761E-03     87.5749E-03     622.092E-03    -309.957E-03    -312.776E-03    -309.181E-03     621.316E-03    -312.776E-03     53.1265E-03     653.687E-03     6.72356E+06    -1.52423E+06    -3.99194E+06    -9.07369E+06    -8.71994E+06    -2.21376E+06    -3.65616E+06     1.39639E+06
             405     87.6344E-03     3.65561E-03     87.5581E-03     622.755E-03    -310.341E-03    -314.006E-03    -309.945E-03     622.359E-03    -314.006E-03     37.7358E-03     646.277E-03     5.72291E+06    -3.19884E+06    -5.56204E+06    -9.69873E+06    -9.44452E+06    -3.45305E+06    -5.56204E+06     1.11701E+06
             406     87.6094E-03     2.92355E-03     87.5606E-03     624.497E-03    -311.434E-03    -314.643E-03    -311.260E-03     624.323E-03    -314.643E-03     24.8187E-03     640.971E-03     4.46013E+06    -5.45137E+06    -7.15730E+06    -10.4217E+06    -10.1281E+06    -5.74649E+06    -7.15576E+06     833.256E+03
             407     87.6009E-03     2.19237E-03     87.5734E-03     627.268E-03    -312.754E-03    -314.909E-03    -312.693E-03     627.207E-03    -314.909E-03     14.5048E-03     637.491E-03     4.42379E+06    -6.13808E+06    -7.44250E+06    -10.8802E+06    -10.1594E+06    -6.58076E+06    -7.72061E+06     674.301E+03
             408     87.6018E-03     1.46213E-03     87.5896E-03     628.883E-03    -314.011E-03    -314.922E-03    -313.994E-03     628.866E-03    -314.922E-03     7.33728E-03     633.898E-03     4.49756E+06    -6.33553E+06    -8.35465E+06    -11.2191E+06    -10.1294E+06    -7.14550E+06    -8.63431E+06     705.258E+03
             409     87.5996E-03     730.551E-06     87.5965E-03     629.446E-03    -314.241E-03    -314.881E-03    -314.515E-03     629.443E-03    -314.604E-03     2.68804E-03     631.226E-03     5.06112E+06    -7.02678E+06    -10.0478E+06    -12.7178E+06    -9.74650E+06    -9.47020E+06    -10.5757E+06     377.727E+03
             410     88.5144E-03     12.4603E-03     87.6329E-03     636.951E-03    -311.271E-03    -324.557E-03    -314.648E-03     627.042E-03    -311.271E-03     188.089E-03     749.626E-03     9.17749E+06     9.60540E+06     4.33224E+06    -683.473E+03    -38.5010E+03     3.68727E+06     9.60540E+06     119.947E+03
             411     88.0013E-03     11.7319E-03     87.2158E-03     635.049E-03    -311.520E-03    -323.163E-03    -312.609E-03     624.496E-03    -311.520E-03     196.064E-03     755.634E-03     10.2597E+06     10.0232E+06     6.26895E+06    -1.36661E+06    -653.546E+03     5.55588E+06     10.0232E+06     251.162E+03
             412     87.6586E-03     10.9989E-03     86.9658E-03     626.684E-03    -311.085E-03    -316.333E-03    -309.395E-03     619.746E-03    -311.085E-03     161.019E-03     724.344E-03     10.4470E+06     9.75868E+06     6.25585E+06    -1.73184E+06    -1.45544E+06     6.31577E+06     9.42236E+06    -16.9523E+03
             413     87.3114E-03     10.2496E-03     86.7078E-03     625.594E-03    -311.290E-03    -316.242E-03    -309.760E-03     619.112E-03    -311.290E-03     155.209E-03     715.209E-03     8.05162E+06     6.70309E+06     4.30377E+06    -2.22805E+06    -2.04734E+06     5.37038E+06     5.45577E+06     293.173E+03
             414     87.0366E-03     9.51873E-03     86.5145E-03     623.132E-03    -310.678E-03    -313.087E-03    -307.837E-03     617.988E-03    -310.785E-03     138.339E-03     699.049E-03     7.91514E+06     5.83414E+06     4.73722E+06    -2.52971E+06    -2.34449E+06     5.62667E+06     4.75947E+06     972.798E+03
             415     86.7888E-03     8.78556E-03     86.3430E-03     619.753E-03    -309.843E-03    -311.837E-03    -305.816E-03     615.282E-03    -311.392E-03     128.538E-03     688.712E-03     9.04875E+06     5.43789E+06     5.01882E+06    -3.80568E+06    -3.52828E+06     4.90509E+06     5.27422E+06     1.25597E+06
             416     86.5544E-03     8.05235E-03     86.1790E-03     617.713E-03    -308.995E-03    -311.431E-03    -305.243E-03     613.961E-03    -311.431E-03     117.582E-03     680.388E-03     8.78508E+06     4.01289E+06     3.37970E+06    -5.05514E+06    -4.79266E+06     3.51726E+06     3.61285E+06     1.40503E+06
             417     86.3597E-03     7.31833E-03     86.0491E-03     620.127E-03    -308.416E-03    -311.649E-03    -305.299E-03     617.010E-03    -311.649E-03     107.274E-03     675.222E-03     8.47078E+06     3.18816E+06     2.10419E+06    -5.75248E+06    -5.51635E+06     2.95203E+06     2.10419E+06     1.40767E+06
             418     86.1807E-03     6.58545E-03     85.9287E-03     621.531E-03    -308.840E-03    -312.373E-03    -306.353E-03     619.045E-03    -312.373E-03     95.8502E-03     673.331E-03     7.69967E+06     2.21370E+06     853.393E+03    -6.06860E+06    -5.79518E+06     1.67904E+06     1.11462E+06     1.33353E+06
             419     86.0286E-03     5.85135E-03     85.8294E-03     621.798E-03    -309.814E-03    -312.334E-03    -307.970E-03     619.954E-03    -312.334E-03     82.4589E-03     667.683E-03     6.96909E+06     1.89818E+06     297.332E+03    -5.72065E+06    -5.47010E+06     1.38640E+06     558.562E+03     969.351E+03
             420     85.8944E-03     5.11545E-03     85.7420E-03     622.725E-03    -310.685E-03    -312.525E-03    -309.442E-03     621.482E-03    -312.525E-03     67.5773E-03     660.968E-03     6.26602E+06     569.667E+03    -737.250E+03    -6.22341E+06    -6.08087E+06     44.6827E+03    -354.809E+03     643.359E+03
             421     85.8049E-03     4.38575E-03     85.6927E-03     623.172E-03    -310.958E-03    -312.998E-03    -310.213E-03     622.427E-03    -312.998E-03     52.1137E-03     654.785E-03     5.76171E+06    -970.039E+03    -2.10633E+06    -7.20015E+06    -7.10604E+06    -1.72855E+06    -1.44192E+06     634.795E+03
             422     85.7561E-03     3.65534E-03     85.6781E-03     623.461E-03    -311.224E-03    -314.066E-03    -310.843E-03     623.079E-03    -314.066E-03     36.9971E-03     646.845E-03     5.61568E+06    -1.65158E+06    -3.28773E+06    -7.89799E+06    -7.72396E+06    -2.62184E+06    -2.49150E+06     698.551E+03
             423     85.7323E-03     2.92408E-03     85.6825E-03     624.656E-03    -311.741E-03    -314.597E-03    -311.583E-03     624.498E-03    -314.597E-03     23.4780E-03     641.111E-03     4.93264E+06    -3.49482E+06    -4.63510E+06    -8.86554E+06    -8.72059E+06    -4.15557E+06    -4.11930E+06     378.661E+03
             424     85.7226E-03     2.19293E-03     85.6945E-03     627.287E-03    -312.695E-03    -314.782E-03    -312.643E-03     627.236E-03    -314.782E-03     13.2707E-03     637.474E-03     4.59941E+06    -5.10357E+06    -5.92900E+06    -9.96697E+06    -9.49549E+06    -5.23086E+06    -6.27319E+06     68.6864E+03
             425     85.7207E-03     1.46198E-03     85.7082E-03     628.758E-03    -313.915E-03    -314.798E-03    -313.901E-03     628.745E-03    -314.798E-03     6.73926E-03     633.783E-03     4.48176E+06    -6.48989E+06    -8.63140E+06    -11.3774E+06    -10.4567E+06    -7.06482E+06    -8.97714E+06     441.595E+03
             426     85.7257E-03     731.872E-06     85.7226E-03     629.201E-03    -314.141E-03    -314.667E-03    -314.415E-03     629.197E-03    -314.390E-03     3.15999E-03     631.005E-03     5.35954E+06    -7.40454E+06     -11.277E+06    -13.4825E+06    -10.9836E+06    -10.0621E+06    -11.1183E+06     84.9050E+03
             427     86.6527E-03     12.4629E-03     85.7517E-03     637.340E-03    -311.122E-03    -324.993E-03    -315.056E-03     627.402E-03    -311.122E-03     188.262E-03     749.904E-03     7.21993E+06     7.18700E+06     3.53074E+06    -1.10775E+06    -469.135E+03     3.75823E+06     6.32090E+06    -383.928E+03
             428     86.1356E-03     11.7303E-03     85.3331E-03     634.822E-03    -311.469E-03    -323.270E-03    -312.648E-03     624.201E-03    -311.469E-03     196.686E-03     755.448E-03     7.81400E+06     6.73388E+06     4.83694E+06    -1.75533E+06    -1.02112E+06     5.09656E+06     5.74005E+06    -210.757E+03
             429     85.7943E-03     11.0002E-03     85.0862E-03     625.408E-03    -311.068E-03    -315.286E-03    -308.353E-03     618.475E-03    -311.068E-03     160.781E-03     723.332E-03     8.63308E+06     7.45257E+06     5.01526E+06    -1.99646E+06    -1.48842E+06     5.55226E+06     6.40754E+06      71.188E+03
             430     85.4453E-03     10.2471E-03     84.8286E-03     623.620E-03    -311.100E-03    -314.174E-03    -307.669E-03     617.115E-03    -311.100E-03     155.224E-03     713.348E-03     8.15743E+06     6.10869E+06     3.48533E+06    -2.91489E+06    -2.58878E+06     4.63057E+06     4.63733E+06     124.771E+03
             431     85.1657E-03     9.51450E-03     84.6325E-03     623.104E-03    -310.972E-03    -312.572E-03    -307.319E-03     617.852E-03    -310.972E-03     139.767E-03     698.884E-03     8.00059E+06     4.69746E+06     3.96224E+06    -3.61112E+06    -3.03592E+06     4.12226E+06     3.96224E+06     1.30056E+06
             432     84.9112E-03     8.78337E-03     84.4557E-03     621.165E-03    -310.661E-03    -312.565E-03    -306.746E-03     616.540E-03    -311.855E-03     130.921E-03     690.310E-03     9.23607E+06     5.79803E+06     4.98725E+06    -3.78266E+06    -3.17497E+06     4.56073E+06     5.61686E+06     1.89486E+06
             433     84.6851E-03     8.05089E-03     84.3015E-03     618.561E-03    -309.570E-03    -311.668E-03    -305.722E-03     614.713E-03    -311.668E-03     119.098E-03     681.263E-03     9.56056E+06     6.36462E+06     4.68583E+06    -3.81201E+06    -3.63918E+06     4.53273E+06     6.34489E+06     955.535E+03
             434     84.4866E-03     7.31504E-03     84.1693E-03     621.400E-03    -309.026E-03    -312.036E-03    -305.933E-03     618.307E-03    -312.036E-03     106.922E-03     675.988E-03     7.99724E+06     4.66774E+06     2.95545E+06    -3.96850E+06    -3.84874E+06     3.34369E+06     4.15975E+06     717.468E+03
             435     84.2930E-03     6.58272E-03     84.0356E-03     623.004E-03    -309.570E-03    -312.689E-03    -307.175E-03     620.609E-03    -312.689E-03     94.1231E-03     674.510E-03     6.84684E+06     3.44907E+06     2.18807E+06    -3.93696E+06    -3.84279E+06     2.58217E+06     2.96082E+06     497.923E+03
             436     84.1437E-03     5.85174E-03     83.9400E-03     623.140E-03    -310.865E-03    -312.600E-03    -309.331E-03     621.390E-03    -312.384E-03     80.5088E-03     669.137E-03     6.82698E+06     2.53174E+06     874.619E+03    -4.94405E+06    -4.88805E+06     1.87786E+06     1.47251E+06     376.835E+03
             437     84.0088E-03     5.11884E-03     83.8527E-03     623.343E-03    -311.138E-03    -312.672E-03    -310.185E-03     622.174E-03    -312.456E-03     65.5420E-03     661.252E-03     6.30037E+06     595.969E+03    -934.818E+03    -6.29108E+06    -6.22483E+06     483.061E+03    -888.161E+03     467.278E+03
             438     83.9137E-03     4.38582E-03     83.7990E-03     623.195E-03    -310.795E-03    -312.908E-03    -310.114E-03     622.514E-03    -312.908E-03     49.8870E-03     654.374E-03     5.65414E+06    -582.930E+03    -1.88545E+06    -6.75179E+06    -6.67026E+06    -993.084E+03    -1.55683E+06     232.364E+03
             439     83.8652E-03     3.65518E-03     83.7855E-03     623.679E-03    -311.537E-03    -313.904E-03    -311.185E-03     623.327E-03    -313.904E-03     35.6009E-03     647.078E-03     5.75375E+06    -1.18014E+06    -3.67288E+06    -7.46435E+06    -7.39931E+06    -2.04140E+06    -2.87666E+06     17.3562E+03
             440     83.8431E-03     2.92485E-03     83.7920E-03     624.664E-03    -311.936E-03    -314.325E-03    -311.791E-03     624.519E-03    -314.325E-03     22.4788E-03     641.112E-03     4.93282E+06    -3.08381E+06    -5.72387E+06    -8.36118E+06    -8.28792E+06    -3.61877E+06    -5.26217E+06     99.5901E+03
             441     83.8368E-03     2.19395E-03     83.8081E-03     626.496E-03    -312.332E-03    -314.434E-03    -312.285E-03     626.449E-03    -314.434E-03     12.8755E-03     636.687E-03     4.14602E+06    -5.27952E+06    -7.24410E+06    -9.85539E+06    -9.15904E+06    -5.50878E+06    -7.71120E+06     513.700E+03
             442     83.8390E-03     1.46229E-03     83.8262E-03     627.816E-03    -313.434E-03    -314.530E-03    -313.420E-03     627.802E-03    -314.530E-03     6.74352E-03     632.905E-03     3.91615E+06    -6.37122E+06    -8.72842E+06    -10.7565E+06    -9.83940E+06    -6.87374E+06    -9.14297E+06    -177.514E+03
             443     83.8436E-03     730.540E-06     83.8404E-03     629.018E-03    -314.037E-03    -314.867E-03    -314.034E-03     629.014E-03    -314.867E-03     3.10609E-03     630.838E-03     4.09174E+06    -7.04683E+06    -10.2947E+06    -11.5379E+06    -10.5482E+06    -9.02852E+06    -9.30275E+06    -116.533E+03
             444     84.7917E-03     12.4610E-03     83.8710E-03     636.973E-03    -311.092E-03    -324.931E-03    -314.823E-03     626.865E-03    -311.092E-03     189.951E-03     749.453E-03     6.30350E+06     6.07993E+06     3.53890E+06    -985.561E+03    -544.727E+03     4.41365E+06     4.76435E+06     119.503E+03
             445     84.2690E-03     11.7327E-03     83.4483E-03     635.349E-03    -311.725E-03    -323.646E-03    -312.834E-03     624.537E-03    -311.725E-03     198.598E-03     756.047E-03     6.03228E+06     4.72027E+06     2.32240E+06    -2.01333E+06    -1.27325E+06     4.03386E+06     2.26873E+06     466.134E+03
             446     83.9237E-03     11.0003E-03     83.1996E-03     625.584E-03    -311.215E-03    -315.361E-03    -308.334E-03     618.557E-03    -311.215E-03     161.898E-03     723.580E-03     6.73382E+06     4.95914E+06     2.82905E+06    -2.46864E+06    -1.80006E+06     4.29057E+06     2.82905E+06     757.604E+03
             447     83.5775E-03     10.2471E-03     82.9469E-03     623.506E-03    -311.157E-03    -313.956E-03    -307.442E-03     616.993E-03    -311.157E-03     155.281E-03     713.250E-03     6.52191E+06     4.89117E+06     3.81595E+06    -1.98096E+06    -1.63691E+06     4.54711E+06     3.81595E+06     545.941E+03
             448     83.2877E-03     9.51343E-03     82.7426E-03     622.745E-03    -310.868E-03    -312.170E-03    -306.665E-03     617.597E-03    -311.225E-03     138.243E-03     698.481E-03     7.46910E+06     4.70717E+06     4.40677E+06    -2.90374E+06    -2.05152E+06     3.85495E+06     4.40677E+06     179.425E+03
             449     83.0306E-03     8.77819E-03     82.5652E-03     621.117E-03    -310.321E-03    -312.354E-03    -306.184E-03     616.714E-03    -312.088E-03     127.600E-03     689.861E-03     9.37602E+06     6.89527E+06     6.02085E+06    -2.85458E+06    -2.20896E+06     5.62081E+06     6.64969E+06    -35.4168E+03
             450     82.8002E-03     8.04502E-03     82.4084E-03     620.099E-03    -310.348E-03    -311.925E-03    -306.680E-03     616.430E-03    -311.925E-03     116.414E-03     682.654E-03     9.39390E+06     8.01205E+06     5.59830E+06    -2.24542E+06    -2.22314E+06     5.60227E+06     7.98579E+06    -55.9250E+03
             451     82.5974E-03     7.31687E-03     82.2727E-03     623.269E-03    -310.564E-03    -312.224E-03    -307.568E-03     620.273E-03    -312.224E-03     105.442E-03     678.091E-03     7.90506E+06     5.54124E+06     3.34248E+06    -3.15613E+06    -3.11123E+06     3.56283E+06     5.27599E+06     221.274E+03
             452     82.4121E-03     6.58457E-03     82.1487E-03     623.954E-03    -310.543E-03    -312.684E-03    -308.223E-03     621.634E-03    -312.684E-03     92.7378E-03     675.364E-03     7.14872E+06     2.97325E+06     1.98622E+06    -4.61631E+06    -4.56848E+06     2.20365E+06     2.70800E+06     425.240E+03
             453     82.2501E-03     5.85115E-03     82.0417E-03     623.337E-03    -311.213E-03    -312.552E-03    -309.757E-03     621.665E-03    -312.335E-03     78.6487E-03     669.196E-03     6.95424E+06     1.71082E+06     310.218E+03    -5.79753E+06    -5.73161E+06     1.09797E+06     857.144E+03     510.676E+03
             454     82.1225E-03     5.11817E-03     81.9628E-03     623.318E-03    -311.148E-03    -312.483E-03    -310.221E-03     622.175E-03    -312.267E-03     64.9746E-03     661.080E-03     6.71067E+06     1.38323E+06    -687.353E+03    -6.03857E+06    -5.94604E+06     1.29070E+06    -687.353E+03     675.855E+03
             455     82.0262E-03     4.38810E-03     81.9087E-03     623.027E-03    -310.741E-03    -312.664E-03    -310.043E-03     622.329E-03    -312.664E-03     50.4299E-03     654.174E-03     6.26406E+06    -73.1613E+03    -3.06097E+06    -7.09685E+06    -6.85680E+06    -313.207E+03    -3.06097E+06      703.95E+03
             456     81.9739E-03     3.65718E-03     81.8922E-03     622.927E-03    -310.987E-03    -313.673E-03    -310.633E-03     622.572E-03    -313.673E-03     35.7318E-03     646.371E-03     5.47893E+06    -1.63761E+06    -5.40244E+06    -7.67245E+06    -7.45134E+06    -1.85872E+06    -5.40244E+06     498.688E+03
             457     81.9515E-03     2.92608E-03     81.8992E-03     624.118E-03    -311.497E-03    -314.141E-03    -311.343E-03     623.964E-03    -314.141E-03     23.2726E-03     640.631E-03     4.33861E+06    -3.66891E+06    -6.90641E+06    -8.39830E+06    -8.27239E+06    -3.74227E+06    -6.95897E+06     380.539E+03
             458     81.9521E-03     2.19451E-03     81.9227E-03     626.512E-03    -312.543E-03    -314.277E-03    -312.569E-03     626.458E-03    -314.197E-03     13.5656E-03     636.888E-03     4.39912E+06    -5.03652E+06    -7.88274E+06    -9.81789E+06    -9.17211E+06    -5.62975E+06    -7.93529E+06     174.125E+03
             459     81.9556E-03     1.46265E-03     81.9425E-03     627.478E-03    -313.527E-03    -314.167E-03    -313.604E-03     627.465E-03    -314.076E-03     6.29307E-03     632.599E-03     4.19151E+06    -5.29042E+06    -8.46781E+06    -9.78334E+06    -8.80446E+06    -6.26931E+06    -8.46781E+06    -52.9377E+03
             460     81.9635E-03     731.549E-06     81.9602E-03     627.962E-03    -313.178E-03    -314.707E-03    -314.076E-03     627.960E-03    -313.808E-03     1.57693E-03     629.735E-03     4.18048E+06    -6.36494E+06    -9.23254E+06    -10.8549E+06    -9.18379E+06    -8.44393E+06    -8.82470E+06    -236.241E+03
             461     82.9190E-03     12.4610E-03     81.9773E-03     636.290E-03    -311.109E-03    -324.023E-03    -313.832E-03     626.099E-03    -311.109E-03     190.680E-03     748.406E-03     6.46075E+06     5.97693E+06     3.61536E+06    -1.13178E+06    -405.773E+03     3.94078E+06     4.92551E+06     668.457E+03
             462     82.3943E-03     11.7275E-03     81.5554E-03     635.233E-03    -311.990E-03    -323.270E-03    -312.379E-03     624.342E-03    -311.990E-03     199.306E-03     756.291E-03     6.27173E+06     5.14015E+06     2.78235E+06    -1.85922E+06    -906.014E+03     3.88879E+06     3.08050E+06     788.572E+03
             463     82.0476E-03     10.9960E-03     81.3074E-03     626.476E-03    -311.424E-03    -316.127E-03    -309.015E-03     619.365E-03    -311.424E-03     163.022E-03     724.664E-03     7.61123E+06     7.22661E+06     4.43646E+06    -1.30787E+06    -610.930E+03     4.82457E+06     6.14156E+06     480.594E+03
             464     81.6998E-03     10.2447E-03     81.0549E-03     625.427E-03    -311.353E-03    -315.788E-03    -309.266E-03     618.905E-03    -311.353E-03     155.609E-03     715.275E-03     7.26396E+06     7.60919E+06     5.34999E+06    -379.806E+03    -103.634E+03     5.20769E+06     7.47531E+06     214.524E+03
             465     81.4095E-03     9.51464E-03     80.8515E-03     623.837E-03    -311.011E-03    -313.194E-03    -307.786E-03     618.785E-03    -311.368E-03     137.103E-03     699.735E-03     6.75901E+06     5.89905E+06     4.19790E+06    -1.44689E+06    -837.173E+03     4.51729E+06     4.96995E+06    -245.384E+03
             466     81.1512E-03     8.78243E-03     80.6746E-03     620.598E-03    -310.000E-03    -312.057E-03    -305.908E-03     616.317E-03    -311.868E-03     125.803E-03     689.046E-03      8.5276E+06     6.75065E+06     5.73786E+06    -2.17416E+06    -1.80909E+06     6.27109E+06     5.85234E+06    -401.103E+03
             467     80.9151E-03     8.05059E-03     80.5136E-03     619.397E-03    -309.942E-03    -311.663E-03    -306.391E-03     615.845E-03    -311.663E-03     114.514E-03     681.725E-03     8.87541E+06     6.05212E+06     4.95843E+06    -3.24014E+06    -3.16595E+06     5.13425E+06     5.80212E+06     271.108E+03
             468     80.7114E-03     7.31529E-03     80.3793E-03     623.043E-03    -310.875E-03    -312.043E-03    -307.967E-03     620.135E-03    -312.043E-03     103.898E-03     678.002E-03     7.42416E+06     3.72757E+06     2.13685E+06    -4.28826E+06    -4.19093E+06     2.90103E+06     2.86605E+06     426.647E+03
             469     80.5179E-03     6.58628E-03     80.2481E-03     623.932E-03    -311.015E-03    -312.545E-03    -308.704E-03     621.620E-03    -312.545E-03     92.6407E-03     675.645E-03     6.45874E+06     2.17970E+06     818.420E+03    -4.81865E+06    -4.74820E+06     1.89899E+06     1.02869E+06     480.573E+03
             470     80.3670E-03     5.85635E-03     80.1533E-03     622.557E-03    -311.057E-03    -312.141E-03    -309.394E-03     620.856E-03    -312.103E-03     79.2237E-03     668.497E-03     6.44080E+06     1.90602E+06     134.418E+03    -5.11361E+06    -5.07524E+06     1.65738E+06     344.684E+03     420.634E+03
             471     80.2347E-03     5.11932E-03     80.0712E-03     622.635E-03    -310.992E-03    -312.156E-03    -309.881E-03     621.486E-03    -312.119E-03     65.0655E-03     660.532E-03     6.03267E+06     1.30209E+06    -1.15480E+06    -5.43464E+06    -5.38025E+06     1.24770E+06    -1.15480E+06     488.106E+03
             472     80.1338E-03     4.38787E-03     80.0135E-03     622.393E-03    -310.371E-03    -312.559E-03    -309.661E-03     621.683E-03    -312.559E-03     50.9508E-03     653.904E-03     5.44042E+06     247.010E+03    -2.72019E+06    -5.90603E+06    -5.67103E+06    -324.504E+03    -2.38368E+06     790.281E+03
             473     80.0867E-03     3.65735E-03     80.0032E-03     622.520E-03    -310.473E-03    -313.670E-03    -310.100E-03     622.146E-03    -313.670E-03     36.6538E-03     646.016E-03     5.19202E+06    -1.40065E+06    -3.85789E+06    -7.09108E+06    -6.80735E+06    -2.02089E+06    -3.52138E+06     890.012E+03
             474     80.0653E-03     2.92424E-03     80.0119E-03     624.172E-03    -311.382E-03    -314.153E-03    -311.220E-03     624.010E-03    -314.153E-03     23.8896E-03     640.623E-03     4.50598E+06    -2.92470E+06    -4.97546E+06    -7.89569E+06    -7.74254E+06    -3.07785E+06    -4.97546E+06     828.822E+03
             475     80.0629E-03     2.19382E-03     80.0329E-03     626.921E-03    -312.911E-03    -314.148E-03    -312.937E-03     626.866E-03    -314.068E-03     13.3942E-03     637.321E-03     4.38524E+06    -3.26937E+06    -6.28473E+06    -8.12370E+06    -7.51781E+06    -3.87525E+06    -6.28473E+06     321.791E+03
             476     80.0740E-03     1.46435E-03     80.0606E-03     627.483E-03    -313.612E-03    -313.897E-03    -313.691E-03     627.471E-03    -313.806E-03     6.25400E-03     632.692E-03     3.98908E+06    -4.97333E+06    -8.20700E+06    -9.31014E+06    -8.58982E+06    -5.69364E+06    -8.20700E+06     352.783E+03
             477     80.0875E-03     732.313E-06     80.0841E-03     627.173E-03    -312.556E-03    -314.454E-03    -314.304E-03     627.169E-03    -312.703E-03     3.01525E-03     629.014E-03     3.48854E+06    -7.92188E+06    -9.99050E+06    -11.7658E+06    -10.7877E+06    -9.30773E+06    -9.58266E+06    -30.0258E+03
             478     81.0472E-03     12.4581E-03     80.0840E-03     636.084E-03    -311.300E-03    -323.460E-03    -313.334E-03     625.958E-03    -311.300E-03     189.874E-03     748.187E-03     6.80085E+06     6.44112E+06     3.26981E+06    -1.22325E+06    -145.288E+03     2.79379E+06     5.83918E+06     405.829E+03
             479     80.5180E-03     11.7272E-03     79.6594E-03     635.150E-03    -312.010E-03    -322.829E-03    -312.049E-03     624.370E-03    -312.010E-03     198.027E-03     756.002E-03     7.39032E+06     7.26024E+06     5.21340E+06    -773.360E+03     197.488E+03     4.84450E+06      6.6583E+06    -67.8645E+03
             480     80.1745E-03     10.9958E-03     79.4169E-03     627.805E-03    -311.574E-03    -316.716E-03    -309.753E-03     620.842E-03    -311.574E-03     161.489E-03     725.222E-03     7.67591E+06     7.96568E+06     6.16142E+06    -321.060E+03     84.0855E+03     5.75628E+06     7.96568E+06    -270.523E+03
             481     79.8154E-03     10.2447E-03     79.1552E-03     626.280E-03    -311.393E-03    -316.330E-03    -309.933E-03     619.883E-03    -311.393E-03     154.238E-03     715.838E-03     7.52713E+06     7.32204E+06     4.21314E+06    -1.13372E+06    -993.782E+03     5.00640E+06     6.38884E+06    -222.267E+03
             482     79.5295E-03     9.51479E-03     78.9583E-03     624.760E-03    -311.223E-03    -313.887E-03    -308.821E-03     619.694E-03    -311.223E-03     137.499E-03     700.502E-03     6.94001E+06     6.02671E+06     3.45973E+06    -1.71178E+06    -1.53513E+06     4.88650E+06     4.42328E+06     313.537E+03
             483     79.2679E-03     8.78230E-03     78.7799E-03     621.150E-03    -310.692E-03    -312.423E-03    -307.083E-03     616.748E-03    -311.630E-03     127.717E-03     689.705E-03     8.32879E+06     6.31282E+06     4.96372E+06    -2.55951E+06    -2.45619E+06     5.53062E+06     5.64260E+06     853.558E+03
             484     79.0324E-03     8.04917E-03     78.6215E-03     618.996E-03    -310.207E-03    -311.324E-03    -306.574E-03     615.363E-03    -311.324E-03     115.804E-03     681.181E-03     8.98640E+06     5.56242E+06     4.80497E+06    -3.76962E+06    -3.68060E+06     4.93969E+06     5.33867E+06     622.572E+03
             485     78.8248E-03     7.32059E-03     78.4841E-03     621.994E-03    -310.028E-03    -311.733E-03    -307.085E-03     619.050E-03    -311.733E-03     104.409E-03     676.417E-03     7.06984E+06     3.33526E+06     2.14377E+06    -4.19042E+06    -4.11348E+06     3.21198E+06     2.19010E+06     294.836E+03
             486     78.6363E-03     6.58792E-03     78.3599E-03     622.960E-03    -310.077E-03    -312.476E-03    -307.728E-03     620.612E-03    -312.476E-03     93.3243E-03     674.761E-03     5.63037E+06     1.99828E+06    -490.586E+03    -4.23774E+06    -4.15696E+06     1.91750E+06    -490.586E+03     31.2704E+03
             487     78.4837E-03     5.85254E-03     78.2651E-03     622.748E-03    -311.151E-03    -312.121E-03    -309.427E-03     620.987E-03    -312.083E-03     80.7114E-03     668.642E-03     5.72666E+06     1.92038E+06    -1.34069E+06    -4.48627E+06    -4.39245E+06     1.82656E+06    -1.34069E+06     305.555E+03
             488     78.3506E-03     5.12045E-03     78.1831E-03     622.829E-03    -311.492E-03    -312.108E-03    -310.350E-03     621.650E-03    -312.070E-03     65.8759E-03     660.973E-03     5.10978E+06     908.728E+03    -1.59739E+06    -4.88630E+06    -4.82851E+06     850.934E+03    -1.59739E+06     551.581E+03
             489     78.2562E-03     4.38864E-03     78.1331E-03     621.967E-03    -310.366E-03    -312.464E-03    -309.673E-03     621.275E-03    -312.464E-03     50.1731E-03     653.811E-03     5.33965E+06     155.272E+03    -1.77805E+06    -5.84926E+06    -5.66684E+06    -363.661E+03    -1.44154E+06     658.169E+03
             490     78.2043E-03     3.65541E-03     78.1188E-03     622.527E-03    -310.521E-03    -313.578E-03    -310.175E-03     622.181E-03    -313.578E-03     35.2040E-03     645.996E-03     4.80191E+06    -1.00621E+06    -2.52226E+06    -6.30970E+06    -6.07094E+06    -1.58149E+06    -2.18575E+06     793.297E+03
             491     78.1817E-03     2.92623E-03     78.1269E-03     624.062E-03    -311.335E-03    -314.044E-03    -311.187E-03     623.914E-03    -314.044E-03     22.9232E-03     640.450E-03     3.67422E+06    -2.06855E+06    -3.34906E+06    -6.04935E+06    -5.95101E+06    -2.16688E+06    -3.34906E+06     563.038E+03
             492     78.1805E-03     2.19488E-03     78.1497E-03     625.974E-03    -312.080E-03    -314.146E-03    -312.026E-03     625.921E-03    -314.146E-03     13.4223E-03     636.430E-03     3.75943E+06    -3.30288E+06    -5.52556E+06    -7.52511E+06    -7.28650E+06    -3.54149E+06    -5.52556E+06     551.282E+03
             493     78.1993E-03     1.46265E-03     78.1856E-03     627.302E-03    -312.961E-03    -314.487E-03    -312.944E-03     627.285E-03    -314.487E-03     7.74367E-03     632.648E-03     3.83289E+06    -4.14044E+06    -7.12987E+06    -8.38565E+06    -7.81949E+06    -4.70660E+06    -7.12987E+06     927.047E+03
             494     78.2165E-03     731.187E-06     78.2131E-03     629.132E-03    -313.644E-03    -315.365E-03    -314.487E-03     629.124E-03    -314.514E-03     5.34413E-03     631.009E-03     3.32833E+06    -5.14862E+06    -7.83278E+06    -8.83394E+06    -6.97011E+06    -6.49690E+06    -8.34831E+06     752.754E+03
             495     79.1830E-03     12.4608E-03     78.1964E-03     636.562E-03    -311.456E-03    -324.157E-03    -314.108E-03     626.513E-03    -311.456E-03     189.264E-03     749.140E-03     7.41569E+06     6.54669E+06     3.97284E+06    -1.62690E+06    -293.078E+03     2.79912E+06     6.38659E+06    -413.150E+03
             496     78.6523E-03     11.7266E-03     77.7732E-03     635.428E-03    -311.703E-03    -323.055E-03    -312.361E-03     624.734E-03    -311.703E-03     197.301E-03     756.021E-03     7.89244E+06     6.99869E+06     5.45691E+06    -1.35496E+06    -515.737E+03     5.06639E+06     6.54998E+06    -702.981E+03
             497     78.2983E-03     10.9971E-03     77.5222E-03     627.479E-03    -311.271E-03    -316.337E-03    -309.435E-03     620.577E-03    -311.271E-03     160.718E-03     724.396E-03     7.25138E+06     5.75012E+06     4.40183E+06    -1.99018E+06    -1.60234E+06     5.26312E+06     4.50099E+06    -368.348E+03
             498     77.9468E-03     10.2449E-03     77.2706E-03     625.616E-03    -311.371E-03    -315.792E-03    -309.458E-03     619.282E-03    -311.371E-03     153.378E-03     714.918E-03     6.36021E+06     4.56306E+06     1.96442E+06    -2.54037E+06    -2.41828E+06     4.39060E+06     2.01479E+06     437.565E+03
             499     77.6507E-03     9.51308E-03     77.0658E-03     624.139E-03    -310.995E-03    -313.610E-03    -308.596E-03     619.125E-03    -310.995E-03     136.723E-03     699.910E-03     6.77442E+06     4.47106E+06     2.12199E+06    -3.01659E+06    -2.90138E+06     4.16434E+06     2.31349E+06     322.271E+03
             500     77.3914E-03     8.78190E-03     76.8915E-03     621.443E-03    -310.693E-03    -312.355E-03    -307.310E-03     617.069E-03    -311.364E-03     127.352E-03     689.869E-03     8.21588E+06     5.64546E+06     4.29550E+06    -3.14630E+06    -3.04494E+06     4.97970E+06     4.85990E+06    -122.644E+03
             501     77.1542E-03     8.05371E-03     76.7327E-03     619.254E-03    -310.136E-03    -311.225E-03    -306.424E-03     615.543E-03    -311.225E-03     117.130E-03     681.224E-03     8.41750E+06     6.00291E+06     5.13767E+06    -2.80538E+06    -2.70884E+06     5.48715E+06     5.55689E+06     108.952E+03
             502     76.9449E-03     7.31818E-03     76.5961E-03     621.753E-03    -309.598E-03    -311.730E-03    -306.530E-03     618.684E-03    -311.730E-03     106.544E-03     676.372E-03     6.87012E+06     4.01263E+06     3.13088E+06    -3.22114E+06    -3.16298E+06     3.85189E+06     3.23346E+06     186.752E+03
             503     76.7570E-03     6.58578E-03     76.4739E-03     623.838E-03    -310.587E-03    -312.679E-03    -308.239E-03     621.467E-03    -312.655E-03     93.7815E-03     675.387E-03     5.34949E+06     1.63321E+06    -70.2687E+03    -4.04433E+06    -3.92496E+06     1.41347E+06     30.1138E+03     114.957E+03
             504     76.5992E-03     5.85597E-03     76.3750E-03     623.226E-03    -311.315E-03    -312.247E-03    -309.608E-03     621.495E-03    -312.223E-03     80.0538E-03     669.023E-03     5.72346E+06     1.63366E+06    -903.823E+03    -4.60195E+06    -4.47198E+06     1.45956E+06    -859.692E+03     420.949E+03
             505     76.4678E-03     5.11929E-03     76.2962E-03     622.770E-03    -311.303E-03    -312.084E-03    -310.124E-03     621.591E-03    -312.084E-03     65.9320E-03     661.207E-03     5.38136E+06     685.717E+03    -1.89622E+06    -5.40725E+06    -5.31273E+06     591.197E+03    -1.89622E+06     695.135E+03
             506     76.3739E-03     4.38901E-03     76.2477E-03     622.624E-03    -311.035E-03    -312.411E-03    -310.321E-03     621.909E-03    -312.411E-03     51.0104E-03     654.523E-03     5.59282E+06     272.669E+03    -3.00626E+06    -5.87999E+06    -5.51658E+06    -90.7375E+03    -3.00626E+06     437.143E+03
             507     76.3223E-03     3.65990E-03     76.2345E-03     622.510E-03    -310.615E-03    -313.419E-03    -310.241E-03     622.136E-03    -313.419E-03     36.6310E-03     646.023E-03     4.96309E+06    -29.6348E+03    -3.25185E+06    -5.55141E+06    -5.23591E+06     -345.13E+03    -3.25185E+06     196.127E+03
             508     76.2979E-03     2.92617E-03     76.2418E-03     623.183E-03    -310.655E-03    -313.973E-03    -310.488E-03     623.016E-03    -313.973E-03     24.1015E-03     639.738E-03     3.54792E+06    -1.86333E+06    -3.83082E+06    -5.83903E+06    -5.79609E+06    -1.90627E+06    -3.83082E+06     339.465E+03
             509     76.3035E-03     2.19360E-03     76.2720E-03     625.690E-03    -311.760E-03    -314.282E-03    -311.706E-03     625.636E-03    -314.282E-03     13.2992E-03     636.210E-03     3.03164E+06    -3.65117E+06    -5.49286E+06    -6.99574E+06    -6.92929E+06    -3.71762E+06    -5.49286E+06     155.011E+03
             510     76.3232E-03     1.46021E-03     76.3092E-03     627.754E-03    -313.190E-03    -314.711E-03    -313.292E-03     627.740E-03    -314.594E-03     5.63138E-03     632.985E-03     3.58671E+06    -3.70453E+06    -6.39238E+06    -7.71946E+06    -6.99395E+06    -4.43004E+06    -6.39238E+06    -53.7146E+03
             511     76.3344E-03     729.120E-06     76.3309E-03     629.185E-03    -314.002E-03    -315.132E-03    -314.403E-03     629.178E-03    -314.725E-03     1.57590E-03     630.995E-03     4.68005E+06    -1.74244E+06    -4.23717E+06    -6.84872E+06    -4.23881E+06    -3.86241E+06    -4.72710E+06     654.474E+03
             512     77.3169E-03     12.4587E-03     76.3065E-03     637.304E-03    -311.329E-03    -325.046E-03    -315.115E-03     627.374E-03    -311.329E-03     188.394E-03     750.112E-03     6.97706E+06     5.21016E+06     3.87097E+06    -2.27078E+06    -337.609E+03     3.24287E+06     3.90509E+06    -62.8404E+03
             513     76.7874E-03     11.7299E-03     75.8862E-03     635.525E-03    -311.596E-03    -323.142E-03    -312.526E-03     624.909E-03    -311.596E-03     196.830E-03     756.152E-03     7.40217E+06     5.14469E+06     3.92178E+06    -2.76745E+06    -1.21387E+06     4.40416E+06     3.10872E+06    -52.9626E+03
             514     76.4318E-03     10.9981E-03     75.6363E-03     626.142E-03    -310.984E-03    -315.391E-03    -308.450E-03     619.201E-03    -310.984E-03     160.970E-03     723.375E-03     7.31728E+06     5.77970E+06     3.98300E+06    -2.21603E+06    -1.77263E+06     5.23104E+06     4.08826E+06    -88.1389E+03
             515     76.0741E-03     10.2447E-03     75.3812E-03     625.519E-03    -311.341E-03    -315.970E-03    -309.605E-03     619.154E-03    -311.341E-03     153.738E-03     714.717E-03     6.37966E+06     4.79514E+06     1.98426E+06    -2.34854E+06    -2.23099E+06     4.57233E+06     2.08952E+06     502.155E+03
             516     75.7785E-03     9.51547E-03     75.1787E-03     623.828E-03    -310.919E-03    -313.470E-03    -308.461E-03     618.820E-03    -310.919E-03     136.616E-03     699.568E-03     6.09950E+06     4.52210E+06     1.96203E+06    -2.30327E+06    -2.16547E+06     4.38430E+06     1.96203E+06    -24.0005E+03
             517     75.5127E-03     8.78298E-03     75.0002E-03     620.402E-03    -310.141E-03    -311.803E-03    -306.266E-03     616.015E-03    -311.291E-03     127.414E-03     689.175E-03     7.28016E+06     5.78004E+06     4.24784E+06    -2.13430E+06    -2.01462E+06     5.66036E+06     4.24784E+06    -488.435E+03
             518     75.2807E-03     8.04908E-03     74.8491E-03     618.761E-03    -309.746E-03    -311.290E-03    -306.102E-03     615.060E-03    -311.232E-03     116.870E-03     681.318E-03     7.68166E+06     5.16066E+06     3.81416E+06    -3.09070E+06    -2.92636E+06     4.99632E+06     3.81416E+06    -132.448E+03
             519     75.0696E-03     7.31780E-03     74.7121E-03     621.989E-03    -309.900E-03    -311.872E-03    -306.923E-03     618.955E-03    -311.814E-03     105.993E-03     677.024E-03     6.20522E+06     3.18661E+06     1.61874E+06    -3.55517E+06    -3.43855E+06     3.01374E+06     1.67499E+06    -184.769E+03
             520     74.8722E-03     6.58769E-03     74.5818E-03     624.051E-03    -310.685E-03    -312.758E-03    -308.321E-03     621.664E-03    -312.734E-03     94.1329E-03     675.408E-03     4.86392E+06     1.27877E+06    -40.5605E+03    -3.99054E+06    -3.91981E+06     1.10765E+06     59.8220E+03     197.331E+03
             521     74.7190E-03     5.85451E-03     74.4893E-03     623.048E-03    -311.036E-03    -312.293E-03    -309.286E-03     621.274E-03    -312.270E-03     81.0440E-03     668.982E-03     5.10961E+06     803.054E+03    -277.469E+03    -4.69664E+06    -4.61766E+06     679.942E+03    -233.339E+03     549.503E+03
             522     74.5906E-03     5.11956E-03     74.4147E-03     622.537E-03    -310.592E-03    -312.211E-03    -309.357E-03     621.302E-03    -312.211E-03     67.5039E-03     660.744E-03     5.31854E+06     1.28238E+06    -1.16129E+06    -4.70539E+06    -4.55428E+06     1.13128E+06    -1.16129E+06     219.470E+03
             523     74.4908E-03     4.38741E-03     74.3615E-03     622.635E-03    -310.353E-03    -312.697E-03    -309.578E-03     621.860E-03    -312.697E-03     53.2411E-03     654.075E-03     5.65789E+06     1.08851E+06    -2.35829E+06    -5.14533E+06    -4.74576E+06     688.935E+03    -2.35829E+06     -52.272E+03
             524     74.4434E-03     3.65546E-03     74.3536E-03     623.194E-03    -310.801E-03    -313.771E-03    -310.376E-03     622.770E-03    -313.771E-03     39.2765E-03     646.723E-03     5.32212E+06    -50.7163E+03    -3.58100E+06    -5.76415E+06    -5.41171E+06    -336.759E+03    -3.64740E+06     141.248E+03
             525     74.4189E-03     2.92561E-03     74.3613E-03     624.347E-03    -311.553E-03    -314.258E-03    -311.364E-03     624.157E-03    -314.258E-03     25.6933E-03     640.898E-03     3.92100E+06    -1.84592E+06    -4.81994E+06    -6.16173E+06    -6.05635E+06    -1.88490E+06    -4.88634E+06     297.026E+03
             526     74.4269E-03     2.19374E-03     74.3945E-03     626.961E-03    -312.943E-03    -314.293E-03    -312.884E-03     626.903E-03    -314.293E-03     13.8616E-03     637.234E-03     3.05682E+06    -2.61014E+06    -4.83615E+06    -6.03487E+06    -5.83596E+06    -2.80905E+06    -4.83615E+06    -147.917E+03
             527     74.4402E-03     1.46561E-03     74.4258E-03     627.939E-03    -313.770E-03    -314.147E-03    -314.001E-03     627.922E-03    -313.899E-03     6.09983E-03     633.017E-03     3.22467E+06    -3.01434E+06    -5.27874E+06    -6.68090E+06    -6.14131E+06    -3.55392E+06    -5.27874E+06    -719.894E+03
             528     74.4621E-03     735.047E-06     74.4585E-03     627.129E-03    -313.196E-03    -313.919E-03    -313.723E-03     627.117E-03    -313.380E-03     2.84789E-03     628.956E-03     4.56779E+06    -4.18944E+06    -5.74495E+06    -9.15083E+06    -7.22266E+06    -6.14322E+06    -5.71935E+06    -573.732E+03
             529     75.4505E-03     12.4621E-03     74.4142E-03     638.092E-03    -311.346E-03    -325.512E-03    -315.567E-03     628.147E-03    -311.346E-03     188.593E-03     750.994E-03     5.17861E+06     3.99582E+06     2.06901E+06    -1.73801E+06    -521.427E+03     2.97932E+06     1.86893E+06     248.169E+03
             530     74.9241E-03     11.7285E-03     74.0005E-03     636.091E-03    -311.738E-03    -323.432E-03    -312.829E-03     625.488E-03    -311.738E-03     196.674E-03     756.871E-03     6.00175E+06     4.87289E+06     3.09037E+06    -1.75380E+06    -521.746E+03     4.45389E+06     2.27732E+06     559.549E+03
             531     74.5667E-03     10.9974E-03     73.7512E-03     626.943E-03    -311.310E-03    -315.830E-03    -308.943E-03     620.056E-03    -311.310E-03     160.441E-03     724.359E-03     5.62210E+06     5.64205E+06     4.47311E+06    -401.555E+03    -286.622E+03     5.42185E+06     4.57838E+06     481.669E+03
             532     74.2037E-03     10.2456E-03     73.4930E-03     625.386E-03    -311.333E-03    -315.846E-03    -309.438E-03     618.978E-03    -311.333E-03     154.335E-03     714.368E-03     5.47831E+06     5.06939E+06     3.08200E+06    -955.040E+03    -889.823E+03     4.89891E+06     3.18727E+06    -78.4227E+03
             533     73.9028E-03     9.51548E-03     73.2876E-03     623.769E-03    -310.918E-03    -313.205E-03    -308.102E-03     618.666E-03    -310.918E-03     137.852E-03     699.038E-03     5.93221E+06     5.20309E+06     2.63842E+06    -1.41888E+06    -1.32968E+06     5.11388E+06     2.63842E+06    -74.9234E+03
             534     73.6427E-03     8.78237E-03     73.1171E-03     620.780E-03    -310.360E-03    -312.162E-03    -306.450E-03     616.376E-03    -311.669E-03     127.675E-03     689.899E-03     6.72034E+06     5.30978E+06     3.15459E+06    -2.13335E+06    -2.06006E+06     4.86033E+06     3.53075E+06     205.576E+03
             535     73.4004E-03     8.05078E-03     72.9575E-03     619.140E-03    -310.066E-03    -311.675E-03    -306.447E-03     615.463E-03    -311.618E-03     116.539E-03     681.986E-03     7.00441E+06     5.02699E+06     2.97138E+06    -2.75557E+06    -2.62567E+06     4.52092E+06     3.34755E+06     146.824E+03
             536     73.1888E-03     7.31894E-03     72.8219E-03     622.533E-03    -310.085E-03    -312.307E-03    -307.069E-03     619.460E-03    -312.250E-03     106.776E-03     677.464E-03     6.28252E+06     3.47859E+06     927.121E+03    -3.64312E+06    -3.24980E+06     3.08527E+06     927.121E+03     526.469E+03
             537     72.9984E-03     6.58535E-03     72.7007E-03     623.290E-03    -309.948E-03    -312.947E-03    -307.463E-03     620.805E-03    -312.947E-03     95.9868E-03     674.714E-03     5.24409E+06     1.61640E+06    -974.743E+03    -4.39503E+06    -4.10322E+06     1.32460E+06    -974.743E+03     696.025E+03
             538     72.8403E-03     5.85288E-03     72.6048E-03     623.053E-03    -310.679E-03    -312.610E-03    -308.818E-03     621.192E-03    -312.610E-03     82.9875E-03     668.838E-03     4.73183E+06     1.29823E+06    -1.15225E+06    -3.95465E+06    -3.77134E+06     1.11492E+06    -1.15225E+06    -239.390E+03
             539     72.7097E-03     5.11744E-03     72.5294E-03     623.210E-03    -310.810E-03    -312.606E-03    -309.523E-03     621.923E-03    -312.606E-03     68.9287E-03     661.441E-03     5.25894E+06     1.79137E+06    -1.16921E+06    -4.08022E+06    -3.74079E+06     1.45194E+06    -1.16921E+06    -269.191E+03
             540     72.6168E-03     4.38456E-03     72.4843E-03     623.231E-03    -310.560E-03    -313.110E-03    -309.784E-03     622.454E-03    -313.110E-03     53.1137E-03     654.652E-03     5.29890E+06     1.02972E+06    -1.63148E+06    -4.99014E+06    -4.56026E+06     599.845E+03    -1.63148E+06     113.688E+03
             541     72.5607E-03     3.65347E-03     72.4686E-03     624.022E-03    -311.397E-03    -314.180E-03    -311.013E-03     623.638E-03    -314.180E-03     37.1186E-03     647.417E-03     4.71204E+06    -734.280E+03    -2.78415E+06    -5.77557E+06    -5.42860E+06    -1.01485E+06    -2.85055E+06     157.191E+03
             542     72.5383E-03     2.92239E-03     72.4794E-03     625.362E-03    -312.356E-03    -314.598E-03    -312.189E-03     625.196E-03    -314.598E-03     24.3552E-03     641.814E-03     4.23234E+06    -1.14871E+06    -3.88185E+06    -5.57967E+06    -5.40880E+06    -1.21251E+06    -3.98892E+06     341.357E+03
             543     72.5451E-03     2.19415E-03     72.5119E-03     627.260E-03    -312.861E-03    -314.753E-03    -312.794E-03     627.193E-03    -314.753E-03     15.3817E-03     637.448E-03     3.79889E+06    -2.22220E+06    -5.45501E+06    -6.31865E+06    -5.86949E+06    -2.52911E+06    -5.59726E+06     150.017E+03
             544     72.5679E-03     1.46141E-03     72.5532E-03     628.425E-03    -313.593E-03    -314.908E-03    -313.700E-03     628.400E-03    -314.776E-03     9.13309E-03     633.495E-03     3.23369E+06    -3.15287E+06    -5.74972E+06    -6.73042E+06    -5.79383E+06    -3.58003E+06    -6.25914E+06    -198.810E+03
             545     72.5897E-03     729.004E-06     72.5860E-03     629.195E-03    -314.014E-03    -315.164E-03    -314.609E-03     629.184E-03    -314.557E-03     4.84568E-03     630.978E-03     4.10027E+06    -4.81244E+06    -6.15568E+06    -9.26143E+06    -7.16965E+06    -6.49637E+06    -6.56352E+06    -332.629E+03
             546     73.5925E-03     12.4592E-03     72.5302E-03     638.469E-03    -311.565E-03    -325.644E-03    -315.611E-03     628.436E-03    -311.565E-03     189.360E-03     751.249E-03     5.51292E+06     5.56261E+06     2.36246E+06    -759.562E+03    -203.768E+03     2.78858E+06     4.58069E+06     303.341E+03
             547     73.0565E-03     11.7302E-03     72.1087E-03     636.626E-03    -311.715E-03    -324.081E-03    -313.409E-03     625.954E-03    -311.715E-03     197.275E-03     757.435E-03     6.19756E+06     6.13910E+06     4.43365E+06    -573.156E+03    -77.3965E+03     5.09386E+06     4.98314E+06     453.570E+03
             548     72.7028E-03     11.0002E-03     71.8658E-03     627.452E-03    -311.269E-03    -316.437E-03    -309.491E-03     620.506E-03    -311.269E-03     161.175E-03     724.881E-03     5.34244E+06     5.11908E+06     4.01297E+06    -596.283E+03    -523.975E+03     5.04677E+06     4.01297E+06     632.409E+03
             549     72.3379E-03     10.2467E-03     71.6085E-03     623.944E-03    -310.949E-03    -314.830E-03    -308.322E-03     617.436E-03    -310.949E-03     155.290E-03     713.043E-03     5.20707E+06     4.86432E+06     3.08256E+06    -962.370E+03    -907.683E+03     4.80963E+06     3.08256E+06     131.417E+03
             550     72.0381E-03     9.51312E-03     71.4072E-03     622.108E-03    -310.504E-03    -311.981E-03    -306.750E-03     616.960E-03    -310.587E-03     138.240E-03     697.437E-03      6.0653E+06     5.24591E+06     2.99176E+06    -1.54827E+06    -1.46904E+06     5.16668E+06     2.99176E+06     287.254E+03
             551     71.7705E-03     8.78158E-03     71.2312E-03     620.802E-03    -310.262E-03    -312.105E-03    -306.162E-03     616.334E-03    -311.737E-03     128.605E-03     689.761E-03     6.37425E+06     4.91575E+06     2.38106E+06    -2.27591E+06    -2.19267E+06     4.45635E+06     2.75722E+06     663.865E+03
             552     71.5345E-03     8.04925E-03     71.0802E-03     618.808E-03    -309.566E-03    -311.706E-03    -305.763E-03     615.005E-03    -311.706E-03     118.493E-03     681.509E-03     6.67935E+06     4.97906E+06     2.79624E+06    -2.49375E+06    -2.42295E+06     4.53209E+06     3.17241E+06     579.822E+03
             553     71.3163E-03     7.31491E-03     70.9402E-03     622.140E-03    -309.697E-03    -312.414E-03    -306.529E-03     618.973E-03    -312.414E-03     108.297E-03     677.178E-03     5.72351E+06     3.41334E+06     1.05792E+06    -3.04444E+06    -2.68593E+06     3.05484E+06     1.05792E+06     663.404E+03
             554     71.1269E-03     6.58323E-03     70.8216E-03     622.761E-03    -309.580E-03    -312.832E-03    -307.095E-03     620.277E-03    -312.832E-03     95.8993E-03     674.384E-03     5.34459E+06     3.14090E+06     489.884E+03    -2.96382E+06    -2.62875E+06     2.80583E+06     489.884E+03     370.121E+03
             555     70.9647E-03     5.84902E-03     70.7232E-03     622.746E-03    -310.438E-03    -312.549E-03    -308.616E-03     620.924E-03    -312.549E-03     82.0083E-03     668.465E-03     5.82145E+06     2.88255E+06    -551.807E+03    -3.73172E+06    -3.40677E+06     2.55760E+06    -551.807E+03     78.3753E+03
             556     70.8324E-03     5.11322E-03     70.6476E-03     624.136E-03    -311.805E-03    -312.940E-03    -310.590E-03     622.921E-03    -312.940E-03     66.8836E-03     662.620E-03     5.48513E+06     1.52972E+06    -2.32904E+06    -4.64738E+06    -4.11077E+06     993.110E+03    -2.32904E+06     119.355E+03
             557     70.7339E-03     4.38459E-03     70.5978E-03     624.219E-03    -311.692E-03    -313.289E-03    -310.971E-03     623.498E-03    -313.289E-03     51.3541E-03     655.957E-03     4.87732E+06     493.904E+03    -3.00839E+06    -5.02956E+06    -4.43706E+06    -98.6008E+03    -3.00839E+06     250.728E+03
             558     70.6802E-03     3.65470E-03     70.5856E-03     624.049E-03    -311.562E-03    -314.234E-03    -311.189E-03     623.676E-03    -314.234E-03     36.6169E-03     647.569E-03     4.70629E+06    -663.753E+03    -3.35828E+06    -5.85642E+06    -5.14359E+06    -1.06070E+06    -3.67416E+06     40.1579E+03
             559     70.6562E-03     2.92440E-03     70.5957E-03     624.896E-03    -311.930E-03    -314.772E-03    -311.769E-03     624.735E-03    -314.772E-03     23.7928E-03     641.643E-03     4.03694E+06    -1.31661E+06    -3.72991E+06    -5.61357E+06    -5.16996E+06    -1.40367E+06    -4.08647E+06    -15.1680E+03
             560     70.6664E-03     2.19021E-03     70.6324E-03     627.442E-03    -312.750E-03    -315.181E-03    -312.695E-03     627.387E-03    -315.181E-03     13.2724E-03     637.777E-03     3.21827E+06    -1.83444E+06    -4.55205E+06    -5.28631E+06    -4.97003E+06    -2.00846E+06    -4.69431E+06     538.195E+03
             561     70.6886E-03     1.45949E-03     70.6735E-03     629.448E-03    -314.082E-03    -315.515E-03    -314.173E-03     629.435E-03    -315.411E-03     5.26142E-03     634.420E-03     3.08876E+06    -2.67521E+06    -4.90242E+06    -6.12968E+06    -5.25018E+06    -3.04529E+06    -5.41184E+06     466.795E+03
             562     70.7062E-03     730.330E-06     70.7024E-03     630.330E-03    -314.598E-03    -315.667E-03    -315.175E-03     630.327E-03    -315.088E-03     1.15821E-03     632.011E-03     4.07057E+06    -2.92259E+06    -4.92844E+06    -7.39352E+06    -4.82248E+06    -4.72904E+06    -5.69302E+06     383.956E+03
             563     71.7358E-03     12.4610E-03     70.6452E-03     638.164E-03    -311.510E-03    -325.490E-03    -315.424E-03     628.098E-03    -311.510E-03     189.467E-03     750.760E-03     6.48501E+06     5.78114E+06     2.75516E+06    -1.41721E+06    -265.942E+03     2.81067E+06     4.57436E+06     154.016E+03
             564     71.1974E-03     11.7290E-03     70.2246E-03     635.377E-03    -311.547E-03    -323.415E-03    -312.625E-03     624.587E-03    -311.547E-03     198.305E-03     756.345E-03     7.23531E+06     5.69922E+06     4.45327E+06    -1.97958E+06    -763.544E+03     3.93370E+06     5.00275E+06    -48.1351E+03
             565     70.8405E-03     10.9981E-03     69.9815E-03     627.412E-03    -311.500E-03    -316.401E-03    -309.298E-03     620.309E-03    -311.500E-03     162.982E-03     724.942E-03     6.29680E+06     4.98990E+06     4.36539E+06    -1.56330E+06    -699.547E+03     4.12615E+06     4.36539E+06     237.291E+03
             566     70.4779E-03     10.2449E-03     69.7293E-03     624.286E-03    -310.989E-03    -314.941E-03    -308.282E-03     617.627E-03    -310.989E-03     157.130E-03     713.704E-03     5.74118E+06     5.72548E+06     4.36561E+06    -531.922E+03    -415.813E+03     5.29584E+06     4.67914E+06     675.663E+03
             567     70.1761E-03     9.51352E-03     69.5282E-03     621.833E-03    -310.520E-03    -311.799E-03    -306.278E-03     616.543E-03    -310.751E-03     140.068E-03     697.637E-03     6.36317E+06     5.90826E+06     3.57906E+06    -1.26660E+06    -1.10528E+06     5.43341E+06     3.89259E+06     888.365E+03
             568     69.9026E-03     8.77895E-03     69.3491E-03     620.300E-03    -310.066E-03    -311.968E-03    -305.501E-03     615.735E-03    -311.968E-03     129.891E-03     689.236E-03     6.93968E+06     5.79112E+06     3.53446E+06    -1.92106E+06    -1.73246E+06     5.46248E+06     3.67449E+06     931.424E+03
             569     69.6610E-03     8.04593E-03     69.1948E-03     619.265E-03    -309.817E-03    -312.171E-03    -306.193E-03     615.463E-03    -311.992E-03     118.502E-03     682.281E-03     6.88560E+06     5.42051E+06     3.17900E+06    -2.18319E+06    -2.08831E+06     5.18559E+06     3.31904E+06     592.309E+03
             570     69.4421E-03     7.31435E-03     69.0558E-03     623.120E-03    -310.257E-03    -312.793E-03    -307.331E-03     620.015E-03    -312.614E-03     107.302E-03     678.333E-03      4.8887E+06     3.34067E+06     872.308E+03    -2.20468E+06    -2.10426E+06     3.24025E+06     872.308E+03     202.543E+03
             571     69.2452E-03     6.58121E-03     68.9317E-03     623.855E-03    -310.208E-03    -312.903E-03    -307.800E-03     621.447E-03    -312.903E-03     94.4918E-03     675.329E-03     4.84621E+06     3.18658E+06     553.012E+03    -2.37450E+06    -2.20482E+06     3.01689E+06     553.012E+03     230.716E+03
             572     69.0864E-03     5.85028E-03     68.8383E-03     623.920E-03    -311.506E-03    -312.709E-03    -309.874E-03     622.172E-03    -312.593E-03     80.4616E-03     669.466E-03     5.83227E+06     2.95894E+06    -532.258E+03    -3.59045E+06    -3.28945E+06     2.66085E+06    -535.168E+03     776.724E+03
             573     68.9431E-03     5.11618E-03     68.7530E-03     624.406E-03    -311.949E-03    -313.024E-03    -310.905E-03     623.246E-03    -312.907E-03     65.4104E-03     662.498E-03     5.23374E+06     1.21940E+06    -2.43740E+06    -4.59037E+06    -4.19118E+06     823.117E+03    -2.44031E+06     431.765E+03
             574     68.8482E-03     4.38431E-03     68.7085E-03     623.906E-03    -311.164E-03    -313.292E-03    -310.464E-03     623.205E-03    -313.292E-03     50.6965E-03     655.524E-03     4.76190E+06     650.463E+03    -2.88893E+06    -4.66153E+06    -4.14686E+06     135.785E+03    -2.88893E+06     394.898E+03
             575     68.7908E-03     3.65306E-03     68.6937E-03     624.022E-03    -311.630E-03    -314.259E-03    -311.254E-03     623.647E-03    -314.259E-03     36.7806E-03     647.885E-03     4.34742E+06     453.761E+03    -2.81443E+06    -4.40486E+06    -3.56448E+06    -70.7328E+03    -3.13031E+06     614.225E+03
             576     68.7687E-03     2.92119E-03     68.7066E-03     625.450E-03    -312.495E-03    -314.784E-03    -312.339E-03     625.295E-03    -314.784E-03     23.1128E-03     642.425E-03     3.35936E+06    -1.18072E+06    -3.45485E+06    -4.98819E+06    -4.42462E+06    -1.42841E+06    -3.77073E+06     253.308E+03
             577     68.7755E-03     2.19341E-03     68.7405E-03     627.785E-03    -313.215E-03    -314.889E-03    -313.171E-03     627.741E-03    -314.889E-03     11.8628E-03     638.101E-03     2.81757E+06    -2.00463E+06    -4.02126E+06    -5.20495E+06    -5.16498E+06    -2.04460E+06    -4.02126E+06     136.844E+03
             578     68.7997E-03     1.46403E-03     68.7841E-03     628.673E-03    -313.850E-03    -314.915E-03    -313.941E-03     628.660E-03    -314.811E-03     5.72155E-03     633.694E-03     3.16421E+06    -2.54359E+06    -4.80267E+06    -6.13532E+06    -5.74086E+06    -2.69210E+06    -5.04861E+06     562.791E+03
             579     68.8233E-03     732.381E-06     68.8194E-03     629.170E-03    -313.914E-03    -315.234E-03    -314.012E-03     629.164E-03    -315.131E-03     3.11124E-03     630.959E-03     3.96923E+06    -2.10549E+06    -5.05816E+06    -6.58329E+06    -4.91858E+06    -3.98041E+06    -4.84795E+06     90.2909E+03
             580     69.8794E-03     12.4608E-03     68.7595E-03     637.438E-03    -311.306E-03    -324.845E-03    -314.657E-03     627.250E-03    -311.306E-03     190.457E-03     749.747E-03     5.07499E+06     4.27328E+06     1.95654E+06    -1.29048E+06    -40.4333E+03     3.28541E+06     1.69438E+06     49.0680E+03
             581     69.3453E-03     11.7285E-03     68.3462E-03     633.403E-03    -311.222E-03    -322.128E-03    -311.214E-03     622.489E-03    -311.222E-03     199.091E-03     754.336E-03     6.34018E+06     5.70582E+06     3.95627E+06    -1.23294E+06     26.2462E+03     4.70880E+06     3.69410E+06    -198.562E+03
             582     68.9774E-03     10.9949E-03     68.0955E-03     627.413E-03    -312.015E-03    -316.257E-03    -309.115E-03     620.272E-03    -312.015E-03     163.444E-03     725.223E-03     5.25837E+06     4.24335E+06     2.96700E+06    -1.41648E+06    -60.1133E+03     3.06433E+06     2.78965E+06     79.6224E+03
             583     68.6085E-03     10.2409E-03     67.8399E-03     625.288E-03    -311.577E-03    -315.197E-03    -308.538E-03     618.628E-03    -311.577E-03     157.261E-03     715.092E-03     5.72405E+06     5.01586E+06     3.71897E+06    -1.16002E+06    -560.233E+03     3.70205E+06     4.43300E+06     591.655E+03
             584     68.3064E-03     9.50808E-03     67.6414E-03     623.374E-03    -311.259E-03    -312.527E-03    -307.104E-03     618.099E-03    -311.407E-03     140.023E-03     699.404E-03     6.50292E+06     6.22863E+06     3.64965E+06    -1.05749E+06    -831.969E+03     5.11172E+06     4.54103E+06     600.679E+03
             585     68.0288E-03     8.77611E-03     67.4603E-03     622.397E-03    -311.008E-03    -312.733E-03    -306.651E-03     617.887E-03    -312.581E-03     129.314E-03     690.705E-03     6.73795E+06     6.76962E+06     4.05735E+06    -746.660E+03    -497.992E+03     6.38092E+06     4.19739E+06     575.602E+03
             586     67.7780E-03     8.04448E-03     67.2989E-03     620.546E-03    -310.694E-03    -312.332E-03    -307.194E-03     616.831E-03    -312.118E-03     117.252E-03     683.150E-03     7.04938E+06     6.92156E+06     4.27807E+06    -949.955E+03    -832.188E+03     6.66375E+06     4.41811E+06     627.240E+03
             587     67.5580E-03     7.31353E-03     67.1609E-03     624.093E-03    -311.229E-03    -312.864E-03    -308.452E-03     621.102E-03    -312.649E-03     105.436E-03     679.558E-03     5.10667E+06     3.59065E+06     1.16674E+06    -2.24457E+06    -2.09272E+06     3.43880E+06     1.16674E+06     736.463E+03
             588     67.3658E-03     6.58192E-03     67.0435E-03     625.197E-03    -311.058E-03    -313.243E-03    -308.709E-03     622.847E-03    -313.243E-03     93.5006E-03     676.603E-03     4.02645E+06     1.49869E+06    -622.907E+03    -3.10873E+06    -2.87376E+06     1.26372E+06    -622.907E+03      987.34E+03
             589     67.1875E-03     5.85049E-03     66.9323E-03     624.384E-03    -311.464E-03    -313.054E-03    -309.822E-03     622.625E-03    -312.937E-03     80.7617E-03     669.900E-03     5.06275E+06     2.72763E+06    -875.529E+03    -2.94128E+06    -2.48326E+06     2.27252E+06    -878.439E+03     1.16831E+06
             590     67.0587E-03     5.11527E-03     66.8633E-03     624.026E-03    -311.288E-03    -313.026E-03    -310.192E-03     622.813E-03    -312.910E-03     66.9562E-03     662.110E-03     5.41373E+06     2.62870E+06    -1.32315E+06    -3.39500E+06    -2.70665E+06     2.14399E+06    -1.52679E+06     1.23369E+06
             591     66.9537E-03     4.38402E-03     66.8100E-03     624.084E-03    -311.186E-03    -313.368E-03    -310.446E-03     623.343E-03    -313.368E-03     51.9506E-03     655.715E-03     4.95823E+06     1.55839E+06    -1.66473E+06    -4.01558E+06    -3.37784E+06     1.12137E+06    -1.86545E+06     990.864E+03
             592     66.9009E-03     3.65350E-03     66.8010E-03     624.437E-03    -311.937E-03    -314.353E-03    -311.559E-03     624.059E-03    -314.353E-03     36.9385E-03     648.239E-03     4.31224E+06     659.655E+03    -1.82066E+06    -4.22547E+06    -3.71778E+06     151.962E+03    -1.82066E+06     962.043E+03
             593     66.8730E-03     2.92482E-03     66.8091E-03     625.470E-03    -312.335E-03    -314.870E-03    -312.166E-03     625.301E-03    -314.870E-03     24.3599E-03     642.284E-03     3.61569E+06    -504.069E+03    -2.97136E+06    -4.55451E+06    -4.25541E+06    -803.171E+03    -2.97136E+06     916.602E+03
             594     66.8829E-03     2.19339E-03     66.8469E-03     627.581E-03    -312.842E-03    -315.049E-03    -312.780E-03     627.519E-03    -315.049E-03     14.4823E-03     637.920E-03     3.64663E+06    -1.02378E+06    -4.01506E+06    -5.06792E+06    -4.70875E+06    -1.08832E+06    -4.30970E+06     397.425E+03
             595     66.9114E-03     1.46020E-03     66.8955E-03     629.051E-03    -313.942E-03    -315.223E-03    -314.023E-03     629.031E-03    -315.122E-03     7.89791E-03     634.167E-03     3.21436E+06    -1.52212E+06    -4.12223E+06    -5.10377E+06    -4.46634E+06    -1.61897E+06    -4.66281E+06     385.217E+03
             596     66.9309E-03     728.899E-06     66.9270E-03     630.093E-03    -313.784E-03    -316.284E-03    -315.192E-03     630.087E-03    -314.870E-03     2.47558E-03     631.893E-03     3.71104E+06    -2.40992E+06    -5.41675E+06    -6.54499E+06    -4.79536E+06    -4.31321E+06    -5.26309E+06     484.016E+03
             597     68.0186E-03     12.4585E-03     66.8679E-03     636.677E-03    -311.442E-03    -324.039E-03    -313.765E-03     626.402E-03    -311.442E-03     191.185E-03     748.764E-03     4.95906E+06     4.43310E+06     1.61469E+06    -1.11484E+06     293.401E+03     3.28703E+06     1.35253E+06    -91.8704E+03
             598     67.4800E-03     11.7248E-03     66.4536E-03     633.909E-03    -311.630E-03    -322.327E-03    -311.313E-03     622.894E-03    -311.630E-03     200.098E-03     754.763E-03     5.73679E+06     4.86952E+06     2.54455E+06    -1.63254E+06     -39.738E+03     4.21428E+06     1.60699E+06     411.250E+03
             599     67.1118E-03     10.9937E-03     66.2052E-03     627.327E-03    -312.007E-03    -316.344E-03    -309.147E-03     620.130E-03    -312.007E-03     164.084E-03     725.053E-03     5.62566E+06     4.27606E+06     1.96855E+06    -2.10324E+06    -397.900E+03     3.42347E+06     1.11580E+06     824.568E+03
             600     66.7380E-03     10.2381E-03     65.9481E-03     624.713E-03    -311.386E-03    -314.937E-03    -308.368E-03     618.144E-03    -311.386E-03     156.015E-03     714.382E-03     5.93920E+06     5.13060E+06     2.69157E+06    -1.48100E+06    -781.516E+03     4.03062E+06     3.09207E+06     368.130E+03
             601     66.4342E-03     9.50665E-03     65.7504E-03     624.344E-03    -311.548E-03    -313.262E-03    -308.195E-03     619.277E-03    -311.548E-03     137.380E-03     700.337E-03     5.74123E+06     5.22056E+06     1.77836E+06    -1.08806E+06    -901.040E+03     4.45569E+06     2.35621E+06    -285.653E+03
             602     66.1545E-03     8.77611E-03     65.5698E-03     623.486E-03    -311.571E-03    -313.237E-03    -307.854E-03     619.128E-03    -312.595E-03     127.319E-03     691.601E-03     5.82664E+06     5.81833E+06     2.55210E+06    -647.996E+03    -498.806E+03     5.66914E+06     2.55210E+06    -78.7643E+03
             603     65.9002E-03     8.04566E-03     65.4073E-03     620.470E-03    -310.744E-03    -312.059E-03    -307.144E-03     616.834E-03    -312.023E-03     115.999E-03     682.619E-03     6.69544E+06     6.02751E+06     3.01369E+06    -1.53862E+06    -1.28357E+06     5.77245E+06     3.01369E+06     764.997E+03
             604     65.6794E-03     7.31343E-03     65.2710E-03     623.707E-03    -311.044E-03    -312.676E-03    -308.086E-03     620.713E-03    -312.640E-03     105.508E-03     679.050E-03     5.61215E+06     3.77114E+06     513.683E+03    -2.50922E+06    -2.22014E+06     3.50660E+06     489.145E+03     994.290E+03
             605     65.4802E-03     6.58404E-03     65.1484E-03     625.003E-03    -310.943E-03    -313.315E-03    -308.527E-03     622.588E-03    -313.315E-03     94.7719E-03     676.727E-03     4.28850E+06     2.00859E+06    -487.222E+03    -2.77146E+06    -2.35572E+06     1.61739E+06    -511.760E+03     1.19271E+06
             606     65.3112E-03     5.85108E-03     65.0485E-03     623.493E-03    -310.673E-03    -313.023E-03    -308.880E-03     621.699E-03    -313.023E-03     81.4418E-03     669.363E-03     4.99347E+06     2.80686E+06    -507.881E+03    -2.84875E+06    -2.25434E+06     2.21245E+06    -507.881E+03     1.47208E+06
             607     65.1724E-03     5.11242E-03     64.9716E-03     623.728E-03    -311.186E-03    -313.118E-03    -309.957E-03     622.499E-03    -313.118E-03     67.3893E-03     662.000E-03     5.42548E+06     3.36853E+06     56.7047E+03    -2.63020E+06    -1.72929E+06     2.66835E+06    -144.018E+03     1.60616E+06
             608     65.0706E-03     4.38275E-03     64.9228E-03     624.599E-03    -311.762E-03    -313.595E-03    -311.006E-03     623.844E-03    -313.595E-03     52.5399E-03     656.283E-03     5.44685E+06     2.46305E+06    -566.650E+03    -3.57139E+06    -2.47861E+06     1.84874E+06    -1.04512E+06     1.63013E+06
             609     65.0124E-03     3.65307E-03     64.9097E-03     624.564E-03    -311.726E-03    -314.604E-03    -311.329E-03     624.168E-03    -314.604E-03     37.9642E-03     648.205E-03     5.14880E+06     1.38713E+06    -2.14547E+06    -4.36402E+06    -3.69746E+06     998.319E+03    -2.42321E+06     1.32678E+06
             610     64.9863E-03     2.92036E-03     64.9206E-03     625.390E-03    -311.823E-03    -315.240E-03    -311.640E-03     625.207E-03    -315.240E-03     25.3943E-03     642.081E-03     4.54765E+06     1.17955E+06    -2.50314E+06    -3.79940E+06    -3.56740E+06     947.550E+03    -2.50314E+06     843.072E+03
             611     64.9912E-03     2.18874E-03     64.9544E-03     628.547E-03    -313.288E-03    -315.653E-03    -313.225E-03     628.484E-03    -315.653E-03     14.3718E-03     638.871E-03     3.72686E+06     861.669E+03    -1.97878E+06    -3.23065E+06    -2.87737E+06     803.019E+03    -2.27341E+06     306.207E+03
             612     65.0152E-03     1.46092E-03     64.9988E-03     630.720E-03    -315.013E-03    -315.799E-03    -315.178E-03     630.706E-03    -315.621E-03     6.50327E-03     635.792E-03     2.74002E+06    -443.557E+03    -2.38742E+06    -3.47407E+06    -2.92253E+06    -700.464E+03    -2.68205E+06    -88.1872E+03
             613     65.0338E-03     732.505E-06     65.0297E-03     630.705E-03    -314.431E-03    -316.242E-03    -316.239E-03     630.701E-03    -314.431E-03     2.28821E-03     632.433E-03     3.36572E+06    -1.16186E+06    -3.96235E+06    -4.88661E+06    -3.06118E+06    -3.18348E+06    -3.76617E+06    -11.0118E+03
             614     66.1672E-03     12.4554E-03     64.9844E-03     637.438E-03    -312.049E-03    -324.384E-03    -314.141E-03     627.195E-03    -312.049E-03     191.349E-03     749.829E-03     4.94853E+06     3.78512E+06     1.14285E+06    -1.71351E+06    -161.882E+03     2.23349E+06     1.14285E+06     217.673E+03
             615     65.6226E-03     11.7222E-03     64.5672E-03     635.912E-03    -312.219E-03    -323.421E-03    -312.578E-03     625.070E-03    -312.219E-03     198.692E-03     756.703E-03     6.25885E+06     4.83718E+06     2.94378E+06    -2.01978E+06    -338.344E+03     3.83114E+06     2.26838E+06     539.975E+03
             616     65.2510E-03     10.9905E-03     64.3188E-03     627.393E-03    -311.590E-03    -316.532E-03    -309.650E-03     620.511E-03    -311.590E-03     160.499E-03     724.886E-03     6.44848E+06     5.17414E+06     3.26438E+06    -1.94024E+06    -339.542E+03     4.65220E+06     2.18562E+06     681.225E+03
             617     64.8747E-03     10.2380E-03     64.0618E-03     624.190E-03    -310.930E-03    -314.753E-03    -308.499E-03     617.937E-03    -310.930E-03     152.205E-03     713.645E-03     5.62202E+06     5.44801E+06     2.24715E+06    -921.370E+03    -288.452E+03     5.21844E+06     1.84380E+06     303.498E+03
             618     64.5605E-03     9.50739E-03     63.8566E-03     623.393E-03    -311.054E-03    -312.797E-03    -307.861E-03     618.457E-03    -311.054E-03     135.530E-03     699.370E-03     5.11192E+06     4.96030E+06     699.131E+03    -642.668E+03    -376.749E+03     4.73662E+06     656.893E+03     157.853E+03
             619     64.2784E-03     8.77771E-03     63.6762E-03     621.660E-03    -310.977E-03    -312.628E-03    -307.159E-03     617.285E-03    -312.072E-03     127.418E-03     690.370E-03     5.66901E+06     4.50977E+06     753.609E+03    -1.69638E+06    -1.46469E+06     4.32032E+06     711.370E+03     404.173E+03
             620     64.0292E-03     8.04562E-03     63.5217E-03     619.858E-03    -310.482E-03    -311.910E-03    -306.749E-03     616.125E-03    -311.910E-03     117.459E-03     682.257E-03     5.97790E+06     4.26278E+06     848.261E+03    -2.51122E+06    -2.27237E+06     4.02394E+06     848.261E+03     671.952E+03
             621     63.8033E-03     7.31334E-03     63.3828E-03     623.527E-03    -310.574E-03    -312.646E-03    -307.513E-03     620.466E-03    -312.646E-03     106.614E-03     678.428E-03     5.61483E+06     4.02078E+06    -366.141E+03    -2.24315E+06    -1.82250E+06     3.62466E+06    -390.680E+03     1.26446E+06
             622     63.6020E-03     6.57987E-03     63.2607E-03     624.770E-03    -310.606E-03    -313.501E-03    -308.196E-03     622.361E-03    -313.501E-03     94.5575E-03     676.520E-03     5.37059E+06     3.48272E+06    -531.756E+03    -2.45958E+06    -1.56858E+06     2.61626E+06    -556.294E+03     973.409E+03
             623     63.4326E-03     5.84861E-03     63.1624E-03     623.317E-03    -311.081E-03    -312.858E-03    -309.308E-03     621.533E-03    -312.846E-03     81.3056E-03     669.553E-03     5.56383E+06     3.62791E+06     297.616E+03    -2.62006E+06    -1.82261E+06     2.83047E+06     297.616E+03     776.639E+03
             624     63.2937E-03     5.11317E-03     63.0868E-03     623.352E-03    -311.152E-03    -312.889E-03    -309.942E-03     622.130E-03    -312.878E-03     67.0574E-03     661.344E-03     5.80510E+06     3.31856E+06     63.1993E+03    -2.99225E+06    -2.39672E+06     2.76766E+06     18.5611E+03     896.817E+03
             625     63.1850E-03     4.38170E-03     63.0329E-03     624.070E-03    -310.777E-03    -313.826E-03    -310.042E-03     623.336E-03    -313.826E-03     51.8718E-03     655.431E-03     4.89835E+06     2.84675E+06     72.2236E+03    -2.40256E+06    -1.58881E+06     2.35538E+06    -250.161E+03     775.365E+03
             626     63.1315E-03     3.65033E-03     63.0259E-03     624.834E-03    -311.615E-03    -314.977E-03    -311.225E-03     624.444E-03    -314.977E-03     37.5670E-03     648.736E-03     4.01803E+06     2.96899E+06    -54.5898E+03    -1.37342E+06    -721.137E+03     2.66744E+06    -405.322E+03     644.443E+03
             627     63.1016E-03     2.92050E-03     63.0340E-03     626.925E-03    -313.070E-03    -315.554E-03    -312.902E-03     626.758E-03    -315.554E-03     24.2301E-03     643.665E-03     3.68809E+06     2.61994E+06    -585.221E+03    -1.39526E+06    -819.841E+03     2.32369E+06    -864.385E+03     409.751E+03
             628     63.1015E-03     2.19137E-03     63.0634E-03     629.556E-03    -314.226E-03    -315.777E-03    -314.174E-03     629.504E-03    -315.777E-03     13.1331E-03     639.711E-03     2.85990E+06     1.61483E+06    -393.068E+03    -1.56941E+06    -1.06951E+06     1.50058E+06    -778.717E+03     281.290E+03
             629     63.1209E-03     1.46051E-03     63.1040E-03     630.643E-03    -315.008E-03    -315.799E-03    -315.075E-03     630.632E-03    -315.721E-03     5.54664E-03     635.660E-03     2.55512E+06     439.055E+03    -1.32049E+06    -2.40706E+06    -1.79850E+06     9.96534E+03    -1.49996E+06     110.698E+03
             630     63.1446E-03     729.020E-06     63.1403E-03     630.883E-03    -314.932E-03    -315.927E-03    -315.326E-03     630.880E-03    -315.531E-03     2.18547E-03     632.634E-03     2.50868E+06    -87.0647E+03    -2.04113E+06    -2.88790E+06    -2.04370E+06    -1.54074E+06    -1.43166E+06     90.9475E+03
             631     64.3121E-03     12.4519E-03     63.0952E-03     639.479E-03    -312.532E-03    -325.799E-03    -315.838E-03     629.518E-03    -312.532E-03     189.137E-03     752.417E-03     4.60359E+06     3.58172E+06     1.36300E+06    -1.56429E+06     304.490E+03     1.71294E+06     1.36300E+06     480.928E+03
             632     63.7679E-03     11.7224E-03     62.6811E-03     638.352E-03    -312.685E-03    -325.036E-03    -314.497E-03     627.814E-03    -312.685E-03     196.382E-03     758.856E-03     6.23933E+06     5.35221E+06     2.94602E+06    -1.52679E+06     531.489E+03     4.30145E+06     1.93851E+06     531.748E+03
             633     63.3890E-03     10.9952E-03     62.4282E-03     628.083E-03    -311.508E-03    -316.964E-03    -310.177E-03     621.296E-03    -311.508E-03     159.451E-03     725.300E-03     6.81449E+06     5.59995E+06     3.68434E+06    -1.90027E+06    -23.7052E+03     5.13425E+06     2.27347E+06     241.341E+03
             634     63.0165E-03     10.2422E-03     62.1786E-03     623.870E-03    -310.824E-03    -314.509E-03    -308.159E-03     617.520E-03    -310.824E-03     153.407E-03     713.497E-03     5.78169E+06     5.75105E+06     2.60829E+06    -818.374E+03    -126.737E+03     5.46277E+06     2.20494E+06     534.748E+03
             635     62.7030E-03     9.51044E-03     61.9776E-03     623.147E-03    -311.031E-03    -312.442E-03    -307.330E-03     618.035E-03    -311.031E-03     137.827E-03     699.199E-03     5.59926E+06     5.23579E+06     787.238E+03    -992.429E+03    -450.894E+03     4.73650E+06     745.000E+03     1.39311E+06
             636     62.4183E-03     8.77562E-03     61.7983E-03     621.387E-03    -310.923E-03    -312.445E-03    -306.919E-03     616.994E-03    -312.057E-03     127.562E-03     690.322E-03     5.58828E+06     4.40607E+06     614.965E+03    -1.74231E+06    -1.09266E+06     3.79866E+06     572.727E+03     1.50975E+06
             637     62.1626E-03     8.04314E-03     61.6401E-03     619.700E-03    -310.348E-03    -311.957E-03    -306.680E-03     616.032E-03    -311.957E-03     116.430E-03     682.163E-03     5.33532E+06     4.35129E+06     1.46118E+06    -1.70141E+06    -1.24873E+06     3.89861E+06     1.46118E+06     1.07375E+06
             638     61.9319E-03     7.31232E-03     61.4987E-03     623.402E-03    -310.271E-03    -312.754E-03    -307.255E-03     620.386E-03    -312.754E-03     105.772E-03     678.132E-03     5.61422E+06     4.34105E+06     128.507E+03    -1.92655E+06    -1.38069E+06     3.87434E+06     49.3551E+03     590.380E+03
             639     61.7314E-03     6.58209E-03     61.3795E-03     624.875E-03    -310.650E-03    -313.603E-03    -308.276E-03     622.501E-03    -313.603E-03     93.9077E-03     676.407E-03     5.78220E+06     4.34134E+06    -454.301E+03    -2.03473E+06    -981.456E+03     3.36722E+06    -533.453E+03     479.340E+03
             640     61.5572E-03     5.84854E-03     61.2788E-03     624.065E-03    -311.649E-03    -312.952E-03    -309.895E-03     622.300E-03    -312.940E-03     80.9147E-03     670.008E-03     5.73686E+06     4.52007E+06     806.830E+03    -1.96761E+06    -850.237E+03     3.40269E+06     806.830E+03     250.531E+03
             641     61.4134E-03     5.11312E-03     61.2002E-03     623.908E-03    -311.362E-03    -312.946E-03    -310.189E-03     622.724E-03    -312.935E-03     66.0301E-03     661.876E-03     5.57629E+06     4.51869E+06     629.532E+03    -1.64448E+06    -967.119E+03     3.88597E+06     584.894E+03    -62.1588E+03
             642     61.3111E-03     4.38134E-03     61.1543E-03     624.225E-03    -310.796E-03    -313.844E-03    -310.100E-03     623.529E-03    -313.844E-03     50.4137E-03     655.532E-03     4.49425E+06     3.62449E+06     100.378E+03    -1.16861E+06    -746.891E+03     3.24742E+06     55.7394E+03    -251.353E+03
             643     61.2442E-03     3.64950E-03     61.1354E-03     625.246E-03    -311.944E-03    -314.960E-03    -311.590E-03     624.891E-03    -314.960E-03     35.6188E-03     648.891E-03     3.33610E+06     2.56522E+06     533.199E+03    -1.03982E+06    -548.385E+03     2.14678E+06     460.213E+03    -82.5017E+03
             644     61.2112E-03     2.92018E-03     61.1415E-03     627.048E-03    -313.232E-03    -315.470E-03    -313.084E-03     626.901E-03    -315.470E-03     22.7675E-03     643.746E-03     2.74592E+06     1.99072E+06     40.3192E+03    -1.03022E+06    -521.004E+03     1.76067E+06    -238.845E+03     220.610E+03
             645     61.2107E-03     2.19029E-03     61.1715E-03     628.867E-03    -313.676E-03    -315.725E-03    -313.625E-03     628.816E-03    -315.725E-03     13.2266E-03     639.130E-03     2.88888E+06     1.77553E+06    -657.092E+03    -1.40872E+06    -705.078E+03     1.65995E+06    -1.24515E+06     277.289E+03
             646     61.2333E-03     1.46093E-03     61.2159E-03     630.322E-03    -314.551E-03    -316.002E-03    -314.537E-03     630.307E-03    -316.002E-03     6.35779E-03     635.373E-03     3.40252E+06     2.10799E+06    -903.986E+03    -1.56433E+06    -650.925E+03     1.57647E+06    -1.28586E+06    -34.6864E+03
             647     61.2531E-03     731.213E-06     61.2488E-03     631.811E-03    -314.954E-03    -316.723E-03    -315.893E-03     631.808E-03    -315.781E-03     2.17656E-03     633.564E-03     3.02376E+06     1.03598E+06    -1.18509E+06    -2.27718E+06    -1.03105E+06    -594.110E+03    -801.127E+03    -249.361E+03
             648     62.4655E-03     12.4551E-03     61.2112E-03     639.638E-03    -312.056E-03    -326.241E-03    -316.336E-03     629.733E-03    -312.056E-03     188.077E-03     752.541E-03     4.31677E+06     3.02082E+06     1.00202E+06    -1.79942E+06    -206.215E+03     1.84817E+06     581.467E+03     10.7923E+03
             649     61.9105E-03     11.7253E-03     60.7900E-03     637.873E-03    -312.570E-03    -324.825E-03    -314.187E-03     627.235E-03    -312.570E-03     197.262E-03     758.253E-03     5.17665E+06     3.69477E+06     540.328E+03    -2.07524E+06    -162.724E+03     3.21031E+06    -887.737E+03     104.176E+03
             650     61.5364E-03     10.9937E-03     60.5464E-03     627.910E-03    -311.942E-03    -316.597E-03    -309.619E-03     620.932E-03    -311.942E-03     161.607E-03     725.296E-03     6.25132E+06     4.44112E+06     949.468E+03    -2.49747E+06    -223.049E+03     3.57588E+06    -459.709E+03     512.307E+03
             651     61.1572E-03     10.2379E-03     60.2941E-03     623.380E-03    -310.853E-03    -314.234E-03    -307.706E-03     616.852E-03    -310.853E-03     155.426E-03     713.059E-03     6.75212E+06     6.06748E+06     2.82623E+06    -1.56006E+06    -461.959E+03     5.37104E+06     2.42457E+06     934.285E+03
             652     60.8436E-03     9.50536E-03     60.0966E-03     624.531E-03    -311.573E-03    -313.362E-03    -308.199E-03     619.368E-03    -311.573E-03     138.684E-03     700.354E-03     5.69585E+06     5.34114E+06     1.69380E+06    -1.02889E+06    -241.092E+03     4.55334E+06     1.69380E+06     1.00894E+06
             653     60.5486E-03     8.77684E-03     59.9091E-03     623.230E-03    -311.723E-03    -313.320E-03    -307.989E-03     618.803E-03    -312.627E-03     128.264E-03     692.076E-03     5.80662E+06     5.55633E+06     2.55445E+06    -836.560E+03     121.945E+03     4.59782E+06     2.55445E+06     1.47826E+06
             654     60.2917E-03     8.04597E-03     59.7524E-03     619.937E-03    -310.540E-03    -312.035E-03    -306.862E-03     616.259E-03    -312.035E-03     116.583E-03     682.632E-03     5.98133E+06     6.53966E+06     4.04950E+06    -195.714E+03     311.356E+03     6.03259E+06     4.04950E+06     1.26438E+06
             655     60.0626E-03     7.31205E-03     59.6158E-03     623.511E-03    -310.318E-03    -312.808E-03    -307.327E-03     620.520E-03    -312.808E-03     105.326E-03     678.189E-03     4.92191E+06     5.18181E+06     1.95929E+06    -356.668E+03     155.041E+03     4.74925E+06     1.88014E+06     398.773E+03
             656     59.8574E-03     6.57794E-03     59.4948E-03     625.275E-03    -311.002E-03    -313.571E-03    -308.663E-03     622.936E-03    -313.571E-03     93.2328E-03     676.669E-03     5.29958E+06     4.75210E+06     726.048E+03    -1.11692E+06    -126.797E+03     3.84113E+06     646.895E+03     243.850E+03
             657     59.6779E-03     5.84946E-03     59.3905E-03     624.611E-03    -311.748E-03    -313.223E-03    -310.038E-03     622.901E-03    -313.223E-03     79.5825E-03     670.504E-03     5.47520E+06     5.14268E+06     741.886E+03    -960.028E+03     106.134E+03     4.07652E+06     741.886E+03     63.5124E+03
             658     59.5376E-03     5.11260E-03     59.3176E-03     624.687E-03    -311.838E-03    -313.244E-03    -310.693E-03     623.542E-03    -313.244E-03     65.0486E-03     663.065E-03     4.70089E+06     4.50542E+06     658.962E+03    -719.576E+03         241.625     3.78560E+06     658.962E+03    -259.437E+03
             659     59.4297E-03     4.38288E-03     59.2678E-03     625.218E-03    -312.104E-03    -313.645E-03    -311.416E-03     624.530E-03    -313.645E-03     50.1561E-03     656.822E-03     4.34727E+06     3.58872E+06     89.2964E+03    -1.22474E+06    -565.163E+03     2.92915E+06     89.2964E+03    -69.0662E+03
             660     59.3638E-03     3.65439E-03     59.2512E-03     625.001E-03    -311.913E-03    -314.591E-03    -311.565E-03     624.653E-03    -314.591E-03     35.3617E-03     648.321E-03     4.14067E+06     2.51546E+06    -607.982E+03    -1.96346E+06    -1.24535E+06     1.79734E+06    -607.982E+03    -73.0708E+03
             661     59.3268E-03     2.92256E-03     59.2548E-03     625.330E-03    -311.706E-03    -315.195E-03    -311.560E-03     625.184E-03    -315.195E-03     22.5982E-03     641.909E-03     3.41559E+06     1.97506E+06    -404.181E+03    -1.71939E+06    -1.39627E+06     1.65193E+06    -404.181E+03         214.211
             662     59.3255E-03     2.19082E-03     59.2850E-03     627.997E-03    -312.779E-03    -315.736E-03    -312.731E-03     627.949E-03    -315.736E-03     12.6608E-03     638.410E-03     3.30432E+06     2.17970E+06    -170.674E+03    -1.50545E+06    -1.23753E+06     2.11418E+06    -373.079E+03     115.012E+03
             663     59.3431E-03     1.45846E-03     59.3251E-03     630.508E-03    -314.509E-03    -316.186E-03    -314.496E-03     630.495E-03    -316.186E-03     6.00053E-03     635.627E-03     4.02584E+06     2.49446E+06    -793.254E+03    -1.91894E+06    -1.06665E+06     1.84458E+06    -995.660E+03    -30.7803E+03
             664     59.3604E-03     728.098E-06     59.3559E-03     632.323E-03    -314.865E-03    -317.377E-03    -316.903E-03     632.320E-03    -315.336E-03     2.27770E-03     634.088E-03     3.63128E+06     1.34962E+06    -1.27990E+06    -2.67129E+06    -931.528E+03    -434.227E+03    -1.23581E+06    -304.475E+03
             665     60.6214E-03     12.4557E-03     59.3280E-03     638.755E-03    -311.635E-03    -325.776E-03    -315.637E-03     628.616E-03    -311.635E-03     190.143E-03     751.212E-03     4.69562E+06     3.34487E+06     449.228E+03    -1.89455E+06    -136.194E+03     2.00707E+06     28.6751E+03     360.143E+03
             666     60.0637E-03     11.7221E-03     58.9087E-03     635.889E-03    -312.089E-03    -323.461E-03    -312.646E-03     625.074E-03    -312.089E-03     198.379E-03     756.396E-03     4.99579E+06     3.48527E+06     673.427E+03    -2.07284E+06    -624.982E+03     3.13340E+06    -422.566E+03     245.141E+03
             667     59.6873E-03     10.9919E-03     58.6665E-03     627.985E-03    -312.324E-03    -316.496E-03    -309.525E-03     621.014E-03    -312.324E-03     161.561E-03     725.567E-03     4.92726E+06     3.64395E+06     842.311E+03    -1.73142E+06     20.4793E+03     2.96916E+06    -234.792E+03     341.071E+03
             668     59.3021E-03     10.2380E-03     58.4117E-03     625.835E-03    -311.740E-03    -315.780E-03    -309.357E-03     619.412E-03    -311.740E-03     154.448E-03     715.059E-03     6.12517E+06     4.96106E+06     1.75954E+06    -1.78053E+06     247.930E+03     3.33426E+06     1.35788E+06     776.526E+03
             669     58.9820E-03     9.50775E-03     58.2106E-03     624.967E-03    -311.631E-03    -313.660E-03    -308.647E-03     619.954E-03    -311.631E-03     136.752E-03     700.282E-03     6.61829E+06     5.62927E+06     2.32502E+06    -1.68218E+06    -59.1172E+03     4.00620E+06     2.32502E+06     590.282E+03
             670     58.6875E-03     8.77438E-03     58.0279E-03     622.808E-03    -311.249E-03    -313.139E-03    -307.372E-03     618.463E-03    -312.671E-03     127.012E-03     691.442E-03     6.87227E+06     6.61364E+06     3.52325E+06    -1.07037E+06     241.342E+03     5.73852E+06     3.08666E+06     293.400E+03
             671     58.4248E-03     8.04184E-03     57.8687E-03     619.954E-03    -310.416E-03    -312.069E-03    -306.753E-03     616.291E-03    -312.069E-03     116.358E-03     683.020E-03     6.95582E+06     7.70164E+06     4.40093E+06    -175.108E+03     720.591E+03     7.24254E+06     3.96434E+06     174.747E+03
             672     58.1957E-03     7.31190E-03     57.7345E-03     622.937E-03    -310.800E-03    -311.972E-03    -307.806E-03     619.944E-03    -311.972E-03     105.361E-03     678.105E-03     5.48760E+06     6.17149E+06     3.29447E+06    -94.8636E+03     149.776E+03     5.92685E+06     3.29447E+06     382.443E+03
             673     57.9836E-03     6.58352E-03     57.6086E-03     624.767E-03    -311.001E-03    -313.082E-03    -308.703E-03     622.469E-03    -313.082E-03     92.3404E-03     676.238E-03     5.04151E+06     4.66346E+06     1.05646E+06    -1.02294E+06    -326.069E+03     3.96658E+06     1.05646E+06     243.190E+03
             674     57.8066E-03     5.84976E-03     57.5098E-03     623.613E-03    -310.946E-03    -312.957E-03    -309.285E-03     621.952E-03    -312.957E-03     78.4261E-03     669.499E-03     5.54053E+06     5.06076E+06     344.658E+03    -1.01787E+06    -322.249E+03     4.36514E+06     344.658E+03     81.3872E+03
             675     57.6651E-03     5.11384E-03     57.4379E-03     624.013E-03    -311.680E-03    -312.938E-03    -310.523E-03     622.856E-03    -312.938E-03     65.4415E-03     662.335E-03     5.23682E+06     4.53263E+06     116.941E+03    -1.23585E+06    -682.596E+03     3.97938E+06     116.941E+03     218.488E+03
             676     57.5502E-03     4.38377E-03     57.3830E-03     624.593E-03    -311.868E-03    -313.453E-03    -311.143E-03     623.868E-03    -313.453E-03     51.5566E-03     656.285E-03     4.53889E+06     3.38448E+06    -212.273E+03    -1.64846E+06    -1.01897E+06     2.75498E+06    -212.273E+03     423.935E+03
             677     57.4870E-03     3.65287E-03     57.3708E-03     624.616E-03    -311.826E-03    -314.505E-03    -311.447E-03     624.237E-03    -314.505E-03     37.0044E-03     648.264E-03     4.80295E+06     3.36675E+06    -622.872E+03    -1.84430E+06    -1.15156E+06     2.67401E+06    -622.872E+03     426.448E+03
             678     57.4527E-03     2.92169E-03     57.3783E-03     625.289E-03    -311.927E-03    -315.064E-03    -311.766E-03     625.129E-03    -315.064E-03     23.7210E-03     641.949E-03     4.83007E+06     2.88438E+06    -1.09349E+06    -2.32248E+06    -1.63978E+06     2.34074E+06    -1.23255E+06    -29.8863E+03
             679     57.4397E-03     2.19017E-03     57.3979E-03     628.129E-03    -313.016E-03    -315.419E-03    -312.968E-03     628.080E-03    -315.419E-03     12.4535E-03     638.412E-03     3.62640E+06     1.92699E+06    -647.543E+03    -2.08759E+06    -1.44689E+06     1.75753E+06    -1.11879E+06    -193.555E+03
             680     57.4600E-03     1.46151E-03     57.4414E-03     630.161E-03    -314.494E-03    -315.701E-03    -314.704E-03     630.153E-03    -315.483E-03     4.74862E-03     635.222E-03     3.35814E+06     1.96965E+06    -502.935E+03    -1.80561E+06    -954.794E+03     1.45102E+06    -835.115E+03     164.461E+03
             681     57.4736E-03     731.337E-06     57.4690E-03     630.699E-03    -314.566E-03    -316.199E-03    -315.956E-03     630.698E-03    -314.808E-03     1.14694E-03     632.465E-03     3.09143E+06     1.14351E+06    -1.14717E+06    -2.32451E+06    -501.291E+03    -339.828E+03    -1.48705E+06     15.6804E+03
             682     58.7757E-03     12.4535E-03     57.4412E-03     639.492E-03    -312.246E-03    -325.927E-03    -315.711E-03     629.276E-03    -312.246E-03     191.393E-03     752.171E-03     4.89146E+06     3.15835E+06     400.932E+03    -2.29894E+06     114.828E+03     1.42283E+06    -277.324E+03     284.425E+03
             683     58.2220E-03     11.7231E-03     57.0295E-03     637.342E-03    -312.641E-03    -324.138E-03    -313.318E-03     626.521E-03    -312.641E-03     198.720E-03     758.233E-03     5.50692E+06     4.65676E+06     2.47187E+06    -1.57902E+06     692.551E+03     3.73889E+06     1.11817E+06     697.984E+03
             684     57.8343E-03     10.9911E-03     56.7803E-03     629.729E-03    -312.521E-03    -317.793E-03    -310.819E-03     622.756E-03    -312.521E-03     161.867E-03     727.168E-03     4.43711E+06     4.15111E+06     2.58257E+06    -648.357E+03     695.164E+03     3.48303E+06     1.90713E+06     171.594E+03
             685     57.4455E-03     10.2369E-03     56.5261E-03     628.244E-03    -312.459E-03    -317.400E-03    -311.033E-03     621.877E-03    -312.459E-03     154.059E-03     717.427E-03     5.80917E+06     5.31544E+06     2.00875E+06    -1.02660E+06     379.598E+03     3.90925E+06     2.00875E+06     130.302E+03
             686     57.1262E-03     9.50720E-03     56.3296E-03     626.130E-03    -312.110E-03    -314.399E-03    -309.447E-03     621.178E-03    -312.110E-03     136.068E-03     701.815E-03     7.44355E+06     6.36255E+06     2.28109E+06    -1.95806E+06     460.682E+03     4.31472E+06     1.91018E+06     506.386E+03
             687     56.8299E-03     8.77800E-03     56.1479E-03     622.783E-03    -311.381E-03    -313.129E-03    -307.687E-03     618.528E-03    -312.568E-03     125.701E-03     691.614E-03     7.67683E+06     6.96967E+06     3.22856E+06    -1.69065E+06     398.765E+03     5.68775E+06     2.42106E+06     65.4292E+03
             688     56.5677E-03     8.04584E-03     55.9926E-03     620.023E-03    -310.563E-03    -312.027E-03    -307.000E-03     616.461E-03    -312.027E-03     114.823E-03     682.764E-03     7.02057E+06     6.51040E+06     2.84520E+06    -1.38657E+06    -418.206E+03     6.04906E+06     2.33818E+06     106.718E+03
             689     56.3238E-03     7.31364E-03     55.8469E-03     621.733E-03    -310.088E-03    -311.656E-03    -307.099E-03     618.744E-03    -311.656E-03     105.251E-03     676.813E-03     6.25943E+06     6.24568E+06     2.92253E+06    -809.922E+03    -600.281E+03     6.10647E+06     2.85210E+06     233.862E+03
             690     56.1139E-03     6.58201E-03     55.7265E-03     623.421E-03    -310.301E-03    -312.540E-03    -307.919E-03     621.039E-03    -312.540E-03     93.9666E-03     675.233E-03     5.89995E+06     5.41702E+06     1.47899E+06    -1.21697E+06    -739.612E+03     4.93967E+06     1.47899E+06     194.192E+03
             691     55.9359E-03     5.85176E-03     55.6290E-03     623.813E-03    -311.303E-03    -312.725E-03    -309.597E-03     622.045E-03    -312.664E-03     80.9413E-03     669.767E-03     5.80808E+06     4.59920E+06    -94.6783E+03    -1.84243E+06    -1.17294E+06     3.92972E+06    -94.6783E+03     293.696E+03
             692     55.7872E-03     5.11444E-03     55.5522E-03     624.060E-03    -311.738E-03    -312.859E-03    -310.606E-03     622.867E-03    -312.798E-03     66.3089E-03     662.222E-03     5.40977E+06     4.53202E+06     279.520E+03    -1.52406E+06    -1.05166E+06     4.05962E+06     279.520E+03     590.673E+03
             693     55.6735E-03     4.38329E-03     55.5007E-03     623.745E-03    -311.066E-03    -313.416E-03    -310.369E-03     623.048E-03    -313.416E-03     50.4004E-03     655.387E-03     4.32516E+06     3.66384E+06     165.676E+03    -1.12326E+06    -885.247E+03     3.42583E+06     165.676E+03     231.963E+03
             694     55.6071E-03     3.65130E-03     55.4871E-03     624.403E-03    -311.717E-03    -314.499E-03    -311.360E-03     624.046E-03    -314.499E-03     35.9194E-03     648.068E-03     5.06246E+06     3.88364E+06    -399.363E+03    -1.63244E+06    -1.03393E+06     3.47985E+06    -594.085E+03     27.9407E+03
             695     55.5689E-03     2.92273E-03     55.4920E-03     626.150E-03    -312.872E-03    -314.964E-03    -312.720E-03     625.999E-03    -314.964E-03     23.0216E-03     642.857E-03     5.41220E+06     3.73699E+06    -914.638E+03    -2.14717E+06    -1.20823E+06     3.13183E+06    -1.24842E+06     144.328E+03
             696     55.5603E-03     2.19308E-03     55.5170E-03     628.201E-03    -313.325E-03    -315.020E-03    -313.277E-03     628.153E-03    -315.020E-03     12.8439E-03     638.448E-03     3.93158E+06     2.03582E+06    -1.23496E+06    -2.26939E+06    -1.51493E+06     1.75260E+06    -1.70620E+06    -26.7770E+03
             697     55.5735E-03     1.46112E-03     55.5543E-03     629.193E-03    -313.952E-03    -315.203E-03    -314.158E-03     629.180E-03    -314.985E-03     6.54873E-03     634.266E-03     3.08989E+06     1.14407E+06    -1.37111E+06    -2.27449E+06    -1.54954E+06     953.445E+03    -1.90544E+06    -257.400E+03
             698     55.5929E-03     731.320E-06     55.5881E-03     629.898E-03    -314.315E-03    -315.608E-03    -314.604E-03     629.895E-03    -315.317E-03     3.07066E-03     631.691E-03     3.48848E+06     1.05972E+06    -1.14999E+06    -2.84640E+06    -1.73596E+06    -383.389E+03    -817.323E+03    -93.7469E+03
             699     56.9358E-03     12.4497E-03     55.5580E-03     640.096E-03    -312.819E-03    -325.977E-03    -315.966E-03     630.085E-03    -312.819E-03     189.546E-03     753.035E-03     4.27736E+06     2.50904E+06     479.113E+03    -2.24942E+06     242.930E+03     694.945E+03    -199.143E+03    -167.013E+03
             700     56.3757E-03     11.7187E-03     55.1443E-03     638.479E-03    -312.984E-03    -324.774E-03    -314.139E-03     627.844E-03    -312.984E-03     197.279E-03     759.162E-03     5.32280E+06     4.12913E+06     1.74164E+06    -1.80409E+06     246.410E+03     2.75688E+06     1.06339E+06    -338.559E+03
             701     55.9875E-03     10.9914E-03     54.8980E-03     629.479E-03    -312.095E-03    -317.802E-03    -310.870E-03     622.546E-03    -312.095E-03     161.343E-03     726.804E-03     5.33685E+06     4.77747E+06     1.88396E+06    -1.11231E+06     96.8935E+03     3.56826E+06     1.88396E+06    -268.548E+03
             702     55.5925E-03     10.2389E-03     54.6415E-03     627.688E-03    -312.257E-03    -317.040E-03    -310.664E-03     621.311E-03    -312.257E-03     154.106E-03     716.979E-03     6.71044E+06     5.55220E+06     2.24217E+06    -2.02415E+06     197.194E+03     4.59950E+06     973.532E+03    -27.9321E+03
             703     55.2721E-03     9.50902E-03     54.4479E-03     626.092E-03    -312.077E-03    -314.433E-03    -309.380E-03     621.039E-03    -312.077E-03     137.453E-03     701.825E-03     8.18765E+06     6.40230E+06     2.67645E+06    -2.89013E+06     315.191E+03     4.83652E+06     1.03691E+06     83.8633E+03
             704     54.9671E-03     8.77581E-03     54.2620E-03     622.455E-03    -311.420E-03    -312.790E-03    -307.772E-03     618.016E-03    -311.999E-03     128.388E-03     691.253E-03     7.41997E+06     6.68753E+06     3.22042E+06    -1.68600E+06    -20.2921E+03     5.39273E+06     2.84951E+06     93.5767E+03
             705     54.7041E-03     8.04644E-03     54.1091E-03     619.794E-03    -310.623E-03    -311.565E-03    -306.905E-03     616.076E-03    -311.565E-03     117.286E-03     682.501E-03     6.53006E+06     6.44598E+06     2.72816E+06    -938.774E+03    -273.855E+03     5.85149E+06     2.65773E+06     539.062E+03
             706     54.4621E-03     7.31364E-03     53.9688E-03     621.654E-03    -309.450E-03    -311.954E-03    -306.409E-03     618.613E-03    -311.954E-03     106.069E-03     676.562E-03     6.30190E+06     6.78170E+06     2.84676E+06    -312.105E+03     61.7224E+03     6.47830E+06     2.77633E+06     528.107E+03
             707     54.2457E-03     6.58000E-03     53.8451E-03     623.024E-03    -309.751E-03    -312.737E-03    -307.378E-03     620.651E-03    -312.737E-03     93.7574E-03     674.645E-03     5.96465E+06     6.17890E+06     2.98293E+06    -403.273E+03     280.987E+03     5.49464E+06     2.98293E+06     295.178E+03
             708     54.0618E-03     5.84880E-03     53.7445E-03     624.422E-03    -311.894E-03    -312.842E-03    -310.175E-03     622.641E-03    -312.780E-03     81.3130E-03     670.484E-03     5.64845E+06     5.16662E+06     2.08308E+06    -1.11735E+06    -93.1982E+03     4.14247E+06     2.08308E+06     308.118E+03
             709     53.9149E-03     5.11474E-03     53.6717E-03     625.086E-03    -312.433E-03    -313.099E-03    -311.284E-03     623.876E-03    -313.038E-03     66.8175E-03     663.382E-03     4.73861E+06     4.41389E+06     1.24954E+06    -986.109E+03    -366.931E+03     3.79472E+06     1.24954E+06     257.269E+03
             710     53.7989E-03     4.38485E-03     53.6199E-03     624.385E-03    -311.663E-03    -313.434E-03    -310.953E-03     623.675E-03    -313.434E-03     50.9116E-03     656.099E-03     4.13229E+06     3.53604E+06     168.129E+03    -1.02158E+06    -787.750E+03     3.38255E+06     87.7976E+03     163.550E+03
             711     53.7320E-03     3.65408E-03     53.6076E-03     624.483E-03    -311.871E-03    -314.352E-03    -311.507E-03     624.119E-03    -314.352E-03     36.2169E-03     648.039E-03     4.96915E+06     3.59129E+06    -488.559E+03    -1.82304E+06    -1.23203E+06     3.27534E+06    -763.612E+03    -22.7879E+03
             712     53.6851E-03     2.92208E-03     53.6055E-03     625.418E-03    -312.225E-03    -314.874E-03    -312.070E-03     625.263E-03    -314.874E-03     23.4641E-03     642.146E-03     5.07951E+06     4.05477E+06    -182.057E+03    -1.46488E+06    -647.839E+03     3.56089E+06    -505.220E+03     132.306E+03
             713     53.6780E-03     2.19180E-03     53.6333E-03     627.796E-03    -312.967E-03    -315.166E-03    -312.912E-03     627.740E-03    -315.166E-03     13.9639E-03     638.164E-03     4.26384E+06     3.29680E+06    -539.531E+03    -1.24632E+06    -734.592E+03     2.92868E+06    -683.132E+03     381.518E+03
             714     53.6956E-03     1.46122E-03     53.6757E-03     629.411E-03    -314.012E-03    -315.466E-03    -313.995E-03     629.394E-03    -315.466E-03     7.62734E-03     634.467E-03     3.48551E+06     1.59438E+06    -1.42548E+06    -2.18824E+06    -1.77443E+06     1.39788E+06    -1.64279E+06     301.327E+03
             715     53.7058E-03     728.946E-06     53.7009E-03     631.086E-03    -314.753E-03    -316.303E-03    -315.019E-03     631.082E-03    -316.033E-03     2.80361E-03     632.861E-03     4.38074E+06     1.19402E+06    -1.74401E+06    -3.73915E+06    -1.90557E+06    -518.252E+03    -1.86530E+06     218.514E+03
             716     55.1031E-03     12.4531E-03     53.6775E-03     639.593E-03    -312.599E-03    -325.769E-03    -315.872E-03     629.696E-03    -312.599E-03     188.245E-03     752.484E-03     5.18815E+06     2.83047E+06     373.990E+03    -2.98152E+06     234.706E+03     738.641E+03    -750.404E+03    -345.501E+03
             717     54.5381E-03     11.7245E-03     53.2629E-03     637.882E-03    -312.657E-03    -324.486E-03    -313.904E-03     627.300E-03    -312.657E-03     196.794E-03     758.247E-03     6.75741E+06     4.55913E+06     757.189E+03    -3.09364E+06    -290.519E+03     2.88041E+06    -367.205E+03    -232.485E+03
             718     54.1443E-03     10.9924E-03     53.0167E-03     628.334E-03    -311.888E-03    -316.789E-03    -309.883E-03     621.427E-03    -311.888E-03     160.859E-03     725.603E-03     6.51580E+06     4.81773E+06     636.882E+03    -2.56987E+06    -724.838E+03     3.33617E+06     273.397E+03    -256.794E+03
             719     53.7444E-03     10.2372E-03     52.7604E-03     626.131E-03    -311.905E-03    -315.947E-03    -309.553E-03     619.737E-03    -311.905E-03     154.180E-03     715.645E-03     7.38360E+06     5.08592E+06     1.57210E+06     -3.3231E+06    -430.755E+03     3.82570E+06    -60.0208E+03    -407.494E+03
             720     53.4165E-03     9.50533E-03     52.5640E-03     625.020E-03    -311.485E-03    -313.902E-03    -308.805E-03     619.923E-03    -311.485E-03     137.919E-03     700.527E-03     9.16058E+06     6.30974E+06     2.35936E+06    -4.12553E+06    -288.807E+03     4.75351E+06      78.871E+03    -477.826E+03
             721     53.1087E-03     8.77580E-03     52.3786E-03     622.434E-03    -311.120E-03    -312.979E-03    -307.598E-03     618.022E-03    -312.090E-03     127.948E-03     691.051E-03     8.10388E+06     6.34714E+06     2.64952E+06    -2.85656E+06    -620.310E+03     5.12275E+06     1.63766E+06    -424.553E+03
             722     52.8370E-03     8.04342E-03     52.2212E-03     619.476E-03    -310.443E-03    -311.718E-03    -306.748E-03     615.781E-03    -311.718E-03     116.911E-03     682.596E-03     7.39129E+06     7.51744E+06     3.39970E+06    -947.702E+03     85.9153E+03     6.48383E+06     3.39970E+06    -423.814E+03
             723     52.6000E-03     7.31255E-03     52.0893E-03     622.851E-03    -310.507E-03    -312.238E-03    -307.441E-03     619.784E-03    -312.238E-03     106.634E-03     678.255E-03     6.81691E+06     7.26255E+06     2.23827E+06    -357.665E+03     423.957E+03     6.48093E+06     2.23827E+06    -307.677E+03
             724     52.3831E-03     6.58188E-03     51.9680E-03     623.560E-03    -310.354E-03    -312.766E-03    -307.954E-03     621.160E-03    -312.766E-03     94.3571E-03     675.163E-03     6.28509E+06     5.63303E+06     1.33795E+06    -1.22495E+06    -469.278E+03     4.87736E+06     1.33795E+06    -88.9688E+03
             725     52.1903E-03     5.85013E-03     51.8613E-03     621.833E-03    -310.395E-03    -311.975E-03    -308.638E-03     620.076E-03    -311.975E-03     80.5056E-03     667.829E-03     6.68129E+06     5.58049E+06     2.39604E+06    -1.95304E+06    -754.026E+03     4.38148E+06     2.39604E+06     210.209E+03
             726     52.0392E-03     5.11278E-03     51.7874E-03     623.146E-03    -311.390E-03    -312.605E-03    -310.198E-03     621.955E-03    -312.605E-03     66.3225E-03     661.842E-03     5.42713E+06     4.87773E+06     1.71823E+06    -1.31116E+06    -512.011E+03     4.07858E+06     1.71823E+06     217.340E+03
             727     51.9284E-03     4.38258E-03     51.7431E-03     624.389E-03    -311.764E-03    -313.566E-03    -311.006E-03     623.631E-03    -313.566E-03     52.8300E-03     656.539E-03     5.02336E+06     3.98498E+06    -287.293E+03    -1.50679E+06    -1.00233E+06     3.56084E+06    -367.624E+03     359.893E+03
             728     51.8529E-03     3.65292E-03     51.7240E-03     624.954E-03    -311.984E-03    -314.551E-03    -311.568E-03     624.538E-03    -314.551E-03     38.7472E-03     648.623E-03     4.85327E+06     3.71504E+06    -373.769E+03    -1.54849E+06    -1.09000E+06     3.33687E+06    -454.101E+03     658.888E+03
             729     51.8168E-03     2.92322E-03     51.7343E-03     625.657E-03    -312.127E-03    -315.125E-03    -311.947E-03     625.477E-03    -315.125E-03     25.2176E-03     642.323E-03     4.70507E+06     3.86649E+06     -43.841E+03    -1.25786E+06    -851.204E+03     3.58828E+06    -172.283E+03     308.143E+03
             730     51.7980E-03     2.18979E-03     51.7517E-03     628.313E-03    -313.178E-03    -315.517E-03    -313.119E-03     628.254E-03    -315.517E-03     13.8518E-03     638.528E-03     4.83217E+06     3.31068E+06      -1.185E+06    -1.76678E+06    -1.25705E+06     3.03579E+06    -1.41984E+06     231.765E+03
             731     51.8166E-03     1.45972E-03     51.7960E-03     630.398E-03    -314.690E-03    -315.821E-03    -314.802E-03     630.385E-03    -315.696E-03     6.48712E-03     635.328E-03     4.41377E+06     2.97498E+06    -1.03868E+06    -1.71841E+06    -693.925E+03     2.31531E+06    -1.40349E+06     688.499E+03
             732     51.8245E-03     730.772E-06     51.8193E-03     631.148E-03    -314.658E-03    -316.435E-03    -316.154E-03     631.145E-03    -314.936E-03     2.28771E-03     632.852E-03     5.46371E+06     2.70257E+06    -1.02207E+06    -3.40105E+06    -1.10009E+06     431.591E+03    -1.05205E+06     325.131E+03
             733     53.2711E-03     12.4553E-03     51.7946E-03     640.045E-03    -312.538E-03    -326.335E-03    -316.358E-03     630.067E-03    -312.538E-03     189.015E-03     752.836E-03     5.71151E+06     3.11698E+06    -588.232E+03    -3.22560E+06    -168.307E+03     1.18408E+06    -1.71263E+06    -59.8706E+03
             734     52.7012E-03     11.7229E-03     51.3809E-03     637.500E-03    -312.583E-03    -324.372E-03    -313.710E-03     626.838E-03    -312.583E-03     197.415E-03     757.950E-03     7.35574E+06     4.86227E+06    -21.6094E+03    -3.53667E+06    -198.800E+03     3.09129E+06    -1.58850E+06     277.535E+03
             735     52.3010E-03     10.9934E-03     51.1326E-03     628.026E-03    -312.133E-03    -316.449E-03    -309.609E-03     621.186E-03    -312.133E-03     160.075E-03     725.502E-03     7.10453E+06     5.20946E+06    -238.461E+03    -2.78696E+06    -360.198E+03     3.58869E+06    -1.04445E+06     315.406E+03
             736     51.8998E-03     10.2365E-03     50.8802E-03     625.193E-03    -311.652E-03    -315.268E-03    -308.926E-03     618.850E-03    -311.652E-03     153.520E-03     714.811E-03     7.54654E+06     6.18576E+06     1.00527E+06    -2.29915E+06    -142.316E+03     4.80289E+06     231.306E+03    -545.215E+03
             737     51.5614E-03     9.50612E-03     50.6775E-03     624.187E-03    -311.254E-03    -313.252E-03    -308.178E-03     619.113E-03    -311.254E-03     137.475E-03     699.868E-03     8.83475E+06     6.83052E+06     2.26254E+06    -3.25445E+06    -222.181E+03     5.22058E+06     840.206E+03    -853.683E+03
             738     51.2560E-03     8.77522E-03     50.4992E-03     622.998E-03    -311.634E-03    -313.216E-03    -307.898E-03     618.610E-03    -312.564E-03     127.708E-03     691.983E-03     9.10305E+06     7.25121E+06     2.37535E+06    -3.04040E+06    -112.185E+03     5.60895E+06     1.08940E+06    -720.039E+03
             739     50.9843E-03     8.04435E-03     50.3457E-03     619.558E-03    -310.717E-03    -311.859E-03    -307.036E-03     615.877E-03    -311.859E-03     116.672E-03     682.880E-03     8.28264E+06     7.06603E+06     2.14754E+06    -2.31255E+06    -684.274E+03     5.71185E+06     1.87345E+06    -1.01703E+06
             740     50.7362E-03     7.31079E-03     50.2067E-03     623.152E-03    -310.951E-03    -312.275E-03    -307.947E-03     620.148E-03    -312.275E-03     105.569E-03     678.730E-03     7.06803E+06     5.55671E+06     356.871E+03    -2.30465E+06    -1.22461E+06     4.69306E+06     140.485E+03    -766.977E+03
             741     50.5173E-03     6.58096E-03     50.0868E-03     623.022E-03    -310.108E-03    -312.467E-03    -307.721E-03     620.634E-03    -312.467E-03     94.1278E-03     674.934E-03     7.16223E+06     5.39609E+06    -538.536E+03    -2.49995E+06    -1.42018E+06     4.53270E+06    -754.923E+03    -223.527E+03
             742     50.3258E-03     5.85011E-03     49.9846E-03     619.883E-03    -309.124E-03    -311.343E-03    -307.310E-03     618.069E-03    -311.343E-03     81.7005E-03     665.973E-03     8.35581E+06     6.15100E+06     244.107E+03    -3.27710E+06    -1.88100E+06     4.75490E+06     244.107E+03    -203.082E+03
             743     50.1720E-03     5.11219E-03     49.9108E-03     622.426E-03    -310.848E-03    -312.483E-03    -309.615E-03     621.193E-03    -312.483E-03     67.3219E-03     660.989E-03     6.83508E+06     4.60435E+06    -350.572E+03    -3.03007E+06    -1.97750E+06     3.55178E+06    -350.572E+03    -232.182E+03
             744     50.0503E-03     4.38104E-03     49.8582E-03     624.618E-03    -311.627E-03    -313.830E-03    -310.893E-03     623.884E-03    -313.830E-03     51.7582E-03     656.636E-03     5.67362E+06     4.32459E+06    -269.204E+03    -1.98949E+06    -1.30547E+06     3.64057E+06    -269.204E+03    -139.716E+03
             745     49.9766E-03     3.64937E-03     49.8432E-03     625.258E-03    -311.960E-03    -314.857E-03    -311.581E-03     624.878E-03    -314.857E-03     36.9259E-03     649.111E-03     5.15506E+06     4.51659E+06     93.9553E+03    -1.07270E+06    -540.630E+03     4.00686E+06     71.6193E+03    -174.673E+03
             746     49.9354E-03     2.91861E-03     49.8500E-03     626.760E-03    -312.894E-03    -315.406E-03    -312.729E-03     626.595E-03    -315.406E-03     24.0157E-03     643.413E-03     4.31457E+06     3.62091E+06    -240.304E+03    -1.00435E+06    -551.192E+03     3.47323E+06    -545.785E+03     20.3957E+03
             747     49.9243E-03     2.19122E-03     49.8762E-03     629.291E-03    -313.977E-03    -315.652E-03    -313.922E-03     629.236E-03    -315.652E-03     13.5141E-03     639.371E-03     4.51329E+06     3.46227E+06    -205.389E+03    -1.49696E+06    -825.842E+03     3.16553E+06    -579.774E+03     317.761E+03
             748     49.9336E-03     1.46122E-03     49.9122E-03     630.602E-03    -315.053E-03    -315.703E-03    -315.171E-03     630.590E-03    -315.572E-03     6.26157E-03     635.587E-03     5.20446E+06     3.09771E+06    -729.906E+03    -2.67682E+06    -1.50830E+06     2.27884E+06    -1.07956E+06     289.378E+03
             749     49.9493E-03     730.643E-06     49.9440E-03     630.543E-03    -314.374E-03    -316.110E-03    -316.108E-03     630.541E-03    -314.374E-03     2.70957E-03     632.296E-03     6.73312E+06     4.30510E+06     55.8124E+03    -3.29883E+06    -292.500E+03     1.59232E+06    -237.732E+03     276.719E+03
             750     51.4486E-03     12.4544E-03     49.9184E-03     640.646E-03    -312.643E-03    -326.803E-03    -316.825E-03     630.667E-03    -312.643E-03     189.063E-03     753.295E-03     5.45226E+06     3.56804E+06    -504.969E+03    -2.40708E+06    -211.414E+03     1.37237E+06    -504.969E+03     305.211E+03
             751     50.8713E-03     11.7251E-03     49.5016E-03     637.784E-03    -312.847E-03    -324.537E-03    -313.884E-03     627.132E-03    -312.847E-03     197.318E-03     758.378E-03     6.26418E+06     4.62962E+06     589.752E+03    -2.35950E+06    -59.2246E+03     2.77184E+06     147.252E+03     62.0153E+03
             752     50.4712E-03     10.9940E-03     49.2592E-03     628.047E-03    -312.159E-03    -316.661E-03    -309.758E-03     621.145E-03    -312.159E-03     160.771E-03     725.742E-03     6.35671E+06     5.73404E+06     1.76856E+06    -1.35846E+06     820.511E+03     4.49599E+06     827.630E+03     255.014E+03
             753     50.0640E-03     10.2379E-03     49.0060E-03     625.480E-03    -311.612E-03    -315.548E-03    -309.117E-03     619.049E-03    -311.612E-03     154.564E-03     714.717E-03     7.03947E+06     6.40885E+06     986.444E+03    -1.47439E+06     645.763E+03     5.19760E+06     77.5405E+03     393.852E+03
             754     49.7236E-03     9.50542E-03     48.8066E-03     623.805E-03    -311.365E-03    -312.748E-03    -307.678E-03     618.735E-03    -311.365E-03     137.361E-03     699.438E-03     8.59962E+06     7.18653E+06     1.48404E+06    -2.51079E+06     173.601E+03     5.38083E+06     605.345E+03    -505.280E+03
             755     49.4115E-03     8.77317E-03     48.6264E-03     622.729E-03    -311.624E-03    -312.656E-03    -307.420E-03     618.376E-03    -312.508E-03     127.121E-03     691.718E-03     9.22774E+06     7.33769E+06     1.92977E+06    -3.03504E+06    -448.969E+03     5.49393E+06     1.18746E+06    -679.223E+03
             756     49.1355E-03     8.04198E-03     48.4730E-03     620.780E-03    -311.008E-03    -312.222E-03    -307.326E-03     617.099E-03    -312.222E-03     116.798E-03     683.798E-03     8.30213E+06     6.51019E+06     1.49917E+06    -2.89835E+06    -534.006E+03     5.05686E+06     588.157E+03    -422.211E+03
             757     48.8808E-03     7.31333E-03     48.3306E-03     623.174E-03    -310.543E-03    -312.415E-03    -307.483E-03     620.114E-03    -312.415E-03     106.539E-03     678.517E-03     6.92579E+06     5.23931E+06     833.369E+03    -2.62113E+06    -685.327E+03     4.15680E+06    -19.9321E+03    -49.9677E+03
             758     48.6593E-03     6.58127E-03     48.2121E-03     622.731E-03    -309.594E-03    -312.537E-03    -307.188E-03     620.324E-03    -312.537E-03     94.3914E-03     674.669E-03     7.65271E+06     6.33818E+06     909.764E+03    -2.31286E+06    -878.146E+03     5.11985E+06     693.377E+03    -122.371E+03
             759     48.4672E-03     5.84644E-03     48.1133E-03     621.499E-03    -309.874E-03    -312.050E-03    -308.088E-03     619.713E-03    -312.050E-03     81.1473E-03     667.619E-03     8.18646E+06     6.69292E+06     995.850E+03    -2.54582E+06    -830.655E+03     4.97776E+06     995.850E+03    -492.662E+03
             760     48.3034E-03     5.11005E-03     48.0323E-03     623.667E-03    -311.603E-03    -313.004E-03    -310.396E-03     622.459E-03    -313.004E-03     66.6609E-03     662.163E-03     6.97558E+06     4.97331E+06    -519.852E+03    -2.58851E+06    -1.19400E+06     3.63699E+06    -578.042E+03    -526.607E+03
             761     48.1798E-03     4.38100E-03     47.9802E-03     624.964E-03    -312.073E-03    -313.878E-03    -311.366E-03     624.257E-03    -313.878E-03     50.7647E-03     656.876E-03     6.08789E+06     4.50317E+06    -618.634E+03    -2.13744E+06    -941.619E+03     3.83815E+06    -1.14943E+06    -799.954E+03
             762     48.1076E-03     3.65198E-03     47.9688E-03     625.636E-03    -312.468E-03    -314.820E-03    -312.112E-03     625.280E-03    -314.820E-03     35.8572E-03     649.421E-03     5.62766E+06     3.68522E+06    -1.03261E+06    -2.46043E+06    -1.53571E+06     3.25544E+06    -1.52755E+06    -842.791E+03
             763     48.0608E-03     2.92225E-03     47.9719E-03     626.599E-03    -312.862E-03    -315.345E-03    -312.711E-03     626.449E-03    -315.345E-03     22.8603E-03     643.345E-03     5.13584E+06     3.24945E+06    -1.27658E+06    -2.28597E+06    -1.75220E+06     3.02116E+06    -1.58206E+06    -255.523E+03
             764     48.0439E-03     2.18958E-03     47.9940E-03     629.037E-03    -313.734E-03    -315.665E-03    -313.683E-03     628.986E-03    -315.665E-03     13.4200E-03     639.243E-03     4.89364E+06     3.07398E+06    -788.476E+03    -2.36968E+06    -1.46947E+06     2.73677E+06    -1.35147E+06     176.183E+03
             765     48.0517E-03     1.46047E-03     48.0295E-03     630.595E-03    -314.999E-03    -315.748E-03    -314.988E-03     630.579E-03    -315.743E-03     7.02747E-03     635.655E-03     5.19059E+06     3.01121E+06    -301.671E+03    -2.85262E+06    -1.30385E+06     2.41613E+06    -1.25536E+06    -213.554E+03
             766     48.0692E-03     730.783E-06     48.0637E-03     631.062E-03    -315.076E-03    -315.980E-03    -315.858E-03     631.060E-03    -315.196E-03     2.82229E-03     632.834E-03     5.35670E+06     2.71196E+06    -139.736E+03    -3.31203E+06    -105.487E+03     872.043E+03    -1.50637E+06    -179.254E+03
             767     49.6222E-03     12.4543E-03     48.0339E-03     640.437E-03    -312.606E-03    -326.530E-03    -316.472E-03     630.379E-03    -312.606E-03     189.858E-03     753.149E-03     5.51904E+06     3.74610E+06    -274.070E+03    -2.38444E+06    -127.820E+03     1.48948E+06    -274.070E+03    -84.7796E+03
             768     49.0446E-03     11.7214E-03     47.6234E-03     637.854E-03    -312.902E-03    -324.724E-03    -313.939E-03     627.070E-03    -312.902E-03     198.735E-03     758.859E-03     6.75411E+06     4.84856E+06     575.628E+03    -2.72740E+06     230.639E+03     2.66165E+06    -195.496E+03    -259.103E+03
             769     48.6380E-03     10.9919E-03     47.3797E-03     628.695E-03    -312.190E-03    -317.418E-03    -310.399E-03     621.676E-03    -312.190E-03     162.270E-03     726.430E-03     7.02985E+06     5.67491E+06     2.09516E+06    -2.34351E+06     395.872E+03     4.20509E+06     825.611E+03    -131.566E+03
             770     48.2235E-03     10.2362E-03     47.1246E-03     625.771E-03    -311.601E-03    -315.969E-03    -309.557E-03     619.358E-03    -311.601E-03     154.339E-03     715.102E-03     6.76968E+06     6.51209E+06     2.09998E+06    -1.21198E+06     475.364E+03     5.60175E+06     1.32298E+06     174.848E+03
             771     47.8819E-03     9.50622E-03     46.9288E-03     624.135E-03    -311.422E-03    -313.119E-03    -308.113E-03     619.129E-03    -311.422E-03     136.555E-03     699.871E-03     8.28220E+06     7.12694E+06     1.47841E+06    -2.26927E+06     169.809E+03     5.43465E+06     731.616E+03     246.432E+03
             772     47.5626E-03     8.77448E-03     46.7463E-03     623.332E-03    -311.613E-03    -313.183E-03    -307.652E-03     619.005E-03    -312.818E-03     126.814E-03     692.085E-03     9.74635E+06     7.72881E+06     2.03627E+06    -3.39563E+06     29.9056E+03     5.62792E+06     711.629E+03    -155.854E+03
             773     47.2767E-03     8.04336E-03     46.5875E-03     620.980E-03    -310.498E-03    -312.764E-03    -306.841E-03     617.323E-03    -312.764E-03     116.375E-03     683.650E-03     8.59065E+06     6.33518E+06     1.68422E+06    -3.49974E+06    -331.224E+03     4.66001E+06     190.872E+03    -129.176E+03
             774     47.0221E-03     7.30822E-03     46.4507E-03     622.203E-03    -309.502E-03    -312.485E-03    -306.444E-03     619.145E-03    -312.485E-03     106.428E-03     677.310E-03     7.11729E+06     5.39403E+06     1.11863E+06    -2.69049E+06    -819.501E+03     4.15995E+06     481.712E+03    -62.9400E+03
             775     46.7963E-03     6.57652E-03     46.3319E-03     623.390E-03    -310.156E-03    -312.728E-03    -307.723E-03     620.958E-03    -312.728E-03     94.9451E-03     675.234E-03     7.80052E+06     6.98508E+06     1.52952E+06    -1.87110E+06    -308.876E+03     5.42285E+06     1.52952E+06    -41.8599E+03
             776     46.6007E-03     5.84871E-03     46.2322E-03     624.050E-03    -311.691E-03    -312.724E-03    -309.944E-03     622.276E-03    -312.697E-03     81.0469E-03     670.146E-03     8.11015E+06     6.90496E+06     1.23353E+06    -2.21991E+06    -337.685E+03     5.02274E+06     1.23353E+06    -150.907E+03
             777     46.4374E-03     5.11269E-03     46.1551E-03     624.481E-03    -312.019E-03    -313.322E-03    -310.863E-03     623.297E-03    -313.294E-03     66.1273E-03     663.052E-03     6.92151E+06     5.44664E+06    -112.496E+03    -1.99739E+06    -627.367E+03     4.13481E+06    -170.686E+03    -364.797E+03
             778     46.3072E-03     4.38051E-03     46.0995E-03     624.714E-03    -311.699E-03    -313.912E-03    -310.984E-03     624.000E-03    -313.912E-03     51.1310E-03     656.522E-03     5.63295E+06     3.88877E+06    -1.11464E+06    -2.15778E+06    -1.18437E+06     3.44616E+06    -1.64544E+06    -154.552E+03
             779     46.2281E-03     3.65025E-03     46.0837E-03     625.626E-03    -312.315E-03    -314.890E-03    -311.936E-03     625.247E-03    -314.890E-03     37.0808E-03     649.378E-03     5.06848E+06     3.60185E+06    -802.555E+03    -1.90861E+06    -1.11195E+06     3.27779E+06    -1.27516E+06     9.83954E+03
             780     46.1853E-03     2.92048E-03     46.0929E-03     626.647E-03    -312.751E-03    -315.434E-03    -312.578E-03     626.475E-03    -315.434E-03     24.7599E-03     643.508E-03     5.32704E+06     3.18267E+06    -1.62550E+06    -2.49660E+06    -1.99427E+06     2.68034E+06    -1.62550E+06    -194.808E+03
             781     46.1661E-03     2.19121E-03     46.1141E-03     628.994E-03    -313.491E-03    -315.833E-03    -313.430E-03     628.933E-03    -315.833E-03     14.3369E-03     639.188E-03     5.12831E+06     2.66523E+06    -1.95414E+06    -2.80271E+06    -2.05495E+06     2.25907E+06    -2.29573E+06    -145.870E+03
             782     46.1739E-03     1.45940E-03     46.1508E-03     630.765E-03    -314.733E-03    -316.192E-03    -314.718E-03     630.749E-03    -316.192E-03     7.07310E-03     635.749E-03     4.87907E+06     3.01791E+06    -903.312E+03    -2.29955E+06    -826.912E+03     2.56070E+06    -1.91875E+06    -43.3707E+03
             783     46.1882E-03     729.119E-06     46.1825E-03     632.332E-03    -315.478E-03    -316.838E-03    -315.752E-03     632.329E-03    -316.561E-03     3.32252E-03     634.073E-03     3.59480E+06     567.995E+03    -1.38505E+06    -3.38766E+06    -2.24642E+06    -195.478E+03    -1.76281E+06    -357.040E+03
             784     47.8035E-03     12.4516E-03     46.1533E-03     639.936E-03    -312.686E-03    -325.997E-03    -315.991E-03     629.930E-03    -312.686E-03     189.430E-03     752.567E-03     6.08454E+06     4.03899E+06    -622.520E+03    -2.71645E+06      -9.136E+03     1.50818E+06    -799.024E+03    -113.242E+03
             785     47.2233E-03     11.7202E-03     45.7458E-03     637.721E-03    -312.928E-03    -324.865E-03    -314.140E-03     626.996E-03    -312.928E-03     198.287E-03     758.819E-03     8.01735E+06     5.96349E+06     443.168E+03    -3.09188E+06     296.666E+03     3.52257E+06    -504.461E+03    -198.697E+03
             786     46.8024E-03     10.9894E-03     45.4939E-03     629.616E-03    -312.593E-03    -318.153E-03    -311.223E-03     622.685E-03    -312.593E-03     161.435E-03     727.428E-03     8.90673E+06     6.44997E+06     1.17655E+06    -3.80262E+06     180.179E+03     4.10670E+06    -462.983E+03    -240.386E+03
             787     46.3906E-03     10.2364E-03     45.2472E-03     626.689E-03    -312.127E-03    -316.244E-03    -309.869E-03     620.314E-03    -312.127E-03     154.139E-03     716.270E-03     8.29496E+06     6.34705E+06     1.06185E+06    -3.19213E+06    -271.263E+03     4.57317E+06    -85.1386E+03    -436.142E+03
             788     46.0357E-03     9.50435E-03     45.0439E-03     623.729E-03    -311.246E-03    -312.774E-03    -307.585E-03     618.593E-03    -311.298E-03     138.259E-03     699.660E-03     8.14324E+06     7.34101E+06     2.19848E+06    -1.97930E+06      64.139E+03     5.90243E+06     1.59362E+06    -135.874E+03
             789     45.7160E-03     8.77325E-03     44.8663E-03     623.059E-03    -311.699E-03    -313.016E-03    -307.528E-03     618.583E-03    -312.710E-03     128.984E-03     691.847E-03     9.53473E+06     7.92710E+06     2.79436E+06    -2.93969E+06     269.981E+03     5.90013E+06     1.61166E+06     526.941E+03
             790     45.4257E-03     8.04083E-03     44.7084E-03     621.108E-03    -310.928E-03    -312.717E-03    -307.230E-03     617.409E-03    -312.717E-03     117.010E-03     683.911E-03     8.80538E+06     6.41491E+06     1.66511E+06    -3.52966E+06    -356.057E+03     4.30137E+06     605.049E+03     232.175E+03
             791     45.1684E-03     7.30990E-03     44.5730E-03     622.138E-03    -309.605E-03    -312.285E-03    -306.638E-03     619.170E-03    -312.285E-03     104.838E-03     677.088E-03     7.52528E+06     6.04303E+06     1.39761E+06    -2.40886E+06    -693.747E+03     4.53155E+06     1.19398E+06    -9.22041E+03
             792     44.9326E-03     6.57750E-03     44.4486E-03     623.076E-03    -309.751E-03    -312.748E-03    -307.389E-03     620.714E-03    -312.748E-03     93.5780E-03     674.360E-03     8.26905E+06     7.00614E+06     1.10512E+06    -2.28678E+06    -765.386E+03     5.48475E+06     1.10512E+06     102.448E+03
             793     44.7282E-03     5.84472E-03     44.3447E-03     624.341E-03    -311.506E-03    -313.060E-03    -309.751E-03     622.559E-03    -313.032E-03     81.3103E-03     670.126E-03     8.35893E+06     6.74099E+06    -425.294E+03    -2.35528E+06    -480.212E+03     4.86592E+06    -425.294E+03    -25.9883E+03
             794     44.5685E-03     5.11017E-03     44.2746E-03     625.881E-03    -312.584E-03    -313.676E-03    -311.382E-03     624.651E-03    -313.649E-03     67.4848E-03     664.421E-03     7.14241E+06     5.28149E+06    -1.28278E+06    -2.30974E+06    -1.17743E+06     4.14917E+06    -1.28278E+06    -28.1777E+03
             795     44.4428E-03     4.38083E-03     44.2263E-03     624.918E-03    -311.597E-03    -313.948E-03    -310.853E-03     624.174E-03    -313.948E-03     52.1614E-03     656.688E-03     5.66217E+06     4.00948E+06    -672.079E+03    -2.20939E+06    -1.88350E+06     3.68359E+06    -672.079E+03     381.518E+03
             796     44.3586E-03     3.64983E-03     44.2082E-03     625.103E-03    -311.589E-03    -314.933E-03    -311.208E-03     624.722E-03    -314.933E-03     37.0596E-03     648.849E-03     4.88844E+06     3.35593E+06    -561.891E+03    -2.05658E+06    -1.62776E+06     2.92710E+06    -561.891E+03     270.924E+03
             797     44.3114E-03     2.91896E-03     44.2152E-03     627.172E-03    -312.826E-03    -315.709E-03    -312.658E-03     627.005E-03    -315.709E-03     24.4416E-03     643.878E-03     4.78202E+06     3.39135E+06    -925.901E+03    -1.71705E+06    -912.663E+03     2.58696E+06    -925.901E+03     38.9102E+03
             798     44.2875E-03     2.18814E-03     44.2335E-03     629.835E-03    -314.256E-03    -316.093E-03    -314.198E-03     629.777E-03    -316.093E-03     13.6706E-03     639.918E-03     5.18221E+06     3.70853E+06    -663.148E+03    -1.90455E+06    -1.01857E+06     2.88430E+06    -724.896E+03    -244.192E+03
             799     44.3002E-03     1.45959E-03     44.2761E-03     631.282E-03    -315.156E-03    -316.429E-03    -315.387E-03     631.271E-03    -316.186E-03     5.65055E-03     636.228E-03     5.11724E+06     2.90487E+06    -1.32000E+06    -2.69585E+06    -2.09892E+06     2.42973E+06    -1.44179E+06    -303.595E+03
             800     44.3050E-03     728.957E-06     44.2990E-03     631.917E-03    -314.787E-03    -316.867E-03    -315.901E-03     631.913E-03    -315.749E-03     783.014E-06     633.607E-03     3.88654E+06     1.72747E+06    -913.303E+03    -2.50377E+06    -1.19673E+06     1.16469E+06    -1.65758E+06    -37.5483E+03
             801     46.0000E-03     12.4508E-03     44.2830E-03     640.622E-03    -312.823E-03    -326.583E-03    -316.617E-03     630.655E-03    -312.823E-03     189.189E-03     753.106E-03     6.89641E+06     4.96839E+06     299.824E+03    -2.73796E+06     396.224E+03     2.01071E+06     123.321E+03    -165.644E+03
             802     45.4068E-03     11.7203E-03     43.8681E-03     637.846E-03    -312.919E-03    -324.893E-03    -314.246E-03     627.199E-03    -312.919E-03     197.504E-03     758.563E-03     8.52768E+06     6.59725E+06     1.14039E+06    -3.03019E+06     460.267E+03     3.83917E+06     408.019E+03     26.5222E+03
             803     44.9851E-03     10.9909E-03     43.6217E-03     628.780E-03    -312.620E-03    -317.212E-03    -310.261E-03     621.828E-03    -312.620E-03     161.473E-03     726.562E-03     9.53895E+06     6.61908E+06     676.658E+03    -4.31493E+06    -219.250E+03     3.94768E+06    -747.619E+03    -193.905E+03
             804     44.5600E-03     10.2337E-03     43.3690E-03     626.260E-03    -312.257E-03    -315.643E-03    -309.188E-03     619.805E-03    -312.257E-03     154.953E-03     716.094E-03     9.57110E+06     6.59852E+06     183.528E+03    -4.33816E+06    -610.212E+03     4.05760E+06    -1.00350E+06    -740.356E+03
             805     44.2062E-03     9.50282E-03     43.1727E-03     623.984E-03    -311.500E-03    -312.823E-03    -307.625E-03     618.838E-03    -311.552E-03     138.411E-03     699.951E-03     9.16016E+06     7.56745E+06     1.53533E+06    -2.85234E+06    -14.8253E+03     5.37483E+06     890.444E+03     23.1939E+03
             806     43.8722E-03     8.76957E-03     42.9868E-03     622.659E-03    -311.648E-03    -312.817E-03    -307.520E-03     618.238E-03    -312.523E-03     128.108E-03     691.464E-03     10.2208E+06     8.02914E+06     1.81015E+06    -3.34407E+06    -419.298E+03     5.43063E+06     1.48388E+06     130.501E+03
             807     43.5790E-03     8.04093E-03     42.8308E-03     620.719E-03    -311.244E-03    -312.267E-03    -307.562E-03     617.037E-03    -312.267E-03     116.817E-03     683.684E-03     9.62704E+06     7.21066E+06     1.36306E+06    -3.39183E+06    -459.242E+03     4.48170E+06     1.15943E+06    -59.8569E+03
             808     43.3165E-03     7.30896E-03     42.6954E-03     623.509E-03    -310.754E-03    -312.402E-03    -307.705E-03     620.460E-03    -312.402E-03     106.418E-03     678.513E-03     8.21875E+06     6.80573E+06     1.84965E+06    -2.47108E+06    -23.8057E+03     5.13344E+06     1.07467E+06     241.039E+03
             809     43.0806E-03     6.57880E-03     42.5753E-03     624.209E-03    -310.062E-03    -313.101E-03    -307.665E-03     621.811E-03    -313.101E-03     94.3132E-03     675.306E-03     8.43898E+06     7.05686E+06     1.36927E+06    -2.49062E+06    -386.036E+03     5.52363E+06     797.922E+03     51.8031E+03
             810     42.8726E-03     5.84561E-03     42.4723E-03     623.207E-03    -310.205E-03    -312.909E-03    -308.451E-03     621.452E-03    -312.909E-03     80.5415E-03     668.551E-03     7.67730E+06     5.81225E+06     223.564E+03    -2.66240E+06    -1.15207E+06     4.30192E+06     223.564E+03     291.250E+03
             811     42.6952E-03     5.10786E-03     42.3886E-03     624.763E-03    -311.705E-03    -313.444E-03    -310.522E-03     623.580E-03    -313.444E-03     66.0874E-03     663.225E-03     6.65398E+06     4.92726E+06    -482.346E+03    -2.22793E+06    -1.23369E+06     3.93302E+06    -482.346E+03     558.826E+03
             812     42.5710E-03     4.37872E-03     42.3453E-03     625.455E-03    -312.151E-03    -313.983E-03    -311.435E-03     624.739E-03    -313.983E-03     51.2452E-03     657.356E-03     6.36666E+06     4.72837E+06    -611.056E+03    -2.23740E+06    -1.35368E+06     4.17683E+06    -943.237E+03     331.610E+03
             813     42.4885E-03     3.64870E-03     42.3315E-03     625.729E-03    -312.390E-03    -314.785E-03    -312.021E-03     625.360E-03    -314.785E-03     36.4398E-03     649.354E-03     5.61663E+06     3.56218E+06    -962.287E+03    -2.66608E+06    -1.85051E+06     3.07880E+06    -1.29447E+06     53.5592E+03
             814     42.4335E-03     2.91885E-03     42.3330E-03     627.260E-03    -313.232E-03    -315.544E-03    -313.085E-03     627.113E-03    -315.544E-03     22.5344E-03     643.951E-03     5.18989E+06     3.43589E+06    -729.947E+03    -2.35466E+06    -1.71182E+06     2.79305E+06    -729.947E+03     404.357E+03
             815     42.4067E-03     2.18998E-03     42.3501E-03     629.656E-03    -314.354E-03    -315.921E-03    -314.311E-03     629.614E-03    -315.921E-03     11.9210E-03     639.823E-03     5.83786E+06     3.92555E+06    -188.060E+03    -2.73058E+06    -1.32468E+06     3.19519E+06    -863.614E+03     124.263E+03
             816     42.4139E-03     1.46037E-03     42.3887E-03     631.027E-03    -315.258E-03    -316.120E-03    -315.490E-03     631.017E-03    -315.878E-03     5.39268E-03     636.030E-03     5.32995E+06     3.51359E+06    -597.479E+03    -2.40322E+06    -959.191E+03     3.00204E+06    -1.52996E+06    -201.271E+03
             817     42.4237E-03     732.844E-06     42.4173E-03     630.995E-03    -314.219E-03    -316.535E-03    -315.327E-03     630.984E-03    -315.417E-03     2.84879E-03     632.679E-03     4.00341E+06      1.3419E+06    -1.48029E+06    -2.97699E+06    -1.39329E+06     460.773E+03    -2.18285E+06     17.5754E+03
             818     44.1962E-03     12.4498E-03     42.4065E-03     641.164E-03    -312.924E-03    -326.946E-03    -316.855E-03     631.072E-03    -312.924E-03     190.245E-03     753.736E-03     7.41854E+06     5.09005E+06     472.279E+03    -3.30505E+06     127.609E+03     2.29573E+06    -166.065E+03    -57.1583E+03
             819     43.5969E-03     11.7204E-03     41.9920E-03     637.659E-03    -312.935E-03    -324.448E-03    -313.642E-03     626.854E-03    -312.935E-03     198.842E-03     758.478E-03     9.35904E+06     6.25565E+06     697.063E+03    -4.41862E+06    -618.363E+03     3.64960E+06    -497.147E+03    -147.996E+03
             820     43.1758E-03     10.9881E-03     41.7541E-03     628.664E-03    -312.762E-03    -316.859E-03    -309.782E-03     621.587E-03    -312.762E-03     162.858E-03     726.625E-03     10.6492E+06     7.47924E+06     646.928E+03    -4.62568E+06     57.0394E+03     4.01856E+06    -575.108E+03    -706.809E+03
             821     42.7365E-03     10.2316E-03     41.4937E-03     626.530E-03    -312.382E-03    -315.877E-03    -309.351E-03     620.004E-03    -312.382E-03     155.753E-03     716.360E-03     11.2266E+06     8.75213E+06     1.63442E+06    -3.98706E+06     432.674E+03     5.31719E+06     649.637E+03     265.314E+03
             822     42.3755E-03     9.50080E-03     41.2967E-03     625.706E-03    -312.080E-03    -314.089E-03    -308.968E-03     620.584E-03    -312.080E-03     138.315E-03     701.595E-03     11.6261E+06     8.24031E+06     885.591E+03    -4.83129E+06    -882.333E+03     4.60997E+06     566.974E+03     397.672E+03
             823     42.0367E-03     8.77175E-03     41.1114E-03     623.868E-03    -311.866E-03    -313.814E-03    -308.344E-03     619.467E-03    -312.935E-03     127.960E-03     692.659E-03     11.9466E+06     8.75806E+06     519.595E+03    -4.48900E+06    -360.103E+03     4.62916E+06     519.595E+03    -212.954E+03
             824     41.7358E-03     8.03870E-03     40.9543E-03     620.595E-03    -310.898E-03    -312.262E-03    -307.239E-03     616.937E-03    -312.262E-03     116.408E-03     683.255E-03     10.5873E+06     8.14067E+06     1.06204E+06    -3.55862E+06    -447.760E+03     5.27202E+06     819.833E+03    -4.67413E+03
             825     41.4631E-03     7.30761E-03     40.8141E-03     623.910E-03    -310.866E-03    -312.565E-03    -307.841E-03     620.886E-03    -312.565E-03     105.993E-03     678.823E-03     8.85163E+06     6.43167E+06     871.746E+03    -3.50115E+06    -1.01907E+06     4.76314E+06     58.1939E+03     7.83244E+03
             826     41.2246E-03     6.57605E-03     40.6967E-03     625.284E-03    -310.814E-03    -313.207E-03    -308.440E-03     622.910E-03    -313.207E-03     93.9397E-03     676.715E-03     8.29210E+06     6.21053E+06     558.673E+03    -3.12330E+06    -1.09916E+06     4.75773E+06    -12.6716E+03     366.272E+03
             827     41.0143E-03     5.84665E-03     40.5954E-03     623.915E-03    -311.078E-03    -312.874E-03    -309.333E-03     622.169E-03    -312.874E-03     80.4123E-03     669.480E-03     7.42506E+06     5.48080E+06     317.074E+03    -2.83962E+06    -1.50421E+06     4.14539E+06     317.074E+03     494.904E+03
             828     40.8419E-03     5.10926E-03     40.5211E-03     624.312E-03    -311.669E-03    -313.373E-03    -310.516E-03     623.159E-03    -313.373E-03     65.1354E-03     662.453E-03     6.78598E+06     5.05971E+06    -86.6774E+03    -2.45405E+06    -1.36502E+06     3.97068E+06    -86.6774E+03     348.910E+03
             829     40.7033E-03     4.37818E-03     40.4671E-03     625.837E-03    -312.354E-03    -314.119E-03    -311.687E-03     625.170E-03    -314.119E-03     49.4572E-03     657.382E-03     6.34180E+06     5.38087E+06    -107.426E+03    -1.54913E+06    -572.561E+03     4.73648E+06    -439.607E+03     44.1553E+03
             830     40.6149E-03     3.65017E-03     40.4506E-03     626.227E-03    -313.080E-03    -314.813E-03    -312.737E-03     625.884E-03    -314.813E-03     35.2711E-03     649.973E-03     5.69278E+06     4.43593E+06    -612.391E+03    -1.70230E+06    -1.00984E+06     4.07565E+06    -944.572E+03     219.941E+03
             831     40.5577E-03     2.92160E-03     40.4523E-03     626.721E-03    -313.112E-03    -315.324E-03    -312.961E-03     626.569E-03    -315.324E-03     23.1440E-03     643.645E-03     5.73388E+06     3.46134E+06    -813.814E+03    -2.84170E+06    -1.62858E+06     3.16846E+06    -1.73405E+06    -66.7240E+03
             832     40.5362E-03     2.19050E-03     40.4770E-03     628.893E-03    -313.565E-03    -315.838E-03    -313.509E-03     628.837E-03    -315.838E-03     13.7665E-03     639.253E-03     5.72148E+06     3.11881E+06    -476.167E+03    -3.41983E+06    -1.45758E+06     2.75235E+06    -2.07195E+06    -310.181E+03
             833     40.5358E-03     1.46023E-03     40.5095E-03     630.613E-03    -314.694E-03    -316.234E-03    -314.679E-03     630.598E-03    -316.234E-03     7.07347E-03     635.713E-03     4.88390E+06     2.92473E+06    -753.672E+03    -2.56448E+06    -1.17868E+06     2.41137E+06    -1.62611E+06     185.117E+03
             834     40.5533E-03     727.489E-06     40.5468E-03     632.302E-03    -314.854E-03    -317.383E-03    -314.841E-03     632.289E-03    -317.383E-03     3.41238E-03     634.038E-03     3.71688E+06     2.46977E+06    -476.456E+03    -1.67365E+06    -507.388E+03     1.36974E+06    -542.684E+03     333.132E+03
             835     42.3864E-03     12.4490E-03     40.5170E-03     640.121E-03    -312.985E-03    -326.011E-03    -315.874E-03     629.984E-03    -312.985E-03     190.511E-03     752.793E-03     8.19606E+06     5.19549E+06     -7.9385E+03    -4.04444E+06    -79.7876E+03     1.86918E+06    -646.283E+03    -110.021E+03
             836     41.7896E-03     11.7143E-03     40.1141E-03     637.355E-03    -313.085E-03    -323.943E-03    -313.113E-03     626.524E-03    -313.085E-03     198.921E-03     758.231E-03     10.4356E+06     7.92433E+06     1.35751E+06    -3.84788E+06     793.084E+03     4.34965E+06     291.230E+03    -395.045E+03
             837     41.3565E-03     10.9856E-03     39.8707E-03     629.344E-03    -312.779E-03    -317.430E-03    -310.424E-03     622.338E-03    -312.779E-03     162.180E-03     727.109E-03     12.3828E+06     8.85956E+06     1.28108E+06    -5.05420E+06     336.586E+03     4.56288E+06     186.975E+03     88.4581E+03
             838     40.9175E-03     10.2300E-03     39.6180E-03     626.971E-03    -312.338E-03    -316.263E-03    -309.800E-03     620.508E-03    -312.338E-03     155.137E-03     716.193E-03     13.4425E+06     9.27631E+06     925.639E+03    -5.71762E+06    -363.182E+03     4.58803E+06     259.470E+03     317.653E+03
             839     40.5446E-03     9.49957E-03     39.4160E-03     626.026E-03    -312.246E-03    -313.995E-03    -308.874E-03     620.906E-03    -312.246E-03     138.310E-03     701.593E-03     13.2271E+06     9.43432E+06     159.782E+03    -5.23494E+06    -84.3645E+03     4.28374E+06     159.782E+03     233.201E+03
             840     40.2041E-03     8.76774E-03     39.2364E-03     625.302E-03    -312.672E-03    -313.981E-03    -308.860E-03     620.870E-03    -313.361E-03     128.566E-03     693.936E-03     12.4562E+06     8.84076E+06    -113.213E+03    -4.97892E+06    -631.245E+03     4.49309E+06    -113.213E+03     199.170E+03
             841     39.8979E-03     8.03879E-03     39.0797E-03     622.591E-03    -311.851E-03    -312.925E-03    -308.405E-03     618.926E-03    -312.706E-03     116.671E-03     685.120E-03     11.3848E+06     8.98543E+06     1.67170E+06    -3.57558E+06    -146.246E+03     5.79830E+06     1.42950E+06     490.771E+03
             842     39.6189E-03     7.30752E-03     38.9391E-03     624.043E-03    -310.920E-03    -312.747E-03    -308.194E-03     621.097E-03    -312.528E-03     104.623E-03     679.070E-03     9.36910E+06     7.33842E+06     1.74520E+06    -3.13815E+06    -635.857E+03     5.07833E+06     1.50300E+06     373.810E+03
             843     39.3712E-03     6.57771E-03     38.8178E-03     624.907E-03    -310.935E-03    -313.110E-03    -308.632E-03     622.605E-03    -313.110E-03     92.5180E-03     676.719E-03     7.82609E+06     5.71787E+06     164.571E+03    -3.05075E+06    -1.39603E+06     4.06315E+06     164.571E+03     1.59294E+03
             844     39.1559E-03     5.84566E-03     38.7171E-03     624.837E-03    -312.199E-03    -313.119E-03    -310.494E-03     623.131E-03    -313.119E-03     79.5722E-03     671.067E-03     7.70413E+06     6.22305E+06    -66.3149E+03    -2.31765E+06    -855.581E+03     4.76098E+06    -66.3149E+03     49.5477E+03
             845     38.9768E-03     5.11047E-03     38.6404E-03     625.093E-03    -312.385E-03    -313.423E-03    -311.231E-03     623.939E-03    -313.423E-03     65.3145E-03     663.345E-03     7.18429E+06     6.08604E+06    -53.3528E+03    -1.80393E+06    -606.850E+03     4.88896E+06    -53.3528E+03    -78.6394E+03
             846     38.8361E-03     4.38104E-03     38.5882E-03     625.045E-03    -311.711E-03    -313.988E-03    -311.015E-03     624.349E-03    -313.988E-03     50.5048E-03     656.664E-03     6.18829E+06     4.94858E+06    -373.547E+03    -1.82847E+06    -1.24293E+06     4.36304E+06    -373.547E+03    -135.303E+03
             847     38.7417E-03     3.65053E-03     38.5694E-03     625.164E-03    -311.937E-03    -314.861E-03    -311.573E-03     624.801E-03    -314.861E-03     36.2349E-03     649.023E-03     5.37775E+06     4.21840E+06    -540.581E+03    -1.58208E+06    -1.24251E+06     3.87883E+06    -540.581E+03     37.0614E+03
             848     38.6896E-03     2.91895E-03     38.5794E-03     626.543E-03    -312.437E-03    -315.546E-03    -312.274E-03     626.380E-03    -315.546E-03     24.1890E-03     643.380E-03     5.10213E+06     3.41066E+06    -244.818E+03    -2.18675E+06    -1.00310E+06     3.14724E+06    -1.16505E+06     3.57709E+03
             849     38.6568E-03     2.18856E-03     38.5948E-03     629.312E-03    -313.662E-03    -316.190E-03    -313.603E-03     629.252E-03    -316.190E-03     13.8592E-03     639.708E-03     5.15826E+06     3.30200E+06    -136.827E+03    -2.45453E+06    -1.01902E+06     2.78672E+06    -1.05706E+06     3.22965E+03
             850     38.6629E-03     1.45788E-03     38.6354E-03     631.388E-03    -315.087E-03    -316.657E-03    -315.291E-03     631.377E-03    -316.442E-03     5.63449E-03     636.446E-03     4.93852E+06      3.5434E+06    -674.162E+03    -1.80097E+06    -1.00598E+06     2.74841E+06    -674.162E+03    -9.01256E+03
             851     38.6653E-03     730.257E-06     38.6584E-03     632.515E-03    -314.724E-03    -317.634E-03    -316.299E-03     632.511E-03    -316.056E-03     570.037E-06     634.211E-03     4.40269E+06     2.64347E+06    -237.239E+03    -2.11933E+06    -595.754E+03     1.43086E+06    -548.204E+03    -339.822E+03
             852     40.5958E-03     12.4455E-03     38.6410E-03     639.532E-03    -312.938E-03    -325.622E-03    -315.554E-03     629.464E-03    -312.938E-03     189.977E-03     752.232E-03     8.82315E+06     5.80019E+06     307.756E+03    -3.94851E+06    -62.7593E+03     2.15184E+06     70.3521E+03    -112.365E+03
             853     39.9899E-03     11.7162E-03     38.2351E-03     637.957E-03    -313.099E-03    -324.213E-03    -313.513E-03     627.257E-03    -313.099E-03     197.782E-03     758.178E-03     11.3004E+06     7.63800E+06     1.01868E+06    -4.85371E+06    -361.293E+03     3.81093E+06     353.337E+03    -78.6842E+03
             854     39.5472E-03     10.9848E-03     37.9910E-03     630.206E-03    -312.771E-03    -317.933E-03    -311.032E-03     623.305E-03    -312.771E-03     161.095E-03     727.263E-03     13.8629E+06     8.51114E+06     347.944E+03    -6.76819E+06    -760.531E+03     3.31051E+06    -459.083E+03     255.798E+03
             855     39.0991E-03     10.2303E-03     37.7370E-03     626.805E-03    -312.066E-03    -316.365E-03    -310.010E-03     620.450E-03    -312.066E-03     153.842E-03     715.840E-03     15.0216E+06     10.3898E+06     459.286E+03    -6.24299E+06    -313.172E+03     4.83909E+06     80.1990E+03     238.327E+03
             856     38.7210E-03     9.49906E-03     37.5378E-03     625.519E-03    -312.025E-03    -313.673E-03    -308.689E-03     620.535E-03    -312.025E-03     136.369E-03     700.936E-03     13.9363E+06     10.2475E+06     387.995E+03    -5.22865E+06    -356.312E+03     5.37519E+06     387.995E+03     157.403E+03
             857     38.3685E-03     8.76802E-03     37.3532E-03     624.426E-03    -312.374E-03    -313.611E-03    -308.492E-03     620.151E-03    -313.218E-03     126.194E-03     693.128E-03     12.6258E+06     9.31746E+06     649.224E+03    -4.62427E+06    -398.847E+03     5.09204E+06     649.224E+03     412.208E+03
             858     38.0520E-03     8.03710E-03     37.1935E-03     621.967E-03    -311.622E-03    -312.875E-03    -308.229E-03     618.354E-03    -312.656E-03     115.823E-03     684.551E-03     12.7547E+06     9.45391E+06     1.39659E+06    -4.55827E+06    -647.506E+03     5.54315E+06     1.39659E+06    -23.8592E+03
             859     37.7714E-03     7.30821E-03     37.0576E-03     623.661E-03    -310.867E-03    -312.662E-03    -308.077E-03     620.652E-03    -312.443E-03     105.758E-03     678.711E-03     10.2900E+06     7.84296E+06     1.21882E+06    -3.62196E+06    -615.532E+03     4.83654E+06     1.21882E+06    -209.400E+03
             860     37.5200E-03     6.57726E-03     36.9390E-03     625.485E-03    -311.385E-03    -313.251E-03    -308.992E-03     623.092E-03    -313.251E-03     94.3542E-03     677.200E-03     8.20059E+06     6.55121E+06     357.584E+03    -2.54582E+06    -518.918E+03     4.52431E+06     357.584E+03    -207.609E+03
             861     37.2959E-03     5.84754E-03     36.8346E-03     625.249E-03    -312.366E-03    -313.152E-03    -310.601E-03     623.484E-03    -313.152E-03     80.9487E-03     671.166E-03     8.33786E+06     6.73752E+06     353.967E+03    -2.48477E+06    -744.396E+03     4.99714E+06     353.967E+03    -192.039E+03
             862     37.1158E-03     5.11088E-03     36.7623E-03     624.449E-03    -312.087E-03    -313.089E-03    -310.888E-03     623.250E-03    -313.089E-03     66.5800E-03     662.741E-03     7.35697E+06     5.92968E+06     298.029E+03    -2.25450E+06    -1.04881E+06     4.72399E+06     298.029E+03        -788.156
             863     36.9716E-03     4.38021E-03     36.7112E-03     624.622E-03    -311.519E-03    -313.891E-03    -310.794E-03     623.897E-03    -313.891E-03     51.4562E-03     656.378E-03     6.01952E+06     4.29692E+06    -991.226E+03    -2.23035E+06    -1.32627E+06     3.45264E+06    -1.05103E+06    -10.5737E+03
             864     36.8745E-03     3.64877E-03     36.6936E-03     624.971E-03    -311.752E-03    -314.888E-03    -311.387E-03     624.606E-03    -314.888E-03     36.2279E-03     648.887E-03     5.55373E+06     4.12023E+06    -375.132E+03    -1.99583E+06    -1.21390E+06     3.39810E+06    -434.936E+03    -193.677E+03
             865     36.8092E-03     2.91935E-03     36.6933E-03     626.979E-03    -312.900E-03    -315.601E-03    -312.756E-03     626.835E-03    -315.601E-03     22.1914E-03     643.778E-03     5.00846E+06     4.04267E+06     527.074E+03    -1.64106E+06    -1.13461E+06     3.76684E+06     296.449E+03    -121.011E+03
             866     36.7824E-03     2.18884E-03     36.7172E-03     629.648E-03    -314.140E-03    -316.075E-03    -314.100E-03     629.608E-03    -316.075E-03     11.5497E-03     639.875E-03     4.95916E+06     3.82699E+06    -169.130E+03    -1.62000E+06    -964.589E+03     3.40219E+06    -399.754E+03     181.997E+03
             867     36.7784E-03     1.46096E-03     36.7494E-03     631.032E-03    -315.046E-03    -316.298E-03    -315.251E-03     631.023E-03    -316.083E-03     5.23278E-03     636.024E-03     5.28651E+06     4.10463E+06    -649.581E+03    -1.54845E+06    -487.110E+03     3.32939E+06    -935.680E+03    -136.314E+03
             868     36.7907E-03     730.486E-06     36.7835E-03     631.603E-03    -314.514E-03    -316.955E-03    -316.609E-03     631.601E-03    -314.858E-03     2.73241E-03     633.346E-03     4.30414E+06     1.49047E+06    -1.46629E+06    -3.11818E+06    -1.75280E+06     342.890E+03    -1.68408E+06    -442.058E+03
             869     38.8124E-03     12.4461E-03     36.7627E-03     639.832E-03    -312.761E-03    -326.115E-03    -316.109E-03     629.827E-03    -312.761E-03     189.498E-03     752.712E-03     9.99413E+06     6.82314E+06     1.55679E+06    -4.20607E+06     176.972E+03     2.67750E+06     1.31939E+06     7.47353E+03
             870     38.1980E-03     11.7148E-03     36.3573E-03     639.347E-03    -313.065E-03    -325.321E-03    -314.712E-03     628.739E-03    -313.065E-03     197.105E-03     759.180E-03     13.1009E+06     8.76092E+06     1.62408E+06    -5.61302E+06    -36.3935E+03     3.42170E+06     1.38667E+06     164.164E+03
             871     37.7458E-03     10.9854E-03     36.1119E-03     631.309E-03    -312.893E-03    -318.475E-03    -311.685E-03     624.520E-03    -312.893E-03     159.931E-03     728.002E-03     15.3992E+06     9.49897E+06     951.806E+03    -7.33184E+06    -206.098E+03     2.75231E+06     572.719E+03     286.293E+03
             872     37.2873E-03     10.2293E-03     35.8567E-03     626.726E-03    -312.005E-03    -316.256E-03    -310.024E-03     620.494E-03    -312.005E-03     152.336E-03     715.738E-03     15.9563E+06     10.7203E+06     1.31261E+06    -7.03103E+06    -385.898E+03     4.45423E+06     933.522E+03    -13.4892E+03
             873     36.9042E-03     9.50061E-03     35.6603E-03     625.957E-03    -312.048E-03    -314.042E-03    -309.107E-03     621.021E-03    -312.048E-03     135.803E-03     701.272E-03     14.8961E+06     11.0922E+06     1.63479E+06    -5.66732E+06    -78.4095E+03     5.50326E+06     1.63479E+06     126.025E+03
             874     36.5437E-03     8.77065E-03     35.4756E-03     623.657E-03    -311.595E-03    -313.637E-03    -307.938E-03     619.354E-03    -312.991E-03     126.520E-03     692.091E-03     13.5380E+06     10.6504E+06     2.13775E+06    -4.37571E+06     70.3618E+03     6.20432E+06     2.13775E+06     200.622E+03
             875     36.2165E-03     8.03959E-03     35.3129E-03     620.341E-03    -310.455E-03    -312.540E-03    -306.797E-03     616.682E-03    -312.540E-03     116.363E-03     682.613E-03     13.4455E+06     10.1802E+06     1.62265E+06    -4.71329E+06    -201.612E+03     5.66852E+06     1.62265E+06     109.926E+03
             876     35.9237E-03     7.30511E-03     35.1731E-03     623.435E-03    -310.668E-03    -312.773E-03    -307.613E-03     620.380E-03    -312.773E-03     106.515E-03     678.355E-03     11.3567E+06     8.71809E+06     1.18595E+06    -3.96516E+06    -238.653E+03     4.99159E+06     1.18595E+06    -232.343E+03
             877     35.6651E-03     6.57605E-03     35.0536E-03     626.078E-03    -311.600E-03    -313.514E-03    -309.178E-03     623.656E-03    -313.514E-03     94.9514E-03     677.601E-03     9.15425E+06     7.16948E+06     674.996E+03    -2.99371E+06    -185.829E+03     4.36160E+06     674.996E+03    -319.868E+03
             878     35.4455E-03     5.84511E-03     34.9602E-03     625.268E-03    -312.285E-03    -313.123E-03    -310.490E-03     623.474E-03    -313.123E-03     81.6704E-03     670.866E-03     8.50840E+06     6.31489E+06     76.9891E+03    -2.98945E+06    -835.317E+03     4.16076E+06     76.9891E+03     158.694E+03
             879     35.2572E-03     5.10933E-03     34.8850E-03     624.375E-03    -312.112E-03    -313.087E-03    -310.899E-03     623.163E-03    -313.087E-03     66.8679E-03     662.647E-03     7.35375E+06     5.86207E+06     246.615E+03    -2.29464E+06    -1.04613E+06     4.61356E+06     246.615E+03     105.624E+03
             880     35.1135E-03     4.37971E-03     34.8392E-03     625.541E-03    -312.177E-03    -314.069E-03    -311.462E-03     624.825E-03    -314.069E-03     51.1928E-03     657.127E-03     6.07706E+06     5.07553E+06     372.102E+03    -1.71089E+06    -729.569E+03     4.15401E+06     312.297E+03    -7.22356E+03
             881     35.0078E-03     3.65031E-03     34.8170E-03     625.811E-03    -312.625E-03    -314.905E-03    -312.257E-03     625.443E-03    -314.905E-03     36.4705E-03     649.530E-03     6.04491E+06     4.70170E+06     279.895E+03    -2.09667E+06    -797.038E+03     3.80419E+06    -122.227E+03    -112.849E+03
             882     34.9382E-03     2.92046E-03     34.8159E-03     627.077E-03    -313.439E-03    -315.399E-03    -313.287E-03     626.925E-03    -315.399E-03     22.9195E-03     643.860E-03     5.71988E+06     3.98749E+06    -577.760E+03    -2.34049E+06    -1.26677E+06     3.48672E+06    -1.15070E+06    -424.477E+03
             883     34.9023E-03     2.19178E-03     34.8334E-03     629.352E-03    -314.036E-03    -315.793E-03    -313.991E-03     629.307E-03    -315.793E-03     12.2090E-03     639.533E-03     4.92439E+06     3.23292E+06    -1.15997E+06    -2.07013E+06    -1.37676E+06     2.85829E+06    -1.47872E+06    -437.859E+03
             884     34.8973E-03     1.45935E-03     34.8668E-03     630.308E-03    -314.541E-03    -315.945E-03    -314.531E-03     630.298E-03    -315.945E-03     5.88857E-03     635.305E-03     4.99125E+06     3.17178E+06    -996.245E+03    -2.34602E+06    -1.40482E+06     2.60481E+06    -1.37047E+06    -170.119E+03
             885     34.9048E-03     728.684E-06     34.8972E-03     631.688E-03    -315.147E-03    -316.457E-03    -315.663E-03     631.686E-03    -315.939E-03     2.82424E-03     633.447E-03     3.87366E+06     1.33463E+06    -1.49661E+06    -2.99821E+06    -1.91961E+06     370.570E+03    -1.61114E+06     109.730E+03
             886     37.0449E-03     12.4446E-03     34.8921E-03     640.691E-03    -312.690E-03    -326.865E-03    -317.017E-03     630.843E-03    -312.690E-03     188.115E-03     753.648E-03     11.6794E+06     7.51814E+06     1.31745E+06    -5.28182E+06     196.220E+03     2.39901E+06     958.541E+03    -29.4651E+03
             887     36.4128E-03     11.7156E-03     34.4766E-03     639.356E-03    -312.913E-03    -325.440E-03    -314.976E-03     628.892E-03    -312.913E-03     195.846E-03     759.309E-03     15.1429E+06     9.79260E+06     1.26538E+06    -6.84857E+06    -220.790E+03     3.52374E+06     906.472E+03     272.687E+03
             888     35.9523E-03     10.9876E-03     34.2322E-03     630.619E-03    -312.709E-03    -318.021E-03    -311.239E-03     623.837E-03    -312.709E-03     159.717E-03     727.556E-03     17.2006E+06     10.7312E+06     870.023E+03    -8.00005E+06    -285.087E+03     3.01620E+06     870.023E+03    -176.658E+03
             889     35.4858E-03     10.2326E-03     33.9785E-03     627.475E-03    -312.522E-03    -316.635E-03    -310.297E-03     621.136E-03    -312.522E-03     153.755E-03     716.366E-03     16.9990E+06     11.4730E+06     1.61111E+06    -7.24055E+06     122.497E+03     4.10995E+06     1.61111E+06    -23.7201E+03
             890     35.0851E-03     9.49975E-03     33.7746E-03     626.409E-03    -312.478E-03    -314.256E-03    -309.173E-03     621.326E-03    -312.478E-03     137.850E-03     701.684E-03     16.8213E+06     12.0114E+06     1.50274E+06    -6.80860E+06     23.8738E+03     5.17891E+06     1.50274E+06    -315.622E+03
             891     34.7201E-03     8.76846E-03     33.5946E-03     624.147E-03    -312.019E-03    -313.425E-03    -308.010E-03     619.713E-03    -312.999E-03     128.493E-03     692.334E-03     15.2426E+06     11.2666E+06     1.23612E+06    -5.63308E+06     102.664E+03     5.53088E+06     1.23612E+06    -444.006E+03
             892     34.3878E-03     8.03660E-03     33.4355E-03     621.175E-03    -310.960E-03    -312.495E-03    -307.265E-03     617.480E-03    -312.495E-03     116.967E-03     683.318E-03     14.1190E+06     11.1906E+06     2.17903E+06    -4.53693E+06     352.416E+03     6.30126E+06     2.17903E+06    -14.0154E+03
             893     34.0871E-03     7.30671E-03     33.2948E-03     623.355E-03    -310.496E-03    -312.835E-03    -307.519E-03     620.379E-03    -312.835E-03     105.102E-03     678.062E-03     12.9399E+06     10.0620E+06     1.83453E+06    -4.48163E+06     156.723E+03     5.42362E+06     1.83453E+06     208.518E+03
             894     33.8189E-03     6.57465E-03     33.1737E-03     624.881E-03    -310.726E-03    -313.494E-03    -308.407E-03     622.562E-03    -313.494E-03     92.8207E-03     676.101E-03     10.2058E+06     7.36507E+06     753.007E+03    -4.15009E+06    -708.337E+03     3.92332E+06     753.007E+03     459.102E+03
             895     33.5874E-03     5.84491E-03     33.0749E-03     624.179E-03    -311.494E-03    -313.017E-03    -309.765E-03     622.450E-03    -313.017E-03     80.1314E-03     669.971E-03     7.76024E+06     6.24987E+06     1.11967E+06    -2.22816E+06    -254.252E+03     4.27596E+06     1.11967E+06     -186.57E+03
             896     33.3938E-03     5.10885E-03     33.0007E-03     624.838E-03    -312.099E-03    -313.281E-03    -310.915E-03     623.654E-03    -313.281E-03     66.0941E-03     662.994E-03     6.65060E+06     5.57421E+06     478.996E+03    -1.48508E+06    -272.056E+03     4.36119E+06     478.996E+03    -327.189E+03
             897     33.2441E-03     4.37905E-03     32.9545E-03     626.247E-03    -312.610E-03    -314.264E-03    -311.899E-03     625.536E-03    -314.264E-03     51.1433E-03     657.717E-03     6.50203E+06     5.11481E+06     149.624E+03    -2.10906E+06    -437.297E+03     4.11119E+06    -518.523E+03    -130.220E+03
             898     33.1332E-03     3.64933E-03     32.9316E-03     625.942E-03    -312.668E-03    -314.987E-03    -312.292E-03     625.565E-03    -314.987E-03     36.8945E-03     649.669E-03     6.14614E+06     4.71838E+06     405.832E+03    -2.29307E+06    -484.666E+03     3.92045E+06    -604.632E+03     189.269E+03
             899     33.0620E-03     2.91964E-03     32.9329E-03     626.566E-03    -312.670E-03    -315.592E-03    -312.501E-03     626.398E-03    -315.592E-03     24.6220E-03     643.321E-03     5.72757E+06     4.40103E+06    -508.643E+03    -1.82043E+06    -689.215E+03     3.61213E+06    -850.961E+03     385.219E+03
             900     33.0193E-03     2.18856E-03     32.9467E-03     629.615E-03    -313.927E-03    -316.216E-03    -313.864E-03     629.552E-03    -316.216E-03     14.4578E-03     639.873E-03     4.82640E+06     2.94146E+06    -1.61227E+06    -2.11595E+06    -1.28126E+06     2.19489E+06    -1.70039E+06     143.623E+03
             901     33.0201E-03     1.46073E-03     32.9878E-03     631.625E-03    -315.349E-03    -316.476E-03    -315.544E-03     631.610E-03    -316.266E-03     6.92073E-03     636.599E-03     4.56229E+06     2.80406E+06    -1.12063E+06    -2.17755E+06    -999.256E+03     1.94869E+06    -1.44355E+06    -111.854E+03
             902     33.0141E-03     730.581E-06     33.0061E-03     631.856E-03    -315.323E-03    -316.475E-03    -316.024E-03     631.853E-03    -315.771E-03     2.30753E-03     633.536E-03     4.14725E+06     2.18731E+06    -903.127E+03    -2.43744E+06    -897.853E+03     710.957E+03    -966.359E+03     334.856E+03
             903     35.2738E-03     12.4470E-03     33.0048E-03     641.524E-03    -312.736E-03    -327.500E-03    -317.594E-03     631.618E-03    -312.736E-03     188.744E-03     754.364E-03     13.0766E+06     8.07439E+06     1.23635E+06    -6.26404E+06    -411.889E+03     2.58114E+06     877.439E+03     17.2869E+03
             904     34.6343E-03     11.7174E-03     32.5920E-03     638.459E-03    -312.906E-03    -324.987E-03    -314.369E-03     627.841E-03    -312.906E-03     197.396E-03     758.818E-03     16.7418E+06     10.5603E+06     1.20185E+06    -7.82538E+06    -476.795E+03     3.57064E+06     842.939E+03    -571.521E+03
             905     34.1641E-03     10.9848E-03     32.3500E-03     629.121E-03    -312.594E-03    -317.329E-03    -310.343E-03     622.136E-03    -312.594E-03     161.904E-03     726.616E-03     19.0357E+06     12.1109E+06     403.037E+03    -8.83583E+06    -358.808E+03     3.63383E+06     403.037E+03    -112.466E+03
             906     33.6912E-03     10.2293E-03     32.1008E-03     627.668E-03    -312.637E-03    -316.740E-03    -310.279E-03     621.206E-03    -312.637E-03     155.194E-03     716.764E-03     20.4103E+06     12.7104E+06    -852.655E+03    -9.66708E+06    -788.303E+03     3.83166E+06    -852.655E+03    -549.596E+03
             907     33.2822E-03     9.49959E-03     31.8977E-03     625.270E-03    -311.964E-03    -313.621E-03    -308.549E-03     620.199E-03    -311.964E-03     137.558E-03     700.632E-03     20.0636E+06     13.1065E+06     254.862E+03    -8.92431E+06    -269.354E+03     4.45151E+06     254.862E+03    -774.223E+03
             908     32.9035E-03     8.76697E-03     31.7141E-03     622.859E-03    -311.790E-03    -312.722E-03    -307.756E-03     618.504E-03    -312.401E-03     127.216E-03     691.234E-03     17.3858E+06     12.0251E+06     1.48664E+06    -7.35205E+06    -692.588E+03     5.36563E+06     1.48664E+06    -399.445E+03
             909     32.5570E-03     8.03846E-03     31.5491E-03     621.108E-03    -311.455E-03    -312.306E-03    -307.831E-03     617.484E-03    -312.306E-03     115.904E-03     683.577E-03     14.9474E+06     10.3076E+06     943.090E+03    -6.46690E+06    -794.568E+03     4.63530E+06     943.090E+03    -633.376E+03
             910     32.2552E-03     7.30760E-03     31.4165E-03     623.278E-03    -310.603E-03    -312.613E-03    -307.635E-03     620.310E-03    -312.613E-03     104.984E-03     677.887E-03     13.6118E+06     9.58290E+06     827.156E+03    -5.68321E+06    -670.549E+03     4.57024E+06     827.156E+03    -134.293E+03
             911     31.9773E-03     6.57707E-03     31.2936E-03     623.769E-03    -310.003E-03    -313.040E-03    -307.669E-03     621.435E-03    -313.040E-03     93.0022E-03     674.668E-03     10.7670E+06     8.37266E+06     774.627E+03    -3.75391E+06    -432.986E+03     5.05174E+06     774.627E+03    -186.291E+03
             912     31.7353E-03     5.84436E-03     31.1925E-03     622.885E-03    -310.469E-03    -312.665E-03    -308.772E-03     621.188E-03    -312.665E-03     79.2036E-03     668.428E-03     7.68197E+06     5.87613E+06     138.224E+03    -2.39311E+06    -770.497E+03     4.25352E+06     138.224E+03    -326.392E+03
             913     31.5363E-03     5.10819E-03     31.1198E-03     624.457E-03    -311.694E-03    -313.355E-03    -310.535E-03     623.298E-03    -313.355E-03     65.4745E-03     662.596E-03     6.77882E+06     5.20645E+06    -240.265E+03    -1.85633E+06    -742.632E+03     4.09275E+06    -240.265E+03    -269.203E+03
             914     31.3779E-03     4.37857E-03     31.0709E-03     625.792E-03    -312.304E-03    -314.255E-03    -311.594E-03     625.081E-03    -314.255E-03     51.0066E-03     657.457E-03     6.26692E+06     4.56449E+06    -30.6116E+03    -2.35398E+06    -687.394E+03     3.56605E+06    -698.758E+03    -107.551E+03
             915     31.2641E-03     3.64930E-03     31.0504E-03     625.616E-03    -312.245E-03    -315.070E-03    -311.884E-03     625.255E-03    -315.070E-03     36.1077E-03     649.525E-03     5.38020E+06     4.10679E+06     761.982E+03    -2.05833E+06    -312.788E+03     3.24620E+06    -122.967E+03    -199.477E+03
             916     31.1890E-03     2.91759E-03     31.0522E-03     626.774E-03    -312.451E-03    -315.952E-03    -312.295E-03     626.619E-03    -315.952E-03     23.4729E-03     643.617E-03     4.85917E+06     4.07728E+06     96.1912E+03    -1.28732E+06    -136.699E+03     3.14346E+06    -120.612E+03    -161.022E+03
             917     31.1397E-03     2.18668E-03     31.0628E-03     629.996E-03    -313.838E-03    -316.661E-03    -313.783E-03     629.941E-03    -316.661E-03     13.6243E-03     640.110E-03     4.56059E+06     3.99371E+06    -92.0619E+03    -904.658E+03     158.440E+03     3.13041E+06    -291.858E+03    -16.3777E+03
             918     31.1241E-03     1.45709E-03     31.0900E-03     632.475E-03    -315.683E-03    -317.064E-03    -315.879E-03     632.460E-03    -316.854E-03     6.60205E-03     637.354E-03     4.29180E+06     2.74144E+06    -863.201E+03    -1.98440E+06    -707.815E+03     1.89945E+06    -1.29779E+06     101.555E+03
             919     31.1325E-03     730.047E-06     31.1240E-03     633.107E-03    -315.692E-03    -317.316E-03    -317.069E-03     633.101E-03    -315.933E-03     3.58515E-03     634.799E-03     5.00910E+06     4.27779E+06     208.568E+03    -1.31421E+06     1.37347E+06     1.82491E+06    -26.2298E+03     183.016E+03
             920     33.5099E-03     12.4456E-03     31.1131E-03     640.682E-03    -312.680E-03    -326.716E-03    -316.642E-03     630.608E-03    -312.680E-03     190.473E-03     753.411E-03     15.2778E+06     9.75805E+06     2.82874E+06    -6.72589E+06      247.39E+03     2.78477E+06     2.82874E+06     66.8234E+03
             921     32.8682E-03     11.7147E-03     30.7097E-03     638.362E-03    -313.123E-03    -324.860E-03    -314.200E-03     627.701E-03    -313.123E-03     197.584E-03     758.778E-03     19.3506E+06     12.6288E+06     1.96890E+06    -8.76910E+06    -341.988E+03     4.20165E+06     1.96890E+06     335.278E+03
             922     32.3884E-03     10.9855E-03     30.4685E-03     629.446E-03    -312.743E-03    -317.598E-03    -310.663E-03     622.511E-03    -312.743E-03     161.358E-03     726.675E-03     22.4244E+06     14.4603E+06     1.15636E+06    -10.5819E+06    -244.191E+03     4.12250E+06     1.15636E+06    -495.507E+03
             923     31.9005E-03     10.2300E-03     30.2157E-03     626.748E-03    -312.114E-03    -316.196E-03    -309.841E-03     620.394E-03    -312.114E-03     153.741E-03     715.683E-03     23.6701E+06     15.2346E+06     427.463E+03    -11.0345E+06     176.267E+03     4.02375E+06     427.463E+03    -477.249E+03
             924     31.4863E-03     9.49887E-03     30.0193E-03     625.054E-03    -311.493E-03    -313.703E-03    -308.716E-03     620.068E-03    -311.493E-03     136.419E-03     700.100E-03     22.6470E+06     14.7479E+06     1.07622E+06    -10.3056E+06    -341.139E+03     4.78346E+06     1.07622E+06    -327.526E+03
             925     31.0952E-03     8.77073E-03     29.8326E-03     622.509E-03    -311.376E-03    -312.944E-03    -307.820E-03     618.174E-03    -312.166E-03     126.895E-03     690.584E-03     19.0955E+06     12.9871E+06     2.06557E+06    -8.39916E+06    -425.568E+03     5.01352E+06     2.06557E+06    -490.153E+03
             926     30.7402E-03     8.03739E-03     29.6709E-03     620.793E-03    -311.292E-03    -312.469E-03    -307.683E-03     617.184E-03    -312.469E-03     115.637E-03     682.934E-03     16.3813E+06     10.7042E+06     1.33670E+06    -7.77161E+06    -1.22800E+06     4.16062E+06     1.33670E+06    -574.024E+03
             927     30.4219E-03     7.30667E-03     29.5314E-03     623.437E-03    -310.741E-03    -312.587E-03    -307.790E-03     620.485E-03    -312.587E-03     104.695E-03     677.733E-03     13.8921E+06     9.34032E+06     932.549E+03    -6.34803E+06    -729.863E+03     3.72215E+06     932.549E+03    -773.428E+03
             928     30.1419E-03     6.57621E-03     29.4157E-03     624.248E-03    -310.464E-03    -312.916E-03    -308.133E-03     621.917E-03    -312.916E-03     93.0252E-03     674.996E-03     10.3491E+06     7.96069E+06     809.706E+03    -3.64312E+06    -154.178E+03     4.47175E+06     809.706E+03    -306.647E+03
             929     29.8915E-03     5.84651E-03     29.3142E-03     622.919E-03    -310.719E-03    -312.555E-03    -309.029E-03     621.229E-03    -312.555E-03     79.0142E-03     668.113E-03     7.70733E+06     6.45538E+06    -48.4714E+03    -1.93827E+06    -406.561E+03     4.92367E+06    -48.4714E+03    -301.481E+03
             930     29.6819E-03     5.10833E-03     29.2390E-03     623.020E-03    -310.885E-03    -312.896E-03    -309.756E-03     621.892E-03    -312.896E-03     64.5113E-03     660.972E-03     6.92076E+06     5.46082E+06    -452.510E+03    -2.05695E+06    -942.408E+03     4.34628E+06    -452.510E+03    -393.330E+03
             931     29.5143E-03     4.37806E-03     29.1878E-03     624.650E-03    -311.310E-03    -314.015E-03    -310.627E-03     623.966E-03    -314.015E-03     49.9391E-03     656.197E-03     5.48211E+06     4.65184E+06     834.346E+03    -1.53210E+06    -590.720E+03     3.71046E+06     834.346E+03    -481.459E+03
             932     29.4012E-03     3.64749E-03     29.1741E-03     626.031E-03    -312.538E-03    -315.096E-03    -312.197E-03     625.690E-03    -315.096E-03     35.0162E-03     649.934E-03     4.34729E+06     3.05419E+06     463.759E+03    -1.92027E+06    -889.100E+03     2.23982E+06     246.956E+03    -623.111E+03
             933     29.3180E-03     2.91832E-03     29.1724E-03     627.743E-03    -313.629E-03    -315.831E-03    -313.493E-03     627.608E-03    -315.831E-03     21.7063E-03     644.597E-03     4.57827E+06     2.96704E+06    -595.742E+03    -2.11424E+06    -1.07911E+06     2.14871E+06    -812.545E+03    -465.632E+03
             934     29.2637E-03     2.18909E-03     29.1817E-03     629.695E-03    -313.970E-03    -316.306E-03    -313.931E-03     629.656E-03    -316.306E-03     11.3854E-03     639.639E-03     4.54495E+06     3.46981E+06    -147.638E+03    -1.56022E+06    -701.206E+03     2.81059E+06    -347.434E+03    -59.2699E+03
             935     29.2427E-03     1.45856E-03     29.2063E-03     631.326E-03    -314.942E-03    -316.668E-03    -314.935E-03     631.319E-03    -316.668E-03     4.12671E-03     636.118E-03     4.14746E+06     3.50544E+06     415.314E+03    -1.18195E+06    -316.562E+03     2.83985E+06     215.519E+03    -262.748E+03
             936     29.2435E-03     727.523E-06     29.2345E-03     633.170E-03    -315.816E-03    -317.170E-03    -316.594E-03     633.166E-03    -316.387E-03     1.47294E-03     634.845E-03     5.49876E+06     2.45584E+06    -646.922E+03    -3.55173E+06    -1.41161E+06     106.174E+03    -437.381E+03    -388.923E+03
             937     31.7765E-03     12.4457E-03     29.2379E-03     639.920E-03    -312.564E-03    -326.126E-03    -316.138E-03     629.932E-03    -312.564E-03     189.943E-03     752.378E-03     18.3017E+06     11.0072E+06     1.89914E+06    -8.58231E+06    -52.5003E+03     2.47744E+06     1.89914E+06    -153.481E+03
             938     31.1223E-03     11.7150E-03     28.8332E-03     638.494E-03    -312.955E-03    -324.815E-03    -314.336E-03     628.015E-03    -312.955E-03     195.943E-03     757.991E-03     22.5266E+06     14.5777E+06     2.04718E+06    -10.3310E+06     143.059E+03     4.10365E+06     2.04718E+06    -577.433E+03
             939     30.6298E-03     10.9866E-03     28.5915E-03     630.963E-03    -312.840E-03    -318.527E-03    -311.676E-03     624.112E-03    -312.840E-03     160.606E-03     727.239E-03     25.7082E+06     16.4054E+06     1.63688E+06    -12.1911E+06     82.6315E+03     4.13167E+06     1.63688E+06    -359.754E+03
             940     30.1301E-03     10.2293E-03     28.3405E-03     627.347E-03    -312.157E-03    -316.937E-03    -310.652E-03     621.062E-03    -312.157E-03     153.026E-03     715.452E-03     26.2756E+06     17.2315E+06      2.2445E+06    -12.2136E+06      -194.8E+03     5.21270E+06      2.2445E+06    -1.01132E+06
             941     29.6958E-03     9.49957E-03     28.1354E-03     625.447E-03    -311.627E-03    -314.228E-03    -309.320E-03     620.538E-03    -311.627E-03     135.398E-03     699.874E-03     24.6118E+06     16.3827E+06     2.30216E+06    -11.2070E+06     98.0588E+03     5.07764E+06     2.30216E+06    -485.656E+03
             942     29.2972E-03     8.76824E-03     27.9543E-03     623.192E-03    -311.778E-03    -313.300E-03    -308.388E-03     618.956E-03    -312.454E-03     125.509E-03     690.671E-03     21.1974E+06     14.1217E+06     2.23998E+06    -9.67222E+06    -348.675E+03     4.79811E+06     2.23998E+06    -368.949E+03
             943     28.9331E-03     8.03920E-03     27.7938E-03     621.478E-03    -311.733E-03    -312.712E-03    -308.319E-03     617.965E-03    -312.613E-03     114.157E-03     682.630E-03     18.3350E+06     12.7291E+06     1.76554E+06    -8.08762E+06    -110.962E+03     4.75244E+06     1.76554E+06    -669.201E+03
             944     28.6025E-03     7.30773E-03     27.6532E-03     623.737E-03    -310.957E-03    -312.613E-03    -308.217E-03     620.897E-03    -312.514E-03     102.718E-03     677.155E-03     15.2125E+06     9.73521E+06     433.486E+03    -7.63236E+06    -1.15126E+06     3.25411E+06     433.486E+03    -485.669E+03
             945     28.3097E-03     6.57757E-03     27.5349E-03     625.078E-03    -310.873E-03    -312.939E-03    -308.668E-03     622.873E-03    -312.939E-03     90.4847E-03     675.042E-03     10.5860E+06     7.18203E+06     813.686E+03    -4.74133E+06    -1.37855E+06     3.81925E+06     813.686E+03    -902.770E+03
             946     28.0506E-03     5.84531E-03     27.4348E-03     624.179E-03    -311.635E-03    -312.717E-03    -310.041E-03     622.586E-03    -312.717E-03     76.7988E-03     668.841E-03     7.02611E+06     5.67017E+06     1.18017E+06    -2.22739E+06    -749.980E+03     4.19276E+06     1.18017E+06    -811.921E+03
             947     27.8332E-03     5.11032E-03     27.3600E-03     623.054E-03    -311.163E-03    -312.727E-03    -310.122E-03     622.013E-03    -312.727E-03     61.8108E-03     660.733E-03     6.58105E+06     5.70867E+06     809.822E+03    -1.66645E+06    -169.415E+03     4.21164E+06     809.822E+03    -551.386E+03
             948     27.6600E-03     4.37868E-03     27.3113E-03     623.694E-03    -310.826E-03    -313.484E-03    -310.230E-03     623.098E-03    -313.484E-03     46.5175E-03     654.751E-03     5.82319E+06     4.64585E+06     -91.485E+03    -1.80894E+06    -647.049E+03     3.48395E+06     -91.485E+03    -595.139E+03
             949     27.5273E-03     3.64870E-03     27.2844E-03     625.100E-03    -312.224E-03    -314.543E-03    -311.931E-03     624.806E-03    -314.543E-03     32.4279E-03     648.641E-03     4.42066E+06     2.91613E+06    -318.572E+03    -2.07668E+06    -1.29597E+06     2.14500E+06    -328.149E+03    -706.951E+03
             950     27.4421E-03     2.92019E-03     27.2863E-03     627.004E-03    -313.663E-03    -315.278E-03    -313.544E-03     626.885E-03    -315.278E-03     20.4671E-03     643.747E-03     4.68141E+06     2.79580E+06    -467.430E+03    -2.46035E+06    -1.69849E+06     2.04353E+06    -477.007E+03    -517.148E+03
             951     27.3851E-03     2.19038E-03     27.2974E-03     628.920E-03    -314.096E-03    -315.625E-03    -314.059E-03     628.883E-03    -315.625E-03     11.0539E-03     638.866E-03     5.18409E+06     2.70301E+06    -1.07099E+06    -3.08700E+06    -1.81176E+06     1.54936E+06    -1.19257E+06    -129.040E+03
             952     27.3629E-03     1.46072E-03     27.3239E-03     630.004E-03    -314.563E-03    -315.752E-03    -314.555E-03     629.996E-03    -315.752E-03     4.61516E-03     634.759E-03     4.27908E+06     2.34103E+06    -1.18072E+06    -2.33602E+06    -1.10580E+06     1.23239E+06    -1.30230E+06    -114.058E+03
             953     27.3542E-03     731.340E-06     27.3444E-03     631.028E-03    -315.043E-03    -315.859E-03    -315.435E-03     631.025E-03    -315.464E-03     1.22953E-03     632.619E-03     6.16526E+06     2.94424E+06    -1.34419E+06    -3.44631E+06    -621.037E+03    -90.5691E+03    -1.13465E+06    -397.148E+03
             954     30.0536E-03     12.4444E-03     27.3561E-03     641.395E-03    -312.819E-03    -327.232E-03    -317.223E-03     631.386E-03    -312.819E-03     190.803E-03     753.387E-03     21.1107E+06     13.0735E+06     2.28952E+06    -9.54696E+06     240.905E+03     3.28565E+06     2.28952E+06    -132.701E+03
             955     29.3915E-03     11.7147E-03     26.9560E-03     640.053E-03    -312.943E-03    -325.996E-03    -315.583E-03     629.640E-03    -312.943E-03     195.682E-03     757.814E-03     25.7280E+06     16.0928E+06     1.91384E+06    -12.2255E+06    -644.639E+03     4.51191E+06     1.91384E+06    -100.780E+03
             956     28.8777E-03     10.9833E-03     26.7074E-03     631.810E-03    -312.536E-03    -319.411E-03    -312.702E-03     625.100E-03    -312.536E-03     159.128E-03     726.633E-03     28.6651E+06     17.8870E+06     1.89360E+06    -13.9605E+06    -810.068E+03     4.73653E+06     1.89360E+06    -1.01854E+06
             957     28.3726E-03     10.2312E-03     26.4637E-03     627.915E-03    -311.903E-03    -317.648E-03    -311.615E-03     621.882E-03    -311.903E-03     149.997E-03     714.343E-03     28.3414E+06     18.0561E+06     2.16752E+06    -13.6376E+06    -382.815E+03     4.80132E+06     2.16752E+06    -990.899E+03
             958     27.9253E-03     9.50048E-03     26.2596E-03     625.774E-03    -311.515E-03    -314.699E-03    -310.077E-03     621.152E-03    -311.515E-03     131.408E-03     698.876E-03     27.3501E+06     17.0559E+06     1.42661E+06    -13.4917E+06    -1.26297E+06     4.82718E+06     1.42661E+06    -927.304E+03
             959     27.5105E-03     8.77072E-03     26.0750E-03     623.225E-03    -311.906E-03    -313.263E-03    -309.072E-03     619.340E-03    -312.212E-03     120.188E-03     689.503E-03     23.3923E+06     14.9897E+06     1.29980E+06    -11.2499E+06    -662.095E+03     4.40195E+06     1.29980E+06     -924.56E+03
             960     27.1337E-03     8.03905E-03     25.9154E-03     621.518E-03    -311.882E-03    -312.414E-03    -308.784E-03     618.321E-03    -312.314E-03     108.859E-03     681.083E-03     19.4565E+06     12.4594E+06     1.14958E+06    -9.73377E+06    -1.23140E+06     3.95699E+06     1.14958E+06    -402.796E+03
             961     26.7902E-03     7.30990E-03     25.7736E-03     624.235E-03    -311.418E-03    -312.497E-03    -308.933E-03     621.651E-03    -312.397E-03     97.9800E-03     676.139E-03     15.1775E+06     10.2678E+06     1.07643E+06    -7.15507E+06    -916.846E+03     4.02961E+06     1.07643E+06    -1.10139E+06
             962     26.4857E-03     6.57988E-03     25.6554E-03     625.994E-03    -311.565E-03    -312.850E-03    -309.593E-03     624.022E-03    -312.850E-03     85.5551E-03     674.732E-03     10.2460E+06     7.21915E+06     839.184E+03    -4.37603E+06    -893.267E+03     3.73639E+06     839.184E+03    -1.51917E+06
             963     26.2195E-03     5.85117E-03     25.5582E-03     624.275E-03    -311.912E-03    -312.437E-03    -310.542E-03     622.878E-03    -312.410E-03     71.9325E-03     668.088E-03     7.16725E+06     5.07110E+06     861.213E+03    -3.03402E+06    -1.51003E+06     3.54711E+06     861.213E+03    -1.24091E+06
             964     25.9932E-03     5.11363E-03     25.4853E-03     623.015E-03    -311.510E-03    -312.497E-03    -310.611E-03     622.089E-03    -312.470E-03     58.3911E-03     660.179E-03     6.32906E+06     3.83014E+06    -121.005E+03    -3.32292E+06    -1.86496E+06     2.37218E+06    -121.005E+03    -839.218E+03
             965     25.8157E-03     4.38503E-03     25.4406E-03     622.732E-03    -310.630E-03    -312.772E-03    -310.091E-03     622.193E-03    -312.772E-03     44.2788E-03     653.187E-03     6.29763E+06     4.23288E+06    -177.736E+03    -2.85036E+06    -1.63611E+06     3.01863E+06    -177.736E+03    -457.951E+03
             966     25.6769E-03     3.65408E-03     25.4156E-03     622.577E-03    -310.861E-03    -313.451E-03    -310.593E-03     622.309E-03    -313.451E-03     31.0371E-03     645.410E-03     5.11409E+06     3.68768E+06    -338.689E+03    -1.98955E+06    -1.28401E+06     2.99171E+06    -348.266E+03    -409.278E+03
             967     25.5761E-03     2.92158E-03     25.4086E-03     624.556E-03    -311.989E-03    -314.424E-03    -311.879E-03     624.447E-03    -314.424E-03     19.4110E-03     640.828E-03     5.07928E+06     2.61253E+06    -1.15081E+06    -3.06414E+06    -1.38479E+06     1.45658E+06    -1.67420E+06    -829.217E+03
             968     25.5167E-03     2.19117E-03     25.4225E-03     627.423E-03    -313.220E-03    -314.937E-03    -313.188E-03     627.392E-03    -314.937E-03     10.1393E-03     637.149E-03     5.61710E+06     2.45817E+06    -1.48002E+06    -3.91284E+06    -1.52866E+06     709.391E+03    -2.11542E+06    -890.852E+03
             969     25.4959E-03     1.46115E-03     25.4540E-03     628.840E-03    -314.209E-03    -314.976E-03    -314.202E-03     628.833E-03    -314.976E-03     4.74207E-03     633.507E-03     4.66885E+06     1.91102E+06    -2.02837E+06    -3.19415E+06    -1.46391E+06     302.366E+03    -2.14995E+06    -323.851E+03
             970     25.4824E-03     729.942E-06     25.4720E-03     629.285E-03    -314.143E-03    -315.146E-03    -314.999E-03     629.281E-03    -314.287E-03     1.43115E-03     630.837E-03     7.44756E+06     3.00031E+06    -2.29835E+06    -4.99569E+06    -1.79006E+06    -1.28300E+06    -1.22066E+06    -28.5206E+03
             971     28.3492E-03     12.4418E-03     25.4731E-03     643.908E-03    -313.224E-03    -329.398E-03    -319.579E-03     634.089E-03    -313.224E-03     190.332E-03     754.871E-03     24.4264E+06     15.0764E+06     2.54733E+06    -11.2829E+06     225.999E+03     3.56754E+06     2.54733E+06     107.953E+03
             972     27.6704E-03     11.7135E-03     25.0688E-03     642.516E-03    -313.100E-03    -328.313E-03    -318.398E-03     632.601E-03    -313.100E-03     191.332E-03     758.354E-03     29.6121E+06     18.2317E+06     1.74455E+06    -14.3917E+06    -318.245E+03     4.15825E+06     1.74455E+06    -784.878E+03
             973     27.1525E-03     10.9892E-03     24.8293E-03     633.045E-03    -312.349E-03    -320.929E-03    -314.704E-03     626.820E-03    -312.349E-03     153.538E-03     726.225E-03     33.2335E+06     21.1266E+06     2.05157E+06    -15.9161E+06    -85.0735E+03     5.29553E+06     2.05157E+06    -303.457E+03
             974     26.6215E-03     10.2332E-03     24.5761E-03     628.155E-03    -311.403E-03    -318.291E-03    -312.797E-03     622.661E-03    -311.403E-03     143.209E-03     712.428E-03     31.9908E+06     19.9511E+06     1.77045E+06    -15.9243E+06    -1.68538E+06     5.71220E+06     1.77045E+06    -808.498E+03
             975     26.1646E-03     9.50637E-03     24.3765E-03     626.135E-03    -310.840E-03    -315.746E-03    -311.555E-03     621.944E-03    -310.840E-03     125.232E-03     697.123E-03     29.2437E+06     17.8801E+06     1.37053E+06    -14.6829E+06    -1.10824E+06     4.30541E+06     1.37053E+06    -1.15858E+06
             976     25.7379E-03     8.77709E-03     24.1951E-03     624.177E-03    -311.542E-03    -314.356E-03    -310.826E-03     620.733E-03    -311.628E-03     113.218E-03     688.637E-03     25.5152E+06     15.5451E+06     1.07562E+06    -13.0439E+06    -1.68239E+06     4.18359E+06     1.07562E+06    -1.15753E+06
             977     25.3479E-03     8.04888E-03     24.0360E-03     621.419E-03    -311.183E-03    -312.121E-03    -309.182E-03     618.692E-03    -311.396E-03     100.495E-03     678.626E-03     19.9595E+06     12.9962E+06     1.57303E+06    -9.75837E+06    -1.32536E+06     4.56315E+06     1.57303E+06    -1.74901E+06
             978     24.9893E-03     7.31722E-03     23.8940E-03     622.518E-03    -310.358E-03    -311.286E-03    -308.429E-03     620.356E-03    -311.052E-03     89.4564E-03     671.762E-03     13.8443E+06     9.23994E+06     1.49881E+06    -6.65774E+06    -1.06858E+06     3.65078E+06     1.49881E+06    -1.28284E+06
             979     24.6684E-03     6.58821E-03     23.7723E-03     622.881E-03    -309.975E-03    -311.311E-03    -308.321E-03     621.227E-03    -311.311E-03     78.1901E-03     669.711E-03     9.78650E+06     6.65437E+06     448.224E+03    -4.52130E+06    -1.55552E+06     3.68859E+06     448.224E+03    -1.25591E+06
             980     24.3903E-03     5.85700E-03     23.6766E-03     620.904E-03    -310.075E-03    -311.136E-03    -309.173E-03     619.709E-03    -310.843E-03     66.3464E-03     663.171E-03     7.18387E+06     4.37127E+06    -202.974E+03    -3.80972E+06    -2.24903E+06     2.81057E+06    -202.974E+03    -1.44488E+06
             981     24.1586E-03     5.12025E-03     23.6097E-03     620.341E-03    -310.124E-03    -311.449E-03    -309.621E-03     619.544E-03    -311.156E-03     53.9403E-03     656.204E-03     5.77612E+06     2.92457E+06    -215.657E+03    -3.70588E+06    -2.51530E+06     1.73399E+06    -215.657E+03    -1.36428E+06
             982     23.9638E-03     4.38776E-03     23.5587E-03     620.704E-03    -309.750E-03    -311.771E-03    -309.296E-03     620.250E-03    -311.771E-03     40.2379E-03     650.161E-03     6.12785E+06     3.21401E+06    -911.741E+03    -3.76961E+06    -2.64532E+06     2.08972E+06    -911.741E+03    -1.32767E+06
             983     23.8192E-03     3.65677E-03     23.5368E-03     620.688E-03    -310.056E-03    -312.171E-03    -309.844E-03     620.476E-03    -312.171E-03     27.1570E-03     642.633E-03     5.88661E+06     2.77105E+06    -1.89838E+06    -3.77484E+06    -2.47446E+06     1.47067E+06    -1.89838E+06    -1.01323E+06
             984     23.7115E-03     2.92578E-03     23.5303E-03     621.574E-03    -310.163E-03    -312.895E-03    -310.085E-03     621.496E-03    -312.895E-03     15.7962E-03     637.014E-03     5.17946E+06     2.19464E+06    -1.62137E+06    -3.60030E+06    -1.75763E+06     865.788E+03    -2.13518E+06    -628.679E+03
             985     23.6452E-03     2.19267E-03     23.5433E-03     623.970E-03    -311.086E-03    -313.530E-03    -311.068E-03     623.952E-03    -313.530E-03     7.40510E-03     633.155E-03     5.27110E+06     1.82058E+06    -1.71604E+06    -4.20955E+06    -2.03953E+06     164.368E+03    -2.22985E+06    -726.090E+03
             986     23.6131E-03     1.46182E-03     23.5678E-03     626.231E-03    -312.709E-03    -313.876E-03    -312.706E-03     626.228E-03    -313.876E-03     3.00563E-03     630.707E-03     4.79450E+06     1.32146E+06    -2.24012E+06    -4.11381E+06    -2.44880E+06    -343.556E+03    -2.24012E+06    -539.198E+03
             987     23.6085E-03     732.204E-06     23.5972E-03     627.537E-03    -313.036E-03    -314.616E-03    -314.284E-03     627.533E-03    -313.364E-03     1.01066E-03     629.044E-03     8.45014E+06     2.93784E+06    -2.82580E+06    -6.32242E+06    -2.40163E+06    -2.06064E+06    -1.74812E+06    -247.481E+03
             988     26.6654E-03     12.4437E-03     23.5839E-03     647.205E-03    -313.042E-03    -333.175E-03    -323.789E-03     637.818E-03    -313.042E-03     187.433E-03     757.143E-03     28.8293E+06     18.1415E+06     2.75973E+06    -13.1513E+06     920.234E+03     4.06999E+06     2.75973E+06      173.85E+03
             989     25.9826E-03     11.7210E-03     23.1886E-03     644.370E-03    -312.732E-03    -331.009E-03    -321.783E-03     635.145E-03    -312.732E-03     184.953E-03     758.650E-03     34.9451E+06     21.7292E+06     1.55671E+06    -16.9434E+06    -318.094E+03     5.10385E+06     1.55671E+06     382.623E+03
             990     25.4396E-03     10.9930E-03     22.9418E-03     634.449E-03    -311.867E-03    -323.211E-03    -317.653E-03     628.891E-03    -311.867E-03     145.395E-03     726.314E-03     38.4561E+06     23.7658E+06     920.681E+03    -19.1242E+06    -1.20548E+06     5.84714E+06     920.681E+03    -470.861E+03
             991     24.8996E-03     10.2445E-03     22.6945E-03     628.651E-03    -310.555E-03    -319.702E-03    -314.959E-03     623.908E-03    -310.555E-03     133.111E-03     711.254E-03     35.9110E+06     22.5031E+06     1.89528E+06    -17.5379E+06    -207.411E+03     5.17259E+06     1.89528E+06    -253.233E+03
             992     24.4258E-03     9.51570E-03     22.4960E-03     625.166E-03    -309.296E-03    -316.179E-03    -312.631E-03     621.619E-03    -309.296E-03     115.042E-03     693.957E-03     32.1235E+06     19.8675E+06     2.76641E+06    -16.0664E+06    -1.39640E+06     5.19745E+06     2.76641E+06    -606.334E+03
             993     23.9826E-03     8.79006E-03     22.3137E-03     622.958E-03    -310.041E-03    -314.389E-03    -311.497E-03     620.066E-03    -310.041E-03     103.657E-03     684.939E-03     26.6505E+06     17.1430E+06     2.03436E+06    -12.9904E+06    -982.857E+03     5.13548E+06     2.03436E+06    -1.84247E+06
             994     23.5850E-03     8.06193E-03     22.1643E-03     621.130E-03    -310.130E-03    -312.477E-03    -310.193E-03     618.847E-03    -310.130E-03     91.9652E-03     676.053E-03     19.5674E+06     12.4472E+06     1.00920E+06    -9.92513E+06    -1.33668E+06     3.85875E+06     1.00920E+06    -1.26072E+06
             995     23.2181E-03     7.33344E-03     22.0296E-03     619.359E-03    -308.324E-03    -309.880E-03    -307.592E-03     617.602E-03    -308.855E-03     80.4297E-03     666.372E-03     12.9442E+06     8.16161E+06     1.22066E+06    -6.65679E+06    -2.32202E+06     3.82685E+06     1.22066E+06    -1.40058E+06
             996     22.8837E-03     6.60011E-03     21.9112E-03     617.170E-03    -307.025E-03    -308.434E-03    -305.735E-03     615.880E-03    -308.434E-03     68.5081E-03     661.289E-03     9.41099E+06     5.79025E+06     644.424E+03    -4.99805E+06    -2.91170E+06      3.7039E+06     644.424E+03    -1.70907E+06
             997     22.5952E-03     5.86718E-03     21.8201E-03     616.409E-03    -307.580E-03    -309.122E-03    -307.365E-03     615.532E-03    -308.459E-03     56.1672E-03     655.886E-03     6.95733E+06     3.75996E+06    -164.541E+03    -4.26316E+06    -2.89936E+06     2.39616E+06    -164.541E+03    -1.66109E+06
             998     22.3441E-03     5.12876E-03     21.7475E-03     616.297E-03    -307.813E-03    -309.572E-03    -307.941E-03     615.763E-03    -308.909E-03     43.3959E-03     650.098E-03     5.97999E+06     3.01339E+06    -959.914E+03    -3.79840E+06    -2.54506E+06     1.76005E+06    -959.914E+03    -1.87838E+06
             999     22.1446E-03     4.39813E-03     21.7034E-03     616.284E-03    -307.674E-03    -309.463E-03    -307.402E-03     616.011E-03    -309.463E-03     30.6299E-03     644.160E-03     6.26686E+06     2.56448E+06    -2.25231E+06    -4.51540E+06    -3.03364E+06     1.08272E+06    -2.25231E+06    -1.94411E+06
            1000     21.9876E-03     3.66578E-03     21.6799E-03     616.203E-03    -308.001E-03    -309.668E-03    -307.892E-03     616.094E-03    -309.668E-03     19.0093E-03     637.273E-03     5.48667E+06     1.43212E+06    -2.13210E+06    -4.76568E+06    -3.16318E+06    -170.385E+03    -2.13210E+06    -1.59336E+06
            1001     21.8776E-03     2.93246E-03     21.6802E-03     616.972E-03    -307.863E-03    -310.169E-03    -307.832E-03     616.940E-03    -310.169E-03     9.42602E-03     631.796E-03     4.88216E+06     966.305E+03    -1.58643E+06    -4.59544E+06    -3.10762E+06    -521.508E+03    -1.58643E+06    -1.00860E+06
            1002     21.7998E-03     2.19818E-03     21.6887E-03     618.490E-03    -308.359E-03    -310.669E-03    -308.353E-03     618.484E-03    -310.669E-03     2.67360E-03     627.090E-03     5.00778E+06     1.02251E+06    -2.19075E+06    -4.70088E+06    -3.03956E+06    -638.814E+03    -2.19075E+06    -803.493E+03
            1003     21.7594E-03     1.46425E-03     21.7101E-03     620.624E-03    -309.751E-03    -311.216E-03    -309.747E-03     620.620E-03    -311.216E-03    -1.11771E-03     624.797E-03     5.80427E+06     502.951E+03    -3.77075E+06    -6.09410E+06    -3.46387E+06    -2.12728E+06    -3.77075E+06    -627.358E+03
            1004     21.7464E-03     730.508E-06     21.7342E-03     622.778E-03    -310.588E-03    -312.349E-03    -311.267E-03     622.773E-03    -311.665E-03    -707.405E-06     624.170E-03     8.07293E+06     1.79768E+06    -3.67664E+06    -6.89176E+06    -2.07675E+06    -3.01733E+06    -3.67664E+06    -701.600E+03
            1005     25.0171E-03     12.4507E-03     21.6987E-03     651.923E-03    -312.298E-03    -338.787E-03    -329.747E-03     642.882E-03    -312.298E-03     185.105E-03     761.819E-03     33.5095E+06     20.4395E+06     3.19577E+06    -16.3018E+06    -696.913E+03     4.83454E+06     3.19577E+06     481.786E+03
            1006     24.3133E-03     11.7256E-03     21.2990E-03     647.552E-03    -312.030E-03    -335.254E-03    -326.503E-03     638.801E-03    -312.030E-03     180.654E-03     761.592E-03     41.4018E+06     26.5136E+06     2.67999E+06    -19.4311E+06     292.372E+03     6.79010E+06     2.67999E+06    -816.512E+03
            1007     23.7649E-03     11.0093E-03     21.0610E-03     636.832E-03    -310.923E-03    -326.747E-03    -321.673E-03     631.758E-03    -310.923E-03     139.463E-03     728.315E-03     43.8133E+06     27.4856E+06     2.86517E+06    -21.0546E+06     844.982E+03     5.58608E+06     2.86517E+06    -158.785E+03
            1008     23.2144E-03     10.2584E-03     20.8249E-03     631.422E-03    -309.565E-03    -323.242E-03    -319.011E-03     627.191E-03    -309.565E-03     126.275E-03     712.677E-03     40.4251E+06     24.7102E+06     2.37948E+06    -19.7514E+06    -763.845E+03     5.72260E+06     2.37948E+06     -22.839E+03
            1009     22.7292E-03     9.53705E-03     20.6315E-03     626.449E-03    -307.945E-03    -318.710E-03    -315.669E-03     623.408E-03    -307.945E-03     106.805E-03     693.753E-03     35.7577E+06     22.5292E+06     1.48537E+06    -17.4382E+06    -393.127E+03     5.48403E+06     1.48537E+06    -769.222E+03
            1010     22.2679E-03     8.80769E-03     20.4520E-03     621.152E-03    -307.707E-03    -314.725E-03    -312.371E-03     618.798E-03    -307.707E-03     93.4726E-03     680.636E-03     27.8039E+06     17.5381E+06     1.63919E+06    -14.2046E+06    -1.85668E+06     5.19021E+06     1.63919E+06    -258.057E+03
            1011     21.8433E-03     8.08044E-03     20.2938E-03     618.071E-03    -307.732E-03    -312.044E-03    -310.253E-03     616.280E-03    -307.732E-03     81.0345E-03     670.578E-03     18.1052E+06     11.5276E+06     1.06480E+06    -9.28729E+06    -2.37689E+06     4.61719E+06     1.06480E+06    -1.54766E+06
            1012     21.4654E-03     7.35023E-03     20.1677E-03     616.251E-03    -305.919E-03    -309.638E-03    -308.139E-03     614.958E-03    -306.126E-03     68.5039E-03     661.846E-03     11.3360E+06     7.10638E+06     565.053E+03    -5.89017E+06    -2.20736E+06     3.42357E+06     565.053E+03    -1.95897E+06
            1013     21.1260E-03     6.62000E-03     20.0619E-03     614.705E-03    -305.075E-03    -307.765E-03    -306.454E-03     613.837E-03    -305.517E-03     55.7239E-03     656.463E-03     8.87558E+06     5.58558E+06     670.444E+03    -4.57808E+06    -2.38278E+06     3.39029E+06     670.444E+03    -1.48604E+06
            1014     20.8175E-03     5.88858E-03     19.9673E-03     612.228E-03    -305.127E-03    -307.559E-03    -306.807E-03     611.711E-03    -305.362E-03     42.6262E-03     649.345E-03     7.26341E+06     4.04187E+06    -511.450E+03    -4.31977E+06    -2.84230E+06     2.56440E+06    -511.450E+03    -1.67734E+06
            1015     20.5526E-03     5.14971E-03     19.8969E-03     610.383E-03    -304.514E-03    -306.565E-03    -305.789E-03     610.119E-03    -305.025E-03     29.8866E-03     641.527E-03     6.78365E+06     2.42124E+06    -1.87309E+06    -5.20518E+06    -3.94821E+06     1.16427E+06    -1.87309E+06    -1.85036E+06
            1016     20.3360E-03     4.41496E-03     19.8510E-03     609.003E-03    -304.381E-03    -305.385E-03    -304.467E-03     608.892E-03    -305.187E-03     18.2802E-03     634.433E-03     6.43667E+06     1.73524E+06    -1.91054E+06    -5.50456E+06    -4.01038E+06     241.065E+03    -1.91054E+06    -1.75229E+06
            1017     20.1718E-03     3.67947E-03     19.8334E-03     608.284E-03    -304.116E-03    -305.568E-03    -304.273E-03     608.247E-03    -305.374E-03     8.19339E-03     627.770E-03     5.45507E+06     584.938E+03    -2.19019E+06    -5.67352E+06    -4.00335E+06    -796.500E+03    -2.47893E+06    -1.55108E+06
            1018     20.0451E-03     2.94358E-03     19.8278E-03     609.703E-03    -304.370E-03    -305.822E-03    -304.359E-03     609.692E-03    -305.822E-03     314.793E-06     623.076E-03     5.32493E+06    -365.596E+03    -3.46178E+06    -6.43018E+06    -4.60215E+06    -1.90489E+06    -3.75052E+06    -1.50968E+06
            1019     19.9650E-03     2.20794E-03     19.8426E-03     610.471E-03    -304.939E-03    -305.968E-03    -304.928E-03     610.460E-03    -305.968E-03    -4.40283E-03     618.303E-03     5.86764E+06    -355.356E+03    -4.31971E+06    -7.05614E+06    -4.55068E+06    -2.86082E+06    -4.31971E+06    -1.33144E+06
            1020     19.9117E-03     1.47199E-03     19.8572E-03     611.448E-03    -305.409E-03    -306.224E-03    -305.397E-03     611.437E-03    -306.224E-03    -6.04191E-03     615.210E-03     6.75828E+06     461.894E+03    -4.12785E+06    -7.27430E+06    -4.00740E+06    -2.80501E+06    -4.12785E+06    -778.785E+03
            1021     19.8925E-03     736.991E-06     19.8789E-03     612.766E-03    -305.801E-03    -307.105E-03    -306.232E-03     612.760E-03    -306.667E-03    -4.41774E-03     614.004E-03     8.82262E+06    -418.897E+03    -4.85960E+06    -10.3525E+06    -4.64747E+06    -6.12397E+06    -4.85960E+06     174.770E+03
            1022     23.3843E-03     12.4503E-03     19.7943E-03     656.890E-03    -312.083E-03    -343.886E-03    -334.853E-03     647.857E-03    -312.083E-03     185.495E-03     767.838E-03     38.5066E+06     22.7012E+06     2.78990E+06    -19.4240E+06    -1.27419E+06     4.55140E+06     2.78990E+06    -279.463E+03
            1023     22.6814E-03     11.7404E-03     19.4064E-03     652.363E-03    -311.297E-03    -341.092E-03    -332.131E-03     643.402E-03    -311.297E-03     183.952E-03     768.656E-03     47.7400E+06     29.8065E+06     3.13141E+06    -22.9776E+06    -473.917E+03     7.30288E+06     3.13141E+06     804.526E+03
            1024     22.1095E-03     11.0182E-03     19.1684E-03     641.725E-03    -309.909E-03    -332.839E-03    -327.659E-03     636.545E-03    -309.909E-03     141.675E-03     734.651E-03     51.4508E+06     31.2837E+06     2.95354E+06    -25.6551E+06    -1.51612E+06     7.14467E+06     2.95354E+06    -970.056E+03
            1025     21.5394E-03     10.2757E-03     18.9304E-03     635.487E-03    -307.972E-03    -328.539E-03    -324.386E-03     631.334E-03    -307.972E-03     125.610E-03     717.410E-03     46.5422E+06     27.6064E+06     1.30483E+06    -23.7268E+06    -954.612E+03     4.83420E+06     1.30483E+06    -584.217E+03
            1026     21.0430E-03     9.55212E-03     18.7501E-03     629.624E-03    -306.111E-03    -323.705E-03    -320.874E-03     626.793E-03    -306.111E-03     103.409E-03     697.933E-03     40.0383E+06     24.1490E+06     632.815E+03    -20.6520E+06    -2.39187E+06     5.88883E+06     632.815E+03     631.510E+03
            1027     20.5688E-03     8.83221E-03     18.5760E-03     623.463E-03    -305.315E-03    -318.513E-03    -316.481E-03     621.432E-03    -305.315E-03     87.0566E-03     682.002E-03     28.9253E+06     19.3294E+06     1.66189E+06    -13.6832E+06    -1.58443E+06     7.23072E+06     1.66189E+06    -1.07622E+06
            1028     20.1399E-03     8.10612E-03     18.4366E-03     616.799E-03    -304.411E-03    -313.685E-03    -312.299E-03     615.413E-03    -304.411E-03     71.2728E-03     666.897E-03     16.8864E+06     11.1463E+06     23.1083E+03    -8.14560E+06    -1.56783E+06     4.56853E+06     23.1083E+03    -903.640E+03
            1029     19.7449E-03     7.37776E-03     18.3148E-03     613.985E-03    -302.702E-03    -311.530E-03    -310.655E-03     613.109E-03    -302.702E-03     56.2389E-03     658.307E-03     10.6603E+06     6.42467E+06    -743.522E+03    -5.68486E+06    -2.64967E+06     3.38949E+06    -743.522E+03    -988.725E+03
            1030     19.3854E-03     6.64906E-03     18.2094E-03     612.242E-03    -301.396E-03    -309.045E-03    -308.536E-03     611.733E-03    -301.396E-03     42.3159E-03     652.147E-03     9.26156E+06     5.04454E+06    -947.598E+03    -5.58252E+06    -3.46353E+06     2.92556E+06    -947.598E+03    -1.19210E+06
            1031     19.0656E-03     5.91773E-03     18.1240E-03     607.138E-03    -300.504E-03    -307.028E-03    -306.776E-03     606.886E-03    -300.504E-03     28.6313E-03     641.832E-03     8.35048E+06     4.09827E+06    -1.81639E+06    -5.44823E+06    -3.82157E+06     2.47161E+06    -1.81639E+06    -1.00387E+06
            1032     18.7850E-03     5.17664E-03     18.0577E-03     603.375E-03    -299.429E-03    -304.410E-03    -304.316E-03     603.280E-03    -299.429E-03     15.2282E-03     631.393E-03     7.40305E+06     2.67961E+06    -2.19494E+06    -5.62544E+06    -4.07797E+06     1.13214E+06    -2.19494E+06    -1.25115E+06
            1033     18.5596E-03     4.44105E-03     18.0204E-03     600.194E-03    -299.180E-03    -301.631E-03    -301.601E-03     600.164E-03    -299.180E-03     3.26545E-03     622.768E-03     6.85631E+06     1.08627E+06    -3.20372E+06    -6.47816E+06    -4.75030E+06    -641.594E+03    -3.20372E+06    -1.31066E+06
            1034     18.3812E-03     3.70254E-03     18.0044E-03     597.761E-03    -298.791E-03    -300.318E-03    -299.895E-03     597.735E-03    -299.188E-03    -5.61857E-03     614.864E-03     6.11015E+06    -581.178E+03    -4.79514E+06    -7.43498E+06    -5.52159E+06    -2.20582E+06    -5.08388E+06    -1.12270E+06
            1035     18.2404E-03     2.96359E-03     17.9981E-03     597.953E-03    -298.733E-03    -299.463E-03    -298.978E-03     597.910E-03    -299.175E-03    -10.8423E-03     609.181E-03     5.72624E+06    -1.15682E+06    -5.60729E+06    -7.58587E+06    -5.54899E+06    -2.90497E+06    -5.89602E+06    -1.06483E+06
            1036     18.1463E-03     2.22263E-03     18.0097E-03     598.034E-03    -299.087E-03    -299.359E-03    -299.206E-03     597.985E-03    -299.192E-03    -12.5619E-03     604.978E-03     6.42644E+06    -1.57662E+06    -6.39764E+06    -8.82125E+06    -6.16514E+06    -4.23273E+06    -6.39764E+06    -734.566E+03
            1037     18.0919E-03     1.48233E-03     18.0311E-03     598.260E-03    -299.105E-03    -299.300E-03    -299.135E-03     598.225E-03    -299.234E-03    -10.6804E-03     601.556E-03     7.09260E+06    -1.50343E+06    -6.32383E+06    -9.62693E+06    -6.30769E+06    -4.82268E+06    -6.32383E+06    -427.299E+03
            1038     18.0646E-03     740.166E-06     18.0494E-03     598.613E-03    -298.862E-03    -299.834E-03    -299.750E-03     598.600E-03    -298.932E-03    -6.04931E-03     599.692E-03     9.81412E+06    -152.069E+03    -5.86197E+06    -11.4504E+06    -5.45537E+06    -6.14714E+06    -5.86197E+06    -608.336E+03
            1039     21.7932E-03     12.4542E-03     17.8840E-03     658.811E-03    -312.161E-03    -345.640E-03    -336.600E-03     649.771E-03    -312.161E-03     185.299E-03     770.587E-03     45.0510E+06     26.1836E+06     1.77723E+06    -23.1167E+06    -980.593E+03     4.04746E+06     1.77723E+06     198.072E+03
            1040     21.0581E-03     11.7327E-03     17.4868E-03     655.322E-03    -310.632E-03    -344.947E-03    -335.883E-03     646.258E-03    -310.632E-03     185.255E-03     774.148E-03     54.5048E+06     33.0332E+06     1.42181E+06    -27.0275E+06    -917.751E+03     6.92341E+06     1.42181E+06    -1.00389E+06
            1041     20.4827E-03     11.0279E-03     17.2605E-03     646.272E-03    -308.906E-03    -338.318E-03    -333.153E-03     641.107E-03    -308.906E-03     142.188E-03     742.433E-03     59.5674E+06     36.1978E+06     1.58920E+06    -29.7793E+06      185.92E+03     6.23253E+06     1.58920E+06     628.701E+03
            1042     19.9024E-03     10.2847E-03     17.0391E-03     640.455E-03    -306.588E-03    -334.629E-03    -330.406E-03     636.233E-03    -306.588E-03     127.422E-03     726.573E-03     54.1327E+06     32.9560E+06     2.48461E+06    -27.5462E+06    -1.95263E+06     7.36247E+06     2.48461E+06     284.409E+03
            1043     19.3858E-03     9.57262E-03     16.8574E-03     634.705E-03    -304.377E-03    -330.343E-03    -327.464E-03     631.826E-03    -304.377E-03     104.865E-03     706.786E-03     42.9031E+06     27.9328E+06     2.38419E+06    -20.5144E+06    -319.993E+03     7.73836E+06     2.38419E+06    -1.94058E+06
            1044     18.9030E-03     8.85376E-03     16.7014E-03     629.494E-03    -302.959E-03    -325.873E-03    -323.900E-03     627.520E-03    -302.959E-03     86.2905E-03     690.053E-03     26.5887E+06     17.4662E+06     559.304E+03    -12.9070E+06    -638.158E+03     5.19745E+06     559.304E+03     72.4624E+03
            1045     18.4554E-03     8.13389E-03     16.5663E-03     620.904E-03    -301.184E-03    -320.837E-03    -319.628E-03     619.694E-03    -301.184E-03     66.7106E-03     671.895E-03     15.9610E+06     10.7709E+06    -665.318E+03    -7.28690E+06    -1.97328E+06     5.45731E+06    -665.318E+03     669.350E+03
            1046     18.0446E-03     7.41116E-03     16.4524E-03     613.607E-03    -298.834E-03    -316.517E-03    -315.882E-03     612.972E-03    -298.834E-03     47.6358E-03     658.709E-03     10.3248E+06     6.56427E+06    -1.60550E+06    -4.89350E+06    -2.31834E+06     3.98911E+06    -1.60550E+06    -128.561E+03
            1047     17.6706E-03     6.68384E-03     16.3578E-03     609.021E-03    -296.011E-03    -311.784E-03    -311.509E-03     608.746E-03    -296.011E-03     30.0745E-03     647.388E-03     8.91102E+06     5.14218E+06    -1.17593E+06    -4.95342E+06    -2.58320E+06     2.77196E+06    -1.17593E+06    -112.969E+03
            1048     17.3365E-03     5.95349E-03     16.2822E-03     602.032E-03    -294.200E-03    -307.791E-03    -307.709E-03     601.949E-03    -294.200E-03     13.7071E-03     634.596E-03     9.10536E+06     4.83398E+06    -2.41126E+06    -5.25675E+06    -3.22392E+06     2.96909E+06    -2.57920E+06    -4.13569E+03
            1049     17.0457E-03     5.21364E-03     16.2288E-03     595.387E-03    -292.686E-03    -303.539E-03    -303.512E-03     595.361E-03    -292.686E-03    -420.344E-06     621.687E-03     9.10755E+06     3.39408E+06    -4.68235E+06    -6.35256E+06    -3.72375E+06     1.04956E+06    -4.96664E+06     186.002E+03
            1050     16.8090E-03     4.47560E-03     16.2022E-03     590.404E-03    -291.381E-03    -298.812E-03    -298.751E-03     590.344E-03    -291.381E-03    -11.8297E-03     610.065E-03     8.02075E+06     1.35997E+06    -6.02830E+06    -7.05929E+06    -4.37371E+06    -1.17872E+06    -6.17519E+06     266.843E+03
            1051     16.6155E-03     3.73390E-03     16.1905E-03     584.390E-03    -290.550E-03    -294.827E-03    -294.705E-03     584.267E-03    -290.550E-03    -19.3303E-03     599.420E-03     6.83045E+06    -308.989E+03    -6.34343E+06    -7.62039E+06    -5.21397E+06    -2.68488E+06    -6.37397E+06     566.263E+03
            1052     16.4662E-03     2.98894E-03     16.1926E-03     581.211E-03    -290.261E-03    -291.995E-03    -291.838E-03     581.054E-03    -290.261E-03    -22.4587E-03     591.143E-03     7.00201E+06    -1.08766E+06    -6.75274E+06    -8.88530E+06    -6.29512E+06    -3.67784E+06    -6.75274E+06     841.970E+03
            1053     16.3622E-03     2.24208E-03     16.2079E-03     580.947E-03    -290.343E-03    -290.790E-03    -290.644E-03     580.802E-03    -290.343E-03    -21.7745E-03     586.595E-03     6.83897E+06    -1.49221E+06    -7.02824E+06    -9.09876E+06    -6.57764E+06    -4.01333E+06    -7.02824E+06     706.021E+03
            1054     16.2956E-03     1.49476E-03     16.2269E-03     580.662E-03    -290.236E-03    -290.531E-03    -290.434E-03     580.570E-03    -290.242E-03    -17.1400E-03     583.387E-03     7.89082E+06    -1.23272E+06    -7.21001E+06    -10.1458E+06    -6.73172E+06    -4.64685E+06    -7.21001E+06     271.921E+03
            1055     16.2665E-03     748.418E-06     16.2492E-03     580.476E-03    -289.844E-03    -290.631E-03    -290.386E-03     580.444E-03    -290.057E-03    -9.50363E-03     581.379E-03     9.41886E+06    -1.35809E+06    -7.92552E+06    -12.0587E+06    -7.09968E+06    -6.31714E+06    -7.92552E+06    -478.271E+03
            1056     20.2566E-03     12.4522E-03     15.9773E-03     660.901E-03    -312.047E-03    -347.736E-03    -338.744E-03     651.909E-03    -312.047E-03     184.629E-03     773.105E-03     52.9905E+06     30.6884E+06     352.618E+03    -27.3269E+06    -514.759E+03     3.87619E+06     352.618E+03    -175.725E+03
            1057     19.5041E-03     11.7454E-03     15.5710E-03     655.699E-03    -310.267E-03    -346.050E-03    -336.889E-03     646.538E-03    -310.267E-03     186.409E-03     778.256E-03     63.8763E+06     39.8042E+06     2.40964E+06    -30.3668E+06     1.32017E+06     8.11725E+06     2.40964E+06     1.74966E+06
            1058     18.9003E-03     11.0289E-03     15.3487E-03     648.207E-03    -308.477E-03    -340.561E-03    -335.121E-03     642.767E-03    -308.477E-03     146.118E-03     749.266E-03     69.9139E+06     42.9476E+06     1.59819E+06    -34.1823E+06    -302.998E+03     9.06835E+06     1.59819E+06     220.678E+03
            1059     18.2983E-03     10.2945E-03     15.1277E-03     646.430E-03    -306.131E-03    -340.685E-03    -335.995E-03     641.740E-03    -306.131E-03     135.085E-03     738.703E-03     61.8414E+06     39.0433E+06    -437.384E+03    -30.1388E+06     3.04104E+06     5.86343E+06    -437.384E+03    -649.752E+03
            1060     17.7659E-03     9.58089E-03     14.9610E-03     642.753E-03    -303.283E-03    -338.926E-03    -335.743E-03     639.569E-03    -303.283E-03     111.046E-03     720.640E-03     42.9347E+06     26.9666E+06    -495.048E+03    -21.9940E+06     360.537E+03     4.61210E+06    -495.048E+03     2.35051E+06
            1061     17.2631E-03     8.87234E-03     14.8087E-03     637.531E-03    -300.628E-03    -335.910E-03    -333.856E-03     635.476E-03    -300.628E-03     88.7160E-03     704.076E-03     22.9496E+06     15.9493E+06     1.47360E+06    -10.3051E+06    -1.43374E+06     7.07789E+06     1.47360E+06     1.43757E+06
            1062     16.8039E-03     8.16032E-03     14.6894E-03     627.567E-03    -298.017E-03    -331.177E-03    -330.029E-03     626.419E-03    -298.017E-03     65.2327E-03     685.119E-03     13.8053E+06     10.0902E+06    -519.350E+03    -5.26744E+06    -1.01884E+06     5.99578E+06    -673.585E+03     426.092E+03
            1063     16.3821E-03     7.44369E-03     14.5934E-03     617.237E-03    -294.455E-03    -324.860E-03    -324.363E-03     616.740E-03    -294.455E-03     41.8406E-03     666.528E-03     11.0243E+06     7.53503E+06    -2.44377E+06    -4.25814E+06    -785.000E+03     4.21612E+06    -2.59801E+06     1.19927E+06
            1064     15.9970E-03     6.72264E-03     14.5158E-03     608.370E-03    -289.908E-03    -317.165E-03    -317.020E-03     608.224E-03    -289.908E-03     20.4317E-03     647.820E-03     9.88793E+06     5.71872E+06    -2.17794E+06    -5.26710E+06    -980.700E+03     2.71168E+06    -3.45729E+06     1.78001E+06
            1065     15.6534E-03     5.99531E-03     14.4598E-03     598.321E-03    -287.267E-03    -310.035E-03    -310.009E-03     598.295E-03    -287.267E-03     1.61947E-03     631.764E-03     10.8526E+06     4.86217E+06    -4.34896E+06    -6.86624E+06    -2.25852E+06     1.70175E+06    -5.79626E+06     2.26796E+06
            1066     15.3546E-03     5.25482E-03     14.4274E-03     587.721E-03    -285.392E-03    -303.383E-03    -303.318E-03     587.656E-03    -285.392E-03    -12.8834E-03     615.107E-03     12.0274E+06     5.26158E+06    -6.32355E+06    -7.16193E+06    -3.07187E+06     1.74952E+06    -6.90156E+06     2.65914E+06
            1067     15.1022E-03     4.51570E-03     14.4113E-03     578.784E-03    -283.024E-03    -296.169E-03    -295.999E-03     578.614E-03    -283.024E-03    -23.4516E-03     598.019E-03     10.7646E+06     3.58362E+06    -5.97059E+06    -7.84475E+06    -3.79095E+06    -29.5874E+03    -6.41119E+06     2.81906E+06
            1068     14.9010E-03     3.77048E-03     14.4161E-03     570.732E-03    -281.000E-03    -289.868E-03    -289.598E-03     570.463E-03    -281.000E-03    -30.0664E-03     584.545E-03     9.70399E+06     2.09074E+06    -6.28060E+06    -8.33138E+06    -4.45588E+06    -1.75423E+06    -6.31113E+06     2.63046E+06
            1069     14.7390E-03     3.02059E-03     14.4261E-03     564.524E-03    -279.836E-03    -285.265E-03    -284.954E-03     564.212E-03    -279.836E-03    -32.2972E-03     573.832E-03     8.99625E+06     1.44376E+06    -6.50258E+06    -8.24352E+06    -4.84303E+06    -1.95673E+06    -6.50258E+06     2.36887E+06
            1070     14.6207E-03     2.26705E-03     14.4439E-03     560.886E-03    -279.281E-03    -281.681E-03    -281.412E-03     560.617E-03    -279.281E-03    -29.7960E-03     566.003E-03     8.21781E+06     796.248E+03    -5.94099E+06    -8.31902E+06    -4.94576E+06    -2.57702E+06    -5.94099E+06     1.80576E+06
            1071     14.5451E-03     1.51222E-03     14.4663E-03     558.489E-03    -278.915E-03    -279.684E-03    -279.523E-03     558.328E-03    -278.915E-03    -22.6263E-03     560.821E-03     8.63277E+06     1.17901E+06    -5.57162E+06    -8.51223E+06    -4.79963E+06    -2.53359E+06    -5.57162E+06     1.44195E+06
            1072     14.5061E-03     755.673E-06     14.4864E-03     557.706E-03    -278.695E-03    -279.101E-03    -278.776E-03     557.649E-03    -278.962E-03    -12.6503E-03     558.469E-03     10.5762E+06     1.11357E+06    -4.94757E+06    -10.4744E+06    -5.30234E+06    -4.05850E+06    -4.94757E+06     1.27558E+06
            1073     18.7852E-03     12.4620E-03     14.0564E-03     662.297E-03    -312.267E-03    -348.704E-03    -339.096E-03     652.688E-03    -312.267E-03     189.162E-03     776.267E-03     62.6608E+06     36.7593E+06     23.3665E+03    -31.8622E+06     443.702E+03     4.45344E+06     23.3665E+03    -652.546E+03
            1074     18.0128E-03     11.7412E-03     13.6604E-03     655.656E-03    -310.465E-03    -345.914E-03    -335.527E-03     645.269E-03    -310.465E-03     198.821E-03     783.747E-03     77.4961E+06     46.8125E+06    -307.555E+03    -38.3295E+06     1.08639E+06     7.39659E+06    -307.555E+03    -2.76253E+06
            1075     17.3768E-03     11.0302E-03     13.4272E-03     650.098E-03    -308.123E-03    -342.739E-03    -336.424E-03     643.783E-03    -308.123E-03     157.795E-03     756.775E-03     85.1506E+06     51.1521E+06    -2.57219E+06    -43.1625E+06     4.18384E+06     3.80571E+06    -2.57219E+06     1.16271E+06
            1076     16.7464E-03     10.2888E-03     13.2130E-03     652.280E-03    -305.571E-03    -346.965E-03    -341.776E-03     647.090E-03    -305.571E-03     142.707E-03     752.103E-03     68.4516E+06     39.9473E+06    -4.12672E+06    -37.1263E+06    -1.73230E+06     4.55334E+06    -4.12672E+06     5.27546E+06
            1077     16.1848E-03     9.58685E-03     13.0399E-03     650.719E-03    -302.289E-03    -347.758E-03    -344.459E-03     647.419E-03    -302.289E-03     113.880E-03     737.575E-03     40.7635E+06     26.7984E+06    -2.02148E+06    -19.2231E+06    -953.061E+03     8.52837E+06    -2.02148E+06     1.05652E+06
            1078     15.6699E-03     8.88445E-03     12.9079E-03     645.611E-03    -298.963E-03    -345.765E-03    -343.687E-03     643.533E-03    -298.963E-03     90.0683E-03     722.465E-03     19.7480E+06     13.9231E+06    -633.236E+03    -8.22989E+06     2.23345E+06     5.89035E+06    -3.06386E+06     465.070E+03
            1079     15.1925E-03     8.18032E-03     12.8021E-03     634.832E-03    -295.647E-03    -341.115E-03    -339.960E-03     633.677E-03    -295.647E-03     65.9266E-03     703.468E-03     15.3602E+06     9.94120E+06    -1.93984E+06    -6.88794E+06     1.72872E+06     4.50194E+06    -5.11724E+06     2.40280E+06
            1080     14.7595E-03     7.47369E-03     12.7274E-03     622.462E-03    -290.959E-03    -333.691E-03    -333.204E-03     621.974E-03    -290.959E-03     41.8269E-03     681.163E-03     14.3174E+06     8.90461E+06    -3.90446E+06    -6.40685E+06     391.723E+03     4.12054E+06    -5.91897E+06     3.92926E+06
            1081     14.3657E-03     6.75965E-03     12.6760E-03     609.244E-03    -284.985E-03    -323.278E-03    -323.135E-03     609.101E-03    -284.985E-03     20.3858E-03     656.595E-03     13.0964E+06     6.77934E+06    -3.50723E+06    -7.87223E+06    -869.524E+03     2.32372E+06    -6.05431E+06     4.76319E+06
            1082     14.0104E-03     6.03405E-03     12.6444E-03     595.517E-03    -280.761E-03    -312.605E-03    -312.578E-03     595.491E-03    -280.761E-03     914.601E-06     635.187E-03     13.3612E+06     7.00765E+06    -4.49130E+06    -7.40262E+06    -1.18621E+06     2.11214E+06    -5.81220E+06     5.01394E+06
            1083     13.6995E-03     5.29637E-03     12.6343E-03     581.571E-03    -277.831E-03    -303.645E-03    -303.565E-03     581.491E-03    -277.831E-03    -14.9092E-03     614.638E-03     13.8084E+06     7.29492E+06    -5.16125E+06    -7.34687E+06    -1.89162E+06     2.17493E+06    -5.49652E+06     5.19712E+06
            1084     13.4354E-03     4.55465E-03     12.6398E-03     568.137E-03    -274.971E-03    -294.721E-03    -294.506E-03     567.922E-03    -274.971E-03    -26.6690E-03     592.308E-03     13.9301E+06     7.45476E+06    -4.26930E+06    -7.65407E+06    -2.19786E+06     2.29227E+06    -4.56302E+06     4.86408E+06
            1085     13.2198E-03     3.80632E-03     12.6600E-03     558.269E-03    -272.449E-03    -286.209E-03    -285.868E-03     557.928E-03    -272.449E-03    -33.8218E-03     574.120E-03     12.3354E+06     6.47882E+06    -3.77524E+06    -6.83717E+06    -2.26215E+06     1.90381E+06    -3.77524E+06     4.29829E+06
            1086     13.0473E-03     3.05214E-03     12.6853E-03     549.883E-03    -270.168E-03    -279.511E-03    -279.117E-03     549.489E-03    -270.168E-03    -36.1254E-03     560.019E-03     10.3223E+06     5.27723E+06    -2.86544E+06    -6.07973E+06    -2.03653E+06     1.23402E+06    -2.86544E+06     3.08130E+06
            1087     12.9226E-03     2.29317E-03     12.7175E-03     542.413E-03    -268.395E-03    -274.016E-03    -273.671E-03     542.068E-03    -268.395E-03    -33.4424E-03     548.164E-03      9.0553E+06     4.89123E+06    -1.99711E+06    -5.29183E+06    -1.37646E+06     975.870E+03    -1.99711E+06     2.08340E+06
            1088     12.8323E-03     1.52991E-03     12.7408E-03     536.806E-03    -267.210E-03    -269.649E-03    -269.428E-03     536.584E-03    -267.210E-03    -26.2917E-03     539.418E-03     9.56695E+06     4.93987E+06    -1.77638E+06    -5.90671E+06    -1.63046E+06     663.625E+03    -1.77638E+06     1.33845E+06
            1089     12.7865E-03     765.433E-06     12.7636E-03     533.696E-03    -266.323E-03    -267.423E-03    -267.275E-03     533.607E-03    -266.382E-03    -15.5584E-03     534.516E-03     12.4177E+06     6.43937E+06    -1.10617E+06    -6.90039E+06    -476.160E+03     15.1388E+03    -1.10617E+06     686.481E+03
            1090     17.3997E-03     12.4486E-03     12.1565E-03     658.693E-03    -312.864E-03    -345.039E-03    -334.497E-03     648.150E-03    -312.864E-03     195.549E-03     775.660E-03     77.7238E+06     45.5105E+06    -4.25130E+06    -39.9368E+06     1.60958E+06     3.96414E+06    -4.25130E+06     -796.17E+03
            1091     16.6037E-03     11.7338E-03     11.7473E-03     659.605E-03    -311.160E-03    -349.011E-03    -337.423E-03     648.017E-03    -311.160E-03     209.796E-03     793.824E-03     98.1793E+06     54.9252E+06    -6.01999E+06     -53.093E+06     249.238E+03     1.58294E+06    -6.01999E+06     5.76995E+06
            1092     15.9390E-03     11.0178E-03     11.5178E-03     656.858E-03    -308.136E-03    -348.918E-03    -342.345E-03     650.284E-03    -308.136E-03     162.072E-03     771.095E-03     103.593E+06     57.4920E+06    -4.30888E+06    -58.8828E+06    -7.36443E+06     5.97368E+06    -4.30888E+06     4.26927E+06
            1093     15.2675E-03     10.2911E-03     11.2779E-03     658.574E-03    -305.211E-03    -353.534E-03    -348.267E-03     653.307E-03    -305.211E-03     144.593E-03     769.080E-03     72.3207E+06     45.6268E+06    -3.57392E+06    -36.0360E+06     872.812E+03     8.71796E+06    -3.57392E+06    -3.14689E+06
            1094     14.6772E-03     9.59267E-03     11.1086E-03     655.811E-03    -301.776E-03    -353.325E-03    -350.008E-03     652.494E-03    -301.776E-03     114.852E-03     754.922E-03     33.8162E+06     22.1435E+06    -4.70013E+06    -15.2619E+06     6.03799E+06     3.15433E+06    -7.01084E+06     582.352E+03
            1095     14.1331E-03     8.89552E-03     10.9824E-03     648.898E-03    -297.891E-03    -350.024E-03    -347.770E-03     646.644E-03    -297.891E-03     94.3669E-03     739.617E-03     18.8328E+06     10.3765E+06    -3.65471E+06    -10.2612E+06     2.95461E+06     1.90198E+06    -8.39604E+06     4.97014E+06
            1096     13.6327E-03     8.19773E-03     10.8925E-03     636.282E-03    -293.637E-03    -344.835E-03    -343.390E-03     634.837E-03    -293.637E-03     73.9269E-03     719.151E-03     19.8087E+06     11.3529E+06    -5.25154E+06    -10.1513E+06     1.28967E+06     3.69268E+06    -9.03228E+06     6.52304E+06
            1097     13.1842E-03     7.49296E-03     10.8480E-03     623.394E-03    -289.301E-03    -337.110E-03    -336.341E-03     622.625E-03    -289.301E-03     52.9569E-03     695.992E-03     17.0721E+06     10.0235E+06    -5.45475E+06    -8.08627E+06     312.485E+03     4.24263E+06    -8.07259E+06     7.09449E+06
            1098     12.7767E-03     6.78033E-03     10.8292E-03     609.587E-03    -283.486E-03    -326.263E-03    -325.880E-03     609.205E-03    -283.486E-03     35.0529E-03     671.429E-03     15.5916E+06     9.80011E+06    -4.08111E+06    -6.76814E+06     35.4077E+03     4.33988E+06    -5.42443E+06     6.71645E+06
            1099     12.4121E-03     6.05199E-03     10.8367E-03     594.825E-03    -277.727E-03    -315.528E-03    -315.394E-03     594.691E-03    -277.727E-03     16.6456E-03     647.234E-03     13.9403E+06     9.92588E+06    -2.21599E+06    -5.03312E+06     321.826E+03     4.68808E+06    -2.33313E+06     6.31163E+06
            1100     12.0882E-03     5.32185E-03     10.8537E-03     580.524E-03    -273.108E-03    -305.875E-03    -305.820E-03     580.469E-03    -273.108E-03    -1.04646E-03     623.698E-03     12.9357E+06     9.30081E+06    -1.00002E+06    -5.03294E+06     459.132E+03     3.85029E+06    -1.04158E+06     6.17009E+06
            1101     11.8138E-03     4.58264E-03     10.8888E-03     564.540E-03    -268.841E-03    -295.527E-03    -295.414E-03     564.427E-03    -268.841E-03    -16.2362E-03     597.547E-03     13.3835E+06     9.98027E+06    -1.17959E+06    -4.67475E+06     189.138E+03     5.11638E+06    -1.17959E+06     5.80337E+06
            1102     11.5823E-03     3.83441E-03     10.9292E-03     550.106E-03    -265.591E-03    -285.465E-03    -285.233E-03     549.874E-03    -265.591E-03    -26.5640E-03     572.813E-03     12.8830E+06     10.6247E+06    -552.323E+03    -3.20453E+06     576.572E+03     6.84356E+06    -552.323E+03     4.38905E+06
            1103     11.3978E-03     3.07682E-03     10.9746E-03     537.807E-03    -262.626E-03    -275.935E-03    -275.621E-03     537.493E-03    -262.626E-03    -31.5929E-03     552.116E-03     11.0603E+06     9.05766E+06     793.703E+03    -3.31461E+06     1.06342E+06     4.67963E+06     793.703E+03     3.32446E+06
            1104     11.2613E-03     2.31431E-03     11.0210E-03     528.088E-03    -260.025E-03    -268.181E-03    -267.878E-03     527.785E-03    -260.025E-03    -30.8616E-03     536.039E-03     10.7997E+06     8.59458E+06     1.05203E+06    -3.76182E+06     501.221E+03     4.33154E+06     1.05203E+06     2.52933E+06
            1105     11.1679E-03     1.54762E-03     11.0602E-03     520.057E-03    -258.027E-03    -262.140E-03    -261.936E-03     519.853E-03    -258.027E-03    -24.7386E-03     523.626E-03     11.1896E+06     9.29274E+06     1.31261E+06    -3.30304E+06     1.05895E+06     5.20324E+06     1.04012E+06     1.45032E+06
            1106     11.1135E-03     775.378E-06     11.0864E-03     514.441E-03    -256.070E-03    -258.309E-03    -258.230E-03     514.362E-03    -256.070E-03    -14.1088E-03     515.392E-03     13.4062E+06     8.98290E+06     1.27824E+06    -5.15170E+06     1.37459E+06     2.63612E+06     1.09872E+06     730.996E+03
            1107     16.1213E-03     12.4381E-03     10.2563E-03     657.674E-03    -313.014E-03    -344.651E-03    -334.476E-03     647.500E-03    -313.014E-03     191.871E-03     777.923E-03     98.3114E+06     53.3612E+06    -7.27411E+06    -54.9227E+06    -3.85612E+06     2.29466E+06    -7.27411E+06     3.13237E+06
            1108     15.2825E-03     11.7162E-03     9.81259E-03     666.079E-03    -311.704E-03    -354.707E-03    -343.764E-03     655.136E-03    -311.704E-03     203.793E-03     809.352E-03     128.949E+06     71.5908E+06    -6.05854E+06    -71.6652E+06    -6.10071E+06     6.02635E+06    -6.05854E+06    -5.43172E+06
            1109     14.5985E-03     11.0215E-03     9.57302E-03     661.528E-03    -308.714E-03    -352.771E-03    -346.694E-03     655.450E-03    -308.714E-03     156.364E-03     787.738E-03     126.455E+06     77.8586E+06    -6.21312E+06    -65.0616E+06     10.7498E+06     2.04715E+06    -6.21312E+06    -7.75271E+06
            1110     13.8976E-03     10.2957E-03     9.33496E-03     658.158E-03    -305.237E-03    -353.536E-03    -348.281E-03     652.903E-03    -305.237E-03     144.680E-03     781.106E-03     69.3917E+06     41.8285E+06    -12.6035E+06    -35.6788E+06     8.92290E+06    -2.77327E+06    -12.6035E+06      5.7816E+06
            1111     13.2717E-03     9.60000E-03     9.16402E-03     652.727E-03    -301.519E-03    -350.367E-03    -346.760E-03     649.120E-03    -301.519E-03     119.618E-03     761.820E-03     29.9816E+06     14.8329E+06    -10.3678E+06    -17.4898E+06    -377.783E+03     31.5813E+03    -12.6785E+06     10.0854E+06
            1112     12.7000E-03     8.89976E-03     9.06008E-03     645.032E-03    -297.760E-03    -346.301E-03    -343.501E-03     642.232E-03    -297.760E-03     104.889E-03     746.450E-03     23.1101E+06     11.8380E+06    -7.39807E+06    -13.0571E+06    -2.45214E+06     3.54378E+06    -9.70878E+06     9.42550E+06
            1113     12.1593E-03     8.19489E-03     8.98288E-03     630.945E-03    -293.187E-03    -340.171E-03    -338.121E-03     628.894E-03    -293.187E-03     88.1997E-03     725.121E-03     20.2584E+06     12.6102E+06    -5.35925E+06    -9.13876E+06    -2.31509E+06     6.54410E+06    -6.11682E+06     8.58539E+06
            1114     11.6814E-03     7.48772E-03     8.96599E-03     618.391E-03    -289.283E-03    -332.286E-03    -330.959E-03     617.063E-03    -289.283E-03     70.2210E-03     702.310E-03     16.7969E+06     11.7084E+06    -3.04719E+06    -6.33871E+06    -941.547E+03     7.06879E+06    -3.80476E+06     7.38733E+06
            1115     11.2455E-03     6.77360E-03     8.97666E-03     608.024E-03    -285.037E-03    -324.461E-03    -323.554E-03     607.117E-03    -285.037E-03     56.6992E-03     682.848E-03     15.5382E+06     12.0641E+06    -2.54630E+06    -4.15542E+06     92.5692E+03     7.89175E+06    -2.62189E+06     6.71529E+06
            1116     10.8531E-03     6.04642E-03     9.01285E-03     594.516E-03    -279.277E-03    -316.073E-03    -315.534E-03     593.976E-03    -279.277E-03     41.6409E-03     659.792E-03      13.747E+06     11.5255E+06     69.8551E+03    -3.50523E+06     347.593E+03     7.74825E+06    -5.73467E+03     5.97005E+06
            1117     10.5114E-03     5.32103E-03     9.06512E-03     581.634E-03    -273.726E-03    -306.976E-03    -306.683E-03     581.342E-03    -273.726E-03     26.4201E-03     634.853E-03     11.3280E+06     10.7717E+06     1.99727E+06    -1.89804E+06     1.13928E+06      7.7344E+06     1.99727E+06     4.85086E+06
            1118     10.2278E-03     4.58670E-03     9.14165E-03     568.337E-03    -268.935E-03    -297.380E-03    -297.211E-03     568.167E-03    -268.935E-03     12.5506E-03     610.558E-03     10.4395E+06     11.3499E+06     2.14138E+06     151.148E+03     2.45074E+06     9.05027E+06     2.14138E+06     4.01469E+06
            1119     9.98143E-03     3.84142E-03     9.21263E-03     552.950E-03    -264.514E-03    -287.484E-03    -287.358E-03     552.824E-03    -264.514E-03     180.342E-06     584.186E-03     11.1004E+06     12.3026E+06     2.11446E+06     523.353E+03     3.18164E+06     9.95877E+06     1.80000E+06     3.50619E+06
            1120     9.78281E-03     3.08736E-03     9.28286E-03     536.945E-03    -260.670E-03    -277.032E-03    -276.905E-03     536.817E-03    -260.670E-03    -8.97206E-03     557.569E-03     10.8896E+06     11.9007E+06     2.50312E+06     70.9000E+03     3.39068E+06     8.89538E+06     2.18867E+06     2.83323E+06
            1121     9.63363E-03     2.32435E-03     9.34902E-03     523.715E-03    -257.521E-03    -266.995E-03    -266.874E-03     523.594E-03    -257.521E-03    -12.9483E-03     535.536E-03     12.1637E+06     12.3133E+06     2.70588E+06    -1.25578E+06     3.68278E+06     7.37470E+06     2.70588E+06     2.16640E+06
            1122     9.53221E-03     1.55342E-03     9.40479E-03     514.702E-03    -255.414E-03    -259.433E-03    -259.353E-03     514.622E-03    -255.414E-03    -12.1987E-03     519.654E-03     11.9477E+06     12.1627E+06     3.41865E+06    -1.17084E+06     3.80478E+06     7.45961E+06     3.14616E+06     1.43992E+06
            1123     9.47742E-03     777.827E-06     9.44544E-03     509.326E-03    -253.750E-03    -255.480E-03    -255.318E-03     509.297E-03    -253.883E-03    -6.32256E-03     510.652E-03     13.7759E+06     12.2690E+06     4.62915E+06    -2.45045E+06     4.17872E+06     5.81933E+06     4.44964E+06     1.14926E+06
            1124     14.9790E-03     12.4346E-03     8.35169E-03     663.642E-03    -312.427E-03    -351.049E-03    -341.093E-03     653.685E-03    -312.427E-03     191.732E-03     794.299E-03     130.450E+06     76.6171E+06    -6.39316E+06    -67.0566E+06     7.35889E+06     2.20158E+06    -6.39316E+06    -6.66961E+06
            1125     14.1469E-03     11.7401E-03     7.89326E-03     668.684E-03    -311.088E-03    -357.526E-03    -346.678E-03     657.837E-03    -311.088E-03     204.530E-03     825.964E-03     170.884E+06     102.408E+06    -11.3078E+06    -88.6208E+06     21.8922E+06    -8.10456E+06    -11.3078E+06     1.43930E+06
            1126     13.4216E-03     11.0296E-03     7.64772E-03     658.660E-03    -308.424E-03    -350.786E-03    -344.482E-03     652.356E-03    -308.424E-03     158.715E-03     791.431E-03     141.305E+06     75.9822E+06    -19.3807E+06    -85.2119E+06    -311.510E+03    -8.91817E+06    -19.3807E+06     18.7286E+06
            1127     12.6869E-03     10.3011E-03     7.40576E-03     652.649E-03    -305.249E-03    -349.064E-03    -343.885E-03     647.470E-03    -305.249E-03     142.497E-03     774.314E-03     58.5868E+06     27.8908E+06    -15.4320E+06    -38.1256E+06    -14.3819E+06     4.14722E+06    -15.4320E+06     13.8274E+06
            1128     12.0241E-03     9.59268E-03     7.24978E-03     644.945E-03    -301.520E-03    -342.927E-03    -339.634E-03     641.652E-03    -301.520E-03     112.937E-03     749.834E-03     27.2925E+06     13.5527E+06    -9.71195E+06    -16.1489E+06    -9.72020E+06     7.12410E+06    -9.71195E+06     7.36416E+06
            1129     11.3988E-03     8.88470E-03     7.14104E-03     635.445E-03    -298.431E-03    -336.850E-03    -334.393E-03     632.988E-03    -298.431E-03     96.5502E-03     733.532E-03     21.0297E+06     12.1625E+06    -5.98457E+06    -10.7202E+06    -6.01394E+06     7.45626E+06    -5.98457E+06     5.21471E+06
            1130     10.8231E-03     8.17611E-03     7.09157E-03     619.867E-03    -294.708E-03    -328.313E-03    -326.436E-03     617.990E-03    -294.708E-03     83.3398E-03     712.029E-03     13.9518E+06     11.1268E+06    -1.27746E+06    -3.74328E+06    -2.08288E+06     9.46635E+06    -1.27746E+06     4.20474E+06
            1131     10.2932E-03     7.46008E-03     7.09203E-03     607.548E-03    -291.755E-03    -319.164E-03    -317.628E-03     606.012E-03    -291.755E-03     75.2132E-03     690.388E-03     12.5687E+06     12.1316E+06     2.42026E+06    -1.60469E+06     248.049E+03     10.2789E+06     2.42026E+06     4.08353E+06
            1132     9.80890E-03     6.74197E-03     7.12463E-03     599.955E-03    -289.159E-03    -312.932E-03    -311.357E-03     598.380E-03    -289.159E-03     74.9978E-03     675.298E-03     11.2771E+06     11.8925E+06     4.13253E+06    -548.316E+03     1.26974E+06     10.0745E+06     4.13253E+06     3.87916E+06
            1133     9.37361E-03     6.02040E-03     7.18467E-03     590.104E-03    -285.000E-03    -307.211E-03    -305.625E-03     588.517E-03    -285.000E-03     72.8280E-03     657.481E-03     10.8795E+06     13.0726E+06     5.05478E+06     1.01085E+06     2.65322E+06     11.4570E+06     5.02801E+06     3.59459E+06
            1134     8.98765E-03     5.28292E-03     7.27108E-03     581.551E-03    -280.754E-03    -301.059E-03    -299.573E-03     580.064E-03    -280.754E-03     67.8277E-03     638.034E-03     9.53756E+06     13.2507E+06     4.84664E+06     3.05911E+06     3.84588E+06     12.4907E+06     4.81986E+06     2.35973E+06
            1135     8.65571E-03     4.54812E-03     7.36451E-03     575.394E-03    -277.659E-03    -295.690E-03    -294.394E-03     574.098E-03    -277.659E-03     60.6975E-03     620.808E-03     7.90201E+06     12.0316E+06     4.77864E+06     3.91800E+06     4.41011E+06     11.5101E+06     4.80798E+06     1.61154E+06
            1136     8.38762E-03     3.80928E-03     7.47272E-03     567.018E-03    -274.427E-03    -289.998E-03    -288.975E-03     565.994E-03    -274.427E-03     50.6327E-03     601.795E-03     7.94728E+06     12.3219E+06     5.53124E+06     3.84841E+06     5.07971E+06     11.3757E+06     5.24614E+06     1.53395E+06
            1137     8.16473E-03     3.05984E-03     7.56969E-03     553.902E-03    -271.025E-03    -283.082E-03    -282.362E-03     553.183E-03    -271.025E-03     38.9318E-03     578.026E-03     8.97483E+06     13.3819E+06     5.90579E+06     3.50365E+06     5.63695E+06     12.1439E+06      5.0105E+06     1.32243E+06
            1138     8.00318E-03     2.30363E-03     7.66448E-03     542.021E-03    -268.030E-03    -275.154E-03    -274.733E-03     541.601E-03    -268.030E-03     26.9414E-03     556.271E-03     9.97885E+06     13.8469E+06     6.27210E+06     2.74398E+06     6.51869E+06     10.6530E+06     5.69126E+06     746.957E+03
            1139     7.88847E-03     1.54004E-03     7.73668E-03     534.760E-03    -265.920E-03    -268.608E-03    -268.418E-03     534.569E-03    -265.920E-03     15.6995E-03     541.177E-03     11.3456E+06     13.8824E+06     6.27164E+06     1.04828E+06     6.48109E+06     8.44958E+06     6.27164E+06     324.531E+03
            1140     7.82486E-03     771.678E-06     7.78671E-03     530.085E-03    -264.332E-03    -265.675E-03    -264.923E-03     530.023E-03    -265.022E-03     8.85346E-03     532.209E-03     13.3189E+06     14.2962E+06     6.94972E+06    -113.424E+03     6.96789E+06     7.21484E+06     6.94972E+06     19.1507E+03
            1141     14.0034E-03     12.4460E-03     6.41821E-03     672.907E-03    -312.944E-03    -359.155E-03    -346.633E-03     660.384E-03    -312.944E-03     220.618E-03     831.477E-03      175.72E+06     90.9641E+06    -25.9373E+06    -100.362E+06    -1.45929E+06    -7.93823E+06    -25.9373E+06     15.0698E+06
            1142     13.1696E-03     11.7350E-03     5.97738E-03     678.706E-03    -310.478E-03    -367.930E-03    -356.495E-03     667.271E-03    -310.478E-03     210.376E-03     827.574E-03     202.269E+06     88.2363E+06    -32.1211E+06    -140.569E+06    -42.0678E+06    -10.2646E+06    -32.1211E+06     19.0342E+06
            1143     12.4298E-03     11.0336E-03     5.72369E-03     665.179E-03    -307.303E-03    -358.004E-03    -352.940E-03     660.115E-03    -307.303E-03     139.451E-03     775.334E-03     125.565E+06     60.5755E+06    -15.0661E+06    -83.9365E+06    -33.4806E+06     10.1196E+06    -15.0661E+06     191.830E+03
            1144     11.6753E-03     10.2993E-03     5.49872E-03     650.326E-03    -303.879E-03    -347.462E-03    -344.351E-03     647.216E-03    -303.879E-03     102.395E-03     746.058E-03     39.1261E+06     21.3004E+06    -5.15142E+06    -23.2861E+06    -10.7303E+06     8.74453E+06    -5.15142E+06    -6.13549E+06
            1145     10.9858E-03     9.59740E-03     5.34575E-03     631.917E-03    -300.056E-03    -331.242E-03    -329.652E-03     630.327E-03    -300.056E-03     71.6663E-03     714.973E-03     23.5282E+06     14.3253E+06    -298.596E+03    -12.4740E+06    -3.21071E+06     5.06198E+06    -298.596E+03    -3.31740E+06
            1146     10.3308E-03     8.88651E-03     5.26835E-03     612.862E-03    -296.107E-03    -317.792E-03    -314.630E-03     611.635E-03    -298.041E-03     65.3364E-03     691.385E-03     13.3019E+06     11.2722E+06     2.45064E+06    -3.80658E+06    -47.0938E+03     7.51270E+06     2.45064E+06    -1.56479E+06
            1147     9.69818E-03     8.16169E-03     5.23846E-03     595.182E-03    -290.187E-03    -309.207E-03    -301.273E-03     593.827E-03    -296.766E-03     69.3781E-03     668.548E-03     9.37297E+06     11.0972E+06     5.36794E+06     1.05550E+06     2.26880E+06     9.72349E+06     5.52834E+06    -119.169E+03
            1148     9.10516E-03     7.42853E-03     5.26506E-03     587.590E-03    -285.685E-03    -305.415E-03    -292.134E-03     585.729E-03    -297.105E-03     79.6918E-03     652.769E-03     8.98805E+06     12.1281E+06     7.79361E+06     2.56693E+06     3.71660E+06     10.8181E+06     7.95401E+06    -654.023E+03
            1149     8.54163E-03     6.68749E-03     5.31384E-03     585.285E-03    -283.580E-03    -303.323E-03    -286.629E-03     582.616E-03    -297.605E-03     95.0420E-03     644.984E-03     8.93892E+06     13.1942E+06     8.22799E+06     3.20339E+06     4.06069E+06     12.3369E+06     8.22799E+06    -546.355E+03
            1150     8.01864E-03     5.94297E-03     5.38328E-03     584.375E-03    -283.397E-03    -301.972E-03    -285.384E-03     581.090E-03    -296.700E-03     105.577E-03     638.596E-03     9.10135E+06     14.7189E+06     8.30280E+06     4.63847E+06     5.63873E+06     13.7454E+06     8.27603E+06    -1.04375E+06
            1151     7.55176E-03     5.19647E-03     5.47959E-03     586.614E-03    -284.611E-03    -301.025E-03    -285.997E-03     583.014E-03    -296.040E-03     110.546E-03     632.893E-03     7.68994E+06     14.1868E+06     7.91425E+06     5.82799E+06     6.21794E+06     13.8236E+06     7.88748E+06    -439.531E+03
            1152     7.14811E-03     4.45779E-03     5.58780E-03     589.873E-03    -287.090E-03    -300.945E-03    -287.996E-03     586.290E-03    -296.456E-03     110.290E-03     627.337E-03      6.3595E+06     13.0389E+06     8.43031E+06     6.07202E+06     6.37571E+06     12.7059E+06     8.45966E+06    -160.097E+03
            1153     6.80900E-03     3.71777E-03     5.70445E-03     592.437E-03    -290.067E-03    -301.118E-03    -291.156E-03     589.284E-03    -296.876E-03     103.509E-03     621.954E-03     6.14811E+06     12.3182E+06     7.81117E+06     5.57450E+06     5.83041E+06     12.0330E+06     7.84051E+06    -466.556E+03
            1154     6.53870E-03     2.97859E-03     5.82087E-03     592.063E-03    -291.961E-03    -299.875E-03    -293.209E-03     589.669E-03    -296.231E-03     89.9486E-03     613.252E-03     7.00881E+06     12.8926E+06     7.50005E+06     5.10152E+06     6.31828E+06     12.2567E+06     6.91922E+06    -508.730E+03
            1155     6.33176E-03     2.23735E-03     5.92330E-03     589.898E-03    -292.915E-03    -297.603E-03    -293.690E-03     588.366E-03    -295.298E-03     71.2201E-03     603.013E-03     7.23013E+06     12.2469E+06     7.61039E+06     3.97731E+06     6.45096E+06     10.3541E+06     7.02956E+06     56.6484E+03
            1156     6.18934E-03     1.49451E-03     6.00620E-03     588.498E-03    -293.142E-03    -295.396E-03    -293.251E-03     587.721E-03    -294.508E-03     49.5399E-03     595.018E-03     9.81851E+06     13.8445E+06     6.97832E+06     2.67593E+06     7.03102E+06     9.48937E+06     6.97832E+06     632.058E+03
            1157     6.10543E-03     748.266E-06     6.05941E-03     587.477E-03    -292.779E-03    -294.761E-03    -293.493E-03     587.203E-03    -293.773E-03     28.3058E-03     589.703E-03     11.8766E+06     13.1086E+06     7.25462E+06     28.0015E+03     6.02990E+06     7.10668E+06     7.25462E+06    -316.495E+03
            1158     13.1929E-03     12.4143E-03     4.46512E-03     699.701E-03    -312.700E-03    -386.133E-03    -373.585E-03     687.153E-03    -312.700E-03     218.493E-03     858.571E-03     207.923E+06     92.9918E+06    -25.2548E+06    -135.166E+06    -39.3154E+06    -2.85859E+06    -25.2548E+06    -5.31698E+06
            1159     12.4004E-03     11.7341E-03     4.01005E-03     696.552E-03    -308.401E-03    -388.822E-03    -382.735E-03     690.465E-03    -308.401E-03     124.764E-03     793.531E-03     201.801E+06     121.968E+06     2.10292E+06    -108.720E+06     1.33429E+06     11.9142E+06     2.10292E+06    -25.9312E+06
            1160     11.6824E-03     11.0587E-03     3.76631E-03     665.258E-03    -303.256E-03    -361.309E-03    -359.690E-03     663.639E-03    -303.256E-03     51.4968E-03     733.109E-03     100.292E+06     63.6970E+06     3.01434E+06    -51.1147E+06     21.3719E+06    -8.78958E+06     3.01434E+06    -14.2973E+06
            1161     10.9563E-03     10.3509E-03     3.59169E-03     632.082E-03    -299.535E-03    -332.193E-03    -331.448E-03     631.491E-03    -299.688E-03     34.5951E-03     691.796E-03     30.4717E+06     20.3416E+06     5.59925E+06    -13.9217E+06     13.5753E+06    -7.15540E+06     5.59925E+06    -4.34743E+06
            1162     10.2466E-03     9.63476E-03     3.48785E-03     599.571E-03    -289.698E-03    -309.976E-03    -301.391E-03     599.195E-03    -297.909E-03     34.9849E-03     651.854E-03     23.7818E+06     19.6680E+06     8.31704E+06    -7.65513E+06     9.66075E+06     2.35210E+06     8.31704E+06    -4.94204E+06
            1163     9.53788E-03     8.89041E-03     3.45422E-03     575.431E-03    -275.731E-03    -301.602E-03    -278.436E-03     574.562E-03    -298.028E-03     52.4973E-03     624.476E-03     15.1074E+06     16.2600E+06     9.68866E+06    -933.032E+03     7.40521E+06     7.92178E+06     9.68866E+06    -1.65645E+06
            1164     8.83183E-03     8.13006E-03     3.45013E-03     563.923E-03    -266.994E-03    -300.428E-03    -265.441E-03     562.370E-03    -300.428E-03     71.0705E-03     608.028E-03     11.9509E+06     14.6363E+06     10.3140E+06     1.36057E+06     6.14104E+06     9.69547E+06     10.4744E+06    -3.45618E+06
            1165     8.14610E-03     7.36176E-03     3.48762E-03     565.954E-03    -263.947E-03    -304.856E-03    -261.606E-03     563.612E-03    -304.856E-03     87.4828E-03     604.506E-03     9.28399E+06     13.3301E+06     9.38876E+06     2.95739E+06     5.18259E+06     10.9446E+06     9.54916E+06    -2.76833E+06
            1166     7.48546E-03     6.59559E-03     3.53982E-03     574.703E-03    -266.285E-03    -309.427E-03    -263.052E-03     571.469E-03    -309.427E-03     103.881E-03     609.625E-03     9.29917E+06     14.7501E+06     8.48989E+06     4.23598E+06     6.07190E+06     12.9141E+06     8.48989E+06    -2.81410E+06
            1167     6.85858E-03     5.83403E-03     3.60615E-03     585.044E-03    -271.970E-03    -312.917E-03    -268.164E-03     581.238E-03    -312.917E-03     113.752E-03     615.990E-03     9.20596E+06     14.3888E+06     7.27998E+06     4.09417E+06     5.14153E+06     13.3414E+06     7.27998E+06    -2.49132E+06
            1168     6.27153E-03     5.07324E-03     3.68705E-03     599.052E-03    -280.564E-03    -317.424E-03    -276.481E-03     594.970E-03    -317.424E-03     119.115E-03     625.401E-03     7.85411E+06     13.0242E+06     6.98138E+06     4.25614E+06     4.79884E+06     12.4815E+06     6.98138E+06    -1.69041E+06
            1169     5.74843E-03     4.32698E-03     3.78440E-03     615.458E-03    -291.964E-03    -323.090E-03    -287.856E-03     611.349E-03    -323.090E-03     121.154E-03     637.531E-03     6.58511E+06     11.6195E+06     6.53718E+06     4.31697E+06     5.08993E+06     10.8466E+06     6.53718E+06    -1.36518E+06
            1170     5.28980E-03     3.59135E-03     3.88383E-03     631.552E-03    -303.748E-03    -327.685E-03    -300.044E-03     627.848E-03    -327.685E-03     116.636E-03     649.504E-03     7.06083E+06     12.0190E+06     6.00873E+06     4.43887E+06     5.57385E+06     11.0813E+06     5.81144E+06    -983.471E+03
            1171     4.90482E-03     2.86420E-03     3.98166E-03     646.425E-03    -314.778E-03    -330.935E-03    -311.854E-03     643.502E-03    -330.935E-03     104.965E-03     659.370E-03     6.11526E+06     10.6144E+06     5.34879E+06     4.06207E+06     4.76721E+06     10.1678E+06     5.09024E+06    -228.077E+03
            1172     4.60450E-03     2.14365E-03     4.07507E-03     657.193E-03    -323.975E-03    -333.309E-03    -322.006E-03     655.225E-03    -333.309E-03     86.6746E-03     665.461E-03     5.65571E+06     10.3058E+06     5.90502E+06     3.98636E+06     5.64273E+06     8.71067E+06     5.84375E+06     3.54794E+03
            1173     4.39037E-03     1.42596E-03     4.15235E-03     665.018E-03    -330.260E-03    -334.930E-03    -329.224E-03     663.982E-03    -334.930E-03     62.3671E-03     669.267E-03     8.08641E+06     11.4416E+06     5.34673E+06     2.29925E+06     5.46896E+06     8.27185E+06     5.34673E+06     49.7297E+03
            1174     4.25990E-03     711.797E-06     4.20001E-03     670.461E-03    -333.909E-03    -336.642E-03    -334.931E-03     670.089E-03    -335.249E-03     36.2240E-03     671.829E-03     11.3653E+06     13.3942E+06     5.60762E+06     362.409E+03     6.68934E+06     7.06729E+06     5.60762E+06      678.48E+03
            1175     12.6834E-03     12.4652E-03     2.34257E-03     808.925E-03    -310.611E-03    -497.766E-03    -489.532E-03     800.691E-03    -310.611E-03     166.190E-03     911.565E-03     186.408E+06     109.952E+06     11.7431E+06    -99.5465E+06     4.67740E+06     122.708E+03     17.3487E+06    -5.17808E+06
            1176     12.0141E-03     11.8457E-03     2.00466E-03     711.733E-03    -302.676E-03    -410.839E-03    -410.237E-03     711.132E-03    -302.676E-03     13.9607E-03     756.647E-03     156.693E+06     109.074E+06     20.7283E+06    -68.6441E+06     46.4532E+06    -11.6289E+06     26.3339E+06    -6.46112E+06
            1177     11.2834E-03     11.1348E-03     1.82548E-03     637.859E-03    -295.906E-03    -342.505E-03    -340.681E-03     637.802E-03    -297.673E-03    -11.8182E-03     670.722E-03     97.9423E+06     56.6848E+06     12.3526E+06    -54.2632E+06     16.9660E+06    -14.5444E+06     12.3526E+06     27.5432E+06
            1178     10.5497E-03     10.4063E-03     1.73342E-03     590.241E-03    -283.439E-03    -306.785E-03    -293.513E-03     590.188E-03    -296.658E-03     7.22462E-03     617.745E-03     38.4817E+06     26.7548E+06     11.7361E+06    -16.7580E+06     9.85898E+06     137.869E+03     11.7361E+06     827.023E+03
            1179     9.79408E-03     9.64418E-03     1.70696E-03     560.879E-03    -263.099E-03    -298.241E-03    -262.818E-03     560.598E-03    -298.241E-03     28.2683E-03     584.059E-03     30.5570E+06     24.4818E+06     8.36246E+06    -10.7065E+06     7.47964E+06     6.29564E+06     8.36246E+06     2.16872E+06
            1180     9.02342E-03     8.86027E-03     1.70814E-03     546.824E-03    -246.880E-03    -301.164E-03    -246.165E-03     546.109E-03    -301.164E-03     45.5681E-03     567.525E-03     20.9916E+06     20.3369E+06     8.34006E+06    -3.44572E+06     6.98588E+06     9.90527E+06     8.34006E+06    -2.77249E+06
            1181     8.25140E-03     8.07139E-03     1.71414E-03     546.609E-03    -242.120E-03    -306.553E-03    -241.024E-03     545.514E-03    -306.553E-03     55.5020E-03     564.414E-03     14.8706E+06     15.6574E+06     6.31977E+06    -929.768E+03     5.56154E+06     9.16613E+06     6.31977E+06    -2.15188E+06
            1182     7.49091E-03     7.28579E-03     1.74099E-03     557.269E-03    -245.607E-03    -313.544E-03    -244.191E-03     555.854E-03    -313.544E-03     62.4379E-03     572.812E-03     10.7355E+06     13.6657E+06     5.62164E+06     1.65311E+06     4.60488E+06     10.7140E+06     5.62164E+06    -2.32521E+06
            1183     6.74144E-03     6.50464E-03     1.77107E-03     575.349E-03    -254.275E-03    -321.171E-03    -252.514E-03     573.588E-03    -321.171E-03     69.9688E-03     588.809E-03     9.67845E+06     12.3795E+06     5.24304E+06     1.50462E+06     4.33786E+06     9.54625E+06     5.24304E+06    -2.04303E+06
            1184     6.01136E-03     5.73310E-03     1.80775E-03     594.943E-03    -265.475E-03    -328.707E-03    -263.550E-03     593.017E-03    -328.707E-03     73.9062E-03     605.902E-03     10.7749E+06     13.2406E+06     5.22943E+06     1.02800E+06     3.85119E+06     10.4175E+06     5.22943E+06    -208.920E+03
            1185     5.30920E-03     4.97266E-03     1.86017E-03     617.287E-03    -280.055E-03    -337.457E-03    -278.115E-03     615.346E-03    -337.457E-03     75.5390E-03     626.467E-03     12.1978E+06     14.1142E+06     4.40197E+06     497.937E+03     3.48219E+06     11.1300E+06     4.40197E+06    -788.309E+03
            1186     4.63397E-03     4.22053E-03     1.91332E-03     643.592E-03    -297.636E-03    -346.852E-03    -295.738E-03     641.695E-03    -346.852E-03     76.4178E-03     651.493E-03     10.9812E+06     12.2083E+06     3.54730E+06    -26.4737E+03     3.24671E+06     8.93510E+06     3.54730E+06    -983.748E+03
            1187     4.00706E-03     3.48805E-03     1.97231E-03     670.571E-03    -315.623E-03    -354.747E-03    -313.904E-03     668.852E-03    -354.747E-03     74.3118E-03     676.921E-03     11.3868E+06     12.6960E+06     3.49186E+06     119.059E+03     3.38542E+06     9.62691E+06     3.29458E+06    -323.666E+03
            1188     3.43381E-03     2.76874E-03     2.03104E-03     696.120E-03    -333.725E-03    -361.443E-03    -332.324E-03     694.719E-03    -361.443E-03     68.2704E-03     700.540E-03     9.91717E+06     12.2625E+06     3.73070E+06     1.43177E+06     3.99100E+06     9.96184E+06     3.47214E+06     125.138E+03
            1189     2.93327E-03     2.06247E-03     2.08573E-03     717.656E-03    -350.358E-03    -367.046E-03    -349.380E-03     716.677E-03    -367.046E-03     57.9567E-03     720.361E-03     9.68220E+06     11.0607E+06     3.57811E+06     173.576E+03     3.24617E+06     8.04933E+06     3.51684E+06    -600.969E+03
            1190     2.53824E-03     1.36987E-03     2.13685E-03     734.641E-03    -363.318E-03    -371.216E-03    -362.792E-03     734.115E-03    -371.216E-03     43.1805E-03     735.975E-03     11.1763E+06     11.7616E+06     3.63301E+06    -968.711E+03     3.49845E+06     7.29445E+06     3.63301E+06    -1.25100E+06
            1191     2.27453E-03     683.471E-06     2.16942E-03     745.798E-03    -370.148E-03    -375.665E-03    -370.640E-03     745.602E-03    -374.977E-03     26.5210E-03     746.223E-03     11.9769E+06     11.2996E+06     3.36334E+06    -2.41481E+06     3.60112E+06     5.28371E+06     3.36334E+06     907.720E+03
            1192     104.443E-03     731.731E-06     104.441E-03     626.139E-03    -312.341E-03    -313.480E-03    -312.761E-03     626.137E-03    -313.059E-03     2.41436E-03     628.042E-03     6.11890E+06    -21.4412E+06    -24.8910E+06    -28.3181E+06    -25.4053E+06    -24.3589E+06    -24.8862E+06     649.988E+03
            1193     104.433E-03     1.46460E-03     104.423E-03     626.627E-03    -312.894E-03    -313.825E-03    -313.030E-03     626.612E-03    -313.675E-03     6.64442E-03     631.844E-03     4.62782E+06    -19.5898E+06    -21.0732E+06    -24.5888E+06    -24.2048E+06    -20.2144E+06    -20.8327E+06     758.782E+03
            1194     104.434E-03     2.19603E-03     104.410E-03     625.879E-03    -312.234E-03    -314.025E-03    -312.179E-03     625.824E-03    -314.025E-03     13.6048E-03     636.158E-03     6.75316E+06    -16.1975E+06    -17.3816E+06    -23.4217E+06    -22.7515E+06    -17.6241E+06    -16.6252E+06     1.11379E+06
            1195     104.446E-03     2.92672E-03     104.405E-03     623.341E-03    -311.023E-03    -314.042E-03    -310.855E-03     623.173E-03    -314.042E-03     24.1562E-03     639.961E-03     7.62419E+06    -13.5032E+06    -15.1313E+06    -21.7622E+06    -21.3014E+06    -15.5921E+06    -13.5032E+06     975.479E+03
            1196     104.465E-03     3.65759E-03     104.401E-03     621.890E-03    -310.264E-03    -313.479E-03    -309.874E-03     621.500E-03    -313.479E-03     37.5128E-03     645.640E-03     8.45927E+06    -10.0010E+06    -11.9082E+06    -19.1995E+06    -19.0429E+06    -12.0648E+06    -10.0010E+06     702.788E+03
            1197     104.488E-03     4.39004E-03     104.396E-03     620.809E-03    -309.850E-03    -312.240E-03    -309.119E-03     620.079E-03    -312.240E-03     51.6114E-03     652.685E-03     10.0823E+06    -6.80361E+06    -8.80219E+06    -17.6893E+06    -17.4976E+06    -8.99393E+06    -6.80361E+06     933.737E+03
            1198     104.542E-03     5.12549E-03     104.416E-03     620.643E-03    -309.778E-03    -311.490E-03    -308.581E-03     619.446E-03    -311.490E-03     66.2787E-03     659.165E-03     11.3805E+06    -3.19042E+06    -6.03399E+06    -15.6814E+06    -15.5083E+06    -6.20712E+06    -3.19042E+06     1.24275E+06
            1199     104.651E-03     5.86115E-03     104.486E-03     620.120E-03    -309.493E-03    -310.897E-03    -307.736E-03     618.362E-03    -310.897E-03     80.4529E-03     666.560E-03     14.3787E+06     2.01536E+06    -2.38540E+06    -14.0242E+06    -13.8391E+06    -2.57048E+06     2.01536E+06     1.37755E+06
            1200     104.824E-03     6.59014E-03     104.617E-03     620.628E-03    -309.319E-03    -311.461E-03    -306.969E-03     618.277E-03    -311.461E-03     93.2024E-03     672.947E-03     15.2051E+06     4.22645E+06    -789.752E+03    -12.8374E+06    -12.6202E+06    -1.00693E+06     4.22645E+06     1.49254E+06
            1201     104.944E-03     7.32672E-03     104.688E-03     620.521E-03    -309.331E-03    -311.415E-03    -306.345E-03     617.535E-03    -311.415E-03     105.018E-03     675.758E-03     15.2950E+06     6.36869E+06     525.542E+03    -10.9549E+06    -10.7290E+06     299.651E+03     6.36869E+06     1.37227E+06
            1202     105.157E-03     8.05383E-03     104.848E-03     618.227E-03    -309.611E-03    -311.101E-03    -305.963E-03     614.579E-03    -311.101E-03     115.984E-03     681.293E-03     16.4580E+06     9.52377E+06     3.46326E+06    -9.07368E+06    -8.83032E+06     3.21989E+06     9.52377E+06     1.20333E+06
            1203     105.372E-03     8.79033E-03     105.004E-03     620.073E-03    -310.068E-03    -311.633E-03    -306.214E-03     615.692E-03    -311.106E-03     127.253E-03     689.492E-03     15.9799E+06     10.3661E+06     5.77096E+06    -7.37236E+06    -7.22482E+06     5.62342E+06     10.3661E+06     661.724E+03
            1204     105.635E-03     9.52054E-03     105.205E-03     622.096E-03    -310.239E-03    -312.118E-03    -307.031E-03     617.009E-03    -310.239E-03     137.424E-03     698.205E-03     15.8014E+06     12.0551E+06     7.63072E+06    -5.43551E+06    -5.41024E+06     7.60545E+06     12.0551E+06     369.405E+03
            1205     105.913E-03     10.2501E-03     105.416E-03     624.067E-03    -310.815E-03    -314.735E-03    -308.378E-03     617.710E-03    -310.815E-03     153.525E-03     713.871E-03     15.9234E+06     13.1797E+06     7.90644E+06    -4.67245E+06    -4.62449E+06     7.85848E+06     13.1797E+06     553.586E+03
            1206     106.229E-03     10.9998E-03     105.658E-03     626.259E-03    -311.091E-03    -315.795E-03    -308.963E-03     619.427E-03    -311.091E-03     159.754E-03     724.204E-03     16.5450E+06     15.3166E+06     8.15132E+06    -3.56538E+06    -3.42788E+06     8.01382E+06     15.3166E+06     382.130E+03
            1207     106.548E-03     11.7300E-03     105.900E-03     634.576E-03    -311.511E-03    -322.857E-03    -312.283E-03     624.002E-03    -311.511E-03     196.124E-03     755.725E-03     15.7313E+06     15.9717E+06     8.26446E+06    -2.12532E+06    -1.89415E+06     8.03329E+06     15.9717E+06     168.430E+03
            1208     107.038E-03     12.4618E-03     106.310E-03     635.835E-03    -311.046E-03    -323.881E-03    -313.900E-03     625.854E-03    -311.046E-03     188.754E-03     748.647E-03     15.8732E+06     16.7171E+06     7.65438E+06    -1.46786E+06    -1.30112E+06     7.48764E+06     16.7171E+06     18.5727E+03
            1209     106.308E-03     733.634E-06     106.306E-03     625.905E-03    -312.068E-03    -313.791E-03    -312.305E-03     625.902E-03    -313.551E-03     2.42554E-03     627.761E-03     5.21107E+06    -23.5245E+06    -26.4203E+06    -29.3416E+06    -27.9961E+06    -25.6406E+06    -25.6499E+06     492.060E+03
            1210     106.299E-03     1.46340E-03     106.289E-03     626.836E-03    -313.150E-03    -313.734E-03    -313.374E-03     626.819E-03    -313.494E-03     7.24115E-03     632.018E-03     4.05841E+06    -20.9038E+06    -22.7116E+06    -25.4446E+06    -25.1528E+06    -21.1956E+06    -22.7116E+06     562.562E+03
            1211     106.298E-03     2.19340E-03     106.275E-03     625.490E-03    -311.957E-03    -313.931E-03    -311.901E-03     625.435E-03    -313.931E-03     13.6959E-03     635.864E-03     5.59687E+06    -19.0598E+06    -20.3777E+06    -25.1353E+06    -24.6680E+06    -19.6133E+06    -20.2915E+06     718.814E+03
            1212     106.304E-03     2.92637E-03     106.264E-03     622.868E-03    -310.673E-03    -313.902E-03    -310.514E-03     622.709E-03    -313.902E-03     23.5523E-03     639.496E-03     8.35099E+06    -14.6195E+06    -16.2444E+06    -23.6077E+06    -23.1350E+06    -16.3417E+06    -14.9950E+06     1.08554E+06
            1213     106.326E-03     3.65937E-03     106.263E-03     621.882E-03    -310.329E-03    -313.367E-03    -309.963E-03     621.515E-03    -313.367E-03     36.3110E-03     645.462E-03     10.3988E+06    -9.78340E+06    -12.3687E+06    -21.1964E+06    -20.9698E+06    -12.5953E+06    -9.78340E+06     1.01590E+06
            1214     106.346E-03     4.39217E-03     106.255E-03     621.248E-03    -310.214E-03    -312.163E-03    -309.505E-03     620.540E-03    -312.163E-03     50.7498E-03     652.944E-03     11.8516E+06    -6.15732E+06    -9.59947E+06    -19.2565E+06    -19.0095E+06    -9.84655E+06    -6.15732E+06     1.10920E+06
            1215     106.400E-03     5.12566E-03     106.277E-03     621.128E-03    -309.946E-03    -311.469E-03    -308.770E-03     619.951E-03    -311.469E-03     65.7294E-03     659.389E-03     12.8269E+06    -2.31155E+06    -7.00445E+06    -16.7299E+06    -16.5560E+06    -7.17832E+06    -2.31155E+06     1.23134E+06
            1216     106.511E-03     5.86169E-03     106.350E-03     619.888E-03    -309.089E-03    -311.044E-03    -307.381E-03     618.180E-03    -311.044E-03     79.3166E-03     666.095E-03     14.9713E+06     2.68282E+06    -3.64513E+06    -14.3507E+06    -14.1581E+06    -3.83770E+06     2.68282E+06     1.38476E+06
            1217     106.684E-03     6.58902E-03     106.480E-03     620.261E-03    -308.998E-03    -311.568E-03    -306.687E-03     617.950E-03    -311.568E-03     92.3322E-03     672.419E-03     15.3193E+06     5.21315E+06    -1.39162E+06    -12.2430E+06    -11.9710E+06    -1.66360E+06     5.21315E+06     1.63367E+06
            1218     106.801E-03     7.32755E-03     106.549E-03     620.520E-03    -309.466E-03    -311.259E-03    -306.448E-03     617.503E-03    -311.259E-03     105.545E-03     675.577E-03     16.1324E+06     8.18479E+06     1.13008E+06    -10.2697E+06    -9.97312E+06     833.503E+03     8.18479E+06     1.74035E+06
            1219     107.015E-03     8.05855E-03     106.711E-03     618.504E-03    -310.141E-03    -310.986E-03    -306.453E-03     614.816E-03    -310.986E-03     116.689E-03     681.486E-03     17.5296E+06     10.9241E+06     3.87430E+06    -9.01215E+06    -8.86753E+06     3.72968E+06     10.9241E+06     1.01803E+06
            1220     107.223E-03     8.79002E-03     106.862E-03     620.270E-03    -310.469E-03    -311.552E-03    -306.483E-03     615.882E-03    -311.150E-03     127.390E-03     689.687E-03     17.6018E+06     12.9114E+06     6.73501E+06    -6.94618E+06    -6.88595E+06     6.67479E+06     12.9114E+06     702.028E+03
            1221     107.483E-03     9.51772E-03     107.061E-03     622.064E-03    -310.393E-03    -311.971E-03    -306.926E-03     617.019E-03    -310.393E-03     136.871E-03     698.153E-03     17.4479E+06     14.3331E+06     7.31818E+06    -5.48548E+06    -5.37471E+06     7.20741E+06     14.3331E+06     1.06913E+06
            1222     107.750E-03     10.2491E-03     107.262E-03     624.026E-03    -310.939E-03    -314.742E-03    -308.398E-03     617.682E-03    -310.939E-03     153.309E-03     713.782E-03     16.5429E+06     14.2234E+06     7.32468E+06    -4.60870E+06    -4.50467E+06     7.22065E+06     14.2234E+06     981.039E+03
            1223     108.072E-03     10.9976E-03     107.511E-03     626.080E-03    -311.186E-03    -315.830E-03    -308.978E-03     619.227E-03    -311.186E-03     159.968E-03     724.328E-03     15.9064E+06     14.6601E+06     8.45475E+06    -3.38115E+06    -3.27811E+06     8.35172E+06     14.6601E+06     424.120E+03
            1224     108.386E-03     11.7288E-03     107.750E-03     634.323E-03    -311.502E-03    -322.791E-03    -312.146E-03     623.679E-03    -311.502E-03     196.592E-03     755.717E-03     15.8409E+06     15.7059E+06     8.36340E+06    -2.41790E+06    -2.28518E+06     8.23068E+06     15.7059E+06     284.004E+03
            1225     108.871E-03     12.4612E-03     108.156E-03     635.355E-03    -310.997E-03    -323.568E-03    -313.459E-03     625.245E-03    -310.997E-03     189.954E-03     747.891E-03     17.3321E+06     18.8908E+06     8.35063E+06    -990.972E+03    -881.996E+03     8.24166E+06     18.8908E+06     295.540E+03
            1226     108.177E-03     731.350E-06     108.174E-03     626.305E-03    -312.291E-03    -314.034E-03    -312.594E-03     626.300E-03    -313.725E-03     3.65459E-03     628.107E-03     4.58852E+06    -25.6447E+06    -28.7531E+06    -30.6944E+06    -28.8983E+06    -27.4229E+06    -28.7711E+06    -83.7574E+03
            1227     108.171E-03     1.46451E-03     108.161E-03     625.999E-03    -312.508E-03    -313.498E-03    -312.580E-03     625.982E-03    -313.409E-03     7.56591E-03     631.054E-03     4.99280E+06    -23.7796E+06    -26.4595E+06    -29.3102E+06    -28.6012E+06    -24.4885E+06    -26.4595E+06     451.120E+03
            1228     108.162E-03     2.19716E-03     108.140E-03     625.538E-03    -312.058E-03    -313.726E-03    -312.004E-03     625.484E-03    -313.726E-03     13.4739E-03     635.836E-03     6.53194E+06    -19.4775E+06    -20.8646E+06    -26.5607E+06    -26.2048E+06    -20.1178E+06    -20.5801E+06     1.04484E+06
            1229     108.172E-03     2.92709E-03     108.132E-03     623.582E-03    -311.503E-03    -313.879E-03    -311.346E-03     623.425E-03    -313.879E-03     23.3687E-03     640.320E-03     8.46761E+06    -15.2980E+06    -16.6546E+06    -24.3516E+06    -24.0596E+06    -16.5711E+06    -15.6735E+06     933.253E+03
            1230     108.187E-03     3.65720E-03     108.125E-03     621.999E-03    -310.562E-03    -313.458E-03    -310.200E-03     621.637E-03    -313.458E-03     36.0988E-03     645.674E-03     10.7892E+06    -11.1725E+06    -13.3113E+06    -22.8593E+06    -22.6523E+06    -13.5183E+06    -11.1725E+06     1.13429E+06
            1231     108.202E-03     4.39000E-03     108.113E-03     621.303E-03    -310.018E-03    -312.209E-03    -309.317E-03     620.601E-03    -312.209E-03     50.4865E-03     652.696E-03     13.3994E+06    -5.33515E+06    -9.52066E+06    -20.2625E+06    -20.0324E+06    -9.75082E+06    -5.33515E+06     1.26881E+06
            1232     108.258E-03     5.12512E-03     108.137E-03     621.284E-03    -309.823E-03    -311.502E-03    -308.655E-03     620.117E-03    -311.502E-03     65.4845E-03     659.269E-03     14.5454E+06    -1.15896E+06    -7.51648E+06    -17.7408E+06    -17.5769E+06    -7.68036E+06    -1.15896E+06     1.23734E+06
            1233     108.364E-03     5.85893E-03     108.205E-03     619.841E-03    -308.964E-03    -311.263E-03    -307.252E-03     618.129E-03    -311.263E-03     79.3827E-03     666.035E-03     16.0158E+06     2.89417E+06    -5.10833E+06    -15.5233E+06    -15.3587E+06    -5.27289E+06     2.89417E+06     1.26992E+06
            1234     108.537E-03     6.58956E-03     108.337E-03     620.135E-03    -308.848E-03    -311.681E-03    -306.530E-03     617.816E-03    -311.681E-03     92.4896E-03     672.232E-03     16.1834E+06     5.17241E+06    -2.24593E+06    -13.3504E+06    -13.1788E+06    -2.41747E+06     5.17241E+06     1.22429E+06
            1235     108.656E-03     7.32843E-03     108.409E-03     620.566E-03    -309.497E-03    -311.196E-03    -306.549E-03     617.618E-03    -311.196E-03     104.403E-03     675.591E-03     17.0505E+06     7.61430E+06     463.509E+03    -11.8364E+06    -11.7106E+06     337.711E+03     7.61430E+06     1.05565E+06
            1236     108.863E-03     8.05512E-03     108.565E-03     618.473E-03    -309.962E-03    -311.115E-03    -306.376E-03     614.887E-03    -311.115E-03     115.050E-03     681.517E-03     18.6509E+06     12.2063E+06     4.04726E+06    -9.09779E+06    -9.03061E+06     3.98009E+06     12.2063E+06     930.481E+03
            1237     109.074E-03     8.78844E-03     108.720E-03     619.964E-03    -310.217E-03    -311.610E-03    -306.166E-03     615.584E-03    -311.281E-03     127.190E-03     689.507E-03     18.7977E+06     14.0688E+06     6.52803E+06    -7.28326E+06    -7.15532E+06     6.40010E+06     14.0688E+06     1.28653E+06
            1238     109.323E-03     9.51953E-03     108.908E-03     622.004E-03    -310.431E-03    -312.019E-03    -306.912E-03     616.897E-03    -310.431E-03     137.711E-03     698.047E-03     18.1159E+06     14.2024E+06     7.38833E+06    -6.25196E+06    -6.09498E+06     7.23135E+06     14.2024E+06     1.30513E+06
            1239     109.587E-03     10.2495E-03     109.106E-03     624.044E-03    -311.039E-03    -314.620E-03    -308.165E-03     617.588E-03    -311.039E-03     154.616E-03     713.837E-03     16.5382E+06     13.7896E+06     7.42852E+06    -4.89855E+06    -4.80311E+06     7.33307E+06     13.7896E+06     890.939E+03
            1240     109.907E-03     10.9982E-03     109.356E-03     625.714E-03    -311.231E-03    -315.378E-03    -308.326E-03     618.662E-03    -311.231E-03     162.215E-03     723.910E-03     16.6806E+06     15.3002E+06     8.37882E+06    -3.66113E+06    -3.59738E+06     8.31506E+06     15.3002E+06     766.826E+03
            1241     110.222E-03     11.7317E-03     109.596E-03     634.111E-03    -311.341E-03    -322.838E-03    -312.014E-03     623.287E-03    -311.341E-03     198.524E-03     755.422E-03     17.3554E+06     17.2631E+06     8.95155E+06    -2.61551E+06    -2.53335E+06     8.86939E+06     17.2631E+06     624.041E+03
            1242     110.712E-03     12.4646E-03     110.008E-03     635.767E-03    -310.832E-03    -324.144E-03    -314.041E-03     625.664E-03    -310.832E-03     189.658E-03     748.483E-03     17.8498E+06     19.3202E+06     9.09865E+06    -1.23755E+06    -1.14882E+06     9.00992E+06     19.3202E+06     263.257E+03
            1243     110.045E-03     732.169E-06     110.043E-03     627.226E-03    -312.869E-03    -314.234E-03    -313.688E-03     627.222E-03    -313.412E-03     2.89951E-03     629.051E-03     5.14801E+06    -27.4632E+06    -29.7093E+06    -33.0698E+06    -31.0503E+06    -29.1158E+06    -30.0763E+06     54.6264E+03
            1244     110.035E-03     1.46404E-03     110.025E-03     626.355E-03    -312.604E-03    -313.859E-03    -312.592E-03     626.343E-03    -313.859E-03     6.08512E-03     631.469E-03     5.37671E+06    -24.7064E+06    -26.2906E+06    -30.4145E+06    -29.9290E+06    -25.2228E+06    -26.2597E+06     77.7463E+03
            1245     110.028E-03     2.19464E-03     110.006E-03     625.775E-03    -312.119E-03    -314.019E-03    -312.075E-03     625.732E-03    -314.019E-03     12.1656E-03     636.049E-03     6.60087E+06    -21.2317E+06    -21.9358E+06    -28.1490E+06    -27.7947E+06    -21.9014E+06    -21.6203E+06     730.564E+03
            1246     110.034E-03     2.92551E-03     109.995E-03     623.668E-03    -311.455E-03    -314.086E-03    -311.310E-03     623.523E-03    -314.086E-03     22.3339E-03     640.441E-03     9.62012E+06    -15.9073E+06    -17.5769E+06    -26.2306E+06    -25.7118E+06    -18.0058E+06    -15.9972E+06     1.31042E+06
            1247     110.044E-03     3.65780E-03     109.983E-03     622.021E-03    -310.430E-03    -313.569E-03    -310.067E-03     621.658E-03    -313.569E-03     36.0592E-03     645.718E-03     11.4806E+06    -10.6121E+06    -13.8117E+06    -23.3296E+06    -22.9435E+06    -14.1977E+06    -10.6121E+06     1.55934E+06
            1248     110.054E-03     4.39042E-03     109.967E-03     620.986E-03    -309.559E-03    -312.229E-03    -308.830E-03     620.257E-03    -312.229E-03     51.4135E-03     652.389E-03     12.5731E+06    -6.86384E+06    -10.5808E+06    -20.8598E+06    -20.5941E+06    -10.8464E+06    -6.86384E+06     1.38788E+06
            1249     110.110E-03     5.12487E-03     109.991E-03     620.599E-03    -309.156E-03    -311.465E-03    -307.946E-03     619.389E-03    -311.465E-03     66.6502E-03     658.653E-03     14.3951E+06    -3.07272E+06    -8.13743E+06    -19.2328E+06    -18.9848E+06    -8.38548E+06    -3.07272E+06     1.63214E+06
            1250     110.219E-03     5.86130E-03     110.063E-03     620.185E-03    -309.203E-03    -311.191E-03    -307.458E-03     618.440E-03    -311.191E-03     80.2121E-03     666.077E-03     17.1716E+06     2.58112E+06    -5.03876E+06    -17.0292E+06    -16.8048E+06    -5.26315E+06     2.58112E+06     1.59338E+06
            1251     110.391E-03     6.58905E-03     110.195E-03     620.929E-03    -309.383E-03    -311.556E-03    -307.049E-03     618.595E-03    -311.556E-03     92.8791E-03     672.704E-03     18.6046E+06     6.47171E+06    -2.13761E+06    -14.8474E+06    -14.7277E+06    -2.25726E+06     6.47171E+06     1.14212E+06
            1252     110.512E-03     7.32486E-03     110.269E-03     620.243E-03    -309.055E-03    -311.186E-03    -306.087E-03     617.275E-03    -311.186E-03     104.700E-03     675.379E-03     19.5109E+06     10.1196E+06     651.207E+03    -12.2320E+06    -12.1737E+06     592.956E+03     10.1196E+06     840.615E+03
            1253     110.716E-03     8.05553E-03     110.423E-03     617.566E-03    -308.993E-03    -311.136E-03    -305.307E-03     613.880E-03    -311.136E-03     116.475E-03     680.747E-03     20.3555E+06     13.4366E+06     3.13368E+06    -9.95832E+06    -9.86813E+06     3.04350E+06     13.4366E+06     1.05513E+06
            1254     110.926E-03     8.78939E-03     110.577E-03     619.454E-03    -309.703E-03    -311.551E-03    -305.520E-03     614.955E-03    -311.235E-03     128.877E-03     689.098E-03     19.4846E+06     14.2067E+06     5.34375E+06    -8.10426E+06    -7.98538E+06     5.22487E+06     14.2067E+06     1.15578E+06
            1255     111.169E-03     9.51816E-03     110.761E-03     621.330E-03    -310.246E-03    -311.570E-03    -306.371E-03     616.131E-03    -310.246E-03     138.835E-03     697.371E-03     18.4426E+06     14.6761E+06     7.91246E+06    -6.15584E+06    -6.02907E+06     7.78568E+06     14.6761E+06     1.11666E+06
            1256     111.429E-03     10.2510E-03     110.956E-03     623.447E-03    -310.929E-03    -314.264E-03    -307.787E-03     616.970E-03    -310.929E-03     154.874E-03     713.348E-03     16.8890E+06     14.1786E+06     8.37947E+06    -4.81727E+06    -4.63532E+06     8.19752E+06     14.1786E+06     1.35148E+06
            1257     111.752E-03     11.0010E-03     111.209E-03     625.824E-03    -311.162E-03    -315.451E-03    -308.493E-03     618.866E-03    -311.162E-03     161.126E-03     723.901E-03     17.7211E+06     16.0246E+06     8.47553E+06    -4.16806E+06    -4.01708E+06     8.32455E+06     16.0246E+06     1.19924E+06
            1258     112.075E-03     11.7341E-03     111.459E-03     633.832E-03    -311.172E-03    -322.473E-03    -311.905E-03     623.264E-03    -311.172E-03     196.156E-03     754.799E-03     19.1693E+06     19.1296E+06     9.64437E+06    -2.89944E+06    -2.77686E+06     9.52179E+06     19.1296E+06     413.858E+03
            1259     112.562E-03     12.4646E-03     111.870E-03     636.177E-03    -310.818E-03    -324.282E-03    -314.409E-03     626.304E-03    -310.818E-03     187.649E-03     748.884E-03     18.7568E+06     20.0900E+06     9.65673E+06    -1.51933E+06    -1.39655E+06     9.53396E+06     20.0900E+06     3.95327E+03
            1260     111.918E-03     731.094E-06     111.916E-03     628.675E-03    -313.284E-03    -315.235E-03    -313.884E-03     628.673E-03    -314.632E-03     2.01018E-03     630.510E-03     5.28664E+06    -27.7394E+06    -30.1357E+06    -33.6091E+06    -31.0493E+06    -30.0302E+06    -30.4047E+06     224.242E+03
            1261     111.907E-03     1.46188E-03     111.897E-03     627.239E-03    -312.944E-03    -314.557E-03    -312.928E-03     627.223E-03    -314.557E-03     6.76131E-03     632.396E-03     5.17728E+06    -25.2433E+06    -25.9438E+06    -30.7112E+06    -29.3489E+06    -25.8339E+06    -26.7155E+06      956.21E+03
            1262     111.899E-03     2.19380E-03     111.877E-03     625.444E-03    -311.617E-03    -314.361E-03    -311.559E-03     625.385E-03    -314.361E-03     14.2699E-03     635.821E-03     6.48410E+06    -23.3193E+06    -23.9234E+06    -30.0798E+06    -29.6144E+06    -24.1334E+06    -23.5747E+06     885.838E+03
            1263     111.897E-03     2.92514E-03     111.859E-03     623.132E-03    -310.782E-03    -314.123E-03    -310.613E-03     622.963E-03    -314.123E-03     24.2736E-03     639.907E-03     8.61584E+06    -18.3842E+06    -19.7240E+06    -27.5683E+06    -27.0728E+06    -20.1296E+06    -18.4741E+06     877.047E+03
            1264     111.902E-03     3.65612E-03     111.843E-03     621.986E-03    -310.315E-03    -313.520E-03    -309.932E-03     621.604E-03    -313.520E-03     37.0873E-03     645.676E-03     10.9330E+06    -12.2416E+06    -15.1821E+06    -24.3035E+06    -23.8882E+06    -15.5974E+06    -12.2416E+06     1.53968E+06
            1265     111.905E-03     4.39028E-03     111.819E-03     621.039E-03    -309.622E-03    -312.184E-03    -308.907E-03     620.323E-03    -312.184E-03     51.0568E-03     652.622E-03     13.1525E+06    -7.57121E+06    -11.8389E+06    -22.3044E+06    -21.9387E+06    -12.2046E+06    -7.57121E+06     1.88395E+06
            1266     111.961E-03     5.12662E-03     111.844E-03     620.754E-03    -309.387E-03    -311.440E-03    -308.230E-03     619.598E-03    -311.440E-03     65.1761E-03     658.827E-03     14.3012E+06    -4.01965E+06    -8.62073E+06    -20.0423E+06    -19.7712E+06    -8.89184E+06    -4.01965E+06     1.69660E+06
            1267     112.072E-03     5.86067E-03     111.918E-03     620.317E-03    -309.460E-03    -311.207E-03    -307.749E-03     618.606E-03    -311.207E-03     79.3448E-03     666.112E-03     16.7128E+06     1.31098E+06    -5.02759E+06    -17.6152E+06    -17.3947E+06    -5.24806E+06     1.31098E+06     1.60447E+06
            1268     112.248E-03     6.58802E-03     112.054E-03     619.753E-03    -308.464E-03    -311.492E-03    -306.090E-03     617.379E-03    -311.492E-03     93.5033E-03     671.528E-03     19.9354E+06     7.56505E+06    -1.60759E+06    -15.2803E+06    -15.1199E+06    -1.76798E+06     7.56505E+06     1.43026E+06
            1269     112.363E-03     7.32687E-03     112.123E-03     618.924E-03    -308.056E-03    -311.103E-03    -304.998E-03     615.865E-03    -311.103E-03     106.150E-03     674.034E-03     21.1582E+06     11.2297E+06     620.168E+03    -13.0793E+06    -12.9825E+06     523.437E+03     11.2297E+06     1.13554E+06
            1270     112.564E-03     8.05682E-03     112.276E-03     617.564E-03    -309.167E-03    -311.039E-03    -305.405E-03     613.801E-03    -311.039E-03     117.721E-03     680.643E-03     21.1553E+06      13.293E+06     2.88047E+06    -11.0005E+06    -10.9194E+06     2.79934E+06      13.293E+06     950.736E+03
            1271     112.778E-03     8.79046E-03     112.435E-03     619.481E-03    -309.884E-03    -311.402E-03    -305.698E-03     614.968E-03    -311.075E-03     129.125E-03     689.139E-03     20.8593E+06     15.0284E+06     5.32831E+06    -8.90680E+06    -8.82493E+06     5.24644E+06     15.0284E+06     911.841E+03
            1272     113.020E-03     9.52225E-03     112.618E-03     620.983E-03    -310.146E-03    -311.614E-03    -306.496E-03     615.865E-03    -310.146E-03     137.741E-03     697.139E-03     20.4405E+06     16.0365E+06     6.90437E+06    -7.36762E+06    -7.25536E+06     6.79211E+06     16.0365E+06     1.12515E+06
            1273     113.280E-03     10.2534E-03     112.815E-03     623.882E-03    -310.858E-03    -315.009E-03    -308.671E-03     617.544E-03    -310.858E-03     153.286E-03     713.421E-03     18.3602E+06     15.1316E+06     7.62277E+06    -5.78307E+06    -5.62122E+06     7.46093E+06     15.1316E+06     1.10999E+06
            1274     113.601E-03     10.9992E-03     113.068E-03     626.882E-03    -311.179E-03    -316.298E-03    -309.507E-03     620.091E-03    -311.179E-03     159.355E-03     724.579E-03     17.9311E+06     16.5561E+06     8.89624E+06    -3.90382E+06    -3.73264E+06     8.72506E+06     16.5561E+06     1.17867E+06
            1275     113.921E-03     11.7292E-03     113.316E-03     633.639E-03    -311.189E-03    -322.143E-03    -311.687E-03     623.182E-03    -311.189E-03     194.797E-03     754.704E-03     20.4590E+06     21.1027E+06     11.4183E+06    -2.36034E+06    -2.18547E+06     11.2434E+06     21.1027E+06     817.861E+03
            1276     114.405E-03     12.4633E-03     113.724E-03     635.583E-03    -310.888E-03    -323.796E-03    -313.897E-03     625.684E-03    -310.888E-03     187.944E-03     748.361E-03     20.2281E+06     21.8898E+06     10.7321E+06    -1.33189E+06    -1.22088E+06     10.6211E+06     21.8898E+06     233.915E+03
            1277     113.788E-03     730.935E-06     113.786E-03     628.690E-03    -313.026E-03    -315.570E-03    -314.290E-03     628.686E-03    -314.302E-03     3.89982E-03     630.498E-03     6.72344E+06    -29.4464E+06    -32.6148E+06    -36.6201E+06    -33.4445E+06    -33.0351E+06    -32.2018E+06     1.30877E+06
            1278     113.774E-03     1.46302E-03     113.765E-03     627.042E-03    -312.769E-03    -314.523E-03    -312.753E-03     627.026E-03    -314.523E-03     7.17752E-03     632.182E-03     6.24221E+06    -27.9704E+06    -28.7145E+06    -34.5254E+06    -32.6427E+06    -29.2171E+06    -29.3505E+06     1.88755E+06
            1279     113.759E-03     2.19503E-03     113.738E-03     625.057E-03    -311.272E-03    -314.210E-03    -311.211E-03     624.997E-03    -314.210E-03     14.3063E-03     635.472E-03     6.69703E+06    -23.5538E+06    -24.1828E+06    -30.5390E+06    -29.9830E+06    -24.5205E+06    -23.7722E+06     1.78541E+06
            1280     113.755E-03     2.92716E-03     113.717E-03     622.956E-03    -310.739E-03    -313.910E-03    -310.574E-03     622.790E-03    -313.910E-03     24.1368E-03     639.820E-03     9.18302E+06    -18.9149E+06    -20.5171E+06    -28.7512E+06    -28.3977E+06    -20.8706E+06    -18.9149E+06     1.23278E+06
            1281     113.762E-03     3.65945E-03     113.703E-03     622.083E-03    -310.582E-03    -313.393E-03    -310.208E-03     621.709E-03    -313.393E-03     36.5597E-03     645.798E-03     10.9765E+06    -14.6460E+06    -17.4101E+06    -26.7162E+06    -26.5623E+06    -17.5640E+06    -14.6460E+06     932.586E+03
            1282     113.762E-03     4.39126E-03     113.677E-03     621.360E-03    -310.395E-03    -312.160E-03    -309.685E-03     620.650E-03    -312.160E-03     50.8733E-03     653.178E-03     12.8938E+06    -9.30401E+06    -13.1954E+06    -23.6795E+06    -23.4386E+06    -13.4362E+06    -9.30401E+06     1.54230E+06
            1283     113.819E-03     5.12395E-03     113.704E-03     621.114E-03    -310.090E-03    -311.534E-03    -308.913E-03     619.937E-03    -311.534E-03     65.7059E-03     659.504E-03     15.0442E+06    -3.96486E+06    -9.10865E+06    -20.8952E+06    -20.6569E+06    -9.34693E+06    -3.96486E+06     1.61340E+06
            1284     113.935E-03     5.85769E-03     113.784E-03     619.672E-03    -308.775E-03    -311.397E-03    -307.016E-03     617.913E-03    -311.397E-03     80.3694E-03     665.826E-03     17.0905E+06     376.475E+03    -6.02441E+06    -18.9855E+06    -18.7817E+06    -6.22829E+06     376.475E+03     1.58145E+06
            1285     114.104E-03     6.58914E-03     113.914E-03     618.150E-03    -307.145E-03    -311.587E-03    -304.746E-03     615.752E-03    -311.587E-03     93.8803E-03     670.204E-03     19.6534E+06      6.0923E+06    -2.04917E+06    -16.3199E+06    -16.0895E+06    -2.27961E+06      6.0923E+06     1.76142E+06
            1286     114.215E-03     7.32927E-03     113.980E-03     618.370E-03    -307.838E-03    -311.037E-03    -304.776E-03     615.307E-03    -311.037E-03     106.179E-03     673.461E-03     21.3802E+06     10.3489E+06     1.11948E+06    -14.0946E+06    -13.8814E+06     906.267E+03     10.3489E+06     1.72385E+06
            1287     114.421E-03     8.05844E-03     114.137E-03     618.305E-03    -309.906E-03    -310.923E-03    -306.176E-03     614.575E-03    -310.923E-03     117.329E-03     681.048E-03     22.2562E+06     13.0829E+06     3.78676E+06    -12.3017E+06    -12.1719E+06     3.65690E+06     13.0829E+06     1.28416E+06
            1288     114.631E-03     8.79114E-03     114.293E-03     620.130E-03    -310.323E-03    -311.590E-03    -306.535E-03     615.745E-03    -310.993E-03     127.399E-03     689.207E-03     22.7825E+06     15.5380E+06     5.53383E+06    -10.5095E+06    -10.4260E+06     5.45039E+06     15.5380E+06     782.883E+03
            1289     114.872E-03     9.52081E-03     114.477E-03     621.834E-03    -310.236E-03    -312.308E-03    -307.355E-03     616.881E-03    -310.236E-03     135.635E-03     697.903E-03     21.2385E+06     16.2183E+06     6.51408E+06    -8.13041E+06    -8.06083E+06     6.44450E+06     16.2183E+06     715.790E+03
            1290     115.132E-03     10.2501E-03     114.675E-03     624.434E-03    -310.908E-03    -315.262E-03    -308.947E-03     618.118E-03    -310.908E-03     152.952E-03     714.074E-03     19.5613E+06     16.4992E+06     7.98961E+06    -5.85910E+06    -5.82735E+06     7.95786E+06     16.4992E+06     480.930E+03
            1291     115.459E-03     10.9971E-03     114.934E-03     626.979E-03    -311.222E-03    -315.830E-03    -308.933E-03     620.082E-03    -311.222E-03     160.558E-03     724.360E-03     19.6317E+06     18.0212E+06     8.93836E+06    -4.48237E+06    -4.40783E+06     8.86382E+06     18.0212E+06     707.580E+03
            1292     115.764E-03     11.7307E-03     115.168E-03     634.404E-03    -311.361E-03    -322.283E-03    -311.683E-03     623.804E-03    -311.361E-03     196.289E-03     754.942E-03     20.9655E+06     21.0363E+06     11.1190E+06    -3.02870E+06    -2.87791E+06     10.9682E+06     21.0363E+06     823.096E+03
            1293     116.245E-03     12.4625E-03     115.575E-03     635.492E-03    -310.894E-03    -323.917E-03    -313.912E-03     625.487E-03    -310.894E-03     188.948E-03     748.402E-03     21.3632E+06     23.2679E+06     11.2761E+06    -1.24035E+06    -1.13272E+06     11.1684E+06     23.2679E+06     363.300E+03
            1294     115.657E-03     732.548E-06     115.655E-03     627.532E-03    -312.492E-03    -314.891E-03    -314.719E-03     627.527E-03    -312.659E-03     2.69386E-03     629.238E-03     6.61400E+06    -32.2991E+06    -35.6128E+06    -39.3877E+06    -35.3438E+06    -35.6568E+06     -36.299E+06     342.673E+03
            1295     115.639E-03     1.46340E-03     115.630E-03     627.064E-03    -313.125E-03    -314.129E-03    -313.138E-03     627.053E-03    -314.105E-03     6.37227E-03     632.187E-03     6.56799E+06    -29.7596E+06    -31.0326E+06    -36.6833E+06    -34.6658E+06    -31.1874E+06    -31.6223E+06     752.640E+03
            1296     115.615E-03     2.19524E-03     115.595E-03     625.596E-03    -311.830E-03    -314.122E-03    -311.779E-03     625.546E-03    -314.122E-03     12.8316E-03     635.958E-03     5.92294E+06    -25.8904E+06    -26.3387E+06    -32.0168E+06    -31.8615E+06    -26.4411E+06    -25.9434E+06     649.663E+03
            1297     115.615E-03     2.92622E-03     115.578E-03     623.172E-03    -311.089E-03    -313.920E-03    -310.944E-03     623.026E-03    -313.920E-03     22.7322E-03     640.041E-03     9.42464E+06    -19.4324E+06    -21.4213E+06    -29.6575E+06    -29.2505E+06    -21.8284E+06    -19.4324E+06     1.50561E+06
            1298     115.617E-03     3.65631E-03     115.559E-03     621.846E-03    -310.577E-03    -313.397E-03    -310.224E-03     621.493E-03    -313.397E-03     35.4091E-03     645.696E-03     12.7600E+06    -13.5218E+06    -17.6390E+06    -27.8014E+06    -27.3402E+06    -18.1003E+06    -13.5218E+06     1.89130E+06
            1299     115.618E-03     4.39032E-03     115.534E-03     620.950E-03    -309.560E-03    -312.099E-03    -308.836E-03     620.226E-03    -312.099E-03     51.2066E-03     652.378E-03     14.3087E+06    -9.37491E+06    -14.3409E+06    -25.4777E+06    -25.1921E+06    -14.6265E+06    -9.37491E+06     1.72138E+06
            1300     115.677E-03     5.12556E-03     115.564E-03     619.849E-03    -308.577E-03    -311.270E-03    -307.323E-03     618.595E-03    -311.270E-03     67.6938E-03     658.068E-03     16.3101E+06    -4.48935E+06    -10.2554E+06    -22.8871E+06    -22.5675E+06    -10.5750E+06    -4.48935E+06     1.95617E+06
            1301     115.785E-03     5.86098E-03     115.636E-03     618.657E-03    -307.990E-03    -311.069E-03    -306.150E-03     616.818E-03    -311.069E-03     82.2455E-03     665.071E-03     18.5607E+06     1.20804E+06    -6.08017E+06    -19.8863E+06    -19.6691E+06    -6.29731E+06     1.20804E+06     1.65220E+06
            1302     115.951E-03     6.59131E-03     115.763E-03     619.195E-03    -308.137E-03    -311.473E-03    -305.734E-03     616.792E-03    -311.473E-03     94.1364E-03     671.376E-03     19.7081E+06     5.19843E+06    -3.00045E+06    -17.2849E+06    -17.1399E+06    -3.14540E+06     5.19843E+06     1.23218E+06
            1303     116.067E-03     7.32948E-03     115.835E-03     619.763E-03    -308.938E-03    -311.034E-03    -305.965E-03     616.785E-03    -311.029E-03     104.872E-03     674.768E-03     21.6395E+06     10.2338E+06     765.218E+03    -14.5220E+06    -14.3266E+06     569.801E+03     10.2338E+06     1.51661E+06
            1304     116.274E-03     8.05881E-03     115.994E-03     618.667E-03    -309.796E-03    -310.994E-03    -306.214E-03     615.080E-03    -310.988E-03     115.075E-03     681.017E-03     23.4169E+06     14.3904E+06     4.45508E+06    -12.3394E+06    -12.1162E+06     4.23182E+06     14.3904E+06     1.89479E+06
            1305     116.484E-03     8.78992E-03     116.152E-03     620.096E-03    -310.123E-03    -311.703E-03    -306.402E-03     615.777E-03    -311.105E-03     126.364E-03     689.057E-03     23.2958E+06     16.2972E+06     6.48441E+06    -10.2848E+06    -10.0494E+06     6.24908E+06     16.2972E+06     1.56816E+06
            1306     116.720E-03     9.51972E-03     116.331E-03     622.229E-03    -310.271E-03    -312.422E-03    -307.331E-03     617.139E-03    -310.271E-03     137.490E-03     698.269E-03     21.9389E+06     16.8204E+06     6.98760E+06    -8.30700E+06    -8.14613E+06     6.82673E+06     16.8204E+06     551.176E+03
            1307     116.982E-03     10.2503E-03     116.532E-03     624.249E-03    -310.806E-03    -314.969E-03    -308.492E-03     617.771E-03    -310.806E-03     154.968E-03     714.260E-03     21.4611E+06     17.8488E+06     8.18640E+06    -6.73303E+06    -6.57909E+06     8.03247E+06     17.8488E+06     713.320E+03
            1308     117.295E-03     10.9981E-03     116.779E-03     626.705E-03    -311.085E-03    -315.414E-03    -308.511E-03     619.802E-03    -311.085E-03     160.540E-03     723.958E-03     21.7373E+06     19.6135E+06     9.21769E+06    -5.34636E+06    -5.10635E+06     8.97768E+06     19.6135E+06     454.809E+03
            1309     117.607E-03     11.7306E-03     117.020E-03     634.994E-03    -311.417E-03    -322.258E-03    -311.710E-03     624.446E-03    -311.417E-03     195.805E-03     754.788E-03     21.7449E+06     21.5605E+06     11.0916E+06    -3.40994E+06    -3.18450E+06     10.8662E+06     21.5605E+06    -54.2424E+03
            1310     118.094E-03     12.4613E-03     117.434E-03     635.029E-03    -310.873E-03    -323.251E-03    -313.272E-03     625.051E-03    -310.873E-03     188.641E-03     748.134E-03     23.1758E+06     25.1406E+06     11.8687E+06    -1.43890E+06    -1.30152E+06     11.7313E+06     25.1406E+06     315.304E+03
            1311     117.524E-03     732.064E-06     117.522E-03     626.651E-03    -312.013E-03    -314.552E-03    -312.972E-03     626.647E-03    -313.589E-03     1.71625E-03     628.378E-03     6.12207E+06    -34.0776E+06     -36.829E+06    -40.9116E+06    -38.4828E+06    -36.7694E+06    -36.5660E+06    -988.366E+03
            1312     117.508E-03     1.46429E-03     117.498E-03     626.698E-03    -313.120E-03    -313.748E-03    -313.129E-03     626.684E-03    -313.724E-03     6.93590E-03     631.775E-03     5.73099E+06    -30.9487E+06    -32.7964E+06    -37.1194E+06    -35.3248E+06    -31.9871E+06    -33.5527E+06    -608.367E+03
            1313     117.479E-03     2.19359E-03     117.459E-03     625.641E-03    -312.035E-03    -314.002E-03    -311.975E-03     625.582E-03    -314.002E-03     14.0239E-03     635.957E-03     6.62338E+06    -27.2237E+06    -28.8254E+06    -34.3709E+06    -34.0817E+06    -28.4025E+06    -27.9358E+06     919.720E+03
            1314     117.471E-03     2.92470E-03     117.435E-03     622.681E-03    -310.724E-03    -313.872E-03    -310.544E-03     622.501E-03    -313.872E-03     25.0915E-03     639.494E-03     9.88318E+06    -21.9854E+06    -24.5488E+06    -32.8800E+06    -32.4792E+06    -24.9496E+06    -21.9854E+06     1.19990E+06
            1315     117.476E-03     3.65798E-03     117.419E-03     621.026E-03    -309.958E-03    -313.235E-03    -309.551E-03     620.619E-03    -313.235E-03     38.2512E-03     644.895E-03     13.1725E+06    -14.7481E+06    -19.3211E+06    -29.5711E+06    -29.0839E+06    -19.8083E+06    -14.7481E+06     1.70195E+06
            1316     117.471E-03     4.39062E-03     117.389E-03     620.203E-03    -308.795E-03    -311.853E-03    -308.047E-03     619.455E-03    -311.853E-03     52.2130E-03     651.601E-03     16.2571E+06    -7.83439E+06    -14.5477E+06    -26.3483E+06    -26.0166E+06    -14.8794E+06    -7.83439E+06     1.84173E+06
            1317     117.529E-03     5.12779E-03     117.418E-03     618.971E-03    -307.913E-03    -310.875E-03    -306.704E-03     617.762E-03    -310.875E-03     66.4863E-03     656.947E-03     19.0473E+06    -1.94763E+06    -10.5515E+06    -23.7334E+06    -23.4823E+06    -10.8026E+06    -1.94763E+06     1.66392E+06
            1318     117.638E-03     5.86384E-03     117.491E-03     618.902E-03    -308.621E-03    -310.761E-03    -306.876E-03     617.157E-03    -310.761E-03     80.0986E-03     665.059E-03     20.3382E+06     2.76914E+06    -6.12224E+06    -20.4625E+06    -20.1894E+06    -6.39536E+06     2.76914E+06     1.83316E+06
            1319     117.804E-03     6.59151E-03     117.619E-03     621.041E-03    -309.748E-03    -311.517E-03    -307.426E-03     618.719E-03    -311.517E-03     92.6479E-03     673.067E-03     20.3341E+06     5.40128E+06    -2.79559E+06    -17.7481E+06    -17.3867E+06    -3.15699E+06     5.40128E+06     1.91459E+06
            1320     117.916E-03     7.32774E-03     117.688E-03     621.028E-03    -309.780E-03    -311.143E-03    -306.820E-03     618.063E-03    -311.138E-03     104.704E-03     675.822E-03     22.5845E+06     10.1314E+06     214.054E+03    -15.6981E+06    -15.4475E+06    -36.5532E+03     10.1314E+06     1.51560E+06
            1321     118.118E-03     8.05506E-03     117.843E-03     618.645E-03    -309.507E-03    -311.067E-03    -305.876E-03     615.008E-03    -311.062E-03     115.817E-03     680.651E-03     24.4210E+06     15.1207E+06     3.75569E+06    -12.9070E+06    -12.7624E+06     3.61103E+06     15.1207E+06     1.44320E+06
            1322     118.330E-03     8.78957E-03     118.003E-03     619.666E-03    -309.860E-03    -311.435E-03    -305.739E-03     615.311E-03    -311.202E-03     126.839E-03     688.582E-03     23.8203E+06     17.0679E+06     6.13707E+06    -10.2485E+06    -10.0253E+06     5.91389E+06     17.0679E+06     1.72948E+06
            1323     118.571E-03     9.52186E-03     118.188E-03     621.514E-03    -310.285E-03    -311.575E-03    -306.515E-03     616.453E-03    -310.285E-03     136.986E-03     697.571E-03     23.3243E+06     18.1240E+06     7.43647E+06    -8.62183E+06    -8.31138E+06     7.12602E+06     18.1240E+06     1.38321E+06
            1324     118.834E-03     10.2522E-03     118.391E-03     624.025E-03    -310.830E-03    -314.584E-03    -308.204E-03     617.644E-03    -310.830E-03     153.780E-03     713.663E-03     23.1307E+06     19.2216E+06     8.59220E+06    -7.30061E+06    -6.96424E+06     8.25584E+06     19.2216E+06     771.764E+03
            1325     119.156E-03     10.9975E-03     118.647E-03     626.724E-03    -311.134E-03    -315.725E-03    -308.893E-03     619.893E-03    -311.134E-03     159.760E-03     724.232E-03     22.8092E+06     21.5454E+06     10.1869E+06    -4.68750E+06    -4.37085E+06     9.87026E+06     21.5454E+06     149.287E+03
            1326     119.462E-03     11.7281E-03     118.885E-03     634.070E-03    -311.433E-03    -322.094E-03    -311.403E-03     623.379E-03    -311.433E-03     196.757E-03     754.671E-03     22.8627E+06     23.5067E+06     11.6636E+06    -2.79487E+06    -2.55595E+06     11.4247E+06     23.5067E+06     278.391E+03
            1327     119.948E-03     12.4631E-03     119.299E-03     634.324E-03    -310.882E-03    -322.818E-03    -312.694E-03     624.200E-03    -310.882E-03     189.614E-03     747.694E-03     24.5492E+06     26.3092E+06     12.1379E+06    -1.88091E+06    -1.78688E+06     12.0439E+06     26.3092E+06     348.748E+03
            1328     119.391E-03     731.801E-06     119.389E-03     626.026E-03    -311.980E-03    -313.789E-03    -312.026E-03     626.022E-03    -313.740E-03     3.51520E-03     627.895E-03     7.53395E+06    -35.3627E+06    -38.6602E+06    -43.7234E+06    -40.5761E+06    -38.6534E+06    -38.5168E+06     1.11689E+06
            1329     119.372E-03     1.46377E-03     119.363E-03     624.975E-03    -311.962E-03    -313.216E-03    -311.941E-03     624.954E-03    -313.216E-03     8.22584E-03     630.121E-03     6.63547E+06    -33.4096E+06    -35.3802E+06    -40.6875E+06    -40.0739E+06    -34.8003E+06    -34.6031E+06     368.809E+03
            1330     119.345E-03     2.19669E-03     119.325E-03     624.085E-03    -311.185E-03    -313.337E-03    -311.114E-03     624.015E-03    -313.337E-03     15.6639E-03     634.345E-03     8.16890E+06    -28.9586E+06    -31.3027E+06    -37.9345E+06    -37.5479E+06    -30.9772E+06    -29.6707E+06     1.18262E+06
            1331     119.326E-03     2.92835E-03     119.290E-03     622.021E-03    -310.690E-03    -313.306E-03    -310.499E-03     621.829E-03    -313.306E-03     25.9721E-03     639.074E-03     11.8165E+06    -21.8257E+06    -24.9750E+06    -34.8682E+06    -34.3483E+06    -25.4948E+06    -21.8257E+06     1.78294E+06
            1332     119.329E-03     3.65961E-03     119.272E-03     620.452E-03    -309.836E-03    -312.770E-03    -309.427E-03     620.044E-03    -312.770E-03     38.4204E-03     644.527E-03     14.8888E+06    -15.2940E+06    -20.6285E+06    -32.0978E+06    -31.6697E+06    -21.0566E+06    -15.2940E+06     1.40602E+06
            1333     119.325E-03     4.39384E-03     119.244E-03     620.548E-03    -309.527E-03    -311.685E-03    -308.981E-03     619.817E-03    -311.501E-03     51.6448E-03     652.078E-03     16.2884E+06    -9.32888E+06    -16.0151E+06    -27.8681E+06    -27.7023E+06    -16.1810E+06    -9.32888E+06     1.08173E+06
            1334     119.381E-03     5.12741E-03     119.271E-03     620.701E-03    -309.810E-03    -311.024E-03    -308.857E-03     619.557E-03    -310.833E-03     64.9220E-03     658.747E-03     19.6422E+06    -1.91059E+06    -10.9750E+06    -24.4086E+06    -24.2803E+06    -11.1034E+06    -1.91059E+06     1.27647E+06
            1335     119.492E-03     5.86091E-03     119.348E-03     619.950E-03    -309.512E-03    -310.910E-03    -307.865E-03     618.294E-03    -310.902E-03     78.0733E-03     665.984E-03     22.3473E+06     3.54034E+06    -6.80699E+06    -22.0776E+06    -21.8477E+06    -7.03687E+06     3.54034E+06     1.73187E+06
            1336     119.663E-03     6.58917E-03     119.481E-03     620.334E-03    -308.773E-03    -311.541E-03    -306.478E-03     618.039E-03    -311.541E-03     91.9566E-03     672.027E-03     22.3339E+06     6.24770E+06    -3.33791E+06    -19.2601E+06    -18.8917E+06    -3.70637E+06     6.24770E+06     1.77754E+06
            1337     119.776E-03     7.32697E-03     119.552E-03     620.025E-03    -308.769E-03    -311.120E-03    -305.775E-03     617.031E-03    -311.120E-03     105.102E-03     674.674E-03     23.6918E+06     10.5991E+06     179.402E+03    -16.5015E+06    -16.0698E+06    -252.298E+03     10.5991E+06     1.90284E+06
            1338     119.977E-03     8.05873E-03     119.706E-03     618.153E-03    -309.385E-03    -311.101E-03    -305.717E-03     614.484E-03    -311.101E-03     116.307E-03     680.693E-03     25.8905E+06     16.0483E+06     3.86287E+06    -13.6818E+06    -13.3850E+06     3.56609E+06     16.0483E+06     1.93839E+06
            1339     120.200E-03     8.78906E-03     119.879E-03     619.987E-03    -310.003E-03    -311.784E-03    -306.106E-03     615.623E-03    -311.316E-03     127.043E-03     689.013E-03     26.2147E+06     18.9627E+06     6.20275E+06    -11.1887E+06    -11.0467E+06     6.06071E+06     18.9627E+06     1.50046E+06
            1340     120.437E-03     9.51908E-03     120.061E-03     621.910E-03    -310.529E-03    -311.775E-03    -306.694E-03     616.829E-03    -310.529E-03     137.284E-03     697.836E-03     24.8426E+06     19.5877E+06     7.63494E+06    -8.96227E+06    -8.72987E+06     7.40254E+06     19.5877E+06     1.45169E+06
            1341     120.710E-03     10.2509E-03     120.274E-03     623.505E-03    -311.070E-03    -313.941E-03    -307.457E-03     617.021E-03    -311.070E-03     154.872E-03     713.197E-03     23.7557E+06     20.8888E+06     9.48557E+06    -6.40829E+06    -6.17440E+06     9.25168E+06     20.8888E+06     677.265E+03
            1342     121.031E-03     10.9956E-03     120.530E-03     625.698E-03    -311.191E-03    -314.996E-03    -308.006E-03     618.708E-03    -311.191E-03     161.438E-03     723.654E-03     23.7842E+06     21.9942E+06     9.65882E+06    -5.40767E+06    -5.25852E+06     9.50967E+06     21.9942E+06     659.745E+03
            1343     121.327E-03     11.7311E-03     120.758E-03     633.545E-03    -311.358E-03    -322.149E-03    -311.361E-03     622.757E-03    -311.358E-03     197.825E-03     754.800E-03     24.3786E+06     24.2421E+06     11.2382E+06    -3.84359E+06    -3.74259E+06     11.1372E+06     24.2421E+06     850.198E+03
            1344     121.818E-03     12.4644E-03     121.178E-03     635.314E-03    -310.809E-03    -324.078E-03    -314.025E-03     625.260E-03    -310.809E-03     188.725E-03     749.236E-03     25.7235E+06     28.1875E+06     13.3772E+06    -1.42220E+06    -1.38313E+06     13.3382E+06     28.1875E+06     94.1905E+03
            1345     121.263E-03     732.575E-06     121.261E-03     625.758E-03    -312.098E-03    -313.275E-03    -312.959E-03     625.755E-03    -312.411E-03     2.68966E-03     627.603E-03     7.39611E+06    -38.7163E+06    -42.3970E+06    -46.6477E+06    -42.5264E+06    -41.8644E+06    -43.3703E+06     853.644E+03
            1346     121.243E-03     1.46577E-03     121.234E-03     624.711E-03    -311.792E-03    -313.156E-03    -311.778E-03     624.697E-03    -313.156E-03     6.22901E-03     629.794E-03     7.34192E+06    -35.1633E+06    -38.2706E+06    -43.1869E+06    -41.9649E+06    -37.0662E+06    -37.5896E+06     1.94618E+06
            1347     121.218E-03     2.19898E-03     121.198E-03     623.519E-03    -310.788E-03    -313.134E-03    -310.737E-03     623.467E-03    -313.134E-03     12.9113E-03     633.550E-03     9.66555E+06    -30.1815E+06    -32.7205E+06    -40.8371E+06    -40.3620E+06    -32.7505E+06    -30.6266E+06     1.22356E+06
            1348     121.204E-03     2.92952E-03     121.169E-03     621.806E-03    -310.631E-03    -313.048E-03    -310.475E-03     621.650E-03    -313.048E-03     23.2238E-03     638.951E-03     12.0559E+06    -23.5107E+06    -26.7106E+06    -36.8186E+06    -36.3592E+06    -27.1700E+06    -23.5107E+06     1.23714E+06
            1349     121.198E-03     3.66091E-03     121.143E-03     621.015E-03    -310.426E-03    -312.555E-03    -310.057E-03     620.646E-03    -312.555E-03     36.3612E-03     645.118E-03     15.1269E+06    -15.5620E+06    -20.5834E+06    -32.5325E+06    -32.0045E+06    -21.1114E+06    -15.5620E+06     1.38300E+06
            1350     121.196E-03     4.39375E-03     121.116E-03     621.398E-03    -310.172E-03    -311.604E-03    -309.628E-03     620.670E-03    -311.420E-03     51.4172E-03     652.612E-03     17.7722E+06    -9.82745E+06    -16.6897E+06    -29.9871E+06    -29.7174E+06    -16.9594E+06    -9.82745E+06     1.54603E+06
            1351     121.257E-03     5.12627E-03     121.149E-03     621.742E-03    -310.697E-03    -311.189E-03    -309.739E-03     620.535E-03    -310.939E-03     66.6478E-03     659.694E-03     19.9116E+06    -3.93015E+06    -12.1841E+06    -26.6330E+06    -26.4232E+06    -12.3940E+06    -3.93015E+06     1.72321E+06
            1352     121.373E-03     5.85702E-03     121.232E-03     620.123E-03    -309.882E-03    -310.871E-03    -308.191E-03     618.366E-03    -310.805E-03     80.4395E-03     666.439E-03      23.016E+06     3.57642E+06    -7.13179E+06    -22.8269E+06    -22.6609E+06    -7.29775E+06     3.57642E+06     1.57354E+06
            1353     121.537E-03     6.58781E-03     121.359E-03     619.227E-03    -307.972E-03    -311.223E-03    -305.621E-03     616.876E-03    -311.223E-03     93.0710E-03     671.078E-03     25.2799E+06     8.16404E+06    -3.99992E+06    -20.8925E+06    -20.4766E+06    -4.41582E+06     8.16404E+06     1.80322E+06
            1354     121.651E-03     7.32833E-03     121.430E-03     619.517E-03    -308.301E-03    -311.183E-03    -305.328E-03     616.544E-03    -311.183E-03     104.719E-03     673.882E-03     26.2536E+06     11.7646E+06     429.994E+03    -18.2290E+06    -17.6474E+06    -151.626E+03     11.7646E+06     1.87861E+06
            1355     121.856E-03     8.05508E-03     121.589E-03     617.363E-03    -308.971E-03    -311.227E-03    -305.310E-03     613.702E-03    -311.227E-03     116.077E-03     680.435E-03     26.7606E+06     16.1136E+06     4.19219E+06    -14.4981E+06    -14.2231E+06     3.91722E+06     16.1136E+06     1.31317E+06
            1356     122.031E-03     8.79470E-03     121.714E-03     619.098E-03    -309.375E-03    -311.608E-03    -305.356E-03     614.707E-03    -311.237E-03     127.306E-03     688.524E-03     26.2762E+06     18.5104E+06     6.22447E+06    -11.6285E+06    -11.5126E+06     6.10864E+06     18.5104E+06     1.21714E+06
            1357     122.408E-03     9.51058E-03     122.038E-03     622.454E-03    -310.372E-03    -311.954E-03    -306.684E-03     617.344E-03    -310.532E-03     137.717E-03     698.275E-03     25.8396E+06     20.3562E+06     8.25863E+06    -9.28226E+06    -9.15764E+06     8.13400E+06     20.3562E+06     1.11500E+06
            1358     122.599E-03     10.2487E-03     122.170E-03     623.300E-03    -310.866E-03    -313.724E-03    -307.148E-03     616.724E-03    -310.866E-03     155.877E-03     713.502E-03     25.5395E+06     22.1430E+06     9.55358E+06    -7.24491E+06    -7.11051E+06     9.41918E+06     22.1430E+06     1.23169E+06
            1359     122.829E-03     11.0096E-03     122.335E-03     624.821E-03    -310.837E-03    -314.864E-03    -307.833E-03     617.790E-03    -310.837E-03     161.760E-03     723.394E-03     25.3742E+06     23.4613E+06     10.5656E+06    -5.75210E+06    -5.63853E+06     10.4520E+06     23.4613E+06     1.33962E+06
            1360     123.243E-03     11.7295E-03     122.684E-03     634.419E-03    -311.252E-03    -323.405E-03    -312.894E-03     623.908E-03    -311.252E-03     195.768E-03     755.559E-03     26.2140E+06     26.0812E+06     12.1460E+06    -4.09558E+06    -4.00658E+06     12.0570E+06     26.0812E+06     490.977E+03
            1361     123.673E-03     12.4618E-03     123.043E-03     636.470E-03    -310.825E-03    -325.091E-03    -315.279E-03     626.657E-03    -310.825E-03     187.112E-03     749.951E-03     27.6739E+06     29.8473E+06     13.2807E+06    -1.99022E+06    -1.89727E+06     13.1878E+06     29.8473E+06     95.2533E+03
            1362     123.159E-03     732.171E-06     123.157E-03     626.372E-03    -312.472E-03    -313.508E-03    -313.285E-03     626.370E-03    -312.694E-03     1.85780E-03     628.067E-03     8.01819E+06    -41.0770E+06    -44.3637E+06    -49.6994E+06    -46.5996E+06    -44.3940E+06    -44.1465E+06     1.52422E+06
            1363     123.161E-03     1.46256E-03     123.153E-03     626.460E-03    -313.102E-03    -313.730E-03    -313.091E-03     626.449E-03    -313.730E-03     5.69651E-03     631.470E-03     6.55829E+06    -37.4869E+06    -39.9642E+06    -44.5106E+06    -43.4960E+06    -38.6928E+06    -39.7729E+06     1.56043E+06
            1364     123.137E-03     2.19238E-03     123.117E-03     625.103E-03    -311.874E-03    -313.761E-03    -311.832E-03     625.061E-03    -313.761E-03     11.8103E-03     635.134E-03     8.05237E+06    -31.1768E+06    -32.9534E+06     -39.926E+06    -39.5020E+06    -32.6498E+06    -31.9043E+06     997.905E+03
            1365     123.120E-03     2.92586E-03     123.085E-03     622.572E-03    -310.682E-03    -313.554E-03    -310.553E-03     622.443E-03    -313.554E-03     21.1616E-03     639.658E-03     11.7358E+06    -25.3355E+06    -28.5354E+06    -38.2853E+06    -38.0814E+06    -28.7158E+06    -25.3590E+06     700.892E+03
            1366     123.104E-03     3.65865E-03     123.050E-03     621.740E-03    -310.546E-03    -312.891E-03    -310.217E-03     621.411E-03    -312.891E-03     34.2145E-03     646.029E-03     15.2801E+06    -18.4884E+06    -23.6486E+06    -35.6597E+06    -35.3116E+06    -23.9967E+06    -18.4884E+06     1.28481E+06
            1367     123.092E-03     4.39135E-03     123.014E-03     621.275E-03    -309.905E-03    -311.693E-03    -309.204E-03     620.574E-03    -311.693E-03     50.3070E-03     652.729E-03     18.3558E+06    -10.9606E+06    -17.3560E+06    -31.6046E+06    -31.2394E+06    -17.7212E+06    -10.9606E+06     2.11884E+06
            1368     123.125E-03     5.12858E-03     123.018E-03     620.230E-03    -309.256E-03    -310.984E-03    -308.086E-03     619.001E-03    -310.926E-03     67.0255E-03     658.189E-03     21.5404E+06    -3.60690E+06    -12.1497E+06    -28.0295E+06    -27.7612E+06    -12.4181E+06    -3.60690E+06     1.95781E+06
            1369     123.178E-03     5.86767E-03     123.038E-03     618.294E-03    -308.707E-03    -310.225E-03    -306.922E-03     616.450E-03    -310.167E-03     82.2608E-03     664.666E-03     24.5716E+06     3.04765E+06    -8.84333E+06    -25.1908E+06    -25.0306E+06    -9.00353E+06     3.04765E+06     1.56895E+06
            1370     123.305E-03     6.60214E-03     123.128E-03     618.631E-03    -308.251E-03    -310.583E-03    -305.802E-03     616.183E-03    -310.583E-03     94.9856E-03     670.815E-03     26.6319E+06     8.78307E+06    -4.50166E+06    -21.8737E+06    -21.4414E+06    -4.93398E+06     8.78307E+06     2.19751E+06
            1371     123.606E-03     7.31814E-03     123.389E-03     620.212E-03    -308.734E-03    -311.482E-03    -305.690E-03     617.168E-03    -311.482E-03     106.022E-03     674.500E-03     27.2853E+06     12.7958E+06     1.00044E+06    -18.3644E+06    -17.8919E+06     527.918E+03     12.7958E+06     1.93073E+06
            1372     123.776E-03     8.05373E-03     123.513E-03     618.104E-03    -309.020E-03    -311.559E-03    -305.261E-03     614.345E-03    -311.559E-03     117.648E-03     680.369E-03     27.7764E+06     16.3752E+06     4.06213E+06    -15.3759E+06    -15.2484E+06     3.93464E+06     16.3752E+06     842.438E+03
            1373     123.866E-03     8.80120E-03     123.553E-03     619.456E-03    -309.333E-03    -311.693E-03    -305.577E-03     614.997E-03    -310.990E-03     128.389E-03     688.283E-03     27.5442E+06     18.8194E+06     5.67068E+06    -12.7992E+06    -12.7625E+06     5.63396E+06     18.8194E+06     768.024E+03
            1374     124.208E-03     9.51668E-03     123.843E-03     622.766E-03    -310.225E-03    -312.271E-03    -307.153E-03     617.809E-03    -310.385E-03     135.758E-03     698.720E-03     26.3043E+06     19.4732E+06     8.15900E+06    -10.5306E+06    -10.4107E+06     8.03908E+06     19.4732E+06     1.37415E+06
            1375     124.428E-03     10.2545E-03     124.005E-03     623.706E-03    -310.693E-03    -313.944E-03    -307.709E-03     617.471E-03    -310.693E-03     151.815E-03     713.824E-03     26.1856E+06     21.6684E+06     9.68856E+06    -8.30239E+06    -8.13717E+06     9.52335E+06     21.6684E+06     1.68948E+06
            1376     124.670E-03     11.0109E-03     124.183E-03     625.207E-03    -310.657E-03    -315.382E-03    -308.582E-03     618.406E-03    -310.657E-03     159.233E-03     723.868E-03     26.5587E+06     24.6137E+06     11.5429E+06     -5.9459E+06    -5.84822E+06     11.4452E+06     24.6137E+06     844.857E+03
            1377     125.080E-03     11.7265E-03     124.530E-03     634.539E-03    -311.270E-03    -323.738E-03    -313.228E-03     624.028E-03    -311.270E-03     195.611E-03     755.704E-03     27.5033E+06     27.5866E+06     13.3939E+06    -4.06348E+06    -3.93536E+06     13.2658E+06     27.5866E+06     320.813E+03
            1378     125.489E-03     12.4606E-03     124.869E-03     636.128E-03    -310.871E-03    -324.538E-03    -314.553E-03     626.144E-03    -310.871E-03     189.117E-03     749.088E-03     28.9172E+06     30.8335E+06     13.5125E+06    -2.46918E+06    -2.29496E+06     13.3383E+06     30.8335E+06     182.176E+03
            1379     125.026E-03     732.258E-06     125.024E-03     627.567E-03    -313.299E-03    -313.741E-03    -313.297E-03     627.565E-03    -313.741E-03     1.71720E-03     629.202E-03     7.95221E+06    -41.6462E+06    -45.8186E+06    -50.6459E+06    -46.6099E+06    -45.4401E+06    -46.0608E+06     104.517E+03
            1380     125.030E-03     1.46323E-03     125.022E-03     627.355E-03    -313.514E-03    -314.241E-03    -313.501E-03     627.342E-03    -314.241E-03     6.28523E-03     632.360E-03     6.32176E+06    -39.2784E+06    -41.0745E+06    -46.0867E+06    -44.9299E+06    -40.1931E+06    -41.3166E+06        19.8E+03
            1381     124.992E-03     2.19379E-03     124.972E-03     626.109E-03    -312.743E-03    -314.193E-03    -312.696E-03     626.063E-03    -314.193E-03     12.5800E-03     636.194E-03     8.33087E+06    -34.1550E+06    -35.3026E+06    -42.9808E+06    -42.5082E+06    -35.3705E+06    -34.5595E+06     1.44757E+06
            1382     124.963E-03     2.92310E-03     124.929E-03     623.609E-03    -311.458E-03    -313.978E-03    -311.306E-03     623.457E-03    -313.978E-03     22.8017E-03     640.840E-03     13.0888E+06    -25.3410E+06    -28.7691E+06    -39.7412E+06    -39.2459E+06    -29.2408E+06    -25.3645E+06     2.17786E+06
            1383     124.953E-03     3.65499E-03     124.899E-03     621.786E-03    -310.153E-03    -313.223E-03    -309.781E-03     621.414E-03    -313.223E-03     36.3796E-03     646.262E-03     16.9560E+06    -18.3985E+06    -24.7806E+06    -37.6094E+06    -37.3158E+06    -25.0742E+06    -18.3985E+06     1.84137E+06
            1384     124.948E-03     4.38970E-03     124.871E-03     620.670E-03    -309.059E-03    -311.894E-03    -308.317E-03     619.928E-03    -311.894E-03     51.7705E-03     651.978E-03     19.0791E+06    -11.9719E+06      -19.09E+06    -33.5297E+06    -33.2872E+06    -19.3325E+06    -11.9719E+06     1.70587E+06
            1385     124.986E-03     5.12545E-03     124.881E-03     619.154E-03    -308.035E-03    -310.940E-03    -306.770E-03     617.888E-03    -310.940E-03     67.9360E-03     657.117E-03     21.9258E+06    -4.91104E+06    -13.7491E+06    -29.7937E+06    -29.4578E+06    -14.0850E+06    -4.91104E+06     2.05123E+06
            1386     125.039E-03     5.86675E-03     124.902E-03     616.401E-03    -307.305E-03    -309.863E-03    -305.426E-03     614.523E-03    -309.863E-03     82.9046E-03     662.991E-03     25.9214E+06     3.24092E+06    -9.14994E+06    -26.5416E+06    -26.2376E+06    -9.45392E+06     3.24092E+06     2.10361E+06
            1387     125.167E-03     6.60447E-03     124.993E-03     617.584E-03    -307.774E-03    -310.218E-03    -305.326E-03     615.136E-03    -310.218E-03     94.9321E-03     669.997E-03     27.1281E+06     8.17543E+06    -4.03823E+06    -22.8264E+06    -22.6957E+06    -4.16899E+06     8.17543E+06     1.45302E+06
            1388     125.477E-03     7.31813E-03     125.264E-03     621.134E-03    -309.207E-03    -311.837E-03    -306.230E-03     618.158E-03    -311.837E-03     104.928E-03     675.618E-03     27.2566E+06      11.756E+06    -88.6221E+03    -19.3222E+06    -19.1925E+06    -218.349E+03      11.756E+06     1.11503E+06
            1389     125.625E-03     8.05312E-03     125.366E-03     619.313E-03    -309.845E-03    -312.072E-03    -306.171E-03     615.639E-03    -312.072E-03     116.406E-03     681.502E-03     29.3579E+06     17.6326E+06     3.25194E+06    -16.1069E+06    -15.9120E+06     3.05701E+06     17.6326E+06     1.49939E+06
            1390     125.719E-03     8.79933E-03     125.411E-03     620.008E-03    -309.901E-03    -312.168E-03    -306.637E-03     615.588E-03    -311.011E-03     127.929E-03     688.937E-03     30.2301E+06     21.3358E+06     5.58733E+06    -13.5108E+06    -13.3984E+06     5.47494E+06     21.3358E+06     1.31069E+06
            1391     126.086E-03     9.51305E-03     125.727E-03     623.557E-03    -310.441E-03    -313.167E-03    -308.233E-03     618.623E-03    -310.441E-03     135.585E-03     699.765E-03     28.2373E+06     21.4568E+06     7.94830E+06    -10.9075E+06    -10.8210E+06     7.86182E+06     21.4568E+06     1.22204E+06
            1392     126.291E-03     10.2467E-03     125.875E-03     624.764E-03    -310.884E-03    -314.788E-03    -308.536E-03     618.512E-03    -310.884E-03     152.113E-03     714.948E-03     26.7820E+06     22.3254E+06     9.75237E+06    -8.35358E+06    -8.23281E+06     9.63161E+06     22.3254E+06     1.46375E+06
            1393     126.538E-03     11.0013E-03     126.059E-03     625.354E-03    -310.751E-03    -315.394E-03    -308.453E-03     618.413E-03    -310.751E-03     160.903E-03     723.651E-03     27.4485E+06     25.3519E+06     12.3189E+06    -6.14501E+06    -6.05992E+06     12.2338E+06     25.3519E+06     802.022E+03
            1394     126.944E-03     11.7263E-03     126.401E-03     633.333E-03    -311.262E-03    -322.301E-03    -311.740E-03     622.772E-03    -311.262E-03     196.136E-03     754.326E-03     28.5371E+06     28.7854E+06     14.8156E+06    -3.95849E+06    -3.78648E+06     14.6436E+06     28.7854E+06     124.484E+03
            1395     127.359E-03     12.4643E-03     126.747E-03     635.267E-03    -310.886E-03    -323.453E-03    -313.608E-03     625.422E-03    -310.886E-03     187.295E-03     748.856E-03     30.0514E+06     32.5199E+06     14.2515E+06    -2.06082E+06    -1.78425E+06     13.9749E+06     32.5199E+06     200.233E+03
            1396     126.880E-03     730.342E-06     126.878E-03     628.289E-03    -313.647E-03    -314.321E-03    -313.744E-03     628.282E-03    -314.217E-03     3.16221E-03     629.954E-03     6.30413E+06    -44.8022E+06    -47.2510E+06    -51.6332E+06    -48.5969E+06    -47.3603E+06    -47.7292E+06    -808.652E+03
            1397     126.889E-03     1.46066E-03     126.881E-03     627.418E-03    -313.266E-03    -314.564E-03    -313.249E-03     627.401E-03    -314.564E-03     7.31494E-03     632.477E-03     6.81873E+06    -41.8326E+06    -43.3528E+06    -49.0230E+06    -47.8530E+06    -42.7435E+06    -43.6118E+06     390.537E+03
            1398     126.854E-03     2.19218E-03     126.835E-03     625.570E-03    -312.171E-03    -314.278E-03    -312.116E-03     625.514E-03    -314.278E-03     13.5122E-03     635.696E-03     9.84005E+06    -36.1974E+06    -37.8488E+06    -46.7472E+06    -46.2739E+06    -38.2000E+06    -36.3194E+06     1.28841E+06
            1399     126.832E-03     2.92455E-03     126.799E-03     623.097E-03    -311.172E-03    -313.926E-03    -310.999E-03     622.924E-03    -313.926E-03     24.5481E-03     640.505E-03     13.5319E+06    -27.8099E+06    -31.2784E+06    -42.7230E+06    -42.1214E+06    -31.8801E+06    -27.8099E+06     1.89142E+06
            1400     126.821E-03     3.65769E-03     126.768E-03     621.282E-03    -309.851E-03    -313.098E-03    -309.446E-03     620.877E-03    -313.098E-03     38.1374E-03     645.723E-03     17.1173E+06    -18.5809E+06    -24.5960E+06    -37.8691E+06    -37.3813E+06    -25.0838E+06    -18.5809E+06     2.42280E+06
            1401     126.823E-03     4.39179E-03     126.747E-03     620.081E-03    -308.658E-03    -311.777E-03    -307.878E-03     619.301E-03    -311.777E-03     53.1967E-03     651.471E-03     20.7045E+06    -11.0802E+06    -19.8815E+06    -34.7236E+06    -34.4485E+06    -20.1566E+06    -11.0802E+06     1.89279E+06
            1402     126.863E-03     5.12877E-03     126.759E-03     619.102E-03    -308.250E-03    -310.929E-03    -306.946E-03     617.797E-03    -310.929E-03     69.0342E-03     657.460E-03     22.9473E+06    -5.28519E+06    -15.5985E+06    -31.5782E+06    -31.2813E+06    -15.8954E+06    -5.28519E+06     1.97018E+06
            1403     126.921E-03     5.86694E-03     126.785E-03     616.828E-03    -307.777E-03    -309.956E-03    -305.866E-03     614.917E-03    -309.956E-03     83.6956E-03     663.638E-03     25.7410E+06     2.40870E+06    -9.70209E+06    -27.1475E+06    -26.7704E+06    -10.0792E+06     2.40870E+06     2.43345E+06
            1404     127.078E-03     6.59943E-03     126.907E-03     617.939E-03    -307.858E-03    -310.266E-03    -305.418E-03     615.499E-03    -310.266E-03     94.8406E-03     670.311E-03     27.9310E+06     8.43795E+06    -3.12018E+06    -23.3386E+06    -23.1274E+06    -3.33138E+06     8.43795E+06     1.93045E+06
            1405     127.377E-03     7.31455E-03     127.167E-03     622.233E-03    -309.955E-03    -312.138E-03    -307.002E-03     619.280E-03    -312.138E-03     104.630E-03     677.002E-03     29.8953E+06     13.4730E+06     531.323E+03    -20.5970E+06    -20.4282E+06     362.532E+03     13.4730E+06     1.45196E+06
            1406     127.509E-03     8.04844E-03     127.254E-03     620.129E-03    -310.886E-03    -312.523E-03    -307.242E-03     616.485E-03    -312.523E-03     116.066E-03     683.321E-03     31.4696E+06     18.7340E+06     2.39248E+06    -17.5435E+06    -17.3425E+06     2.19146E+06     18.7340E+06     1.49717E+06
            1407     127.581E-03     8.79834E-03     127.277E-03     619.247E-03    -309.980E-03    -311.668E-03    -306.071E-03     614.884E-03    -311.213E-03     126.997E-03     688.721E-03     30.9111E+06     21.6761E+06     6.60951E+06    -13.7825E+06    -13.5539E+06     6.38094E+06     21.6761E+06     1.85147E+06
            1408     127.924E-03     9.51622E-03     127.569E-03     622.945E-03    -310.249E-03    -312.679E-03    -307.424E-03     617.966E-03    -310.525E-03     136.067E-03     698.888E-03     29.3757E+06     22.2369E+06     8.03155E+06    -11.4443E+06    -11.2725E+06     7.85976E+06     22.2369E+06     1.39555E+06
            1409     128.134E-03     10.2524E-03     127.723E-03     624.919E-03    -310.947E-03    -315.114E-03    -308.728E-03     618.533E-03    -310.947E-03     153.823E-03     715.083E-03     28.6598E+06     23.5260E+06     9.99959E+06    -9.29117E+06    -9.21415E+06     9.92257E+06     23.5260E+06     395.309E+03
            1410     128.377E-03     11.0072E-03     127.904E-03     625.489E-03    -310.818E-03    -315.455E-03    -308.444E-03     618.478E-03    -310.818E-03     161.723E-03     723.502E-03     29.2351E+06     27.5007E+06     13.9943E+06    -5.87355E+06    -5.78774E+06     13.9085E+06     27.5007E+06     136.386E+03
            1411     128.792E-03     11.7267E-03     128.257E-03     633.707E-03    -311.315E-03    -322.480E-03    -311.954E-03     623.182E-03    -311.315E-03     195.982E-03     754.172E-03     29.9919E+06     30.4822E+06     14.7113E+06    -3.98661E+06    -3.80243E+06     14.5271E+06     30.4822E+06     119.788E+03
            1412     129.212E-03     12.4604E-03     128.610E-03     635.513E-03    -310.942E-03    -323.827E-03    -314.037E-03     625.723E-03    -310.942E-03     186.896E-03     749.495E-03     31.6049E+06     33.9089E+06     14.3619E+06    -2.45604E+06    -2.21527E+06     14.1211E+06     33.9089E+06     552.578E+03
            1413     128.731E-03     732.551E-06     128.729E-03     627.767E-03    -313.230E-03    -314.422E-03    -314.051E-03     627.760E-03    -313.594E-03     4.00435E-03     629.465E-03     7.67304E+06    -47.6402E+06    -50.4738E+06    -55.9949E+06    -51.4542E+06    -50.9848E+06    -51.6700E+06     1.38486E+06
            1414     128.737E-03     1.46329E-03     128.729E-03     627.127E-03    -313.185E-03    -314.370E-03    -313.166E-03     627.109E-03    -314.370E-03     8.04887E-03     632.224E-03     7.44535E+06    -44.8260E+06    -45.8394E+06    -52.6810E+06     -51.914E+06    -45.8635E+06    -45.5689E+06     1.93062E+06
            1415     128.706E-03     2.19407E-03     128.688E-03     625.367E-03    -311.878E-03    -314.109E-03    -311.819E-03     625.308E-03    -314.109E-03     14.0382E-03     635.482E-03     9.74328E+06    -37.8378E+06    -39.3203E+06    -48.2256E+06    -47.7446E+06    -39.6956E+06    -37.9436E+06     1.29690E+06
            1416     128.689E-03     2.92576E-03     128.655E-03     622.868E-03    -310.837E-03    -313.750E-03    -310.677E-03     622.707E-03    -313.750E-03     23.8765E-03     640.079E-03     13.6677E+06    -29.3287E+06    -33.1606E+06    -44.4457E+06    -43.9343E+06    -33.6721E+06    -29.3287E+06     1.25078E+06
            1417     128.686E-03     3.65763E-03     128.634E-03     621.021E-03    -309.775E-03    -312.931E-03    -309.406E-03     620.652E-03    -312.931E-03     36.3530E-03     645.449E-03     17.5013E+06    -20.0625E+06    -26.6575E+06    -39.8684E+06    -39.5087E+06    -27.0172E+06    -20.0625E+06     1.56494E+06
            1418     128.686E-03     4.39212E-03     128.611E-03     619.797E-03    -308.710E-03    -311.621E-03    -307.970E-03     619.057E-03    -311.621E-03     51.7328E-03     651.474E-03     20.6158E+06    -12.2190E+06    -20.8635E+06    -35.7430E+06    -35.4264E+06    -21.1800E+06    -12.2190E+06     2.05536E+06
            1419     128.725E-03     5.12801E-03     128.623E-03     618.826E-03    -308.362E-03    -310.737E-03    -307.091E-03     617.555E-03    -310.737E-03     68.1175E-03     657.340E-03     24.1162E+06    -4.12676E+06    -15.2339E+06    -31.7802E+06    -31.5022E+06    -15.5119E+06    -4.12676E+06     2.05975E+06
            1420     128.786E-03     5.86725E-03     128.652E-03     617.287E-03    -308.152E-03    -309.852E-03    -306.273E-03     615.407E-03    -309.852E-03     83.0231E-03     663.847E-03     27.6717E+06     3.63145E+06    -10.1175E+06    -28.2161E+06    -28.0290E+06    -10.3046E+06     3.63145E+06     1.60087E+06
            1421     128.946E-03     6.60114E-03     128.777E-03     618.589E-03    -308.185E-03    -310.270E-03    -305.765E-03     616.169E-03    -310.270E-03     94.4698E-03     670.538E-03     29.9651E+06     9.62099E+06    -4.48695E+06    -24.7441E+06    -24.4976E+06    -4.73349E+06     9.62099E+06     1.92413E+06
            1422     129.245E-03     7.31648E-03     129.038E-03     622.362E-03    -309.903E-03    -312.276E-03    -306.927E-03     619.386E-03    -312.276E-03     105.010E-03     677.009E-03     31.5938E+06     15.6276E+06     474.626E+03    -20.6282E+06    -20.3457E+06     192.086E+03     15.6276E+06     2.26990E+06
            1423     129.385E-03     8.04869E-03     129.134E-03     620.623E-03    -310.936E-03    -312.705E-03    -307.234E-03     616.921E-03    -312.705E-03     117.026E-03     683.760E-03     32.7089E+06     20.6413E+06     3.51006E+06    -17.0730E+06    -16.8581E+06     3.29517E+06     20.6413E+06     1.87471E+06
            1424     129.456E-03     8.79506E-03     129.157E-03     619.788E-03    -310.144E-03    -311.729E-03    -306.112E-03     615.348E-03    -311.320E-03     128.151E-03     689.255E-03     32.2041E+06     22.3728E+06     6.49991E+06    -14.5822E+06    -14.3620E+06     6.27973E+06     22.3728E+06     1.71978E+06
            1425     129.812E-03     9.51348E-03     129.463E-03     622.728E-03    -310.315E-03    -312.566E-03    -307.231E-03     617.667E-03    -310.590E-03     137.146E-03     698.450E-03     29.6793E+06     22.8973E+06     8.40174E+06    -11.1408E+06    -10.9717E+06     8.23268E+06     22.8973E+06     1.26043E+06
            1426     130.021E-03     10.2508E-03     129.616E-03     624.517E-03    -310.985E-03    -314.844E-03    -308.503E-03     618.176E-03    -310.985E-03     153.354E-03     714.357E-03     28.7848E+06     24.7434E+06     12.3102E+06    -8.05886E+06    -8.01402E+06     12.2653E+06     24.7434E+06     4.67072E+03
            1427     130.273E-03     11.0019E-03     129.808E-03     626.486E-03    -310.948E-03    -315.782E-03    -308.903E-03     619.607E-03    -310.948E-03     160.331E-03     724.181E-03     30.4934E+06     27.7530E+06     13.8319E+06    -7.03146E+06    -6.91938E+06     13.7198E+06     27.7530E+06     55.5005E+03
            1428     130.677E-03     11.7239E-03     130.150E-03     634.980E-03    -311.526E-03    -323.227E-03    -312.673E-03     624.425E-03    -311.526E-03     196.200E-03     755.022E-03     32.0651E+06     31.9960E+06     13.5871E+06    -4.95298E+06    -4.76267E+06     13.3968E+06     31.9960E+06     688.963E+03
            1429     131.088E-03     12.4611E-03     130.494E-03     635.179E-03    -311.070E-03    -323.526E-03    -313.601E-03     625.254E-03    -311.070E-03     188.264E-03     748.879E-03     32.6248E+06     35.2018E+06     14.8442E+06    -2.33657E+06    -2.22792E+06     14.7356E+06     35.2018E+06     444.591E+03
            1430     130.576E-03     731.291E-06     130.574E-03     627.399E-03    -313.066E-03    -314.247E-03    -313.816E-03     627.395E-03    -313.493E-03     2.67197E-03     629.080E-03     8.94223E+06    -49.0486E+06    -54.0608E+06    -59.1690E+06    -54.6104E+06    -53.6066E+06    -54.0614E+06     1.12869E+06
            1431     130.581E-03     1.46279E-03     130.573E-03     626.851E-03    -313.109E-03    -314.144E-03    -313.094E-03     626.837E-03    -314.144E-03     7.05063E-03     631.907E-03     6.43243E+06    -45.9084E+06    -47.9739E+06    -52.8831E+06    -51.9258E+06    -47.2052E+06    -47.6344E+06     1.16995E+06
            1432     130.559E-03     2.19440E-03     130.540E-03     625.510E-03    -312.197E-03    -313.974E-03    -312.147E-03     625.459E-03    -313.974E-03     13.0426E-03     635.631E-03     10.1556E+06    -39.1916E+06    -41.4865E+06    -50.2533E+06    -49.7894E+06    -41.8446E+06    -39.2974E+06     1.63794E+06
            1433     130.547E-03     2.92550E-03     130.514E-03     622.788E-03    -310.932E-03    -313.675E-03    -310.780E-03     622.636E-03    -313.675E-03     23.1049E-03     639.925E-03     15.0644E+06    -28.9133E+06    -34.0537E+06    -45.8221E+06    -45.4723E+06    -34.4035E+06    -28.9133E+06     1.43656E+06
            1434     130.545E-03     3.65825E-03     130.494E-03     620.744E-03    -309.673E-03    -312.878E-03    -309.309E-03     620.380E-03    -312.878E-03     36.0819E-03     645.266E-03     18.2926E+06    -20.7119E+06    -28.3503E+06    -41.5811E+06    -41.4839E+06    -28.4474E+06    -20.7119E+06     708.957E+03
            1435     130.553E-03     4.39206E-03     130.479E-03     619.968E-03    -308.991E-03    -311.573E-03    -308.247E-03     619.224E-03    -311.573E-03     51.8498E-03     651.658E-03     20.8771E+06    -13.6489E+06    -22.7454E+06    -37.5236E+06    -37.3661E+06    -22.9029E+06    -13.6489E+06     1.26563E+06
            1436     130.587E-03     5.12888E-03     130.487E-03     619.513E-03    -308.918E-03    -310.763E-03    -307.666E-03     618.261E-03    -310.763E-03     67.7342E-03     657.687E-03     24.4298E+06    -4.65469E+06    -16.0925E+06    -32.6896E+06    -32.4675E+06    -16.3146E+06    -4.65469E+06     1.77001E+06
            1437     130.651E-03     5.86718E-03     130.519E-03     618.346E-03    -308.765E-03    -310.086E-03    -306.959E-03     616.539E-03    -310.086E-03     81.4983E-03     664.389E-03     28.2407E+06     3.42643E+06    -9.73619E+06    -28.9395E+06    -28.6759E+06    -9.99984E+06     3.42643E+06     1.91490E+06
            1438     130.812E-03     6.59772E-03     130.646E-03     619.073E-03    -308.282E-03    -310.505E-03    -305.934E-03     616.726E-03    -310.505E-03     93.0520E-03     670.725E-03     31.4187E+06     10.3484E+06    -4.97271E+06    -25.7115E+06    -25.4196E+06    -5.26461E+06     10.3484E+06     1.75081E+06
            1439     131.101E-03     7.31311E-03     130.897E-03     621.651E-03    -308.896E-03    -312.366E-03    -305.951E-03     618.706E-03    -312.366E-03     104.352E-03     675.801E-03     32.7392E+06     15.9917E+06    -1.19225E+06    -21.7518E+06    -21.4926E+06    -1.45142E+06     15.9917E+06     1.81132E+06
            1440     131.234E-03     8.05048E-03     130.987E-03     619.831E-03    -309.775E-03    -312.672E-03    -306.063E-03     616.119E-03    -312.672E-03     117.039E-03     682.227E-03     33.0761E+06     19.9551E+06     3.95731E+06    -18.0030E+06    -17.7658E+06     3.72007E+06     19.9551E+06     2.08644E+06
            1441     131.314E-03     8.79981E-03     131.019E-03     620.433E-03    -310.049E-03    -312.545E-03    -306.852E-03     615.964E-03    -311.273E-03     128.671E-03     689.959E-03     32.6981E+06     22.3739E+06     6.38399E+06    -15.1540E+06    -15.0116E+06     6.24153E+06     22.3739E+06     1.49200E+06
            1442     131.668E-03     9.51321E-03     131.324E-03     623.943E-03    -310.569E-03    -313.665E-03    -308.577E-03     618.854E-03    -310.569E-03     137.715E-03     699.549E-03     30.9286E+06     23.5292E+06     8.33697E+06    -11.9989E+06    -11.8928E+06     8.23086E+06     23.5292E+06     448.324E+03
            1443     131.882E-03     10.2500E-03     131.484E-03     624.779E-03    -311.006E-03    -314.979E-03    -308.588E-03     618.389E-03    -311.006E-03     153.974E-03     714.276E-03     30.5271E+06     25.3594E+06     13.2596E+06    -9.30640E+06    -9.10592E+06     13.0591E+06     25.3594E+06     879.391E+03
            1444     132.145E-03     11.0023E-03     131.686E-03     626.725E-03    -311.065E-03    -315.842E-03    -308.899E-03     619.782E-03    -311.065E-03     161.095E-03     724.285E-03     31.4065E+06     28.7375E+06     14.3871E+06    -7.08877E+06    -6.86199E+06     14.1603E+06     28.7375E+06     1.45042E+06
            1445     132.534E-03     11.7221E-03     132.014E-03     634.786E-03    -311.615E-03    -322.823E-03    -312.142E-03     624.105E-03    -311.615E-03     197.226E-03     754.709E-03     32.3259E+06     32.4415E+06     13.8166E+06    -4.81073E+06    -4.64257E+06     13.6484E+06     32.4415E+06     762.326E+03
            1446     132.952E-03     12.4566E-03     132.368E-03     634.429E-03    -311.091E-03    -322.644E-03    -312.595E-03     624.380E-03    -311.091E-03     189.203E-03     747.980E-03     33.2611E+06     36.0851E+06     15.4500E+06    -2.20872E+06    -2.08192E+06     15.3232E+06     36.0851E+06     116.325E+03
            1447     132.429E-03     731.965E-06     132.427E-03     627.344E-03    -313.425E-03    -313.970E-03    -313.451E-03     627.340E-03    -313.939E-03     3.23431E-03     629.045E-03     7.49534E+06    -51.2348E+06    -55.4227E+06    -59.2973E+06    -57.0919E+06    -54.7234E+06    -54.1396E+06    -198.941E+03
            1448     132.432E-03     1.46361E-03     132.424E-03     626.785E-03    -313.037E-03    -314.137E-03    -313.019E-03     626.768E-03    -314.137E-03     7.73657E-03     631.853E-03     6.06560E+06    -48.3477E+06    -49.8758E+06    -54.7665E+06    -54.4399E+06    -49.2194E+06    -49.3308E+06     12.8721E+03
            1449     132.415E-03     2.19381E-03     132.397E-03     625.080E-03    -311.843E-03    -313.890E-03    -311.789E-03     625.027E-03    -313.890E-03     13.7098E-03     635.202E-03     9.31847E+06    -40.2483E+06    -42.4727E+06    -50.4395E+06    -50.3313E+06    -42.5809E+06    -40.2483E+06     487.025E+03
            1450     132.404E-03     2.92599E-03     132.372E-03     622.229E-03    -310.591E-03    -313.540E-03    -310.435E-03     622.073E-03    -313.540E-03     23.3827E-03     639.429E-03     13.8864E+06    -31.1688E+06    -35.7902E+06    -46.7528E+06    -46.5641E+06    -35.9789E+06    -31.1688E+06     1.12509E+06
            1451     132.403E-03     3.65880E-03     132.352E-03     620.893E-03    -310.142E-03    -312.751E-03    -309.776E-03     620.527E-03    -312.751E-03     36.2565E-03     645.428E-03     18.8778E+06    -21.9056E+06    -29.6501E+06    -43.4119E+06    -43.1868E+06    -29.8752E+06    -21.9056E+06     1.59265E+06
            1452     132.415E-03     4.39326E-03     132.342E-03     620.726E-03    -309.888E-03    -311.553E-03    -309.162E-03     620.000E-03    -311.553E-03     51.3091E-03     652.444E-03     22.8557E+06    -12.7521E+06    -23.2795E+06    -38.9711E+06    -38.8557E+06    -23.3949E+06    -12.7521E+06     1.21031E+06
            1453     132.453E-03     5.12769E-03     132.354E-03     620.118E-03    -309.548E-03    -310.857E-03    -308.309E-03     618.879E-03    -310.857E-03     67.3486E-03     658.227E-03     26.0086E+06    -4.80495E+06    -17.5108E+06    -34.7196E+06    -34.6092E+06    -17.6212E+06    -4.80495E+06     1.35514E+06
            1454     132.515E-03     5.86417E-03     132.385E-03     618.624E-03    -308.862E-03    -310.284E-03    -307.018E-03     616.780E-03    -310.284E-03     82.2934E-03     664.461E-03     28.3782E+06     1.91148E+06    -11.4689E+06     -30.623E+06    -30.3797E+06    -11.7122E+06     1.91148E+06     1.73123E+06
            1455     132.680E-03     6.59667E-03     132.516E-03     618.844E-03    -307.873E-03    -310.684E-03    -305.433E-03     616.404E-03    -310.684E-03     94.8147E-03     670.498E-03     31.2696E+06     9.86321E+06    -5.14200E+06    -25.9975E+06    -25.4971E+06    -5.64234E+06     9.86321E+06     2.20826E+06
            1456     132.957E-03     7.31516E-03     132.755E-03     621.045E-03    -308.389E-03    -312.343E-03    -305.382E-03     618.038E-03    -312.343E-03     105.438E-03     675.136E-03     33.5674E+06     15.9670E+06    -1.47401E+06    -22.7056E+06    -22.2282E+06    -1.95140E+06     15.9670E+06     2.43446E+06
            1457     133.092E-03     8.05174E-03     132.848E-03     619.397E-03    -309.519E-03    -312.544E-03    -305.811E-03     615.689E-03    -312.544E-03     116.955E-03     681.272E-03     33.9935E+06     19.3812E+06     3.57166E+06    -19.5582E+06    -19.3719E+06     3.38538E+06     19.3812E+06     1.83358E+06
            1458     133.176E-03     8.79908E-03     132.885E-03     620.517E-03    -310.033E-03    -312.638E-03    -307.065E-03     616.097E-03    -311.187E-03     127.990E-03     689.512E-03     32.7491E+06     21.7762E+06     8.04716E+06    -15.5544E+06    -15.4674E+06     7.96012E+06     21.7762E+06     1.30893E+06
            1459     133.528E-03     9.51525E-03     133.189E-03     623.653E-03    -310.505E-03    -313.453E-03    -308.500E-03     618.699E-03    -310.505E-03     135.849E-03     699.428E-03     31.9970E+06     23.3547E+06     8.97134E+06    -13.2397E+06    -13.0160E+06     8.74762E+06     23.3547E+06     1.08622E+06
            1460     133.739E-03     10.2505E-03     133.346E-03     624.052E-03    -310.909E-03    -314.530E-03    -308.164E-03     617.686E-03    -310.909E-03     153.388E-03     713.929E-03     32.6635E+06     26.0704E+06     12.9440E+06    -11.0290E+06    -10.6546E+06     12.5697E+06     26.0704E+06     783.292E+03
            1461     134.002E-03     11.0003E-03     133.549E-03     625.467E-03    -310.936E-03    -315.159E-03    -308.117E-03     618.424E-03    -310.936E-03     162.053E-03     723.518E-03     32.3208E+06     29.5049E+06     14.7279E+06    -7.34496E+06    -7.12659E+06     14.5095E+06     29.5049E+06     458.885E+03
            1462     134.390E-03     11.7247E-03     133.878E-03     633.581E-03    -311.424E-03    -321.922E-03    -311.184E-03     622.844E-03    -311.424E-03     197.595E-03     753.885E-03     32.8904E+06     33.3840E+06     14.5976E+06    -4.55676E+06    -4.46492E+06     14.5057E+06     33.3840E+06     388.497E+03
            1463     134.806E-03     12.4627E-03     134.228E-03     634.929E-03    -310.958E-03    -323.184E-03    -313.110E-03     624.856E-03    -310.958E-03     189.445E-03     748.585E-03     34.3393E+06     37.1154E+06     16.1195E+06    -2.44806E+06    -2.32455E+06     15.9960E+06     37.1154E+06     187.837E+03
            1464     134.273E-03     732.279E-06     134.271E-03     627.710E-03    -313.190E-03    -314.577E-03    -314.106E-03     627.707E-03    -313.659E-03     2.77349E-03     629.441E-03     7.16523E+06    -53.0330E+06    -57.1745E+06    -60.7401E+06    -58.5173E+06    -56.3555E+06    -56.0749E+06     515.344E+03
            1465     134.275E-03     1.46291E-03     134.267E-03     626.629E-03    -312.757E-03    -314.295E-03    -312.743E-03     626.614E-03    -314.295E-03     6.75994E-03     631.659E-03     6.60726E+06    -49.7913E+06    -51.2970E+06    -56.7279E+06    -56.2437E+06    -50.6610E+06    -50.9114E+06     842.409E+03
            1466     134.263E-03     2.19513E-03     134.245E-03     624.157E-03    -310.981E-03    -313.796E-03    -310.931E-03     624.107E-03    -313.796E-03     13.0836E-03     634.186E-03     9.98930E+06    -42.3167E+06    -44.2388E+06    -53.0947E+06    -52.7773E+06    -44.5562E+06    -42.3167E+06     902.672E+03
            1467     134.252E-03     2.92755E-03     134.220E-03     621.932E-03    -310.483E-03    -313.341E-03    -310.328E-03     621.776E-03    -313.341E-03     23.2175E-03     639.150E-03     15.2557E+06    -32.4797E+06    -37.6965E+06    -49.6150E+06    -49.2824E+06    -38.0292E+06    -32.4797E+06     1.41295E+06
            1468     134.257E-03     3.66008E-03     134.207E-03     621.509E-03    -310.884E-03    -312.635E-03    -310.506E-03     621.131E-03    -312.635E-03     36.8514E-03     645.896E-03     19.9513E+06    -21.6953E+06    -30.2094E+06    -44.4799E+06    -44.3036E+06    -30.3857E+06    -21.6953E+06     1.41374E+06
            1469     134.273E-03     4.39147E-03     134.201E-03     621.288E-03    -310.387E-03    -311.515E-03    -309.636E-03     620.537E-03    -311.515E-03     52.2302E-03     652.954E-03     23.5922E+06    -12.7599E+06    -23.8911E+06    -39.8517E+06    -39.6981E+06    -24.0446E+06    -12.7599E+06     1.48109E+06
            1470     134.315E-03     5.12693E-03     134.217E-03     619.570E-03    -309.124E-03    -310.796E-03    -307.842E-03     618.289E-03    -310.796E-03     68.4607E-03     657.961E-03     27.7351E+06    -4.08652E+06    -18.2090E+06    -36.0360E+06    -35.9198E+06    -18.3252E+06    -4.08652E+06     1.38624E+06
            1471     134.381E-03     5.86656E-03     134.253E-03     617.497E-03    -307.915E-03    -310.189E-03    -306.030E-03     615.612E-03    -310.189E-03     83.1518E-03     663.559E-03     30.8248E+06     4.55723E+06    -11.8709E+06    -30.9986E+06    -30.8376E+06    -12.0319E+06     4.55723E+06     1.35511E+06
            1472     134.541E-03     6.59826E-03     134.379E-03     618.558E-03    -307.739E-03    -310.655E-03    -305.287E-03     616.106E-03    -310.655E-03     95.0439E-03     670.206E-03     31.6215E+06     9.20735E+06    -7.28346E+06    -27.2285E+06    -26.7831E+06    -7.72881E+06     9.20735E+06     2.03159E+06
            1473     134.815E-03     7.31665E-03     134.616E-03     621.635E-03    -309.279E-03    -312.356E-03    -306.329E-03     618.684E-03    -312.356E-03     104.571E-03     675.976E-03     32.7964E+06     14.3986E+06    -1.47304E+06    -23.2409E+06    -22.8599E+06    -1.85408E+06     14.3986E+06     2.07818E+06
            1474     134.947E-03     8.05158E-03     134.707E-03     619.975E-03    -310.239E-03    -312.618E-03    -306.640E-03     616.376E-03    -312.618E-03     115.282E-03     682.209E-03     34.2635E+06     20.2387E+06     3.82698E+06    -19.0600E+06    -18.9618E+06     3.72880E+06     20.2387E+06     1.47465E+06
            1475     135.036E-03     8.79876E-03     134.749E-03     619.684E-03    -309.630E-03    -311.877E-03    -305.858E-03     615.324E-03    -311.288E-03     126.943E-03     688.498E-03     33.8413E+06     23.1987E+06     8.25758E+06    -15.4728E+06    -15.3930E+06     8.17773E+06     23.1987E+06     1.29703E+06
            1476     135.385E-03     9.51409E-03     135.050E-03     622.160E-03    -309.931E-03    -312.091E-03    -306.497E-03     617.166E-03    -310.532E-03     136.120E-03     697.817E-03     33.0027E+06     25.7915E+06     10.4644E+06    -11.9952E+06    -11.8053E+06     10.2745E+06     25.7915E+06     1.69920E+06
            1477     135.592E-03     10.2517E-03     135.204E-03     623.660E-03    -310.784E-03    -314.063E-03    -307.581E-03     617.178E-03    -310.784E-03     154.696E-03     713.420E-03     32.8915E+06     27.7938E+06     13.1317E+06    -9.74195E+06    -9.49983E+06     12.8896E+06     27.7938E+06     905.360E+03
            1478     135.842E-03     11.0054E-03     135.395E-03     624.929E-03    -310.752E-03    -315.047E-03    -307.988E-03     617.870E-03    -310.752E-03     162.139E-03     723.101E-03     33.3344E+06     30.4098E+06     14.8874E+06    -7.64445E+06    -7.52093E+06     14.7639E+06     30.4098E+06    -260.484E+03
            1479     136.225E-03     11.7287E-03     135.719E-03     633.349E-03    -311.285E-03    -322.143E-03    -311.674E-03     622.880E-03    -311.285E-03     195.288E-03     753.755E-03     34.6046E+06     34.9841E+06     15.0276E+06    -4.94605E+06    -4.86487E+06     14.9465E+06     34.9841E+06     46.2923E+03
            1480     136.652E-03     12.4626E-03     136.083E-03     635.567E-03    -310.906E-03    -323.916E-03    -314.140E-03     625.791E-03    -310.906E-03     186.783E-03     749.118E-03     35.9391E+06     38.7369E+06     16.1490E+06    -2.62224E+06    -2.55396E+06     16.0807E+06     38.7369E+06     265.611E+03
            1481     136.113E-03     730.835E-06     136.111E-03     629.052E-03    -313.556E-03    -315.428E-03    -314.473E-03     629.050E-03    -314.509E-03     1.53145E-03     630.789E-03     7.78088E+06    -54.8699E+06    -59.2865E+06    -63.6250E+06    -59.7916E+06    -58.5995E+06    -59.3903E+06     834.802E+03
            1482     136.118E-03     1.46207E-03     136.110E-03     626.780E-03    -312.477E-03    -314.754E-03    -312.468E-03     626.772E-03    -314.754E-03     5.32651E-03     631.823E-03     6.78531E+06    -51.2393E+06    -53.1131E+06    -58.5084E+06    -57.9829E+06    -52.3335E+06    -52.5444E+06     990.028E+03
            1483     136.104E-03     2.19436E-03     136.087E-03     624.257E-03    -310.812E-03    -314.008E-03    -310.769E-03     624.214E-03    -314.008E-03     11.8012E-03     634.250E-03     11.6457E+06    -43.3831E+06    -46.1880E+06    -56.1434E+06    -55.6947E+06    -46.6368E+06    -43.3831E+06     620.159E+03
            1484     136.104E-03     2.92710E-03     136.072E-03     622.247E-03    -310.573E-03    -313.455E-03    -310.424E-03     622.098E-03    -313.455E-03     22.6972E-03     639.107E-03     16.7620E+06    -32.5246E+06    -38.6288E+06    -51.4582E+06    -51.0539E+06    -39.0331E+06    -32.5246E+06     959.737E+03
            1485     136.111E-03     3.65910E-03     136.061E-03     621.100E-03    -310.274E-03    -312.713E-03    -309.892E-03     620.718E-03    -312.713E-03     36.9082E-03     645.146E-03     21.0937E+06    -22.2929E+06    -31.4236E+06    -46.4088E+06    -46.1207E+06    -31.7116E+06    -22.2929E+06     1.78407E+06
            1486     136.135E-03     4.39390E-03     136.064E-03     620.584E-03    -309.435E-03    -311.416E-03    -308.669E-03     619.817E-03    -311.416E-03     52.7637E-03     652.002E-03     24.9019E+06    -13.3796E+06    -25.0654E+06    -41.9686E+06    -41.5841E+06    -25.4499E+06    -13.3796E+06     2.30539E+06
            1487     136.178E-03     5.12873E-03     136.082E-03     619.443E-03    -309.222E-03    -310.709E-03    -307.995E-03     618.173E-03    -310.667E-03     68.2217E-03     657.642E-03     28.8309E+06    -4.16884E+06    -17.7432E+06    -37.2381E+06    -36.9881E+06    -17.9932E+06    -4.16884E+06     2.03429E+06
            1488     136.241E-03     5.86581E-03     136.115E-03     618.053E-03    -308.636E-03    -310.228E-03    -306.856E-03     616.230E-03    -310.185E-03     81.8712E-03     664.110E-03     32.4229E+06     4.00326E+06    -12.3468E+06    -33.2646E+06    -33.0470E+06    -12.5644E+06     4.00326E+06     1.26650E+06
            1489     136.401E-03     6.59812E-03     136.241E-03     619.596E-03    -308.401E-03    -310.737E-03    -306.038E-03     617.233E-03    -310.737E-03     93.3837E-03     671.036E-03     32.5204E+06     9.26515E+06    -8.38992E+06    -28.2627E+06    -28.0904E+06    -8.56223E+06     9.26515E+06     764.486E+03
            1490     136.681E-03     7.31422E-03     136.486E-03     622.158E-03    -309.481E-03    -312.527E-03    -306.546E-03     619.222E-03    -312.527E-03     104.262E-03     676.141E-03     33.3985E+06     14.5996E+06    -1.45324E+06    -23.7330E+06    -23.6715E+06    -1.51474E+06     14.5996E+06     635.232E+03
            1491     136.816E-03     8.04916E-03     136.579E-03     619.753E-03    -309.669E-03    -312.752E-03    -305.948E-03     616.031E-03    -312.752E-03     117.077E-03     682.281E-03     35.5459E+06     21.3856E+06     3.91937E+06    -19.4347E+06    -19.3418E+06     3.82649E+06     21.3856E+06     1.09830E+06
            1492     136.901E-03     8.79484E-03     136.618E-03     619.091E-03    -309.220E-03    -311.368E-03    -304.767E-03     614.588E-03    -311.318E-03     128.887E-03     688.539E-03     34.4068E+06     23.9382E+06     7.79630E+06    -15.4423E+06    -15.3493E+06     7.70331E+06     23.9382E+06     1.23501E+06
            1493     137.249E-03     9.51806E-03     136.919E-03     621.948E-03    -309.919E-03    -311.632E-03    -305.961E-03     616.878E-03    -310.520E-03     137.123E-03     697.425E-03     33.2541E+06     25.2602E+06     9.81613E+06    -12.7877E+06    -12.6866E+06     9.71497E+06     25.2602E+06     1.20783E+06
            1494     137.457E-03     10.2547E-03     137.074E-03     623.691E-03    -310.736E-03    -313.964E-03    -307.625E-03     617.353E-03    -310.736E-03     153.142E-03     713.090E-03     33.8346E+06     28.6507E+06     13.1736E+06    -10.0235E+06    -9.92590E+06     13.0760E+06     28.6507E+06     1.27338E+06
            1495     137.713E-03     11.0052E-03     137.273E-03     625.167E-03    -310.731E-03    -315.383E-03    -308.538E-03     618.322E-03    -310.731E-03     159.759E-03     723.213E-03     34.7541E+06     32.4685E+06     15.9041E+06    -7.27041E+06    -7.17434E+06     15.8080E+06     32.4685E+06     660.285E+03
            1496     138.093E-03     11.7271E-03     137.594E-03     634.162E-03    -311.331E-03    -323.084E-03    -312.727E-03     623.805E-03    -311.331E-03     194.391E-03     754.272E-03     36.1620E+06     36.7077E+06     15.5690E+06    -5.01234E+06    -4.89890E+06     15.4555E+06     36.7077E+06     291.367E+03
            1497     138.519E-03     12.4603E-03     137.957E-03     635.611E-03    -310.956E-03    -323.937E-03    -314.194E-03     625.867E-03    -310.956E-03     186.765E-03     748.981E-03     37.5362E+06     40.5487E+06     16.6725E+06    -2.62993E+06    -2.56383E+06     16.6064E+06     40.5487E+06     254.762E+03
            1498     137.980E-03     730.084E-06     137.978E-03     628.971E-03    -313.884E-03    -314.989E-03    -313.880E-03     628.966E-03    -314.989E-03     3.00444E-03     630.718E-03     6.91526E+06    -56.3500E+06    -59.5808E+06    -64.1095E+06    -60.6609E+06    -59.2905E+06    -60.0890E+06     18.8247E+03
            1499     137.974E-03     1.46144E-03     137.967E-03     627.535E-03    -313.078E-03    -314.793E-03    -313.069E-03     627.526E-03    -314.793E-03     5.50987E-03     632.559E-03     6.05305E+06    -53.0129E+06    -54.0784E+06    -59.5111E+06    -59.3592E+06    -53.5536E+06    -53.6897E+06     151.755E+03
            1500     137.956E-03     2.19371E-03     137.939E-03     625.833E-03    -311.784E-03    -314.340E-03    -311.741E-03     625.790E-03    -314.340E-03     11.8590E-03     635.778E-03     10.6627E+06    -45.1224E+06    -47.3724E+06    -56.7070E+06    -56.2199E+06    -47.7064E+06    -45.2756E+06     548.680E+03
            1501     137.956E-03     2.92522E-03     137.925E-03     622.934E-03    -310.613E-03    -313.888E-03    -310.471E-03     622.792E-03    -313.888E-03     22.2601E-03     639.834E-03     15.9851E+06    -35.3843E+06    -40.8624E+06    -53.3370E+06    -52.8958E+06    -41.3036E+06    -35.3843E+06     1.03673E+06
            1502     137.969E-03     3.65937E-03     137.920E-03     620.581E-03    -309.455E-03    -313.015E-03    -309.107E-03     620.233E-03    -313.015E-03     35.2324E-03     644.845E-03     21.0592E+06    -24.1250E+06    -33.2272E+06    -48.1984E+06    -47.8970E+06    -33.5286E+06    -24.1250E+06     1.87321E+06
            1503     137.994E-03     4.39359E-03     137.924E-03     619.813E-03    -308.617E-03    -311.530E-03    -307.919E-03     619.115E-03    -311.530E-03     50.2570E-03     651.209E-03     25.5047E+06    -13.7926E+06    -25.7911E+06    -43.0780E+06    -42.7309E+06    -26.1383E+06    -13.7926E+06     2.07532E+06
            1504     138.038E-03     5.12979E-03     137.942E-03     619.186E-03    -308.680E-03    -310.711E-03    -307.510E-03     617.974E-03    -310.669E-03     66.4772E-03     657.136E-03     29.4954E+06    -4.24277E+06    -18.1503E+06    -38.0766E+06    -37.8684E+06    -18.3586E+06    -4.24277E+06     1.75314E+06
            1505     138.103E-03     5.86633E-03     137.978E-03     618.599E-03    -308.960E-03    -310.255E-03    -307.137E-03     616.733E-03    -310.212E-03     82.7129E-03     664.664E-03     32.7341E+06     4.92652E+06    -11.3597E+06    -32.6910E+06    -32.5257E+06    -11.5250E+06     4.92652E+06     1.06612E+06
            1506     138.263E-03     6.59516E-03     138.105E-03     619.987E-03    -308.812E-03    -310.809E-03    -306.340E-03     617.516E-03    -310.809E-03     95.5325E-03     671.671E-03     33.4879E+06     10.2718E+06    -7.78607E+06    -28.3660E+06    -28.2377E+06    -7.91440E+06     10.2718E+06     508.034E+03
            1507     138.538E-03     7.31342E-03     138.345E-03     621.429E-03    -308.640E-03    -312.467E-03    -305.581E-03     618.370E-03    -312.467E-03     106.316E-03     675.374E-03     35.6034E+06     16.3629E+06    -2.40883E+06    -24.6766E+06    -24.5973E+06    -2.48808E+06     16.3629E+06     603.190E+03
            1508     138.677E-03     8.05262E-03     138.443E-03     619.049E-03    -309.021E-03    -312.567E-03    -305.200E-03     615.228E-03    -312.567E-03     118.623E-03     681.068E-03     38.0155E+06     22.9823E+06     4.24368E+06    -20.6799E+06    -20.5923E+06     4.15613E+06     22.9823E+06     525.475E+03
            1509     138.767E-03     8.80178E-03     138.488E-03     619.750E-03    -309.841E-03    -311.690E-03    -305.871E-03     615.263E-03    -311.172E-03     128.822E-03     689.136E-03     36.3950E+06     24.1404E+06     7.04362E+06    -17.4968E+06    -17.4154E+06     6.96220E+06     24.1404E+06     610.899E+03
            1510     139.115E-03     9.51483E-03     138.790E-03     623.074E-03    -310.489E-03    -312.544E-03    -307.549E-03     618.080E-03    -310.489E-03     136.289E-03     698.842E-03     34.7450E+06     25.1806E+06     8.74629E+06    -14.6032E+06    -14.4934E+06     8.63646E+06     25.1806E+06      732.33E+03
            1511     139.326E-03     10.2503E-03     138.949E-03     624.178E-03    -310.836E-03    -314.490E-03    -308.243E-03     617.931E-03    -310.836E-03     152.153E-03     713.798E-03     34.6664E+06     28.6742E+06     13.8031E+06    -10.8719E+06    -10.7302E+06     13.6614E+06     28.6742E+06     1.02799E+06
            1512     139.572E-03     11.0033E-03     139.137E-03     625.401E-03    -310.840E-03    -315.570E-03    -308.753E-03     618.584E-03    -310.840E-03     159.520E-03     723.576E-03     35.4902E+06     32.5928E+06     16.5053E+06    -7.99005E+06    -7.87144E+06     16.3867E+06     32.5928E+06     1.35091E+06
            1513     139.960E-03     11.7256E-03     139.468E-03     633.742E-03    -311.417E-03    -322.588E-03    -312.189E-03     623.343E-03    -311.417E-03     194.724E-03     754.035E-03     36.9591E+06     37.2576E+06     16.5048E+06    -5.35690E+06    -5.28686E+06     16.4348E+06     37.2576E+06     522.789E+03
            1514     140.384E-03     12.4592E-03     139.830E-03     634.576E-03    -311.005E-03    -322.876E-03    -313.067E-03     624.768E-03    -311.005E-03     187.348E-03     748.116E-03     37.6535E+06     40.8584E+06     16.7613E+06    -2.45808E+06    -2.40169E+06     16.7050E+06     40.8584E+06    -81.7043E+03
            1515     139.847E-03     732.927E-06     139.845E-03     627.207E-03    -313.172E-03    -313.950E-03    -313.556E-03     627.202E-03    -313.561E-03     2.85248E-03     628.918E-03     5.40389E+06     -59.103E+06    -62.0509E+06    -65.1731E+06    -63.5586E+06    -61.3765E+06    -61.3919E+06     315.476E+03
            1516     139.840E-03     1.46303E-03     139.833E-03     627.735E-03    -313.711E-03    -314.253E-03    -313.729E-03     627.720E-03    -314.221E-03     6.70360E-03     632.797E-03     5.86037E+06    -54.4025E+06    -56.0288E+06    -60.7899E+06    -60.5342E+06    -55.0190E+06    -55.6681E+06     451.861E+03
            1517     139.827E-03     2.19222E-03     139.810E-03     626.825E-03    -312.849E-03    -314.344E-03    -312.787E-03     626.764E-03    -314.344E-03     14.3069E-03     636.819E-03     10.6919E+06    -46.6310E+06    -49.0583E+06    -58.2905E+06    -57.9331E+06    -49.2626E+06    -46.7842E+06     1.16471E+06
            1518     139.826E-03     2.92380E-03     139.795E-03     623.862E-03    -311.400E-03    -314.179E-03    -311.239E-03     623.701E-03    -314.179E-03     23.9076E-03     641.023E-03     16.8066E+06    -35.3248E+06    -41.4840E+06    -54.2820E+06    -53.9832E+06    -41.7828E+06    -35.3248E+06     1.28924E+06
            1519     139.838E-03     3.65589E-03     139.790E-03     621.220E-03    -309.817E-03    -313.344E-03    -309.456E-03     620.859E-03    -313.344E-03     35.8895E-03     645.731E-03     21.4694E+06    -25.1284E+06    -34.7072E+06    -49.7173E+06    -49.6419E+06    -34.7826E+06    -25.1284E+06     841.073E+03
            1520     139.864E-03     4.39027E-03     139.795E-03     619.724E-03    -308.301E-03    -311.828E-03    -307.590E-03     619.013E-03    -311.828E-03     50.7246E-03     651.128E-03     25.0167E+06    -15.6970E+06    -26.5887E+06    -44.2558E+06    -44.1727E+06    -26.6718E+06    -15.6970E+06     1.15910E+06
            1521     139.904E-03     5.12725E-03     139.810E-03     618.854E-03    -307.531E-03    -310.859E-03    -306.302E-03     617.626E-03    -310.859E-03     66.8701E-03     656.767E-03     29.1013E+06    -5.02277E+06    -17.6425E+06    -38.2000E+06    -38.1572E+06    -17.6853E+06    -5.02277E+06     768.199E+03
            1522     139.969E-03     5.86728E-03     139.846E-03     617.593E-03    -307.655E-03    -310.267E-03    -305.774E-03     615.712E-03    -310.267E-03     82.9773E-03     663.830E-03     33.2696E+06     4.93291E+06    -11.6082E+06    -33.2823E+06    -33.2030E+06    -11.6875E+06     4.93291E+06     867.527E+03
            1523     140.135E-03     6.59978E-03     139.979E-03     618.469E-03    -307.845E-03    -310.749E-03    -305.392E-03     616.016E-03    -310.749E-03     95.0671E-03     670.733E-03     35.2494E+06     11.3830E+06    -7.70230E+06    -29.2901E+06    -29.1663E+06    -7.82614E+06     11.3830E+06     1.05102E+06
            1524     140.402E-03     7.31851E-03     140.212E-03     621.191E-03    -308.887E-03    -312.233E-03    -305.886E-03     618.190E-03    -312.233E-03     105.296E-03     675.689E-03     37.2838E+06     17.8902E+06    -2.83993E+06    -25.1440E+06    -25.0487E+06    -2.93521E+06     17.8902E+06     830.711E+03
            1525     140.538E-03     8.05344E-03     140.307E-03     619.716E-03    -310.335E-03    -312.421E-03    -306.629E-03     616.010E-03    -312.421E-03     117.019E-03     681.791E-03     39.5008E+06     24.0515E+06     3.34524E+06    -21.3825E+06    -21.2655E+06     3.22821E+06     24.0515E+06     811.123E+03
            1526     140.627E-03     8.79708E-03     140.351E-03     620.159E-03    -310.441E-03    -312.036E-03    -306.883E-03     615.741E-03    -311.177E-03     127.886E-03     689.474E-03     39.1537E+06     27.2635E+06     6.52279E+06    -17.7706E+06    -17.6564E+06     6.40858E+06     27.2635E+06     898.052E+03
            1527     140.977E-03     9.51611E-03     140.655E-03     623.671E-03    -310.501E-03    -313.190E-03    -308.181E-03     618.662E-03    -310.501E-03     136.579E-03     699.369E-03     37.5334E+06     29.2728E+06       9.336E+06    -13.9382E+06    -13.7245E+06     9.12225E+06     29.2728E+06     1.23281E+06
            1528     141.182E-03     10.2524E-03     140.809E-03     624.914E-03    -310.940E-03    -315.040E-03    -308.739E-03     618.613E-03    -310.940E-03     152.872E-03     714.450E-03     36.3045E+06     30.2292E+06     14.3635E+06    -11.2394E+06    -10.9793E+06     14.1034E+06     30.2292E+06     1.04904E+06
            1529     141.436E-03     11.0017E-03     141.007E-03     625.161E-03    -310.922E-03    -315.327E-03    -308.401E-03     618.234E-03    -310.922E-03     160.756E-03     723.249E-03     36.3789E+06     33.3665E+06     16.5533E+06    -8.27764E+06    -8.14960E+06     16.4252E+06     33.3665E+06     928.266E+03
            1530     141.826E-03     11.7237E-03     141.341E-03     632.844E-03    -311.444E-03    -321.626E-03    -311.082E-03     622.300E-03    -311.444E-03     195.922E-03     753.033E-03     36.9459E+06     37.6414E+06     16.8145E+06    -4.95982E+06    -4.90974E+06     16.7644E+06     37.6414E+06     665.712E+03
            1531     142.248E-03     12.4601E-03     141.701E-03     634.170E-03    -311.003E-03    -322.359E-03    -312.449E-03     624.259E-03    -311.003E-03     188.134E-03     747.639E-03     38.4088E+06     41.9495E+06     17.2623E+06    -2.22614E+06    -2.17162E+06     17.2078E+06     41.9495E+06     200.342E+03
            1532     141.720E-03     731.976E-06     141.718E-03     626.451E-03    -312.720E-03    -313.609E-03    -313.106E-03     626.449E-03    -313.221E-03     1.78461E-03     628.192E-03     6.19347E+06    -63.0479E+06    -65.3537E+06    -69.7061E+06    -67.8405E+06    -65.1256E+06    -65.1416E+06     1.02330E+06
            1533     141.711E-03     1.46391E-03     141.704E-03     626.879E-03    -313.226E-03    -313.883E-03    -313.244E-03     626.864E-03    -313.851E-03     6.57660E-03     631.975E-03     7.69327E+06    -57.0277E+06    -58.8854E+06    -65.3671E+06    -65.0452E+06    -58.2900E+06    -57.9450E+06     1.39965E+06
            1534     141.696E-03     2.19586E-03     141.679E-03     626.155E-03    -312.559E-03    -314.011E-03    -312.492E-03     626.089E-03    -314.011E-03     14.8937E-03     636.178E-03     12.2808E+06    -47.1385E+06    -50.4197E+06    -60.7000E+06    -60.5455E+06    -50.5742E+06    -47.1385E+06     1.20286E+06
            1535     141.697E-03     2.92562E-03     141.666E-03     623.672E-03    -311.564E-03    -313.933E-03    -311.371E-03     623.479E-03    -313.933E-03     26.0818E-03     640.556E-03     17.1553E+06    -35.6411E+06    -42.0535E+06    -55.0615E+06    -54.8721E+06    -42.2430E+06    -35.6411E+06     1.20006E+06
            1536     141.703E-03     3.65704E-03     141.656E-03     621.759E-03    -310.573E-03    -313.248E-03    -310.153E-03     621.339E-03    -313.248E-03     38.9740E-03     645.834E-03     23.0217E+06    -23.9787E+06    -34.4036E+06    -50.3434E+06    -50.1563E+06    -34.5907E+06    -23.9787E+06     1.29427E+06
            1537     141.731E-03     4.39168E-03     141.663E-03     620.505E-03    -309.156E-03    -311.801E-03    -308.392E-03     619.740E-03    -311.801E-03     52.8014E-03     652.038E-03     27.2936E+06    -14.4566E+06    -26.8515E+06    -45.6706E+06    -45.5942E+06    -26.9279E+06    -14.4566E+06     976.484E+03
            1538     141.771E-03     5.12809E-03     141.679E-03     619.281E-03    -308.157E-03    -310.927E-03    -306.908E-03     618.032E-03    -310.927E-03     67.5939E-03     657.474E-03     30.9453E+06    -5.74251E+06    -17.4321E+06    -40.7376E+06    -40.6480E+06    -17.5217E+06    -5.74251E+06     1.02507E+06
            1539     141.836E-03     5.86544E-03     141.715E-03     616.826E-03    -307.164E-03    -310.304E-03    -305.330E-03     614.993E-03    -310.304E-03     81.9487E-03     663.098E-03     35.3311E+06     3.78726E+06    -12.2451E+06    -36.5061E+06    -36.4106E+06    -12.3405E+06     3.78726E+06     1.15918E+06
            1540     141.992E-03     6.59808E-03     141.838E-03     617.668E-03    -307.121E-03    -310.656E-03    -304.762E-03     615.309E-03    -310.656E-03     93.1919E-03     669.567E-03     37.1312E+06     11.0808E+06    -9.49397E+06    -31.7784E+06    -31.6746E+06    -9.59782E+06     11.0808E+06     632.399E+03
            1541     142.261E-03     7.31779E-03     142.072E-03     621.928E-03    -309.650E-03    -312.115E-03    -306.735E-03     619.014E-03    -312.115E-03     103.880E-03     676.187E-03     39.1932E+06     18.1720E+06    -2.16466E+06    -26.9040E+06    -26.8164E+06    -2.25229E+06     18.1720E+06     451.331E+03
            1542     142.402E-03     8.05216E-03     142.175E-03     620.381E-03    -310.869E-03    -312.423E-03    -307.218E-03     616.730E-03    -312.423E-03     116.187E-03     682.588E-03     41.3379E+06     25.1360E+06     3.20197E+06    -22.4273E+06    -22.3365E+06     3.11120E+06     25.1360E+06     648.195E+03
            1543     142.494E-03     8.79970E-03     142.222E-03     620.099E-03    -310.291E-03    -311.712E-03    -306.300E-03     615.683E-03    -311.288E-03     127.808E-03     689.142E-03     40.6867E+06     28.9600E+06     5.59413E+06    -18.0164E+06    -17.9171E+06      5.4948E+06     28.9600E+06     794.689E+03
            1544     142.846E-03     9.51610E-03     142.528E-03     623.206E-03    -310.582E-03    -312.339E-03    -307.319E-03     618.187E-03    -310.582E-03     136.629E-03     698.486E-03     39.0989E+06     30.7012E+06     8.40905E+06    -14.4335E+06    -14.2194E+06     8.19495E+06     30.7012E+06     1.00932E+06
            1545     143.054E-03     10.2500E-03     142.687E-03     624.542E-03    -310.961E-03    -314.545E-03    -308.120E-03     618.117E-03    -310.961E-03     154.156E-03     713.917E-03     37.6040E+06     32.2965E+06     14.2952E+06    -10.7802E+06    -10.4595E+06     13.9745E+06     32.2965E+06     1.12843E+06
            1546     143.293E-03     11.0027E-03     142.870E-03     625.171E-03    -310.868E-03    -315.110E-03    -308.024E-03     618.086E-03    -310.868E-03     162.510E-03     723.015E-03     37.6884E+06     35.5482E+06     17.7872E+06    -7.62156E+06    -7.44880E+06     17.6144E+06     35.5482E+06     869.428E+03
            1547     143.677E-03     11.7269E-03     143.198E-03     633.056E-03    -311.372E-03    -321.759E-03    -311.155E-03     622.452E-03    -311.372E-03     196.574E-03     752.802E-03     39.8304E+06     40.3535E+06     17.2863E+06    -5.60339E+06    -5.49590E+06     17.1788E+06     40.3535E+06     839.327E+03
            1548     144.116E-03     12.4612E-03     143.577E-03     634.598E-03    -310.945E-03    -322.716E-03    -312.816E-03     624.698E-03    -310.945E-03     187.931E-03     747.772E-03     42.3005E+06     45.7359E+06     18.0634E+06    -2.87741E+06    -2.75231E+06     17.9383E+06     45.7359E+06     518.889E+03
            1549     143.592E-03     732.098E-06     143.590E-03     626.525E-03    -312.596E-03    -313.830E-03    -313.326E-03     626.523E-03    -313.097E-03     2.75586E-03     628.277E-03     8.17734E+06    -64.5527E+06    -67.7879E+06    -73.4488E+06    -70.0701E+06    -67.1984E+06    -68.5209E+06     17.5991E+03
            1550     143.578E-03     1.46363E-03     143.571E-03     626.720E-03    -313.010E-03    -313.980E-03    -313.073E-03     626.706E-03    -313.904E-03     6.47675E-03     631.793E-03     7.32149E+06    -58.8143E+06    -60.4808E+06    -66.8059E+06    -66.6030E+06    -59.5968E+06    -59.9012E+06     725.741E+03
            1551     143.565E-03     2.19450E-03     143.549E-03     625.269E-03    -311.781E-03    -313.929E-03    -311.732E-03     625.219E-03    -313.929E-03     13.0913E-03     635.463E-03     12.3947E+06    -49.3849E+06    -53.1005E+06    -63.1927E+06    -63.0117E+06    -52.8742E+06    -49.7922E+06     1.31481E+06
            1552     143.562E-03     2.92849E-03     143.532E-03     622.389E-03    -310.582E-03    -313.640E-03    -310.419E-03     622.226E-03    -313.640E-03     23.5349E-03     639.067E-03     19.2212E+06    -37.5015E+06    -44.9464E+06    -59.3057E+06    -59.0732E+06    -45.1789E+06    -37.5015E+06     1.70859E+06
            1553     143.570E-03     3.66211E-03     143.523E-03     621.076E-03    -310.332E-03    -312.917E-03    -309.940E-03     620.684E-03    -312.917E-03     37.4453E-03     644.837E-03     24.9259E+06    -24.7919E+06    -34.4618E+06    -52.9514E+06    -52.7330E+06    -34.6802E+06    -24.7919E+06     1.79203E+06
            1554     143.597E-03     4.39350E-03     143.530E-03     620.891E-03    -310.043E-03    -311.542E-03    -309.269E-03     620.117E-03    -311.542E-03     52.9558E-03     652.637E-03     30.0745E+06    -12.8151E+06    -26.3481E+06    -47.0434E+06    -46.9537E+06    -26.4378E+06    -12.8151E+06     1.14112E+06
            1555     143.637E-03     5.12663E-03     143.545E-03     619.982E-03    -309.211E-03    -310.804E-03    -307.904E-03     618.675E-03    -310.804E-03     69.1654E-03     658.296E-03     34.4361E+06    -2.83613E+06    -19.2598E+06    -42.2455E+06    -42.1371E+06    -19.3682E+06    -2.83613E+06     1.32124E+06
            1556     143.698E-03     5.86512E-03     143.578E-03     618.037E-03    -308.249E-03    -310.272E-03    -306.366E-03     616.154E-03    -310.272E-03     83.1705E-03     664.153E-03     37.3253E+06     6.66938E+06    -11.8749E+06    -36.0980E+06    -35.9428E+06    -12.0301E+06     6.66938E+06     1.87567E+06
            1557     143.851E-03     6.59975E-03     143.700E-03     619.339E-03    -308.341E-03    -310.761E-03    -305.926E-03     616.924E-03    -310.761E-03     94.4232E-03     670.757E-03     38.8127E+06     12.9974E+06    -8.45147E+06    -31.8000E+06    -31.5332E+06    -8.71827E+06     12.9974E+06     1.59472E+06
            1558     144.136E-03     7.31619E-03     143.950E-03     622.509E-03    -309.770E-03    -312.241E-03    -306.826E-03     619.565E-03    -312.241E-03     104.500E-03     676.336E-03     41.4364E+06     19.7244E+06    -1.91123E+06    -27.9374E+06    -27.7325E+06    -2.11612E+06     19.7244E+06     1.11440E+06
            1559     144.270E-03     8.05211E-03     144.045E-03     619.780E-03    -310.158E-03    -312.472E-03    -306.514E-03     616.136E-03    -312.472E-03     115.976E-03     682.095E-03     43.5796E+06     26.6493E+06     3.17872E+06    -23.5021E+06    -23.3954E+06     3.07198E+06     26.6493E+06     906.518E+03
            1560     144.361E-03     8.79653E-03     144.092E-03     619.170E-03    -309.732E-03    -311.386E-03    -305.337E-03     614.741E-03    -311.352E-03     127.844E-03     688.488E-03     42.6530E+06     29.9884E+06     5.15365E+06    -19.2536E+06    -19.1318E+06     5.03180E+06     29.9884E+06     598.215E+03
            1561     144.710E-03     9.51539E-03     144.397E-03     621.840E-03    -310.344E-03    -311.093E-03    -305.751E-03     616.745E-03    -310.592E-03     137.414E-03     697.409E-03     40.5938E+06     31.7645E+06     8.22860E+06    -15.0973E+06    -15.0052E+06     8.13647E+06     31.7645E+06     190.197E+03
            1562     144.911E-03     10.2560E-03     144.548E-03     623.578E-03    -310.856E-03    -313.666E-03    -307.144E-03     617.056E-03    -310.856E-03     155.240E-03     713.117E-03     39.5656E+06     33.1019E+06     13.3353E+06    -12.3197E+06    -12.1377E+06     13.1533E+06     33.1019E+06     697.398E+03
            1563     145.163E-03     11.0065E-03     144.745E-03     625.257E-03    -310.742E-03    -315.414E-03    -308.401E-03     618.244E-03    -310.742E-03     161.650E-03     723.543E-03     40.6018E+06     37.1801E+06     17.2065E+06    -9.42747E+06    -9.12686E+06     16.9058E+06     37.1801E+06     1.54724E+06
            1564     145.545E-03     11.7259E-03     145.072E-03     633.324E-03    -311.247E-03    -322.176E-03    -311.634E-03     622.782E-03    -311.247E-03     195.732E-03     753.573E-03     43.1166E+06     43.7119E+06     19.1688E+06    -6.06153E+06    -5.76622E+06     18.8735E+06     43.7119E+06     949.056E+03
            1565     145.979E-03     12.4610E-03     145.446E-03     634.643E-03    -310.849E-03    -322.634E-03    -312.667E-03     624.676E-03    -310.849E-03     188.598E-03     747.662E-03     45.0847E+06     48.4011E+06     19.3412E+06    -3.41832E+06    -3.23288E+06     19.1557E+06     48.4011E+06     118.331E+03
            1566     145.459E-03     732.825E-06     145.458E-03     626.552E-03    -312.739E-03    -313.733E-03    -313.470E-03     626.549E-03    -313.001E-03     2.26734E-03     628.300E-03     8.38685E+06    -66.5650E+06    -70.6880E+06    -75.5408E+06    -72.2372E+06    -68.9840E+06    -71.5727E+06    -111.656E+03
            1567     145.452E-03     1.46312E-03     145.445E-03     626.758E-03    -312.958E-03    -314.084E-03    -313.020E-03     626.743E-03    -314.008E-03     6.87314E-03     631.852E-03     8.26350E+06    -61.4769E+06    -64.4599E+06    -70.4637E+06    -70.2702E+06    -62.5269E+06    -63.6033E+06     711.882E+03
            1568     145.435E-03     2.19493E-03     145.419E-03     625.343E-03    -311.780E-03    -314.037E-03    -311.731E-03     625.294E-03    -314.037E-03     13.1270E-03     635.597E-03     14.1127E+06    -51.0003E+06    -55.1397E+06    -66.6987E+06    -66.4798E+06    -54.9513E+06    -51.4076E+06     1.50585E+06
            1569     145.433E-03     2.92574E-03     145.403E-03     622.620E-03    -310.646E-03    -313.744E-03    -310.502E-03     622.475E-03    -313.744E-03     22.4371E-03     639.156E-03     20.6185E+06    -37.9747E+06    -46.0015E+06    -61.3703E+06    -61.2383E+06    -46.1335E+06    -37.9747E+06     1.40458E+06
            1570     145.445E-03     3.65881E-03     145.399E-03     620.217E-03    -309.255E-03    -312.981E-03    -308.899E-03     619.862E-03    -312.981E-03     35.5853E-03     643.815E-03     26.8611E+06    -25.7649E+06    -36.3314E+06    -56.1529E+06    -56.0302E+06    -36.4542E+06    -25.7649E+06     1.36878E+06
            1571     145.472E-03     4.39515E-03     145.406E-03     619.500E-03    -308.743E-03    -311.442E-03    -307.988E-03     618.744E-03    -311.442E-03     52.1245E-03     650.810E-03     31.6593E+06    -14.2449E+06    -26.5202E+06    -49.9254E+06    -49.8127E+06    -26.6329E+06    -14.2449E+06     1.46488E+06
            1572     145.512E-03     5.13160E-03     145.421E-03     620.222E-03    -309.488E-03    -310.670E-03    -308.274E-03     618.935E-03    -310.597E-03     68.7118E-03     658.001E-03     35.4679E+06    -3.34460E+06    -20.3180E+06    -43.8912E+06    -43.7412E+06    -20.4680E+06    -3.34460E+06     1.79231E+06
            1573     145.574E-03     5.86790E-03     145.456E-03     619.809E-03    -309.673E-03    -310.447E-03    -308.082E-03     617.941E-03    -310.169E-03     82.9450E-03     665.852E-03     39.6216E+06     6.31410E+06    -14.3717E+06    -39.3405E+06    -39.1930E+06    -14.5193E+06     6.31410E+06     1.77337E+06
            1574     145.729E-03     6.59636E-03     145.579E-03     620.492E-03    -309.096E-03    -311.003E-03    -306.855E-03     618.046E-03    -310.799E-03     95.0968E-03     672.136E-03     42.0253E+06     14.5978E+06    -7.62101E+06    -33.8311E+06    -33.5620E+06    -7.89013E+06     14.5978E+06     2.40163E+06
            1575     146.005E-03     7.31441E-03     145.822E-03     622.036E-03    -309.203E-03    -312.167E-03    -306.165E-03     618.997E-03    -312.167E-03     106.044E-03     675.879E-03     44.1093E+06     21.4172E+06    -1.97739E+06    -29.3702E+06    -29.0178E+06    -2.32980E+06     21.4172E+06     2.74976E+06
            1576     146.138E-03     8.05096E-03     145.916E-03     618.745E-03    -309.497E-03    -312.323E-03    -305.691E-03     614.938E-03    -312.323E-03     118.406E-03     681.388E-03     46.3285E+06     28.2927E+06     4.59465E+06    -24.9670E+06    -24.7357E+06     4.36335E+06     28.2927E+06     2.16267E+06
            1577     146.226E-03     8.79944E-03     145.961E-03     618.451E-03    -309.493E-03    -311.459E-03    -305.128E-03     613.892E-03    -311.264E-03     129.712E-03     688.626E-03     46.0427E+06     32.9229E+06     7.42347E+06    -20.1297E+06    -19.9732E+06     7.26700E+06     32.9229E+06     1.38044E+06
            1578     146.575E-03     9.51844E-03     146.266E-03     621.751E-03    -310.242E-03    -311.437E-03    -306.092E-03     616.654E-03    -310.490E-03     137.495E-03     697.694E-03     44.9052E+06     34.9978E+06     8.08115E+06    -16.8152E+06    -16.6781E+06     7.94402E+06     34.9978E+06     412.444E+03
            1579     146.785E-03     10.2540E-03     146.426E-03     623.276E-03    -310.788E-03    -313.621E-03    -307.207E-03     616.862E-03    -310.788E-03     153.943E-03     712.996E-03     44.1658E+06     38.0066E+06     12.8369E+06    -12.8950E+06    -12.7599E+06     12.7019E+06     38.0066E+06     375.075E+03
            1580     147.027E-03     11.0051E-03     146.615E-03     624.344E-03    -310.705E-03    -314.885E-03    -307.922E-03     617.381E-03    -310.705E-03     160.998E-03     722.718E-03     44.4308E+06     41.6444E+06     16.0187E+06    -9.55287E+06    -9.27779E+06     15.7436E+06     41.6444E+06     1.02188E+06
            1581     147.415E-03     11.7269E-03     146.947E-03     633.047E-03    -311.141E-03    -322.023E-03    -311.393E-03     622.418E-03    -311.141E-03     196.487E-03     753.276E-03     45.6267E+06     46.0857E+06     18.5605E+06    -6.55476E+06    -6.12666E+06     18.1324E+06     46.0857E+06     1.10930E+06
            1582     147.846E-03     12.4629E-03     147.320E-03     635.048E-03    -310.751E-03    -322.958E-03    -312.919E-03     625.010E-03    -310.751E-03     189.271E-03     748.071E-03     46.9958E+06     50.9981E+06     20.9318E+06    -3.08396E+06    -2.81817E+06     20.6661E+06     50.9981E+06     736.640E+03
            1583     147.326E-03     731.308E-06     147.324E-03     627.212E-03    -312.857E-03    -314.334E-03    -312.855E-03     627.209E-03    -314.334E-03     2.27834E-03     628.998E-03     9.04461E+06    -72.4944E+06    -74.6905E+06    -81.8992E+06    -79.1868E+06    -74.0308E+06    -75.8666E+06     1.67231E+06
            1584     147.319E-03     1.46369E-03     147.312E-03     626.794E-03    -312.862E-03    -314.257E-03    -312.850E-03     626.782E-03    -314.257E-03     6.30535E-03     631.870E-03     11.1988E+06    -64.8141E+06    -67.3247E+06    -76.5944E+06    -76.2273E+06    -66.0378E+06    -66.4682E+06     1.78377E+06
            1585     147.295E-03     2.19519E-03     147.278E-03     625.272E-03    -311.714E-03    -314.091E-03    -311.661E-03     625.219E-03    -314.091E-03     13.1994E-03     635.491E-03     16.1484E+06    -53.9696E+06    -56.3522E+06    -71.0910E+06    -70.6948E+06    -56.3849E+06    -54.3331E+06     2.27694E+06
            1586     147.296E-03     2.92700E-03     147.267E-03     622.718E-03    -310.719E-03    -313.784E-03    -310.556E-03     622.555E-03    -313.784E-03     23.9742E-03     639.351E-03     21.8981E+06    -40.9008E+06    -46.7622E+06    -64.9126E+06    -64.5313E+06    -47.1283E+06    -40.9160E+06     2.42764E+06
            1587     147.301E-03     3.65935E-03     147.255E-03     620.928E-03    -309.805E-03    -313.094E-03    -309.440E-03     620.563E-03    -313.094E-03     36.2766E-03     644.535E-03     28.5716E+06    -26.6061E+06    -36.9755E+06    -58.7648E+06    -58.4707E+06    -37.2696E+06    -26.6061E+06     2.20504E+06
            1588     147.327E-03     4.39480E-03     147.261E-03     619.743E-03    -309.044E-03    -311.650E-03    -308.366E-03     619.065E-03    -311.650E-03     49.6478E-03     651.090E-03     34.3228E+06    -15.2408E+06    -28.2892E+06    -53.8944E+06    -53.5928E+06    -28.5909E+06    -15.2408E+06     2.39484E+06
            1589     147.366E-03     5.13129E-03     147.277E-03     619.381E-03    -308.722E-03    -310.802E-03    -307.639E-03     618.224E-03    -310.729E-03     64.9177E-03     657.488E-03     38.0617E+06    -5.58402E+06    -21.9361E+06    -48.8973E+06    -48.6790E+06    -22.1543E+06    -5.58402E+06     2.29855E+06
            1590     147.434E-03     5.86636E-03     147.317E-03     618.267E-03    -308.479E-03    -310.389E-03    -306.924E-03     616.434E-03    -310.111E-03     81.8811E-03     664.904E-03     42.2427E+06     5.75975E+06    -14.5862E+06    -42.7059E+06    -42.5053E+06    -14.7867E+06     5.75975E+06     2.18719E+06
            1591     147.591E-03     6.59990E-03     147.443E-03     618.893E-03    -308.151E-03    -310.820E-03    -305.848E-03     616.385E-03    -310.616E-03     96.1501E-03     671.030E-03     45.0891E+06     14.6795E+06    -9.76855E+06    -37.3022E+06    -37.1041E+06    -9.96666E+06     14.6795E+06     2.21468E+06
            1592     147.865E-03     7.31802E-03     147.684E-03     621.097E-03    -308.805E-03    -311.775E-03    -305.681E-03     617.973E-03    -311.775E-03     107.454E-03     675.194E-03     47.2982E+06     22.5644E+06    -3.25706E+06    -31.9177E+06    -31.6773E+06    -3.49737E+06     22.5644E+06     2.32251E+06
            1593     148.004E-03     8.05511E-03     147.784E-03     618.411E-03    -309.533E-03    -311.912E-03    -305.687E-03     614.565E-03    -311.912E-03     119.056E-03     681.282E-03     49.2103E+06     30.6459E+06     6.29261E+06    -25.8873E+06    -25.6450E+06     6.05031E+06     30.6459E+06     2.30867E+06
            1594     148.091E-03     8.80178E-03     147.829E-03     618.982E-03    -309.763E-03    -311.596E-03    -305.738E-03     614.438E-03    -311.078E-03     129.574E-03     689.064E-03     49.0754E+06     35.3152E+06     8.74147E+06    -21.1618E+06    -20.9760E+06     8.55559E+06     35.3152E+06     2.16447E+06
            1595     148.439E-03     9.51804E-03     148.133E-03     622.475E-03    -310.369E-03    -312.170E-03    -307.004E-03     617.309E-03    -310.369E-03     138.511E-03     698.103E-03     49.0077E+06     39.3904E+06     9.66972E+06    -17.1343E+06    -16.7173E+06     9.25275E+06     39.3904E+06     2.06603E+06
            1596     148.654E-03     10.2541E-03     148.300E-03     623.224E-03    -310.745E-03    -313.857E-03    -307.276E-03     616.643E-03    -310.745E-03     155.940E-03     712.996E-03     48.4118E+06     42.4300E+06     12.8595E+06    -13.4022E+06    -12.9835E+06     12.4408E+06     42.4300E+06     1.20018E+06
            1597     148.897E-03     11.0077E-03     148.490E-03     624.010E-03    -310.681E-03    -314.610E-03    -307.498E-03     616.899E-03    -310.681E-03     162.647E-03     722.344E-03     48.5188E+06     45.5033E+06     14.8583E+06    -10.4207E+06    -10.1512E+06     14.5889E+06     45.5033E+06     787.731E+03
            1598     149.286E-03     11.7307E-03     148.825E-03     632.992E-03    -311.012E-03    -322.131E-03    -311.602E-03     622.464E-03    -311.012E-03     195.945E-03     753.063E-03     50.2779E+06     50.6083E+06     18.5489E+06    -7.31378E+06    -6.93912E+06     18.1742E+06     50.6083E+06     1.22902E+06
            1599     149.711E-03     12.4641E-03     149.192E-03     635.154E-03    -310.645E-03    -323.406E-03    -313.566E-03     625.314E-03    -310.645E-03     187.549E-03     748.191E-03     50.8313E+06     55.0572E+06     22.2932E+06    -3.45382E+06    -3.21692E+06     22.0563E+06     55.0572E+06     933.694E+03
            1600     149.203E-03     731.961E-06     149.201E-03     627.009E-03    -312.723E-03    -314.366E-03    -313.145E-03     627.003E-03    -313.938E-03     4.03199E-03     628.771E-03      9.7707E+06    -76.5763E+06    -80.4161E+06    -87.3528E+06    -83.5678E+06    -79.3895E+06    -81.3878E+06     1.19726E+06
            1601     149.194E-03     1.46212E-03     149.187E-03     627.153E-03    -313.204E-03    -314.322E-03    -313.322E-03     627.139E-03    -314.190E-03     6.94217E-03     632.306E-03     12.0347E+06    -69.6335E+06    -71.8029E+06    -82.4547E+06    -80.4475E+06    -70.2265E+06    -73.2172E+06     2.41493E+06
            1602     149.179E-03     2.19434E-03     149.163E-03     625.283E-03    -311.690E-03    -314.167E-03    -311.641E-03     625.233E-03    -314.167E-03     12.8646E-03     635.632E-03     17.3423E+06    -58.2720E+06    -60.3964E+06    -76.5206E+06    -75.9620E+06    -60.1014E+06    -59.1258E+06     2.91009E+06
            1603     149.172E-03     2.92773E-03     149.144E-03     622.496E-03    -310.358E-03    -313.798E-03    -310.210E-03     622.348E-03    -313.798E-03     22.7493E-03     639.071E-03     25.1745E+06    -43.6683E+06    -48.4808E+06    -70.7495E+06    -70.1927E+06    -49.0224E+06    -43.6835E+06     3.38083E+06
            1604     149.182E-03     3.66110E-03     149.137E-03     621.513E-03    -310.351E-03    -313.113E-03    -309.973E-03     621.136E-03    -313.113E-03     36.5700E-03     645.103E-03     31.7125E+06    -30.1326E+06    -39.1908E+06    -65.2490E+06    -64.6259E+06    -39.8138E+06    -30.1326E+06     3.94357E+06
            1605     149.206E-03     4.39056E-03     149.141E-03     620.339E-03    -309.942E-03    -311.814E-03    -309.175E-03     619.572E-03    -311.814E-03     52.5660E-03     652.405E-03     37.7077E+06    -16.1621E+06    -29.8861E+06    -58.5939E+06    -57.9325E+06    -30.5474E+06    -16.1621E+06     4.26981E+06
            1606     149.246E-03     5.12485E-03     149.158E-03     618.391E-03    -307.969E-03    -310.887E-03    -306.661E-03     617.083E-03    -310.887E-03     68.8335E-03     657.491E-03     42.4339E+06    -2.86682E+06    -21.3777E+06    -51.2070E+06    -50.7775E+06    -21.8072E+06    -2.86682E+06     3.37484E+06
            1607     149.305E-03     5.86805E-03     149.190E-03     615.925E-03    -306.578E-03    -310.078E-03    -304.645E-03     613.992E-03    -310.078E-03     84.0303E-03     662.813E-03     46.0257E+06     8.33710E+06    -15.1940E+06    -44.5744E+06    -44.1849E+06    -15.5835E+06     8.33710E+06     3.20246E+06
            1608     149.452E-03     6.60185E-03     149.307E-03     617.252E-03    -307.077E-03    -310.454E-03    -304.571E-03     614.745E-03    -310.454E-03     96.0144E-03     669.060E-03     48.5735E+06     17.9346E+06    -9.55790E+06    -38.1460E+06    -37.7224E+06    -9.98153E+06     17.9346E+06     3.39757E+06
            1609     149.734E-03     7.32057E-03     149.555E-03     620.939E-03    -308.945E-03    -311.410E-03    -305.881E-03     617.876E-03    -311.410E-03     106.447E-03     674.901E-03     51.4165E+06     26.8970E+06    -1.68952E+06    -32.3986E+06    -32.1284E+06    -1.95980E+06     26.8970E+06     2.56600E+06
            1610     149.870E-03     8.05668E-03     149.653E-03     618.785E-03    -310.022E-03    -311.526E-03    -306.224E-03     614.988E-03    -311.526E-03     118.319E-03     681.775E-03     53.4682E+06     34.0891E+06     4.65046E+06    -27.5001E+06    -27.3195E+06     4.46986E+06     34.0891E+06     2.09757E+06
            1611     149.959E-03     8.80242E-03     149.700E-03     619.490E-03    -309.855E-03    -311.367E-03    -305.749E-03     614.901E-03    -310.884E-03     130.235E-03     689.132E-03     52.9340E+06     38.5463E+06     7.35833E+06    -22.4666E+06    -22.2438E+06     7.13549E+06     38.5463E+06     2.39689E+06
            1612     150.312E-03     9.52163E-03     150.010E-03     622.474E-03    -310.207E-03    -311.715E-03    -306.526E-03     617.285E-03    -310.207E-03     138.802E-03     697.720E-03     51.0640E+06     40.2787E+06     10.8886E+06    -18.6152E+06    -18.1931E+06     10.4665E+06     40.2787E+06     2.92836E+06
            1613     150.522E-03     10.2593E-03     150.172E-03     623.584E-03    -310.618E-03    -313.922E-03    -307.438E-03     617.101E-03    -310.618E-03     154.857E-03     713.097E-03     50.0274E+06     42.2782E+06     13.6460E+06    -15.4173E+06    -14.8066E+06     13.0353E+06     42.2782E+06     2.64056E+06
            1614     150.756E-03     11.0095E-03     150.353E-03     624.974E-03    -310.623E-03    -315.372E-03    -308.375E-03     617.977E-03    -310.623E-03     161.500E-03     723.318E-03     51.6871E+06     47.9828E+06     15.1275E+06    -11.5370E+06    -11.0752E+06     14.6657E+06     47.9828E+06     1.90694E+06
            1615     151.150E-03     11.7279E-03     150.695E-03     633.085E-03    -310.875E-03    -322.336E-03    -311.794E-03     622.543E-03    -310.875E-03     195.893E-03     753.568E-03     53.9688E+06     54.2423E+06     19.9019E+06    -7.87771E+06    -7.62223E+06     19.6464E+06     54.2423E+06     1.30543E+06
            1616     151.578E-03     12.4622E-03     151.065E-03     634.846E-03    -310.518E-03    -323.223E-03    -313.265E-03     624.888E-03    -310.518E-03     188.762E-03     747.913E-03     54.8057E+06     58.7886E+06     23.8150E+06    -4.27293E+06    -4.09144E+06     23.6335E+06     58.7886E+06     360.556E+03
            1617     151.073E-03     732.791E-06     151.071E-03     625.744E-03    -312.107E-03    -313.642E-03    -313.345E-03     625.738E-03    -312.399E-03     3.67256E-03     627.551E-03     11.9748E+06    -80.2997E+06    -88.3867E+06    -93.7867E+06    -87.7376E+06    -88.6345E+06    -86.1009E+06     2.27225E+06
            1618     151.065E-03     1.46441E-03     151.058E-03     626.483E-03    -312.930E-03    -313.785E-03    -313.044E-03     626.465E-03    -313.654E-03     7.80039E-03     631.680E-03     14.2543E+06    -73.0389E+06    -78.1784E+06    -88.9541E+06    -85.7132E+06    -77.2402E+06    -77.2181E+06     3.49666E+06
            1619     151.044E-03     2.19437E-03     151.028E-03     625.874E-03    -312.198E-03    -313.958E-03    -312.139E-03     625.816E-03    -313.958E-03     14.1099E-03     636.147E-03     19.2040E+06    -61.0772E+06    -64.2327E+06    -81.6011E+06    -80.7291E+06    -63.5480E+06    -62.6339E+06     3.85460E+06
            1620     151.045E-03     2.92561E-03     151.017E-03     623.227E-03    -310.808E-03    -313.859E-03    -310.642E-03     623.061E-03    -313.859E-03     24.0701E-03     639.644E-03     27.8888E+06    -46.1543E+06    -51.7497E+06    -76.3059E+06    -75.3833E+06    -52.6723E+06    -46.1543E+06     4.52185E+06
            1621     151.060E-03     3.65819E-03     151.015E-03     620.253E-03    -308.803E-03    -313.150E-03    -308.398E-03     619.848E-03    -313.150E-03     37.8422E-03     644.160E-03     35.1675E+06    -30.0013E+06    -41.9454E+06    -69.4247E+06    -68.5721E+06    -42.7981E+06    -30.0013E+06     4.72377E+06
            1622     151.083E-03     4.39693E-03     151.019E-03     617.940E-03    -307.655E-03    -311.615E-03    -306.832E-03     617.118E-03    -311.615E-03     54.4145E-03     650.351E-03     40.5136E+06    -15.1856E+06    -31.5803E+06    -61.2460E+06    -60.4568E+06    -32.3695E+06    -15.1856E+06     4.76114E+06
            1623     151.119E-03     5.13387E-03     151.032E-03     617.443E-03    -307.735E-03    -310.476E-03    -306.332E-03     616.040E-03    -310.476E-03     71.4526E-03     656.805E-03     45.8622E+06    -1.71025E+06    -21.2559E+06    -53.9277E+06    -53.1338E+06    -22.0499E+06    -1.71025E+06     5.01147E+06
            1624     151.177E-03     5.86889E-03     151.063E-03     616.438E-03    -307.476E-03    -309.734E-03    -305.489E-03     614.427E-03    -309.710E-03     85.8886E-03     663.224E-03     50.4965E+06     10.6375E+06    -15.3981E+06    -47.4033E+06    -46.7938E+06    -16.0076E+06     10.6375E+06     4.30816E+06
            1625     151.322E-03     6.60447E-03     151.178E-03     617.908E-03    -307.630E-03    -310.270E-03    -305.147E-03     615.402E-03    -310.246E-03     96.1084E-03     669.198E-03     53.7657E+06     21.0794E+06    -9.75631E+06    -40.9998E+06    -40.5096E+06    -10.2465E+06     21.0794E+06     3.85277E+06
            1626     151.617E-03     7.32166E-03     151.440E-03     621.140E-03    -308.871E-03    -311.156E-03    -305.859E-03     618.128E-03    -311.156E-03     105.550E-03     674.978E-03     56.3470E+06     30.3815E+06    -916.998E+03    -34.6109E+06    -34.1684E+06    -1.35947E+06     30.3815E+06     3.79263E+06
            1627     151.747E-03     8.05774E-03     151.533E-03     618.520E-03    -309.603E-03    -311.276E-03    -305.827E-03     614.744E-03    -311.276E-03     117.910E-03     681.421E-03     58.4251E+06     38.3137E+06     4.77752E+06    -29.0504E+06    -28.5882E+06     4.31528E+06     38.3137E+06     3.53391E+06
            1628     151.832E-03     8.80553E-03     151.577E-03     619.090E-03    -309.558E-03    -311.196E-03    -305.457E-03     614.528E-03    -310.734E-03     129.825E-03     688.711E-03     57.7974E+06     42.1487E+06     6.35203E+06    -24.4999E+06    -23.9241E+06     5.77619E+06     42.1487E+06     3.78954E+06
            1629     152.186E-03     9.52252E-03     151.888E-03     622.772E-03    -310.116E-03    -312.009E-03    -306.890E-03     617.653E-03    -310.116E-03     137.923E-03     698.184E-03     55.0155E+06     43.4457E+06     10.7772E+06    -19.9779E+06    -19.4982E+06     10.2976E+06     43.4457E+06     3.40798E+06
            1630     152.390E-03     10.2578E-03     152.044E-03     624.757E-03    -310.573E-03    -314.832E-03    -308.346E-03     618.270E-03    -310.573E-03     155.000E-03     714.030E-03     52.7401E+06     45.1577E+06     13.9004E+06    -15.6227E+06    -15.1026E+06     13.3802E+06     45.1577E+06     3.34628E+06
            1631     152.634E-03     11.0081E-03     152.236E-03     625.531E-03    -310.593E-03    -315.696E-03    -308.647E-03     618.481E-03    -310.593E-03     162.161E-03     723.339E-03     52.9503E+06     49.4846E+06     15.7163E+06    -11.4650E+06    -10.8567E+06     15.1080E+06     49.4846E+06     3.27344E+06
            1632     153.019E-03     11.7303E-03     152.569E-03     632.960E-03    -310.686E-03    -322.123E-03    -311.428E-03     622.265E-03    -310.686E-03     197.131E-03     753.318E-03     55.5085E+06     56.6797E+06     23.2653E+06    -7.29472E+06    -6.93071E+06     22.9013E+06     56.6797E+06     1.89910E+06
            1633     153.447E-03     12.4669E-03     152.940E-03     634.632E-03    -310.342E-03    -323.134E-03    -313.055E-03     624.553E-03    -310.342E-03     189.603E-03     747.707E-03     57.7986E+06     63.1523E+06     26.7970E+06    -3.30948E+06    -3.11814E+06     26.6057E+06     63.1523E+06     721.336E+03
            1634     152.937E-03     731.898E-06     152.935E-03     625.200E-03    -311.732E-03    -313.368E-03    -312.546E-03     625.197E-03    -312.552E-03     2.56211E-03     627.070E-03     22.8564E+06    -83.8508E+06    -94.7519E+06    -109.385E+06    -92.4616E+06    -106.181E+06    -89.3447E+06     5.62644E+06
            1635     152.932E-03     1.46440E-03     152.925E-03     624.912E-03    -311.982E-03    -313.148E-03    -311.963E-03     624.893E-03    -313.148E-03     7.70131E-03     630.170E-03     16.8372E+06    -76.8930E+06    -84.7675E+06    -96.0616E+06    -90.3153E+06    -85.0140E+06    -82.3929E+06     6.24181E+06
            1636     152.920E-03     2.19712E-03     152.904E-03     624.588E-03    -311.635E-03    -313.277E-03    -311.564E-03     624.517E-03    -313.277E-03     15.6373E-03     635.001E-03     22.0577E+06    -66.1126E+06    -69.6400E+06    -89.4804E+06    -87.1690E+06    -68.7667E+06    -69.2973E+06     6.62331E+06
            1637     152.918E-03     2.92809E-03     152.890E-03     622.478E-03    -310.702E-03    -313.295E-03    -310.500E-03     622.276E-03    -313.295E-03     26.6771E-03     639.096E-03     30.3659E+06    -49.9422E+06    -54.7035E+06    -82.2239E+06    -80.4999E+06    -56.4275E+06    -49.9422E+06     6.62285E+06
            1638     152.925E-03     3.66156E-03     152.881E-03     619.700E-03    -308.679E-03    -312.724E-03    -308.251E-03     619.272E-03    -312.724E-03     39.3360E-03     643.860E-03     38.4859E+06    -30.9955E+06    -42.5645E+06    -73.8122E+06    -72.5615E+06    -43.8152E+06    -30.9955E+06     6.03458E+06
            1639     152.949E-03     4.39578E-03     152.886E-03     617.197E-03    -307.315E-03    -311.333E-03    -306.532E-03     616.414E-03    -311.333E-03     53.2080E-03     649.488E-03     45.3424E+06    -15.4660E+06    -34.0778E+06    -66.9898E+06    -65.9586E+06    -35.1090E+06    -15.4660E+06     5.71659E+06
            1640     152.988E-03     5.13450E-03     152.902E-03     616.626E-03    -307.444E-03    -310.123E-03    -306.150E-03     615.332E-03    -310.123E-03     68.6443E-03     655.850E-03     50.3467E+06    -1.53093E+06    -23.1824E+06    -59.0390E+06    -58.0762E+06    -24.1452E+06    -1.53093E+06     5.71349E+06
            1641     153.044E-03     5.87534E-03     152.931E-03     616.932E-03    -308.153E-03    -309.657E-03    -306.531E-03     615.014E-03    -309.361E-03     83.8167E-03     664.026E-03     54.4119E+06     11.1417E+06    -14.6494E+06    -51.1805E+06    -50.2977E+06    -15.5322E+06     11.1417E+06     5.40952E+06
            1642     153.193E-03     6.60491E-03     153.050E-03     618.743E-03    -308.357E-03    -310.384E-03    -306.185E-03     616.275E-03    -310.089E-03     95.4534E-03     670.461E-03     58.0395E+06     21.5162E+06    -10.1032E+06    -45.4294E+06    -44.6263E+06    -10.9063E+06     21.5162E+06     5.07051E+06
            1643     153.477E-03     7.32209E-03     153.302E-03     620.692E-03    -308.611E-03    -311.024E-03    -305.599E-03     617.681E-03    -311.024E-03     105.480E-03     674.857E-03     61.2807E+06     31.7644E+06    -1.81598E+06    -38.9288E+06    -38.3260E+06    -2.41876E+06     31.7644E+06     4.66705E+06
            1644     153.612E-03     8.05919E-03     153.400E-03     617.981E-03    -309.373E-03    -311.132E-03    -305.614E-03     614.222E-03    -311.132E-03     117.657E-03     680.971E-03     63.2867E+06     40.5292E+06     3.55709E+06    -32.5070E+06    -31.8160E+06     2.86610E+06     40.5292E+06     4.85138E+06
            1645     153.701E-03     8.80588E-03     153.448E-03     618.542E-03    -309.559E-03    -311.168E-03    -305.591E-03     614.042E-03    -310.636E-03     128.901E-03     688.547E-03     61.8255E+06     44.5260E+06     6.56046E+06    -26.7790E+06    -26.0621E+06     5.84354E+06     44.5260E+06     4.73822E+06
            1646     154.065E-03     9.52380E-03     153.770E-03     622.327E-03    -310.045E-03    -312.251E-03    -307.104E-03     617.179E-03    -310.045E-03     138.267E-03     698.058E-03     59.4734E+06     47.6032E+06     11.7332E+06    -21.0022E+06    -20.4319E+06     11.1629E+06     47.6032E+06     4.18112E+06
            1647     154.261E-03     10.2616E-03     153.919E-03     624.488E-03    -310.509E-03    -314.829E-03    -308.218E-03     617.877E-03    -310.509E-03     156.463E-03     713.902E-03     57.5384E+06     49.4749E+06     14.6422E+06    -16.8796E+06    -16.4422E+06     14.2048E+06     49.4749E+06     3.59973E+06
            1648     154.509E-03     11.0114E-03     154.116E-03     625.363E-03    -310.528E-03    -315.680E-03    -308.558E-03     618.241E-03    -310.528E-03     162.959E-03     723.376E-03     57.1539E+06     52.9769E+06     16.2940E+06    -12.7763E+06    -12.3044E+06     15.8221E+06     52.9769E+06     2.54149E+06
            1649     154.890E-03     11.7321E-03     154.445E-03     633.402E-03    -310.508E-03    -322.499E-03    -311.832E-03     622.734E-03    -310.508E-03     197.034E-03     753.714E-03     59.1728E+06     60.5950E+06     24.8602E+06    -7.55419E+06    -7.01228E+06     24.3183E+06     60.5950E+06     2.22646E+06
            1650     155.316E-03     12.4659E-03     154.815E-03     634.416E-03    -310.196E-03    -323.185E-03    -313.163E-03     624.394E-03    -310.196E-03     189.046E-03     747.307E-03     60.8526E+06     66.5098E+06     29.9510E+06    -3.60188E+06    -3.29845E+06     29.6476E+06     66.5098E+06     1.88385E+06
            1651     154.810E-03     732.731E-06     154.809E-03     623.865E-03    -311.544E-03    -312.321E-03    -311.653E-03     623.861E-03    -312.209E-03     3.67112E-03     625.760E-03     34.9068E+06    -92.8404E+06    -103.927E+06    -131.664E+06    -99.1139E+06    -129.351E+06    -99.9665E+06     5.68483E+06
            1652     154.797E-03     1.46503E-03     154.791E-03     623.526E-03    -311.373E-03    -312.478E-03    -311.351E-03     623.504E-03    -312.478E-03     8.42251E-03     628.923E-03     17.7778E+06    -86.3460E+06    -92.6624E+06    -106.137E+06    -96.7885E+06    -97.5775E+06    -90.7793E+06     7.57443E+06
            1653     154.789E-03     2.19790E-03     154.773E-03     622.438E-03    -310.444E-03    -312.478E-03    -310.377E-03     622.371E-03    -312.478E-03     15.4161E-03     633.136E-03     23.2350E+06    -71.4182E+06    -74.8814E+06    -95.9088E+06    -91.7723E+06    -76.8779E+06    -73.5582E+06     8.11967E+06
            1654     154.783E-03     2.93177E-03     154.756E-03     620.596E-03    -309.546E-03    -312.312E-03    -309.361E-03     620.411E-03    -312.312E-03     25.3534E-03     637.189E-03     31.1367E+06    -55.7505E+06    -58.4121E+06    -88.0587E+06    -85.7700E+06    -60.6789E+06    -55.7724E+06     7.87130E+06
            1655     154.794E-03     3.66524E-03     154.750E-03     620.037E-03    -309.667E-03    -311.965E-03    -309.244E-03     619.614E-03    -311.965E-03     38.9753E-03     643.587E-03     40.6788E+06    -35.9416E+06     -44.621E+06    -80.1943E+06    -78.1186E+06    -46.6967E+06    -35.9416E+06     8.21980E+06
            1656     154.814E-03     4.39906E-03     154.752E-03     619.061E-03    -309.616E-03    -311.270E-03    -309.018E-03     618.277E-03    -311.085E-03     53.3939E-03     651.477E-03     48.4242E+06    -16.7944E+06    -33.6731E+06    -71.2346E+06    -69.4122E+06    -35.4955E+06    -16.7944E+06     7.94832E+06
            1657     154.852E-03     5.13417E-03     154.767E-03     617.367E-03    -308.381E-03    -310.317E-03    -307.307E-03     616.108E-03    -310.132E-03     67.8526E-03     657.288E-03     53.7254E+06    -2.38088E+06    -24.1194E+06    -63.5307E+06    -62.0976E+06    -25.5525E+06    -2.38088E+06     7.21617E+06
            1658     154.912E-03     5.87208E-03     154.801E-03     615.662E-03    -307.343E-03    -309.640E-03    -305.744E-03     613.792E-03    -309.368E-03     82.6605E-03     662.713E-03     58.3605E+06     10.6301E+06    -16.1360E+06    -56.1702E+06    -54.8638E+06    -17.4424E+06     10.6301E+06     6.96813E+06
            1659     155.063E-03     6.60615E-03     154.923E-03     617.381E-03    -307.462E-03    -310.302E-03    -305.248E-03     614.895E-03    -310.030E-03     95.6343E-03     668.892E-03     61.7812E+06     22.5756E+06    -9.98811E+06    -48.6639E+06    -47.4017E+06    -11.2502E+06     22.5756E+06     6.79804E+06
            1660     155.345E-03     7.32356E-03     155.172E-03     620.645E-03    -308.819E-03    -311.101E-03    -305.962E-03     617.545E-03    -310.858E-03     107.024E-03     674.809E-03     65.6225E+06     33.5822E+06    -1.07154E+06    -42.0903E+06    -41.0669E+06    -2.09496E+06     33.5822E+06     6.31121E+06
            1661     155.483E-03     8.05978E-03     155.274E-03     618.735E-03    -310.059E-03    -311.230E-03    -306.496E-03     614.929E-03    -310.987E-03     118.540E-03     681.686E-03     67.8168E+06     42.5160E+06     2.97923E+06    -35.6697E+06    -34.9147E+06     2.22425E+06     42.5160E+06     5.33234E+06
            1662     155.567E-03     8.80760E-03     155.318E-03     619.093E-03    -309.959E-03    -311.322E-03    -306.219E-03     614.631E-03    -310.600E-03     128.444E-03     689.221E-03     66.2973E+06     46.9509E+06     5.87781E+06    -29.5052E+06    -28.6499E+06     5.02257E+06     46.9509E+06     5.22571E+06
            1663     155.925E-03     9.52436E-03     155.634E-03     621.746E-03    -310.011E-03    -311.869E-03    -306.813E-03     616.690E-03    -310.011E-03     136.964E-03     697.318E-03     63.7599E+06     49.4326E+06     12.0771E+06    -24.1695E+06    -23.3781E+06     11.2857E+06     49.4326E+06     5.01439E+06
            1664     156.133E-03     10.2623E-03     155.795E-03     623.013E-03    -310.473E-03    -313.425E-03    -307.023E-03     616.611E-03    -310.473E-03     153.812E-03     712.288E-03     61.6499E+06     52.7408E+06     17.0884E+06    -18.4422E+06    -18.0457E+06     16.6919E+06     52.7408E+06     3.49335E+06
            1665     156.378E-03     11.0127E-03     155.990E-03     624.724E-03    -310.494E-03    -315.129E-03    -308.097E-03     617.692E-03    -310.494E-03     161.890E-03     722.871E-03     61.8914E+06     57.2934E+06     19.6098E+06    -14.0096E+06    -13.5816E+06     19.1818E+06     57.2934E+06     2.51267E+06
            1666     156.767E-03     11.7333E-03     156.328E-03     633.755E-03    -310.422E-03    -322.939E-03    -312.265E-03     623.080E-03    -310.422E-03     197.390E-03     754.014E-03     64.4526E+06     63.3832E+06     24.6834E+06    -10.8691E+06    -10.2647E+06     24.0790E+06     63.3832E+06     1.75975E+06
            1667     157.184E-03     12.4689E-03     156.689E-03     634.623E-03    -310.124E-03    -323.412E-03    -313.442E-03     624.653E-03    -310.124E-03     188.660E-03     747.718E-03     66.2436E+06     70.8089E+06     31.1748E+06    -5.62159E+06    -5.29542E+06     30.8487E+06     70.8089E+06     939.821E+03
            1668     156.675E-03     734.415E-06     156.673E-03     622.439E-03    -311.095E-03    -311.429E-03    -311.205E-03     622.436E-03    -311.317E-03     2.49973E-03     624.330E-03     48.7518E+06    -92.4121E+06    -103.638E+06    -145.635E+06    -98.6574E+06    -144.750E+06    -98.2784E+06     1.25539E+06
            1669     156.670E-03     1.46681E-03     156.663E-03     622.913E-03    -311.232E-03    -311.853E-03    -311.215E-03     622.895E-03    -311.853E-03     7.23265E-03     628.276E-03     26.6197E+06    -89.9531E+06    -93.4690E+06    -118.104E+06    -96.0537E+06    -114.464E+06    -91.0085E+06     5.74889E+06
            1670     156.658E-03     2.19892E-03     156.642E-03     622.145E-03    -310.359E-03    -312.038E-03    -310.302E-03     622.088E-03    -312.038E-03     13.9707E-03     632.755E-03     25.1787E+06    -76.9694E+06    -79.3086E+06    -103.147E+06    -92.5140E+06    -89.9193E+06    -76.9912E+06     9.53060E+06
            1671     156.651E-03     2.93226E-03     156.623E-03     620.896E-03    -309.744E-03    -312.008E-03    -309.591E-03     620.743E-03    -312.008E-03     23.2148E-03     637.273E-03     34.4102E+06    -58.3244E+06    -61.5577E+06    -94.1900E+06    -88.3770E+06    -67.3489E+06    -58.3462E+06     11.4300E+06
            1672     156.663E-03     3.66719E-03     156.620E-03     620.276E-03    -309.784E-03    -311.770E-03    -309.422E-03     619.915E-03    -311.770E-03     35.8732E-03     643.480E-03     43.1770E+06    -39.0972E+06    -46.2184E+06    -85.3137E+06    -81.9550E+06    -49.5771E+06    -39.0972E+06     10.6600E+06
            1673     156.692E-03     4.40001E-03     156.630E-03     618.888E-03    -309.343E-03    -311.172E-03    -308.783E-03     618.143E-03    -310.987E-03     51.7961E-03     651.182E-03     48.9616E+06    -21.8483E+06    -34.9280E+06    -75.8319E+06    -73.5292E+06    -37.2307E+06    -21.8483E+06     9.38865E+06
            1674     156.727E-03     5.13288E-03     156.643E-03     617.332E-03    -308.431E-03    -310.147E-03    -307.281E-03     615.997E-03    -309.961E-03     69.6376E-03     657.279E-03     54.8905E+06    -5.77526E+06    -24.7726E+06    -67.6184E+06    -65.6396E+06    -26.7513E+06    -5.77526E+06     8.97858E+06
            1675     156.780E-03     5.87197E-03     156.670E-03     615.005E-03    -307.466E-03    -309.134E-03    -305.490E-03     613.029E-03    -309.134E-03     85.0249E-03     661.736E-03     59.8466E+06     8.70355E+06    -17.2392E+06    -59.5521E+06    -57.6611E+06    -19.1301E+06     8.70355E+06     8.64060E+06
            1676     156.916E-03     6.61029E-03     156.776E-03     616.363E-03    -307.332E-03    -309.917E-03    -304.841E-03     613.872E-03    -309.917E-03     95.7157E-03     667.662E-03     64.1331E+06     21.8910E+06    -11.0332E+06    -51.9896E+06    -50.3268E+06    -12.6960E+06     21.8910E+06     7.94112E+06
            1677     157.220E-03     7.32700E-03     157.049E-03     619.976E-03    -308.694E-03    -310.948E-03    -305.897E-03     616.936E-03    -310.705E-03     105.938E-03     674.495E-03     69.1774E+06     34.4332E+06    -1.46612E+06    -45.2918E+06    -43.7731E+06    -2.98488E+06     34.4332E+06     7.93990E+06
            1678     157.358E-03     8.06161E-03     157.151E-03     618.772E-03    -310.101E-03    -311.041E-03    -306.517E-03     614.944E-03    -310.798E-03     118.793E-03     681.616E-03     72.2039E+06     44.7978E+06     4.25440E+06    -38.4497E+06    -36.9176E+06     2.72225E+06     44.7978E+06     7.80472E+06
            1679     157.448E-03     8.80672E-03     157.201E-03     619.467E-03    -310.067E-03    -311.581E-03    -306.535E-03     614.864E-03    -310.511E-03     130.473E-03     689.400E-03     70.7740E+06     49.7992E+06     7.67953E+06    -31.8359E+06    -30.6693E+06     6.51292E+06     49.7992E+06     5.99226E+06
            1680     157.795E-03     9.52368E-03     157.508E-03     622.454E-03    -309.958E-03    -312.476E-03    -307.242E-03     617.220E-03    -309.958E-03     139.423E-03     698.160E-03     67.7314E+06     53.2607E+06     12.3869E+06    -24.8402E+06    -24.1698E+06     11.7165E+06     53.2607E+06     4.27238E+06
            1681     158.011E-03     10.2609E-03     157.677E-03     623.834E-03    -310.455E-03    -313.803E-03    -307.336E-03     617.366E-03    -310.455E-03     154.799E-03     713.171E-03     65.3884E+06     56.0118E+06     16.0611E+06    -19.3957E+06    -18.5965E+06     15.2619E+06     56.0118E+06     4.46082E+06
            1682     158.245E-03     11.0139E-03     157.861E-03     624.373E-03    -310.526E-03    -314.894E-03    -307.896E-03     617.374E-03    -310.526E-03     161.481E-03     722.397E-03     65.3241E+06     60.6099E+06     23.8313E+06    -14.7363E+06    -13.8843E+06     22.9792E+06     60.6099E+06     4.53803E+06
            1683     158.644E-03     11.7365E-03     158.210E-03     632.469E-03    -310.390E-03    -322.229E-03    -311.659E-03     621.899E-03    -310.390E-03     196.346E-03     752.740E-03     68.0673E+06     68.8433E+06     30.7055E+06    -9.67748E+06    -9.13744E+06     30.1655E+06     68.8433E+06     2.47044E+06
            1684     159.053E-03     12.4694E-03     158.563E-03     633.680E-03    -310.059E-03    -322.762E-03    -312.866E-03     623.784E-03    -310.059E-03     188.054E-03     746.929E-03     70.3754E+06     76.2851E+06     32.6322E+06    -4.87062E+06    -4.59001E+06     32.3516E+06     76.2851E+06     458.322E+03
            1685     158.541E-03     732.655E-06     158.539E-03     622.618E-03    -310.777E-03    -312.090E-03    -310.775E-03     622.615E-03    -312.090E-03     1.90526E-03     624.567E-03     56.4576E+06    -90.3085E+06    -103.046E+06    -151.803E+06    -97.1286E+06    -151.724E+06    -96.3046E+06     634.656E+03
            1686     158.534E-03     1.46519E-03     158.527E-03     623.270E-03    -311.260E-03    -312.026E-03    -311.249E-03     623.259E-03    -312.026E-03     6.10691E-03     628.482E-03     41.8769E+06    -89.8314E+06    -95.9739E+06    -134.383E+06    -96.3807E+06    -132.921E+06    -90.8868E+06     5.22932E+06
            1687     158.525E-03     2.19915E-03     158.510E-03     623.360E-03    -311.187E-03    -312.347E-03    -311.141E-03     623.314E-03    -312.347E-03     12.3794E-03     633.672E-03     34.6097E+06    -77.3603E+06    -85.4715E+06    -114.965E+06    -92.6988E+06    -107.738E+06    -77.3603E+06     10.8042E+06
            1688     158.522E-03     2.93150E-03     158.495E-03     622.107E-03    -310.522E-03    -312.506E-03    -310.373E-03     621.957E-03    -312.506E-03     22.7182E-03     638.390E-03     38.8546E+06    -57.0035E+06    -65.6413E+06    -99.1302E+06    -85.2434E+06    -79.5280E+06    -57.0035E+06     14.3652E+06
            1689     158.533E-03     3.66210E-03     158.491E-03     619.491E-03    -308.967E-03    -312.139E-03    -308.594E-03     619.118E-03    -312.139E-03     36.3350E-03     643.354E-03     46.4277E+06    -38.3727E+06    -45.7401E+06    -88.0254E+06    -79.5371E+06    -54.2284E+06    -38.3727E+06     15.5154E+06
            1690     158.559E-03     4.39830E-03     158.498E-03     616.728E-03    -307.305E-03    -311.052E-03    -306.536E-03     615.959E-03    -311.052E-03     52.5012E-03     648.986E-03     52.9813E+06    -23.3012E+06    -34.4030E+06    -80.8483E+06    -75.6689E+06    -39.5825E+06    -23.3012E+06     13.7087E+06
            1691     158.597E-03     5.13897E-03     158.514E-03     615.874E-03    -306.735E-03    -309.635E-03    -305.412E-03     614.551E-03    -309.635E-03     69.2876E-03     655.133E-03     58.0054E+06    -6.67443E+06    -25.1324E+06    -71.5822E+06    -68.3810E+06    -28.3335E+06    -6.67443E+06     11.5661E+06
            1692     158.650E-03     5.87734E-03     158.541E-03     615.236E-03    -307.582E-03    -309.052E-03    -306.018E-03     613.290E-03    -308.670E-03     84.3453E-03     661.704E-03     62.6073E+06     7.43075E+06    -17.8542E+06    -63.7717E+06    -61.1075E+06    -20.5185E+06     7.43075E+06     10.6309E+06
            1693     158.786E-03     6.60860E-03     158.648E-03     617.183E-03    -308.361E-03    -310.134E-03    -306.229E-03     614.669E-03    -309.752E-03     96.2211E-03     668.778E-03     66.4238E+06     20.2803E+06    -10.1319E+06    -55.8615E+06    -53.7479E+06    -12.2455E+06     20.2803E+06     9.49754E+06
            1694     159.084E-03     7.32497E-03     158.915E-03     619.759E-03    -308.984E-03    -310.656E-03    -305.906E-03     616.681E-03    -310.656E-03     106.592E-03     674.848E-03     71.8434E+06     34.6007E+06    -2.65766E+06    -48.1060E+06    -46.0864E+06    -4.67725E+06     34.6007E+06     9.28809E+06
            1695     159.229E-03     8.06313E-03     159.025E-03     617.736E-03    -309.290E-03    -310.615E-03    -305.458E-03     613.903E-03    -310.615E-03     118.736E-03     680.571E-03     75.4789E+06     46.7044E+06     4.57677E+06    -40.3980E+06    -38.4177E+06     2.59644E+06     46.7044E+06     9.10276E+06
            1696     159.317E-03     8.81303E-03     159.073E-03     618.018E-03    -309.225E-03    -311.098E-03    -305.461E-03     613.414E-03    -310.258E-03     130.308E-03     687.876E-03     74.1746E+06     54.2866E+06     13.0122E+06    -31.3443E+06    -30.0828E+06     11.7507E+06     54.2866E+06     6.72138E+06
            1697     159.664E-03     9.53133E-03     159.379E-03     622.255E-03    -309.753E-03    -312.508E-03    -307.257E-03     617.004E-03    -309.753E-03     139.636E-03     697.768E-03     71.7250E+06     56.7085E+06     14.1441E+06    -26.0174E+06    -24.9869E+06     13.1136E+06     56.7085E+06     5.51075E+06
            1698     159.871E-03     10.2657E-03     159.541E-03     625.360E-03    -310.249E-03    -315.286E-03    -308.713E-03     618.788E-03    -310.249E-03     156.234E-03     714.550E-03     69.4350E+06     58.8983E+06     15.8537E+06    -21.1708E+06    -20.0243E+06     14.7073E+06     58.8983E+06     4.79719E+06
            1699     160.106E-03     11.0133E-03     159.727E-03     625.429E-03    -310.331E-03    -316.066E-03    -308.995E-03     618.358E-03    -310.331E-03     162.459E-03     723.616E-03      68.388E+06     64.9701E+06     24.8982E+06    -13.8783E+06    -13.0677E+06     24.0876E+06     64.9701E+06     3.72633E+06
            1700     160.504E-03     11.7324E-03     160.074E-03     631.289E-03    -310.247E-03    -321.459E-03    -310.743E-03     620.573E-03    -310.247E-03     197.143E-03     751.868E-03     70.1330E+06     72.8211E+06     33.7416E+06    -8.01581E+06    -7.58057E+06     33.3063E+06     72.8211E+06     3.58251E+06
            1701     160.916E-03     12.4720E-03     160.432E-03     631.330E-03    -309.963E-03    -321.068E-03    -310.920E-03     621.182E-03    -309.963E-03     190.069E-03     744.588E-03     72.2850E+06     79.5842E+06     37.4421E+06    -3.77699E+06    -3.44064E+06     37.1058E+06     79.5842E+06     2.58485E+06
            1702     160.404E-03     733.091E-06     160.403E-03     622.320E-03    -310.372E-03    -312.294E-03    -311.062E-03     622.315E-03    -311.600E-03     3.54706E-03     624.271E-03     55.5527E+06    -104.323E+06    -119.342E+06    -165.399E+06    -114.718E+06    -165.083E+06    -109.264E+06     3.54148E+06
            1703     160.400E-03     1.46604E-03     160.394E-03     623.710E-03    -311.636E-03    -312.253E-03    -311.741E-03     623.694E-03    -312.132E-03     7.19335E-03     628.974E-03     48.2103E+06    -98.4099E+06    -107.596E+06    -150.478E+06    -108.972E+06    -149.103E+06    -98.4099E+06     6.43032E+06
            1704     160.394E-03     2.19657E-03     160.379E-03     623.397E-03    -311.244E-03    -312.498E-03    -311.217E-03     623.333E-03    -312.462E-03     14.4335E-03     634.005E-03     36.4348E+06    -86.2178E+06    -99.3546E+06    -127.238E+06    -102.928E+06    -123.665E+06    -86.2178E+06     8.92413E+06
            1705     160.393E-03     2.92782E-03     160.366E-03     621.049E-03    -309.189E-03    -312.428E-03    -308.992E-03     620.852E-03    -312.428E-03     25.9946E-03     637.515E-03     37.4154E+06    -70.5045E+06    -83.9545E+06    -112.576E+06    -96.8067E+06    -99.7243E+06    -70.5045E+06     12.8005E+06
            1706     160.409E-03     3.66514E-03     160.367E-03     618.009E-03    -307.665E-03    -311.907E-03    -307.225E-03     617.570E-03    -311.907E-03     39.7156E-03     642.160E-03     46.7998E+06    -49.0792E+06    -57.1027E+06    -99.1218E+06    -88.4728E+06    -67.5720E+06    -49.2589E+06     17.5667E+06
            1707     160.435E-03     4.40057E-03     160.375E-03     616.226E-03    -307.436E-03    -310.958E-03    -306.645E-03     615.434E-03    -310.958E-03     53.5792E-03     648.585E-03     57.7348E+06    -26.1381E+06    -33.5949E+06    -87.0864E+06    -79.2058E+06    -41.2958E+06    -26.3178E+06     18.7045E+06
            1708     160.470E-03     5.13654E-03     160.388E-03     615.394E-03    -306.733E-03    -309.445E-03    -305.455E-03     614.116E-03    -309.445E-03     68.1518E-03     654.902E-03     63.9037E+06    -8.11462E+06    -23.3185E+06    -77.9387E+06    -71.8661E+06    -29.3911E+06    -8.11462E+06     17.0623E+06
            1709     160.528E-03     5.87568E-03     160.421E-03     613.690E-03    -306.384E-03    -308.750E-03    -304.838E-03     611.762E-03    -308.368E-03     83.7492E-03     660.217E-03     68.5702E+06     8.79859E+06    -14.8374E+06    -68.3513E+06    -64.1530E+06    -19.0357E+06     8.79859E+06     14.1423E+06
            1710     160.664E-03     6.61233E-03     160.528E-03     616.663E-03    -307.936E-03    -309.851E-03    -305.705E-03     614.050E-03    -309.468E-03     98.0167E-03     667.744E-03     72.5466E+06     23.5674E+06    -7.43806E+06    -59.2188E+06    -56.6298E+06    -10.0270E+06     23.5674E+06     11.2406E+06
            1711     160.955E-03     7.32943E-03     160.788E-03     620.927E-03    -309.533E-03    -310.835E-03    -306.816E-03     617.713E-03    -310.338E-03     109.098E-03     675.827E-03     75.9655E+06     36.6588E+06    -3.07556E+06     -50.827E+06    -48.8481E+06    -5.05444E+06     36.6588E+06     9.38612E+06
            1712     161.101E-03     8.06322E-03     160.899E-03     618.581E-03    -309.559E-03    -310.885E-03    -306.218E-03     614.744E-03    -310.388E-03     119.018E-03     681.325E-03     78.6487E+06     49.1964E+06     6.76275E+06    -41.4692E+06    -40.1612E+06     5.45474E+06     49.1964E+06     7.42083E+06
            1713     161.188E-03     8.81207E-03     160.947E-03     617.748E-03    -309.285E-03    -311.035E-03    -305.789E-03     613.293E-03    -310.077E-03     128.232E-03     687.483E-03     78.1838E+06     55.6315E+06     12.2061E+06    -34.4931E+06    -33.4177E+06     11.1307E+06     55.6315E+06     6.78494E+06
            1714     161.541E-03     9.53075E-03     161.260E-03     621.140E-03    -309.731E-03    -311.809E-03    -306.825E-03     616.156E-03    -309.731E-03     135.979E-03     696.383E-03     76.0854E+06     59.4841E+06     16.0646E+06    -28.2550E+06    -26.9619E+06     14.7715E+06     59.4841E+06     7.05489E+06
            1715     161.746E-03     10.2672E-03     161.420E-03     623.880E-03    -310.135E-03    -313.926E-03    -307.465E-03     617.419E-03    -310.135E-03     154.446E-03     712.603E-03     73.7703E+06     63.2470E+06     21.0850E+06    -21.8446E+06    -20.6249E+06     19.8653E+06     63.2470E+06     5.46309E+06
            1716     161.989E-03     11.0160E-03     161.614E-03     624.169E-03    -309.968E-03    -314.920E-03    -307.705E-03     616.954E-03    -309.968E-03     163.899E-03     722.221E-03     72.4775E+06     66.5056E+06     24.2559E+06    -17.0856E+06    -16.2330E+06     23.4032E+06     66.5056E+06     2.95005E+06
            1717     162.370E-03     11.7358E-03     161.945E-03     630.618E-03    -309.788E-03    -320.996E-03    -309.859E-03     619.481E-03    -309.788E-03     200.687E-03     751.424E-03     73.4747E+06     72.8358E+06     32.7813E+06    -11.8589E+06    -11.5306E+06     32.4531E+06     72.8358E+06     2.09001E+06
            1718     162.773E-03     12.4756E-03     162.294E-03     631.184E-03    -309.684E-03    -321.086E-03    -310.519E-03     620.617E-03    -309.684E-03     193.770E-03     744.135E-03     75.3699E+06     81.1265E+06     40.9577E+06     -5.7878E+06    -5.55953E+06     40.7294E+06     81.1265E+06     1.96292E+06
            1719     162.271E-03     734.237E-06     162.269E-03     621.490E-03    -309.938E-03    -311.468E-03    -311.461E-03     621.483E-03    -309.938E-03     4.14191E-03     623.363E-03     71.7022E+06    -103.660E+06    -119.190E+06    -181.163E+06    -112.307E+06    -180.783E+06    -110.923E+06     4.52174E+06
            1720     162.260E-03     1.46502E-03     162.253E-03     622.262E-03    -310.989E-03    -311.657E-03    -311.157E-03     622.237E-03    -311.464E-03     9.13619E-03     627.745E-03     59.3950E+06    -101.497E+06    -109.035E+06    -164.108E+06    -110.049E+06    -163.094E+06    -101.497E+06     6.70561E+06
            1721     162.257E-03     2.19791E-03     162.242E-03     620.852E-03    -309.959E-03    -311.627E-03    -309.912E-03     620.769E-03    -311.591E-03     16.9612E-03     632.058E-03     50.2049E+06    -88.9854E+06    -103.248E+06    -144.516E+06    -106.389E+06    -141.375E+06    -88.9854E+06     9.82511E+06
            1722     162.256E-03     2.93392E-03     162.230E-03     619.668E-03    -308.462E-03    -311.337E-03    -308.250E-03     619.456E-03    -311.337E-03     27.4015E-03     636.608E-03     49.1838E+06    -71.7683E+06    -92.0359E+06    -127.688E+06    -101.322E+06    -118.402E+06    -71.7683E+06     13.2090E+06
            1723     162.270E-03     3.66727E-03     162.228E-03     618.012E-03    -307.803E-03    -311.034E-03    -307.357E-03     617.566E-03    -311.034E-03     40.0447E-03     641.694E-03     52.7015E+06    -51.4037E+06    -69.6640E+06    -109.938E+06    -93.2816E+06    -86.1404E+06    -51.5834E+06     16.4685E+06
            1724     162.296E-03     4.40208E-03     162.236E-03     616.289E-03    -308.194E-03    -310.657E-03    -307.347E-03     615.442E-03    -310.657E-03     55.2741E-03     648.339E-03     59.9700E+06    -30.1810E+06    -39.8092E+06    -93.6171E+06    -83.8713E+06    -49.3752E+06    -30.3607E+06     19.2463E+06
            1725     162.337E-03     5.13757E-03     162.256E-03     615.345E-03    -307.696E-03    -309.267E-03    -306.287E-03     613.936E-03    -309.267E-03     71.5864E-03     655.212E-03     66.8510E+06    -9.83882E+06    -20.9860E+06    -81.3741E+06    -75.0498E+06    -27.3103E+06    -9.83882E+06     18.2671E+06
            1726     162.390E-03     5.87796E-03     162.284E-03     613.117E-03    -306.768E-03    -308.617E-03    -305.244E-03     611.130E-03    -308.155E-03     85.2069E-03     659.682E-03     71.6395E+06     9.08609E+06    -13.1323E+06    -70.9208E+06    -65.9871E+06    -18.0660E+06     9.08609E+06     15.9543E+06
            1727     162.527E-03     6.61528E-03     162.393E-03     615.834E-03    -307.656E-03    -309.650E-03    -305.589E-03     613.304E-03    -309.188E-03     96.4172E-03     666.599E-03     77.2391E+06     26.5070E+06    -4.90127E+06    -61.3848E+06    -56.9691E+06    -9.31696E+06     26.5070E+06     14.9135E+06
            1728     162.827E-03     7.33140E-03     162.662E-03     620.537E-03    -309.193E-03    -310.477E-03    -306.619E-03     617.445E-03    -309.959E-03     106.966E-03     675.148E-03     82.3627E+06     41.7928E+06     2.91868E+06    -52.7162E+06    -49.4200E+06    -377.475E+03     41.7928E+06     12.6395E+06
            1729     162.968E-03     8.06647E-03     162.769E-03     619.436E-03    -310.103E-03    -310.956E-03    -307.099E-03     615.620E-03    -310.144E-03     118.716E-03     682.022E-03     85.1588E+06     53.0181E+06     10.3232E+06    -45.0130E+06    -43.0662E+06     8.37636E+06     53.0181E+06     9.68699E+06
            1730     163.055E-03     8.81243E-03     162.817E-03     619.070E-03    -309.929E-03    -311.601E-03    -306.952E-03     614.462E-03    -309.969E-03     130.545E-03     688.695E-03     84.6206E+06     59.5915E+06     12.2994E+06    -37.9350E+06    -36.4256E+06     10.7901E+06     59.5915E+06     8.21636E+06
            1731     163.413E-03     9.52774E-03     163.135E-03     621.055E-03    -309.749E-03    -311.706E-03    -306.481E-03     615.830E-03    -309.749E-03     139.146E-03     696.284E-03     81.6742E+06     63.3900E+06     16.8144E+06    -30.7934E+06    -29.7017E+06     15.7227E+06     63.3900E+06     6.85388E+06
            1732     163.619E-03     10.2665E-03     163.296E-03     621.802E-03    -309.915E-03    -311.611E-03    -304.949E-03     615.140E-03    -309.915E-03     156.483E-03     709.778E-03     77.9290E+06     66.2398E+06     24.3199E+06    -23.6215E+06    -22.6464E+06     23.3448E+06     66.2398E+06     5.69000E+06
            1733     163.847E-03     11.0199E-03     163.476E-03     621.484E-03    -309.587E-03    -311.896E-03    -304.565E-03     614.153E-03    -309.587E-03     164.683E-03     717.834E-03     76.4257E+06     70.1394E+06     27.6775E+06    -18.0042E+06    -16.1984E+06     25.8717E+06     70.1394E+06     5.50187E+06
            1734     164.240E-03     11.7452E-03     163.819E-03     629.598E-03    -309.266E-03    -320.077E-03    -308.971E-03     618.493E-03    -309.266E-03     200.453E-03     749.391E-03     78.3037E+06     77.7292E+06     36.6191E+06    -12.4338E+06    -11.1633E+06     35.3487E+06     77.7292E+06     3.47338E+06
            1735     164.650E-03     12.4823E-03     164.176E-03     632.222E-03    -309.286E-03    -321.928E-03    -311.427E-03     621.721E-03    -309.286E-03     193.443E-03     744.800E-03     79.1749E+06     86.5815E+06     45.0754E+06    -4.59039E+06    -4.49979E+06     44.9848E+06     86.5815E+06     563.439E+03
            1736     164.134E-03     733.705E-06     164.132E-03     618.500E-03    -308.411E-03    -310.015E-03    -309.806E-03     618.488E-03    -308.608E-03     5.24435E-03     620.299E-03     88.0388E+06    -104.783E+06    -117.022E+06    -197.864E+06    -110.058E+06    -197.565E+06    -112.046E+06     4.28739E+06
            1737     164.130E-03     1.46756E-03     164.124E-03     618.817E-03    -309.174E-03    -309.984E-03    -309.215E-03     618.785E-03    -309.911E-03     10.7177E-03     624.177E-03     75.7128E+06    -102.934E+06    -110.255E+06    -181.852E+06    -111.109E+06    -180.998E+06    -102.934E+06     7.52336E+06
            1738     164.126E-03     2.20198E-03     164.111E-03     618.786E-03    -309.231E-03    -310.529E-03    -309.486E-03     618.698E-03    -310.186E-03     17.3813E-03     629.669E-03     70.2384E+06    -84.7010E+06    -102.585E+06    -161.975E+06    -104.976E+06    -159.585E+06    -84.7010E+06     10.8126E+06
            1739     164.123E-03     2.93405E-03     164.097E-03     619.443E-03    -309.263E-03    -310.559E-03    -309.401E-03     619.239E-03    -310.217E-03     27.0531E-03     636.621E-03     65.9001E+06    -64.1994E+06    -91.3427E+06    -139.126E+06    -96.5517E+06    -133.917E+06    -64.1994E+06     14.1744E+06
            1740     164.140E-03     3.66911E-03     164.099E-03     618.322E-03    -308.315E-03    -310.264E-03    -307.874E-03     617.880E-03    -310.264E-03     39.6998E-03     641.898E-03     62.3115E+06    -45.5592E+06    -76.5375E+06    -117.275E+06    -89.2137E+06    -104.599E+06    -45.5592E+06     17.5041E+06
            1741     164.167E-03     4.40505E-03     164.107E-03     615.893E-03    -307.567E-03    -310.136E-03    -306.729E-03     615.055E-03    -310.136E-03     55.0122E-03     647.033E-03     63.8905E+06    -26.4594E+06    -47.2030E+06    -97.2802E+06    -81.4652E+06    -63.0180E+06    -26.4594E+06     20.6492E+06
            1742     164.206E-03     5.14369E-03     164.125E-03     615.133E-03    -307.539E-03    -309.110E-03    -306.162E-03     613.756E-03    -309.110E-03     70.7173E-03     654.155E-03     70.4855E+06    -6.70407E+06    -20.2916E+06    -82.8536E+06     -73.547E+06    -29.5981E+06    -6.70407E+06     21.3782E+06
            1743     164.255E-03     5.88097E-03     164.150E-03     613.903E-03    -307.733E-03    -309.113E-03    -306.673E-03     611.875E-03    -308.145E-03     86.0473E-03     659.978E-03     76.0489E+06     9.61328E+06    -10.6877E+06    -74.3640E+06    -67.4202E+06    -17.6315E+06     9.61328E+06     19.1603E+06
            1744     164.385E-03     6.61276E-03     164.252E-03     616.175E-03    -308.363E-03    -310.059E-03    -306.936E-03     613.522E-03    -308.833E-03     98.7669E-03     667.683E-03     79.6980E+06     25.1680E+06    -5.01012E+06    -64.9694E+06    -59.8974E+06    -10.0821E+06     25.1680E+06     16.5875E+06
            1745     164.692E-03     7.33105E-03     164.529E-03     619.742E-03    -308.963E-03    -310.168E-03    -306.496E-03     616.540E-03    -309.433E-03     108.761E-03     675.067E-03     85.6831E+06     42.7698E+06     5.54986E+06    -55.1525E+06    -50.7082E+06     1.10557E+06     42.7698E+06     15.6788E+06
            1746     164.843E-03     8.06749E-03     164.645E-03     618.415E-03    -309.276E-03    -310.504E-03    -306.133E-03     614.502E-03    -309.733E-03     120.076E-03     680.842E-03     90.5749E+06     57.5166E+06     15.1251E+06    -46.3707E+06    -42.6846E+06     11.4390E+06     57.5166E+06     14.5630E+06
            1747     164.923E-03     8.81658E-03     164.687E-03     618.291E-03    -309.277E-03    -310.760E-03    -305.505E-03     613.494E-03    -309.734E-03     133.009E-03     687.825E-03     90.6875E+06     66.0106E+06     18.0441E+06    -38.4937E+06    -35.6563E+06     15.2067E+06     66.0106E+06     12.2710E+06
            1748     165.276E-03     9.53451E-03     165.001E-03     620.265E-03    -309.441E-03    -311.017E-03    -305.476E-03     614.724E-03    -309.441E-03     143.195E-03     695.391E-03     86.9997E+06     70.7988E+06     22.8799E+06    -29.5710E+06    -28.0778E+06     21.3867E+06     70.7988E+06     8.29578E+06
            1749     165.472E-03     10.2727E-03     165.153E-03     621.831E-03    -309.264E-03    -311.976E-03    -305.092E-03     614.947E-03    -309.264E-03     159.303E-03     709.791E-03     82.2752E+06     72.2250E+06     26.1401E+06    -22.6920E+06    -21.3991E+06     24.8472E+06     72.2250E+06     6.27907E+06
            1750     165.691E-03     11.0267E-03     165.323E-03     621.783E-03    -308.645E-03    -312.284E-03    -304.942E-03     614.441E-03    -308.645E-03     164.849E-03     718.112E-03     80.3149E+06     75.0068E+06     29.1617E+06    -17.6326E+06    -15.4221E+06     26.9512E+06     75.0068E+06     5.52185E+06
            1751     166.092E-03     11.7485E-03     165.676E-03     628.513E-03    -308.324E-03    -319.140E-03    -308.383E-03     617.755E-03    -308.324E-03     197.369E-03     747.657E-03     80.8600E+06     82.6664E+06     42.4670E+06    -10.1590E+06    -8.58764E+06     40.8957E+06     82.6664E+06     4.04908E+06
            1752     166.502E-03     12.4870E-03     166.034E-03     630.102E-03    -308.872E-03    -319.842E-03    -309.735E-03     619.995E-03    -308.872E-03     189.570E-03     742.528E-03     80.5665E+06     89.6630E+06     51.1425E+06    -2.70014E+06    -2.36610E+06     50.8085E+06     89.6630E+06     2.96404E+06
            1753     165.992E-03     735.795E-06     165.991E-03     614.932E-03    -306.723E-03    -308.180E-03    -307.335E-03     614.923E-03    -307.560E-03     4.74099E-03     616.706E-03     97.2866E+06    -118.542E+06    -126.812E+06    -219.585E+06    -125.702E+06    -219.223E+06    -120.014E+06     5.23476E+06
            1754     165.987E-03     1.47130E-03     165.980E-03     616.717E-03    -308.283E-03    -308.686E-03    -308.397E-03     616.690E-03    -308.546E-03     9.50068E-03     621.786E-03     84.8384E+06    -108.896E+06    -117.894E+06    -197.758E+06    -118.783E+06    -196.869E+06    -108.896E+06     8.02414E+06
            1755     165.985E-03     2.20408E-03     165.971E-03     617.682E-03    -309.056E-03    -309.766E-03    -309.403E-03     617.596E-03    -309.333E-03     17.0919E-03     627.989E-03      77.313E+06    -93.2804E+06    -111.451E+06    -177.817E+06    -113.242E+06    -176.027E+06    -93.2804E+06     10.4985E+06
            1756     165.985E-03     2.93744E-03     165.959E-03     618.112E-03    -309.268E-03    -310.087E-03    -309.547E-03     617.886E-03    -309.583E-03     28.3074E-03     635.195E-03     72.2316E+06    -73.6509E+06    -101.861E+06    -155.554E+06    -106.078E+06    -151.336E+06    -73.6509E+06     13.6209E+06
            1757     165.998E-03     3.67022E-03     165.957E-03     618.302E-03    -308.623E-03    -309.712E-03    -308.312E-03     617.830E-03    -309.550E-03     41.2113E-03     642.037E-03     68.5017E+06    -51.7813E+06    -87.0661E+06    -130.586E+06    -96.3393E+06    -121.313E+06    -51.7813E+06     16.8821E+06
            1758     166.026E-03     4.40537E-03     165.968E-03     616.409E-03    -307.635E-03    -309.376E-03    -306.768E-03     615.543E-03    -309.376E-03     55.9267E-03     646.922E-03     68.0608E+06    -30.8453E+06    -61.5985E+06    -108.258E+06    -86.4750E+06    -83.3811E+06    -30.8453E+06     21.3684E+06
            1759     166.061E-03     5.14147E-03     165.982E-03     614.504E-03    -306.565E-03    -308.885E-03    -305.125E-03     613.065E-03    -308.885E-03     72.1121E-03     652.757E-03     74.5364E+06    -11.3049E+06    -27.1495E+06    -91.8522E+06    -77.5986E+06    -41.4031E+06    -11.3049E+06     25.6825E+06
            1760     166.114E-03     5.88326E-03     166.010E-03     613.036E-03    -306.537E-03    -308.627E-03    -305.079E-03     610.891E-03    -307.939E-03     88.3625E-03     658.118E-03     81.6379E+06     8.54521E+06    -4.48478E+06    -78.6014E+06    -68.7293E+06    -14.3569E+06     8.54521E+06     24.7152E+06
            1761     166.247E-03     6.62249E-03     166.115E-03     614.938E-03    -308.038E-03    -309.225E-03    -306.439E-03     612.151E-03    -308.038E-03     101.218E-03     667.018E-03     85.7526E+06     27.1796E+06     487.825E+03    -68.2878E+06    -61.3555E+06    -6.44448E+06     27.1796E+06     20.3493E+06
            1762     166.556E-03     7.33595E-03     166.394E-03     618.468E-03    -308.471E-03    -309.951E-03    -306.540E-03     615.058E-03    -308.471E-03     112.170E-03     675.094E-03     90.3614E+06     44.0700E+06     5.67492E+06    -58.9503E+06    -53.9790E+06     703.628E+03     44.0700E+06     17.1162E+06
            1763     166.707E-03     8.07076E-03     166.511E-03     617.644E-03    -308.315E-03    -309.985E-03    -305.356E-03     613.472E-03    -308.772E-03     123.930E-03     679.405E-03     94.6554E+06     58.9661E+06     15.1606E+06    -49.5756E+06    -44.7407E+06     10.3257E+06     58.9661E+06     16.9533E+06
            1764     166.791E-03     8.82154E-03     166.558E-03     616.237E-03    -308.431E-03    -309.592E-03    -303.785E-03     611.269E-03    -309.269E-03     135.106E-03     686.473E-03     95.7475E+06       70.88E+06     25.3919E+06    -39.0985E+06    -35.2244E+06     21.5178E+06       70.88E+06     14.9758E+06
            1765     167.149E-03     9.54085E-03     166.876E-03     618.235E-03    -308.810E-03    -310.404E-03    -304.467E-03     612.679E-03    -309.191E-03     143.172E-03     694.691E-03     92.3154E+06     75.6766E+06     31.3888E+06    -30.3354E+06    -28.2132E+06     29.2667E+06     75.6766E+06     10.7712E+06
            1766     167.348E-03     10.2805E-03     167.032E-03     622.324E-03    -308.711E-03    -313.446E-03    -306.671E-03     615.549E-03    -308.711E-03     158.228E-03     710.388E-03     86.9492E+06     75.3620E+06     28.5762E+06    -24.7493E+06    -22.9329E+06     26.7597E+06     75.3620E+06     8.11749E+06
            1767     167.586E-03     11.0269E-03     167.223E-03     622.940E-03    -307.662E-03    -314.840E-03    -307.514E-03     615.614E-03    -307.662E-03     165.043E-03     720.160E-03     83.9421E+06     78.3695E+06     33.6906E+06    -18.2155E+06    -16.6414E+06     32.1165E+06     78.3695E+06     5.15278E+06
            1768     167.741E-03     11.7654E-03     167.327E-03     627.178E-03    -307.242E-03    -319.564E-03    -308.450E-03     616.064E-03    -307.242E-03     200.108E-03     747.363E-03     83.8408E+06     82.4398E+06     44.4704E+06    -13.5620E+06    -12.5061E+06     43.4146E+06     82.4398E+06     2.22362E+06
            1769     168.278E-03     12.4904E-03     167.814E-03     626.113E-03    -308.090E-03    -317.374E-03    -306.756E-03     615.729E-03    -308.325E-03     190.901E-03     738.984E-03     83.8755E+06     88.8152E+06     51.8378E+06    -7.16999E+06    -6.70910E+06     51.3769E+06     88.8152E+06     1.64102E+06
            1770     167.833E-03     736.340E-06     167.832E-03     611.966E-03    -305.461E-03    -306.211E-03    -305.539E-03     611.959E-03    -306.126E-03     4.53224E-03     613.819E-03     108.438E+06    -125.671E+06    -131.813E+06    -237.034E+06    -129.728E+06    -236.762E+06    -128.029E+06     2.51042E+06
            1771     167.836E-03     1.47027E-03     167.829E-03     613.571E-03    -306.834E-03    -307.100E-03    -307.064E-03     613.535E-03    -306.834E-03     10.5343E-03     618.643E-03     95.6059E+06    -116.032E+06    -124.701E+06    -215.619E+06    -124.373E+06    -215.061E+06    -116.917E+06     6.44217E+06
            1772     167.835E-03     2.20464E-03     167.821E-03     614.947E-03    -307.400E-03    -307.987E-03    -307.675E-03     614.846E-03    -307.612E-03     18.6528E-03     625.055E-03     88.3188E+06    -100.784E+06    -117.292E+06    -196.010E+06    -119.152E+06    -194.150E+06    -100.784E+06     11.2060E+06
            1773     167.837E-03     2.93956E-03     167.811E-03     615.470E-03    -307.587E-03    -308.647E-03    -307.691E-03     615.217E-03    -308.291E-03     29.7502E-03     632.100E-03     81.3646E+06    -79.5742E+06    -107.788E+06    -170.918E+06    -111.769E+06    -166.937E+06    -79.5742E+06     14.9305E+06
            1774     167.857E-03     3.67468E-03     167.817E-03     616.003E-03    -307.497E-03    -308.852E-03    -307.115E-03     615.458E-03    -308.690E-03     44.1418E-03     639.596E-03     75.8066E+06    -57.1262E+06    -95.9233E+06    -144.280E+06    -104.210E+06    -135.994E+06    -57.1262E+06     17.3261E+06
            1775     167.886E-03     4.40887E-03     167.829E-03     615.438E-03    -307.444E-03    -308.658E-03    -306.595E-03     614.424E-03    -308.493E-03     60.5064E-03     646.224E-03     72.4471E+06    -36.9537E+06    -78.5262E+06    -120.230E+06    -95.9128E+06    -102.843E+06    -36.9537E+06     19.5937E+06
            1776     167.928E-03     5.14835E-03     167.849E-03     614.600E-03    -306.933E-03    -308.549E-03    -305.473E-03     612.974E-03    -308.384E-03     76.9502E-03     652.408E-03     74.8945E+06    -16.6884E+06    -44.2723E+06    -99.4600E+06    -85.0501E+06    -58.6821E+06    -16.6884E+06     22.5607E+06
            1777     167.975E-03     5.88775E-03     167.872E-03     613.555E-03    -306.480E-03    -307.848E-03    -304.367E-03     611.259E-03    -307.665E-03     91.5071E-03     657.267E-03     83.2526E+06     4.47600E+06    -8.58314E+06    -84.0370E+06    -73.4725E+06    -19.1476E+06     4.47600E+06     25.8742E+06
            1778     168.098E-03     6.62360E-03     167.968E-03     612.751E-03    -307.003E-03    -307.637E-03    -304.584E-03     609.781E-03    -307.086E-03     104.110E-03     664.671E-03     91.3483E+06     26.1751E+06     7.45143E+06    -72.7960E+06    -63.5363E+06    -1.80827E+06     26.1751E+06     25.5260E+06
            1779     168.330E-03     7.34704E-03     168.170E-03     614.695E-03    -307.378E-03    -308.307E-03    -304.648E-03     611.072E-03    -307.414E-03     115.222E-03     672.691E-03     97.0036E+06     45.5351E+06     12.5691E+06    -63.2200E+06    -56.0018E+06     5.35085E+06     45.5351E+06     22.1760E+06
            1780     168.540E-03     8.08103E-03     168.346E-03     616.463E-03    -307.576E-03    -309.317E-03    -305.070E-03     612.251E-03    -307.612E-03     124.499E-03     678.354E-03     99.9783E+06     60.7368E+06     15.2069E+06    -53.5360E+06    -48.1329E+06     9.80379E+06     60.7368E+06     18.2397E+06
            1781     168.726E-03     8.81471E-03     168.496E-03     616.112E-03    -308.053E-03    -309.970E-03    -304.717E-03     611.241E-03    -308.434E-03     133.794E-03     686.360E-03     101.487E+06     73.6058E+06     27.1366E+06    -42.6270E+06    -38.5108E+06     23.0204E+06     73.6058E+06     16.0813E+06
            1782     168.826E-03     9.56154E-03     168.555E-03     617.789E-03    -308.311E-03    -310.565E-03    -304.609E-03     612.214E-03    -308.692E-03     143.342E-03     695.031E-03     99.5743E+06     79.1150E+06     38.3546E+06    -34.3420E+06    -30.9905E+06     35.0031E+06     79.1150E+06     15.1066E+06
            1783     169.155E-03     10.2844E-03     168.842E-03     620.664E-03    -307.724E-03    -312.802E-03    -305.944E-03     613.807E-03    -307.724E-03     159.012E-03     708.681E-03     92.0062E+06     77.7168E+06     35.4853E+06    -27.6520E+06    -25.4313E+06     33.2646E+06     77.7168E+06     10.7606E+06
            1784     169.428E-03     11.0279E-03     169.069E-03     619.977E-03    -306.775E-03    -313.476E-03    -305.921E-03     612.422E-03    -306.775E-03     167.223E-03     716.793E-03     88.4515E+06     79.8744E+06     41.4805E+06    -20.9346E+06    -19.6588E+06     40.2047E+06     79.8744E+06     6.73506E+06
            1785     169.532E-03     11.7865E-03     169.121E-03     624.843E-03    -306.584E-03    -319.049E-03    -307.116E-03     612.909E-03    -306.584E-03     206.831E-03     744.827E-03     89.7309E+06     87.7554E+06     52.3083E+06    -14.1499E+06    -13.1030E+06     51.2614E+06     87.7554E+06     4.08641E+06
            1786     170.023E-03     12.5102E-03     169.562E-03     625.186E-03    -307.213E-03    -318.964E-03    -307.645E-03     614.102E-03    -307.448E-03     196.708E-03     738.501E-03     89.1185E+06     95.1218E+06     55.1444E+06    -6.94394E+06    -6.32888E+06     54.5294E+06     95.1218E+06     138.929E+03
            1787     169.574E-03     737.278E-06     169.572E-03     605.826E-03    -302.528E-03    -303.540E-03    -303.465E-03     605.808E-03    -302.584E-03     7.57844E-03     607.638E-03     115.271E+06    -131.261E+06    -138.343E+06    -249.884E+06    -136.135E+06    -249.624E+06    -133.729E+06     1.70456E+06
            1788     169.531E-03     1.47590E-03     169.524E-03     605.854E-03    -303.127E-03    -303.297E-03    -303.188E-03     605.789E-03    -303.170E-03     14.6266E-03     610.842E-03     104.381E+06    -124.775E+06    -133.624E+06    -233.245E+06    -133.014E+06    -232.969E+06    -125.660E+06     4.20863E+06
            1789     169.518E-03     2.21382E-03     169.504E-03     607.114E-03    -303.390E-03    -304.228E-03    -304.052E-03     606.952E-03    -303.403E-03     23.6765E-03     617.264E-03     96.4836E+06    -108.656E+06    -125.032E+06    -212.074E+06    -126.203E+06    -210.903E+06    -108.656E+06     9.11214E+06
            1790     169.522E-03     2.94882E-03     169.496E-03     609.219E-03    -303.599E-03    -305.503E-03    -304.660E-03     608.868E-03    -304.091E-03     34.9485E-03     625.984E-03     88.8441E+06    -86.0385E+06    -114.250E+06    -185.255E+06    -117.138E+06    -182.367E+06    -86.0385E+06     12.9659E+06
            1791     169.569E-03     3.68515E-03     169.529E-03     610.523E-03    -304.258E-03    -306.079E-03    -304.310E-03     609.856E-03    -305.359E-03     48.7593E-03     634.203E-03     81.9390E+06    -62.9014E+06    -101.716E+06    -156.797E+06    -108.157E+06    -150.356E+06    -62.9014E+06     16.2035E+06
            1792     169.666E-03     4.42104E-03     169.608E-03     611.794E-03    -305.695E-03    -306.690E-03    -304.783E-03     610.676E-03    -306.485E-03     63.5294E-03     642.119E-03     79.3603E+06    -37.4621E+06    -83.8465E+06    -128.917E+06    -97.4684E+06    -115.295E+06    -37.4621E+06     19.1932E+06
            1793     169.811E-03     5.14763E-03     169.732E-03     613.328E-03    -306.923E-03    -307.471E-03    -305.489E-03     611.633E-03    -307.211E-03     78.5627E-03     650.938E-03     81.3242E+06    -14.1048E+06    -57.3477E+06    -107.335E+06    -87.5249E+06    -77.1581E+06    -14.1048E+06     23.1111E+06
            1794     169.910E-03     5.88057E-03     169.808E-03     614.000E-03    -307.078E-03    -308.292E-03    -305.734E-03     611.633E-03    -307.269E-03     93.0367E-03     658.184E-03      87.953E+06     5.22653E+06    -20.0782E+06    -91.5929E+06    -78.1207E+06    -33.5504E+06     5.22653E+06     26.8664E+06
            1795     169.962E-03     6.62472E-03     169.833E-03     612.940E-03    -306.394E-03    -308.664E-03    -305.532E-03     609.891E-03    -306.478E-03     105.617E-03     665.499E-03     94.3397E+06     22.3615E+06     6.58485E+06    -78.7844E+06    -69.1576E+06    -3.04202E+06     22.3615E+06     26.8805E+06
            1796     170.043E-03     7.37089E-03     169.884E-03     612.993E-03    -306.502E-03    -307.801E-03    -304.153E-03     609.386E-03    -306.543E-03     114.898E-03     672.116E-03     98.4220E+06     40.7694E+06     16.4478E+06    -67.3920E+06    -59.7893E+06     8.84508E+06     40.7694E+06     23.9437E+06
            1797     170.233E-03     8.10781E-03     170.039E-03     615.021E-03    -306.914E-03    -308.313E-03    -304.202E-03     610.951E-03    -306.955E-03     122.271E-03     676.553E-03     103.307E+06     59.5738E+06     21.3343E+06    -56.9334E+06    -50.7255E+06     15.1264E+06     59.5738E+06     20.8154E+06
            1798     170.504E-03     8.82980E-03     170.275E-03     616.360E-03    -307.921E-03    -309.849E-03    -305.100E-03     611.611E-03    -307.921E-03     132.147E-03     684.311E-03     107.041E+06     74.5781E+06     29.3988E+06    -47.3506E+06    -42.8821E+06     24.9303E+06     74.5781E+06     16.9930E+06
            1799     170.626E-03     9.57749E-03     170.357E-03     617.688E-03    -308.268E-03    -310.108E-03    -304.415E-03     611.995E-03    -308.268E-03     144.769E-03     693.766E-03     104.429E+06     82.7231E+06     40.6028E+06    -36.1652E+06    -32.8155E+06     37.2531E+06     82.7231E+06     15.1472E+06
            1800     170.795E-03     10.3183E-03     170.483E-03     617.536E-03    -306.883E-03    -310.594E-03    -303.372E-03     610.314E-03    -306.883E-03     162.659E-03     705.653E-03     98.1412E+06     85.0626E+06     45.6651E+06    -26.5739E+06    -23.8944E+06     42.9856E+06     85.0626E+06     12.9831E+06
            1801     171.262E-03     11.0393E-03     170.906E-03     615.336E-03    -306.374E-03    -310.076E-03    -302.289E-03     607.549E-03    -306.374E-03     168.965E-03     712.217E-03     93.1104E+06     88.3313E+06     50.7367E+06    -17.4164E+06    -16.1786E+06     49.4988E+06     88.3313E+06     7.45459E+06
            1802     171.423E-03     11.7918E-03     171.017E-03     622.508E-03    -306.605E-03    -316.301E-03    -304.409E-03     610.615E-03    -306.605E-03     206.118E-03     741.408E-03     92.6308E+06     95.7536E+06     60.8435E+06    -8.98803E+06    -8.22666E+06     60.0821E+06     95.7536E+06     5.75514E+06
            1803     171.959E-03     12.5154E-03     171.503E-03     625.042E-03    -307.032E-03    -319.107E-03    -308.001E-03     613.936E-03    -307.032E-03     197.284E-03     737.910E-03     92.0457E+06     98.6069E+06     61.6650E+06    -5.99610E+06    -5.42148E+06     61.0904E+06     98.6069E+06     3.11160E+06
            1804     171.396E-03     741.146E-06     171.395E-03     600.353E-03    -299.734E-03    -301.022E-03    -300.683E-03     600.334E-03    -300.054E-03     7.71533E-03     601.983E-03     112.269E+06    -143.544E+06    -148.440E+06    -258.123E+06    -147.298E+06    -257.675E+06    -145.134E+06     39.6283E+03
            1805     171.330E-03     1.48097E-03     171.324E-03     599.657E-03    -299.879E-03    -300.231E-03    -299.852E-03     599.582E-03    -300.183E-03     15.5148E-03     604.456E-03     104.677E+06    -130.991E+06    -140.624E+06    -239.980E+06    -140.761E+06    -239.835E+06    -130.999E+06     1.58956E+06
            1806     171.291E-03     2.22139E-03     171.277E-03     598.574E-03    -299.322E-03    -300.506E-03    -299.663E-03     598.376E-03    -299.967E-03     26.1102E-03     608.550E-03     100.992E+06    -114.597E+06    -132.738E+06    -223.243E+06    -133.077E+06    -222.903E+06    -114.597E+06     3.57121E+06
            1807     171.278E-03     2.96301E-03     171.253E-03     600.518E-03    -299.470E-03    -301.950E-03    -301.145E-03     600.084E-03    -299.840E-03     38.9353E-03     617.548E-03     91.1871E+06    -96.3821E+06    -123.165E+06    -197.760E+06    -123.973E+06    -196.952E+06    -96.3821E+06     6.36225E+06
            1808     171.296E-03     3.70247E-03     171.256E-03     604.797E-03    -300.516E-03    -303.400E-03    -302.611E-03     604.007E-03    -300.516E-03     53.0915E-03     628.846E-03     82.6649E+06    -73.8697E+06    -110.961E+06    -168.304E+06    -113.222E+06    -166.043E+06    -73.8697E+06     9.88608E+06
            1809     171.377E-03     4.43820E-03     171.320E-03     608.220E-03    -302.688E-03    -304.963E-03    -303.551E-03     606.988E-03    -302.868E-03     66.6849E-03     638.231E-03     80.3764E+06    -47.6662E+06    -93.5216E+06    -140.352E+06    -102.216E+06    -131.658E+06    -47.6662E+06     16.0707E+06
            1810     171.538E-03     5.17001E-03     171.460E-03     611.055E-03    -305.045E-03    -307.119E-03    -305.255E-03     609.372E-03    -305.225E-03     78.3309E-03     648.791E-03     81.3124E+06    -22.8513E+06    -70.4360E+06    -116.595E+06    -91.4876E+06    -95.5433E+06    -22.8513E+06     21.9029E+06
            1811     171.725E-03     5.89443E-03     171.624E-03     613.946E-03    -306.458E-03    -309.243E-03    -307.040E-03     611.743E-03    -306.458E-03     89.7838E-03     657.812E-03     85.6034E+06     36.4868E+03    -35.0141E+06    -96.4954E+06    -79.5848E+06    -51.9247E+06     36.4868E+03     25.8852E+06
            1812     171.850E-03     6.62451E-03     171.722E-03     614.503E-03    -306.392E-03    -309.817E-03    -306.914E-03     611.601E-03    -306.392E-03     103.143E-03     665.637E-03     93.5133E+06     20.6472E+06     2.84814E+06    -80.1886E+06    -68.4889E+06    -8.85157E+06     20.6472E+06     28.5086E+06
            1813     171.967E-03     7.35889E-03     171.809E-03     614.728E-03    -306.442E-03    -308.751E-03    -305.086E-03     611.068E-03    -306.448E-03     115.813E-03     672.156E-03     101.655E+06     38.9429E+06     20.4861E+06    -70.4615E+06    -60.8096E+06     10.8342E+06     38.9429E+06     27.6945E+06
            1814     172.166E-03     8.09811E-03     171.975E-03     615.994E-03    -306.847E-03    -308.598E-03    -304.366E-03     611.768E-03    -306.852E-03     124.650E-03     676.098E-03     106.168E+06     56.6606E+06     28.3311E+06    -60.6682E+06    -53.3575E+06     21.0204E+06     56.6606E+06     23.4048E+06
            1815     172.457E-03     8.82191E-03     172.231E-03     615.686E-03    -307.497E-03    -309.248E-03    -304.022E-03     610.801E-03    -307.837E-03     133.909E-03     683.266E-03     109.237E+06     74.9174E+06     36.9035E+06    -48.0573E+06    -43.3406E+06     32.1868E+06     74.9174E+06     18.1807E+06
            1816     172.603E-03     9.56171E-03     172.338E-03     616.107E-03    -307.738E-03    -309.073E-03    -302.691E-03     610.382E-03    -308.395E-03     144.964E-03     692.420E-03     109.500E+06     87.7610E+06     42.1844E+06    -37.0925E+06    -33.9708E+06     39.0628E+06     87.7610E+06     14.0235E+06
            1817     172.848E-03     10.3010E-03     172.541E-03     616.311E-03    -306.839E-03    -309.160E-03    -301.793E-03     609.261E-03    -307.156E-03     160.483E-03     704.313E-03     106.981E+06     94.5392E+06     53.7931E+06    -26.6512E+06    -24.6076E+06     51.7495E+06     94.5392E+06     11.5863E+06
            1818     173.206E-03     11.0328E-03     172.854E-03     613.900E-03    -306.606E-03    -308.673E-03    -301.095E-03     606.502E-03    -306.787E-03     164.357E-03     711.356E-03     101.364E+06     95.1100E+06     60.0640E+06    -18.7709E+06    -17.5536E+06     58.8467E+06     95.1100E+06     8.95203E+06
            1819     173.353E-03     11.7841E-03     172.952E-03     620.044E-03    -306.762E-03    -313.853E-03    -302.034E-03     608.405E-03    -306.943E-03     202.639E-03     739.881E-03     97.1518E+06     95.8319E+06     61.3568E+06    -13.5030E+06    -12.8904E+06     60.7442E+06     95.8319E+06     5.99757E+06
            1820     173.876E-03     12.5089E-03     173.425E-03     620.027E-03    -305.363E-03    -315.119E-03    -302.054E-03     608.705E-03    -307.106E-03     198.818E-03     733.105E-03     95.9632E+06     100.545E+06     66.8639E+06    -7.64288E+06    -7.35494E+06      66.576E+06     100.545E+06     4.30537E+06
            1821     173.175E-03     740.800E-06     173.174E-03     595.303E-03    -297.238E-03    -298.108E-03    -297.249E-03     595.266E-03    -298.060E-03     10.2504E-03     596.897E-03     100.403E+06    -151.175E+06    -153.202E+06    -252.562E+06    -153.359E+06    -252.109E+06    -151.470E+06    -4.83430E+06
            1822     173.118E-03     1.48404E-03     173.112E-03     594.799E-03    -297.254E-03    -297.795E-03    -297.329E-03     594.700E-03    -297.622E-03     17.8887E-03     599.517E-03     95.7693E+06    -141.914E+06    -150.044E+06    -241.311E+06    -150.184E+06    -241.164E+06    -141.922E+06    -1.58163E+06
            1823     173.097E-03     2.22751E-03     173.083E-03     594.313E-03    -296.953E-03    -298.224E-03    -297.382E-03     594.102E-03    -297.585E-03     26.9918E-03     603.772E-03     95.6935E+06    -125.504E+06    -142.908E+06    -228.579E+06    -143.073E+06    -228.414E+06    -125.504E+06    -1.65620E+06
            1824     173.098E-03     2.97017E-03     173.072E-03     595.373E-03    -297.301E-03    -300.116E-03    -299.327E-03     594.954E-03    -297.671E-03     38.1573E-03     611.452E-03     87.0043E+06    -109.008E+06    -134.817E+06    -205.750E+06    -135.021E+06    -205.546E+06    -109.008E+06    -134.434E+03
            1825     173.125E-03     3.71104E-03     173.085E-03     600.463E-03    -297.698E-03    -302.606E-03    -301.849E-03     599.706E-03    -297.698E-03     51.7799E-03     623.641E-03     78.4783E+06    -88.2440E+06    -124.364E+06    -178.025E+06    -124.900E+06    -177.489E+06    -88.2440E+06     2.50542E+06
            1826     173.192E-03     4.44906E-03     173.135E-03     605.834E-03    -299.360E-03    -304.886E-03    -303.681E-03     604.629E-03    -299.360E-03     65.8333E-03     635.397E-03     74.8634E+06    -66.0037E+06    -109.915E+06    -152.330E+06    -112.683E+06    -149.563E+06    -66.0037E+06     5.45121E+06
            1827     173.365E-03     5.17610E-03     173.287E-03     609.083E-03    -302.599E-03    -307.333E-03    -305.623E-03     607.374E-03    -302.599E-03     78.7488E-03     646.231E-03     70.5235E+06    -42.9861E+06    -91.5436E+06    -123.108E+06    -99.6576E+06    -114.994E+06    -42.9861E+06     10.1884E+06
            1828     173.603E-03     5.89167E-03     173.503E-03     612.878E-03    -305.258E-03    -308.645E-03    -306.320E-03     610.553E-03    -305.258E-03     92.0072E-03     656.353E-03     71.9449E+06    -19.0256E+06    -62.8622E+06    -100.168E+06    -87.5330E+06    -75.4973E+06    -19.0256E+06     16.7310E+06
            1829     173.738E-03     6.62511E-03     173.612E-03     614.353E-03    -306.110E-03    -308.817E-03    -305.765E-03     611.300E-03    -306.110E-03     105.711E-03     663.001E-03     85.1121E+06     5.17612E+06    -16.9807E+06    -86.8671E+06    -75.4165E+06    -28.4313E+06     5.17612E+06     25.3545E+06
            1830     173.840E-03     7.36947E-03     173.684E-03     614.822E-03    -306.151E-03    -309.389E-03    -305.657E-03     611.090E-03    -306.151E-03     117.062E-03     669.318E-03     98.0213E+06     28.7066E+06     18.9912E+06    -73.6788E+06    -63.2777E+06     9.25824E+06     28.0384E+06     29.0759E+06
            1831     174.036E-03     8.10502E-03     173.847E-03     615.687E-03    -306.123E-03    -309.424E-03    -305.215E-03     611.477E-03    -306.123E-03     124.437E-03     675.741E-03     106.678E+06     50.7530E+06     37.1558E+06    -61.6723E+06    -53.5902E+06     29.7419E+06     50.0848E+06     26.1965E+06
            1832     174.331E-03     8.82431E-03     174.107E-03     615.019E-03    -306.548E-03    -309.066E-03    -303.955E-03     610.249E-03    -306.888E-03     132.277E-03     682.917E-03     114.627E+06     72.0455E+06     47.3666E+06    -52.2562E+06    -46.7721E+06     41.8825E+06     72.0455E+06     21.5808E+06
            1833     174.486E-03     9.56992E-03     174.223E-03     614.322E-03    -306.824E-03    -308.387E-03    -302.259E-03     608.852E-03    -307.481E-03     141.536E-03     691.242E-03     116.708E+06     89.6900E+06     49.1552E+06    -41.5181E+06    -38.1211E+06     45.7582E+06     89.6900E+06     16.0183E+06
            1834     174.662E-03     10.3074E-03     174.357E-03     614.498E-03    -306.138E-03    -307.924E-03    -300.267E-03     607.693E-03    -306.990E-03     157.296E-03     703.657E-03     115.974E+06     98.3473E+06     56.5383E+06    -32.5474E+06    -30.5546E+06     54.5455E+06     98.3473E+06     12.0177E+06
            1835     175.049E-03     11.0374E-03     174.701E-03     612.444E-03    -305.227E-03    -307.448E-03    -298.379E-03     604.960E-03    -306.812E-03     164.981E-03     710.434E-03     110.398E+06     97.8754E+06     64.8140E+06    -25.2461E+06    -23.9401E+06     63.5079E+06     97.8754E+06     9.84098E+06
            1836     175.187E-03     11.7919E-03     174.790E-03     615.666E-03    -305.367E-03    -311.057E-03    -297.568E-03     603.227E-03    -306.416E-03     208.044E-03     736.198E-03     105.361E+06     101.067E+06     68.5922E+06    -16.6324E+06    -15.9270E+06     67.8868E+06     101.067E+06     5.64999E+06
            1837     175.700E-03     12.5263E-03     175.253E-03     610.938E-03    -300.862E-03    -310.527E-03    -293.008E-03     598.443E-03    -305.886E-03     207.820E-03     724.716E-03     102.766E+06     106.919E+06     72.0953E+06    -8.68209E+06    -8.46395E+06     71.8772E+06     106.919E+06     1.42666E+06
            1838     174.978E-03     746.661E-06     174.976E-03     589.188E-03    -293.783E-03    -295.284E-03    -294.705E-03     589.143E-03    -294.315E-03     12.2937E-03     590.815E-03     108.727E+06    -137.425E+06    -141.168E+06    -247.965E+06    -141.208E+06    -247.638E+06    -137.712E+06     399.373E+03
            1839     174.899E-03     1.49180E-03     174.892E-03     590.246E-03    -294.634E-03    -295.791E-03    -295.573E-03     590.135E-03    -294.740E-03     19.2350E-03     594.862E-03     102.968E+06    -132.991E+06    -140.861E+06    -239.633E+06    -141.044E+06    -239.450E+06    -132.991E+06    -722.899E+03
            1840     174.868E-03     2.23496E-03     174.853E-03     592.544E-03    -295.354E-03    -297.577E-03    -297.338E-03     592.305E-03    -295.354E-03     28.6859E-03     601.577E-03     96.7305E+06    -121.523E+06    -137.607E+06    -225.123E+06    -137.758E+06    -224.972E+06    -121.523E+06    -1.68590E+06
            1841     174.865E-03     2.97437E-03     174.839E-03     594.466E-03    -296.300E-03    -299.821E-03    -299.358E-03     594.003E-03    -296.300E-03     40.0938E-03     609.214E-03     89.9019E+06    -106.432E+06    -132.315E+06    -206.267E+06    -132.645E+06    -205.938E+06    -106.432E+06    -3.13105E+06
            1842     174.868E-03     3.71540E-03     174.828E-03     598.048E-03    -296.741E-03    -302.235E-03    -301.418E-03     597.231E-03    -296.741E-03     53.6060E-03     619.841E-03     79.5413E+06     -91.242E+06    -125.025E+06    -181.771E+06    -125.284E+06    -181.512E+06     -91.242E+06    -3.13966E+06
            1843     174.922E-03     4.45470E-03     174.865E-03     601.930E-03    -297.195E-03    -304.099E-03    -302.822E-03     600.653E-03    -297.195E-03     67.4993E-03     631.015E-03     71.2640E+06    -74.9316E+06    -116.289E+06    -156.963E+06    -116.688E+06    -156.564E+06    -74.9316E+06    -2.95839E+06
            1844     175.020E-03     5.19316E-03     174.943E-03     604.905E-03    -299.450E-03    -305.361E-03    -303.507E-03     603.052E-03    -299.450E-03     81.6836E-03     640.715E-03     66.2296E+06    -57.9346E+06    -106.164E+06    -132.793E+06    -107.752E+06    -131.205E+06    -57.9346E+06    -585.215E+03
            1845     175.314E-03     5.91732E-03     175.214E-03     609.946E-03    -302.799E-03    -307.674E-03    -305.278E-03     607.550E-03    -302.799E-03     93.4446E-03     653.076E-03     62.0727E+06    -38.1446E+06    -86.0794E+06    -107.819E+06    -97.6899E+06    -96.2085E+06    -38.1446E+06     5.28054E+06
            1846     175.479E-03     6.64577E-03     175.353E-03     613.479E-03    -304.756E-03    -310.046E-03    -307.152E-03     610.585E-03    -304.756E-03     102.974E-03     662.374E-03     66.8283E+06    -15.6794E+06    -49.3047E+06    -89.4977E+06    -84.5186E+06    -54.2838E+06    -15.6794E+06     11.4172E+06
            1847     175.629E-03     7.37542E-03     175.474E-03     613.166E-03    -304.917E-03    -309.579E-03    -306.075E-03     609.662E-03    -304.917E-03     113.347E-03     667.039E-03     81.1028E+06     8.79332E+06    -4.12016E+06    -75.8561E+06    -70.3133E+06    -8.01968E+06     7.15008E+06     18.4851E+06
            1848     175.768E-03     8.11874E-03     175.580E-03     611.996E-03    -304.818E-03    -308.028E-03    -304.019E-03     607.986E-03    -304.818E-03     121.160E-03     672.899E-03     97.9862E+06     34.6208E+06     31.8645E+06    -64.7094E+06    -58.2155E+06     27.2323E+06     32.7591E+06     24.0514E+06
            1849     176.116E-03     8.84249E-03     175.894E-03     612.483E-03    -305.371E-03    -307.638E-03    -303.019E-03     607.864E-03    -305.371E-03     129.909E-03     680.485E-03     112.246E+06     61.7120E+06     53.1397E+06    -54.2272E+06    -48.0116E+06     47.7981E+06     60.8381E+06     24.1963E+06
            1850     176.275E-03     9.57871E-03     176.014E-03     610.651E-03    -304.374E-03    -306.544E-03    -300.071E-03     605.087E-03    -305.283E-03     142.124E-03     686.563E-03     119.979E+06     85.2253E+06     60.3209E+06    -44.6124E+06    -40.5180E+06     56.8819E+06     84.5698E+06     19.2915E+06
            1851     176.431E-03     10.3288E-03     176.129E-03     608.425E-03    -302.499E-03    -305.517E-03    -295.399E-03     601.028E-03    -305.221E-03     162.748E-03     697.050E-03     120.426E+06     101.538E+06     64.2120E+06    -33.0069E+06    -30.8468E+06     62.0519E+06     101.538E+06     13.3701E+06
            1852     176.860E-03     11.0546E-03     176.514E-03     606.347E-03    -300.593E-03    -305.765E-03    -292.037E-03     597.791E-03    -305.765E-03     175.206E-03     703.801E-03     114.165E+06     107.929E+06     68.6224E+06    -20.6345E+06    -19.3904E+06     67.3784E+06     107.929E+06     9.57355E+06
            1853     177.042E-03     11.8118E-03     176.647E-03     606.685E-03    -301.145E-03    -306.668E-03    -288.962E-03     592.872E-03    -305.038E-03     217.838E-03     728.319E-03     110.205E+06     112.362E+06     78.7279E+06    -10.5175E+06    -9.34287E+06     77.5533E+06     112.362E+06     7.61895E+06
            1854     177.493E-03     12.5542E-03     177.048E-03     598.947E-03    -294.842E-03    -304.962E-03    -282.529E-03     585.005E-03    -303.332E-03     217.724E-03     713.747E-03     105.715E+06     113.506E+06     81.7531E+06    -4.28390E+06    -3.48045E+06     80.9496E+06     113.506E+06     4.44225E+06
            1855     176.829E-03     746.965E-06     176.828E-03     585.154E-03    -291.324E-03    -293.790E-03    -293.750E-03     585.114E-03    -291.324E-03     11.5672E-03     586.640E-03     107.231E+06    -141.399E+06    -147.249E+06    -251.398E+06    -144.936E+06    -251.214E+06    -143.897E+06     3.24285E+06
            1856     176.780E-03     1.49324E-03     176.773E-03     587.019E-03    -292.758E-03    -294.516E-03    -294.396E-03     586.899E-03    -292.758E-03     19.6203E-03     591.412E-03     101.408E+06    -132.563E+06    -140.138E+06    -237.506E+06    -140.211E+06    -237.433E+06    -132.563E+06     473.983E+03
            1857     176.768E-03     2.23718E-03     176.754E-03     590.748E-03    -293.670E-03    -296.980E-03    -296.683E-03     590.452E-03    -293.670E-03     31.7449E-03     599.431E-03     90.6114E+06    -121.685E+06    -136.093E+06    -218.538E+06    -136.275E+06    -218.356E+06    -121.685E+06    -1.72252E+06
            1858     176.769E-03     2.98067E-03     176.744E-03     594.358E-03    -295.151E-03    -299.641E-03    -299.051E-03     593.768E-03    -295.151E-03     45.2908E-03     608.494E-03     85.7736E+06    -104.625E+06    -129.058E+06    -199.722E+06    -129.423E+06    -199.357E+06    -104.625E+06    -3.45349E+06
            1859     176.782E-03     3.71973E-03     176.743E-03     596.344E-03    -296.129E-03    -301.451E-03    -300.437E-03     595.331E-03    -296.129E-03     59.8092E-03     617.581E-03     81.1905E+06    -86.7727E+06    -121.798E+06    -179.300E+06    -122.304E+06    -178.794E+06    -86.7727E+06    -4.59333E+06
            1860     176.831E-03     4.46058E-03     176.775E-03     598.406E-03    -296.338E-03    -302.969E-03    -301.456E-03     596.893E-03    -296.338E-03     73.5069E-03     627.204E-03     74.9701E+06    -71.2134E+06    -114.832E+06    -157.486E+06    -115.546E+06    -156.772E+06    -71.2134E+06    -4.87299E+06
            1861     176.908E-03     5.20119E-03     176.831E-03     602.814E-03    -297.465E-03    -305.476E-03    -303.512E-03     600.850E-03    -297.465E-03     84.2825E-03     637.881E-03     70.7877E+06    -56.2570E+06    -106.024E+06    -137.176E+06    -107.383E+06    -135.817E+06    -56.2570E+06    -5.13144E+06
            1862     177.121E-03     5.92757E-03     177.022E-03     608.744E-03    -300.441E-03    -308.772E-03    -306.412E-03     606.385E-03    -300.441E-03     92.7630E-03     650.314E-03     63.5881E+06    -41.9930E+06    -91.6003E+06    -113.575E+06    -97.8583E+06    -107.317E+06    -41.9930E+06    -3.80802E+06
            1863     177.335E-03     6.64679E-03     177.210E-03     612.719E-03    -302.961E-03    -310.649E-03    -307.737E-03     609.807E-03    -302.961E-03     103.206E-03     660.258E-03     58.5443E+06    -24.8508E+06    -66.9582E+06    -91.1028E+06    -88.0097E+06    -70.0513E+06    -24.8508E+06    -831.412E+03
            1864     177.468E-03     7.38283E-03     177.314E-03     611.842E-03    -303.447E-03    -308.459E-03    -304.787E-03     608.169E-03    -303.447E-03     115.788E-03     664.185E-03     69.5018E+06    -2.00692E+06    -34.2149E+06    -78.8283E+06    -77.3675E+06    -34.7006E+06    -2.98196E+06     5.23099E+06
            1865     177.584E-03     8.12969E-03     177.398E-03     608.403E-03    -303.412E-03    -305.780E-03    -301.024E-03     604.025E-03    -303.790E-03     125.968E-03     667.648E-03     87.9814E+06     24.6746E+06     5.80031E+06    -68.3984E+06    -65.6361E+06     9.24352E+06     18.4690E+06     12.8705E+06
            1866     177.907E-03     8.85163E-03     177.687E-03     606.895E-03    -302.789E-03    -305.223E-03    -298.366E-03     601.595E-03    -304.347E-03     137.971E-03     673.288E-03     101.512E+06     47.8487E+06     40.3697E+06    -56.9783E+06    -53.5791E+06     44.4495E+06     40.3697E+06     15.6140E+06
            1867     178.108E-03     9.59488E-03     177.849E-03     603.343E-03    -299.759E-03    -304.002E-03    -293.532E-03     596.761E-03    -303.646E-03     153.175E-03     677.269E-03     111.969E+06     72.6660E+06     63.2880E+06    -43.3427E+06    -40.0830E+06     62.3663E+06     70.3280E+06     15.4619E+06
            1868     178.238E-03     10.3468E-03     177.938E-03     599.509E-03    -296.966E-03    -302.617E-03    -288.098E-03     590.640E-03    -302.617E-03     176.342E-03     686.478E-03     120.049E+06     97.6240E+06     74.9662E+06    -31.4936E+06    -29.7168E+06     73.2790E+06     97.5345E+06     12.1092E+06
            1869     178.621E-03     11.0837E-03     178.277E-03     596.672E-03    -294.458E-03    -302.397E-03    -284.009E-03     586.223E-03    -302.397E-03     191.403E-03     693.525E-03     117.952E+06     108.147E+06     71.0178E+06    -23.5264E+06    -22.5332E+06     70.0246E+06     108.147E+06     8.06493E+06
            1870     178.855E-03     11.8455E-03     178.462E-03     596.776E-03    -296.057E-03    -301.594E-03    -280.230E-03     580.943E-03    -301.587E-03     231.789E-03     719.322E-03     114.325E+06     110.505E+06     78.9094E+06    -15.7546E+06    -14.6980E+06     77.8528E+06     110.505E+06     6.82770E+06
            1871     179.268E-03     12.6028E-03     178.824E-03     589.782E-03    -290.973E-03    -299.467E-03    -275.543E-03     574.345E-03    -299.460E-03     227.076E-03     706.598E-03     108.934E+06     111.594E+06     88.3437E+06    -6.88277E+06    -6.06637E+06     87.5273E+06     111.594E+06     5.38883E+06
            1872     178.699E-03     747.414E-06     178.697E-03     581.783E-03    -289.249E-03    -292.774E-03    -292.710E-03     581.719E-03    -289.249E-03     14.1654E-03     583.211E-03     90.2922E+06    -152.669E+06    -158.988E+06    -245.890E+06    -156.579E+06    -245.802E+06    -155.167E+06    -1.50240E+06
            1873     178.658E-03     1.49499E-03     178.652E-03     583.999E-03    -291.132E-03    -293.157E-03    -292.985E-03     583.827E-03    -291.132E-03     23.8903E-03     588.263E-03     84.3927E+06    -146.298E+06    -151.426E+06    -233.094E+06    -151.700E+06    -232.821E+06    -146.298E+06    -3.17922E+06
            1874     178.675E-03     2.24192E-03     178.661E-03     588.279E-03    -292.411E-03    -295.833E-03    -295.453E-03     587.900E-03    -292.411E-03     35.9739E-03     596.579E-03     73.1947E+06    -132.623E+06    -145.574E+06    -211.227E+06    -146.171E+06    -210.631E+06    -132.623E+06    -5.20621E+06
            1875     178.669E-03     2.98484E-03     178.644E-03     591.502E-03    -293.858E-03    -298.318E-03    -297.607E-03     590.791E-03    -293.858E-03     49.7704E-03     605.193E-03     70.8360E+06    -113.753E+06    -137.564E+06    -193.210E+06    -139.047E+06    -191.727E+06    -113.753E+06    -7.05253E+06
            1876     178.704E-03     3.72794E-03     178.665E-03     594.405E-03    -294.682E-03    -300.622E-03    -299.482E-03     593.266E-03    -294.682E-03     63.4820E-03     614.704E-03     72.9751E+06    -91.5064E+06    -127.049E+06    -175.273E+06    -129.002E+06    -173.321E+06    -91.5064E+06    -7.94590E+06
            1877     178.748E-03     4.46953E-03     178.692E-03     598.091E-03    -295.309E-03    -303.140E-03    -301.450E-03     596.401E-03    -295.309E-03     77.6176E-03     625.127E-03     74.5724E+06    -70.5357E+06    -115.765E+06    -156.440E+06    -118.686E+06    -153.518E+06    -70.5357E+06    -8.53994E+06
            1878     178.860E-03     5.20476E-03     178.785E-03     601.750E-03    -296.781E-03    -306.283E-03    -303.964E-03     599.431E-03    -296.781E-03     91.2377E-03     636.716E-03     73.1695E+06    -52.9009E+06    -105.858E+06    -136.118E+06    -109.781E+06    -132.194E+06    -52.9009E+06    -8.77479E+06
            1879     179.103E-03     5.92576E-03     179.005E-03     605.670E-03    -299.229E-03    -307.796E-03    -304.801E-03     602.675E-03    -299.229E-03     103.907E-03     647.324E-03     71.6404E+06    -37.2399E+06    -93.5502E+06    -117.755E+06    -101.666E+06    -109.640E+06    -37.2399E+06    -9.60062E+06
            1880     179.295E-03     6.65378E-03     179.171E-03     608.144E-03    -301.204E-03    -306.853E-03    -303.028E-03     604.319E-03    -301.204E-03     117.410E-03     652.980E-03     68.0952E+06    -22.7924E+06    -71.5340E+06    -100.051E+06    -92.8215E+06    -78.7635E+06    -22.7924E+06    -8.16183E+06
            1881     179.397E-03     7.39271E-03     179.245E-03     606.044E-03    -301.097E-03    -304.402E-03    -299.526E-03     601.167E-03    -301.097E-03     131.827E-03     655.478E-03     67.1000E+06    -7.37291E+06    -47.7702E+06    -84.0228E+06    -82.0719E+06    -49.7211E+06    -7.37291E+06    -4.74255E+06
            1882     179.491E-03     8.14025E-03     179.306E-03     601.551E-03    -299.922E-03    -302.124E-03    -295.066E-03     595.545E-03    -300.975E-03     145.658E-03     657.419E-03     77.9163E+06     15.1959E+06    -12.9570E+06    -71.1665E+06    -69.9862E+06    -9.12520E+06     10.1838E+06    -1.15783E+06
            1883     179.823E-03     8.87698E-03     179.604E-03     598.485E-03    -298.158E-03    -301.419E-03    -290.962E-03     591.290E-03    -301.419E-03     159.145E-03     661.525E-03     93.6371E+06     41.4794E+06     25.0599E+06    -59.1243E+06    -57.8652E+06     36.3507E+06     28.9295E+06     3.40601E+06
            1884     179.998E-03     9.62368E-03     179.740E-03     594.345E-03    -294.685E-03    -300.643E-03    -285.957E-03     585.617E-03    -300.643E-03     174.389E-03     666.048E-03     104.762E+06     59.7075E+06     51.2401E+06    -48.7153E+06    -47.5912E+06     58.5834E+06     51.2401E+06     6.25596E+06
            1885     180.141E-03     10.3849E-03     179.841E-03     590.472E-03    -292.282E-03    -298.765E-03    -280.805E-03     578.996E-03    -298.765E-03     198.707E-03     675.755E-03     114.240E+06     79.5304E+06     70.7495E+06    -38.6500E+06    -37.1586E+06     72.4601E+06     76.3284E+06     8.26222E+06
            1886     180.449E-03     11.1335E-03     180.105E-03     588.899E-03    -291.329E-03    -297.111E-03    -278.166E-03     575.735E-03    -297.111E-03     213.333E-03     685.041E-03     118.891E+06     99.9868E+06     76.8498E+06    -28.3193E+06    -27.3693E+06     78.1721E+06     97.7143E+06     7.28850E+06
            1887     180.702E-03     11.8984E-03     180.310E-03     593.570E-03    -293.456E-03    -299.841E-03    -278.726E-03     575.502E-03    -296.503E-03     248.538E-03     717.911E-03     116.214E+06     108.384E+06     79.5015E+06    -19.0692E+06    -18.4389E+06     78.8713E+06     108.384E+06     4.06748E+06
            1888     181.138E-03     12.6507E-03     180.696E-03     591.028E-03    -291.852E-03    -298.978E-03    -279.221E-03     574.549E-03    -295.129E-03     234.566E-03     712.880E-03     111.265E+06     112.662E+06     87.7279E+06    -8.68664E+06    -8.37264E+06     87.4139E+06     112.662E+06     2.40362E+06
            1889     180.560E-03     749.997E-06     180.559E-03     576.203E-03    -286.471E-03    -290.138E-03    -290.055E-03     576.120E-03    -286.471E-03     15.6639E-03     577.520E-03     88.8026E+06    -143.712E+06    -152.269E+06    -236.398E+06    -149.043E+06    -236.263E+06    -147.072E+06    -629.202E+03
            1890     180.546E-03     1.49864E-03     180.540E-03     579.430E-03    -288.496E-03    -290.935E-03    -290.678E-03     579.173E-03    -288.496E-03     28.9045E-03     583.363E-03     78.9686E+06    -139.546E+06    -147.964E+06    -222.236E+06    -148.238E+06    -221.962E+06    -139.546E+06    -3.34058E+06
            1891     180.591E-03     2.24418E-03     180.577E-03     583.756E-03    -290.080E-03    -293.631E-03    -293.092E-03     583.217E-03    -290.080E-03     42.6171E-03     591.415E-03     68.8000E+06    -126.306E+06    -142.611E+06    -201.552E+06    -143.356E+06    -200.807E+06    -126.306E+06    -5.80763E+06
            1892     180.589E-03     2.99043E-03     180.565E-03     585.658E-03    -291.362E-03    -295.161E-03    -294.213E-03     584.710E-03    -291.362E-03     57.0096E-03     598.201E-03     64.5144E+06    -111.430E+06    -137.075E+06    -184.590E+06    -138.787E+06    -182.877E+06    -111.430E+06    -7.98725E+06
            1893     180.636E-03     3.73619E-03     180.598E-03     589.034E-03    -291.801E-03    -298.009E-03    -296.452E-03     587.477E-03    -291.801E-03     73.2493E-03     607.307E-03     64.7999E+06    -94.7324E+06    -129.823E+06    -169.242E+06    -133.271E+06    -165.794E+06    -94.7324E+06    -9.98848E+06
            1894     180.681E-03     4.47593E-03     180.625E-03     592.706E-03    -292.320E-03    -300.960E-03    -298.600E-03     590.346E-03    -292.320E-03     90.5975E-03     617.781E-03     67.7911E+06    -74.5551E+06    -119.802E+06    -152.273E+06    -124.995E+06    -147.079E+06    -74.5551E+06    -11.3164E+06
            1895     180.801E-03     5.21655E-03     180.725E-03     594.955E-03    -293.755E-03    -302.115E-03    -298.795E-03     591.635E-03    -293.755E-03     107.922E-03     627.382E-03     71.2394E+06    -54.6724E+06    -106.683E+06    -135.647E+06    -115.764E+06    -126.566E+06    -54.6724E+06    -12.3584E+06
            1896     181.106E-03     5.94349E-03     181.008E-03     597.744E-03    -296.173E-03    -301.985E-03    -297.659E-03     593.418E-03    -296.173E-03     123.585E-03     635.842E-03     73.5254E+06    -36.6211E+06    -90.3819E+06    -120.200E+06    -106.234E+06    -104.348E+06    -36.6211E+06    -13.8921E+06
            1897     181.240E-03     6.68090E-03     181.117E-03     598.030E-03    -297.548E-03    -300.157E-03    -294.608E-03     592.481E-03    -297.548E-03     139.639E-03     639.556E-03     74.0086E+06    -20.2934E+06    -69.1332E+06    -104.872E+06    -95.5241E+06    -78.4813E+06    -20.2934E+06    -15.1158E+06
            1898     181.342E-03     7.42977E-03     181.190E-03     593.607E-03    -296.184E-03    -297.589E-03    -290.106E-03     586.569E-03    -296.629E-03     156.830E-03     640.218E-03     73.7921E+06    -7.28104E+06    -43.8091E+06    -91.5126E+06    -84.6352E+06    -50.6865E+06    -7.28104E+06    -14.9723E+06
            1899     181.434E-03     8.18800E-03     181.249E-03     589.470E-03    -293.999E-03    -295.884E-03    -285.891E-03     580.955E-03    -295.478E-03     171.958E-03     642.092E-03     76.7526E+06     7.66658E+06    -14.0561E+06    -77.2223E+06    -73.1027E+06    -18.1758E+06     7.66658E+06    -13.1191E+06
            1900     181.684E-03     8.92962E-03     181.465E-03     587.298E-03    -292.522E-03    -294.857E-03    -282.568E-03     577.344E-03    -294.857E-03     185.327E-03     647.457E-03     90.1337E+06     31.4797E+06     18.3571E+06    -64.1980E+06    -62.0984E+06     22.2023E+06     25.5348E+06    -7.80461E+06
            1901     181.912E-03     9.68588E-03     181.654E-03     585.018E-03    -291.103E-03    -294.652E-03    -279.927E-03     573.545E-03    -294.355E-03     198.681E-03     654.768E-03     102.185E+06     56.1721E+06     41.9261E+06    -51.7489E+06    -50.6117E+06     55.0143E+06     41.9468E+06    -3.53784E+06
            1902     182.054E-03     10.4488E-03     181.754E-03     585.972E-03    -290.130E-03    -295.937E-03    -279.127E-03     572.180E-03    -293.149E-03     218.052E-03     669.674E-03     104.819E+06     69.9587E+06     58.1988E+06    -39.7854E+06    -38.1949E+06     67.1613E+06     59.4058E+06    -2.32688E+06
            1903     182.317E-03     11.2045E-03     181.972E-03     588.471E-03    -290.086E-03    -297.501E-03    -281.011E-03     573.592E-03    -291.697E-03     227.449E-03     685.030E-03     107.399E+06     85.6105E+06     75.7942E+06    -26.2578E+06    -24.7148E+06     76.5237E+06     83.3380E+06    -223.921E+03
            1904     182.481E-03     11.9685E-03     182.088E-03     597.153E-03    -291.042E-03    -305.729E-03    -286.296E-03     578.264E-03    -291.585E-03     256.735E-03     725.497E-03     110.069E+06     104.386E+06     83.2816E+06    -14.2405E+06    -13.8300E+06     82.8711E+06     104.386E+06     947.673E+03
            1905     183.007E-03     12.7078E-03     182.565E-03     601.555E-03    -291.514E-03    -310.018E-03    -293.960E-03     585.496E-03    -291.514E-03     232.988E-03     728.440E-03     109.949E+06     113.219E+06     84.8656E+06    -7.95827E+06    -7.56156E+06     84.4689E+06     113.219E+06     553.249E+03
            1906     182.436E-03     751.509E-06     182.435E-03     569.968E-03    -283.564E-03    -286.652E-03    -286.537E-03     569.853E-03    -283.564E-03     18.0747E-03     571.090E-03     88.9388E+06    -138.139E+06    -146.962E+06    -231.109E+06    -143.107E+06    -230.910E+06    -142.192E+06    -1.20481E+06
            1907     182.445E-03     1.50332E-03     182.439E-03     571.444E-03    -284.910E-03    -286.495E-03    -285.925E-03     571.054E-03    -285.089E-03     35.2015E-03     574.662E-03     77.7257E+06    -130.142E+06    -139.675E+06    -212.082E+06    -139.134E+06    -211.930E+06    -130.834E+06    -2.69194E+06
            1908     182.500E-03     2.25474E-03     182.486E-03     573.286E-03    -285.453E-03    -287.930E-03    -286.910E-03     572.446E-03    -285.632E-03     52.7835E-03     579.856E-03     69.6860E+06    -116.080E+06    -133.554E+06    -192.601E+06    -133.993E+06    -192.162E+06    -116.080E+06    -3.79952E+06
            1909     182.516E-03     3.00328E-03     182.491E-03     575.257E-03    -286.118E-03    -289.730E-03    -288.198E-03     573.725E-03    -286.118E-03     71.2915E-03     586.258E-03     68.1324E+06    -98.0475E+06    -127.227E+06    -175.696E+06    -127.896E+06    -175.026E+06    -98.0475E+06    -4.88950E+06
            1910     182.577E-03     3.75187E-03     182.538E-03     577.096E-03    -286.279E-03    -291.197E-03    -288.675E-03     574.573E-03    -286.279E-03     92.0870E-03     592.953E-03     69.3390E+06    -78.4355E+06    -118.543E+06    -158.225E+06    -120.603E+06    -156.165E+06    -78.4355E+06    -6.27237E+06
            1911     182.633E-03     4.50185E-03     182.578E-03     577.810E-03    -286.520E-03    -292.190E-03    -288.485E-03     574.105E-03    -286.520E-03     112.148E-03     600.209E-03     69.4186E+06    -60.5055E+06    -108.613E+06    -140.006E+06    -112.953E+06    -135.666E+06    -60.5055E+06    -9.15159E+06
            1912     182.756E-03     5.24837E-03     182.681E-03     579.353E-03    -286.895E-03    -292.609E-03    -287.488E-03     574.232E-03    -286.895E-03     131.931E-03     607.573E-03     73.1229E+06    -42.3605E+06    -95.2658E+06    -125.642E+06    -103.719E+06    -117.188E+06    -42.3605E+06    -12.1175E+06
            1913     183.021E-03     5.98488E-03     182.923E-03     581.316E-03    -288.496E-03    -292.515E-03    -285.807E-03     574.608E-03    -288.496E-03     151.084E-03     614.739E-03     73.9983E+06    -25.4524E+06    -77.2776E+06    -110.020E+06    -94.1594E+06    -93.1386E+06    -25.4524E+06    -14.7413E+06
            1914     183.190E-03     6.73737E-03     183.066E-03     581.826E-03    -289.305E-03    -292.359E-03    -284.087E-03     573.554E-03    -289.305E-03     168.060E-03     619.706E-03     76.4689E+06    -8.43585E+06    -56.0604E+06    -96.3021E+06    -84.3084E+06    -68.0540E+06    -8.43585E+06    -17.6539E+06
            1915     183.266E-03     7.49416E-03     183.113E-03     579.612E-03    -287.423E-03    -291.423E-03    -281.174E-03     569.809E-03    -287.868E-03     182.833E-03     621.556E-03     80.9612E+06     7.94128E+06    -33.4650E+06    -84.9508E+06    -74.9746E+06    -43.4411E+06     7.94128E+06    -19.3741E+06
            1916     183.346E-03     8.25768E-03     183.160E-03     576.878E-03    -286.188E-03    -290.625E-03    -278.590E-03     565.648E-03    -286.993E-03     195.421E-03     624.625E-03     85.1938E+06     21.4974E+06    -9.35775E+06    -74.2333E+06    -66.7530E+06    -16.8381E+06     21.4974E+06    -19.2267E+06
            1917     183.551E-03     9.01511E-03     183.330E-03     578.121E-03    -286.191E-03    -291.753E-03    -278.712E-03     565.711E-03    -286.822E-03     206.006E-03     633.518E-03     90.9512E+06     37.0775E+06     19.7302E+06    -60.5690E+06    -55.6839E+06     14.8450E+06     37.0775E+06    -17.7283E+06
            1918     183.804E-03     9.76721E-03     183.544E-03     581.688E-03    -286.418E-03    -295.593E-03    -282.149E-03     568.516E-03    -286.690E-03     213.306E-03     647.638E-03     100.273E+06     59.7841E+06     44.4375E+06    -46.7574E+06    -43.9981E+06     49.1187E+06     52.3435E+06    -14.1377E+06
            1919     183.989E-03     10.5272E-03     183.688E-03     589.085E-03    -286.681E-03    -303.101E-03    -288.620E-03     574.603E-03    -286.681E-03     225.358E-03     671.201E-03     102.759E+06     72.7710E+06     60.8855E+06    -34.9577E+06    -32.8826E+06     66.8295E+06     64.7520E+06    -12.0239E+06
            1920     184.241E-03     11.2698E-03     183.896E-03     596.936E-03    -286.636E-03    -310.134E-03    -295.435E-03     582.237E-03    -286.636E-03     228.842E-03     693.555E-03     101.066E+06     80.6487E+06     66.5316E+06    -25.7141E+06    -23.8552E+06     65.2512E+06     80.0702E+06    -9.87474E+06
            1921     184.356E-03     12.0329E-03     183.963E-03     609.175E-03    -287.211E-03    -321.629E-03    -304.087E-03     591.633E-03    -287.211E-03     251.659E-03     738.405E-03     106.160E+06     99.4693E+06     75.4330E+06    -16.0110E+06    -14.3281E+06     73.7501E+06     99.4693E+06    -1.23637E+06
            1922     184.941E-03     12.7474E-03     184.501E-03     620.179E-03    -288.609E-03    -331.754E-03    -317.708E-03     606.132E-03    -288.609E-03     220.592E-03     747.867E-03     115.423E+06     122.014E+06     87.2838E+06    -6.22862E+06    -5.18103E+06     86.2362E+06     122.014E+06     4.05411E+06
            1923     184.293E-03     756.486E-06     184.291E-03     556.309E-03    -276.145E-03    -280.197E-03    -279.985E-03     556.097E-03    -276.145E-03     24.2926E-03     557.294E-03     97.7152E+06    -122.113E+06    -131.271E+06    -224.013E+06    -126.394E+06    -223.868E+06    -127.134E+06    -2.16824E+06
            1924     184.310E-03     1.51244E-03     184.304E-03     555.045E-03    -277.370E-03    -277.824E-03    -276.950E-03     554.392E-03    -277.591E-03     44.7456E-03     557.660E-03     84.7152E+06    -117.657E+06    -125.133E+06    -205.815E+06    -124.594E+06    -205.662E+06    -118.350E+06    -2.78977E+06
            1925     184.374E-03     2.27128E-03     184.360E-03     554.156E-03    -276.821E-03    -277.711E-03    -276.081E-03     552.747E-03    -277.043E-03     66.6782E-03     559.502E-03     75.7038E+06    -103.529E+06    -120.535E+06    -185.980E+06    -120.936E+06    -185.579E+06    -103.529E+06    -3.92120E+06
            1926     184.422E-03     3.02952E-03     184.397E-03     555.628E-03    -276.608E-03    -279.441E-03    -276.892E-03     553.079E-03    -276.608E-03     90.4694E-03     564.656E-03     77.4190E+06    -81.3848E+06    -112.291E+06    -169.319E+06    -112.856E+06    -168.754E+06    -81.3848E+06    -4.70419E+06
            1927     184.505E-03     3.78728E-03     184.466E-03     557.188E-03    -276.568E-03    -280.302E-03    -276.247E-03     553.133E-03    -276.568E-03     114.731E-03     570.246E-03     77.4326E+06    -59.8101E+06    -101.937E+06    -148.837E+06    -103.348E+06    -147.426E+06    -59.8101E+06    -5.91460E+06
            1928     184.576E-03     4.54481E-03     184.520E-03     556.634E-03    -276.742E-03    -279.895E-03    -274.061E-03     550.800E-03    -276.742E-03     137.610E-03     574.954E-03     75.7928E+06    -39.5235E+06    -90.3198E+06    -126.543E+06    -93.3011E+06    -123.562E+06    -39.5235E+06    -8.05687E+06
            1929     184.683E-03     5.30642E-03     184.606E-03     556.353E-03    -276.323E-03    -280.521E-03    -272.724E-03     548.555E-03    -276.323E-03     159.400E-03     579.882E-03     79.3562E+06    -19.1363E+06    -76.7701E+06    -109.557E+06    -82.4818E+06    -103.846E+06    -19.1363E+06    -10.9620E+06
            1930     184.827E-03     6.06545E-03     184.727E-03     558.392E-03    -276.361E-03    -282.141E-03    -272.414E-03     548.665E-03    -276.361E-03     178.878E-03     586.925E-03     81.2580E+06     1.28409E+06    -59.3279E+06    -90.7128E+06    -71.2122E+06    -78.8284E+06     1.28409E+06    -13.3555E+06
            1931     185.039E-03     6.82359E-03     184.913E-03     561.620E-03    -276.417E-03    -285.134E-03    -273.784E-03     550.270E-03    -276.417E-03     194.151E-03     594.653E-03     83.1424E+06     19.3247E+06    -41.2124E+06    -75.1252E+06    -61.7935E+06    -54.5441E+06     19.3247E+06    -15.2479E+06
            1932     185.179E-03     7.58744E-03     185.023E-03     564.598E-03    -275.621E-03    -289.040E-03    -276.536E-03     552.094E-03    -275.621E-03     204.795E-03     602.191E-03     86.5027E+06     34.8676E+06    -22.9335E+06    -64.0098E+06    -53.6922E+06    -33.2511E+06     34.8676E+06    -16.7023E+06
            1933     185.246E-03     8.35626E-03     185.058E-03     568.535E-03    -275.629E-03    -293.046E-03    -279.887E-03     555.376E-03    -275.629E-03     211.280E-03     611.593E-03     89.9382E+06     49.6165E+06    -168.316E+03    -53.3405E+06    -44.9114E+06    -8.59744E+06     49.6165E+06    -18.2822E+06
            1934     185.395E-03     9.11234E-03     185.171E-03     576.417E-03    -276.694E-03    -299.403E-03    -285.856E-03     562.870E-03    -276.694E-03     216.157E-03     626.050E-03     92.7052E+06     61.0312E+06     20.8291E+06    -44.2283E+06    -38.5106E+06     15.1114E+06     61.0312E+06    -17.8028E+06
            1935     185.616E-03     9.85785E-03     185.354E-03     586.743E-03    -278.184E-03    -308.623E-03    -294.878E-03     572.998E-03    -278.184E-03     220.158E-03     646.956E-03     102.151E+06     76.0210E+06     50.2887E+06    -35.3890E+06    -32.2781E+06     47.1778E+06     76.0210E+06    -14.9062E+06
            1936     185.848E-03     10.6044E-03     185.545E-03     600.542E-03    -279.806E-03    -321.375E-03    -307.073E-03     586.241E-03    -279.806E-03     227.794E-03     678.303E-03     105.049E+06     84.1119E+06     61.4393E+06    -28.5282E+06    -26.9601E+06     60.4497E+06     83.5334E+06    -10.7474E+06
            1937     186.168E-03     11.3326E-03     185.822E-03     614.692E-03    -281.678E-03    -332.893E-03    -319.305E-03     601.105E-03    -281.678E-03     224.851E-03     708.080E-03     105.132E+06     91.1458E+06     55.7614E+06    -25.4789E+06    -23.7604E+06     54.6214E+06     90.5673E+06    -4.59455E+06
            1938     186.305E-03     12.0672E-03     185.914E-03     631.718E-03    -284.024E-03    -346.974E-03    -331.421E-03     616.165E-03    -284.024E-03     243.503E-03     757.524E-03     115.586E+06     102.545E+06     62.2993E+06    -27.6033E+06    -20.9432E+06     55.6393E+06     102.545E+06    -6.69091E+06
            1939     186.920E-03     12.7629E-03     186.483E-03     643.827E-03    -286.838E-03    -356.805E-03    -344.502E-03     631.524E-03    -286.838E-03     211.827E-03     768.937E-03     127.452E+06     127.307E+06     79.9834E+06    -16.7310E+06    -11.1566E+06     74.4090E+06     127.307E+06    -4.99351E+06
            1940     186.052E-03     767.020E-06     186.050E-03     527.633E-03    -262.101E-03    -265.452E-03    -265.101E-03     527.282E-03    -262.101E-03     30.4844E-03     528.378E-03     108.926E+06    -105.199E+06    -112.100E+06    -217.269E+06    -107.461E+06    -217.243E+06    -109.864E+06    -690.592E+03
            1941     186.105E-03     1.53539E-03     186.099E-03     525.640E-03    -262.655E-03    -263.091E-03    -261.945E-03     524.535E-03    -262.698E-03     56.8246E-03     527.528E-03     96.5472E+06    -99.6636E+06    -107.790E+06    -199.930E+06    -107.880E+06    -199.840E+06    -99.6636E+06    -2.31544E+06
            1942     186.169E-03     2.30322E-03     186.154E-03     524.776E-03    -261.940E-03    -263.044E-03    -260.630E-03     522.404E-03    -261.982E-03     84.3204E-03     528.826E-03     90.1010E+06    -83.4544E+06    -101.095E+06    -180.866E+06    -101.450E+06    -180.511E+06    -83.4544E+06    -3.50234E+06
            1943     186.215E-03     3.07322E-03     186.190E-03     525.056E-03    -261.298E-03    -263.799E-03    -259.708E-03     520.965E-03    -261.298E-03     111.554E-03     532.153E-03     87.9523E+06    -63.6076E+06    -93.0658E+06    -162.218E+06    -93.6863E+06    -161.597E+06    -63.6076E+06    -4.86083E+06
            1944     186.312E-03     3.84696E-03     186.272E-03     526.309E-03    -261.001E-03    -264.850E-03    -258.698E-03     520.157E-03    -261.001E-03     137.487E-03     536.059E-03     83.4573E+06    -42.9381E+06    -84.6911E+06    -138.645E+06    -86.1680E+06    -137.168E+06    -42.9381E+06    -6.59445E+06
            1945     186.416E-03     4.62046E-03     186.359E-03     527.706E-03    -260.935E-03    -266.767E-03    -258.279E-03     519.218E-03    -260.935E-03     162.214E-03     541.283E-03     83.7703E+06    -19.7462E+06    -74.3039E+06    -116.026E+06    -77.4819E+06    -112.848E+06    -19.7462E+06    -8.91426E+06
            1946     186.536E-03     5.39504E-03     186.458E-03     530.771E-03    -260.395E-03    -270.671E-03    -259.923E-03     520.022E-03    -260.395E-03     183.648E-03     548.777E-03     88.5899E+06     3.18997E+06    -61.9092E+06    -97.5083E+06    -67.4607E+06    -91.9567E+06     3.18997E+06    -11.0422E+06
            1947     186.658E-03     6.16613E-03     186.556E-03     537.000E-03    -260.635E-03    -276.090E-03    -263.487E-03     524.397E-03    -260.635E-03     200.407E-03     558.382E-03     90.7009E+06     23.2889E+06    -49.6619E+06    -77.9942E+06    -58.5493E+06    -69.1069E+06     23.2889E+06    -10.9927E+06
            1948     186.792E-03     6.93505E-03     186.663E-03     544.996E-03    -261.416E-03    -283.220E-03    -269.322E-03     531.098E-03    -261.416E-03     212.532E-03     570.658E-03     90.9173E+06     39.2170E+06    -37.2335E+06    -60.8644E+06    -52.4065E+06    -45.6914E+06     39.2170E+06    -9.19620E+06
            1949     186.955E-03     7.69743E-03     186.796E-03     554.281E-03    -262.210E-03    -293.176E-03    -278.703E-03     539.808E-03    -262.210E-03     219.501E-03     585.991E-03     93.7464E+06     52.8629E+06    -18.5253E+06    -52.3070E+06    -46.9600E+06    -23.8722E+06     52.8629E+06    -8.66667E+06
            1950     187.114E-03     8.45792E-03     186.923E-03     567.030E-03    -263.336E-03    -304.508E-03    -290.107E-03     552.630E-03    -263.336E-03     222.115E-03     604.077E-03     97.9022E+06     64.5193E+06     4.15435E+06    -48.0079E+06    -43.5578E+06    -295.714E+03     64.5193E+06    -9.10712E+06
            1951     187.230E-03     9.21330E-03     187.003E-03     582.594E-03    -265.439E-03    -316.463E-03    -302.366E-03     568.497E-03    -265.439E-03     223.357E-03     626.188E-03     104.505E+06     76.4027E+06     29.9243E+06    -42.2030E+06    -39.7096E+06     27.4309E+06     76.4027E+06    -11.1745E+06
            1952     187.566E-03     9.93573E-03     187.303E-03     600.043E-03    -269.126E-03    -330.342E-03    -316.676E-03     586.377E-03    -269.126E-03     223.725E-03     654.435E-03     108.577E+06     85.1684E+06     43.7108E+06    -36.1045E+06    -34.0732E+06     41.6795E+06     85.1684E+06    -11.1930E+06
            1953     187.783E-03     10.6734E-03     187.479E-03     620.597E-03    -273.154E-03    -346.449E-03    -333.147E-03     607.295E-03    -273.154E-03     225.008E-03     691.674E-03     106.385E+06     90.7953E+06     45.7611E+06    -28.9941E+06    -27.1886E+06     43.9556E+06     90.7953E+06    -2.36769E+06
            1954     188.158E-03     11.3731E-03     187.814E-03     637.780E-03    -277.545E-03    -359.114E-03    -346.973E-03     625.639E-03    -277.545E-03     218.153E-03     725.312E-03     105.919E+06     98.6803E+06     52.2248E+06    -21.8508E+06    -19.8140E+06     50.1880E+06     98.6803E+06     2.85662E+06
            1955     188.295E-03     12.0951E-03     187.906E-03     654.262E-03    -282.071E-03    -371.642E-03    -357.151E-03     639.770E-03    -282.071E-03     240.512E-03     774.029E-03     121.762E+06     112.575E+06     74.2217E+06    -21.9491E+06    -11.3362E+06     64.7213E+06     111.462E+06     3.02055E+06
            1956     188.931E-03     12.7711E-03     188.499E-03     662.993E-03    -285.921E-03    -377.062E-03    -365.028E-03     650.960E-03    -285.921E-03     215.086E-03     783.168E-03     128.977E+06     128.383E+06     91.8814E+06    -13.7580E+06    -4.00146E+06     83.2374E+06     127.271E+06     1.25742E+06
            1957     187.790E-03     783.518E-06     187.789E-03     486.868E-03    -242.399E-03    -244.373E-03    -243.841E-03     486.336E-03    -242.399E-03     36.2769E-03     487.362E-03     115.291E+06    -93.7128E+06    -97.0693E+06    -210.630E+06    -95.0794E+06    -210.522E+06    -95.8112E+06    -3.18850E+06
            1958     187.833E-03     1.56847E-03     187.827E-03     485.027E-03    -242.048E-03    -243.034E-03    -241.379E-03     483.372E-03    -242.048E-03     66.9378E-03     486.221E-03     105.171E+06    -85.2620E+06    -92.4083E+06    -193.722E+06    -92.5449E+06    -193.586E+06    -85.2620E+06    -3.28883E+06
            1959     187.890E-03     2.35466E-03     187.876E-03     485.075E-03    -241.340E-03    -243.820E-03    -240.303E-03     481.558E-03    -241.340E-03     99.1832E-03     487.734E-03     98.9736E+06    -69.2030E+06    -86.9092E+06    -175.671E+06    -87.2155E+06    -175.365E+06    -69.2030E+06    -3.73273E+06
            1960     187.933E-03     3.14097E-03     187.907E-03     486.456E-03    -240.753E-03    -245.650E-03    -239.708E-03     480.514E-03    -240.753E-03     129.919E-03     491.368E-03     94.9963E+06    -48.8686E+06    -79.5558E+06    -155.070E+06    -80.1016E+06    -154.524E+06    -48.8686E+06    -4.41173E+06
            1961     188.009E-03     3.92929E-03     187.968E-03     489.553E-03    -240.425E-03    -248.898E-03    -240.300E-03     480.954E-03    -240.425E-03     157.305E-03     496.258E-03     90.3038E+06    -25.7599E+06    -70.5440E+06    -129.353E+06    -71.2139E+06    -128.683E+06    -25.7599E+06    -4.93174E+06
            1962     188.103E-03     4.71796E-03     188.044E-03     495.534E-03    -240.543E-03    -255.204E-03    -243.913E-03     484.243E-03    -240.543E-03     181.852E-03     504.715E-03     92.7271E+06    -3.13017E+06    -61.0396E+06    -109.947E+06    -64.5391E+06    -106.448E+06    -3.13017E+06    -2.84593E+06
            1963     188.241E-03     5.50260E-03     188.160E-03     505.876E-03    -240.960E-03    -264.565E-03    -250.885E-03     492.195E-03    -240.960E-03     202.937E-03     517.753E-03     97.0683E+06     15.7561E+06    -57.6602E+06    -93.5413E+06    -62.1274E+06    -89.0741E+06     15.7561E+06     711.815E+03
            1964     188.366E-03     6.28345E-03     188.262E-03     519.552E-03    -242.522E-03    -276.038E-03    -260.622E-03     504.135E-03    -242.522E-03     219.012E-03     534.355E-03     99.2695E+06     30.6929E+06    -49.6404E+06    -79.8286E+06    -61.5673E+06    -67.9017E+06     30.6929E+06     3.90110E+06
            1965     188.540E-03     7.05546E-03     188.408E-03     535.939E-03    -245.169E-03    -290.221E-03    -273.933E-03     519.651E-03    -245.169E-03     229.526E-03     554.649E-03     101.595E+06     44.3787E+06    -33.1876E+06    -69.1638E+06    -61.1250E+06    -41.2264E+06     44.3787E+06     6.46319E+06
            1966     188.804E-03     7.80779E-03     188.643E-03     554.474E-03    -248.043E-03    -306.453E-03    -290.230E-03     538.252E-03    -248.043E-03     234.015E-03     577.925E-03     105.483E+06     56.3598E+06    -13.4639E+06    -63.1213E+06    -61.3697E+06    -15.2155E+06     56.3598E+06     6.70612E+06
            1967     188.962E-03     8.56374E-03     188.768E-03     573.749E-03    -251.442E-03    -323.321E-03    -308.001E-03     558.429E-03    -251.442E-03     232.306E-03     603.102E-03     112.102E+06     69.1280E+06     15.4297E+06    -58.7244E+06    -57.9784E+06     14.6838E+06     69.1280E+06     3.22909E+06
            1968     189.137E-03     9.30604E-03     188.908E-03     597.154E-03    -256.085E-03    -340.898E-03    -327.034E-03     583.291E-03    -256.085E-03     226.030E-03     634.248E-03     122.628E+06     82.2060E+06     47.2294E+06    -53.2238E+06    -52.8470E+06     46.8525E+06     82.2060E+06    -2.60378E+06
            1969     189.483E-03     10.0129E-03     189.218E-03     622.506E-03    -261.593E-03    -358.870E-03    -346.339E-03     609.975E-03    -261.593E-03     219.976E-03     670.518E-03     118.389E+06     81.9725E+06     41.8414E+06    -49.5034E+06    -48.5826E+06     40.9206E+06     81.9725E+06    -6.65652E+06
            1970     189.673E-03     10.7275E-03     189.369E-03     642.781E-03    -267.976E-03    -373.548E-03    -361.621E-03     630.855E-03    -267.976E-03     218.741E-03     707.983E-03     112.535E+06     79.7097E+06     38.1517E+06    -46.1812E+06    -40.4202E+06     32.3908E+06     79.7097E+06    -9.96832E+06
            1971     190.127E-03     11.4114E-03     189.784E-03     656.556E-03    -274.924E-03    -381.812E-03    -370.608E-03     645.352E-03    -274.924E-03     214.402E-03     739.034E-03     108.223E+06     86.4570E+06     51.6547E+06    -33.9784E+06    -27.7758E+06     45.4521E+06     86.4570E+06    -12.0150E+06
            1972     190.309E-03     12.1080E-03     189.924E-03     669.902E-03    -280.831E-03    -389.616E-03    -375.936E-03     656.222E-03    -280.831E-03     237.651E-03     783.642E-03     122.104E+06     96.6548E+06     65.9412E+06    -36.2341E+06    -16.7826E+06     47.6022E+06     95.5423E+06    -10.3914E+06
            1973     191.012E-03     12.7846E-03     190.584E-03     674.120E-03    -285.426E-03    -389.147E-03    -377.778E-03     662.752E-03    -285.426E-03     211.772E-03     789.935E-03     127.995E+06     112.363E+06     87.7912E+06    -25.4774E+06    -6.88945E+06     70.3158E+06     111.251E+06    -2.21300E+06
            1974     189.409E-03     804.832E-06     189.407E-03     435.448E-03    -216.307E-03    -219.153E-03    -218.404E-03     434.699E-03    -216.307E-03     40.9108E-03     435.733E-03     119.494E+06    -80.1569E+06    -87.1183E+06    -202.967E+06    -85.5193E+06    -202.802E+06    -81.9201E+06    -676.202E+03
            1975     189.453E-03     1.61023E-03     189.447E-03     435.270E-03    -216.344E-03    -218.856E-03    -216.581E-03     432.994E-03    -216.344E-03     74.5664E-03     436.000E-03     108.660E+06    -74.7559E+06    -83.1376E+06    -187.318E+06    -83.2705E+06    -187.185E+06    -74.7559E+06    -2.47652E+06
            1976     189.519E-03     2.41630E-03     189.503E-03     437.835E-03    -216.165E-03    -221.590E-03    -216.892E-03     433.137E-03    -216.165E-03     109.188E-03     439.349E-03     100.721E+06    -62.1918E+06    -79.0271E+06    -170.103E+06    -79.3287E+06    -169.801E+06    -62.1918E+06    -3.65142E+06
            1977     189.585E-03     3.22198E-03     189.558E-03     443.905E-03    -216.466E-03    -227.357E-03    -219.608E-03     436.157E-03    -216.466E-03     142.184E-03     446.507E-03     97.3401E+06    -44.8893E+06    -75.0725E+06    -153.344E+06    -75.3028E+06    -153.114E+06    -44.8893E+06    -1.66570E+06
            1978     189.720E-03     4.02605E-03     189.677E-03     453.669E-03    -217.412E-03    -236.190E-03    -225.145E-03     442.624E-03    -217.412E-03     172.335E-03     457.766E-03     98.6301E+06    -24.9975E+06    -69.4361E+06    -137.741E+06    -73.2518E+06    -133.925E+06    -24.9975E+06     5.78481E+06
            1979     189.822E-03     4.82410E-03     189.760E-03     466.794E-03    -218.930E-03    -248.061E-03    -233.886E-03     452.619E-03    -218.930E-03     198.756E-03     472.793E-03     104.106E+06    -4.44288E+06    -65.5682E+06    -123.874E+06    -73.6190E+06    -115.823E+06    -4.44288E+06     14.3489E+06
            1980     189.959E-03     5.61973E-03     189.876E-03     484.473E-03    -220.980E-03    -263.432E-03    -246.786E-03     467.826E-03    -220.980E-03     220.359E-03     492.170E-03     109.545E+06     14.5368E+06    -59.2037E+06    -109.791E+06    -73.2281E+06    -95.7668E+06     14.5368E+06     21.3119E+06
            1981     190.150E-03     6.40037E-03     190.042E-03     507.286E-03    -224.191E-03    -282.434E-03    -264.483E-03     489.335E-03    -224.191E-03     235.272E-03     516.889E-03     115.212E+06     31.9384E+06    -43.8702E+06    -99.0982E+06    -71.7317E+06    -71.2367E+06     31.9384E+06     26.2659E+06
            1982     190.332E-03     7.17388E-03     190.197E-03     533.652E-03    -228.825E-03    -303.909E-03    -285.822E-03     515.565E-03    -228.825E-03     243.418E-03     546.552E-03     117.377E+06     48.2358E+06    -20.6534E+06    -86.7006E+06    -69.1429E+06    -38.2111E+06     48.2358E+06     27.3293E+06
            1983     190.557E-03     7.92785E-03     190.392E-03     562.182E-03    -234.533E-03    -326.984E-03    -309.887E-03     545.085E-03    -234.533E-03     243.999E-03     580.305E-03     123.098E+06     66.4844E+06     12.6120E+06    -73.0881E+06    -63.0681E+06     2.59206E+06     66.4844E+06     25.2222E+06
            1984     190.852E-03     8.65594E-03     190.655E-03     589.920E-03    -240.931E-03    -349.626E-03    -334.361E-03     574.655E-03    -240.931E-03     237.261E-03     613.981E-03     129.449E+06     81.3231E+06     47.0705E+06    -60.5592E+06    -56.9581E+06     43.4694E+06     81.3231E+06     16.3857E+06
            1985     191.049E-03     9.38454E-03     190.818E-03     618.751E-03    -248.170E-03    -370.564E-03    -357.319E-03     605.506E-03    -248.170E-03     227.062E-03     650.616E-03     128.205E+06     87.6321E+06     66.4069E+06    -49.6099E+06    -48.8892E+06     65.6862E+06     87.6321E+06     7.34139E+06
            1986     191.433E-03     10.0661E-03     191.168E-03     644.969E-03    -256.029E-03    -387.516E-03    -375.755E-03     633.208E-03    -256.029E-03     219.037E-03     688.105E-03     113.516E+06     84.7602E+06     59.7965E+06    -38.6967E+06    -38.2372E+06     59.3371E+06     84.7602E+06    -283.536E+03
            1987     191.719E-03     10.7619E-03     191.417E-03     661.902E-03    -264.523E-03    -397.793E-03    -386.486E-03     650.595E-03    -264.523E-03     217.729E-03     722.593E-03     105.991E+06     81.7130E+06     55.9444E+06    -34.4389E+06    -29.2610E+06     50.7665E+06     81.7130E+06    -9.60379E+06
            1988     192.162E-03     11.4325E-03     191.822E-03     673.770E-03    -272.796E-03    -402.516E-03    -392.000E-03     663.254E-03    -272.796E-03     211.355E-03     751.936E-03     103.028E+06     81.8792E+06     59.1494E+06    -30.5445E+06    -23.8962E+06     52.5011E+06     81.8792E+06    -14.7845E+06
            1989     192.397E-03     12.1223E-03     192.015E-03     683.417E-03    -279.531E-03    -404.670E-03    -392.313E-03     671.059E-03    -279.531E-03     229.055E-03     793.157E-03     109.713E+06     79.5533E+06     56.0472E+06    -39.8593E+06    -19.3369E+06     35.5248E+06     79.5533E+06    -15.4971E+06
            1990     193.057E-03     12.7796E-03     192.633E-03     679.342E-03    -284.921E-03    -395.105E-03    -384.844E-03     669.081E-03    -284.921E-03     203.221E-03     793.458E-03     113.878E+06     88.9780E+06     67.9096E+06    -33.8835E+06    -12.6311E+06     46.6572E+06     88.9780E+06    -11.9060E+06
            1991     190.924E-03     829.282E-06     190.922E-03     379.344E-03    -188.168E-03    -191.127E-03    -189.765E-03     378.331E-03    -188.516E-03     44.3648E-03     379.485E-03     110.556E+06    -82.2641E+06    -94.6923E+06    -198.365E+06    -86.9591E+06    -197.987E+06    -90.3750E+06    -2.35012E+06
            1992     190.979E-03     1.65767E-03     190.972E-03     382.678E-03    -188.565E-03    -193.916E-03    -190.975E-03     379.737E-03    -188.565E-03     79.9560E-03     383.021E-03     100.217E+06    -81.1923E+06    -89.0277E+06    -185.047E+06    -87.1129E+06    -184.714E+06    -83.4392E+06    -1.20134E+06
            1993     191.031E-03     2.48410E-03     191.015E-03     390.488E-03    -189.671E-03    -200.730E-03    -194.894E-03     384.652E-03    -189.671E-03     115.485E-03     391.232E-03     96.2471E+06    -72.9118E+06    -87.5129E+06    -175.311E+06    -88.5661E+06    -174.257E+06    -72.9118E+06     4.38706E+06
            1994     191.111E-03     3.30784E-03     191.082E-03     402.776E-03    -191.464E-03    -211.562E-03    -202.243E-03     393.458E-03    -191.464E-03     149.322E-03     404.199E-03     101.848E+06    -58.6377E+06    -88.4456E+06    -171.864E+06    -94.3475E+06    -165.962E+06    -58.6377E+06     13.9212E+06
            1995     191.240E-03     4.12417E-03     191.195E-03     420.303E-03    -194.044E-03    -226.603E-03    -213.737E-03     407.438E-03    -194.044E-03     180.205E-03     422.787E-03     110.114E+06    -40.0149E+06    -86.8993E+06    -165.378E+06    -98.8930E+06    -153.384E+06    -40.0149E+06     24.2071E+06
            1996     191.376E-03     4.93499E-03     191.313E-03     442.613E-03    -197.508E-03    -245.103E-03    -229.226E-03     426.736E-03    -197.508E-03     206.444E-03     446.593E-03     117.858E+06    -16.1219E+06    -76.7229E+06    -150.748E+06    -96.4649E+06    -131.006E+06    -16.1219E+06     31.8736E+06
            1997     191.595E-03     5.73152E-03     191.509E-03     469.560E-03    -202.016E-03    -267.057E-03    -249.066E-03     451.569E-03    -202.016E-03     227.397E-03     475.555E-03     123.919E+06     7.46861E+06    -61.2390E+06    -134.266E+06    -90.0940E+06    -105.411E+06     7.46861E+06     35.3031E+06
            1998     191.808E-03     6.51523E-03     191.697E-03     501.227E-03    -207.778E-03    -293.336E-03    -274.552E-03     482.443E-03    -207.778E-03     241.364E-03     509.391E-03     124.106E+06     29.7291E+06    -41.6685E+06    -113.257E+06    -79.2487E+06    -75.6763E+06     29.7291E+06     35.0938E+06
            1999     192.099E-03     7.27640E-03     191.961E-03     536.656E-03    -214.719E-03    -321.326E-03    -303.206E-03     518.536E-03    -214.719E-03     246.499E-03     547.814E-03     120.970E+06     52.3864E+06    -12.2461E+06    -86.9044E+06    -64.2383E+06    -34.9122E+06     52.3864E+06     33.1936E+06
            2000     192.373E-03     8.02227E-03     192.206E-03     573.341E-03    -223.163E-03    -349.458E-03    -333.066E-03     556.949E-03    -223.163E-03     243.330E-03     589.395E-03     118.963E+06     75.3001E+06     27.4270E+06    -59.3007E+06    -47.4012E+06     15.5275E+06     75.3001E+06     27.9863E+06
            2001     192.765E-03     8.73550E-03     192.567E-03     608.023E-03    -232.489E-03    -375.985E-03    -361.701E-03     593.740E-03    -232.489E-03     234.905E-03     629.217E-03     121.652E+06     96.1886E+06     71.3933E+06    -35.1604E+06    -28.4354E+06     64.6683E+06     96.1886E+06     24.0394E+06
            2002     193.005E-03     9.44292E-03     192.773E-03     637.912E-03    -241.867E-03    -395.792E-03    -383.305E-03     625.425E-03    -241.867E-03     225.490E-03     666.360E-03     119.532E+06     105.850E+06     94.8173E+06    -18.7598E+06    -14.3538E+06     90.4113E+06     105.850E+06     19.1188E+06
            2003     193.443E-03     10.1190E-03     193.178E-03     662.366E-03    -251.626E-03    -409.995E-03    -399.037E-03     651.408E-03    -251.626E-03     215.196E-03     701.808E-03     106.857E+06     105.036E+06     88.8869E+06    -8.67488E+06    -6.16196E+06     86.3740E+06     105.036E+06     10.6484E+06
            2004     193.711E-03     10.7999E-03     193.410E-03     681.094E-03    -261.872E-03    -419.581E-03    -409.712E-03     671.225E-03    -261.872E-03     206.790E-03     736.301E-03     95.7560E+06     103.659E+06     77.4595E+06    -2.16968E+06     181.798E+03     75.1080E+06     103.659E+06     5.42586E+06
            2005     194.208E-03     11.4596E-03     193.870E-03     689.900E-03    -271.039E-03    -419.417E-03    -410.699E-03     681.182E-03    -271.039E-03     195.116E-03     762.967E-03     93.6304E+06     98.5400E+06     71.4817E+06    -5.38099E+06     5.32241E+06     60.7783E+06     98.5400E+06     6.25214E+06
            2006     194.364E-03     12.1307E-03     193.985E-03     690.247E-03    -278.369E-03    -412.077E-03    -401.543E-03     679.713E-03    -278.369E-03     212.438E-03     796.451E-03     98.6386E+06     98.9846E+06     66.2159E+06    -10.1460E+06     7.79535E+06     48.2745E+06     98.9846E+06     7.89763E+06
            2007     194.977E-03     12.8050E-03     194.556E-03     681.590E-03    -284.422E-03    -397.693E-03    -388.748E-03     672.645E-03    -284.422E-03     189.574E-03     793.853E-03     97.2149E+06     101.704E+06     68.7467E+06    -5.94131E+06     7.58016E+06     55.2252E+06     101.704E+06     3.31244E+06
            2008     192.353E-03     852.905E-06     192.351E-03     327.050E-03    -161.936E-03    -165.038E-03    -163.533E-03     325.894E-03    -162.285E-03     44.9276E-03     327.151E-03     90.9650E+06    -102.637E+06    -120.205E+06    -200.711E+06    -114.238E+06    -198.567E+06    -110.748E+06     3.19753E+06
            2009     192.414E-03     1.70374E-03     192.407E-03     333.963E-03    -162.949E-03    -170.927E-03    -167.623E-03     330.660E-03    -162.949E-03     79.5116E-03     334.145E-03     75.6596E+06    -119.489E+06    -127.046E+06    -198.437E+06    -128.454E+06    -194.782E+06    -121.736E+06     8.75374E+06
            2010     192.480E-03     2.54915E-03     192.463E-03     348.557E-03    -165.333E-03    -183.041E-03    -176.534E-03     342.049E-03    -165.333E-03     115.920E-03     349.034E-03     85.0242E+06    -110.809E+06    -128.095E+06    -202.755E+06    -136.146E+06    -194.704E+06    -110.809E+06     19.2307E+06
            2011     192.581E-03     3.38546E-03     192.551E-03     368.752E-03    -168.966E-03    -199.911E-03    -189.808E-03     358.648E-03    -168.966E-03     149.798E-03     370.042E-03     105.303E+06    -86.3419E+06    -121.055E+06    -204.476E+06    -134.869E+06    -190.663E+06    -86.3419E+06     29.5326E+06
            2012     192.745E-03     4.21340E-03     192.699E-03     394.084E-03    -173.670E-03    -221.013E-03    -207.605E-03     380.676E-03    -173.670E-03     179.515E-03     396.389E-03     117.797E+06    -56.9590E+06    -106.219E+06    -190.940E+06    -126.625E+06    -170.535E+06    -56.9590E+06     35.1165E+06
            2013     192.907E-03     5.02635E-03     192.842E-03     425.268E-03    -179.415E-03    -246.186E-03    -230.295E-03     409.378E-03    -179.415E-03     204.113E-03     429.251E-03     119.585E+06    -29.2044E+06    -89.0579E+06    -165.290E+06    -114.492E+06    -139.856E+06    -29.2044E+06     35.4502E+06
            2014     193.106E-03     5.82552E-03     193.019E-03     461.867E-03    -186.626E-03    -274.957E-03    -257.759E-03     444.670E-03    -186.626E-03     222.388E-03     467.796E-03     116.190E+06    -2.88929E+06    -71.0637E+06    -135.665E+06    -96.4686E+06    -110.261E+06    -2.88929E+06     31.3352E+06
            2015     193.424E-03     6.60102E-03     193.311E-03     500.917E-03    -195.166E-03    -305.754E-03    -288.531E-03     483.694E-03    -195.166E-03     232.867E-03     509.471E-03     109.182E+06     21.6835E+06    -49.1852E+06    -103.186E+06    -76.2458E+06    -76.1258E+06     21.6835E+06     26.4895E+06
            2016     193.797E-03     7.35322E-03     193.658E-03     542.877E-03    -204.726E-03    -337.840E-03    -321.767E-03     526.805E-03    -204.726E-03     235.103E-03     554.882E-03     101.943E+06     45.8662E+06    -18.1738E+06    -70.7245E+06    -56.8066E+06    -32.0916E+06     45.8662E+06     21.0239E+06
            2017     194.170E-03     8.08456E-03     194.002E-03     583.533E-03    -215.589E-03    -367.811E-03    -353.546E-03     569.268E-03    -215.589E-03     230.572E-03     598.980E-03     100.859E+06     69.8725E+06     26.6807E+06    -43.6443E+06    -39.2514E+06     22.2878E+06     69.8725E+06     14.6956E+06
            2018     194.637E-03     8.78505E-03     194.439E-03     619.526E-03    -227.035E-03    -393.083E-03    -380.633E-03     607.076E-03    -227.035E-03     222.656E-03     638.884E-03     111.236E+06     85.1651E+06     67.2345E+06    -32.8948E+06    -28.5092E+06     63.0438E+06     84.9702E+06     10.8554E+06
            2019     194.987E-03     9.47962E-03     194.757E-03     651.231E-03    -238.235E-03    -412.607E-03    -402.023E-03     640.646E-03    -238.235E-03     210.330E-03     676.769E-03     123.755E+06     101.672E+06     93.9869E+06    -25.6571E+06    -21.3814E+06     92.9275E+06     98.4559E+06     12.0886E+06
            2020     195.418E-03     10.1476E-03     195.155E-03     677.338E-03    -249.529E-03    -427.012E-03    -418.280E-03     668.606E-03    -249.529E-03     194.614E-03     712.315E-03     119.926E+06     107.093E+06     94.8424E+06    -18.1520E+06    -15.7992E+06     97.0350E+06     102.548E+06     13.3717E+06
            2021     195.795E-03     10.8111E-03     195.496E-03     694.295E-03    -260.607E-03    -433.375E-03    -425.776E-03     686.696E-03    -260.607E-03     184.084E-03     744.272E-03      107.03E+06     99.1207E+06     81.0074E+06    -14.6763E+06    -13.0680E+06     81.1235E+06     97.3963E+06     3.72390E+06
            2022     196.158E-03     11.4601E-03     195.823E-03     695.866E-03    -270.191E-03    -425.688E-03    -418.864E-03     689.042E-03    -270.191E-03     174.120E-03     765.011E-03     103.693E+06     94.3738E+06     77.2731E+06    -15.5418E+06    -6.21788E+06     68.1495E+06     94.1735E+06     3.72533E+06
            2023     196.366E-03     12.1347E-03     195.990E-03     690.405E-03    -277.962E-03    -412.403E-03    -404.061E-03     682.062E-03    -277.962E-03     189.077E-03     793.564E-03     105.016E+06     100.499E+06     64.9859E+06    -15.2537E+06    -2.79873E+06     52.5309E+06     100.499E+06     4.09244E+06
            2024     196.934E-03     12.8001E-03     196.517E-03     676.725E-03    -284.236E-03    -392.715E-03    -385.687E-03     669.697E-03    -284.236E-03     167.643E-03     787.079E-03     100.543E+06     98.4027E+06     62.5428E+06    -12.7926E+06    -2.26019E+06     52.1736E+06     98.2395E+06     13.9163E+06
            2025     193.657E-03     870.149E-06     193.655E-03     286.161E-03    -140.731E-03    -145.413E-03    -144.281E-03     285.029E-03    -140.731E-03     41.5728E-03     286.316E-03     90.7233E+06    -148.856E+06    -163.789E+06    -245.596E+06    -170.037E+06    -233.871E+06    -154.332E+06     26.5762E+06
            2026     193.713E-03     1.73788E-03     193.705E-03     296.975E-03    -143.333E-03    -153.599E-03    -150.371E-03     293.747E-03    -143.333E-03     74.3908E-03     297.222E-03     91.6450E+06    -148.032E+06    -155.471E+06    -242.951E+06    -178.745E+06    -218.241E+06    -149.467E+06     37.6805E+06
            2027     193.812E-03     2.59775E-03     193.794E-03     317.017E-03    -146.904E-03    -169.737E-03    -163.427E-03     310.708E-03    -146.904E-03     109.371E-03     317.770E-03     95.1721E+06    -134.961E+06    -157.989E+06    -238.445E+06    -184.391E+06    -212.042E+06    -134.961E+06     36.4720E+06
            2028     193.920E-03     3.44620E-03     193.889E-03     344.569E-03    -152.402E-03    -192.125E-03    -182.530E-03     334.974E-03    -152.402E-03     141.962E-03     346.539E-03     98.7141E+06    -113.122E+06    -155.632E+06    -225.364E+06    -175.886E+06    -205.109E+06    -113.122E+06     29.9058E+06
            2029     194.033E-03     4.27789E-03     193.986E-03     378.120E-03    -159.415E-03    -219.131E-03    -206.826E-03     365.816E-03    -159.415E-03     169.525E-03     381.330E-03     99.9055E+06    -84.2439E+06    -137.626E+06    -196.196E+06    -156.567E+06    -177.255E+06    -84.2439E+06     24.3373E+06
            2030     194.304E-03     5.09255E-03     194.238E-03     416.973E-03    -167.616E-03    -249.696E-03    -235.754E-03     403.031E-03    -167.616E-03     190.410E-03     422.188E-03     92.2707E+06    -52.6292E+06    -117.606E+06    -153.296E+06    -130.874E+06    -140.028E+06    -52.6292E+06     15.8339E+06
            2031     194.663E-03     5.88112E-03     194.574E-03     460.138E-03    -177.306E-03    -282.739E-03    -268.399E-03     445.799E-03    -177.306E-03     203.699E-03     467.514E-03     88.6538E+06    -27.9829E+06    -96.6565E+06    -126.442E+06    -108.454E+06    -114.645E+06    -27.9829E+06     8.61537E+06
            2032     195.072E-03     6.64468E-03     194.959E-03     504.918E-03    -188.443E-03    -316.110E-03    -302.473E-03     491.280E-03    -188.443E-03     208.786E-03     514.125E-03     89.5635E+06    -2.78413E+06    -62.0024E+06    -103.665E+06    -89.6190E+06    -76.0484E+06    -2.78413E+06     2.56567E+06
            2033     195.438E-03     7.39151E-03     195.298E-03     548.728E-03    -200.564E-03    -348.405E-03    -336.192E-03     536.515E-03    -200.564E-03     206.586E-03     560.789E-03     89.5092E+06     19.8394E+06    -25.3358E+06    -80.2584E+06    -74.3011E+06    -31.2932E+06     19.8394E+06    -5.01189E+06
            2034     196.017E-03     8.09896E-03     195.850E-03     588.311E-03    -213.366E-03    -375.607E-03    -365.025E-03     577.728E-03    -213.366E-03     199.353E-03     603.248E-03     99.5671E+06     37.0421E+06     14.4332E+06    -69.7768E+06    -66.2590E+06     11.4669E+06     36.4905E+06    -6.27251E+06
            2035     196.477E-03     8.80016E-03     196.280E-03     623.961E-03    -226.145E-03    -398.322E-03    -389.316E-03     614.955E-03    -226.145E-03     188.912E-03     642.070E-03     115.453E+06     56.0464E+06     48.8259E+06    -62.7286E+06    -61.0536E+06     50.6920E+06     52.5054E+06    -2.88717E+06
            2036     196.963E-03     9.48105E-03     196.734E-03     656.784E-03    -238.625E-03    -418.103E-03    -410.720E-03     649.401E-03    -238.625E-03     175.444E-03     680.033E-03     128.954E+06     78.5971E+06     67.8332E+06    -55.2799E+06    -53.8988E+06     77.2160E+06     67.8332E+06    -2.09372E+06
            2037     197.482E-03     10.1318E-03     197.222E-03     680.245E-03    -251.016E-03    -429.119E-03    -422.778E-03     673.904E-03    -251.016E-03     166.571E-03     711.200E-03     132.176E+06     93.3239E+06     80.6916E+06    -44.6572E+06    -43.6434E+06     92.3100E+06     80.6916E+06    -3.68922E+06
            2038     197.901E-03     10.7869E-03     197.607E-03     690.456E-03    -261.858E-03    -428.722E-03    -422.507E-03     684.240E-03    -261.858E-03     166.258E-03     734.429E-03     121.513E+06     92.4369E+06     86.5997E+06    -31.8359E+06    -30.9263E+06     91.5274E+06     86.5997E+06     1.39240E+06
            2039     198.277E-03     11.4540E-03     197.945E-03     691.009E-03    -270.781E-03    -420.464E-03    -414.489E-03     685.033E-03    -270.781E-03     162.487E-03     754.401E-03     110.744E+06     87.0532E+06     78.7484E+06    -27.1211E+06    -25.9780E+06     78.5846E+06     86.0738E+06     2.70006E+06
            2040     198.357E-03     12.1265E-03     197.986E-03     687.714E-03    -278.446E-03    -409.481E-03    -401.870E-03     680.102E-03    -278.446E-03     180.383E-03     784.410E-03     108.958E+06     88.2041E+06     57.7441E+06    -31.5003E+06    -30.1610E+06     56.4048E+06     88.2041E+06     3.68479E+06
            2041     198.835E-03     12.7889E-03     198.423E-03     665.642E-03    -284.492E-03    -381.613E-03    -374.822E-03     658.852E-03    -284.492E-03     164.878E-03     777.532E-03     115.624E+06     93.8105E+06     57.8750E+06    -34.1916E+06    -26.2388E+06     50.0854E+06     93.6473E+06     5.51312E+06
            2042     194.885E-03     882.695E-06     194.883E-03     264.698E-03    -129.701E-03    -135.099E-03    -134.230E-03     263.829E-03    -129.701E-03     34.4913E-03     264.892E-03     92.6900E+06    -247.338E+06    -288.027E+06    -346.856E+06    -303.808E+06    -290.387E+06    -288.027E+06     17.5121E+06
            2043     194.937E-03     1.75764E-03     194.929E-03     278.887E-03    -133.725E-03    -145.254E-03    -142.751E-03     276.384E-03    -133.725E-03     63.2306E-03     279.400E-03     86.4739E+06    -212.464E+06    -234.804E+06    -302.763E+06    -262.649E+06    -253.654E+06    -233.728E+06     30.1351E+06
            2044     195.019E-03     2.62369E-03     195.001E-03     302.061E-03    -138.705E-03    -163.467E-03    -158.599E-03     297.192E-03    -138.705E-03     93.5462E-03     303.590E-03     73.4477E+06    -174.139E+06    -191.929E+06    -253.300E+06    -224.534E+06    -215.813E+06    -179.021E+06     28.5071E+06
            2045     195.175E-03     3.47450E-03     195.144E-03     333.928E-03    -145.778E-03    -188.446E-03    -181.165E-03     326.647E-03    -145.778E-03     121.496E-03     337.060E-03     70.4245E+06    -139.724E+06    -172.368E+06    -219.612E+06    -193.430E+06    -198.550E+06    -139.724E+06     14.6159E+06
            2046     195.470E-03     4.30525E-03     195.422E-03     373.184E-03    -154.623E-03    -218.886E-03    -209.911E-03     364.209E-03    -154.623E-03     143.385E-03     377.695E-03     68.0470E+06    -104.680E+06    -149.861E+06    -181.006E+06    -161.285E+06    -169.581E+06    -104.680E+06    -1.09427E+06
            2047     195.809E-03     5.10783E-03     195.743E-03     417.009E-03    -164.940E-03    -252.069E-03    -242.418E-03     407.357E-03    -164.940E-03     157.883E-03     423.261E-03     66.9553E+06    -75.1501E+06    -128.518E+06    -147.764E+06    -136.380E+06    -139.902E+06    -75.1501E+06    -8.95565E+06
            2048     196.215E-03     5.88640E-03     196.127E-03     463.768E-03    -176.766E-03    -286.219E-03    -276.838E-03     454.387E-03    -176.766E-03     164.406E-03     471.898E-03     72.9391E+06    -50.2904E+06    -105.333E+06    -131.037E+06    -119.000E+06    -117.370E+06    -50.2904E+06    -11.8467E+06
            2049     196.604E-03     6.64364E-03     196.492E-03     510.775E-03    -190.111E-03    -319.548E-03    -311.191E-03     502.418E-03    -190.111E-03     162.488E-03     520.391E-03     79.3608E+06    -24.0534E+06    -62.7198E+06    -112.980E+06    -104.918E+06    -70.7818E+06    -24.0534E+06    -16.9223E+06
            2050     197.160E-03     7.36431E-03     197.023E-03     551.243E-03    -204.074E-03    -347.571E-03    -340.611E-03     544.283E-03    -204.074E-03     153.332E-03     563.061E-03     87.7930E+06    -4.39226E+06    -28.8788E+06    -101.725E+06    -96.1810E+06    -34.4223E+06    -4.39226E+06    -19.1948E+06
            2051     197.770E-03     8.06313E-03     197.605E-03     587.387E-03    -218.351E-03    -370.164E-03    -364.637E-03     581.860E-03    -218.351E-03     139.603E-03     601.617E-03     100.325E+06     12.8145E+06     236.887E+03    -92.5694E+06    -88.3617E+06    -3.41917E+06     12.2629E+06    -18.7381E+06
            2052     198.290E-03     8.75278E-03     198.097E-03     620.142E-03    -232.088E-03    -388.746E-03    -384.445E-03     615.841E-03    -232.088E-03     126.182E-03     637.084E-03     119.011E+06     39.6780E+06     33.8560E+06    -82.0830E+06    -76.2281E+06     33.6597E+06     34.0194E+06    -17.4092E+06
            2053     198.882E-03     9.41530E-03     198.659E-03     643.699E-03    -244.906E-03    -399.198E-03    -395.447E-03     639.948E-03    -244.906E-03     121.937E-03     664.533E-03     133.335E+06     70.8220E+06     54.9193E+06    -69.6712E+06    -63.9634E+06     65.1142E+06     54.9193E+06    -18.3759E+06
            2054     199.433E-03     10.0786E-03     199.178E-03     657.655E-03    -256.730E-03    -401.274E-03    -397.312E-03     653.694E-03    -256.730E-03     127.769E-03     684.469E-03     139.392E+06     91.8222E+06     71.7059E+06    -56.4933E+06    -54.3729E+06     83.7150E+06     77.6927E+06    -16.9005E+06
            2055     199.926E-03     10.7524E-03     199.637E-03     664.863E-03    -266.262E-03    -399.048E-03    -394.484E-03     660.299E-03    -266.262E-03     137.996E-03     701.065E-03     133.393E+06     91.2206E+06     73.4771E+06    -49.9023E+06    -47.9563E+06     75.6440E+06     87.1078E+06    -6.93851E+06
            2056     200.292E-03     11.4261E-03     199.965E-03     667.564E-03    -273.674E-03    -394.104E-03    -388.987E-03     662.446E-03    -273.674E-03     146.765E-03     719.218E-03     118.225E+06     87.5008E+06     61.0232E+06    -41.0090E+06    -39.5402E+06     60.3336E+06     86.7217E+06     2.35185E+06
            2057     200.324E-03     12.1148E-03     199.958E-03     666.239E-03    -279.869E-03    -386.666E-03    -379.389E-03     658.963E-03    -279.869E-03     172.611E-03     747.002E-03     113.837E+06     106.537E+06     58.8331E+06    -22.6441E+06    -22.3645E+06     58.5535E+06     106.537E+06     2.73326E+06
            2058     200.801E-03     12.8057E-03     200.392E-03     655.377E-03    -284.790E-03    -370.917E-03    -364.355E-03     648.815E-03    -284.790E-03     160.063E-03     759.082E-03     125.864E+06     128.771E+06     58.3133E+06    -13.6335E+06    -9.32450E+06     54.0043E+06     128.771E+06    -11.0214E+06
            2059     196.131E-03     876.754E-06     196.129E-03     275.833E-03    -135.909E-03    -140.063E-03    -138.859E-03     275.492E-03    -136.771E-03     19.3278E-03     276.065E-03     127.414E+06    -283.007E+06    -392.337E+06    -422.440E+06    -407.008E+06    -287.655E+06    -403.120E+06    -19.2349E+06
            2060     196.192E-03     1.75026E-03     196.184E-03     290.120E-03    -140.516E-03    -149.908E-03    -148.865E-03     289.078E-03    -140.516E-03     36.8613E-03     290.904E-03     128.610E+06    -241.010E+06    -351.456E+06    -381.044E+06    -365.892E+06    -256.163E+06    -351.456E+06    -35.1923E+06
            2061     196.351E-03     2.61018E-03     196.334E-03     312.441E-03    -146.471E-03    -166.456E-03    -164.437E-03     310.422E-03    -146.471E-03     52.7757E-03     314.182E-03     129.120E+06    -194.214E+06    -289.270E+06    -337.615E+06    -313.639E+06    -218.672E+06    -288.789E+06    -41.2439E+06
            2062     196.618E-03     3.45216E-03     196.588E-03     342.359E-03    -154.587E-03    -188.305E-03    -185.342E-03     339.395E-03    -154.587E-03     67.2427E-03     345.391E-03     141.380E+06    -141.809E+06    -238.133E+06    -301.276E+06    -266.362E+06    -185.364E+06    -229.492E+06    -50.0869E+06
            2063     196.896E-03     4.26982E-03     196.850E-03     379.305E-03    -164.336E-03    -215.311E-03    -211.741E-03     375.734E-03    -164.336E-03     79.5902E-03     383.878E-03     146.272E+06    -106.276E+06    -200.321E+06    -274.188E+06    -232.970E+06    -162.375E+06    -185.441E+06    -61.1071E+06
            2064     197.265E-03     5.06450E-03     197.200E-03     422.237E-03    -175.929E-03    -246.397E-03    -242.663E-03     418.503E-03    -175.929E-03     85.6204E-03     428.688E-03     150.210E+06    -81.1953E+06    -172.420E+06    -254.495E+06    -205.965E+06    -149.282E+06    -152.863E+06    -68.7526E+06
            2065     197.673E-03     5.83178E-03     197.587E-03     467.934E-03    -189.467E-03    -278.160E-03    -274.767E-03     464.541E-03    -189.467E-03     82.2241E-03     476.009E-03     151.299E+06    -62.0580E+06    -149.444E+06    -236.596E+06    -181.316E+06    -138.749E+06    -128.032E+06    -72.3723E+06
            2066     198.231E-03     6.56026E-03     198.123E-03     509.404E-03    -204.387E-03    -304.440E-03    -301.737E-03     506.701E-03    -204.387E-03     70.2487E-03     518.651E-03     155.131E+06    -38.9865E+06    -114.787E+06    -216.751E+06    -164.578E+06    -105.333E+06    -100.614E+06    -74.1535E+06
            2067     198.874E-03     7.25938E-03     198.742E-03     544.607E-03    -219.482E-03    -325.064E-03    -323.035E-03     542.577E-03    -219.482E-03     53.7205E-03     555.550E-03     158.815E+06    -17.7059E+06    -81.5218E+06    -197.789E+06    -148.281E+06    -79.1416E+06    -69.5938E+06    -72.3611E+06
            2068     199.427E-03     7.95259E-03     199.268E-03     575.285E-03    -234.100E-03    -341.736E-03    -340.305E-03     573.854E-03    -234.100E-03     40.6362E-03     588.429E-03     161.891E+06     8.71021E+06    -41.8608E+06    -171.072E+06    -125.883E+06    -42.9721E+06    -35.3674E+06    -68.9403E+06
            2069     200.074E-03     8.61876E-03     199.888E-03     596.489E-03    -247.690E-03    -349.441E-03    -348.414E-03     595.461E-03    -247.690E-03     39.6568E-03     611.753E-03     165.734E+06     29.0842E+06     2.10960E+06    -146.362E+06    -107.230E+06    -11.3945E+06     3.45608E+06    -66.8137E+06
            2070     200.697E-03     9.28778E-03     200.482E-03     606.886E-03    -259.134E-03    -347.918E-03    -346.821E-03     605.790E-03    -259.134E-03     51.2443E-03     625.024E-03     157.422E+06     49.6446E+06     30.8199E+06    -115.929E+06    -90.1328E+06     13.3785E+06     41.2896E+06    -52.0334E+06
            2071     201.294E-03     9.97379E-03     201.047E-03     612.068E-03    -268.003E-03    -344.213E-03    -342.698E-03     610.553E-03    -268.003E-03     68.9650E-03     635.521E-03     155.128E+06     85.5337E+06     49.4747E+06    -84.0897E+06    -72.1827E+06     43.6102E+06     79.4912E+06    -33.4931E+06
            2072     201.858E-03     10.6604E-03     201.577E-03     615.961E-03    -274.903E-03    -341.606E-03    -339.366E-03     613.722E-03    -274.903E-03     89.1268E-03     647.009E-03     151.027E+06     104.706E+06     52.5956E+06    -63.3500E+06    -55.9447E+06     45.1903E+06     104.706E+06    -25.1495E+06
            2073     202.359E-03     11.3664E-03     202.040E-03     620.280E-03    -279.725E-03    -340.877E-03    -337.769E-03     617.173E-03    -279.725E-03     107.014E-03     664.402E-03     129.999E+06     110.126E+06     48.9896E+06    -36.7403E+06    -26.1860E+06     38.4353E+06     110.126E+06    -16.9438E+06
            2074     202.697E-03     12.0808E-03     202.336E-03     625.815E-03    -282.999E-03    -342.893E-03    -338.337E-03     621.259E-03    -282.999E-03     129.170E-03     695.425E-03     122.670E+06     129.020E+06     63.5361E+06    -11.4955E+06    -4.73383E+06     56.7744E+06     129.020E+06    -6.61845E+06
            2075     202.862E-03     12.8048E-03     202.458E-03     631.813E-03    -285.846E-03    -345.912E-03    -341.540E-03     627.440E-03    -285.846E-03     127.532E-03     719.294E-03     143.502E+06     153.793E+06     53.5505E+06    -8.37180E+06    -4.33987E+06     49.5186E+06     153.793E+06    -9.77346E+06
            2076     197.478E-03     852.546E-06     197.476E-03     339.937E-03    -166.447E-03    -173.520E-03    -172.458E-03     339.737E-03    -167.309E-03    -4.84587E-03     342.525E-03     150.073E+06    -195.534E+06    -329.570E+06    -356.666E+06    -335.664E+06    -205.752E+06    -340.354E+06    -36.1460E+06
            2077     197.585E-03     1.69751E-03     197.577E-03     356.571E-03    -174.873E-03    -181.807E-03    -180.705E-03     355.469E-03    -174.873E-03    -23.3462E-03     359.170E-03     175.483E+06    -165.619E+06    -319.750E+06    -355.277E+06    -331.346E+06    -189.551E+06    -319.750E+06    -61.9746E+06
            2078     197.767E-03     2.52825E-03     197.751E-03     373.778E-03    -182.382E-03    -191.682E-03    -189.101E-03     371.197E-03    -182.382E-03    -43.3671E-03     376.935E-03     202.625E+06    -132.353E+06    -292.160E+06    -359.903E+06    -317.670E+06    -174.587E+06    -292.160E+06    -87.7453E+06
            2079     197.983E-03     3.34219E-03     197.955E-03     392.606E-03    -189.166E-03    -203.750E-03    -197.772E-03     388.459E-03    -190.997E-03    -57.3231E-03     396.499E-03     217.485E+06    -100.658E+06    -258.480E+06    -348.347E+06    -294.280E+06    -154.724E+06    -258.480E+06    -101.710E+06
            2080     198.287E-03     4.14303E-03     198.244E-03     415.609E-03    -195.607E-03    -220.071E-03    -209.035E-03     409.893E-03    -200.927E-03    -67.1502E-03     420.799E-03     217.643E+06    -79.3206E+06    -223.388E+06    -329.362E+06    -267.764E+06    -140.918E+06    -223.388E+06    -106.798E+06
            2081     198.702E-03     4.91282E-03     198.641E-03     443.911E-03    -203.337E-03    -240.532E-03    -223.294E-03     436.435E-03    -213.099E-03    -80.8038E-03     451.017E-03     219.573E+06    -57.5881E+06    -187.938E+06    -310.721E+06    -239.075E+06    -129.234E+06    -187.938E+06    -113.307E+06
            2082     199.247E-03     5.64300E-03     199.167E-03     473.135E-03    -211.170E-03    -262.094E-03    -236.322E-03     463.648E-03    -227.455E-03    -100.357E-03     482.180E-03     218.910E+06    -45.1219E+06    -163.787E+06    -297.550E+06    -210.776E+06    -131.897E+06    -163.787E+06    -118.876E+06
            2083     199.861E-03     6.34221E-03     199.760E-03     498.396E-03    -218.701E-03    -279.319E-03    -244.447E-03     486.980E-03    -242.158E-03    -121.478E-03     509.088E-03     211.753E+06    -32.3826E+06    -137.022E+06    -275.723E+06    -183.278E+06    -124.827E+06    -137.022E+06    -117.829E+06
            2084     200.420E-03     7.03706E-03     200.297E-03     518.464E-03    -223.419E-03    -294.774E-03    -249.321E-03     506.423E-03    -256.831E-03    -134.457E-03     531.361E-03     203.972E+06    -13.7872E+06    -93.7594E+06    -244.821E+06    -156.603E+06    -102.006E+06    -93.7594E+06    -111.879E+06
            2085     201.103E-03     7.70239E-03     200.955E-03     528.646E-03    -221.857E-03    -306.932E-03    -247.864E-03     517.588E-03    -269.867E-03    -131.364E-03     544.752E-03     196.748E+06     4.45523E+06    -54.3792E+06    -213.861E+06    -133.087E+06    -76.3195E+06    -54.3792E+06    -104.879E+06
            2086     201.784E-03     8.37437E-03     201.610E-03     528.888E-03    -218.184E-03    -310.542E-03    -239.701E-03     519.889E-03    -280.026E-03    -111.892E-03     548.038E-03     182.830E+06     17.8707E+06    -13.8564E+06    -176.860E+06    -111.005E+06    -52.8189E+06    -9.02235E+06    -89.9199E+06
            2087     202.443E-03     9.06905E-03     202.240E-03     527.161E-03    -217.194E-03    -309.827E-03    -233.751E-03     521.024E-03    -287.133E-03    -81.8216E-03     550.143E-03     167.482E+06     32.1167E+06     10.7062E+06    -144.634E+06    -90.2274E+06    -43.7004E+06     32.1167E+06    -72.3343E+06
            2088     203.070E-03     9.77296E-03     202.834E-03     525.679E-03    -217.897E-03    -307.738E-03    -231.507E-03     522.226E-03    -290.675E-03    -45.1257E-03     554.000E-03     166.124E+06     75.1117E+06     26.3170E+06    -109.325E+06    -68.0455E+06    -14.9623E+06     75.1117E+06    -57.6913E+06
            2089     203.642E-03     10.5083E-03     203.371E-03     525.743E-03    -221.144E-03    -304.915E-03    -232.186E-03     524.118E-03    -292.248E-03    -2.02353E-03     560.843E-03     164.519E+06     118.898E+06     40.3728E+06    -69.2373E+06    -44.1563E+06     15.2919E+06     118.898E+06    -42.8760E+06
            2090     204.192E-03     11.2451E-03     203.882E-03     539.877E-03    -236.014E-03    -304.324E-03    -247.192E-03     538.650E-03    -291.918E-03     44.9239E-03     586.555E-03     152.922E+06     132.053E+06     38.0707E+06    -44.1027E+06    -21.0400E+06     15.0080E+06     132.053E+06    -35.0952E+06
            2091     204.275E-03     12.0154E-03     203.921E-03     564.153E-03    -257.195E-03    -307.122E-03    -271.502E-03     561.639E-03    -290.301E-03     89.3537E-03     630.121E-03     152.236E+06     147.007E+06     43.6654E+06    -25.4615E+06    -8.92749E+06     27.1315E+06     147.007E+06    -21.5734E+06
            2092     204.682E-03     12.7450E-03     204.284E-03     579.096E-03    -270.181E-03    -308.978E-03    -286.357E-03     575.537E-03    -289.243E-03     110.177E-03     659.193E-03     170.187E+06     176.748E+06     44.2763E+06    -12.0156E+06     2.65950E+06     29.6012E+06     176.748E+06    -8.93325E+06
            2093     198.929E-03     801.630E-06     198.927E-03     532.478E-03    -256.088E-03    -276.353E-03    -255.348E-03     526.340E-03    -270.955E-03    -114.268E-03     543.368E-03     95.9114E+06    -97.3362E+06    -182.637E+06    -200.173E+06    -188.295E+06    -106.588E+06    -185.263E+06    -27.9046E+06
            2094     199.067E-03     1.57670E-03     199.061E-03     539.231E-03    -261.447E-03    -277.359E-03    -250.446E-03     524.951E-03    -274.081E-03    -190.710E-03     548.305E-03     111.265E+06    -77.0900E+06    -171.390E+06    -198.422E+06    -179.601E+06    -95.9105E+06    -171.390E+06    -42.9563E+06
            2095     199.236E-03     2.33935E-03     199.222E-03     543.527E-03    -263.023E-03    -280.288E-03    -239.550E-03     518.382E-03    -278.616E-03    -259.448E-03     552.651E-03     134.184E+06    -52.2806E+06    -152.252E+06    -204.388E+06    -172.028E+06    -84.6408E+06    -152.252E+06    -61.3231E+06
            2096     199.491E-03     3.09335E-03     199.467E-03     549.067E-03    -263.447E-03    -285.630E-03    -224.199E-03     509.578E-03    -285.390E-03    -322.999E-03     559.684E-03     142.555E+06    -44.6258E+06    -136.640E+06    -208.036E+06    -163.444E+06    -89.2180E+06    -136.640E+06    -72.2915E+06
            2097     199.854E-03     3.82130E-03     199.817E-03     554.571E-03    -259.326E-03    -294.846E-03    -202.306E-03     497.552E-03    -294.846E-03    -380.775E-03     565.779E-03     142.559E+06    -37.1069E+06    -114.401E+06    -199.269E+06    -147.771E+06    -88.6045E+06    -114.401E+06    -75.1233E+06
            2098     200.278E-03     4.53046E-03     200.227E-03     554.339E-03    -248.023E-03    -305.879E-03    -174.282E-03     480.598E-03    -305.879E-03    -421.102E-03     568.041E-03     149.856E+06    -19.0808E+06    -85.0743E+06    -187.560E+06    -133.591E+06    -73.0500E+06    -85.0743E+06    -78.0413E+06
            2099     200.779E-03     5.21182E-03     200.712E-03     545.972E-03    -229.008E-03    -317.217E-03    -143.853E-03     460.818E-03    -317.217E-03    -437.769E-03     565.004E-03     155.044E+06     674.097E+03    -63.7327E+06    -174.802E+06    -116.571E+06    -65.7847E+06    -55.5050E+06    -78.4215E+06
            2100     201.327E-03     5.88151E-03     201.241E-03     532.766E-03    -205.112E-03    -327.158E-03    -116.944E-03     444.598E-03    -327.158E-03    -430.991E-03     557.421E-03     152.518E+06     16.1113E+06    -47.1456E+06    -157.441E+06    -97.4558E+06    -64.1194E+06    -26.9001E+06    -74.4019E+06
            2101     201.976E-03     6.53021E-03     201.871E-03     515.864E-03    -179.304E-03    -336.145E-03    -95.4251E-03     431.985E-03    -336.145E-03    -405.201E-03     548.067E-03     151.872E+06     33.5964E+06    -27.2214E+06    -138.129E+06    -81.3088E+06    -55.9575E+06     5.51210E+06    -68.1770E+06
            2102     202.628E-03     7.18793E-03     202.501E-03     492.191E-03    -150.161E-03    -342.005E-03    -75.9330E-03     417.964E-03    -342.005E-03    -364.308E-03     534.760E-03     153.902E+06     51.5029E+06    -10.5905E+06    -119.036E+06    -67.9628E+06    -46.9070E+06     36.7461E+06    -60.4679E+06
            2103     203.280E-03     7.88227E-03     203.127E-03     465.350E-03    -121.647E-03    -342.868E-03    -61.1107E-03     404.814E-03    -342.868E-03    -313.131E-03     517.441E-03     156.243E+06     66.1459E+06     1.49558E+06    -103.778E+06    -58.5345E+06    -40.1709E+06     62.5684E+06    -53.4905E+06
            2104     203.925E-03     8.60848E-03     203.743E-03     440.420E-03    -99.4967E-03    -340.564E-03    -54.1736E-03     395.097E-03    -340.564E-03    -255.462E-03     501.314E-03     163.063E+06     86.9226E+06     8.82748E+06    -90.1903E+06    -45.4187E+06    -35.9441E+06     86.9226E+06    -49.2204E+06
            2105     204.571E-03     9.37345E-03     204.356E-03     418.408E-03    -83.5206E-03    -335.025E-03    -52.8247E-03     387.712E-03    -335.025E-03    -194.784E-03     488.692E-03     170.494E+06     111.061E+06     12.0134E+06    -77.1055E+06    -36.0650E+06    -29.0271E+06     111.061E+06    -44.3555E+06
            2106     205.195E-03     10.1673E-03     204.943E-03     404.570E-03    -77.7947E-03    -326.933E-03    -58.6576E-03     385.433E-03    -326.933E-03    -136.326E-03     482.444E-03     175.636E+06     139.864E+06     21.2318E+06    -57.1178E+06    -28.1816E+06    -7.70442E+06     139.864E+06    -36.7436E+06
            2107     205.795E-03     11.0018E-03     205.500E-03     407.343E-03    -90.6666E-03    -317.035E-03    -79.6890E-03     396.366E-03    -317.035E-03    -73.5728E-03     493.846E-03     183.342E+06     154.810E+06     19.1670E+06    -50.0167E+06    -31.1490E+06     299.381E+03     154.810E+06    -30.1521E+06
            2108     206.368E-03     11.8534E-03     206.027E-03     429.691E-03    -123.703E-03    -306.460E-03    -118.184E-03     424.172E-03    -306.460E-03    -9.96976E-03     531.134E-03     189.438E+06     166.062E+06     5.79357E+06    -39.6979E+06    -28.0978E+06    -5.80658E+06     166.062E+06    -19.4850E+06
            2109     206.710E-03     12.6902E-03     206.320E-03     462.239E-03    -165.887E-03    -296.849E-03    -162.995E-03     459.347E-03    -296.849E-03     42.2630E-03     578.872E-03     171.831E+06     163.624E+06     20.1396E+06    -22.6713E+06    -10.1367E+06     7.60509E+06     163.624E+06    -5.00431E+06


