********************************************************************************
Field Output Report, written Mon Apr 21 02:06:08 2025

Source 1
---------

   ODB: F:/Abaqus_calc/Vel_20/odb/Correct/1020_2a_32_rd_500_cal_100_v_20_f_050.odb
   Step: Step-1
   Frame: Increment   5159899: Step Time =   0.6458

Loc 1 : Nodal values from source 1

Output sorted by column "Nodal Label".

Field Output reported at nodes for region: DIE_2A_32_D0_36-1.Region_1
   Computation algorithm: EXTRAPOLATE_COMPUTE_AVERAGE
   Averaged at nodes
   Averaging regions: ODB_REGIONS

      Node Label  COORD.Magnitude     COORD.COOR1     COORD.COOR2
                          @Loc 1          @Loc 1          @Loc 1
------------------------------------------------------------------
               1     173.734E-03     21.8134E-03     172.359E-03


Field Output reported at nodes for region: DIE_2A_32_D0_36-1.Region_2
   Computation algorithm: EXTRAPOLATE_COMPUTE_AVERAGE
   Averaged at nodes
   Averaging regions: ODB_REGIONS

      Node Label  COORD.Magnitude     COORD.COOR1     COORD.COOR2
                          @Loc 1          @Loc 1          @Loc 1
------------------------------------------------------------------
               1     173.734E-03     21.8134E-03     172.359E-03


Field Output reported at nodes for part: WIRE_1-1
   Computation algorithm: EXTRAPOLATE_COMPUTE_AVERAGE
   Averaged at nodes
   Averaging regions: ODB_REGIONS

      Node Label  COORD.Magnitude     COORD.COOR1     COORD.COOR2    PE.Max. Prin    PE.Mid. Prin    PE.Min. Prin         PE.PE11         PE.PE22         PE.PE33         PE.PE12            PEEQ         S.Mises     S.Max. Prin     S.Mid. Prin     S.Min. Prin           S.S11           S.S22           S.S33           S.S12
                          @Loc 1          @Loc 1          @Loc 1          @Loc 1          @Loc 1          @Loc 1          @Loc 1          @Loc 1          @Loc 1          @Loc 1          @Loc 1          @Loc 1          @Loc 1          @Loc 1          @Loc 1          @Loc 1          @Loc 1          @Loc 1          @Loc 1
----------------------------------------------------------------------------------------------------------------------------------------------------------------------------------------------------------------------------------------------------------------------------------------------------------------------------------
               1     64.8067E-03     16.9855E-03     62.5412E-03     132.884E-03    -58.9124E-03    -74.0219E-03    -57.2624E-03     116.125E-03    -58.9124E-03     112.872E-03     394.943E-03     155.921E+06     163.066E+06     139.967E+06    -3.10920E+06    -3.10326E+06     163.060E+06     139.967E+06    -942.898E+03
               2     61.7657E-03    -524.908E-09     61.7657E-03     117.699E-03    -58.5099E-03    -59.1926E-03    -58.9266E-03     117.699E-03    -58.7757E-03    -146.748E-06     118.521E-03     195.794E+06    -69.9820E+06    -74.3770E+06    -267.930E+06    -71.2487E+06    -267.919E+06    -73.1209E+06     241.166E+03
               3     156.036E-09     125.195E-09     93.1323E-09     265.867E-03    -132.519E-03    -133.345E-03    -133.343E-03     265.865E-03    -132.519E-03     1.89228E-03     267.871E-03     186.623E+06    -66.3252E+06    -66.7002E+06    -253.135E+06    -66.7027E+06    -253.133E+06    -66.3252E+06    -683.748E+03
               4     16.5123E-03     16.5123E-03     93.1323E-09     290.568E-03    -79.1380E-03    -211.767E-03    -179.066E-03     257.868E-03    -79.1380E-03     247.847E-03     363.886E-03     171.308E+06     156.785E+06     129.895E+06    -26.3774E+06    -17.7610E+06     148.169E+06     129.895E+06     38.7809E+06
               5     126.540E-03     16.3202E-03     125.484E-03     41.6979E-03     38.5358E-03    -80.2230E-03     40.9985E-03     39.2351E-03    -80.2230E-03     2.62476E-03     80.6463E-03     92.6488E+06     62.3520E+06    -20.2316E+06    -37.8360E+06     54.0309E+06    -29.5149E+06    -20.2316E+06     27.6484E+06
               6     122.093E-03     3.64250E-06     122.093E-03     55.1515E-03    -26.5910E-03    -28.5576E-03    -28.5207E-03     55.1146E-03    -26.5910E-03    -3.51726E-03     55.1751E-03     75.6309E+06     84.4640E+06     77.1255E+06     5.43131E+06     76.3061E+06     6.25071E+06     84.4640E+06    -7.62067E+06
               7     64.4405E-03     16.0411E-03     62.4120E-03     152.494E-03    -58.8896E-03    -93.6913E-03    -59.4629E-03     118.266E-03    -58.8896E-03     166.368E-03     448.307E-03     153.953E+06     154.713E+06     131.927E+06    -9.35116E+06    -9.31975E+06     154.681E+06     131.927E+06    -1.41610E+06
               8     63.9690E-03     15.0951E-03     62.1624E-03     157.106E-03    -58.8726E-03    -98.4330E-03    -60.0246E-03     118.698E-03    -58.8726E-03     180.898E-03     424.887E-03     145.322E+06     140.062E+06     106.532E+06    -18.6435E+06    -18.5210E+06     139.939E+06     106.532E+06    -833.034E+03
               9     63.6014E-03     14.1509E-03     62.0072E-03     132.002E-03    -58.7545E-03    -73.4123E-03    -57.5140E-03     116.104E-03    -58.7545E-03     105.488E-03     314.112E-03     133.785E+06     128.604E+06     67.5812E+06    -23.5085E+06    -23.3874E+06     128.483E+06     67.5812E+06     949.385E+03
              10     63.3239E-03     13.2079E-03     61.9312E-03     120.557E-03    -58.5583E-03    -62.0321E-03    -56.9775E-03     115.502E-03    -58.5583E-03     59.1296E-03     257.185E-03     128.670E+06     117.739E+06     24.1310E+06    -27.2489E+06    -27.2073E+06     117.697E+06     24.1310E+06     1.54089E+06
              11     63.0798E-03     12.2629E-03     61.8764E-03     118.237E-03    -58.4659E-03    -59.7997E-03    -57.4821E-03     115.919E-03    -58.4659E-03     39.1093E-03     219.054E-03     99.7941E+06     79.0078E+06    -7.68751E+06    -30.0083E+06    -29.9896E+06     78.9891E+06    -7.68751E+06     857.915E+03
              12     62.8732E-03     11.3199E-03     61.8457E-03     117.024E-03    -58.3039E-03    -58.7478E-03    -57.5720E-03     116.088E-03    -58.5436E-03     25.2988E-03     194.112E-03     48.4454E+06     20.1021E+06    -23.2342E+06    -32.1760E+06    -32.0924E+06     8.50072E+06    -11.7164E+06    -214.372E+03
              13     62.6876E-03     10.3755E-03     61.8230E-03     117.078E-03    -58.4020E-03    -58.6814E-03    -57.8092E-03     116.485E-03    -58.6814E-03     20.3153E-03     177.983E-03     46.1653E+06    -4.74856E+06    -32.5580E+06    -56.9133E+06    -34.8447E+06    -54.6266E+06    -4.74856E+06     254.875E+03
              14     62.5188E-03     9.43223E-03     61.8032E-03     117.259E-03    -58.5311E-03    -58.7445E-03    -58.1607E-03     116.888E-03    -58.7445E-03     15.7935E-03     164.621E-03     78.2818E+06    -4.42823E+06    -36.7895E+06    -93.5327E+06    -36.8897E+06    -93.4325E+06    -4.42823E+06     667.022E+03
              15     62.3703E-03     8.48905E-03     61.7899E-03     116.981E-03    -58.2354E-03    -58.7959E-03    -58.0597E-03     116.805E-03    -58.7959E-03     10.9800E-03     152.781E-03     102.079E+06    -7.57569E+06    -37.5633E+06    -121.147E+06    -37.6499E+06    -121.061E+06    -7.57569E+06    -433.033E+03
              16     62.2390E-03     7.54515E-03     61.7799E-03     116.961E-03    -58.1354E-03    -58.8835E-03    -58.0370E-03     116.863E-03    -58.8835E-03     8.20826E-03     144.379E-03     135.688E+06    -12.7581E+06    -40.4947E+06    -160.107E+06    -40.5130E+06    -160.089E+06    -12.7581E+06    -368.603E+03
              17     62.1257E-03     6.60106E-03     61.7740E-03     117.333E-03    -58.4055E-03    -58.9666E-03    -58.3541E-03     117.282E-03    -58.9666E-03     5.90250E-03     137.739E-03     161.293E+06    -19.1882E+06    -46.0937E+06    -192.234E+06    -46.1073E+06    -192.221E+06    -19.1882E+06    -12.1641E+03
              18     62.0277E-03     5.65838E-03     61.7690E-03     117.603E-03    -58.6352E-03    -58.9906E-03    -58.6130E-03     117.581E-03    -58.9906E-03     3.83106E-03     132.100E-03     170.289E+06    -27.2921E+06    -51.4414E+06    -208.346E+06    -51.4525E+06    -208.335E+06    -27.2921E+06     467.463E+03
              19     61.9467E-03     4.71514E-03     61.7670E-03     117.771E-03    -58.7705E-03    -59.0164E-03    -58.7627E-03     117.763E-03    -59.0164E-03     2.26500E-03     127.665E-03     187.830E+06    -35.4064E+06    -56.9081E+06    -233.049E+06    -56.9260E+06    -233.031E+06    -35.4064E+06     1.34239E+06
              20     61.8802E-03     3.77198E-03     61.7651E-03     117.857E-03    -58.8565E-03    -59.0208E-03    -58.8543E-03     117.855E-03    -59.0208E-03     1.04645E-03     124.127E-03     198.238E+06    -43.5473E+06    -61.7966E+06    -250.265E+06    -61.8096E+06    -250.252E+06    -43.5473E+06     1.27928E+06
              21     61.8299E-03     2.82896E-03     61.7651E-03     117.858E-03    -58.8629E-03    -59.0128E-03    -58.8980E-03     117.857E-03    -58.9774E-03     395.666E-06     121.488E-03     196.786E+06    -52.8601E+06    -66.0072E+06    -255.874E+06    -66.0148E+06    -255.866E+06    -52.8601E+06     844.674E+03
              22     61.7934E-03     1.88624E-03     61.7646E-03     117.849E-03    -58.8693E-03    -58.9877E-03    -58.9320E-03     117.848E-03    -58.9247E-03     28.9705E-06     119.819E-03     196.512E+06    -62.4752E+06    -69.5974E+06    -262.424E+06    -69.6009E+06    -262.420E+06    -62.4752E+06     226.328E+03
              23     61.7721E-03     943.388E-06     61.7649E-03     117.754E-03    -58.6872E-03    -59.0709E-03    -58.9230E-03     117.754E-03    -58.8349E-03    -227.036E-06     118.836E-03     195.619E+06    -68.6026E+06    -72.5853E+06    -266.176E+06    -71.0229E+06    -266.169E+06    -70.1721E+06      26.162E+03
              24     60.6412E-03    -5.52907E-09     60.6412E-03     117.946E-03    -58.4665E-03    -59.4835E-03    -59.2176E-03     117.946E-03    -58.7323E-03     60.9974E-06     118.736E-03     195.198E+06    -70.7174E+06    -76.8149E+06    -268.893E+06    -73.6850E+06    -268.884E+06    -73.8563E+06     1.27462E+06
              25     59.5164E-03     1.46308E-06     59.5164E-03     118.014E-03    -58.3581E-03    -59.6589E-03    -59.6588E-03     118.014E-03    -58.3581E-03     156.913E-06     118.810E-03     193.881E+06    -71.5599E+06    -76.0510E+06    -267.644E+06    -74.5217E+06    -267.641E+06    -73.0925E+06     96.8660E+03
              26     58.3945E-03    -436.676E-09     58.3945E-03     118.144E-03    -58.7609E-03    -59.3812E-03    -59.3097E-03     118.143E-03    -58.8317E-03    -411.112E-06     118.995E-03     193.120E+06    -72.1168E+06    -74.3039E+06    -266.320E+06    -72.7729E+06    -266.318E+06    -73.6493E+06    -534.804E+03
              27     57.2696E-03     311.592E-09     57.2696E-03     118.464E-03    -59.0076E-03    -59.4561E-03    -59.3841E-03     118.463E-03    -59.0784E-03    -912.030E-06     119.347E-03     191.648E+06    -73.8364E+06    -74.8688E+06    -265.998E+06    -74.4957E+06    -265.993E+06    -74.2143E+06     462.383E+03
              28     56.1434E-03     400.202E-09     56.1434E-03     118.045E-03    -58.6570E-03    -59.3882E-03    -59.3875E-03     118.044E-03    -58.6570E-03    -81.8524E-06     118.938E-03     189.869E+06    -74.9072E+06    -75.7192E+06    -265.181E+06    -74.9140E+06    -265.174E+06    -75.7192E+06     1.11573E+06
              29     55.0205E-03     264.350E-09     55.0205E-03     117.631E-03    -58.4621E-03    -59.1730E-03    -59.1726E-03     117.631E-03    -58.4621E-03     104.516E-06     118.500E-03     189.838E+06    -72.4494E+06    -74.3564E+06    -263.231E+06    -73.9255E+06    -263.228E+06    -72.8834E+06     744.687E+03
              30     53.8971E-03     434.325E-09     53.8971E-03     117.452E-03    -58.2971E-03    -59.1585E-03    -59.1579E-03     117.451E-03    -58.2971E-03    -603.085E-06     118.288E-03     189.913E+06    -72.2829E+06    -74.8108E+06    -263.447E+06    -73.7842E+06    -263.418E+06    -73.3378E+06    -1.32731E+06
              31     52.7740E-03     503.499E-09     52.7740E-03     117.547E-03    -58.4524E-03    -59.0999E-03    -59.0993E-03     117.546E-03    -58.4524E-03    -132.733E-06     118.343E-03     191.920E+06    -72.7286E+06    -74.5085E+06    -265.532E+06    -73.4880E+06    -265.497E+06    -73.7835E+06    -790.564E+03
              32     51.6495E-03    -215.920E-09     51.6495E-03     117.691E-03    -58.7348E-03    -58.9620E-03    -58.8774E-03     117.690E-03    -58.8184E-03    -261.730E-06     118.448E-03     192.631E+06    -71.3728E+06    -73.6886E+06    -265.150E+06    -72.1094E+06    -265.138E+06    -72.9635E+06     151.963E+03
              33     50.5267E-03     40.6774E-09     50.5267E-03     117.290E-03    -58.4293E-03    -58.8609E-03    -58.7761E-03     117.289E-03    -58.5129E-03    -926.003E-06     118.070E-03     192.187E+06    -73.6019E+06    -75.2341E+06    -266.595E+06    -73.6565E+06    -266.582E+06    -75.1927E+06     243.317E+03
              34     49.4037E-03     620.485E-09     49.4037E-03     117.473E-03    -58.3986E-03    -59.0777E-03    -59.0770E-03     117.472E-03    -58.3986E-03    -128.628E-06     118.244E-03     192.897E+06    -72.4312E+06    -74.3209E+06    -266.260E+06    -74.3311E+06    -266.250E+06    -72.4312E+06     1.30424E+06
              35     48.2782E-03     30.2341E-09     48.2782E-03     118.226E-03    -58.8092E-03    -59.4198E-03    -59.4193E-03     118.225E-03    -58.8092E-03     573.105E-06     118.973E-03     193.019E+06    -68.6097E+06    -72.0288E+06    -263.316E+06    -70.4596E+06    -263.314E+06    -70.1805E+06     412.125E+03
              36     47.1543E-03     481.631E-09     47.1543E-03     118.027E-03    -58.8072E-03    -59.2227E-03    -59.2217E-03     118.026E-03    -58.8072E-03    -186.803E-06     118.812E-03     193.330E+06    -69.5278E+06    -72.4949E+06    -264.324E+06    -70.9262E+06    -264.322E+06    -71.0986E+06    -428.102E+03
              37     46.0317E-03    -204.139E-09     46.0317E-03     117.536E-03    -58.5757E-03    -58.9671E-03    -58.9664E-03     117.535E-03    -58.5757E-03    -454.731E-06     118.334E-03     193.460E+06    -71.9029E+06    -74.4256E+06    -266.612E+06    -73.3013E+06    -266.609E+06    -73.0294E+06    -481.829E+03
              38     44.9073E-03     680.482E-09     44.9073E-03     117.659E-03    -58.5914E-03    -59.0755E-03    -59.0748E-03     117.658E-03    -58.5914E-03    -457.999E-06     118.428E-03     194.555E+06    -70.2608E+06    -71.6017E+06    -265.481E+06    -70.2616E+06    -265.481E+06    -71.6017E+06     239.726E+03
              39     43.7845E-03    -250.343E-09     43.7845E-03     117.759E-03    -58.5571E-03    -59.2069E-03    -59.2062E-03     117.758E-03    -58.5571E-03    -598.721E-06     118.541E-03     193.522E+06    -69.9089E+06    -70.8890E+06    -263.919E+06    -70.6759E+06    -263.917E+06    -70.1234E+06     21.3393E+03
              40     42.6594E-03     1.06312E-06     42.6594E-03     117.722E-03    -58.2966E-03    -59.4301E-03    -59.4299E-03     117.721E-03    -58.2966E-03     129.864E-06     118.569E-03     191.704E+06    -72.9496E+06    -73.8673E+06    -265.110E+06    -73.7172E+06    -265.108E+06    -73.1018E+06     112.604E+03
              41     41.5350E-03     279.666E-09     41.5350E-03     117.759E-03    -58.4613E-03    -59.3040E-03    -59.3037E-03     117.759E-03    -58.4613E-03     477.753E-06     118.617E-03     192.124E+06    -73.3536E+06    -73.7736E+06    -265.687E+06    -73.3552E+06    -265.685E+06    -73.7736E+06     513.867E+03
              42     40.4137E-03    -29.2905E-09     40.4137E-03     117.780E-03    -58.7995E-03    -58.9893E-03    -58.9280E-03     117.779E-03    -58.8590E-03    -508.063E-06     118.602E-03     193.547E+06    -69.7090E+06    -70.1852E+06    -263.493E+06    -69.7096E+06    -263.493E+06    -70.1852E+06     339.285E+03
              43     39.2877E-03    -87.2702E-09     39.2877E-03     117.694E-03    -58.7881E-03    -58.9122E-03    -58.8504E-03     117.692E-03    -58.8477E-03    -283.208E-06     118.502E-03     192.533E+06    -70.3843E+06    -70.9129E+06    -263.181E+06    -70.7062E+06    -263.180E+06    -70.5927E+06     539.973E+03
              44     38.1645E-03     220.904E-09     38.1645E-03     118.215E-03    -58.8768E-03    -59.3399E-03    -59.3391E-03     118.214E-03    -58.8768E-03     231.834E-06     119.009E-03     192.863E+06    -71.2779E+06    -71.8984E+06    -264.450E+06    -71.6102E+06    -264.438E+06    -71.5782E+06    -679.901E+03
              45     37.0398E-03     532.195E-09     37.0398E-03     118.226E-03    -58.6435E-03    -59.5881E-03    -59.5870E-03     118.225E-03    -58.6435E-03    -813.264E-06     118.985E-03     193.012E+06    -69.4645E+06    -69.8841E+06    -262.686E+06    -69.4772E+06    -262.673E+06    -69.8841E+06    -614.932E+03
              46     35.9166E-03     496.290E-09     35.9166E-03     117.541E-03    -58.3778E-03    -59.1670E-03    -59.1658E-03     117.540E-03    -58.3778E-03    -918.825E-06     118.267E-03     192.248E+06    -71.3973E+06    -71.6042E+06    -263.749E+06    -71.4036E+06    -263.743E+06    -71.6042E+06     1.07445E+06
              47     34.7939E-03    -34.6275E-09     34.7939E-03     117.975E-03    -58.8274E-03    -59.1506E-03    -59.0701E-03     117.975E-03    -58.9074E-03    -616.690E-06     118.731E-03     192.179E+06    -74.1951E+06    -74.9592E+06    -266.755E+06    -74.8764E+06    -266.750E+06    -74.2828E+06     842.215E+03
              48     33.6681E-03    -105.611E-09     33.6681E-03     118.389E-03    -58.9865E-03    -59.4091E-03    -59.3288E-03     118.389E-03    -59.0665E-03    -248.016E-06     119.200E-03     191.474E+06    -72.1100E+06    -73.6318E+06    -264.341E+06    -72.8111E+06    -264.316E+06    -72.9554E+06    -1.34664E+06
              49     32.5425E-03     745.798E-09     32.5425E-03     117.798E-03    -58.5253E-03    -59.2775E-03    -59.2775E-03     117.798E-03    -58.5253E-03     47.4291E-06     118.595E-03     192.337E+06    -72.5330E+06    -73.6034E+06    -265.402E+06    -72.7860E+06    -265.374E+06    -73.3784E+06    -937.133E+03
              50     31.4216E-03     36.6743E-09     31.4216E-03     117.485E-03    -58.2873E-03    -59.1991E-03    -59.1988E-03     117.485E-03    -58.2873E-03    -297.741E-06     118.267E-03     192.235E+06    -73.3598E+06    -74.3340E+06    -266.079E+06    -74.3377E+06    -266.076E+06    -73.3598E+06     580.273E+03
              51     30.2959E-03     918.153E-09     30.2959E-03     117.754E-03    -58.5340E-03    -59.2215E-03    -59.2211E-03     117.754E-03    -58.5340E-03    -423.123E-06     118.549E-03     190.863E+06    -70.5249E+06    -72.6440E+06    -262.438E+06    -71.2742E+06    -262.437E+06    -71.8948E+06     77.5459E+03
              52     29.1746E-03    -582.855E-09     29.1746E-03     117.981E-03    -58.7122E-03    -59.2712E-03    -58.8974E-03     117.981E-03    -59.0858E-03    -298.121E-06     118.784E-03     190.551E+06    -72.6793E+06    -74.7909E+06    -264.276E+06    -73.4212E+06    -264.276E+06    -74.0492E+06    -16.4901E+03
              53     28.0471E-03    -115.087E-09     28.0471E-03     117.957E-03    -58.5421E-03    -59.4164E-03    -59.0424E-03     117.957E-03    -58.9157E-03     62.3031E-06     118.774E-03     190.793E+06    -73.4561E+06    -75.3145E+06    -265.171E+06    -74.2046E+06    -265.165E+06    -74.5728E+06     692.483E+03
              54     26.9241E-03     1.04739E-06     26.9241E-03     117.597E-03    -57.9892E-03    -59.6102E-03    -59.6095E-03     117.596E-03    -57.9892E-03    -175.992E-06     118.375E-03     189.647E+06    -71.6624E+06    -74.9286E+06    -262.920E+06    -73.8186E+06    -262.913E+06    -72.7791E+06     846.113E+03
              55     25.8034E-03     1.09412E-06     25.8034E-03     117.349E-03    -58.0218E-03    -59.3307E-03    -59.1414E-03     117.348E-03    -58.2104E-03    -649.542E-06     118.055E-03     189.360E+06    -70.3112E+06    -74.5169E+06    -261.739E+06    -72.4625E+06    -261.737E+06    -72.3674E+06    -364.363E+03
              56     24.6786E-03    -1.47361E-06     24.6786E-03     117.672E-03    -58.7367E-03    -58.9379E-03    -58.7488E-03     117.671E-03    -58.9253E-03    -560.194E-06     118.424E-03     189.592E+06    -74.1829E+06    -77.4360E+06    -265.380E+06    -75.4070E+06    -265.352E+06    -76.2392E+06     1.13436E+06
              57     23.5525E-03     1.51494E-06     23.5525E-03     117.341E-03    -58.4097E-03    -58.9313E-03    -58.9305E-03     117.341E-03    -58.4097E-03    -743.219E-06     118.182E-03     190.273E+06    -73.2485E+06    -74.4782E+06    -264.130E+06    -74.5476E+06    -264.028E+06    -73.2814E+06    -1.16748E+06
              58     22.4323E-03    -555.129E-09     22.4323E-03     116.242E-03    -57.8161E-03    -58.4261E-03    -58.3241E-03     116.241E-03    -57.9171E-03    -831.697E-06     117.049E-03     189.286E+06    -72.4551E+06    -73.7281E+06    -262.372E+06    -72.5328E+06    -262.294E+06    -73.7281E+06    -3.00380E+06
              59     21.3095E-03     346.060E-09     21.3095E-03     115.948E-03    -57.6266E-03    -58.3221E-03    -58.2191E-03     115.946E-03    -57.7276E-03    -1.17646E-03     116.741E-03     187.229E+06    -75.3983E+06    -76.6741E+06    -263.259E+06    -75.4644E+06    -263.229E+06    -76.6384E+06     1.37529E+06
              60     20.1881E-03     771.105E-09     20.1881E-03     115.283E-03    -57.2312E-03    -58.0514E-03    -58.0484E-03     115.280E-03    -57.2312E-03    -1.44424E-03     116.160E-03     184.578E+06    -76.2199E+06    -77.8898E+06    -261.621E+06    -77.9241E+06    -261.587E+06    -76.2199E+06     2.31555E+06
              61     19.0686E-03    -327.349E-09     19.0686E-03     113.780E-03    -56.7222E-03    -57.0575E-03    -56.9454E-03     113.777E-03    -56.8319E-03    -1.25321E-03     114.608E-03     183.624E+06    -76.8412E+06    -79.7595E+06    -261.906E+06    -78.4805E+06    -261.901E+06    -78.1254E+06     440.166E+03
              62     17.9486E-03     87.9082E-09     17.9486E-03     112.259E-03    -55.9156E-03    -56.3443E-03    -56.2333E-03     112.258E-03    -56.0254E-03    -910.236E-06     112.950E-03     185.113E+06    -72.5450E+06    -74.4750E+06    -258.614E+06    -73.1942E+06    -258.611E+06    -73.8292E+06    -726.865E+03
              63     16.8320E-03     512.414E-09     16.8320E-03     109.394E-03    -54.4142E-03    -54.9799E-03    -54.9763E-03     109.390E-03    -54.4142E-03    -1.37086E-03     109.830E-03     185.497E+06    -73.3429E+06    -75.0292E+06    -259.676E+06    -73.9978E+06    -259.667E+06    -74.3833E+06     244.913E+03
              64     15.7205E-03    -83.3761E-09     15.7205E-03     104.554E-03    -52.1113E-03    -52.4419E-03    -52.3518E-03     104.548E-03    -52.1952E-03    -1.98143E-03     104.925E-03     185.800E+06    -74.5130E+06    -75.8025E+06    -260.953E+06    -74.5193E+06    -260.947E+06    -75.8025E+06     640.073E+03
              65     14.6133E-03    -95.3911E-09     14.6133E-03     98.0905E-03    -48.8983E-03    -49.1908E-03    -49.0905E-03     98.0741E-03    -48.9822E-03    -2.90893E-03     98.5524E-03     184.998E+06    -72.8199E+06    -73.9836E+06    -258.396E+06    -72.8229E+06    -258.393E+06    -73.9836E+06    -642.171E+03
              66     13.5176E-03     447.671E-09     13.5176E-03     90.2564E-03    -44.8112E-03    -45.4447E-03    -45.4165E-03     90.2282E-03    -44.8112E-03    -3.91011E-03     90.6282E-03     183.893E+06    -72.5776E+06    -74.3806E+06    -257.366E+06    -73.5179E+06    -257.314E+06    -73.4923E+06     1.59046E+06
              67     12.4280E-03     338.558E-09     12.4280E-03     81.4241E-03    -40.2615E-03    -41.1609E-03    -41.1244E-03     81.3876E-03    -40.2615E-03    -4.20092E-03     81.7247E-03     182.628E+06    -65.5458E+06    -67.4047E+06    -249.096E+06    -67.4587E+06    -249.043E+06    -65.5458E+06     2.77493E+06
              68     11.3491E-03     540.326E-09     11.3491E-03     71.6272E-03    -35.5517E-03    -36.0715E-03    -35.9920E-03     71.5929E-03    -35.5968E-03    -3.82621E-03     71.8504E-03      180.86E+06    -61.6994E+06    -62.9334E+06    -243.172E+06    -62.6805E+06    -243.162E+06    -61.9627E+06     1.37146E+06
              69     10.2813E-03    -660.447E-09     10.2813E-03     62.5913E-03    -31.2468E-03    -31.3434E-03    -31.2589E-03     62.5520E-03    -31.2920E-03    -3.75739E-03     62.7154E-03     179.955E+06    -55.3525E+06    -57.9926E+06    -236.604E+06    -55.3963E+06    -236.560E+06    -57.9926E+06     2.57945E+06
              70     9.22385E-03     671.110E-09     9.22385E-03     57.0235E-03    -28.3540E-03    -28.6678E-03    -28.6300E-03     56.9857E-03    -28.3540E-03    -3.52714E-03     57.3449E-03     181.719E+06    -45.2866E+06    -51.1723E+06    -229.874E+06    -48.8664E+06    -229.803E+06    -47.6634E+06     3.58038E+06
              71     8.16775E-03    -145.707E-09     8.16775E-03     56.8826E-03    -28.2784E-03    -28.6037E-03    -28.5279E-03     56.8698E-03    -28.3413E-03    -1.90637E-03     57.4783E-03     184.007E+06    -38.1601E+06    -43.3296E+06    -224.690E+06    -41.7108E+06    -224.649E+06    -39.8207E+06     781.558E+03
              72     7.10889E-03    -7.05860E-09     7.10889E-03     65.1934E-03    -32.4467E-03    -32.7463E-03    -32.6765E-03     65.1865E-03    -32.5097E-03     514.357E-06     66.3202E-03     183.196E+06    -41.0578E+06    -45.4759E+06    -226.420E+06    -43.8250E+06    -226.410E+06    -42.7184E+06    -712.749E+03
              73     6.03696E-03     501.629E-09     6.03696E-03     85.5768E-03    -42.4820E-03    -43.0952E-03    -43.0723E-03     85.5538E-03    -42.4820E-03     3.35892E-03     87.4337E-03     182.652E+06    -51.6861E+06    -54.5721E+06    -235.749E+06    -54.7562E+06    -235.565E+06    -51.6861E+06    -3.89246E+06
              74     4.93620E-03     232.271E-09     4.93620E-03     120.101E-03    -59.8064E-03    -60.3013E-03    -60.1017E-03     120.020E-03    -59.9248E-03     7.47958E-03     122.114E-03     187.660E+06    -55.1416E+06    -57.6318E+06    -244.024E+06    -55.4942E+06    -243.800E+06    -57.5034E+06    -2.12980E+06
              75     3.78291E-03    -495.291E-09     3.78291E-03     165.849E-03    -82.7875E-03    -83.0676E-03    -82.6761E-03     165.737E-03    -83.0676E-03     10.4112E-03     167.968E-03     190.537E+06    -57.9072E+06    -60.7308E+06    -249.834E+06    -57.9523E+06    -249.789E+06    -60.7308E+06     1.31524E+06
              76     2.57606E-03     192.712E-09     2.57606E-03     214.226E-03    -106.826E-03    -107.409E-03    -107.168E-03     214.146E-03    -106.987E-03     10.0052E-03     216.349E-03     190.628E+06    -61.1018E+06    -61.8832E+06    -252.119E+06    -61.4322E+06    -252.109E+06    -61.5636E+06     101.627E+03
              77     1.30723E-03     534.146E-09     1.30723E-03     251.817E-03    -125.494E-03    -126.329E-03    -126.296E-03     251.784E-03    -125.494E-03     5.71954E-03     253.802E-03     188.956E+06    -64.7852E+06    -65.2924E+06    -253.994E+06    -65.2997E+06    -253.987E+06    -64.7852E+06     421.678E+03
              78     873.431E-06     873.431E-06     93.1323E-09     263.003E-03    -130.585E-03    -132.425E-03    -130.981E-03     262.986E-03    -132.012E-03     4.43021E-03     264.916E-03     187.684E+06    -63.9946E+06    -65.7158E+06    -252.530E+06    -65.7238E+06    -252.522E+06    -63.9946E+06    -1.13151E+06
              79     1.74875E-03     1.74875E-03     93.1323E-09     255.192E-03    -124.995E-03    -130.192E-03    -124.938E-03     255.135E-03    -130.192E-03     8.99670E-03     256.965E-03     188.565E+06    -61.5699E+06    -63.7860E+06    -251.232E+06    -63.7958E+06    -251.222E+06    -61.5699E+06    -247.655E+03
              80     2.63325E-03     2.63325E-03     93.1323E-09     243.523E-03    -116.383E-03    -127.088E-03    -116.273E-03     243.412E-03    -127.088E-03     12.4818E-03     245.186E-03     190.891E+06    -60.4465E+06    -61.4934E+06    -251.859E+06    -61.5451E+06    -251.807E+06    -60.4465E+06    -1.62276E+06
              81     3.52553E-03     3.52553E-03     93.1323E-09     229.272E-03    -106.062E-03    -123.136E-03    -105.891E-03     229.101E-03    -123.136E-03     15.0472E-03     230.876E-03     192.145E+06    -58.7809E+06    -60.9354E+06    -251.990E+06    -59.1947E+06    -251.941E+06    -60.5709E+06    -2.44276E+06
              82     4.43033E-03     4.43033E-03     93.1323E-09     214.416E-03    -95.7094E-03    -118.636E-03    -95.4752E-03     214.182E-03    -118.636E-03     16.9724E-03     216.065E-03     191.546E+06    -56.7185E+06    -62.3091E+06    -250.991E+06    -56.8227E+06    -250.886E+06    -62.3091E+06    -3.45848E+06
              83     5.34246E-03     5.34246E-03     93.1323E-09     199.905E-03    -85.9300E-03    -113.887E-03    -85.6297E-03     199.605E-03    -113.887E-03     18.4637E-03     201.759E-03     192.839E+06    -52.5903E+06    -66.2511E+06    -251.825E+06    -52.7797E+06    -251.636E+06    -66.2511E+06    -6.13173E+06
              84     6.26508E-03     6.26508E-03     93.1323E-09     185.593E-03    -76.5262E-03    -109.008E-03    -76.1766E-03     185.243E-03    -109.008E-03     19.1140E-03     188.152E-03     178.477E+06    -45.6346E+06    -79.3087E+06    -237.927E+06    -46.1412E+06    -237.420E+06    -79.3087E+06    -9.12351E+06
              85     7.19637E-03     7.19637E-03     93.1323E-09     171.795E-03    -67.7244E-03    -104.116E-03    -67.3515E-03     171.422E-03    -104.116E-03     18.8746E-03     175.511E-03     145.549E+06    -35.8130E+06    -93.8035E+06    -200.433E+06    -36.6926E+06    -199.554E+06    -93.8035E+06    -11.9676E+06
              86     8.13593E-03     8.13593E-03     93.1323E-09     158.977E-03    -59.7396E-03    -99.3658E-03    -59.3494E-03     158.587E-03    -99.3658E-03     18.4499E-03     164.088E-03     110.439E+06    -25.0598E+06    -101.314E+06    -148.809E+06    -26.1057E+06    -147.763E+06    -101.314E+06    -11.1875E+06
              87     9.08226E-03     9.08226E-03     93.1323E-09     148.036E-03    -53.3776E-03    -94.8227E-03    -52.9538E-03     147.612E-03    -94.8227E-03     18.4376E-03     155.101E-03     88.3406E+06    -13.9168E+06    -82.8285E+06    -112.103E+06    -16.5801E+06    -88.2177E+06    -104.051E+06    -12.5621E+06
              88     10.0349E-03     10.0349E-03     93.1323E-09     139.786E-03    -49.2953E-03    -90.5620E-03    -48.7594E-03     139.250E-03    -90.5620E-03     20.0125E-03     149.504E-03     100.682E+06     10.9441E+06    -34.0959E+06    -103.038E+06    -9.33519E+06    -13.8166E+06    -103.038E+06    -6.95431E+06
              89     10.9848E-03     10.9848E-03     93.1323E-09     133.968E-03    -47.0963E-03    -86.8751E-03    -46.4318E-03     133.303E-03    -86.8751E-03     21.8808E-03     147.228E-03     122.663E+06     61.0444E+06    -6.32226E+06    -76.8354E+06    -5.85865E+06     60.5808E+06    -76.8354E+06    -4.52295E+06
              90     11.9452E-03     11.9452E-03     93.1323E-09     129.152E-03    -45.3465E-03    -83.8683E-03    -44.5550E-03     128.360E-03    -83.8683E-03     23.4019E-03     147.158E-03     127.082E+06     112.002E+06     8.72093E+06    -29.6894E+06    -6.07959E+06     111.185E+06    -14.0723E+06     227.776E+03
              91     12.8930E-03     12.8930E-03     93.1323E-09     126.723E-03    -45.5498E-03    -81.3181E-03    -44.4537E-03     125.627E-03    -81.3181E-03     27.2660E-03     150.216E-03     121.629E+06     131.777E+06     47.4901E+06    -5.09551E+06    -4.27858E+06     130.960E+06     47.4901E+06    -580.479E+03
              92     13.8591E-03     13.8591E-03     93.1323E-09     130.697E-03    -51.6234E-03    -79.1808E-03    -49.0221E-03     128.096E-03    -79.1808E-03     42.0258E-03     161.878E-03     128.423E+06     136.535E+06     87.8768E+06    -8.17802E+06    -6.29232E+06     134.649E+06     87.8768E+06     4.86762E+06
              93     14.7733E-03     14.7733E-03     93.1323E-09     136.778E-03    -59.2762E-03    -77.6565E-03    -54.7081E-03     132.210E-03    -77.6565E-03     59.0320E-03     183.142E-03     139.874E+06     142.910E+06     118.125E+06    -7.29147E+06     2.75822E+06     132.860E+06     118.125E+06    -13.0808E+06
              94     15.7406E-03     15.7406E-03     93.1323E-09     214.740E-03    -70.6313E-03    -144.427E-03    -117.971E-03     195.765E-03    -78.1123E-03     155.980E-03     279.730E-03     155.345E+06     150.665E+06     130.925E+06    -13.5419E+06    -608.241E+03     137.731E+06     130.925E+06    -4.10477E+06
              95     16.7546E-03     16.6908E-03     1.46105E-03     251.232E-03    -76.6752E-03    -174.745E-03    -132.138E-03     208.626E-03    -76.6752E-03     248.831E-03     400.908E-03     142.430E+06     142.551E+06     128.371E+06    -6.17077E+06    -1.84420E+06     137.489E+06     129.106E+06     20.4081E+06
              96     16.9499E-03     16.7572E-03     2.54861E-03     190.545E-03    -72.0747E-03    -118.475E-03    -76.4549E-03     148.524E-03    -72.0747E-03     211.329E-03     416.169E-03     137.119E+06     144.636E+06     133.818E+06     2.58730E+06     2.90874E+06     143.580E+06     134.553E+06     6.08136E+06
              97     17.2300E-03     16.8373E-03     3.65769E-03     166.171E-03    -67.5909E-03    -98.5284E-03    -78.4309E-03     146.073E-03    -67.5909E-03     133.185E-03     345.164E-03     139.733E+06     153.475E+06     139.908E+06     7.51110E+06     7.97616E+06     153.010E+06     139.908E+06     8.20446E+06
              98     17.5599E-03     16.8887E-03     4.80860E-03     166.786E-03    -63.6416E-03    -103.149E-03    -96.9154E-03     160.553E-03    -63.6416E-03     79.0946E-03     291.988E-03     148.889E+06     148.075E+06     128.877E+06    -9.29517E+06    -8.89012E+06     147.670E+06     128.877E+06     7.97306E+06
              99     17.9668E-03     16.9311E-03     6.01187E-03     169.232E-03    -61.0564E-03    -108.187E-03    -103.834E-03     164.879E-03    -61.0564E-03     68.7965E-03     297.081E-03     153.494E+06     152.850E+06     131.413E+06    -10.1293E+06    -9.83318E+06     152.554E+06     131.413E+06     6.71161E+06
             100     18.4234E-03     16.9563E-03     7.20459E-03     166.557E-03    -59.4961E-03    -107.103E-03    -101.601E-03     161.055E-03    -59.4961E-03     76.6851E-03     314.917E-03     148.193E+06     156.957E+06     137.068E+06     -89.295E+03       52.11E+03     156.816E+06     137.068E+06     4.70433E+06
             101     18.9316E-03     16.9718E-03     8.38818E-03     163.979E-03    -58.6478E-03    -105.446E-03    -98.9709E-03     157.504E-03    -58.6478E-03     82.4786E-03     331.599E-03     154.529E+06     157.763E+06     133.184E+06    -7.57555E+06    -7.48712E+06     157.675E+06     133.184E+06     2.87892E+06
             102     19.4869E-03     16.9768E-03     9.56706E-03     160.864E-03    -58.3136E-03    -102.571E-03    -95.0253E-03     153.319E-03    -58.3136E-03     87.7461E-03     345.439E-03     150.785E+06     159.060E+06     135.196E+06    -2.22816E+06    -2.20332E+06     159.035E+06     135.196E+06     1.51700E+06
             103     20.0898E-03     16.9817E-03     10.7341E-03     156.682E-03    -58.2500E-03    -98.4846E-03    -89.8138E-03     148.011E-03    -58.2500E-03     92.4074E-03     355.442E-03     153.892E+06     160.977E+06     136.325E+06    -3.74915E+06    -3.72077E+06     160.949E+06     136.325E+06     1.99241E+06
             104     20.7318E-03     16.9819E-03     11.8921E-03     151.493E-03    -58.2982E-03    -93.3481E-03    -84.0934E-03     142.238E-03    -58.2982E-03     93.3658E-03     363.037E-03     153.737E+06     162.155E+06     136.817E+06    -2.66906E+06    -2.66399E+06     162.150E+06     136.817E+06     170.205E+03
             105     21.4144E-03     16.9839E-03     13.0432E-03     145.012E-03    -58.4464E-03    -86.6945E-03    -76.7464E-03     135.064E-03    -58.4464E-03     93.8457E-03     371.184E-03     155.482E+06     163.043E+06     137.562E+06    -3.59636E+06    -3.58984E+06     163.036E+06     137.562E+06    -994.047E+03
             106     22.1276E-03     16.9838E-03     14.1839E-03     140.371E-03    -58.5951E-03    -81.7214E-03    -70.0913E-03     128.741E-03    -58.5951E-03     98.7825E-03     378.811E-03     154.540E+06     162.169E+06     137.609E+06    -3.17700E+06    -3.17188E+06     162.163E+06     137.609E+06    -722.817E+03
             107     22.8768E-03     16.9847E-03     15.3254E-03     137.881E-03    -58.7135E-03    -79.0557E-03    -65.6271E-03     124.452E-03    -58.7135E-03     104.498E-03     384.410E-03     154.942E+06     162.078E+06     137.614E+06    -3.63655E+06    -3.63283E+06     162.074E+06     137.614E+06    -628.355E+03
             108     23.6475E-03     16.9843E-03     16.4542E-03     135.020E-03    -58.8188E-03    -76.2268E-03    -61.8208E-03     120.614E-03    -58.8188E-03     106.481E-03     388.482E-03     153.946E+06     161.261E+06     138.338E+06    -2.86134E+06    -2.85656E+06     161.256E+06     138.338E+06    -851.634E+03
             109     24.4457E-03     16.9860E-03     17.5803E-03     134.024E-03    -58.8391E-03    -75.2263E-03    -60.0627E-03     118.860E-03    -58.8391E-03     108.491E-03     391.152E-03     153.805E+06     159.916E+06     136.673E+06    -4.18777E+06    -4.18640E+06     159.914E+06     136.673E+06    -442.879E+03
             110     25.2693E-03     16.9852E-03     18.7094E-03     134.127E-03    -58.8504E-03    -75.2999E-03    -59.5874E-03     118.415E-03    -58.8504E-03     110.338E-03     392.829E-03     154.772E+06     161.635E+06     137.269E+06    -3.87386E+06    -3.86903E+06     161.630E+06     137.269E+06     494.888E+03
             111     26.1149E-03     16.9854E-03     19.8364E-03     133.754E-03    -58.8793E-03    -74.8999E-03    -58.4277E-03     117.282E-03    -58.8793E-03     112.504E-03     395.743E-03     156.077E+06     162.068E+06     137.436E+06    -4.85889E+06    -4.84811E+06     162.058E+06     137.436E+06    -83.6936E+03
             112     26.9763E-03     16.9861E-03     20.9569E-03     134.829E-03    -58.8557E-03    -75.9913E-03    -59.2790E-03     118.117E-03    -58.8557E-03     113.893E-03     397.306E-03     155.358E+06     161.363E+06     137.408E+06    -4.58094E+06    -4.57441E+06     161.356E+06     137.408E+06    -533.192E+03
             113     27.8649E-03     16.9846E-03     22.0902E-03     135.240E-03    -58.8841E-03    -76.3595E-03    -59.3773E-03     118.258E-03    -58.8841E-03     114.943E-03     396.464E-03     153.740E+06     160.920E+06     138.235E+06    -2.89892E+06    -2.89851E+06     160.920E+06     138.235E+06     123.446E+03
             114     28.7634E-03     16.9853E-03     23.2128E-03     133.398E-03    -58.9511E-03    -74.4706E-03    -57.3348E-03     116.263E-03    -58.9511E-03     114.334E-03     396.332E-03     153.312E+06     159.711E+06     136.968E+06    -3.69909E+06    -3.67958E+06     159.691E+06     136.968E+06     1.22158E+06
             115     29.6683E-03     16.9851E-03     24.3251E-03     131.357E-03    -58.9205E-03    -72.4414E-03    -57.2165E-03     116.132E-03    -58.9205E-03     107.055E-03     394.507E-03     153.402E+06     160.617E+06     136.171E+06    -3.53947E+06    -3.51872E+06     160.596E+06     136.171E+06     1.59759E+06
             116     30.5988E-03     16.9859E-03     25.4513E-03     130.848E-03    -58.8936E-03    -71.9438E-03    -57.2928E-03     116.197E-03    -58.8936E-03     104.962E-03     392.973E-03     154.153E+06     160.403E+06     135.741E+06    -4.59435E+06    -4.59304E+06     160.401E+06     135.741E+06      373.23E+03
             117     31.5431E-03     16.9860E-03     26.5790E-03     132.591E-03    -58.9103E-03    -73.7153E-03    -57.1093E-03     115.985E-03    -58.9103E-03     112.203E-03     395.227E-03     154.971E+06     161.842E+06     137.654E+06    -3.80114E+06    -3.79961E+06     161.841E+06     137.654E+06    -296.770E+03
             118     32.4988E-03     16.9856E-03     27.7067E-03     134.125E-03    -58.8982E-03    -75.2194E-03    -57.6208E-03     116.526E-03    -58.8982E-03     116.179E-03     397.852E-03     155.492E+06     163.800E+06     138.901E+06    -2.63735E+06    -2.63571E+06     163.799E+06     138.901E+06    -234.381E+03
             119     33.4575E-03     16.9863E-03     28.8249E-03     133.836E-03    -58.8607E-03    -74.9575E-03    -57.9195E-03     116.798E-03    -58.8607E-03     114.310E-03     398.155E-03     156.164E+06     162.217E+06     137.280E+06    -4.91263E+06    -4.90671E+06     162.212E+06     137.280E+06    -574.217E+03
             120     34.4322E-03     16.9865E-03     29.9506E-03     134.541E-03    -58.8180E-03    -75.7671E-03    -58.8511E-03     117.625E-03    -58.8180E-03     114.392E-03     397.498E-03     155.623E+06     161.790E+06     137.649E+06    -4.49264E+06    -4.48374E+06     161.781E+06     137.649E+06    -173.527E+03
             121     35.4175E-03     16.9863E-03     31.0784E-03     135.194E-03    -58.8462E-03    -76.4116E-03    -59.1123E-03     117.894E-03    -58.8462E-03     115.953E-03     396.736E-03     155.480E+06     163.572E+06     139.058E+06    -2.70853E+06    -2.70008E+06     163.564E+06     139.058E+06     1.17444E+06
             122     36.4093E-03     16.9852E-03     32.2047E-03     133.553E-03    -58.9217E-03    -74.6303E-03    -57.2858E-03     116.209E-03    -58.9217E-03     115.064E-03     396.792E-03     157.006E+06     163.859E+06     138.110E+06    -4.42859E+06    -4.42317E+06     163.854E+06     138.110E+06     570.088E+03
             123     37.3977E-03     16.9864E-03     33.3174E-03     132.309E-03    -58.9055E-03    -73.3197E-03    -56.8923E-03     115.882E-03    -58.9055E-03     111.454E-03     395.791E-03     155.253E+06     162.358E+06     136.483E+06    -4.20676E+06    -4.20666E+06     162.357E+06     136.483E+06    -118.370E+03
             124     38.4043E-03     16.9856E-03     34.4439E-03     133.097E-03    -58.8706E-03    -74.1689E-03    -58.1576E-03     117.086E-03    -58.8706E-03     110.668E-03     394.858E-03     155.901E+06     162.296E+06     136.846E+06    -4.76458E+06    -4.76250E+06     162.294E+06     136.846E+06    -451.462E+03
             125     39.4211E-03     16.9857E-03     35.5740E-03     133.753E-03    -58.8907E-03    -74.8659E-03    -58.0847E-03     116.972E-03    -58.8907E-03     113.470E-03     396.384E-03     154.908E+06     162.730E+06     138.606E+06    -2.82263E+06    -2.81856E+06     162.726E+06     138.606E+06    -25.6046E+03
             126     40.4320E-03     16.9860E-03     36.6909E-03     132.814E-03    -58.8916E-03    -73.9226E-03    -57.5208E-03     116.412E-03    -58.8916E-03     111.727E-03     396.403E-03     156.016E+06     161.464E+06     136.919E+06    -5.36616E+06    -5.35581E+06     161.453E+06     136.919E+06    -459.698E+03
             127     41.4559E-03     16.9864E-03     37.8160E-03     132.438E-03    -58.8878E-03    -73.5458E-03    -57.2100E-03     116.102E-03    -58.8878E-03     111.301E-03     395.246E-03     153.621E+06     159.184E+06     136.312E+06    -4.57393E+06    -4.56550E+06     159.175E+06     136.312E+06    -779.914E+03
             128     42.4857E-03     16.9862E-03     38.9423E-03     133.104E-03    -58.8945E-03    -74.2080E-03    -57.1665E-03     116.063E-03    -58.8945E-03     113.886E-03     395.471E-03     149.309E+06     156.971E+06     136.153E+06    -1.65065E+06    -1.63678E+06     156.957E+06     136.153E+06    -991.845E+03
             129     43.5142E-03     16.9859E-03     40.0620E-03     133.269E-03    -58.8869E-03    -74.3587E-03    -57.6371E-03     116.547E-03    -58.8869E-03     112.991E-03     395.434E-03     149.726E+06     153.734E+06     133.989E+06    -4.87050E+06    -4.85638E+06     153.719E+06     133.989E+06    -1.23037E+06
             130     44.5517E-03     16.9863E-03     41.1864E-03     133.714E-03    -58.8680E-03    -74.7957E-03    -58.5919E-03     117.510E-03    -58.8680E-03     111.641E-03     395.135E-03     147.639E+06     152.394E+06     135.675E+06    -2.89261E+06    -2.89226E+06     152.393E+06     135.675E+06    -155.987E+03
             131     45.5936E-03     16.9857E-03     42.3115E-03     133.708E-03    -58.8661E-03    -74.7633E-03    -58.6653E-03     117.610E-03    -58.8661E-03     111.298E-03     394.894E-03     150.140E+06     153.616E+06     136.209E+06    -4.46764E+06    -4.46165E+06     153.610E+06     136.209E+06     690.072E+03
             132     46.6402E-03     16.9865E-03     43.4369E-03     133.452E-03    -58.8822E-03    -74.5041E-03    -58.0405E-03     116.988E-03    -58.8822E-03     112.292E-03     395.044E-03     150.004E+06     154.869E+06     136.468E+06    -3.48615E+06    -3.46430E+06     154.847E+06     136.468E+06     1.81118E+06
             133     47.6875E-03     16.9852E-03     44.5601E-03     133.301E-03    -58.8899E-03    -74.4035E-03    -57.7570E-03     116.654E-03    -58.8899E-03     112.790E-03     394.641E-03     153.598E+06     159.026E+06     136.725E+06    -4.48016E+06    -4.43145E+06     158.978E+06     136.725E+06     2.78246E+06
             134     48.7399E-03     16.9868E-03     45.6840E-03     133.458E-03    -58.8898E-03    -74.5988E-03    -57.7081E-03     116.567E-03    -58.8898E-03     113.642E-03     395.202E-03     156.342E+06     163.269E+06     137.610E+06    -4.31546E+06    -4.27430E+06     163.228E+06     137.610E+06     820.668E+03
             135     49.7950E-03     16.9851E-03     46.8086E-03     133.410E-03    -58.8907E-03    -74.5539E-03    -57.9357E-03     116.792E-03    -58.8907E-03     112.760E-03     396.094E-03     155.860E+06     164.101E+06     139.147E+06    -2.72957E+06    -2.72063E+06     164.092E+06     139.147E+06    -608.863E+03
             136     50.8492E-03     16.9867E-03     47.9280E-03     132.119E-03    -58.8736E-03    -73.2927E-03    -57.8188E-03     116.645E-03    -58.8736E-03     108.418E-03     394.859E-03     155.809E+06     162.751E+06     137.666E+06    -4.07765E+06    -4.05615E+06     162.729E+06     137.666E+06    -1.09757E+06
             137     51.9081E-03     16.9859E-03     49.0502E-03     132.152E-03    -58.8569E-03    -73.3032E-03    -58.2592E-03     117.108E-03    -58.8569E-03     107.043E-03     394.107E-03     155.791E+06     161.227E+06     137.337E+06    -5.12056E+06    -5.09869E+06     161.205E+06     137.337E+06    -1.61029E+06
             138     52.9775E-03     16.9861E-03     50.1806E-03     133.659E-03    -58.8710E-03    -74.7862E-03    -58.5603E-03     117.433E-03    -58.8710E-03     111.630E-03     395.048E-03     153.573E+06     160.509E+06     138.629E+06    -2.83036E+06    -2.82895E+06     160.508E+06     138.629E+06    -101.515E+03
             139     54.0461E-03     16.9862E-03     51.3075E-03     134.276E-03    -58.8943E-03    -75.4310E-03    -58.1912E-03     117.036E-03    -58.8943E-03     115.205E-03     395.872E-03     153.913E+06     161.033E+06     137.095E+06    -3.43791E+06    -3.42814E+06     161.023E+06     137.095E+06     1.06730E+06
             140     55.1113E-03     16.9853E-03     52.4286E-03     133.517E-03    -58.9023E-03    -74.6619E-03    -58.0997E-03     116.955E-03    -58.9023E-03     112.657E-03     395.207E-03     155.261E+06     161.167E+06     136.277E+06    -5.03251E+06    -5.02289E+06     161.157E+06     136.277E+06     730.189E+03
             141     56.1783E-03     16.9860E-03     53.5488E-03     132.882E-03    -58.8864E-03    -73.9913E-03    -58.0531E-03     116.943E-03    -58.8864E-03     110.329E-03     394.673E-03     155.601E+06     162.293E+06     138.120E+06    -3.98018E+06    -3.97932E+06     162.292E+06     138.120E+06     66.0791E+03
             142     57.2553E-03     16.9860E-03     54.6776E-03     132.696E-03    -58.8892E-03    -73.8130E-03    -57.5158E-03     116.399E-03    -58.8892E-03     111.341E-03     395.094E-03     155.409E+06     162.151E+06     137.775E+06    -4.00517E+06    -4.00353E+06     162.150E+06     137.775E+06    -77.2882E+03
             143     58.3277E-03     16.9861E-03     55.7996E-03     133.198E-03    -58.9137E-03    -74.3222E-03    -57.0296E-03     115.905E-03    -58.9137E-03     114.697E-03     396.259E-03     155.398E+06     161.864E+06     137.651E+06    -4.21894E+06    -4.21665E+06     161.862E+06     137.651E+06     24.3241E+03
             144     59.4059E-03     16.9860E-03     56.9258E-03     133.810E-03    -58.9154E-03    -74.9049E-03    -57.2387E-03     116.144E-03    -58.9154E-03     116.189E-03     396.734E-03     154.291E+06     161.744E+06     138.519E+06    -2.84177E+06    -2.83883E+06     161.741E+06     138.519E+06    -51.9306E+03
             145     60.4801E-03     16.9858E-03     58.0459E-03     132.974E-03    -58.8944E-03    -74.0726E-03    -57.2371E-03     116.139E-03    -58.8944E-03     113.162E-03     394.951E-03     154.232E+06     160.148E+06     136.952E+06    -4.36664E+06    -4.36345E+06     160.145E+06     136.952E+06     -21.164E+03
             146     61.5543E-03     16.9870E-03     59.1639E-03     132.511E-03    -58.8594E-03    -73.6773E-03    -57.8579E-03     116.691E-03    -58.8594E-03     109.743E-03     392.884E-03     154.842E+06     160.680E+06     137.501E+06    -4.44351E+06    -4.43843E+06     160.675E+06     137.501E+06    -191.428E+03
             147     62.6407E-03     16.9858E-03     60.2938E-03     133.685E-03    -58.8516E-03    -74.8791E-03    -58.5419E-03     117.348E-03    -58.8516E-03     112.044E-03     393.304E-03     155.136E+06     162.116E+06     138.612E+06    -3.42784E+06    -3.38395E+06     162.072E+06     138.612E+06     1.29432E+06
             148     63.7268E-03     16.9865E-03     61.4212E-03     134.264E-03    -58.8813E-03    -75.4399E-03    -57.9923E-03     116.817E-03    -58.8813E-03     115.831E-03     394.992E-03     157.893E+06     164.009E+06     138.957E+06    -4.91257E+06    -4.86749E+06     163.964E+06     138.957E+06     1.19843E+06
             149     65.8871E-03     16.9863E-03     63.6599E-03     132.719E-03    -58.8787E-03    -73.8280E-03    -58.3206E-03     117.211E-03    -58.8787E-03     108.843E-03     394.206E-03     154.493E+06     161.401E+06     139.217E+06    -2.98226E+06    -2.97341E+06     161.392E+06     139.217E+06    -1.10591E+06
             150     66.9746E-03     16.9861E-03     64.7848E-03     133.419E-03    -58.8154E-03    -74.5753E-03    -59.5464E-03     118.390E-03    -58.8154E-03     107.704E-03     393.135E-03     156.739E+06     162.240E+06     138.181E+06    -5.13628E+06    -5.12440E+06     162.228E+06     138.181E+06    -208.832E+03
             151     68.0712E-03     16.9874E-03     65.9175E-03     133.860E-03    -58.8456E-03    -75.0020E-03    -58.2963E-03     117.155E-03    -58.8456E-03     113.141E-03     395.042E-03     156.835E+06     162.719E+06     138.822E+06    -4.69201E+06    -4.68682E+06     162.714E+06     138.822E+06     884.099E+03
             152     69.1623E-03     16.9854E-03     67.0441E-03     134.339E-03    -58.9115E-03    -75.4101E-03    -56.8328E-03     115.762E-03    -58.9115E-03     119.188E-03     397.583E-03     155.952E+06     163.142E+06     139.107E+06    -3.42919E+06    -3.40980E+06     163.123E+06     139.107E+06     1.52786E+06
             153     70.2467E-03     16.9866E-03     68.1620E-03     133.128E-03    -58.9281E-03    -74.2066E-03    -56.5338E-03     115.455E-03    -58.9281E-03     115.755E-03     396.143E-03     155.626E+06     163.777E+06     140.121E+06    -2.31806E+06    -2.28179E+06     163.741E+06     140.121E+06     18.8822E+03
             154     71.3305E-03     16.9857E-03     69.2786E-03     131.992E-03    -58.8809E-03    -73.1810E-03    -57.5885E-03     116.399E-03    -58.8809E-03     108.660E-03     393.588E-03     156.502E+06     161.588E+06     138.430E+06    -5.20144E+06    -5.18260E+06     161.569E+06     138.430E+06    -935.096E+03
             155     72.4220E-03     16.9870E-03     70.4017E-03     131.891E-03    -58.8252E-03    -73.1122E-03    -58.5845E-03     117.363E-03    -58.8252E-03     105.208E-03     391.484E-03     156.631E+06     162.019E+06     138.724E+06    -4.95455E+06    -4.95318E+06     162.017E+06     138.724E+06     96.1215E+03
             156     73.5196E-03     16.9868E-03     71.5302E-03     133.066E-03    -58.8177E-03    -74.2673E-03    -58.6966E-03     117.495E-03    -58.8177E-03     109.242E-03     392.605E-03     158.281E+06     164.854E+06     140.952E+06    -4.01610E+06    -4.00937E+06     164.848E+06     140.952E+06     549.367E+03
             157     74.6198E-03     16.9864E-03     72.6607E-03     134.188E-03    -58.8615E-03    -75.3940E-03    -58.0679E-03     116.862E-03    -58.8615E-03     115.397E-03     394.281E-03     159.728E+06     166.322E+06     140.970E+06    -4.56615E+06    -4.55900E+06     166.315E+06     140.970E+06     1.00468E+06
             158     75.7141E-03     16.9861E-03     73.7841E-03     133.644E-03    -58.9137E-03    -74.7744E-03    -56.6492E-03     115.519E-03    -58.9137E-03     117.457E-03     395.052E-03     158.560E+06     166.048E+06     141.099E+06    -3.50614E+06    -3.49969E+06     166.042E+06     141.099E+06     956.575E+03
             159     76.8027E-03     16.9869E-03     74.9006E-03     133.065E-03    -58.8992E-03    -74.1826E-03    -57.0201E-03     115.902E-03    -58.8992E-03     114.177E-03     394.905E-03     159.014E+06     166.221E+06     141.170E+06    -3.83146E+06    -3.81765E+06     166.207E+06     141.170E+06    -150.138E+03
             160     77.8987E-03     16.9856E-03     76.0243E-03     133.687E-03    -58.8562E-03    -74.8619E-03    -58.7921E-03     117.618E-03    -58.8562E-03     111.229E-03     394.461E-03     158.174E+06     165.838E+06     140.905E+06    -3.32047E+06    -3.31222E+06     165.830E+06     140.905E+06    -898.320E+03
             161     78.9986E-03     16.9864E-03     77.1508E-03     133.174E-03    -58.8515E-03    -74.3597E-03    -58.5299E-03     117.344E-03    -58.8515E-03     110.175E-03     395.176E-03     157.588E+06     164.030E+06     139.613E+06    -4.34128E+06    -4.33898E+06     164.027E+06     139.613E+06    -498.689E+03
             162     80.0946E-03     16.9866E-03     78.2726E-03     131.942E-03    -58.8650E-03    -73.1127E-03    -57.4670E-03     116.296E-03    -58.8650E-03     108.875E-03     395.169E-03     158.565E+06     165.427E+06     139.728E+06    -4.41530E+06    -4.41288E+06     165.425E+06     139.728E+06    -557.073E+03
             163     81.1917E-03     16.9863E-03     79.3949E-03     132.482E-03    -58.8502E-03    -73.6554E-03    -57.9687E-03     116.795E-03    -58.8502E-03     109.317E-03     393.441E-03     158.062E+06     165.601E+06     139.697E+06    -3.81166E+06    -3.81149E+06     165.601E+06     139.697E+06    -147.519E+03
             164     82.2959E-03     16.9870E-03     80.5236E-03     133.363E-03    -58.8423E-03    -74.5479E-03    -58.2575E-03     117.073E-03    -58.8423E-03     111.728E-03     393.060E-03     158.565E+06     165.868E+06     140.385E+06    -3.89521E+06    -3.89038E+06     165.863E+06     140.385E+06     612.580E+03
             165     83.3967E-03     16.9865E-03     81.6484E-03     133.781E-03    -58.8539E-03    -74.9460E-03    -58.0167E-03     116.852E-03    -58.8539E-03     113.965E-03     394.507E-03     159.980E+06     167.718E+06     140.743E+06    -4.03177E+06    -4.02426E+06     167.710E+06     140.743E+06     1.12284E+06
             166     84.4961E-03     16.9865E-03     82.7710E-03     133.380E-03    -58.8579E-03    -74.5312E-03    -57.5335E-03     116.382E-03    -58.8579E-03     113.931E-03     394.324E-03     160.527E+06     168.517E+06     140.596E+06    -4.13848E+06    -4.13134E+06     168.510E+06     140.596E+06     1.10098E+06
             167     85.5972E-03     16.9877E-03     83.8946E-03     133.525E-03    -58.8422E-03    -74.6996E-03    -57.8323E-03     116.658E-03    -58.8422E-03     113.623E-03     394.342E-03     160.502E+06     169.041E+06     141.095E+06    -3.59880E+06    -3.58538E+06     169.027E+06     141.095E+06    -261.252E+03
             168     86.6978E-03     16.9862E-03     85.0176E-03     133.420E-03    -58.8466E-03    -74.5927E-03    -58.4505E-03     117.277E-03    -58.8466E-03     111.288E-03     394.365E-03     162.088E+06     170.257E+06     142.225E+06    -4.01809E+06    -3.99237E+06     170.231E+06     142.225E+06     332.595E+03
             169     87.8007E-03     16.9867E-03     86.1418E-03     132.283E-03    -58.8736E-03    -73.4801E-03    -57.5598E-03     116.363E-03    -58.8736E-03     109.938E-03     394.775E-03     163.403E+06     171.311E+06     142.953E+06    -4.41463E+06    -4.39784E+06     171.294E+06     142.953E+06     1.28022E+06
             170     88.9006E-03     16.9870E-03     87.2625E-03     132.576E-03    -58.8591E-03    -73.7653E-03    -57.3799E-03     116.190E-03    -58.8591E-03     111.580E-03     395.306E-03     164.654E+06     172.300E+06     143.449E+06    -4.87254E+06    -4.87209E+06     172.299E+06     143.449E+06     257.005E+03
             171     90.0098E-03     16.9872E-03     88.3923E-03     133.093E-03    -58.8624E-03    -74.2396E-03    -57.2444E-03     116.098E-03    -58.8624E-03     113.731E-03     394.619E-03     165.414E+06     174.584E+06     145.374E+06    -3.48854E+06    -3.48213E+06     174.577E+06     145.374E+06     920.080E+03
             172     91.1105E-03     16.9869E-03     89.5130E-03     132.452E-03    -58.8839E-03    -73.5793E-03    -56.5549E-03     115.428E-03    -58.8839E-03     113.438E-03     393.830E-03     167.524E+06     176.756E+06     146.321E+06    -3.89895E+06    -3.88206E+06     176.739E+06     146.321E+06     1.72991E+06
             173     92.2075E-03     16.9877E-03     90.6292E-03     132.265E-03    -58.8326E-03    -73.4707E-03    -57.9093E-03     116.704E-03    -58.8326E-03     108.736E-03     392.861E-03     170.459E+06     178.833E+06     147.269E+06    -5.20260E+06    -5.19037E+06     178.821E+06     147.269E+06     645.170E+03
             174     93.3153E-03     16.9874E-03     91.7560E-03     132.220E-03    -58.7956E-03    -73.5116E-03    -58.6036E-03     117.312E-03    -58.7956E-03     106.666E-03     392.189E-03     171.219E+06     179.588E+06     148.504E+06    -5.04167E+06    -5.04022E+06     179.587E+06     148.504E+06    -268.311E+03
             175     94.4246E-03     16.9885E-03     92.8838E-03     131.984E-03    -58.8180E-03    -73.2402E-03    -57.0481E-03     115.792E-03    -58.8180E-03     110.589E-03     393.947E-03     170.931E+06     180.055E+06     149.950E+06    -3.92827E+06    -3.92666E+06     180.053E+06     149.950E+06     459.721E+03
             176     95.5277E-03     16.9888E-03     94.0049E-03     132.802E-03    -58.7826E-03    -74.0292E-03    -56.8542E-03     115.627E-03    -58.7826E-03     114.145E-03     395.530E-03     173.572E+06     182.986E+06     151.558E+06    -4.15114E+06    -4.14051E+06     182.976E+06     151.558E+06     1.30707E+06
             177     96.6358E-03     16.9903E-03     95.1305E-03     133.354E-03    -58.7299E-03    -74.6444E-03    -57.3673E-03     116.077E-03    -58.7299E-03     114.805E-03     395.045E-03     177.641E+06     188.052E+06     155.173E+06    -3.73173E+06    -3.70776E+06     188.028E+06     155.173E+06     2.12859E+06
             178     97.7418E-03     16.9908E-03     96.2537E-03     132.010E-03    -58.7084E-03    -73.3571E-03    -55.9430E-03     114.596E-03    -58.7084E-03     114.418E-03     394.467E-03     181.506E+06     192.359E+06     157.873E+06    -3.91395E+06    -3.87126E+06     192.316E+06     157.873E+06     2.86453E+06
             179     98.8426E-03     16.9938E-03     97.3707E-03     129.806E-03    -58.6460E-03    -71.1922E-03    -54.0246E-03     112.638E-03    -58.6460E-03     112.355E-03     392.132E-03     185.533E+06     194.819E+06     159.176E+06    -5.94887E+06    -5.91928E+06     194.790E+06     159.176E+06     1.24875E+06
             180     99.9438E-03     16.9953E-03     98.4882E-03     128.441E-03    -58.5002E-03    -70.0162E-03    -53.2210E-03     111.646E-03    -58.5002E-03     110.472E-03     389.462E-03     183.331E+06     193.463E+06     159.809E+06    -4.36160E+06    -4.35780E+06     193.459E+06     159.809E+06     24.7185E+03
             181     101.045E-03     17.0001E-03     99.6045E-03     128.659E-03    -58.2569E-03    -70.5041E-03    -53.4999E-03     111.655E-03    -58.2569E-03     111.307E-03     388.491E-03     180.911E+06     190.561E+06     158.764E+06    -4.14010E+06    -4.13806E+06     190.559E+06     158.764E+06     448.382E+03
             182     102.151E-03     17.0049E-03     100.726E-03     128.202E-03    -57.9152E-03    -70.4297E-03    -52.9155E-03     110.688E-03    -57.9152E-03     112.637E-03     387.977E-03     182.151E+06     191.726E+06     159.226E+06    -4.48527E+06    -4.48088E+06     191.722E+06     159.226E+06     661.501E+03
             183     103.253E-03     17.0144E-03     101.841E-03     126.252E-03    -57.4349E-03    -69.0435E-03    -50.8744E-03     108.083E-03    -57.4349E-03     113.440E-03     387.214E-03     181.425E+06     191.511E+06     155.867E+06    -5.07982E+06    -5.06817E+06     191.499E+06     155.867E+06    -183.881E+03
             184     104.350E-03     17.0246E-03     102.952E-03     125.326E-03    -56.7374E-03    -68.8336E-03    -49.8211E-03     106.313E-03    -56.7374E-03     115.407E-03     386.027E-03     176.412E+06     187.426E+06     150.650E+06    -4.47484E+06    -4.46665E+06     187.418E+06     150.650E+06    -546.573E+03
             185     105.453E-03     17.0410E-03     104.067E-03     126.767E-03    -55.7718E-03    -71.1068E-03    -50.2689E-03     105.929E-03    -55.7718E-03     121.423E-03     386.267E-03     172.037E+06     182.886E+06     146.695E+06    -4.36706E+06    -4.36613E+06     182.885E+06     146.695E+06     281.271E+03
             186     106.557E-03     17.0601E-03     105.182E-03     127.989E-03    -54.5659E-03    -73.3883E-03    -51.9646E-03     106.565E-03    -54.5659E-03     124.149E-03     387.751E-03     165.999E+06     177.984E+06     144.275E+06    -2.27571E+06    -2.26173E+06     177.970E+06     144.275E+06     1.08879E+06
             187     107.655E-03     17.0818E-03     106.292E-03     129.308E-03    -53.2460E-03    -75.9412E-03    -57.7137E-03     111.080E-03    -53.2460E-03     116.396E-03     393.632E-03     162.142E+06     168.636E+06     142.361E+06    -4.98122E+06    -4.86762E+06     168.522E+06     142.361E+06    -1.83061E+06
             188     108.761E-03     17.0948E-03     107.410E-03     133.792E-03    -52.1581E-03    -81.4315E-03    -68.3334E-03     120.694E-03    -52.1581E-03     102.037E-03     402.697E-03     159.651E+06     162.785E+06     151.489E+06    -1.97743E+06    -1.78495E+06     162.074E+06     152.008E+06    -249.242E+03
             189     109.888E-03     17.1014E-03     108.549E-03     142.304E-03    -51.4415E-03    -90.7428E-03    -80.8950E-03     132.457E-03    -51.4415E-03     93.6503E-03     413.097E-03     164.480E+06     159.883E+06     158.126E+06    -5.46764E+06    -5.23219E+06     159.129E+06     158.645E+06    -836.487E+03
             190     111.023E-03     17.1030E-03     109.697E-03     153.347E-03    -50.9511E-03    -102.457E-03    -93.8923E-03     144.782E-03    -50.9511E-03     91.7890E-03     421.781E-03     159.169E+06     155.568E+06     151.270E+06    -5.69516E+06    -5.54191E+06     152.355E+06     154.330E+06    -4.39156E+06
             191     112.181E-03     17.1047E-03     110.869E-03     163.206E-03    -50.6188E-03    -112.665E-03    -104.724E-03     155.265E-03    -50.6188E-03     92.2510E-03     426.553E-03     151.223E+06     148.839E+06     141.205E+06    -6.05241E+06    -5.52212E+06     140.675E+06     148.839E+06    -7.13966E+06
             192     113.341E-03     17.1044E-03     112.043E-03     173.124E-03    -50.3136E-03    -122.813E-03    -115.509E-03     165.820E-03    -50.3136E-03     91.5406E-03     426.608E-03     142.095E+06     148.064E+06     124.746E+06    -3.48129E+06    -2.94824E+06     124.213E+06     148.064E+06    -7.10517E+06
             193     114.508E-03     17.1058E-03     113.223E-03     186.719E-03    -49.8883E-03    -136.833E-03    -131.144E-03     181.029E-03    -49.8883E-03     84.6739E-03     418.023E-03     138.237E+06     148.173E+06     111.896E+06    -4.53428E+06    -4.43186E+06     111.793E+06     148.173E+06    -3.22752E+06
             194     115.704E-03     17.1055E-03     114.433E-03     204.876E-03    -49.3141E-03    -155.492E-03    -151.006E-03     200.390E-03    -49.3141E-03     79.6627E-03     404.794E-03     134.647E+06     142.667E+06     101.567E+06    -7.38953E+06    -7.08783E+06     101.265E+06     142.667E+06    -5.46417E+06
             195     116.926E-03     17.1078E-03     115.668E-03     226.268E-03    -48.6864E-03    -177.506E-03    -173.524E-03     222.285E-03    -48.6864E-03     79.7485E-03     392.664E-03     127.825E+06     137.342E+06     80.0871E+06    -8.93972E+06    -7.95688E+06     79.1042E+06     137.342E+06    -8.87135E+06
             196     118.185E-03     17.1074E-03     116.940E-03     248.683E-03    -48.1439E-03    -200.565E-03    -196.422E-03     244.539E-03    -48.1439E-03     85.8900E-03     384.919E-03     130.345E+06     145.665E+06     62.0800E+06    -2.52717E+06      90.841E+03     59.4620E+06     145.665E+06     19.9205E+03
             197     119.472E-03     17.1095E-03     118.241E-03     266.940E-03    -47.7151E-03    -219.235E-03    -214.681E-03     262.387E-03    -47.7151E-03     93.6575E-03     379.566E-03     142.154E+06     150.617E+06     43.5835E+06    -10.4727E+06    -7.75386E+06     40.8647E+06     150.617E+06     456.618E+03
             198     120.772E-03     17.1102E-03     119.554E-03     284.782E-03    -47.3328E-03    -237.425E-03    -230.231E-03     277.588E-03    -47.3328E-03     120.267E-03     393.407E-03     151.339E+06     167.679E+06     54.6610E+06    -4.13209E+06     9.43466E+06     41.0942E+06     167.679E+06     7.08950E+06
             199     122.145E-03     17.1133E-03     120.940E-03     298.555E-03    -47.2291E-03    -251.268E-03    -235.020E-03     282.307E-03    -47.2291E-03     182.146E-03     421.763E-03     171.293E+06     166.289E+06     60.8225E+06    -29.1977E+06    -12.5388E+06     44.1636E+06     166.289E+06    -3.11539E+06
             200     123.518E-03     17.1126E-03     122.327E-03     278.472E-03    -48.1487E-03    -230.284E-03    -192.831E-03     241.019E-03    -48.1487E-03     256.368E-03     408.906E-03     142.344E+06     120.972E+06     34.8968E+06    -40.7016E+06    -26.2885E+06     20.4837E+06     120.972E+06    -14.9500E+06
             201     124.718E-03     17.1189E-03     123.538E-03     193.630E-03    -53.3966E-03    -140.262E-03    -87.4008E-03     140.769E-03    -53.3966E-03     236.491E-03     282.221E-03     83.0733E+06     69.9971E+06     774.443E+03    -22.0796E+06    -11.0894E+06    -10.2157E+06     69.9971E+06    -1.91029E+06
             202     125.672E-03     16.8963E-03     124.531E-03     86.8479E-03    -9.63539E-03    -77.2304E-03     10.2126E-03     58.7843E-03    -69.0148E-03     91.7980E-03     130.657E-03     86.6867E+06     49.7957E+06    -24.2275E+06    -45.3973E+06     1.07625E+06    -29.4093E+06     8.50391E+06     11.2967E+06
             203     125.886E-03     15.4790E-03     124.930E-03     49.5671E-03     30.6673E-03    -80.2286E-03     34.4435E-03     45.7909E-03    -80.2286E-03     13.5756E-03     84.7770E-03     107.012E+06     87.0634E+06     43.4074E+06    -24.8656E+06     21.5809E+06     38.2527E+06     45.7716E+06     8.32426E+06
             204     125.328E-03     14.5270E-03     124.484E-03     89.1270E-03    -10.6692E-03    -78.5400E-03    -4.50970E-03     82.9675E-03    -78.5400E-03    -21.5046E-03     124.355E-03     135.391E+06     102.300E+06     40.4175E+06    -43.3662E+06    -19.1064E+06     16.1577E+06     102.300E+06    -1.83318E+06
             205     124.765E-03     13.7231E-03     124.008E-03     119.594E-03    -45.7842E-03    -73.8949E-03    -38.5409E-03     112.351E-03    -73.8949E-03    -67.6881E-03     153.159E-03     129.302E+06     90.5294E+06     20.6172E+06    -52.3503E+06    -15.6763E+06    -16.0569E+06     90.5294E+06    -17.8241E+06
             206     124.280E-03     12.8950E-03     123.609E-03     123.326E-03    -54.6489E-03    -68.6613E-03    -46.6982E-03     115.375E-03    -68.6613E-03    -73.5302E-03     148.115E-03     117.505E+06     83.4003E+06     31.8736E+06    -48.0633E+06    -4.09907E+06    -12.0906E+06     83.4003E+06    -18.7308E+06
             207     123.879E-03     12.0328E-03     123.294E-03     136.599E-03    -61.6584E-03    -74.9329E-03    -63.2821E-03     127.204E-03    -63.9144E-03    -86.6666E-03     155.781E-03     109.741E+06     95.4890E+06     19.6341E+06    -30.1935E+06     3.97749E+06    -14.5369E+06     95.4890E+06    -4.18974E+06
             208     123.531E-03     11.1796E-03     123.024E-03     145.000E-03    -58.7394E-03    -86.2528E-03    -76.9541E-03     135.701E-03    -58.7394E-03    -90.7278E-03     159.919E-03     106.200E+06     107.929E+06     36.7706E+06    -13.8415E+06     21.1405E+06     1.78850E+06     107.929E+06    -9.58978E+06
             209     123.239E-03     10.3247E-03     122.806E-03     139.705E-03    -53.5447E-03    -86.1136E-03    -79.2776E-03     132.869E-03    -53.5447E-03    -76.9625E-03     150.554E-03     107.088E+06     111.010E+06     34.5144E+06    -10.2922E+06     33.7622E+06    -9.53990E+06     111.010E+06    -5.19166E+06
             210     122.995E-03     9.44415E-03     122.632E-03     128.537E-03    -48.8173E-03    -79.6913E-03    -75.4921E-03     124.338E-03    -48.8173E-03    -58.2338E-03     135.954E-03     102.636E+06     111.361E+06     40.6070E+06    -4.83687E+06     39.8226E+06    -4.05253E+06     111.361E+06     301.887E+03
             211     122.793E-03     8.54649E-03     122.495E-03     116.766E-03    -44.5406E-03    -72.1689E-03    -69.5755E-03     114.172E-03    -44.5406E-03    -43.7948E-03     121.786E-03     95.0207E+06     105.111E+06     38.6292E+06    -1.63729E+06     38.3641E+06    -1.37227E+06     105.111E+06     2.52720E+06
             212     122.624E-03     7.63310E-03     122.386E-03     105.173E-03    -40.6889E-03    -64.4365E-03    -62.8001E-03     103.537E-03    -40.6889E-03    -33.0301E-03     108.425E-03     84.0542E+06     97.6066E+06     35.3479E+06     3.52698E+06     35.3140E+06     3.56090E+06     97.6066E+06    -1.01939E+06
             213     122.486E-03     6.70715E-03     122.302E-03     93.6974E-03    -37.2565E-03    -56.4208E-03    -55.3948E-03     92.6713E-03    -37.2565E-03    -24.6494E-03     95.6275E-03     76.0899E+06     85.8286E+06     35.9425E+06    -1.54772E+06     35.5101E+06    -1.11531E+06     85.8286E+06    -2.99280E+06
             214     122.371E-03     5.76974E-03     122.235E-03     82.8813E-03    -34.2703E-03    -48.5970E-03    -47.9489E-03     82.2333E-03    -34.2703E-03    -18.3621E-03     83.9344E-03     63.2581E+06     72.8224E+06     38.8753E+06     1.16123E+06     38.1687E+06     1.86775E+06     72.8224E+06    -4.96618E+06
             215     122.282E-03     4.82300E-03     122.187E-03     73.6938E-03    -31.8151E-03    -41.8999E-03    -41.5037E-03     73.2976E-03    -31.8151E-03    -13.4283E-03     74.2349E-03     60.3726E+06     68.0473E+06     45.2874E+06    -354.673E+03     44.5517E+06     381.055E+03     68.0473E+06    -5.69181E+06
             216     122.209E-03     3.86731E-03     122.148E-03     66.2059E-03    -29.8489E-03    -36.3513E-03    -36.1200E-03     65.9746E-03    -29.8489E-03    -9.69209E-03     66.4264E-03     65.6544E+06     72.6855E+06     51.9133E+06    -611.239E+03     51.1337E+06     168.344E+03     72.6855E+06    -6.26276E+06
             217     122.157E-03     2.90532E-03     122.123E-03     60.2555E-03    -28.2642E-03    -31.9778E-03    -31.8493E-03     60.1269E-03    -28.2642E-03    -6.77854E-03     60.3284E-03     69.0839E+06     70.9492E+06     58.9001E+06    -3.25790E+06     58.4196E+06    -2.77743E+06     70.9492E+06    -5.32862E+06
             218     122.117E-03     1.93979E-03     122.101E-03     55.4439E-03    -26.9149E-03    -28.5313E-03    -28.0631E-03     55.3777E-03    -27.3169E-03    -4.69100E-03     55.4713E-03     66.6560E+06     68.5978E+06     60.4817E+06    -1.73940E+06     64.7596E+06    -1.40570E+06     63.9863E+06    -4.70802E+06
             219     122.096E-03     968.385E-06     122.093E-03     54.2419E-03    -26.4291E-03    -27.8144E-03    -27.3671E-03     54.1966E-03    -26.8311E-03    -3.82529E-03     54.2628E-03     71.7849E+06     76.0825E+06     67.8017E+06      526.53E+03     71.8126E+06     1.12724E+06     71.4709E+06    -6.42708E+06
             220     121.034E-03    -1.73061E-06     121.034E-03     46.1130E-03    -22.1832E-03    -23.9277E-03    -23.1408E-03     46.0873E-03    -22.9444E-03    -2.65085E-03     46.1472E-03     64.2978E+06     54.0682E+06     46.6344E+06    -13.6113E+06     49.5230E+06    -12.7354E+06     50.3036E+06    -7.40373E+06
             221     119.995E-03     168.873E-09     119.995E-03     30.2569E-03    -14.6430E-03    -15.6127E-03    -14.8398E-03     30.2452E-03    -15.4041E-03    -1.45160E-03     30.2992E-03     28.9455E+06    -2.16357E+06    -7.28980E+06    -33.1701E+06    -4.31492E+06    -31.0188E+06    -7.28980E+06    -4.99048E+06
             222     118.975E-03     230.635E-09     118.975E-03     18.6711E-03    -9.19891E-03    -9.47171E-03    -9.39659E-03     18.6602E-03    -9.26318E-03    -1.07625E-03     18.7047E-03     14.3121E+06    -42.8177E+06    -55.5565E+06    -57.9313E+06    -55.0618E+06    -45.6872E+06    -55.5565E+06    -5.64781E+06
             223     117.959E-03    -388.810E-09     117.959E-03     10.8946E-03    -5.40265E-03    -5.49214E-03    -5.39252E-03     10.8844E-03    -5.49214E-03    -812.457E-06     10.9203E-03     40.6232E+06    -65.1920E+06    -104.829E+06    -106.725E+06    -104.579E+06    -67.3380E+06    -104.829E+06    -7.79097E+06
             224     116.955E-03     334.214E-09     116.955E-03     6.04025E-03    -2.99645E-03    -3.04403E-03    -2.99248E-03     6.03628E-03    -3.04403E-03    -353.026E-06     6.06303E-03     68.5900E+06    -89.6672E+06    -157.733E+06    -158.756E+06    -158.042E+06    -90.3811E+06    -157.733E+06    -6.86252E+06
             225     115.947E-03    -385.628E-09     115.947E-03     3.15846E-03    -1.55536E-03    -1.60321E-03    -1.55179E-03     3.15489E-03    -1.60321E-03     87.1040E-06     3.17208E-03     99.1355E+06    -109.413E+06    -207.645E+06    -209.414E+06    -207.345E+06    -109.733E+06    -209.394E+06    -1.77804E+06
             226     114.948E-03     303.355E-09     114.948E-03     2.44631E-03    -1.19802E-03    -1.24824E-03    -1.18365E-03     2.43194E-03    -1.24824E-03     445.919E-06     2.45245E-03     83.2377E+06    -99.0946E+06    -180.525E+06    -184.007E+06    -178.392E+06    -101.228E+06    -184.007E+06     8.15882E+06
             227     113.942E-03    -428.211E-09     113.942E-03     3.83449E-03    -1.88843E-03    -1.94598E-03    -1.89026E-03     3.80350E-03    -1.91316E-03     842.398E-06     3.84664E-03     78.3529E+06    -42.1601E+06    -117.607E+06    -123.127E+06    -113.936E+06    -49.6184E+06    -119.339E+06     23.1354E+06
             228     112.940E-03     432.241E-09     112.940E-03     8.14772E-03    -4.02606E-03    -4.12165E-03    -4.05745E-03     8.08351E-03    -4.02606E-03     1.77032E-03     8.16418E-03     106.389E+06     25.9668E+06    -72.9936E+06    -86.3291E+06    -80.7437E+06     20.3814E+06    -72.9936E+06     20.0209E+06
             229     111.926E-03    -267.453E-09     111.926E-03     16.9986E-03    -8.35073E-03    -8.64809E-03    -8.54726E-03     16.8977E-03    -8.35073E-03     3.19116E-03     17.0116E-03     76.8631E+06     54.1480E+06    -15.3956E+06    -28.3579E+06    -24.7093E+06     53.9136E+06    -18.8099E+06     2.91330E+06
             230     110.905E-03     578.304E-09     110.905E-03     29.5414E-03    -14.5374E-03    -15.0038E-03    -14.9164E-03     29.4541E-03    -14.5374E-03     3.79976E-03     29.5581E-03     31.0628E+06     51.2977E+06     27.9353E+06     18.5423E+06     24.2334E+06     49.0209E+06     24.5210E+06    -3.61477E+06
             231     109.868E-03    -124.385E-09     109.868E-03     44.2646E-03    -21.9596E-03    -22.3036E-03    -22.2544E-03     44.2153E-03    -21.9596E-03     3.53586E-03     44.2972E-03     26.9538E+06     55.7024E+06     52.4629E+06     27.2882E+06     50.7772E+06     32.2135E+06     52.4629E+06    -7.32901E+06
             232     108.814E-03     292.831E-09     108.814E-03     60.0396E-03    -29.9412E-03    -30.0958E-03    -30.0586E-03     60.0023E-03    -29.9412E-03     3.65560E-03     60.0951E-03     52.7584E+06     66.6231E+06     63.0344E+06     12.2283E+06     64.6015E+06     13.5638E+06     63.7205E+06    -8.10265E+06
             233     107.743E-03    -220.904E-09     107.743E-03     74.8790E-03    -37.3190E-03    -37.5551E-03    -37.5188E-03     74.8426E-03    -37.3190E-03     4.03338E-03     74.9557E-03     75.8642E+06     68.4396E+06     65.8733E+06    -8.67208E+06     67.1683E+06    -8.08687E+06     66.5594E+06    -6.12902E+06
             234     106.657E-03     543.645E-09     106.657E-03     87.0995E-03    -43.2493E-03    -43.8451E-03    -43.8155E-03     87.0699E-03    -43.2493E-03     3.90599E-03     87.1994E-03     94.5861E+06     63.8674E+06     59.9059E+06    -32.6372E+06     61.4454E+06    -32.2965E+06     61.9872E+06    -5.61970E+06
             235     105.562E-03     236.697E-09     105.562E-03     97.3530E-03    -48.1571E-03    -49.1947E-03    -49.1799E-03     97.3382E-03    -48.1571E-03     2.75685E-03     97.4762E-03     109.257E+06     58.8307E+06     54.2693E+06    -52.6359E+06     56.4399E+06    -52.3264E+06     56.3506E+06    -5.61018E+06
             236     104.455E-03     938.152E-09     104.455E-03     105.369E-03    -52.3677E-03    -53.0033E-03    -53.0001E-03     105.365E-03    -52.3677E-03     1.29532E-03     105.515E-03     123.502E+06     56.3137E+06     50.6920E+06    -69.9031E+06     52.8054E+06    -69.5364E+06     53.8336E+06    -6.49380E+06
             237     103.340E-03    -892.818E-09     103.340E-03     110.630E-03    -55.0096E-03    -55.6228E-03    -55.6215E-03     110.629E-03    -55.0097E-03     904.913E-06     110.784E-03     127.995E+06     38.5759E+06     30.4926E+06    -93.2582E+06     35.1127E+06    -92.9366E+06     33.6342E+06    -5.88760E+06
             238     102.221E-03     1.98826E-06     102.221E-03     114.102E-03    -56.6166E-03    -57.4888E-03    -57.4872E-03     114.101E-03    -56.6166E-03     1.04396E-03     114.256E-03     120.880E+06     13.7857E+06      5.8046E+06    -110.880E+06     10.6590E+06    -110.792E+06     8.84398E+06    -3.25689E+06
             239     101.099E-03    -1.46278E-06     101.099E-03     115.910E-03    -57.7166E-03    -58.1961E-03    -57.9746E-03     115.909E-03    -57.9371E-03     224.004E-06     116.069E-03     121.650E+06    -746.673E+03    -4.10863E+06    -124.017E+06    -4.02576E+06    -123.777E+06    -1.06925E+06    -5.09242E+06
             240     99.9780E-03     1.04570E-06     99.9780E-03     116.862E-03    -58.0317E-03    -58.8310E-03    -58.6102E-03     116.861E-03    -58.2522E-03    -440.218E-06     117.041E-03     124.883E+06    -21.3430E+06    -22.4598E+06    -146.780E+06    -21.7117E+06    -146.412E+06    -22.4598E+06    -6.78888E+06
             241     98.8525E-03     37.6789E-09     98.8525E-03     117.645E-03    -58.3014E-03    -59.3457E-03    -59.3454E-03     117.645E-03    -58.3014E-03     122.330E-06     117.824E-03     130.029E+06    -37.3896E+06    -38.3280E+06    -167.884E+06    -37.7395E+06    -167.678E+06    -38.1839E+06    -4.77517E+06
             242     97.7278E-03     843.588E-09     97.7278E-03     117.878E-03    -58.6335E-03    -59.2469E-03    -59.2467E-03     117.878E-03    -58.6335E-03     240.196E-06     118.044E-03     134.670E+06    -51.0715E+06    -51.7098E+06    -186.059E+06    -51.5562E+06    -185.719E+06    -51.5656E+06    -6.01738E+06
             243     96.6048E-03    -564.937E-09     96.6048E-03     118.103E-03    -58.9468E-03    -59.1582E-03    -59.0945E-03     118.103E-03    -59.0103E-03     222.416E-06     118.281E-03     137.796E+06    -69.2035E+06    -70.4301E+06    -207.609E+06    -69.5476E+06    -207.265E+06    -70.4301E+06    -6.13708E+06
             244     95.4783E-03     440.856E-09     95.4783E-03     118.064E-03    -58.9429E-03    -59.1234E-03    -59.0595E-03     118.064E-03    -59.0064E-03     16.4386E-06     118.241E-03     146.087E+06    -76.8496E+06    -78.9425E+06    -223.971E+06    -76.8875E+06    -223.933E+06    -78.9425E+06    -1.76109E+06
             245     94.3552E-03    -240.047E-09     94.3552E-03     118.022E-03    -58.5893E-03    -59.4335E-03    -59.4332E-03     118.022E-03    -58.5893E-03    -107.360E-06     118.192E-03     152.251E+06    -82.3104E+06    -86.6830E+06    -236.695E+06    -85.3983E+06    -236.619E+06    -83.6708E+06    -2.51371E+06
             246     93.2318E-03     1.65356E-06     93.2318E-03     118.348E-03    -58.5349E-03    -59.8135E-03    -59.8125E-03     118.347E-03    -58.5349E-03    -426.252E-06     118.532E-03     162.637E+06    -84.7023E+06    -89.4589E+06    -249.661E+06    -87.9420E+06    -249.433E+06    -86.4467E+06    -6.00240E+06
             247     92.1056E-03    -635.681E-09     92.1056E-03     117.670E-03    -58.5007E-03    -59.1695E-03    -59.0512E-03     117.669E-03    -58.6182E-03    -518.807E-06     117.860E-03     173.734E+06    -90.0072E+06    -91.8504E+06    -264.649E+06    -90.1621E+06    -264.494E+06    -91.8504E+06    -4.09435E+06
             248     90.9836E-03     412.604E-09     90.9836E-03     117.566E-03    -58.3839E-03    -59.1820E-03    -59.0637E-03     117.565E-03    -58.5014E-03    -507.597E-06     117.733E-03     182.001E+06    -89.4822E+06    -90.8619E+06    -272.167E+06    -89.4871E+06    -272.162E+06    -90.8619E+06    -947.080E+03
             249     89.8601E-03     858.303E-09     89.8601E-03     118.100E-03    -58.6236E-03    -59.4794E-03    -59.3032E-03     118.099E-03    -58.7988E-03    -361.405E-06     118.320E-03     186.237E+06    -87.5859E+06    -90.0685E+06    -275.052E+06    -88.7929E+06    -275.047E+06    -88.8668E+06     103.625E+03
             250     88.7334E-03    -1.16918E-06     88.7334E-03     117.991E-03    -58.8729E-03    -59.1210E-03    -58.9457E-03     117.990E-03    -59.0481E-03     294.243E-06     118.314E-03     188.905E+06    -88.3164E+06    -90.5977E+06    -278.351E+06    -89.5247E+06    -278.345E+06    -89.3961E+06    -20.3552E+03
             251     87.6108E-03     1.29660E-06     87.6108E-03     117.878E-03    -58.5420E-03    -59.3383E-03    -59.3382E-03     117.878E-03    -58.5420E-03     277.060E-06     118.298E-03     192.500E+06    -85.9819E+06    -87.7442E+06    -279.356E+06    -86.6704E+06    -279.350E+06    -87.0616E+06    -74.5746E+03
             252     86.4865E-03     80.8012E-09     86.4865E-03     117.461E-03    -58.2928E-03    -59.1724E-03    -59.1723E-03     117.461E-03    -58.2928E-03     150.483E-06     117.953E-03     194.014E+06    -83.4234E+06    -84.8687E+06    -278.156E+06    -84.1158E+06    -278.147E+06    -84.1862E+06     1.33835E+06
             253     85.3641E-03     207.402E-09     85.3641E-03     117.315E-03    -58.5758E-03    -58.7430E-03    -58.7430E-03     117.315E-03    -58.5758E-03     51.3419E-06     117.827E-03     194.371E+06    -79.9784E+06    -81.7912E+06    -275.249E+06    -81.0358E+06    -275.242E+06    -80.7412E+06     732.084E+03
             254     84.2405E-03    -170.227E-09     84.2405E-03     117.717E-03    -58.4127E-03    -59.3065E-03    -59.3064E-03     117.717E-03    -58.4127E-03    -169.391E-06     118.354E-03     194.624E+06    -80.0615E+06    -82.3892E+06    -275.839E+06    -81.1124E+06    -275.838E+06    -81.3391E+06    -359.243E+03
             255     83.1161E-03     1.81773E-06     83.1161E-03     117.904E-03    -58.3295E-03    -59.5764E-03    -59.5762E-03     117.904E-03    -58.3295E-03    -188.097E-06     118.662E-03     195.531E+06    -78.9524E+06    -81.1925E+06    -275.593E+06    -79.9158E+06    -275.592E+06      -80.23E+06    -410.097E+03
             256     81.9940E-03    -1.11496E-06     81.9940E-03     118.064E-03    -58.7523E-03    -59.3095E-03    -59.1161E-03     118.064E-03    -58.9453E-03    -293.767E-06     118.921E-03     195.640E+06    -79.7443E+06    -81.3836E+06    -276.199E+06    -80.7083E+06    -276.197E+06    -80.4211E+06    -513.571E+03
             257     80.8671E-03     741.005E-09     80.8671E-03     118.087E-03    -58.6319E-03    -59.4533E-03    -59.2591E-03     118.086E-03    -58.8250E-03     172.852E-06     119.037E-03     195.168E+06    -80.6854E+06    -81.4104E+06    -276.214E+06    -80.7033E+06    -276.196E+06    -81.4104E+06     922.693E+03
             258     79.7430E-03     438.190E-09     79.7430E-03     117.649E-03    -58.2415E-03    -59.4120E-03    -59.4112E-03     117.648E-03    -58.2415E-03     709.881E-06     118.533E-03     198.639E+06    -77.9159E+06    -78.4489E+06    -276.820E+06    -78.4219E+06    -276.799E+06    -77.9641E+06     609.575E+03
             259     78.6221E-03     596.351E-09     78.6221E-03     117.432E-03    -58.3840E-03    -59.0514E-03    -59.0483E-03     117.429E-03    -58.3840E-03    -841.894E-06     118.296E-03     200.711E+06    -77.6855E+06    -79.0003E+06    -279.050E+06    -78.1749E+06    -279.046E+06    -78.5154E+06    -584.809E+03
             260     77.4998E-03    -374.118E-09     77.4998E-03     117.838E-03    -58.8499E-03    -58.9884E-03    -58.9853E-03     117.834E-03    -58.8499E-03    -1.13872E-03     118.782E-03     200.541E+06    -76.9540E+06    -78.7008E+06    -278.362E+06    -77.8711E+06    -278.362E+06    -77.7839E+06     192.687E+03
             261     76.3720E-03     417.360E-09     76.3720E-03     118.226E-03    -58.7709E-03    -59.4563E-03    -59.4562E-03     118.226E-03    -58.7709E-03    -160.424E-06     119.185E-03     199.698E+06    -74.4499E+06    -75.4577E+06    -274.648E+06    -75.3669E+06    -274.648E+06    -74.5408E+06     176.852E+03
             262     75.2496E-03     851.890E-09     75.2496E-03     117.918E-03    -58.5371E-03    -59.3832E-03    -59.3831E-03     117.917E-03    -58.5371E-03    -241.825E-06     118.775E-03     199.183E+06    -71.4427E+06    -72.7596E+06    -271.279E+06    -71.4464E+06    -271.275E+06    -72.7596E+06     668.462E+03
             263     74.1263E-03    -540.017E-09     74.1263E-03     117.597E-03    -58.6401E-03    -58.9589E-03    -58.9585E-03     117.597E-03    -58.6401E-03    -511.684E-06     118.420E-03     196.615E+06    -72.8780E+06    -75.8783E+06    -270.975E+06    -74.6564E+06    -270.971E+06    -74.1038E+06     789.115E+03
             264     73.0012E-03     842.791E-09     73.0012E-03     117.562E-03    -58.5303E-03    -59.0314E-03    -59.0311E-03     117.562E-03    -58.5303E-03    -214.720E-06     118.345E-03     196.400E+06    -71.5796E+06    -74.5941E+06    -269.469E+06    -73.3568E+06    -269.466E+06    -72.8196E+06    -287.986E+03
             265     71.8792E-03    -178.580E-09     71.8792E-03     117.621E-03    -58.5092E-03    -59.1131E-03    -59.1129E-03     117.621E-03    -58.5092E-03    -119.180E-06     118.381E-03     196.234E+06    -71.6278E+06    -72.9198E+06    -268.502E+06    -71.6855E+06    -268.496E+06    -72.8677E+06     95.5844E+03
             266     70.7544E-03     649.574E-09     70.7544E-03     117.575E-03    -58.3830E-03    -59.1959E-03    -59.1957E-03     117.574E-03    -58.3830E-03    -353.497E-06     118.398E-03     194.048E+06    -74.6940E+06    -74.9917E+06    -268.890E+06    -74.7557E+06    -268.880E+06    -74.9396E+06     1.35608E+06
             267     69.6313E-03     418.261E-09     69.6313E-03     117.326E-03    -58.3165E-03    -59.0156E-03    -58.8818E-03     117.326E-03    -58.4501E-03     87.2062E-06     118.159E-03     194.006E+06    -74.2433E+06    -75.3599E+06    -268.804E+06    -75.1240E+06    -268.795E+06    -74.4890E+06     212.565E+03
             268     68.5085E-03    -662.482E-09     68.5085E-03     117.569E-03    -58.3634E-03    -59.2107E-03    -59.0738E-03     117.566E-03    -58.4969E-03    -836.193E-06     118.359E-03     195.480E+06    -73.2281E+06    -74.6713E+06    -269.426E+06    -74.6757E+06    -269.421E+06    -73.2281E+06    -890.038E+03
             269     67.3854E-03     2.01055E-06     67.3854E-03     117.733E-03    -58.3902E-03    -59.3438E-03    -59.3406E-03     117.730E-03    -58.3902E-03    -875.905E-06     118.542E-03     195.779E+06    -72.8633E+06    -74.5231E+06    -269.466E+06    -73.4366E+06    -269.465E+06    -73.9508E+06    -250.947E+03
             270     66.2603E-03    -1.56868E-06     66.2603E-03     117.625E-03    -58.6914E-03    -58.9370E-03    -58.9310E-03     117.624E-03    -58.6972E-03    -43.1727E-06     118.465E-03     193.983E+06    -74.1539E+06    -75.2794E+06    -268.695E+06    -74.1935E+06    -268.694E+06    -75.2415E+06     466.511E+03
             271     65.1367E-03     1.55704E-06     65.1367E-03     117.787E-03    -58.7354E-03    -59.0567E-03    -59.0504E-03     117.786E-03    -58.7412E-03     152.583E-06     118.579E-03     194.245E+06    -74.0674E+06    -74.1978E+06    -268.377E+06    -74.1070E+06    -268.376E+06    -74.1599E+06     310.953E+03
             272     64.0132E-03    -964.785E-09     64.0132E-03     117.955E-03    -58.7224E-03    -59.2361E-03    -59.2351E-03     117.954E-03    -58.7224E-03    -110.517E-06     118.759E-03     194.851E+06    -72.8154E+06    -73.1394E+06    -267.828E+06    -72.8159E+06    -267.828E+06    -73.1394E+06     130.732E+03
             273     62.8892E-03     1.33664E-06     62.8892E-03     117.864E-03    -58.6271E-03    -59.2421E-03    -59.2414E-03     117.863E-03    -58.6271E-03    -643.109E-06     118.689E-03     195.253E+06    -70.9621E+06    -72.4498E+06    -266.952E+06    -72.2223E+06    -266.948E+06    -71.1936E+06    -375.476E+03
             274     63.3499E-03     16.0404E-03     61.2855E-03     152.225E-03    -58.8685E-03    -93.4536E-03    -59.2046E-03     117.976E-03    -58.8685E-03     166.416E-03     448.467E-03     154.758E+06     156.067E+06     131.457E+06    -9.52047E+06    -9.48865E+06     156.035E+06     131.457E+06     113.878E+03
             275     62.8807E-03     15.0970E-03     61.0415E-03     156.036E-03    -58.8694E-03    -97.3879E-03    -59.4336E-03     118.082E-03    -58.8694E-03     179.069E-03     424.865E-03     144.352E+06     139.620E+06     104.898E+06    -18.4888E+06    -18.4328E+06     139.564E+06     104.898E+06    -1.44029E+06
             276     62.5044E-03     14.1513E-03     60.8813E-03     131.933E-03    -58.7472E-03    -73.3616E-03    -57.6577E-03     116.229E-03    -58.7472E-03     104.793E-03     314.221E-03     133.307E+06     126.773E+06     65.5651E+06    -24.9705E+06    -24.8690E+06     126.671E+06     65.5651E+06    -990.288E+03
             277     62.2252E-03     13.2070E-03     60.8075E-03     120.614E-03    -58.5485E-03    -62.1006E-03    -57.0422E-03     115.556E-03    -58.5485E-03     59.3141E-03     257.254E-03     128.983E+06     117.346E+06     24.0000E+06    -28.0626E+06    -28.0067E+06     117.290E+06     24.0000E+06     150.578E+03
             278     61.9777E-03     12.2638E-03     60.7523E-03     118.049E-03    -58.4595E-03    -59.6221E-03    -57.2359E-03     115.672E-03    -58.4683E-03     39.4647E-03     218.703E-03     100.336E+06     79.7423E+06    -7.94301E+06    -29.5473E+06    -29.5413E+06     79.7363E+06    -7.94301E+06     295.707E+03
             279     61.7682E-03     11.3188E-03     60.7223E-03     116.960E-03    -58.4317E-03    -58.5570E-03    -57.5198E-03     116.035E-03    -58.5443E-03     25.1278E-03     194.133E-03     47.7016E+06     19.6533E+06    -23.3990E+06    -31.5599E+06    -30.8698E+06     8.81879E+06    -13.2546E+06     889.500E+03
             280     61.5795E-03     10.3754E-03     60.6992E-03     117.167E-03    -58.4866E-03    -58.6923E-03    -57.9093E-03     116.580E-03    -58.6829E-03     20.2226E-03     178.010E-03     44.4962E+06    -6.68239E+06    -31.4154E+06    -56.9331E+06    -33.1873E+06    -55.1612E+06    -6.68239E+06     728.390E+03
             281     61.4074E-03     9.43199E-03     60.6787E-03     117.121E-03    -58.3977E-03    -58.7438E-03    -58.0257E-03     116.749E-03    -58.7438E-03     15.8473E-03     164.392E-03     73.3908E+06    -7.93151E+06    -35.4808E+06    -90.9725E+06    -35.5625E+06    -90.8908E+06    -7.93151E+06    -1.27278E+06
             282     61.2571E-03     8.48859E-03     60.6661E-03     116.963E-03    -58.1907E-03    -58.8182E-03    -58.0106E-03     116.782E-03    -58.8182E-03     11.1069E-03     152.810E-03     101.051E+06    -10.8596E+06    -38.5323E+06    -122.795E+06    -38.5926E+06    -122.735E+06    -10.8596E+06    -940.740E+03
             283     61.1249E-03     7.54438E-03     60.6575E-03     117.123E-03    -58.2502E-03    -58.9205E-03    -58.1524E-03     117.025E-03    -58.9205E-03     8.17527E-03     144.536E-03     135.575E+06    -13.8920E+06    -43.4456E+06    -161.749E+06    -43.4840E+06    -161.711E+06    -13.8920E+06     1.63397E+06
             284     61.0075E-03     6.60134E-03     60.6493E-03     117.415E-03    -58.4539E-03    -58.9928E-03    -58.4066E-03     117.367E-03    -58.9928E-03     5.61512E-03     137.803E-03     158.300E+06    -19.6446E+06    -49.0620E+06    -190.549E+06    -49.0936E+06    -190.517E+06    -19.6446E+06     1.53994E+06
             285     60.9089E-03     5.65784E-03     60.6455E-03     117.654E-03    -58.6567E-03    -59.0206E-03    -58.6372E-03     117.635E-03    -59.0206E-03     3.63821E-03     132.173E-03     170.698E+06    -26.9577E+06    -54.0409E+06    -209.556E+06    -54.0553E+06    -209.541E+06    -26.9577E+06     1.08677E+06
             286     60.8254E-03     4.71485E-03     60.6424E-03     117.836E-03    -58.8092E-03    -59.0426E-03    -58.8017E-03     117.828E-03    -59.0426E-03     2.15913E-03     127.749E-03     187.582E+06    -34.0120E+06    -58.1154E+06    -232.464E+06    -58.1339E+06    -232.446E+06    -34.0120E+06     1.54121E+06
             287     60.7587E-03     3.77222E-03     60.6415E-03     117.867E-03    -58.8441E-03    -59.0434E-03    -58.8418E-03     117.864E-03    -59.0434E-03     1.16091E-03     124.170E-03     197.239E+06    -42.7051E+06    -62.6707E+06    -249.149E+06    -62.6779E+06    -249.142E+06    -42.7051E+06     835.558E+03
             288     60.7068E-03     2.82913E-03     60.6409E-03     117.912E-03    -58.9026E-03    -59.0286E-03    -58.9400E-03     117.910E-03    -58.9900E-03     703.344E-06     121.579E-03     194.778E+06    -54.2765E+06    -66.5716E+06    -254.869E+06    -66.5747E+06    -254.866E+06    -54.2765E+06     295.582E+03
             289     60.6700E-03     1.88618E-03     60.6407E-03     117.851E-03    -58.8704E-03    -58.9881E-03    -58.9087E-03     117.851E-03    -58.9496E-03     151.821E-06     119.836E-03     195.849E+06    -63.1002E+06    -69.3108E+06    -261.973E+06    -69.3143E+06    -261.970E+06    -63.1002E+06    -172.566E+03
             290     60.6488E-03     942.783E-06     60.6415E-03     117.832E-03    -58.6245E-03    -59.2122E-03    -59.0000E-03     117.832E-03    -58.8366E-03    -50.2451E-06     118.880E-03     195.726E+06    -68.4281E+06    -73.7619E+06    -266.765E+06    -72.1983E+06    -266.759E+06    -69.9976E+06     363.588E+03
             291     62.2670E-03     16.0430E-03     60.1648E-03     152.210E-03    -58.8470E-03    -93.4749E-03    -59.0879E-03     117.822E-03    -58.8470E-03     165.921E-03     448.485E-03     153.132E+06     156.519E+06     132.973E+06    -7.02070E+06    -6.96772E+06     156.466E+06     132.973E+06     996.552E+03
             292     61.7884E-03     15.0962E-03     59.9158E-03     156.604E-03    -58.8459E-03    -98.0048E-03    -59.3671E-03     117.967E-03    -58.8459E-03     180.657E-03     425.598E-03     143.527E+06     141.823E+06     106.960E+06    -15.4354E+06    -15.4008E+06     141.788E+06     106.960E+06     834.390E+03
             293     61.4128E-03     14.1523E-03     59.7599E-03     132.084E-03    -58.6993E-03    -73.5665E-03    -57.8254E-03     116.342E-03    -58.6993E-03     105.170E-03     314.099E-03     132.632E+06     127.475E+06     64.0847E+06    -23.6027E+06    -23.5707E+06     127.443E+06     64.0847E+06    -477.804E+03
             294     61.1259E-03     13.2073E-03     59.6821E-03     120.188E-03    -58.5133E-03    -61.7124E-03    -56.6812E-03     115.157E-03    -58.5133E-03     58.9040E-03     257.146E-03     129.051E+06     116.331E+06     20.7637E+06    -28.9203E+06    -28.8607E+06     116.272E+06     20.7637E+06    -1.78447E+06
             295     60.8774E-03     12.2625E-03     59.6296E-03     117.868E-03    -58.4597E-03    -59.4415E-03    -57.1065E-03     115.542E-03    -58.4686E-03     39.1612E-03     218.592E-03     100.754E+06     78.8020E+06    -9.39371E+06    -30.8824E+06    -30.8462E+06     78.7658E+06    -9.39371E+06    -700.945E+03
             296     60.6631E-03     11.3192E-03     59.5977E-03     117.111E-03    -58.4814E-03    -58.6543E-03    -57.6622E-03     116.186E-03    -58.5485E-03     25.0582E-03     194.330E-03     47.9973E+06     19.5604E+06    -23.2867E+06    -32.2472E+06    -31.0473E+06     8.46346E+06    -13.3895E+06     313.855E+03
             297     60.4721E-03     10.3758E-03     59.5754E-03     117.055E-03    -58.3572E-03    -58.6960E-03    -57.7955E-03     116.484E-03    -58.6866E-03     19.9692E-03     178.005E-03     43.1711E+06    -6.34811E+06    -29.6588E+06    -55.1718E+06    -31.3750E+06    -53.4556E+06    -6.34811E+06    -444.920E+03
             298     60.2973E-03     9.43188E-03     59.5551E-03     116.917E-03    -58.1487E-03    -58.7777E-03    -57.7769E-03     116.545E-03    -58.7777E-03     15.7460E-03     164.248E-03     74.3817E+06     -6.3664E+06    -33.8568E+06    -90.4907E+06    -33.9147E+06    -90.4329E+06     -6.3664E+06    -340.369E+03
             299     60.1446E-03     8.48737E-03     59.5427E-03     117.162E-03    -58.3327E-03    -58.8717E-03    -58.1648E-03     116.994E-03    -58.8717E-03     10.7217E-03     153.129E-03     105.688E+06    -8.97323E+06    -39.9323E+06    -126.623E+06    -40.0446E+06    -126.511E+06    -8.97323E+06     2.06101E+06
             300     60.0089E-03     7.54499E-03     59.5327E-03     117.430E-03    -58.5312E-03    -58.9423E-03    -58.4406E-03     117.340E-03    -58.9423E-03     7.89044E-03     144.819E-03     135.703E+06    -12.1857E+06    -46.1410E+06    -161.617E+06    -46.2427E+06    -161.516E+06    -12.1857E+06     2.99993E+06
             301     59.8911E-03     6.60146E-03     59.5262E-03     117.440E-03    -58.4832E-03    -58.9878E-03    -58.4378E-03     117.394E-03    -58.9878E-03     5.53413E-03     137.767E-03     156.716E+06    -17.3603E+06    -50.5786E+06    -187.994E+06    -50.6107E+06    -187.962E+06    -17.3603E+06     1.85587E+06
             302     59.7896E-03     5.65817E-03     59.5213E-03     117.511E-03    -58.5127E-03    -59.0233E-03    -58.4930E-03     117.491E-03    -59.0233E-03     3.62748E-03     132.023E-03     171.881E+06    -25.1001E+06    -54.8350E+06    -209.883E+06    -54.8419E+06    -209.876E+06    -25.1001E+06     964.504E+03
             303     59.7047E-03     4.71521E-03     59.5182E-03     117.677E-03    -58.6341E-03    -59.0598E-03    -58.6265E-03     117.670E-03    -59.0598E-03     2.19187E-03     127.587E-03     186.298E+06    -34.1193E+06    -59.1520E+06    -231.639E+06    -59.1580E+06    -231.633E+06    -34.1193E+06     23.5057E+03
             304     59.6371E-03     3.77157E-03     59.5178E-03     117.885E-03    -58.8187E-03    -59.0854E-03    -58.8158E-03     117.882E-03    -59.0854E-03     1.35357E-03     124.172E-03     195.970E+06    -42.9556E+06    -62.5348E+06    -247.958E+06    -62.5426E+06    -247.950E+06    -42.9556E+06    -474.005E+03
             305     59.5836E-03     2.82867E-03     59.5164E-03     117.950E-03    -58.8956E-03    -59.0733E-03    -58.8976E-03     117.949E-03    -59.0701E-03     742.244E-06     121.634E-03     195.234E+06    -53.9710E+06    -65.8428E+06    -254.831E+06    -65.8473E+06    -254.827E+06    -53.9710E+06    -209.358E+03
             306     59.5469E-03     1.88580E-03     59.5170E-03     118.026E-03    -58.8980E-03    -59.1364E-03    -58.9745E-03     118.026E-03    -59.0598E-03     89.8976E-06     120.064E-03     195.257E+06    -63.7737E+06    -69.7225E+06    -261.931E+06    -69.7234E+06    -261.930E+06    -63.7737E+06    -75.2525E+03
             307     59.5250E-03     942.882E-06     59.5176E-03     118.077E-03    -58.6459E-03    -59.4341E-03    -59.3696E-03     118.077E-03    -58.7104E-03     15.6329E-06     119.157E-03     194.652E+06    -69.4127E+06    -73.8714E+06    -266.253E+06    -73.1067E+06    -266.252E+06    -70.1790E+06     30.2694E+03
             308     61.1855E-03     16.0418E-03     59.0451E-03     152.215E-03    -58.8526E-03    -93.4611E-03    -59.2372E-03     117.991E-03    -58.8526E-03     165.484E-03     447.906E-03     152.984E+06     154.832E+06     131.943E+06    -8.30357E+06    -8.27272E+06     154.802E+06     131.943E+06     354.355E+03
             309     60.6986E-03     15.0954E-03     58.7916E-03     156.908E-03    -58.8430E-03    -98.2986E-03    -59.6485E-03     118.258E-03    -58.8430E-03     180.958E-03     425.045E-03     143.996E+06     142.947E+06     109.147E+06    -14.4778E+06    -14.4427E+06     142.911E+06     109.147E+06     1.08889E+06
             310     60.3178E-03     14.1517E-03     58.6341E-03     131.857E-03    -58.6944E-03    -73.3367E-03    -57.6694E-03     116.190E-03    -58.6944E-03     104.830E-03     313.875E-03     132.674E+06     130.439E+06     67.0711E+06    -20.4559E+06    -20.4489E+06     130.432E+06     67.0711E+06     753.358E+03
             311     60.0310E-03     13.2082E-03     58.5599E-03     120.295E-03    -58.4983E-03    -61.8272E-03    -56.7623E-03     115.230E-03    -58.4983E-03     59.1551E-03     257.020E-03     128.478E+06     116.931E+06     19.7026E+06    -27.0573E+06    -27.0159E+06     116.889E+06     19.7026E+06    -281.147E+03
             312     59.7772E-03     12.2634E-03     58.5058E-03     117.914E-03    -58.4487E-03    -59.4955E-03    -57.1354E-03     115.554E-03    -58.4487E-03     39.4567E-03     218.381E-03     100.695E+06     77.9905E+06    -11.3307E+06    -31.1048E+06    -31.0037E+06     77.8894E+06    -11.3307E+06    -1.15323E+06
             313     59.5587E-03     11.3192E-03     58.4732E-03     116.893E-03    -58.2586E-03    -58.6585E-03    -57.4273E-03     115.958E-03    -58.5543E-03     25.1596E-03     194.009E-03     48.4234E+06     19.4925E+06    -24.2009E+06    -32.5582E+06    -31.8510E+06     8.05426E+06    -13.4697E+06    -1.69902E+06
             314     59.3657E-03     10.3753E-03     58.4520E-03     116.965E-03    -58.2361E-03    -58.7114E-03    -57.6559E-03     116.384E-03    -58.7114E-03     20.1201E-03     177.973E-03     43.0076E+06    -6.07408E+06    -31.6182E+06    -54.6129E+06    -33.1427E+06    -53.0884E+06    -6.07408E+06    -1.23728E+06
             315     59.1880E-03     9.43116E-03     58.4318E-03     117.218E-03    -58.4124E-03    -58.8061E-03    -58.0386E-03     116.845E-03    -58.8061E-03     15.7419E-03     164.600E-03     77.7648E+06    -5.89125E+06    -37.0321E+06    -94.2269E+06    -37.1515E+06    -94.1074E+06    -5.89125E+06     1.67247E+06
             316     59.0319E-03     8.48860E-03     58.4184E-03     117.224E-03    -58.3833E-03    -58.8841E-03    -58.2201E-03     117.061E-03    -58.8841E-03     10.6090E-03     153.170E-03     107.970E+06    -7.07667E+06    -40.9360E+06    -127.873E+06    -41.1520E+06    -127.657E+06    -7.07667E+06     4.19557E+06
             317     58.8940E-03     7.54460E-03     58.4088E-03     117.357E-03    -58.4510E-03    -58.9527E-03    -58.3574E-03     117.264E-03    -58.9527E-03     8.01377E-03     144.741E-03     135.270E+06    -9.31328E+06    -44.5233E+06    -158.676E+06    -44.6303E+06    -158.569E+06    -9.31328E+06     2.74635E+06
             318     58.7741E-03     6.60153E-03     58.4021E-03     117.533E-03    -58.5690E-03    -58.9991E-03    -58.5206E-03     117.484E-03    -58.9991E-03     5.73451E-03     137.853E-03     158.045E+06    -14.5347E+06    -48.1513E+06    -186.644E+06    -48.1606E+06    -186.634E+06    -14.5347E+06     941.316E+03
             319     58.6709E-03     5.65842E-03     58.3974E-03     117.468E-03    -58.4683E-03    -59.0263E-03    -58.4475E-03     117.447E-03    -59.0263E-03     3.69996E-03     131.961E-03     173.179E+06    -22.8630E+06    -52.1842E+06    -208.799E+06    -52.1891E+06    -208.795E+06    -22.8630E+06     295.209E+03
             320     58.5851E-03     4.71439E-03     58.3951E-03     117.594E-03    -58.5366E-03    -59.0755E-03    -58.5290E-03     117.586E-03    -59.0755E-03     2.26513E-03     127.493E-03     186.808E+06    -32.9235E+06    -56.9406E+06    -230.545E+06    -56.9462E+06    -230.540E+06    -32.9235E+06    -488.656E+03
             321     58.5146E-03     3.77174E-03     58.3929E-03     117.896E-03    -58.7998E-03    -59.1150E-03    -58.7971E-03     117.893E-03    -59.1150E-03     1.27682E-03     124.180E-03     195.795E+06    -43.6100E+06    -62.0974E+06    -247.978E+06    -62.1063E+06    -247.969E+06    -43.6100E+06    -1.03107E+06
             322     58.4613E-03     2.82881E-03     58.3928E-03     117.966E-03    -58.8580E-03    -59.1237E-03    -58.8576E-03     117.966E-03    -59.1237E-03     482.259E-06     121.688E-03     195.487E+06    -54.7859E+06    -67.1330E+06    -256.132E+06    -67.1381E+06    -256.127E+06    -54.7859E+06    -535.156E+03
             323     58.4230E-03     1.88536E-03     58.3926E-03     118.148E-03    -58.9477E-03    -59.2074E-03    -59.0210E-03     118.148E-03    -59.1340E-03     207.521E-06     120.214E-03     194.422E+06    -64.6027E+06    -70.7609E+06    -262.013E+06    -70.7622E+06    -262.011E+06    -64.6027E+06     356.163E+03
             324     58.4003E-03     943.163E-06     58.3927E-03     118.244E-03    -58.9104E-03    -59.3339E-03    -59.2581E-03     118.243E-03    -58.9857E-03    -102.887E-06     119.370E-03     193.639E+06    -70.4962E+06    -73.2541E+06    -265.495E+06    -72.4896E+06    -265.493E+06    -71.2625E+06    -45.5413E+03
             325     60.0968E-03     16.0400E-03     57.9167E-03     152.493E-03    -58.8823E-03    -93.6697E-03    -59.5606E-03     118.384E-03    -58.8823E-03     166.209E-03     448.354E-03     153.235E+06     155.303E+06     132.173E+06    -8.17798E+06    -8.16848E+06     155.294E+06     132.173E+06    -246.566E+03
             326     59.6140E-03     15.0993E-03     57.6701E-03     157.107E-03    -58.8456E-03    -98.4624E-03    -60.0323E-03     118.677E-03    -58.8456E-03     181.074E-03     424.361E-03     144.981E+06     142.794E+06     107.892E+06    -15.9329E+06    -15.9143E+06     142.776E+06     107.892E+06    -155.746E+03
             327     59.2263E-03     14.1520E-03     57.5106E-03     131.857E-03    -58.7017E-03    -73.3229E-03    -57.2826E-03     115.817E-03    -58.7017E-03     105.720E-03     313.531E-03     133.354E+06     129.263E+06     65.3543E+06    -22.6045E+06    -22.5865E+06     129.245E+06     65.3543E+06     649.168E+03
             328     58.9346E-03     13.2064E-03     57.4359E-03     120.484E-03    -58.5276E-03    -61.9834E-03    -56.8800E-03     115.381E-03    -58.5276E-03     59.5171E-03     257.181E-03     128.814E+06     118.452E+06     22.0523E+06    -26.2293E+06    -26.2094E+06     118.432E+06     22.0523E+06     974.731E+03
             329     58.6774E-03     12.2632E-03     57.3816E-03     118.188E-03    -58.4651E-03    -59.7476E-03    -57.3351E-03     115.775E-03    -58.4651E-03     39.8264E-03     218.637E-03     100.258E+06     79.4001E+06    -9.18985E+06    -29.3721E+06    -29.2800E+06      79.308E+06    -9.18985E+06     44.2220E+03
             330     58.4566E-03     11.3192E-03     57.3502E-03     116.748E-03    -58.1766E-03    -58.5973E-03    -57.2862E-03     115.828E-03    -58.5677E-03     24.9538E-03     193.848E-03     48.8220E+06     18.9799E+06    -24.4028E+06    -33.7061E+06    -33.4357E+06     8.05457E+06    -13.7479E+06    -1.06373E+06
             331     58.2594E-03     10.3744E-03     57.3283E-03     116.984E-03    -58.2405E-03    -58.7249E-03    -57.6643E-03     116.408E-03    -58.7249E-03     20.0467E-03     177.997E-03     44.7155E+06    -7.77697E+06    -34.3656E+06    -58.6496E+06    -37.7657E+06    -55.2495E+06    -7.77697E+06    -421.010E+03
             332     58.0780E-03     9.43199E-03     57.3070E-03     117.321E-03    -58.5073E-03    -58.8117E-03    -58.1317E-03     116.945E-03    -58.8117E-03     15.8494E-03     164.598E-03     79.2043E+06    -7.93020E+06    -40.7173E+06    -98.0663E+06    -40.8257E+06    -97.9579E+06    -7.93020E+06     1.89224E+06
             333     57.9202E-03     8.48801E-03     57.2949E-03     117.239E-03    -58.4122E-03    -58.8753E-03    -58.2406E-03     117.068E-03    -58.8753E-03     10.8706E-03     153.094E-03     104.728E+06    -8.57065E+06    -41.8060E+06    -125.827E+06    -41.9403E+06    -125.692E+06    -8.57065E+06     2.15294E+06
             334     57.7797E-03     7.54458E-03     57.2850E-03     117.334E-03    -58.4387E-03    -58.9481E-03    -58.3430E-03     117.239E-03    -58.9481E-03     8.08986E-03     144.639E-03     133.061E+06    -9.30695E+06    -42.7909E+06    -155.859E+06    -42.8323E+06    -155.818E+06    -9.30695E+06     485.384E+03
             335     57.6567E-03     6.60131E-03     57.2776E-03     117.457E-03    -58.4812E-03    -59.0113E-03    -58.4349E-03     117.411E-03    -59.0113E-03     5.57004E-03     137.784E-03     159.581E+06    -13.8334E+06    -45.6638E+06    -186.885E+06    -45.6651E+06    -186.884E+06    -13.8334E+06     82.1787E+03
             336     57.5527E-03     5.65796E-03     57.2739E-03     117.573E-03    -58.5635E-03    -59.0371E-03    -58.5437E-03     117.553E-03    -59.0371E-03     3.65446E-03     132.098E-03     173.102E+06    -22.1489E+06    -50.2363E+06    -207.562E+06    -50.2381E+06    -207.560E+06    -22.1489E+06     14.7785E+03
             337     57.4648E-03     4.71528E-03     57.2710E-03     117.737E-03    -58.6812E-03    -59.0767E-03    -58.6730E-03     117.729E-03    -59.0767E-03     2.27949E-03     127.651E-03     187.934E+06    -31.0526E+06    -55.1690E+06    -229.848E+06    -55.1715E+06    -229.845E+06    -31.0526E+06     147.223E+03
             338     57.3932E-03     3.77161E-03     57.2691E-03     117.820E-03    -58.7309E-03    -59.1072E-03    -58.7287E-03     117.817E-03    -59.1072E-03     1.16603E-03     124.133E-03     197.054E+06    -42.8007E+06    -61.0573E+06    -248.328E+06    -61.0646E+06    -248.320E+06    -42.8007E+06     406.486E+03
             339     57.3384E-03     2.82836E-03     57.2686E-03     117.978E-03    -58.8748E-03    -59.1169E-03    -58.8855E-03     117.977E-03    -59.1058E-03     381.468E-06     121.712E-03     195.988E+06    -55.6641E+06    -67.0254E+06    -257.057E+06    -67.0332E+06    -257.050E+06    -55.6641E+06    -108.034E+03
             340     57.2996E-03     1.88591E-03     57.2686E-03     118.072E-03    -58.9465E-03    -59.1320E-03    -58.9575E-03     118.072E-03    -59.1209E-03     100.758E-06     120.153E-03     193.743E+06    -65.6411E+06    -71.0844E+06    -262.034E+06    -71.0873E+06    -262.031E+06    -65.6411E+06     124.006E+03
             341     57.2759E-03     942.268E-06     57.2682E-03     118.246E-03    -58.9489E-03    -59.2984E-03    -59.1370E-03     118.245E-03    -59.1095E-03    -372.735E-06     119.401E-03     191.929E+06    -71.5137E+06    -73.6113E+06    -264.479E+06    -73.4262E+06    -264.475E+06    -71.7027E+06     598.635E+03
             342     59.0126E-03     16.0410E-03     56.7906E-03     152.654E-03    -58.9167E-03    -93.8086E-03    -59.1239E-03     117.969E-03    -58.9167E-03     167.735E-03     449.115E-03     152.760E+06     155.606E+06     131.832E+06    -7.64495E+06    -7.63956E+06     155.601E+06     131.832E+06    -62.6302E+03
             343     58.5253E-03     15.0938E-03     56.5455E-03     157.074E-03    -58.8877E-03    -98.3701E-03    -60.0223E-03     118.726E-03    -58.8877E-03     180.616E-03     424.588E-03     144.506E+06     141.909E+06     106.150E+06    -16.6373E+06    -16.6230E+06     141.894E+06     106.150E+06     32.2059E+03
             344     58.1360E-03     14.1513E-03     56.3874E-03     132.289E-03    -58.7377E-03    -73.6870E-03    -57.8247E-03     116.427E-03    -58.7377E-03     105.645E-03     314.157E-03     133.980E+06     128.763E+06     65.5911E+06    -23.9419E+06    -23.9187E+06     128.740E+06     65.5911E+06     133.293E+03
             345     57.8402E-03     13.2072E-03     56.3122E-03     120.542E-03    -58.5561E-03    -62.0068E-03    -56.9115E-03     115.447E-03    -58.5561E-03     59.3627E-03     257.353E-03     129.621E+06     117.347E+06     22.7074E+06    -28.7747E+06    -28.7374E+06     117.309E+06     22.7074E+06     753.868E+03
             346     57.5776E-03     12.2627E-03     56.2566E-03     117.940E-03    -58.3629E-03    -59.5958E-03    -57.1490E-03     115.617E-03    -58.4873E-03     39.0528E-03     218.496E-03     102.227E+06     79.9785E+06    -8.73230E+06    -31.7523E+06    -31.6959E+06     79.9221E+06    -8.73230E+06     1.78339E+06
             347     57.3554E-03     11.3189E-03     56.2275E-03     116.942E-03    -58.3056E-03    -58.6586E-03    -57.4580E-03     116.020E-03    -58.5837E-03     25.0902E-03     193.982E-03     50.8697E+06     20.3223E+06    -23.3987E+06    -35.3121E+06    -35.0192E+06     9.95514E+06    -13.3245E+06     1.35606E+06
             348     57.1538E-03     10.3758E-03     56.2041E-03     117.165E-03    -58.3851E-03    -58.7797E-03    -57.8506E-03     116.577E-03    -58.7265E-03     20.2401E-03     178.045E-03     46.5526E+06    -7.92948E+06    -33.9950E+06    -61.2022E+06    -38.5819E+06    -56.6153E+06    -7.92948E+06     762.893E+03
             349     56.9698E-03     9.43093E-03     56.1837E-03     117.152E-03    -58.3657E-03    -58.7962E-03    -57.9995E-03     116.786E-03    -58.7962E-03     15.6561E-03     164.405E-03     77.8446E+06    -10.0063E+06    -40.9591E+06    -98.3691E+06    -41.0078E+06    -98.3204E+06    -10.0063E+06     161.459E+03
             350     56.8081E-03     8.48783E-03     56.1704E-03     117.259E-03    -58.4593E-03    -58.8511E-03    -58.2930E-03     117.093E-03    -58.8511E-03     10.6787E-03     153.083E-03     99.0805E+06    -12.5441E+06    -42.1971E+06    -122.993E+06    -42.2748E+06    -122.915E+06    -12.5441E+06    -1.65244E+06
             351     56.6655E-03     7.54505E-03     56.1610E-03     117.349E-03    -58.4825E-03    -58.9248E-03    -58.3918E-03     117.259E-03    -58.9248E-03     7.90077E-03     144.619E-03     130.535E+06    -12.9415E+06    -43.7442E+06    -156.076E+06    -43.7928E+06    -156.027E+06    -12.9415E+06    -1.84415E+06
             352     56.5409E-03     6.60145E-03     56.1542E-03     117.394E-03    -58.4370E-03    -58.9934E-03    -58.3924E-03     117.349E-03    -58.9934E-03     5.44585E-03     137.710E-03     158.728E+06    -16.2842E+06    -46.9033E+06    -188.069E+06    -46.9084E+06    -188.064E+06    -16.2842E+06    -498.846E+03
             353     56.4341E-03     5.65795E-03     56.1497E-03     117.586E-03    -58.5901E-03    -59.0199E-03    -58.5716E-03     117.568E-03    -59.0199E-03     3.53430E-03     132.088E-03     171.366E+06    -24.1719E+06    -51.4368E+06    -207.511E+06    -51.4392E+06    -207.509E+06    -24.1719E+06     431.209E+03
             354     56.3441E-03     4.71474E-03     56.1465E-03     117.770E-03    -58.7365E-03    -59.0502E-03    -58.7289E-03     117.762E-03    -59.0502E-03     2.17493E-03     127.666E-03     186.879E+06    -32.8033E+06    -56.6466E+06    -230.435E+06    -56.6522E+06    -230.429E+06    -32.8033E+06     933.958E+03
             355     56.2723E-03     3.77206E-03     56.1457E-03     117.853E-03    -58.8089E-03    -59.0597E-03    -58.8068E-03     117.851E-03    -59.0597E-03     1.15856E-03     124.152E-03     196.173E+06    -43.5609E+06    -61.3926E+06    -248.003E+06    -61.4044E+06    -247.992E+06    -43.5609E+06     1.43388E+06
             356     56.2154E-03     2.82894E-03     56.1442E-03     117.902E-03    -58.8713E-03    -59.0462E-03    -58.8818E-03     117.902E-03    -59.0351E-03     365.290E-06     121.610E-03     195.740E+06    -55.2197E+06    -65.9948E+06    -256.106E+06    -66.0087E+06    -256.092E+06    -55.2197E+06     1.07107E+06
             357     56.1762E-03     1.88580E-03     56.1445E-03     117.951E-03    -58.8807E-03    -59.0791E-03    -58.9338E-03     117.951E-03    -59.0260E-03    -86.3198E-06     120.015E-03     194.516E+06    -63.8386E+06    -70.2445E+06    -261.469E+06    -70.2532E+06    -261.460E+06    -63.8386E+06     694.081E+03
             358     56.1523E-03     943.151E-06     56.1444E-03     118.004E-03    -58.7569E-03    -59.2499E-03    -59.1641E-03     118.004E-03    -58.8423E-03    -50.9001E-06     119.155E-03     191.561E+06    -71.0903E+06    -73.8723E+06    -264.020E+06    -73.4730E+06    -264.013E+06    -71.4963E+06     1.07983E+06
             359     57.9356E-03     16.0393E-03     55.6711E-03     152.593E-03    -58.9299E-03    -93.7543E-03    -58.7754E-03     117.614E-03    -58.9299E-03     168.006E-03     449.058E-03     153.196E+06     155.736E+06     131.546E+06    -8.11612E+06    -8.10935E+06     155.729E+06     131.546E+06     85.8238E+03
             360     57.4374E-03     15.0962E-03     55.4180E-03     157.007E-03    -58.9254E-03    -98.2759E-03    -59.9397E-03     118.670E-03    -58.9254E-03     180.187E-03     424.629E-03     144.122E+06     142.126E+06     106.750E+06    -15.9228E+06    -15.9095E+06     142.113E+06     106.750E+06     302.950E+03
             361     57.0481E-03     14.1513E-03     55.2650E-03     132.285E-03    -58.7731E-03    -73.6513E-03    -58.2172E-03     116.851E-03    -58.7731E-03     104.636E-03     314.218E-03     133.659E+06     128.489E+06     66.1282E+06    -23.8234E+06    -23.7801E+06     128.446E+06     66.1282E+06     837.101E+03
             362     56.7444E-03     13.2071E-03     55.1860E-03     120.632E-03    -58.5690E-03    -62.0879E-03    -56.9844E-03     115.529E-03    -58.5690E-03     59.3459E-03     257.178E-03     129.614E+06     115.902E+06     22.0820E+06    -30.3896E+06    -30.3269E+06     115.839E+06     22.0820E+06     1.88233E+06
             363     56.4825E-03     12.2632E-03     55.1352E-03     117.776E-03    -58.3641E-03    -59.4361E-03    -57.0275E-03     115.492E-03    -58.4885E-03     38.8243E-03     218.261E-03     103.285E+06     79.6574E+06    -9.48610E+06    -33.4704E+06    -33.4257E+06     79.6128E+06    -9.48610E+06     2.13453E+06
             364     56.2527E-03     11.3181E-03     55.1023E-03     117.040E-03    -58.3446E-03    -58.7120E-03    -57.5468E-03     116.112E-03    -58.5822E-03     25.0962E-03     194.025E-03     51.1275E+06     21.0191E+06    -23.0051E+06    -34.9116E+06    -34.5426E+06     11.0183E+06    -13.3734E+06     2.04471E+06
             365     56.0487E-03     10.3747E-03     55.0802E-03     117.327E-03    -58.5088E-03    -58.8208E-03    -58.0502E-03     116.765E-03    -58.7174E-03     19.7983E-03     178.138E-03     45.6537E+06    -7.13147E+06    -32.7901E+06    -59.3597E+06    -36.8321E+06    -55.3177E+06    -7.13147E+06     1.49808E+06
             366     55.8621E-03     9.43214E-03     55.0601E-03     117.221E-03    -58.4333E-03    -58.8078E-03    -58.1308E-03     116.868E-03    -58.7575E-03     15.4069E-03     164.496E-03     74.4944E+06    -10.5769E+06    -39.2913E+06    -94.9007E+06    -39.4107E+06    -94.7812E+06    -10.5769E+06    -1.56632E+06
             367     55.6969E-03     8.48842E-03     55.0463E-03     117.012E-03    -58.2532E-03    -58.8116E-03    -58.0886E-03     116.847E-03    -58.8116E-03     10.6106E-03     152.812E-03     97.5494E+06    -14.8697E+06    -40.9561E+06    -122.758E+06    -41.1398E+06    -122.574E+06    -14.8697E+06    -3.70368E+06
             368     55.5518E-03     7.54460E-03     55.0371E-03     117.238E-03    -58.3871E-03    -58.9077E-03    -58.2965E-03     117.148E-03    -58.9077E-03     7.89778E-03     144.567E-03     131.510E+06    -15.6365E+06    -44.0793E+06    -159.013E+06    -44.1529E+06    -158.940E+06    -15.6365E+06    -2.30813E+06
             369     55.4249E-03     6.60147E-03     55.0303E-03     117.552E-03    -58.6200E-03    -58.9647E-03    -58.5747E-03     117.507E-03    -58.9647E-03     5.48661E-03     137.858E-03     157.178E+06    -19.5680E+06    -48.8268E+06    -189.303E+06    -48.8317E+06    -189.298E+06    -19.5680E+06    -406.021E+03
             370     55.3158E-03     5.65854E-03     55.0256E-03     117.558E-03    -58.6048E-03    -58.9709E-03    -58.5875E-03     117.541E-03    -58.9709E-03     3.40733E-03     132.028E-03     169.060E+06    -27.4121E+06    -53.4940E+06    -207.972E+06    -53.4985E+06    -207.967E+06    -27.4121E+06     656.183E+03
             371     55.2247E-03     4.71524E-03     55.0230E-03     117.665E-03    -58.6808E-03    -58.9972E-03    -58.6744E-03     117.658E-03    -58.9972E-03     2.02334E-03     127.559E-03     185.128E+06    -35.7266E+06    -58.0733E+06    -230.994E+06    -58.0826E+06    -230.985E+06    -35.7266E+06     1.26702E+06
             372     55.1501E-03     3.77189E-03     55.0210E-03     117.838E-03    -58.8502E-03    -59.0061E-03    -58.8483E-03     117.836E-03    -59.0061E-03     1.11216E-03     124.115E-03     194.986E+06    -44.0966E+06    -62.9436E+06    -247.792E+06    -62.9609E+06    -247.775E+06    -44.0966E+06     1.73365E+06
             373     55.0934E-03     2.82917E-03     55.0207E-03     117.803E-03    -58.8518E-03    -58.9712E-03    -58.8587E-03     117.803E-03    -58.9638E-03     431.970E-06     121.477E-03     194.081E+06    -54.0388E+06    -66.6749E+06    -254.076E+06    -66.6925E+06    -254.058E+06    -54.0388E+06     1.75243E+06
             374     55.0526E-03     1.88602E-03     55.0203E-03     117.821E-03    -58.8607E-03    -58.9708E-03    -58.9102E-03     117.821E-03    -58.9213E-03     9.69593E-06     119.837E-03     194.140E+06    -63.1680E+06    -70.0246E+06    -260.638E+06    -70.0347E+06    -260.628E+06    -63.1680E+06     801.818E+03
             375     55.0285E-03     943.052E-06     55.0204E-03     117.756E-03    -58.6812E-03    -59.0794E-03    -59.0785E-03     117.755E-03    -58.6819E-03     47.7006E-06     118.874E-03     191.941E+06    -69.6833E+06    -73.2250E+06    -263.364E+06     -73.014E+06    -263.358E+06    -69.9003E+06     466.416E+03
             376     56.8574E-03     16.0413E-03     54.5476E-03     152.750E-03    -58.8966E-03    -93.8942E-03    -59.0159E-03     117.872E-03    -58.8966E-03     167.354E-03     448.542E-03     153.112E+06     155.575E+06     131.909E+06    -7.98992E+06    -7.98573E+06     155.571E+06     131.909E+06     354.369E+03
             377     56.3538E-03     15.0941E-03     54.2948E-03     157.169E-03    -58.8915E-03    -98.4244E-03    -59.7862E-03     118.531E-03    -58.8915E-03     180.800E-03     424.385E-03     144.347E+06     141.471E+06     106.361E+06    -16.6630E+06    -16.6342E+06     141.443E+06     106.361E+06     1.10818E+06
             378     55.9575E-03     14.1510E-03     54.1386E-03     131.758E-03    -58.7663E-03    -73.1253E-03    -57.8530E-03     116.486E-03    -58.7663E-03     103.783E-03     313.673E-03     133.917E+06     127.797E+06     65.5914E+06    -24.8663E+06    -24.8089E+06     127.740E+06     65.5914E+06     2.03054E+06
             379     55.6537E-03     13.2072E-03     54.0639E-03     120.506E-03    -58.5812E-03    -61.9556E-03    -56.8923E-03     115.443E-03    -58.5812E-03     59.1360E-03     257.299E-03     129.387E+06     116.366E+06     22.9684E+06    -29.5845E+06    -29.5469E+06     116.329E+06     22.9684E+06     1.94445E+06
             380     55.3847E-03     12.2621E-03     54.0102E-03     118.200E-03    -58.4833E-03    -59.7564E-03    -57.4701E-03     115.914E-03    -58.4833E-03     38.8014E-03     218.947E-03     102.283E+06     80.0753E+06    -8.85417E+06    -31.6197E+06    -31.6026E+06     80.0582E+06    -8.85417E+06     1.26658E+06
             381     55.1532E-03     11.3198E-03     53.9791E-03     117.102E-03    -58.3181E-03    -58.8065E-03    -57.6881E-03     116.212E-03    -58.5460E-03     24.6165E-03     194.214E-03     49.2067E+06     20.0509E+06    -22.9787E+06    -33.4574E+06    -32.8554E+06     10.5246E+06    -14.0544E+06     1.90436E+06
             382     54.9443E-03     10.3757E-03     53.9557E-03     117.083E-03    -58.3425E-03    -58.7257E-03    -57.8357E-03     116.526E-03    -58.6755E-03     19.7074E-03     177.954E-03     42.3666E+06    -7.71058E+06    -31.1569E+06    -56.0864E+06    -34.3940E+06    -52.8494E+06    -7.71058E+06     1.39496E+06
             383     54.7542E-03     9.43204E-03     53.9357E-03     117.183E-03    -58.4200E-03    -58.7790E-03    -58.1107E-03     116.824E-03    -58.7288E-03     15.5208E-03     164.512E-03     71.1692E+06    -10.0917E+06    -37.1037E+06    -90.6143E+06    -37.1985E+06    -90.5195E+06    -10.0917E+06    -1.31539E+06
             384     54.5873E-03     8.48856E-03     53.9232E-03     116.968E-03    -58.2420E-03    -58.7793E-03    -58.0770E-03     116.803E-03    -58.7793E-03     10.6327E-03     152.827E-03     97.0304E+06    -16.8640E+06    -41.6978E+06    -123.812E+06    -41.8285E+06    -123.681E+06    -16.8640E+06    -2.77780E+06
             385     54.4386E-03     7.54482E-03     53.9132E-03     117.144E-03    -58.3255E-03    -58.8691E-03    -58.2332E-03     117.052E-03    -58.8691E-03     7.96919E-03     144.463E-03     130.965E+06    -20.0363E+06    -46.9237E+06    -162.351E+06    -46.9644E+06    -162.310E+06    -20.0363E+06    -1.31466E+06
             386     54.3085E-03     6.60173E-03     53.9057E-03     117.499E-03    -58.5952E-03    -58.9314E-03    -58.5494E-03     117.454E-03    -58.9314E-03     5.50664E-03     137.823E-03     155.099E+06    -23.1661E+06    -51.6078E+06    -190.506E+06    -51.6116E+06    -190.502E+06    -23.1661E+06     432.882E+03
             387     54.1983E-03     5.65855E-03     53.9021E-03     117.603E-03    -58.6894E-03    -58.9345E-03    -58.6718E-03     117.586E-03    -58.9345E-03     3.46025E-03     132.086E-03     166.580E+06    -29.6657E+06    -55.9654E+06    -207.819E+06    -55.9704E+06    -207.814E+06    -29.6657E+06     729.048E+03
             388     54.1049E-03     4.71534E-03     53.8990E-03     117.676E-03    -58.7455E-03    -58.9481E-03    -58.7383E-03     117.669E-03    -58.9481E-03     2.17037E-03     127.554E-03     183.746E+06    -36.2556E+06    -60.2698E+06    -230.799E+06    -60.2773E+06    -230.791E+06    -36.2556E+06     1.02738E+06
             389     54.0293E-03     3.77249E-03     53.8974E-03     117.701E-03    -58.7743E-03    -58.9482E-03    -58.7724E-03     117.699E-03    -58.9482E-03     1.01889E-03     123.961E-03     194.302E+06    -43.9669E+06    -64.2243E+06    -247.560E+06    -64.2403E+06    -247.544E+06    -43.9669E+06     953.979E+03
             390     53.9708E-03     2.82908E-03     53.8966E-03     117.668E-03    -58.7736E-03    -58.9162E-03    -58.7808E-03     117.668E-03    -58.9088E-03     373.587E-06     121.303E-03     193.173E+06    -53.4174E+06    -67.1433E+06    -253.039E+06    -67.1554E+06    -253.027E+06    -53.4174E+06     540.246E+03
             391     53.9297E-03     1.88629E-03     53.8967E-03     117.727E-03    -58.8115E-03    -58.9268E-03    -58.8809E-03     117.726E-03    -58.8573E-03     107.359E-06     119.720E-03     193.178E+06    -63.0737E+06    -70.1370E+06    -259.657E+06    -70.1406E+06    -259.653E+06    -63.0737E+06     148.252E+03
             392     53.9048E-03     943.156E-06     53.8965E-03     117.607E-03    -58.5597E-03    -59.0532E-03    -59.0521E-03     117.607E-03    -58.5604E-03    -330.187E-06     118.709E-03     191.068E+06    -70.0458E+06    -73.2917E+06    -262.713E+06    -72.7803E+06    -262.697E+06    -70.5733E+06    -813.256E+03
             393     55.7843E-03     16.0416E-03     53.4281E-03     153.360E-03    -58.8626E-03    -94.5193E-03    -59.7145E-03     118.555E-03    -58.8626E-03     167.522E-03     448.771E-03     153.727E+06     155.213E+06     131.632E+06    -8.94061E+06    -8.91544E+06     155.187E+06     131.632E+06     1.07006E+06
             394     55.2716E-03     15.0976E-03     53.1696E-03     157.254E-03    -58.8444E-03    -98.5398E-03    -59.7235E-03     118.438E-03    -58.8444E-03     181.356E-03     424.601E-03     144.931E+06     140.410E+06     106.505E+06    -18.0204E+06    -17.9715E+06     140.362E+06     106.505E+06     1.88489E+06
             395     54.8723E-03     14.1523E-03     53.0159E-03     131.325E-03    -58.7510E-03    -72.7093E-03    -57.3593E-03     115.975E-03    -58.7510E-03     103.694E-03     313.751E-03     133.392E+06     127.815E+06     67.3063E+06    -23.9372E+06    -23.9103E+06     127.788E+06     67.3063E+06     1.29719E+06
             396     54.5624E-03     13.2062E-03     52.9401E-03     120.636E-03    -58.5607E-03    -62.1047E-03    -57.0739E-03     115.606E-03    -58.5607E-03     58.9272E-03     257.680E-03     128.954E+06     117.513E+06     23.6329E+06    -27.5403E+06    -27.5350E+06     117.507E+06     23.6329E+06     575.089E+03
             397     54.2886E-03     12.2637E-03     52.8852E-03     118.204E-03    -58.4314E-03    -59.8084E-03    -57.5431E-03     115.955E-03    -58.4478E-03     38.5538E-03     218.965E-03     100.882E+06     79.7387E+06    -9.57658E+06    -29.5216E+06    -29.5062E+06     79.7233E+06    -9.57658E+06     771.898E+03
             398     54.0534E-03     11.3196E-03     52.8549E-03     117.036E-03    -58.3616E-03    -58.6977E-03    -57.6466E-03     116.138E-03    -58.5138E-03     24.7454E-03     194.263E-03     47.2289E+06     20.0611E+06    -22.8193E+06    -30.4433E+06    -29.9552E+06     10.2250E+06    -13.4712E+06     1.19868E+06
             399     53.8420E-03     10.3758E-03     52.8328E-03     116.957E-03    -58.2827E-03    -58.6484E-03    -57.7039E-03     116.379E-03    -58.6484E-03     20.0916E-03     177.871E-03     41.1657E+06    -6.29701E+06    -28.5514E+06    -52.8141E+06    -30.7000E+06    -50.6655E+06    -6.29701E+06     853.117E+03
             400     53.6471E-03     9.43186E-03     52.8115E-03     117.066E-03    -58.3434E-03    -58.7280E-03    -57.9769E-03     116.700E-03    -58.7280E-03     15.5580E-03     164.493E-03     72.4072E+06    -7.42359E+06    -33.7951E+06    -89.2224E+06    -33.8408E+06    -89.1767E+06    -7.42359E+06     781.811E+03
             401     53.4774E-03     8.48862E-03     52.7993E-03     117.207E-03    -58.4724E-03    -58.7857E-03    -58.3173E-03     117.052E-03    -58.7857E-03     10.3327E-03     153.199E-03     101.044E+06    -12.6154E+06    -40.0507E+06    -124.459E+06    -40.1785E+06    -124.331E+06    -12.6154E+06     1.52888E+06
             402     53.3261E-03     7.54548E-03     52.7896E-03     117.167E-03    -58.3711E-03    -58.8431E-03    -58.2812E-03     117.077E-03    -58.8431E-03     7.87606E-03     144.528E-03     132.357E+06    -18.2778E+06    -47.6277E+06    -162.819E+06    -47.7250E+06    -162.722E+06    -18.2778E+06     1.45651E+06
             403     53.1934E-03     6.60158E-03     52.7822E-03     117.267E-03    -58.3900E-03    -58.9035E-03    -58.3436E-03     117.221E-03    -58.9035E-03     5.55370E-03     137.630E-03     155.124E+06    -22.5816E+06    -52.9144E+06    -190.619E+06    -52.9281E+06    -190.605E+06    -22.5816E+06     167.920E+03
             404     53.0801E-03     5.65854E-03     52.7777E-03     117.584E-03    -58.6806E-03    -58.9244E-03    -58.6630E-03     117.566E-03    -58.9244E-03     3.43522E-03     132.115E-03     167.903E+06    -27.8650E+06    -56.3052E+06    -208.156E+06    -56.3160E+06    -208.145E+06    -27.8650E+06    -287.982E+03
             405     52.9856E-03     4.71569E-03     52.7754E-03     117.741E-03    -58.8336E-03    -58.9248E-03    -58.8267E-03     117.734E-03    -58.9248E-03     2.14813E-03     127.629E-03     184.837E+06    -33.9486E+06    -59.6941E+06    -230.280E+06    -59.7046E+06    -230.269E+06    -33.9486E+06    -286.644E+03
             406     52.9080E-03     3.77252E-03     52.7733E-03     117.664E-03    -58.7857E-03    -58.8991E-03    -58.7836E-03     117.662E-03    -58.8991E-03     1.03360E-03     123.916E-03     194.575E+06    -42.7841E+06    -62.9717E+06    -246.621E+06    -62.9851E+06    -246.608E+06    -42.7841E+06    -727.292E+03
             407     52.8493E-03     2.82956E-03     52.7735E-03     117.569E-03    -58.7308E-03    -58.8581E-03    -58.7471E-03     117.569E-03    -58.8415E-03     366.798E-06     121.213E-03     192.979E+06    -54.3466E+06    -66.9195E+06    -253.262E+06    -66.9240E+06    -253.258E+06    -54.3466E+06    -720.328E+03
             408     52.8061E-03     1.88603E-03     52.7724E-03     117.555E-03    -58.6800E-03    -58.8858E-03    -58.7584E-03     117.554E-03    -58.8072E-03     19.7414E-06     119.535E-03     193.038E+06    -63.2591E+06    -69.7559E+06    -259.432E+06    -69.7613E+06    -259.427E+06    -63.2591E+06    -520.798E+03
             409     52.7816E-03     943.384E-06     52.7732E-03     117.547E-03    -58.5424E-03    -59.0104E-03    -58.9278E-03     117.546E-03    -58.6246E-03    -212.358E-06     118.610E-03     192.005E+06    -69.8199E+06    -72.5629E+06    -263.178E+06    -72.0566E+06    -263.157E+06    -70.3473E+06    -683.425E+03
             410     54.7044E-03     16.0405E-03     52.2998E-03     153.431E-03    -58.8753E-03    -94.5959E-03    -59.7911E-03     118.626E-03    -58.8753E-03     167.939E-03     449.660E-03     152.430E+06     154.043E+06     131.413E+06    -8.41079E+06    -8.38035E+06     154.013E+06     131.413E+06     1.19822E+06
             411     54.1927E-03     15.0971E-03     52.0473E-03     157.463E-03    -58.8543E-03    -98.7446E-03    -59.8504E-03     118.569E-03    -58.8543E-03     181.919E-03     425.455E-03     143.110E+06     140.759E+06     108.489E+06    -15.2061E+06    -15.1615E+06     140.715E+06     108.489E+06     1.56200E+06
             412     53.7879E-03     14.1506E-03     51.8932E-03     132.058E-03    -58.7353E-03    -73.4703E-03    -57.7710E-03     116.358E-03    -58.7353E-03     104.908E-03     314.088E-03     132.116E+06     128.664E+06     67.4084E+06    -21.5662E+06    -21.5456E+06     128.644E+06     67.4084E+06     800.739E+03
             413     53.4712E-03     13.2086E-03     51.8141E-03     120.682E-03    -58.5192E-03    -62.1937E-03    -57.1793E-03     115.667E-03    -58.5192E-03     58.9388E-03     257.408E-03     127.998E+06     117.623E+06     22.6677E+06    -26.1518E+06    -26.1379E+06     117.609E+06     22.6677E+06     575.601E+03
             414     53.1957E-03     12.2637E-03     51.7628E-03     117.843E-03    -58.4083E-03    -59.4659E-03    -57.1626E-03     115.556E-03    -58.4248E-03     38.8076E-03     218.537E-03     100.497E+06     80.1073E+06    -9.02865E+06    -28.6810E+06    -28.6540E+06     80.0803E+06    -9.02865E+06     677.216E+03
             415     52.9542E-03     11.3193E-03     51.7303E-03     116.947E-03    -58.4014E-03    -58.5662E-03    -57.5413E-03     116.034E-03    -58.5140E-03     24.8954E-03     194.297E-03     47.9980E+06     20.9886E+06    -23.0643E+06    -30.1218E+06    -30.0135E+06     10.1796E+06    -12.3637E+06     220.451E+03
             416     52.7399E-03     10.3761E-03     51.7091E-03     117.167E-03    -58.4230E-03    -58.7200E-03    -57.9327E-03     116.600E-03    -58.6439E-03     19.8848E-03     178.145E-03     41.9560E+06    -5.00578E+06    -30.0994E+06    -52.1792E+06    -31.7946E+06    -50.4840E+06    -5.00578E+06     460.040E+03
             417     52.5417E-03     9.43228E-03     51.6881E-03     117.113E-03    -58.3177E-03    -58.7987E-03    -58.0385E-03     116.758E-03    -58.7226E-03     15.3776E-03     164.497E-03     76.4216E+06    -4.63905E+06    -34.6298E+06    -91.2696E+06    -34.7548E+06    -91.1446E+06    -4.63905E+06     2.37517E+06
             418     52.3674E-03     8.48879E-03     51.6748E-03     117.105E-03    -58.3581E-03    -58.7966E-03    -58.2043E-03     116.951E-03    -58.7966E-03     10.2577E-03     153.114E-03     107.002E+06    -6.19003E+06    -38.6300E+06    -125.610E+06    -38.9378E+06    -125.302E+06    -6.19003E+06     5.09151E+06
             419     52.2141E-03     7.54552E-03     51.6661E-03     117.277E-03    -58.4743E-03    -58.8488E-03    -58.3878E-03     117.190E-03    -58.8488E-03     7.73954E-03     144.720E-03     135.160E+06    -9.95101E+06    -43.2689E+06    -158.606E+06    -43.4694E+06    -158.405E+06    -9.95101E+06     3.72936E+06
             420     52.0788E-03     6.60236E-03     51.6586E-03     117.267E-03    -58.4108E-03    -58.8854E-03    -58.3639E-03     117.220E-03    -58.8854E-03     5.61347E-03     137.601E-03     158.097E+06    -16.8166E+06    -48.2721E+06    -188.243E+06    -48.2861E+06    -188.229E+06    -16.8166E+06    -53.8908E+03
             421     51.9628E-03     5.65869E-03     51.6537E-03     117.420E-03    -58.5441E-03    -58.8986E-03    -58.5248E-03     117.400E-03    -58.8986E-03     3.58265E-03     131.948E-03     171.179E+06    -25.6285E+06    -53.1859E+06    -208.874E+06    -53.2092E+06    -208.851E+06    -25.6285E+06    -1.51223E+06
             422     51.8658E-03     4.71565E-03     51.6510E-03     117.654E-03    -58.7699E-03    -58.9016E-03    -58.7630E-03     117.647E-03    -58.9016E-03     2.08818E-03     127.585E-03     185.659E+06    -34.0933E+06    -57.4324E+06    -230.281E+06     -57.455E+06    -230.259E+06    -34.0933E+06    -1.51210E+06
             423     51.7875E-03     3.77273E-03     51.6499E-03     117.693E-03    -58.8135E-03    -58.9014E-03    -58.8425E-03     117.691E-03    -58.8705E-03     1.04347E-03     123.960E-03     194.573E+06    -43.6710E+06    -62.3016E+06    -246.869E+06    -62.3119E+06    -246.859E+06    -43.6710E+06    -1.10612E+06
             424     51.7269E-03     2.82947E-03     51.6494E-03     117.557E-03    -58.7397E-03    -58.8376E-03    -58.7866E-03     117.556E-03    -58.7903E-03     348.616E-06     121.217E-03     192.574E+06    -55.1225E+06    -66.8036E+06    -253.227E+06    -66.8081E+06    -253.223E+06    -55.1225E+06    -864.258E+03
             425     51.6838E-03     1.88686E-03     51.6494E-03     117.382E-03    -58.6190E-03    -58.7738E-03    -58.6353E-03     117.382E-03    -58.7573E-03     8.70343E-06     119.383E-03     192.343E+06    -65.0994E+06    -70.3566E+06    -259.997E+06    -70.3622E+06    -259.991E+06    -65.0994E+06    -765.456E+03
             426     51.6583E-03     942.646E-06     51.6497E-03     117.500E-03    -58.6418E-03    -58.8642E-03    -58.7130E-03     117.500E-03    -58.7924E-03    -144.481E-06     118.551E-03     192.396E+06    -70.3078E+06    -72.9109E+06    -263.987E+06    -72.1251E+06    -263.977E+06    -71.1032E+06    -277.630E+03
             427     53.6284E-03     16.0415E-03     51.1730E-03     152.699E-03    -58.8741E-03    -93.8539E-03    -59.3244E-03     118.170E-03    -58.8741E-03     167.148E-03     449.226E-03     150.417E+06     153.072E+06     131.343E+06    -7.00368E+06    -6.99703E+06     153.066E+06     131.343E+06     163.232E+03
             428     53.1168E-03     15.0948E-03     50.9268E-03     157.041E-03    -58.8636E-03    -98.3107E-03    -59.8404E-03     118.570E-03    -58.8636E-03     180.813E-03     425.104E-03     141.273E+06     139.936E+06     108.359E+06    -13.9286E+06    -13.9029E+06     139.911E+06     108.359E+06     34.2698E+03
             429     52.7009E-03     14.1529E-03     50.7649E-03     132.526E-03    -58.7306E-03    -73.9469E-03    -58.2161E-03     116.795E-03    -58.7306E-03     104.983E-03     314.270E-03     131.847E+06     129.185E+06     68.1596E+06    -20.7249E+06    -20.6356E+06     129.096E+06     68.1596E+06     1.83004E+06
             430     52.3854E-03     13.2077E-03     50.6931E-03     120.340E-03    -58.5094E-03    -61.8653E-03    -56.9627E-03     115.437E-03    -58.5094E-03     58.3600E-03     257.153E-03     128.138E+06     117.913E+06     23.6373E+06    -26.3418E+06    -26.2639E+06     117.835E+06     23.6373E+06     1.91348E+06
             431     52.1009E-03     12.2633E-03     50.6371E-03     117.737E-03    -58.4203E-03    -59.3545E-03    -57.0293E-03     115.419E-03    -58.4270E-03     38.9349E-03     218.448E-03     101.320E+06     80.5849E+06    -7.94610E+06    -29.8656E+06    -29.8223E+06     80.5416E+06    -7.94610E+06     945.491E+03
             432     51.8587E-03     11.3199E-03     50.6081E-03     117.011E-03    -58.4304E-03    -58.6073E-03    -57.6196E-03     116.105E-03    -58.5121E-03     24.8725E-03     194.299E-03     49.8900E+06     21.0571E+06    -22.5319E+06    -33.0479E+06    -32.9441E+06     10.8285E+06    -12.4072E+06     830.831E+03
             433     51.6368E-03     10.3755E-03     50.5837E-03     117.233E-03    -58.4716E-03    -58.7502E-03    -58.0292E-03     116.672E-03    -58.6311E-03     19.7890E-03     178.282E-03     43.3519E+06    -5.92812E+06    -32.5882E+06    -55.3502E+06    -36.4487E+06    -51.4896E+06    -5.92812E+06     1.00409E+06
             434     51.4371E-03     9.43316E-03     50.5647E-03     117.120E-03    -58.3480E-03    -58.7765E-03    -58.0769E-03     116.772E-03    -58.7004E-03     15.2852E-03     164.527E-03     77.6973E+06    -5.69706E+06    -39.9778E+06    -94.3844E+06    -40.1501E+06    -94.2121E+06    -5.69706E+06     2.82556E+06
             435     51.2593E-03     8.48903E-03     50.5515E-03     116.936E-03    -58.2232E-03    -58.7628E-03    -58.0606E-03     116.773E-03    -58.7628E-03     10.5420E-03     152.871E-03     104.771E+06    -7.52217E+06    -41.4183E+06    -124.917E+06    -41.6979E+06    -124.637E+06    -7.52217E+06     2.94813E+06
             436     51.1019E-03     7.54554E-03     50.5417E-03     117.193E-03    -58.4184E-03    -58.8246E-03    -58.3294E-03     117.104E-03    -58.8246E-03     7.82243E-03     144.588E-03     133.207E+06    -8.64690E+06    -41.1667E+06    -155.043E+06    -41.3149E+06    -154.895E+06    -8.64690E+06     1.37020E+06
             437     50.9645E-03     6.60236E-03     50.5350E-03     117.385E-03    -58.5565E-03    -58.8611E-03    -58.5096E-03     117.338E-03    -58.8611E-03     5.64368E-03     137.699E-03     158.581E+06    -14.6614E+06    -43.8812E+06    -185.750E+06     -43.894E+06    -185.737E+06    -14.6614E+06     1.01254E+06
             438     50.8462E-03     5.65917E-03     50.5303E-03     117.335E-03    -58.5006E-03    -58.8579E-03    -58.4797E-03     117.314E-03    -58.8579E-03     3.74229E-03     131.810E-03     171.558E+06    -25.6399E+06    -49.5188E+06    -207.865E+06    -49.5422E+06    -207.842E+06    -25.6399E+06    -125.116E+03
             439     50.7467E-03     4.71568E-03     50.5271E-03     117.472E-03    -58.6079E-03    -58.8798E-03    -58.6008E-03     117.465E-03    -58.8798E-03     2.06603E-03     127.380E-03     186.712E+06    -34.8879E+06    -56.1152E+06    -231.298E+06    -56.1318E+06    -231.281E+06    -34.8879E+06    -678.060E+03
             440     50.6669E-03     3.77249E-03     50.5263E-03     117.605E-03    -58.7185E-03    -58.9080E-03    -58.7475E-03     117.603E-03    -58.8771E-03     1.13085E-03     123.877E-03     194.634E+06    -44.4195E+06    -61.8614E+06    -247.170E+06    -61.8640E+06    -247.167E+06    -44.4195E+06    -398.377E+03
             441     50.6044E-03     2.82984E-03     50.5253E-03     117.559E-03    -58.7211E-03    -58.8576E-03    -58.7533E-03     117.558E-03    -58.8247E-03     499.339E-06     121.210E-03     192.811E+06    -55.0721E+06    -66.4910E+06    -253.316E+06    -66.4945E+06    -253.313E+06    -55.0721E+06    -570.234E+03
             442     50.5618E-03     1.88598E-03     50.5266E-03     117.558E-03    -58.7140E-03    -58.8523E-03    -58.7961E-03     117.557E-03    -58.7701E-03     126.991E-06     119.546E-03     192.997E+06    -64.3110E+06    -70.5749E+06    -260.342E+06    -70.5765E+06    -260.340E+06    -64.3110E+06    -127.441E+03
             443     50.5345E-03     943.634E-06     50.5257E-03     117.437E-03    -58.5591E-03    -58.8815E-03    -58.8125E-03     117.437E-03    -58.6275E-03    -313.194E-06     118.489E-03     192.632E+06    -70.8634E+06    -73.7673E+06    -264.914E+06    -72.9790E+06    -264.907E+06    -71.6588E+06     323.497E+03
             444     52.5597E-03     16.0414E-03     50.0519E-03     152.805E-03    -58.8455E-03    -93.9991E-03    -59.7325E-03     118.538E-03    -58.8455E-03     166.176E-03     448.658E-03     151.642E+06     153.788E+06     132.232E+06    -7.47499E+06    -7.47322E+06     153.786E+06     132.232E+06    -325.891E+03
             445     52.0399E-03     15.0980E-03     49.8016E-03     157.100E-03    -58.8200E-03    -98.4570E-03    -60.0451E-03     118.688E-03    -58.8200E-03     180.628E-03     424.620E-03     142.595E+06     139.454E+06     107.938E+06    -15.8648E+06    -15.8501E+06     139.439E+06     107.938E+06    -152.150E+03
             446     51.6194E-03     14.1516E-03     49.6417E-03     131.690E-03    -58.6888E-03    -73.1593E-03    -57.6857E-03     116.216E-03    -58.6888E-03     104.028E-03     313.506E-03     131.859E+06     127.176E+06     68.2430E+06    -22.5782E+06    -22.4806E+06     127.079E+06     68.2430E+06     837.702E+03
             447     51.2975E-03     13.2085E-03     49.5678E-03     119.939E-03    -58.4950E-03    -61.4783E-03    -56.6043E-03     115.065E-03    -58.4950E-03     57.9071E-03     257.040E-03     128.276E+06     117.631E+06     24.5784E+06    -26.8697E+06    -26.7054E+06     117.467E+06     24.5784E+06     2.22675E+06
             448     51.0116E-03     12.2642E-03     49.5154E-03     117.818E-03    -58.4095E-03    -59.4428E-03    -57.1471E-03     115.529E-03    -58.4162E-03     38.9572E-03     218.556E-03     102.194E+06     80.8637E+06    -8.17386E+06    -30.6722E+06    -30.5299E+06     80.7214E+06    -8.17386E+06     3.10411E+06
             449     50.7604E-03     11.3193E-03     49.4822E-03     116.997E-03    -58.4104E-03    -58.6105E-03    -57.5964E-03     116.067E-03    -58.4948E-03     25.0443E-03     194.250E-03     51.1328E+06     21.5930E+06    -21.2936E+06    -34.5113E+06    -34.2697E+06     12.4833E+06    -12.4254E+06     2.45329E+06
             450     50.5377E-03     10.3771E-03     49.4608E-03     117.038E-03    -58.3709E-03    -58.6656E-03    -57.8553E-03     116.479E-03    -58.6226E-03     19.7432E-03     178.226E-03     44.9685E+06    -6.78355E+06    -31.9248E+06    -58.5419E+06    -38.0061E+06    -52.4605E+06    -6.78355E+06     2.20539E+06
             451     50.3319E-03     9.43200E-03     49.4402E-03     117.036E-03    -58.3604E-03    -58.6880E-03    -57.9956E-03     116.671E-03    -58.6880E-03     15.5953E-03     164.433E-03     75.6141E+06    -7.71061E+06    -40.1654E+06    -93.9234E+06    -40.3667E+06    -93.7221E+06    -7.71061E+06     1.33855E+06
             452     50.1519E-03     8.48952E-03     49.4282E-03     117.057E-03    -58.3784E-03    -58.7303E-03    -58.2071E-03     116.886E-03    -58.7303E-03     10.8775E-03     152.931E-03     99.3669E+06    -10.7242E+06    -40.3656E+06    -121.326E+06    -40.5241E+06    -121.168E+06    -10.7242E+06    -1.45139E+06
             453     49.9908E-03     7.54570E-03     49.4181E-03     117.133E-03    -58.4073E-03    -58.7805E-03    -58.3104E-03     117.036E-03    -58.7805E-03     8.10937E-03     144.450E-03     130.607E+06    -14.5681E+06    -42.4249E+06    -156.807E+06    -42.4748E+06    -156.757E+06    -14.5681E+06    -1.27972E+06
             454     49.8501E-03     6.60233E-03     49.4109E-03     117.324E-03    -58.5194E-03    -58.8365E-03    -58.4734E-03     117.278E-03    -58.8365E-03     5.59212E-03     137.675E-03     156.453E+06    -17.7519E+06    -45.9909E+06    -186.361E+06    -46.0158E+06    -186.336E+06    -17.7519E+06     1.40274E+06
             455     49.7296E-03     5.65923E-03     49.4066E-03     117.340E-03    -58.5124E-03    -58.8478E-03    -58.4913E-03     117.319E-03    -58.8478E-03     3.77786E-03     131.800E-03     169.498E+06    -25.2434E+06    -50.4584E+06    -205.882E+06    -50.4928E+06    -205.847E+06    -25.2434E+06     2.16226E+06
             456     49.6284E-03     4.71589E-03     49.4038E-03     117.372E-03    -58.5072E-03    -58.8792E-03    -58.4989E-03     117.364E-03    -58.8792E-03     2.28530E-03     127.221E-03     187.103E+06    -34.0552E+06    -55.6803E+06    -231.018E+06    -55.6933E+06    -231.005E+06    -34.0552E+06     943.912E+03
             457     49.5461E-03     3.77258E-03     49.4022E-03     117.474E-03    -58.5774E-03    -58.9148E-03    -58.5750E-03     117.472E-03    -58.9148E-03     1.15715E-03     123.732E-03     195.781E+06    -42.8018E+06    -60.4495E+06    -246.794E+06    -60.4501E+06    -246.794E+06    -42.8018E+06     98.9017E+03
             458     49.4832E-03     2.82871E-03     49.4023E-03     117.634E-03    -58.7439E-03    -58.9061E-03    -58.7455E-03     117.634E-03    -58.9040E-03     470.674E-06     121.267E-03     194.758E+06    -53.2599E+06    -64.8941E+06    -253.550E+06    -64.8950E+06    -253.549E+06    -53.2599E+06    -3.73878E+03
             459     49.4379E-03     1.88651E-03     49.4019E-03     117.759E-03    -58.8212E-03    -58.9463E-03    -58.9034E-03     117.759E-03    -58.8641E-03     90.9766E-06     119.716E-03     195.272E+06    -62.1377E+06    -68.9882E+06    -260.732E+06    -68.9902E+06    -260.730E+06    -62.1377E+06    -138.316E+03
             460     49.4117E-03     943.146E-06     49.4027E-03     117.606E-03    -58.5754E-03    -59.0362E-03    -58.9946E-03     117.606E-03    -58.6166E-03    -69.6933E-06     118.648E-03     193.668E+06    -68.9983E+06    -72.5554E+06    -264.407E+06    -72.5616E+06    -264.400E+06    -68.9983E+06     598.098E+03
             461     51.4952E-03     16.0431E-03     48.9324E-03     153.558E-03    -58.8353E-03    -94.7760E-03    -60.1908E-03     118.973E-03    -58.8353E-03     166.802E-03     448.773E-03     152.181E+06     153.436E+06     131.661E+06    -8.44908E+06    -8.43295E+06     153.420E+06     131.661E+06    -449.447E+03
             462     50.9610E-03     15.0974E-03     48.6733E-03     158.071E-03    -58.7920E-03    -99.4415E-03    -60.5750E-03     119.205E-03    -58.7920E-03     182.028E-03     425.149E-03     142.265E+06     139.088E+06     108.573E+06    -15.5382E+06    -15.5236E+06     139.074E+06     108.573E+06     736.963E+03
             463     50.5448E-03     14.1556E-03     48.5221E-03     131.126E-03    -58.6409E-03    -72.6231E-03    -57.3261E-03     115.829E-03    -58.6409E-03     103.875E-03     313.341E-03     131.415E+06     126.274E+06     66.5329E+06    -22.8084E+06    -22.7398E+06     126.206E+06     66.5329E+06     753.894E+03
             464     50.2111E-03     13.2075E-03     48.4430E-03     119.880E-03    -58.4719E-03    -61.4350E-03    -56.3096E-03     114.754E-03    -58.4719E-03     59.0723E-03     257.104E-03     127.609E+06     115.327E+06     22.7652E+06    -28.9469E+06    -28.8078E+06     115.188E+06     22.7652E+06     2.04025E+06
             465     49.9221E-03     12.2638E-03     48.3923E-03     117.859E-03    -58.4118E-03    -59.4738E-03    -57.1728E-03     115.558E-03    -58.4118E-03     39.2222E-03     218.697E-03     103.669E+06     82.1798E+06    -6.96805E+06    -31.3710E+06    -31.2063E+06     82.0151E+06    -6.96805E+06     3.55749E+06
             466     49.6656E-03     11.3207E-03     48.3582E-03     116.865E-03    -58.2643E-03    -58.6435E-03    -57.4350E-03     115.887E-03    -58.4944E-03     25.6494E-03     194.142E-03     51.8947E+06     23.7895E+06    -21.4645E+06    -32.5023E+06    -31.7184E+06     13.3936E+06    -11.8526E+06     3.18304E+06
             467     49.4383E-03     10.3754E-03     48.3373E-03     116.975E-03    -58.3167E-03    -58.6717E-03    -57.7784E-03     116.401E-03    -58.6362E-03     19.9969E-03     178.195E-03     44.1454E+06    -5.46334E+06    -29.1938E+06    -55.6335E+06    -32.7854E+06    -52.0419E+06    -5.46334E+06     2.10268E+06
             468     49.2288E-03     9.43291E-03     48.3166E-03     117.128E-03    -58.4211E-03    -58.7226E-03    -58.0859E-03     116.757E-03    -58.6872E-03     15.7217E-03     164.407E-03     72.2088E+06    -7.49933E+06    -34.3821E+06    -89.1250E+06    -34.5189E+06    -88.9881E+06    -7.49933E+06    -783.762E+03
             469     49.0440E-03     8.48849E-03     48.3039E-03     117.101E-03    -58.4194E-03    -58.7361E-03    -58.2511E-03     116.932E-03    -58.7361E-03     10.7581E-03     152.970E-03     99.5535E+06    -11.1149E+06    -38.5529E+06    -121.444E+06    -38.6590E+06    -121.338E+06    -11.1149E+06    -1.61356E+06
             470     48.8803E-03     7.54585E-03     48.2943E-03     117.174E-03    -58.4322E-03    -58.7948E-03    -58.3341E-03     117.076E-03    -58.7948E-03     8.20440E-03     144.488E-03     132.144E+06    -15.2280E+06    -44.6972E+06    -159.554E+06    -44.7376E+06    -159.514E+06    -15.2280E+06     547.879E+03
             471     48.7367E-03     6.60248E-03     48.2874E-03     117.238E-03    -58.4222E-03    -58.8476E-03    -58.3702E-03     117.186E-03    -58.8476E-03     5.92330E-03     137.563E-03     154.503E+06    -19.6585E+06    -49.9636E+06    -187.046E+06    -49.9965E+06    -187.013E+06    -19.6585E+06     1.05581E+06
             472     48.6134E-03     5.65891E-03     48.2829E-03     117.344E-03    -58.4893E-03    -58.8757E-03    -58.4668E-03     117.321E-03    -58.8757E-03     3.87026E-03     131.798E-03     168.286E+06    -25.2616E+06    -53.2053E+06    -205.726E+06    -53.2339E+06    -205.697E+06    -25.2616E+06     1.34761E+06
             473     48.5100E-03     4.71567E-03     48.2803E-03     117.450E-03    -58.5574E-03    -58.9068E-03    -58.5490E-03     117.442E-03    -58.9068E-03     2.35251E-03     127.292E-03     185.521E+06    -33.0701E+06    -56.1093E+06    -229.007E+06    -56.1220E+06    -228.995E+06    -33.0701E+06     1.11448E+06
             474     48.4261E-03     3.77218E-03     48.2789E-03     117.557E-03    -58.6380E-03    -58.9340E-03    -58.6357E-03     117.554E-03    -58.9340E-03     1.08700E-03     123.811E-03     195.699E+06    -42.2108E+06    -60.1798E+06    -246.255E+06    -60.1817E+06    -246.253E+06    -42.2108E+06     21.6116E+03
             475     48.3612E-03     2.82953E-03     48.2783E-03     117.594E-03    -58.6720E-03    -58.9358E-03    -58.6717E-03     117.593E-03    -58.9358E-03     429.975E-06     121.218E-03     195.774E+06    -52.7148E+06     -64.201E+06    -253.954E+06    -64.2025E+06    -253.952E+06    -52.7148E+06    -51.9128E+03
             476     48.3149E-03     1.88576E-03     48.2781E-03     117.712E-03    -58.7331E-03    -58.9883E-03    -58.7329E-03     117.712E-03    -58.9883E-03     94.1794E-06     119.661E-03     196.759E+06    -61.3696E+06    -66.9530E+06    -260.844E+06    -66.9544E+06    -260.843E+06    -61.3696E+06    -137.574E+03
             477     48.2885E-03     942.797E-06     48.2793E-03     118.020E-03    -58.7992E-03    -59.2259E-03    -59.1043E-03     118.019E-03    -58.9206E-03     174.567E-06     119.050E-03     194.508E+06    -66.9240E+06    -70.0946E+06    -262.998E+06    -69.3111E+06    -262.996E+06    -67.7094E+06    -112.495E+03
             478     50.4256E-03     16.0398E-03     47.8066E-03     153.543E-03    -58.8448E-03    -94.7516E-03    -60.0242E-03     118.815E-03    -58.8448E-03     167.363E-03     448.639E-03     151.569E+06     153.307E+06     130.475E+06    -8.37456E+06    -8.34215E+06     153.274E+06     130.475E+06    -909.182E+03
             479     49.8880E-03     15.0980E-03     47.5485E-03     157.855E-03    -58.8216E-03    -99.1664E-03    -60.1355E-03     118.824E-03    -58.8216E-03     182.334E-03     424.795E-03     140.982E+06     136.887E+06     105.854E+06    -16.6222E+06    -16.5873E+06     136.852E+06     105.854E+06     136.013E+03
             480     49.4655E-03     14.1516E-03     47.3979E-03     131.699E-03    -58.7100E-03    -73.1148E-03    -57.4757E-03     116.060E-03    -58.7100E-03     105.125E-03     314.238E-03     131.329E+06     125.384E+06      67.026E+06    -23.6598E+06    -23.5958E+06     125.320E+06      67.026E+06     2.32898E+06
             481     49.1308E-03     13.2090E-03     47.3218E-03     120.783E-03    -58.5143E-03    -62.2871E-03    -56.9609E-03     115.456E-03    -58.5143E-03     60.5921E-03     257.357E-03     127.907E+06     115.740E+06     24.7998E+06    -28.8367E+06    -28.7750E+06     115.678E+06     24.7998E+06     2.44900E+06
             482     48.8315E-03     12.2639E-03     47.2664E-03     117.929E-03    -58.4247E-03    -59.5268E-03    -57.1607E-03     115.563E-03    -58.4247E-03     39.5615E-03     218.364E-03     102.947E+06     82.4148E+06    -6.32053E+06    -30.2347E+06    -30.1612E+06     82.3413E+06    -6.32053E+06     1.13745E+06
             483     48.5737E-03     11.3190E-03     47.2364E-03     116.908E-03    -58.3522E-03    -58.6030E-03    -57.4774E-03     115.947E-03    -58.5162E-03     25.5284E-03     194.146E-03     51.0081E+06     25.0949E+06    -21.1038E+06    -29.6303E+06    -29.0404E+06     13.7156E+06    -10.3145E+06     1.11183E+06
             484     48.3391E-03     10.3761E-03     47.2123E-03     117.059E-03    -58.3819E-03    -58.6887E-03    -57.8482E-03     116.490E-03    -58.6533E-03     19.9059E-03     178.152E-03     43.5160E+06    -2.97628E+06    -27.2712E+06    -51.8778E+06    -28.8141E+06    -50.3349E+06    -2.97628E+06     336.670E+03
             485     48.1265E-03     9.43201E-03     47.1932E-03     117.183E-03    -58.4445E-03    -58.7464E-03    -58.1199E-03     116.823E-03    -58.7110E-03     15.6070E-03     164.523E-03     73.9473E+06    -3.69666E+06    -31.7944E+06    -87.4776E+06    -31.9315E+06    -87.3406E+06    -3.69666E+06     436.391E+03
             486     47.9375E-03     8.48948E-03     47.1798E-03     117.105E-03    -58.3748E-03    -58.7831E-03    -58.2047E-03     116.935E-03    -58.7831E-03     10.7586E-03     152.974E-03     105.862E+06    -5.84965E+06    -38.0510E+06    -124.000E+06    -38.2114E+06    -123.839E+06    -5.84965E+06     1.97803E+06
             487     47.7705E-03     7.54533E-03     47.1708E-03     117.135E-03    -58.3472E-03    -58.8437E-03    -58.2538E-03     117.042E-03    -58.8437E-03     8.04216E-03     144.475E-03     135.923E+06    -10.0952E+06    -43.2518E+06    -159.471E+06    -43.3007E+06    -159.422E+06    -10.0952E+06     2.18697E+06
             488     47.6235E-03     6.60185E-03     47.1636E-03     117.276E-03    -58.4261E-03    -58.8843E-03    -58.3737E-03     117.223E-03    -58.8843E-03     5.91905E-03     137.559E-03     155.502E+06    -17.1996E+06    -47.2310E+06    -185.497E+06    -47.2499E+06    -185.478E+06    -17.1996E+06     772.512E+03
             489     47.4974E-03     5.65877E-03     47.1591E-03     117.413E-03    -58.5227E-03    -58.9112E-03    -58.5011E-03     117.392E-03    -58.9112E-03     3.79647E-03     131.858E-03     169.708E+06    -24.6328E+06    -51.9020E+06    -206.309E+06    -51.9052E+06    -206.305E+06    -24.6328E+06    -33.6919E+03
             490     47.3918E-03     4.71544E-03     47.1566E-03     117.551E-03    -58.6257E-03    -58.9380E-03    -58.6176E-03     117.543E-03    -58.9380E-03     2.28882E-03     127.382E-03     184.701E+06    -32.7473E+06    -56.3275E+06    -228.079E+06    -56.3293E+06    -228.077E+06    -32.7473E+06     323.099E+03
             491     47.3057E-03     3.77262E-03     47.1550E-03     117.629E-03    -58.6913E-03    -58.9524E-03    -58.6887E-03     117.626E-03    -58.9524E-03     1.25860E-03     123.848E-03     194.257E+06    -42.6747E+06    -60.3145E+06    -245.119E+06    -60.3163E+06    -245.117E+06    -42.6747E+06    -42.5253E+03
             492     47.2395E-03     2.82902E-03     47.1547E-03     117.625E-03    -58.6897E-03    -58.9493E-03    -58.6899E-03     117.624E-03    -58.9484E-03     530.888E-06     121.254E-03     195.129E+06    -53.9751E+06    -64.4437E+06    -254.102E+06    -64.4465E+06    -254.099E+06    -53.9751E+06    -439.492E+03
             493     47.1926E-03     1.88584E-03     47.1549E-03     117.780E-03    -58.7679E-03    -59.0197E-03    -58.8072E-03     117.780E-03    -58.9802E-03    -47.8845E-06     119.746E-03     195.970E+06    -62.7974E+06    -68.0002E+06    -261.309E+06    -68.0031E+06    -261.306E+06    -62.7974E+06    -69.1931E+03
             494     47.1638E-03     942.595E-06     47.1544E-03     117.971E-03    -58.8244E-03    -59.1508E-03    -59.0702E-03     117.970E-03    -58.9045E-03    -226.930E-06     119.023E-03     193.716E+06    -67.9207E+06    -70.9832E+06    -263.149E+06    -70.2003E+06    -263.147E+06    -68.7061E+06    -116.107E+03
             495     49.3580E-03     16.0427E-03     46.6781E-03     153.187E-03    -58.8732E-03    -94.3202E-03    -59.3472E-03     118.214E-03    -58.8732E-03     168.020E-03     448.968E-03     151.407E+06     153.491E+06     130.408E+06    -8.12844E+06    -8.05528E+06     153.417E+06     130.408E+06     321.339E+03
             496     48.8212E-03     15.0959E-03     46.4287E-03     157.343E-03    -58.8780E-03    -98.5848E-03    -59.6335E-03     118.391E-03    -58.8780E-03     181.785E-03     424.580E-03     141.010E+06     134.985E+06     102.534E+06    -18.9701E+06    -18.8880E+06     134.903E+06     102.534E+06     1.10157E+06
             497     48.3881E-03     14.1501E-03     46.2729E-03     132.128E-03    -58.7775E-03    -73.5101E-03    -57.9736E-03     116.591E-03    -58.7775E-03     104.318E-03     314.418E-03     131.873E+06     124.530E+06     66.5171E+06    -25.4799E+06    -25.4475E+06     124.497E+06     66.5171E+06     539.401E+03
             498     48.0467E-03     13.2066E-03     46.1960E-03     120.815E-03    -58.5680E-03    -62.2789E-03    -57.2547E-03     115.790E-03    -58.5680E-03     59.1806E-03     257.365E-03     128.520E+06     118.195E+06     28.3384E+06    -27.1075E+06    -27.0716E+06     118.159E+06     28.3384E+06     210.061E+03
             499     47.7461E-03     12.2634E-03     46.1443E-03     118.169E-03    -58.4561E-03    -59.7385E-03    -57.3443E-03     115.775E-03    -58.4561E-03     39.7215E-03     218.601E-03     101.770E+06     82.4707E+06    -5.39078E+06    -28.8240E+06    -28.7933E+06     82.4400E+06    -5.39078E+06    -203.755E+03
             500     47.4802E-03     11.3201E-03     46.1110E-03     117.047E-03    -58.3367E-03    -58.7399E-03    -57.5996E-03     116.097E-03    -58.5272E-03     25.4489E-03     194.276E-03     49.5927E+06     22.9179E+06    -20.9270E+06    -30.6169E+06    -30.5816E+06     13.2088E+06    -11.2532E+06    -592.414E+03
             501     47.2429E-03     10.3759E-03     46.0894E-03     117.022E-03    -58.3567E-03    -58.6678E-03    -57.7603E-03     116.426E-03    -58.6678E-03     20.3747E-03     177.922E-03     43.6139E+06    -3.91921E+06    -29.3653E+06     -53.572E+06    -32.9848E+06    -49.9525E+06    -3.91921E+06    -90.9908E+03
             502     47.0247E-03     9.43245E-03     46.0690E-03     117.202E-03    -58.4792E-03    -58.7388E-03    -58.1005E-03     116.824E-03    -58.7388E-03     15.9343E-03     164.529E-03     74.7950E+06    -4.20666E+06    -35.5262E+06    -89.3711E+06    -35.6616E+06    -89.2357E+06    -4.20666E+06     1.33575E+06
             503     46.8317E-03     8.48839E-03     46.0560E-03     117.207E-03    -58.4452E-03    -58.8127E-03    -58.2776E-03     117.040E-03    -58.8127E-03     10.6738E-03     153.068E-03     107.813E+06    -3.96135E+06    -36.9553E+06    -124.318E+06    -37.0900E+06    -124.183E+06    -3.96135E+06     2.41360E+06
             504     46.6613E-03     7.54549E-03     46.0472E-03     117.250E-03    -58.4398E-03    -58.8615E-03    -58.3501E-03     117.160E-03    -58.8615E-03     7.88423E-03     144.591E-03     136.951E+06    -7.72333E+06    -39.7513E+06    -157.784E+06    -39.8022E+06    -157.734E+06    -7.72333E+06     2.23417E+06
             505     46.5107E-03     6.60212E-03     46.0398E-03     117.324E-03    -58.4676E-03    -58.8911E-03    -58.4200E-03     117.277E-03    -58.8911E-03     5.61337E-03     137.609E-03     155.586E+06    -16.1549E+06    -44.8063E+06    -184.059E+06    -44.8297E+06    -184.036E+06    -16.1549E+06     1.35495E+06
             506     46.3820E-03     5.65858E-03     46.0356E-03     117.376E-03    -58.4758E-03    -58.9190E-03    -58.4569E-03     117.357E-03    -58.9190E-03     3.58888E-03     131.838E-03     170.078E+06    -24.3214E+06    -50.1846E+06    -205.831E+06    -50.1880E+06    -205.828E+06    -24.3214E+06     486.895E+03
             507     46.2731E-03     4.71551E-03     46.0322E-03     117.513E-03    -58.5686E-03    -58.9577E-03    -58.5607E-03     117.505E-03    -58.9577E-03     2.24660E-03     127.349E-03     185.069E+06    -32.7876E+06    -54.9037E+06    -227.901E+06    -54.9060E+06    -227.898E+06    -32.7876E+06     71.2579E+03
             508     46.1859E-03     3.77186E-03     46.0316E-03     117.673E-03    -58.7076E-03    -58.9847E-03    -58.7052E-03     117.671E-03    -58.9847E-03     1.23459E-03     123.895E-03     194.174E+06    -42.6748E+06    -59.7705E+06    -244.804E+06    -59.7727E+06    -244.802E+06    -42.6748E+06     159.589E+03
             509     46.1175E-03     2.82902E-03     46.0306E-03     117.823E-03    -58.8547E-03    -58.9853E-03    -58.8836E-03     117.822E-03    -58.9558E-03     409.430E-06     121.440E-03     195.288E+06    -53.2996E+06    -64.6955E+06    -254.022E+06    -64.7011E+06    -254.016E+06    -53.2996E+06     330.356E+03
             510     46.0695E-03     1.88628E-03     46.0309E-03     117.845E-03    -58.8906E-03    -58.9626E-03    -58.9624E-03     117.845E-03    -58.8906E-03     52.0392E-06     119.806E-03     195.644E+06    -62.2593E+06    -68.7727E+06    -261.064E+06    -68.7783E+06    -261.059E+06    -62.2593E+06     470.338E+03
             511     46.0402E-03     943.726E-06     46.0305E-03     117.650E-03    -58.7091E-03    -58.9472E-03    -58.9466E-03     117.650E-03    -58.7091E-03    -116.260E-06     118.720E-03     193.005E+06    -69.3564E+06    -72.5078E+06    -263.917E+06    -71.9471E+06    -263.914E+06    -69.9196E+06     124.442E+03
             512     48.2959E-03     16.0391E-03     45.5549E-03     152.447E-03    -58.8904E-03    -93.5533E-03    -58.9977E-03     117.891E-03    -58.8904E-03     166.816E-03     448.548E-03     151.403E+06     152.023E+06     128.963E+06    -9.57769E+06    -9.50127E+06     151.946E+06     128.963E+06     1.45805E+06
             513     47.7536E-03     15.0939E-03     45.3054E-03     157.172E-03    -58.9046E-03    -98.3976E-03    -59.8506E-03     118.625E-03    -58.9046E-03     180.932E-03     424.832E-03     140.324E+06     135.939E+06     104.973E+06    -16.8753E+06    -16.8043E+06     135.868E+06     104.973E+06     1.56224E+06
             514     47.3122E-03     14.1528E-03     45.1458E-03     132.323E-03    -58.7673E-03    -73.7287E-03    -58.2417E-03     116.836E-03    -58.7673E-03     103.962E-03     314.663E-03     131.566E+06     127.137E+06     68.4632E+06    -22.3112E+06    -22.2732E+06     127.099E+06     68.4632E+06    -778.423E+03
             515     46.9705E-03     13.2082E-03     45.0751E-03     120.252E-03    -58.5511E-03    -61.7283E-03    -56.8951E-03     115.418E-03    -58.5511E-03     58.0381E-03     257.390E-03     128.684E+06     117.844E+06     25.4262E+06    -27.2996E+06    -27.2668E+06     117.811E+06     25.4262E+06    -2.12980E+06
             516     46.6580E-03     12.2628E-03     45.0176E-03     117.960E-03    -58.4121E-03    -59.5756E-03    -57.0937E-03     115.539E-03    -58.4729E-03     39.9410E-03     218.559E-03     102.053E+06     81.8034E+06    -6.84571E+06    -29.5410E+06    -29.5282E+06     81.7906E+06    -6.84571E+06    -859.499E+03
             517     46.3905E-03     11.3192E-03     44.9884E-03     117.090E-03    -58.3169E-03    -58.7970E-03    -57.5960E-03     116.129E-03    -58.5564E-03     25.5483E-03     194.358E-03     49.7306E+06     22.3244E+06    -20.9897E+06    -31.7050E+06    -31.4915E+06     12.9667E+06    -11.8456E+06     233.813E+03
             518     46.1467E-03     10.3749E-03     44.9653E-03     117.169E-03    -58.4408E-03    -58.7350E-03    -57.8803E-03     116.570E-03    -58.6966E-03     20.4478E-03     178.045E-03     43.2486E+06    -4.92293E+06    -30.3442E+06    -54.4531E+06    -34.3972E+06    -50.4002E+06    -4.92293E+06     662.770E+03
             519     45.9238E-03     9.43156E-03     44.9448E-03     117.291E-03    -58.5755E-03    -58.7485E-03    -58.1956E-03     116.911E-03    -58.7485E-03     15.8790E-03     164.592E-03     72.7390E+06    -6.97920E+06    -36.8357E+06    -89.5843E+06    -36.8639E+06    -89.5560E+06    -6.97920E+06    -25.3583E+03
             520     45.7270E-03     8.48898E-03     44.9322E-03     117.287E-03    -58.5292E-03    -58.8076E-03    -58.3700E-03     117.127E-03    -58.8076E-03     10.4402E-03     153.188E-03     105.341E+06    -8.23322E+06    -38.8938E+06    -125.461E+06    -38.9122E+06    -125.442E+06    -8.23322E+06     349.917E+03
             521     45.5522E-03     7.54526E-03     44.9229E-03     117.321E-03    -58.5023E-03    -58.8606E-03    -58.4128E-03     117.232E-03    -58.8606E-03     7.87373E-03     144.679E-03     134.677E+06    -9.50187E+06    -42.1348E+06    -157.455E+06    -42.1805E+06    -157.409E+06    -9.50187E+06     2.21749E+06
             522     45.3986E-03     6.60208E-03     44.9160E-03     117.355E-03    -58.4974E-03    -58.8874E-03    -58.4489E-03     117.306E-03    -58.8874E-03     5.69152E-03     137.648E-03     152.918E+06    -16.8034E+06    -46.2820E+06    -182.266E+06    -46.3265E+06    -182.222E+06    -16.8034E+06     2.25503E+06
             523     45.2669E-03     5.65896E-03     44.9118E-03     117.350E-03    -58.4563E-03    -58.9147E-03    -58.4367E-03     117.331E-03    -58.9147E-03     3.62309E-03     131.810E-03     168.526E+06    -24.7658E+06    -50.4223E+06    -204.630E+06    -50.4346E+06    -204.618E+06    -24.7658E+06     982.482E+03
             524     45.1560E-03     4.71519E-03     44.9091E-03     117.521E-03    -58.5806E-03    -58.9577E-03    -58.5733E-03     117.514E-03    -58.9577E-03     2.16353E-03     127.392E-03     185.088E+06    -32.3626E+06    -54.7735E+06    -227.616E+06    -54.7793E+06    -227.610E+06    -32.3626E+06     426.415E+03
             525     45.0658E-03     3.77230E-03     44.9077E-03     117.756E-03    -58.8022E-03    -58.9757E-03    -58.8003E-03     117.754E-03    -58.9757E-03     1.01735E-03     123.994E-03     195.406E+06    -41.4268E+06    -59.7303E+06    -245.319E+06    -59.7370E+06    -245.313E+06    -41.4268E+06      729.02E+03
             526     44.9959E-03     2.82921E-03     44.9069E-03     117.753E-03    -58.8078E-03    -58.9642E-03    -58.8362E-03     117.753E-03    -58.9356E-03     326.083E-06     121.355E-03     195.844E+06    -52.0038E+06    -64.4625E+06    -253.763E+06    -64.4677E+06    -253.758E+06    -52.0038E+06     885.000E+03
             527     44.9464E-03     1.88617E-03     44.9068E-03     117.750E-03    -58.8124E-03    -58.9463E-03    -58.8592E-03     117.750E-03    -58.8992E-03     173.946E-06     119.700E-03     195.904E+06    -61.2311E+06    -67.9770E+06    -260.405E+06    -67.9802E+06    -260.402E+06    -61.2311E+06     558.520E+03
             528     44.9172E-03     942.565E-06     44.9073E-03     117.726E-03    -58.7359E-03    -58.9964E-03    -58.9959E-03     117.726E-03    -58.7359E-03    -110.599E-06     118.773E-03     193.980E+06    -67.9311E+06    -70.5107E+06    -263.184E+06    -69.8411E+06    -263.183E+06    -68.6016E+06     259.349E+03
             529     47.2397E-03     16.0421E-03     44.4324E-03     152.742E-03    -58.8834E-03    -93.8781E-03    -59.5573E-03     118.421E-03    -58.8834E-03     166.589E-03     448.982E-03     150.595E+06     152.463E+06     130.279E+06    -7.97678E+06    -7.93407E+06     152.420E+06     130.279E+06     1.77404E+06
             530     46.6903E-03     15.0982E-03     44.1818E-03     157.216E-03    -58.8654E-03    -98.4937E-03    -60.0266E-03     118.749E-03    -58.8654E-03     180.984E-03     424.971E-03     141.244E+06     138.997E+06     106.888E+06    -15.1486E+06    -15.0733E+06     138.922E+06     106.888E+06    -180.041E+03
             531     46.2400E-03     14.1502E-03     44.0217E-03     131.618E-03    -58.7278E-03    -73.0293E-03    -57.4459E-03     116.034E-03    -58.7278E-03     104.008E-03     313.730E-03     131.534E+06     127.656E+06     67.7040E+06    -21.7549E+06    -21.6806E+06     127.582E+06     67.7040E+06    -962.289E+03
             532     45.8913E-03     13.2073E-03     43.9498E-03     120.129E-03    -58.5444E-03    -61.6066E-03    -56.6742E-03     115.197E-03    -58.5444E-03     58.5487E-03     257.367E-03     128.340E+06     117.140E+06     22.4970E+06    -27.0556E+06    -27.0342E+06     117.118E+06     22.4970E+06    -837.638E+03
             533     45.5777E-03     12.2632E-03     43.8970E-03     118.110E-03    -58.4184E-03    -59.7211E-03    -57.2091E-03     115.658E-03    -58.4792E-03     40.1765E-03     218.549E-03     102.176E+06     80.7951E+06    -9.22490E+06    -30.1712E+06    -30.1518E+06     80.7757E+06    -9.22490E+06    -1.13815E+06
             534     45.2993E-03     11.3181E-03     43.8626E-03     117.121E-03    -58.4433E-03    -58.7013E-03    -57.6511E-03     116.200E-03    -58.5722E-03     24.9069E-03     194.305E-03     50.1197E+06     23.1150E+06    -21.5986E+06    -31.0034E+06    -30.7013E+06     12.3530E+06    -11.1386E+06    -562.391E+03
             535     45.0534E-03     10.3758E-03     43.8424E-03     117.350E-03    -58.5658E-03    -58.7881E-03    -58.1044E-03     116.798E-03    -58.6977E-03     19.6730E-03     178.328E-03     42.8428E+06    -3.55834E+06    -28.5147E+06    -52.1474E+06    -31.1655E+06    -49.4967E+06    -3.55834E+06     213.681E+03
             536     44.8240E-03     9.43201E-03     43.8204E-03     117.187E-03    -58.4157E-03    -58.8010E-03    -58.1085E-03     116.828E-03    -58.7489E-03     15.4150E-03     164.519E-03     74.9306E+06    -4.90048E+06    -34.2665E+06    -89.8950E+06    -34.3144E+06    -89.8471E+06    -4.90048E+06     646.556E+03
             537     44.6232E-03     8.48834E-03     43.8084E-03     117.112E-03    -58.3370E-03    -58.8221E-03    -58.1816E-03     116.956E-03    -58.8221E-03     10.3591E-03     153.100E-03     107.315E+06    -7.67131E+06    -39.7116E+06    -127.308E+06    -39.7718E+06    -127.248E+06    -7.67131E+06     1.39589E+06
             538     44.4441E-03     7.54531E-03     43.7989E-03     117.318E-03    -58.4831E-03    -58.8791E-03    -58.3898E-03     117.225E-03    -58.8791E-03     8.02045E-03     144.698E-03     133.510E+06    -10.3744E+06    -44.3616E+06    -157.578E+06    -44.3895E+06    -157.550E+06    -10.3744E+06     1.33191E+06
             539     44.2871E-03     6.60186E-03     43.7923E-03     117.424E-03    -58.5464E-03    -58.9095E-03    -58.4984E-03     117.376E-03    -58.9095E-03     5.66408E-03     137.743E-03     152.018E+06    -15.9345E+06    -47.2553E+06    -181.116E+06    -47.2803E+06    -181.091E+06    -15.9345E+06     1.35324E+06
             540     44.1519E-03     5.65846E-03     43.7878E-03     117.498E-03    -58.6020E-03    -58.9218E-03    -58.5831E-03     117.479E-03    -58.9218E-03     3.54925E-03     131.967E-03     167.319E+06    -23.8540E+06    -51.0203E+06    -203.074E+06    -51.0340E+06    -203.061E+06    -23.8540E+06     1.07746E+06
             541     44.0385E-03     4.71563E-03     43.7853E-03     117.610E-03    -58.6904E-03    -58.9419E-03    -58.6833E-03     117.603E-03    -58.9419E-03     2.17632E-03     127.470E-03     184.904E+06    -31.3767E+06    -56.1917E+06    -227.422E+06    -56.1980E+06    -227.415E+06    -31.3767E+06     629.675E+03
             542     43.9456E-03     3.77240E-03     43.7834E-03     117.662E-03    -58.7359E-03    -58.9486E-03    -58.7336E-03     117.660E-03    -58.9486E-03     1.16856E-03     123.900E-03     196.126E+06    -40.4125E+06    -60.8843E+06    -245.944E+06    -60.8894E+06    -245.939E+06    -40.4125E+06     730.881E+03
             543     43.8747E-03     2.82940E-03     43.7834E-03     117.668E-03    -58.7243E-03    -58.9616E-03    -58.7761E-03     117.667E-03    -58.9094E-03     343.445E-06     121.305E-03     194.906E+06    -51.9712E+06    -64.6210E+06    -252.861E+06    -64.6224E+06    -252.860E+06    -51.9712E+06     337.151E+03
             544     43.8238E-03     1.88581E-03     43.7832E-03     117.690E-03    -58.7479E-03    -58.9521E-03    -58.8146E-03     117.690E-03    -58.8853E-03    -88.9056E-06     119.666E-03     195.088E+06    -61.8114E+06    -68.1102E+06    -259.962E+06    -68.1106E+06    -259.961E+06    -61.8114E+06    -117.919E+03
             545     43.7930E-03     943.543E-06     43.7829E-03     117.720E-03    -58.6677E-03    -59.0577E-03    -59.0068E-03     117.719E-03    -58.7183E-03    -389.893E-06     118.775E-03     193.946E+06    -67.9444E+06    -70.4022E+06    -263.103E+06    -70.2960E+06    -263.102E+06    -68.0516E+06    -112.519E+03
             546     46.1824E-03     16.0396E-03     43.3075E-03     153.158E-03    -58.8662E-03    -94.2976E-03    -59.7630E-03     118.623E-03    -58.8662E-03     167.177E-03     449.192E-03     150.666E+06     152.934E+06     131.438E+06    -7.30198E+06    -7.27646E+06     152.909E+06     131.438E+06     1.70802E+06
             547     45.6253E-03     15.0958E-03     43.0556E-03     157.254E-03    -58.8331E-03    -98.5824E-03    -60.0060E-03     118.677E-03    -58.8331E-03     181.129E-03     424.744E-03     143.440E+06     141.598E+06     106.756E+06    -15.6366E+06    -15.5601E+06     141.522E+06     106.756E+06     364.017E+03
             548     45.1756E-03     14.1543E-03     42.9010E-03     131.203E-03    -58.7037E-03    -72.6504E-03    -57.1754E-03     115.728E-03    -58.7037E-03     103.720E-03     312.972E-03     132.268E+06     127.556E+06     65.8737E+06    -23.0397E+06    -22.9479E+06     127.464E+06     65.8737E+06    -1.11767E+06
             549     44.8157E-03     13.2054E-03     42.8260E-03     120.027E-03    -58.5376E-03    -61.5193E-03    -56.6209E-03     115.129E-03    -58.5376E-03     58.1026E-03     257.348E-03     128.865E+06     118.153E+06     24.0060E+06    -27.0643E+06    -27.0172E+06     118.106E+06     24.0060E+06    -1.51960E+06
             550     44.4941E-03     12.2626E-03     42.7709E-03     118.242E-03    -58.4641E-03    -59.8059E-03    -57.5050E-03     115.941E-03    -58.4641E-03     39.0075E-03     219.140E-03     100.594E+06     81.1237E+06    -7.02807E+06    -28.3336E+06    -28.2927E+06     81.0828E+06    -7.02807E+06    -1.79544E+06
             551     44.2139E-03     11.3202E-03     42.7401E-03     117.096E-03    -58.3984E-03    -58.7213E-03    -57.6679E-03     116.187E-03    -58.5433E-03     24.8362E-03     194.207E-03     48.8410E+06     22.7238E+06    -21.6095E+06    -29.6083E+06    -29.2346E+06     11.1573E+06    -10.4167E+06    -1.76385E+06
             552     43.9586E-03     10.3753E-03     42.7166E-03     117.169E-03    -58.4441E-03    -58.7245E-03    -57.9420E-03     116.615E-03    -58.6725E-03     19.6628E-03     178.200E-03     43.8373E+06    -3.00381E+06    -29.1233E+06    -52.5404E+06    -31.2568E+06    -50.4069E+06    -3.00381E+06    -532.753E+03
             553     43.7270E-03     9.43267E-03     42.6975E-03     117.053E-03    -58.2785E-03    -58.7975E-03    -57.9842E-03     116.707E-03    -58.7455E-03     15.1694E-03     164.474E-03     78.6085E+06    -2.82683E+06    -33.8501E+06    -92.0308E+06    -33.9282E+06    -91.9527E+06    -2.82683E+06     1.93713E+06
             554     43.5203E-03     8.48854E-03     42.6844E-03     116.930E-03    -58.1461E-03    -58.8334E-03    -57.9907E-03     116.774E-03    -58.8334E-03     10.3432E-03     152.963E-03     109.505E+06    -4.45263E+06    -37.3727E+06    -126.585E+06    -37.4819E+06    -126.476E+06    -4.45263E+06     2.97764E+06
             555     43.3368E-03     7.54477E-03     42.6750E-03     117.263E-03    -58.4135E-03    -58.8960E-03    -58.3232E-03     117.173E-03    -58.8960E-03     7.87098E-03     144.707E-03     133.794E+06    -8.67005E+06    -42.3883E+06    -156.081E+06    -42.4252E+06    -156.044E+06    -8.67005E+06     1.41814E+06
             556     43.1759E-03     6.60182E-03     42.6682E-03     117.484E-03    -58.5845E-03    -58.9302E-03    -58.5394E-03     117.439E-03    -58.9302E-03     5.50062E-03     137.829E-03     152.861E+06    -14.5854E+06    -47.6108E+06    -181.234E+06    -47.6149E+06    -181.230E+06    -14.5854E+06     403.436E+03
             557     43.0376E-03     5.65877E-03     42.6640E-03     117.584E-03    -58.6753E-03    -58.9339E-03    -58.6560E-03     117.565E-03    -58.9339E-03     3.62072E-03     132.065E-03     167.139E+06    -22.4994E+06    -51.8199E+06    -202.321E+06    -51.8242E+06    -202.316E+06    -22.4994E+06     551.685E+03
             558     42.9208E-03     4.71565E-03     42.6609E-03     117.668E-03    -58.7510E-03    -58.9374E-03    -58.7432E-03     117.660E-03    -58.9374E-03     2.23906E-03     127.533E-03     184.886E+06    -30.5764E+06    -55.9519E+06    -226.823E+06    -55.9547E+06    -226.820E+06    -30.5764E+06     362.072E+03
             559     42.8268E-03     3.77244E-03     42.6603E-03     117.638E-03    -58.7229E-03    -58.9357E-03    -58.7208E-03     117.636E-03    -58.9357E-03     1.11778E-03     123.888E-03     196.286E+06    -39.9378E+06    -60.7923E+06    -245.797E+06    -60.7949E+06    -245.794E+06    -39.9378E+06    -52.7180E+03
             560     42.7526E-03     2.82896E-03     42.6589E-03     117.643E-03    -58.7149E-03    -58.9462E-03    -58.7667E-03     117.643E-03    -58.8939E-03     391.683E-06     121.307E-03     194.445E+06    -52.1307E+06    -65.3731E+06    -252.825E+06    -65.3761E+06    -252.822E+06    -52.1307E+06    -19.7363E+03
             561     42.7009E-03     1.88688E-03     42.6592E-03     117.655E-03    -58.7496E-03    -58.9167E-03    -58.8017E-03     117.655E-03    -58.8644E-03     5.03148E-06     119.656E-03     194.461E+06    -61.8691E+06    -68.4544E+06    -259.525E+06    -68.4562E+06    -259.523E+06    -61.8691E+06    -154.520E+03
             562     42.6703E-03     942.570E-06     42.6599E-03     117.662E-03    -58.5237E-03    -59.1442E-03    -59.0904E-03     117.662E-03    -58.5774E-03     20.4265E-06     118.760E-03     193.226E+06    -69.2335E+06    -71.7041E+06    -263.678E+06    -71.6300E+06    -263.676E+06    -69.3095E+06    -243.403E+03
             563     45.1328E-03     16.0432E-03     42.1851E-03     153.083E-03    -58.8394E-03    -94.2397E-03    -59.8539E-03     118.697E-03    -58.8394E-03     166.550E-03     448.503E-03     150.040E+06     151.678E+06     131.102E+06    -7.56111E+06    -7.54402E+06     151.661E+06     131.102E+06     1.12631E+06
             564     44.5667E-03     15.0978E-03     41.9315E-03     156.555E-03    -58.8209E-03    -97.9292E-03    -59.5683E-03     118.194E-03    -58.8209E-03     180.034E-03     424.360E-03     143.685E+06     143.361E+06     107.905E+06    -14.2357E+06    -14.1964E+06     143.322E+06     107.905E+06     1.12869E+06
             565     44.1086E-03     14.1499E-03     41.7774E-03     131.275E-03    -58.6963E-03    -72.7653E-03    -57.4301E-03     115.940E-03    -58.6963E-03     103.530E-03     313.675E-03     132.433E+06     129.841E+06     68.0537E+06    -21.1095E+06    -21.0541E+06     129.786E+06     68.0537E+06    -1.00462E+06
             566     43.7444E-03     13.2097E-03     41.7022E-03     120.479E-03    -58.4904E-03    -62.0199E-03    -57.0026E-03     115.462E-03    -58.4904E-03     58.9119E-03     257.526E-03     128.113E+06     118.458E+06     24.7962E+06    -25.7160E+06    -25.6584E+06     118.400E+06     24.7962E+06    -2.73342E+06
             567     43.4156E-03     12.2642E-03     41.6474E-03     117.916E-03    -58.3232E-03    -59.6182E-03    -57.2212E-03     115.610E-03    -58.4140E-03     38.9618E-03     218.833E-03     100.300E+06     81.1283E+06    -6.76969E+06    -28.0725E+06    -28.0132E+06     81.0691E+06    -6.76969E+06    -2.46938E+06
             568     43.1276E-03     11.3192E-03     41.6157E-03     116.826E-03    -58.2425E-03    -58.6013E-03    -57.4030E-03     115.899E-03    -58.5142E-03     25.1242E-03     194.058E-03     48.7669E+06     22.1168E+06    -22.0358E+06    -30.2254E+06    -29.9346E+06     10.1135E+06    -10.3235E+06    -1.61741E+06
             569     42.8684E-03     10.3766E-03     41.5936E-03     116.946E-03    -58.2761E-03    -58.6636E-03    -57.6952E-03     116.365E-03    -58.6636E-03     20.0987E-03     178.028E-03     45.5398E+06    -3.32859E+06    -30.4768E+06    -54.6093E+06    -32.2725E+06    -52.8135E+06    -3.32859E+06    -479.488E+03
             570     42.6296E-03     9.43191E-03     41.5730E-03     117.079E-03    -58.3405E-03    -58.7509E-03    -57.9860E-03     116.724E-03    -58.7509E-03     15.3506E-03     164.618E-03     80.5577E+06    -3.21712E+06    -34.6877E+06    -94.5720E+06    -34.7324E+06    -94.5273E+06    -3.21712E+06     1.23466E+06
             571     42.4193E-03     8.48885E-03     41.5612E-03     117.122E-03    -58.3410E-03    -58.8256E-03    -58.1819E-03     116.963E-03    -58.8256E-03     10.4697E-03     153.120E-03     108.563E+06    -4.02791E+06    -37.3837E+06    -125.321E+06    -37.4736E+06    -125.231E+06    -4.02791E+06     2.73826E+06
             572     42.2302E-03     7.54530E-03     41.5507E-03     117.143E-03    -58.2899E-03    -58.8945E-03    -58.2006E-03     117.053E-03    -58.8945E-03     7.81187E-03     144.557E-03     133.474E+06    -5.87506E+06    -40.6883E+06    -153.272E+06    -40.7385E+06    -153.222E+06    -5.87506E+06     1.88369E+06
             573     42.0656E-03     6.60173E-03     41.5443E-03     117.381E-03    -58.4591E-03    -58.9490E-03    -58.4139E-03     117.336E-03    -58.9490E-03     5.54413E-03     137.738E-03     155.689E+06    -11.3539E+06    -44.6770E+06    -180.956E+06    -44.6808E+06    -180.952E+06    -11.3539E+06     116.343E+03
             574     41.9236E-03     5.65847E-03     41.5400E-03     117.605E-03    -58.6715E-03    -58.9561E-03    -58.6510E-03     117.585E-03    -58.9561E-03     3.68914E-03     132.099E-03     169.664E+06    -20.2243E+06    -49.2682E+06    -202.499E+06    -49.2716E+06    -202.496E+06    -20.2243E+06    -23.3629E+03
             575     41.8042E-03     4.71536E-03     41.5374E-03     117.706E-03    -58.7684E-03    -58.9550E-03    -58.7609E-03     117.699E-03    -58.9550E-03     2.20489E-03     127.592E-03     185.573E+06    -29.9761E+06    -54.2052E+06    -226.441E+06    -54.2076E+06    -226.438E+06    -29.9761E+06     171.597E+03
             576     41.7069E-03     3.77257E-03     41.5359E-03     117.735E-03    -58.8111E-03    -58.9426E-03    -58.8088E-03     117.733E-03    -58.9426E-03     1.18873E-03     123.988E-03     196.526E+06    -39.9635E+06    -59.4943E+06    -245.511E+06    -59.5001E+06    -245.506E+06    -39.9635E+06     69.4800E+03
             577     41.6321E-03     2.82975E-03     41.5359E-03     117.596E-03    -58.7038E-03    -58.9106E-03    -58.7031E-03     117.595E-03    -58.9106E-03     525.975E-06     121.238E-03     195.278E+06    -51.3060E+06    -64.2979E+06    -252.723E+06    -64.3042E+06    -252.717E+06    -51.3060E+06     118.232E+03
             578     41.5783E-03     1.88533E-03     41.5355E-03     117.673E-03    -58.7683E-03    -58.9153E-03    -58.7682E-03     117.673E-03    -58.9153E-03     94.0349E-06     119.687E-03     194.662E+06    -61.6749E+06    -68.3464E+06    -259.575E+06    -68.3489E+06    -259.572E+06    -61.6749E+06     9.80236E+03
             579     41.5472E-03     943.574E-06     41.5365E-03     117.803E-03    -58.6916E-03    -59.1166E-03    -59.1128E-03     117.803E-03    -58.6953E-03     207.784E-06     118.919E-03     193.165E+06    -69.5430E+06    -71.9472E+06    -263.891E+06    -71.7392E+06    -263.889E+06    -69.7530E+06     236.851E+03
             580     44.0820E-03     16.0416E-03     41.0596E-03     153.291E-03    -58.8495E-03    -94.4734E-03    -59.7683E-03     118.586E-03    -58.8495E-03     167.357E-03     449.149E-03     149.093E+06     150.969E+06     131.365E+06    -6.93706E+06    -6.88723E+06     150.919E+06     131.365E+06    -539.882E+03
             581     43.5123E-03     15.0973E-03     40.8092E-03     157.180E-03    -58.8306E-03    -98.5709E-03    -59.7380E-03     118.347E-03    -58.8306E-03     181.479E-03     424.941E-03     143.937E+06     144.384E+06     109.227E+06    -13.3011E+06    -13.2425E+06     144.325E+06     109.227E+06    -638.839E+03
             582     43.0481E-03     14.1545E-03     40.6545E-03     131.820E-03    -58.6841E-03    -73.3309E-03    -57.7113E-03     116.200E-03    -58.6841E-03     104.780E-03     313.882E-03     132.478E+06     131.786E+06     67.9822E+06    -19.2310E+06    -19.2165E+06     131.771E+06     67.9822E+06    -226.913E+03
             583     42.6717E-03     13.2065E-03     40.5767E-03     120.651E-03    -58.4731E-03    -62.2108E-03    -57.0717E-03     115.512E-03    -58.4731E-03     59.6757E-03     257.548E-03     128.050E+06     118.681E+06     23.3181E+06    -25.2918E+06    -25.2748E+06     118.664E+06     23.3181E+06    -852.078E+03
             584     42.3396E-03     12.2642E-03     40.5245E-03     117.985E-03    -58.3115E-03    -59.6956E-03    -57.2367E-03     115.617E-03    -58.4023E-03     39.5142E-03     218.653E-03     101.088E+06     80.6685E+06    -7.99732E+06    -29.3648E+06    -29.3313E+06     80.6350E+06    -7.99732E+06    -1.49382E+06
             585     42.0449E-03     11.3204E-03     40.4922E-03     116.647E-03    -58.0497E-03    -58.6320E-03    -57.2215E-03     115.697E-03    -58.5100E-03     25.4046E-03     193.891E-03     50.1720E+06     21.8395E+06    -23.4342E+06    -32.0984E+06    -31.6212E+06     9.28362E+06    -11.3555E+06    -1.35343E+06
             586     41.7783E-03     10.3752E-03     40.4695E-03     116.785E-03    -58.1095E-03    -58.6751E-03    -57.5114E-03     116.187E-03    -58.6751E-03     20.3859E-03     177.897E-03     46.0772E+06    -4.52930E+06    -32.0003E+06    -56.4141E+06    -33.7521E+06    -54.6622E+06    -4.52930E+06    -595.173E+03
             587     41.5348E-03     9.43206E-03     40.4497E-03     117.205E-03    -58.4381E-03    -58.7690E-03    -58.0655E-03     116.832E-03    -58.7690E-03     15.7550E-03     164.691E-03     80.9601E+06    -4.55513E+06    -37.1890E+06    -96.6042E+06    -37.2133E+06    -96.5798E+06    -4.55513E+06     939.022E+03
             588     41.3178E-03     8.48856E-03     40.4364E-03     117.268E-03    -58.4905E-03    -58.8238E-03    -58.3262E-03     117.104E-03    -58.8238E-03     10.6233E-03     153.247E-03     105.367E+06    -5.74526E+06    -39.3997E+06    -123.763E+06    -39.5011E+06    -123.661E+06    -5.74526E+06     499.872E+03
             589     41.1259E-03     7.54549E-03     40.4278E-03     117.203E-03    -58.3674E-03    -58.8808E-03    -58.2741E-03     117.109E-03    -58.8808E-03     8.02616E-03     144.559E-03     131.362E+06    -6.95984E+06    -40.0503E+06    -151.633E+06    -40.1377E+06    -151.546E+06    -6.95984E+06    -733.747E+03
             590     40.9559E-03     6.60166E-03     40.4204E-03     117.295E-03    -58.3812E-03    -58.9450E-03    -58.3323E-03     117.246E-03    -58.9450E-03     5.71738E-03     137.630E-03     156.726E+06    -11.8969E+06    -42.7852E+06    -181.711E+06    -42.8148E+06    -181.681E+06    -11.8969E+06     255.596E+03
             591     40.8100E-03     5.65854E-03     40.4158E-03     117.478E-03    -58.5364E-03    -58.9663E-03    -58.5161E-03     117.458E-03    -58.9663E-03     3.68460E-03     131.999E-03     169.317E+06    -21.2404E+06    -48.1248E+06    -202.378E+06    -48.1491E+06    -202.354E+06    -21.2404E+06     895.268E+03
             592     40.6877E-03     4.71549E-03     40.4136E-03     117.670E-03    -58.6993E-03    -58.9913E-03    -58.6909E-03     117.662E-03    -58.9913E-03     2.33581E-03     127.571E-03     185.159E+06    -30.7726E+06    -54.0327E+06    -226.434E+06    -54.0429E+06    -226.424E+06    -30.7726E+06     742.892E+03
             593     40.5878E-03     3.77205E-03     40.4122E-03     117.770E-03    -58.7944E-03    -58.9969E-03    -58.7916E-03     117.768E-03    -58.9969E-03     1.32653E-03     124.021E-03     195.439E+06    -41.2647E+06    -59.2831E+06    -245.065E+06    -59.2950E+06    -245.053E+06    -41.2647E+06     789.975E+03
             594     40.5105E-03     2.82879E-03     40.4116E-03     117.784E-03    -58.7923E-03    -59.0101E-03    -58.8356E-03     117.784E-03    -58.9661E-03     566.234E-06     121.421E-03     194.775E+06    -51.9808E+06    -64.0666E+06    -252.495E+06    -64.0705E+06    -252.491E+06    -51.9808E+06     247.245E+03
             595     40.4565E-03     1.88662E-03     40.4125E-03     117.828E-03    -58.8548E-03    -58.9826E-03    -58.8986E-03     117.828E-03    -58.9386E-03     156.481E-06     119.821E-03     194.927E+06    -61.4471E+06    -68.0277E+06    -259.563E+06    -68.0290E+06    -259.562E+06    -61.4471E+06     148.085E+03
             596     40.4222E-03     942.464E-06     40.4112E-03     117.810E-03    -58.8602E-03    -58.9569E-03    -58.9244E-03     117.809E-03    -58.8917E-03    -205.595E-06     118.889E-03     193.993E+06    -67.7194E+06    -69.8842E+06    -262.779E+06     -69.647E+06    -262.778E+06    -67.9575E+06     396.092E+03
             597     43.0372E-03     16.0409E-03     39.9360E-03     152.524E-03    -58.8864E-03    -93.7246E-03    -59.1668E-03     117.966E-03    -58.8864E-03     166.859E-03     449.080E-03     149.171E+06     150.968E+06     129.742E+06    -7.66269E+06    -7.61301E+06     150.919E+06     129.742E+06    -2.34067E+06
             598     42.4592E-03     15.0952E-03     39.6853E-03     157.200E-03    -58.8873E-03    -98.5557E-03    -59.8061E-03     118.450E-03    -58.8873E-03     181.494E-03     424.768E-03     143.543E+06     142.759E+06     108.108E+06    -14.4469E+06    -14.3904E+06     142.703E+06     108.108E+06    -2.07127E+06
             599     41.9849E-03     14.1497E-03     39.5287E-03     132.592E-03    -58.7287E-03    -74.0258E-03    -58.1726E-03     116.738E-03    -58.7287E-03     105.588E-03     314.133E-03     134.207E+06     131.864E+06     67.9079E+06    -20.9400E+06    -20.9239E+06     131.848E+06     67.9079E+06    -109.224E+03
             600     41.6071E-03     13.2092E-03     39.4546E-03     120.711E-03    -58.5062E-03    -62.2266E-03    -57.1682E-03     115.652E-03    -58.5062E-03     59.3079E-03     257.504E-03     129.313E+06     119.728E+06     23.9286E+06    -25.8895E+06    -25.8828E+06     119.721E+06     23.9286E+06     396.655E+03
             601     41.2633E-03     12.2631E-03     39.3989E-03     117.905E-03    -58.3771E-03    -59.5496E-03    -57.1079E-03     115.524E-03    -58.4381E-03     39.5842E-03     218.472E-03     100.843E+06     80.7206E+06    -7.72492E+06    -28.9806E+06    -28.9760E+06     80.7160E+06    -7.72492E+06     148.640E+03
             602     40.9646E-03     11.3196E-03     39.3696E-03     116.888E-03    -58.2129E-03    -58.7020E-03    -57.4093E-03     115.922E-03    -58.5394E-03     25.6748E-03     194.078E-03     49.4436E+06     21.0101E+06    -22.9759E+06    -32.3170E+06    -31.7088E+06     9.72152E+06    -12.2956E+06     11.1840E+03
             603     40.6913E-03     10.3757E-03     39.3463E-03     116.957E-03    -58.2275E-03    -58.7350E-03    -57.6584E-03     116.347E-03    -58.6945E-03     20.5920E-03     177.972E-03     46.3959E+06    -6.72915E+06    -33.1214E+06    -59.4465E+06    -36.1550E+06    -56.4129E+06    -6.72915E+06      393.47E+03
             604     40.4406E-03     9.43152E-03     39.3254E-03     117.110E-03    -58.3534E-03    -58.7746E-03    -57.9740E-03     116.731E-03    -58.7746E-03     15.9480E-03     164.469E-03     77.8815E+06    -8.01429E+06    -38.6683E+06    -96.3569E+06    -38.7475E+06    -96.2777E+06    -8.01429E+06    -156.345E+03
             605     40.2188E-03     8.48849E-03     39.3128E-03     117.206E-03    -58.4342E-03    -58.8254E-03    -58.2624E-03     117.034E-03    -58.8254E-03     10.8375E-03     153.127E-03     99.3185E+06    -10.7812E+06    -39.3895E+06    -121.144E+06    -39.5680E+06    -120.966E+06    -10.7812E+06    -2.74269E+06
             606     40.0214E-03     7.54483E-03     39.3038E-03     117.364E-03    -58.5364E-03    -58.8802E-03    -58.4404E-03     117.268E-03    -58.8802E-03     8.16344E-03     144.748E-03     128.815E+06    -13.3010E+06    -42.0664E+06     -154.03E+06    -42.1795E+06    -153.917E+06    -13.3010E+06    -2.49356E+06
             607     39.8476E-03     6.60217E-03     39.2968E-03     117.368E-03    -58.4683E-03    -58.9371E-03    -58.4159E-03     117.316E-03    -58.9371E-03     5.91879E-03     137.675E-03     154.110E+06    -16.8742E+06    -46.6624E+06    -183.693E+06    -46.6911E+06    -183.664E+06    -16.8742E+06     612.876E+03
             608     39.6977E-03     5.65827E-03     39.2924E-03     117.339E-03    -58.3901E-03    -58.9758E-03    -58.3683E-03     117.317E-03    -58.9758E-03     3.83459E-03     131.847E-03     166.045E+06    -23.9772E+06    -50.5667E+06    -201.676E+06    -50.5945E+06    -201.649E+06    -23.9772E+06     1.43797E+06
             609     39.5713E-03     4.71464E-03     39.2894E-03     117.613E-03    -58.5943E-03    -59.0377E-03    -58.5855E-03     117.604E-03    -59.0377E-03     2.37633E-03     127.536E-03     184.176E+06    -31.6358E+06    -54.6547E+06    -226.228E+06    -54.6697E+06    -226.213E+06    -31.6358E+06     1.18909E+06
             610     39.4690E-03     3.77194E-03     39.2883E-03     117.873E-03    -58.8281E-03    -59.0661E-03    -58.8258E-03     117.871E-03    -59.0661E-03     1.17870E-03     124.140E-03     194.613E+06    -41.2578E+06    -59.7792E+06    -244.439E+06    -59.7951E+06    -244.423E+06    -41.2578E+06     1.17628E+06
             611     39.3895E-03     2.82894E-03     39.2878E-03     117.976E-03    -58.9270E-03    -59.0661E-03    -58.9706E-03     117.976E-03    -59.0222E-03     475.019E-06     121.626E-03     193.541E+06    -52.7826E+06    -64.1244E+06    -251.707E+06    -64.1323E+06    -251.699E+06    -52.7826E+06     566.151E+03
             612     39.3329E-03     1.88562E-03     39.2877E-03     117.973E-03    -58.9438E-03    -59.0381E-03    -59.0254E-03     117.973E-03    -58.9563E-03     96.0378E-06     119.964E-03     194.461E+06    -61.8004E+06    -67.6690E+06    -259.112E+06    -67.6696E+06    -259.111E+06    -61.8004E+06    -18.0906E+03
             613     39.3001E-03     943.682E-06     39.2887E-03     117.800E-03    -58.8522E-03    -58.9532E-03    -58.9211E-03     117.799E-03    -58.8832E-03    -179.161E-06     118.866E-03     193.482E+06    -67.9294E+06    -70.1234E+06    -262.492E+06    -70.0204E+06    -262.491E+06    -68.0335E+06     219.967E+03
             614     41.9932E-03     16.0403E-03     38.8090E-03     152.207E-03    -58.9011E-03    -93.3720E-03    -58.8559E-03     117.691E-03    -58.9011E-03     166.735E-03     448.733E-03     150.449E+06     153.127E+06     130.080E+06    -7.50202E+06    -7.46687E+06     153.092E+06     130.080E+06    -1.96863E+06
             615     41.4140E-03     15.0961E-03     38.5646E-03     157.089E-03    -58.8983E-03    -98.3642E-03    -59.8480E-03     118.573E-03    -58.8983E-03     180.917E-03     424.456E-03     144.509E+06     141.484E+06     105.217E+06    -17.2387E+06    -17.1960E+06     141.441E+06     105.217E+06    -2.49479E+06
             616     40.9269E-03     14.1517E-03     38.4024E-03     132.392E-03    -58.7409E-03    -73.7740E-03    -58.1025E-03     116.720E-03    -58.7409E-03     104.707E-03     314.031E-03     133.595E+06     128.985E+06     66.2770E+06    -23.3079E+06    -23.2868E+06     128.964E+06     66.2770E+06    -1.57253E+06
             617     40.5408E-03     13.2063E-03     38.3295E-03     120.354E-03    -58.5344E-03    -61.8390E-03    -56.9670E-03     115.482E-03    -58.5344E-03     58.1583E-03     257.462E-03     129.931E+06     119.324E+06     24.2794E+06    -26.9292E+06    -26.9188E+06     119.313E+06     24.2794E+06    -327.881E+03
             618     40.1937E-03     12.2635E-03     38.2772E-03     117.796E-03    -58.4149E-03    -59.4077E-03    -56.9803E-03     115.430E-03    -58.4759E-03     39.5521E-03     218.509E-03     101.208E+06     80.4724E+06    -8.54601E+06    -29.5005E+06    -29.4799E+06     80.4518E+06    -8.54601E+06     823.625E+03
             619     39.8842E-03     11.3181E-03     38.2446E-03     117.108E-03    -58.5064E-03    -58.6178E-03    -57.5879E-03     116.141E-03    -58.5687E-03     25.6075E-03     194.335E-03     47.9944E+06     18.9612E+06    -23.5596E+06    -32.8842E+06    -32.1567E+06     8.76523E+06    -14.0911E+06     1.85990E+06
             620     39.6059E-03     10.3755E-03     38.2227E-03     117.287E-03    -58.5376E-03    -58.7476E-03    -57.9886E-03     116.698E-03    -58.7071E-03     20.3005E-03     178.282E-03     44.9710E+06    -6.61347E+06    -31.2486E+06    -57.8477E+06    -34.3130E+06    -54.7833E+06    -6.61347E+06     1.29596E+06
             621     39.3493E-03     9.43188E-03     38.2022E-03     117.016E-03    -58.2761E-03    -58.7685E-03    -57.8958E-03     116.636E-03    -58.7685E-03     15.9600E-03     164.288E-03     73.9970E+06    -9.02429E+06    -35.7020E+06    -92.4025E+06    -35.9161E+06    -92.1884E+06    -9.02429E+06    -2.54768E+06
             622     39.1207E-03     8.48771E-03     38.1889E-03     117.082E-03    -58.2935E-03    -58.8416E-03    -58.1226E-03     116.911E-03    -58.8416E-03     10.7903E-03     152.955E-03     99.5234E+06    -12.6037E+06    -38.6748E+06    -122.544E+06    -38.9387E+06    -122.281E+06    -12.6037E+06    -3.24133E+06
             623     38.9181E-03     7.54485E-03     38.1797E-03     117.390E-03    -58.5090E-03    -58.9289E-03    -58.4161E-03     117.297E-03    -58.9289E-03     8.01667E-03     144.795E-03     130.957E+06    -14.0519E+06    -44.1829E+06    -157.422E+06    -44.2398E+06    -157.365E+06    -14.0519E+06    -457.367E+03
             624     38.7396E-03     6.60113E-03     38.1730E-03     117.499E-03    -58.5584E-03    -58.9756E-03    -58.5077E-03     117.449E-03    -58.9756E-03     5.85192E-03     137.836E-03     152.823E+06    -18.5889E+06    -48.6774E+06    -184.191E+06    -48.6804E+06    -184.188E+06    -18.5889E+06    -50.7329E+03
             625     38.5857E-03     5.65833E-03     38.1686E-03     117.507E-03    -58.5333E-03    -58.9976E-03    -58.5117E-03     117.486E-03    -58.9976E-03     3.79752E-03     131.995E-03     164.805E+06    -25.4536E+06    -52.1216E+06    -201.938E+06    -52.1305E+06    -201.929E+06    -25.4536E+06     368.336E+03
             626     38.4559E-03     4.71509E-03     38.1658E-03     117.636E-03    -58.6002E-03    -59.0509E-03    -58.5923E-03     117.628E-03    -59.0509E-03     2.26131E-03     127.522E-03     182.795E+06    -32.6964E+06    -56.1937E+06    -226.088E+06    -56.2067E+06    -226.075E+06    -32.6964E+06     1.17277E+06
             627     38.3498E-03     3.77152E-03     38.1639E-03     117.891E-03    -58.8244E-03    -59.0825E-03    -58.8223E-03     117.889E-03    -59.0825E-03     1.09344E-03     124.145E-03     193.393E+06    -41.5125E+06    -60.4866E+06    -243.667E+06    -60.5018E+06    -243.652E+06    -41.5125E+06     881.856E+03
             628     38.2685E-03     2.82880E-03     38.1638E-03     117.967E-03    -58.9290E-03    -59.0507E-03    -58.9287E-03     117.966E-03    -59.0507E-03     366.333E-06     121.612E-03     191.929E+06    -52.9748E+06    -64.4548E+06    -250.346E+06    -64.4666E+06    -250.335E+06    -52.9748E+06     624.893E+03
             629     38.2102E-03     1.88622E-03     38.1637E-03     117.948E-03    -58.8661E-03    -59.0899E-03    -58.9037E-03     117.948E-03    -59.0520E-03     114.085E-06     119.913E-03     193.920E+06    -61.9822E+06    -67.9971E+06    -258.826E+06    -68.0014E+06    -258.822E+06    -61.9822E+06     426.134E+03
             630     38.1761E-03     942.505E-06     38.1644E-03     118.097E-03    -58.8580E-03    -59.2421E-03    -59.1268E-03     118.096E-03    -58.9727E-03     159.563E-06     119.149E-03     193.298E+06    -68.5156E+06    -70.9879E+06    -263.030E+06    -70.8454E+06    -263.023E+06    -68.6658E+06    -211.388E+03
             631     40.9618E-03     16.0409E-03     37.6903E-03     152.393E-03    -58.8912E-03    -93.5245E-03    -58.8497E-03     117.719E-03    -58.8912E-03     166.751E-03     448.509E-03     152.736E+06     154.993E+06     130.740E+06    -8.40368E+06     -8.3774E+06     154.967E+06     130.740E+06    -1.15949E+06
             632     40.3647E-03     15.0948E-03     37.4361E-03     157.624E-03    -58.8753E-03    -98.8894E-03    -60.0167E-03     118.752E-03    -58.8753E-03     181.858E-03     424.539E-03     145.011E+06     142.284E+06     105.167E+06    -17.1844E+06    -17.1560E+06     142.256E+06     105.167E+06    -1.46943E+06
             633     39.8761E-03     14.1520E-03     37.2804E-03     132.017E-03    -58.7159E-03    -73.4412E-03    -57.8385E-03     116.415E-03    -58.7159E-03     104.632E-03     313.772E-03     134.236E+06     127.481E+06     62.6849E+06    -25.5819E+06    -25.5508E+06     127.450E+06     62.6849E+06    -2.01871E+06
             634     39.4800E-03     13.2077E-03     37.2052E-03     119.973E-03    -58.5358E-03    -61.4511E-03    -56.5466E-03     115.069E-03    -58.5358E-03     58.0819E-03     257.234E-03     129.871E+06     116.294E+06     20.0494E+06    -29.7915E+06    -29.7656E+06     116.269E+06     20.0494E+06    -1.59704E+06
             635     39.1251E-03     12.2621E-03     37.1539E-03     118.042E-03    -58.4903E-03    -59.5669E-03    -57.2519E-03     115.727E-03    -58.4903E-03     39.2494E-03     218.952E-03     101.947E+06     79.3281E+06    -10.3000E+06    -31.4919E+06    -31.4681E+06     79.3043E+06    -10.3000E+06     641.348E+03
             636     38.8080E-03     11.3192E-03     37.1206E-03     117.146E-03    -58.4215E-03    -58.7529E-03    -57.6364E-03     116.184E-03    -58.5763E-03     25.5185E-03     194.361E-03     48.6888E+06      19.315E+06    -24.9628E+06    -32.7798E+06    -32.1077E+06     8.24510E+06    -14.5650E+06     1.37262E+06
             637     38.5217E-03     10.3750E-03     37.0982E-03     117.230E-03    -58.5170E-03    -58.7174E-03    -57.9504E-03     116.658E-03    -58.7115E-03     19.9977E-03     178.237E-03     41.5584E+06    -5.98452E+06    -30.7319E+06    -52.8179E+06    -31.9540E+06    -51.5957E+06    -5.98452E+06    -136.844E+03
             638     38.2594E-03     9.43171E-03     37.0786E-03     117.187E-03    -58.4215E-03    -58.7883E-03    -58.0605E-03     116.820E-03    -58.7824E-03     15.6896E-03     164.487E-03     73.1377E+06    -6.27232E+06    -35.1616E+06    -89.2111E+06    -35.3867E+06    -88.9860E+06    -6.27232E+06    -1.19975E+06
             639     38.0245E-03     8.48833E-03     37.0649E-03     116.990E-03    -58.1836E-03    -58.8537E-03    -58.0144E-03     116.820E-03    -58.8537E-03     10.7625E-03     152.854E-03     101.879E+06    -12.0100E+06    -41.5018E+06    -125.229E+06    -41.7299E+06    -125.001E+06    -12.0100E+06    -835.652E+03
             640     37.8158E-03     7.54424E-03     37.0556E-03     117.246E-03    -58.3470E-03    -58.9457E-03    -58.2557E-03     117.154E-03    -58.9457E-03     7.89157E-03     144.653E-03     131.122E+06    -14.9313E+06    -45.5335E+06    -158.623E+06    -45.5607E+06    -158.595E+06    -14.9313E+06    -504.938E+03
             641     37.6324E-03     6.60143E-03     37.0489E-03     117.520E-03    -58.5498E-03    -59.0064E-03    -58.5029E-03     117.473E-03    -59.0064E-03     5.66025E-03     137.900E-03     152.220E+06    -19.4532E+06    -48.7982E+06    -184.176E+06    -48.8073E+06    -184.167E+06    -19.4532E+06    -142.064E+03
             642     37.4739E-03     5.65793E-03     37.0443E-03     117.693E-03    -58.6989E-03    -59.0175E-03    -58.6768E-03     117.671E-03    -59.0175E-03     3.84477E-03     132.152E-03     163.624E+06    -27.3962E+06    -53.7997E+06    -202.610E+06    -53.8066E+06    -202.603E+06    -27.3962E+06     192.429E+03
             643     37.3407E-03     4.71499E-03     37.0419E-03     117.816E-03    -58.7891E-03    -59.0399E-03    -58.7812E-03     117.808E-03    -59.0399E-03     2.26177E-03     127.672E-03     181.018E+06    -34.0661E+06    -57.9638E+06    -225.822E+06    -57.9720E+06    -225.814E+06    -34.0661E+06     296.936E+03
             644     37.2318E-03     3.77207E-03     37.0403E-03     117.788E-03    -58.7427E-03    -59.0567E-03    -58.7405E-03     117.786E-03    -59.0567E-03     1.13679E-03     124.045E-03     191.787E+06    -42.6756E+06    -61.0884E+06    -242.977E+06    -61.0978E+06    -242.967E+06    -42.6756E+06     30.8381E+03
             645     37.1471E-03     2.82883E-03     37.0392E-03     117.830E-03    -58.7730E-03    -59.0668E-03    -58.7725E-03     117.829E-03    -59.0668E-03     310.882E-06     121.449E-03     191.555E+06    -53.0661E+06    -64.8883E+06    -250.241E+06    -64.8949E+06    -250.234E+06    -53.0661E+06    -196.405E+03
             646     37.0885E-03     1.88531E-03     37.0406E-03     118.040E-03    -58.8661E-03    -59.1838E-03    -58.9499E-03     118.040E-03    -59.0997E-03    -4.77448E-06     119.961E-03     194.306E+06    -61.4818E+06    -67.9272E+06    -258.914E+06    -67.9342E+06    -258.907E+06    -61.4818E+06     74.3165E+03
             647     37.0515E-03     942.653E-06     37.0395E-03     118.193E-03    -58.7645E-03    -59.4355E-03    -59.3201E-03     118.192E-03    -58.8792E-03    -364.624E-06     119.203E-03     193.714E+06    -67.2268E+06    -69.2836E+06    -261.956E+06    -69.0822E+06    -261.948E+06    -67.4366E+06    -247.489E+03
             648     39.9322E-03     16.0413E-03     36.5686E-03     153.039E-03    -58.8711E-03    -94.1967E-03    -59.6947E-03     118.537E-03    -58.8711E-03     167.066E-03     448.885E-03     153.991E+06     156.115E+06     131.453E+06    -8.71567E+06    -8.70952E+06     156.109E+06     131.453E+06    -109.234E+03
             649     39.3254E-03     15.0964E-03     36.3123E-03     156.989E-03    -58.8446E-03    -98.3220E-03    -59.7960E-03     118.463E-03    -58.8446E-03     180.854E-03     423.561E-03     144.415E+06     142.455E+06     105.869E+06    -16.2011E+06    -16.1888E+06     142.443E+06     105.869E+06    -775.314E+03
             650     38.8260E-03     14.1512E-03     36.1553E-03     130.945E-03    -58.7227E-03    -72.3933E-03    -56.8522E-03     115.403E-03    -58.7227E-03     103.929E-03     313.007E-03     132.761E+06     127.480E+06     60.9958E+06    -23.7900E+06    -23.7564E+06     127.447E+06     60.9958E+06    -1.32827E+06
             651     38.4240E-03     13.2060E-03     36.0833E-03     120.371E-03    -58.5606E-03    -61.8255E-03    -56.7728E-03     115.319E-03    -58.5606E-03     59.0806E-03     257.378E-03     128.755E+06     114.849E+06     17.2257E+06    -29.9074E+06    -29.8819E+06     114.824E+06     17.2257E+06    -877.284E+03
             652     38.0579E-03     12.2628E-03     36.0281E-03     118.455E-03    -58.4972E-03    -59.9755E-03    -57.6452E-03     116.125E-03    -58.4972E-03     39.2176E-03     219.201E-03     101.476E+06     78.1120E+06    -10.7465E+06    -32.3830E+06     -32.335E+06     78.0640E+06    -10.7465E+06    -972.892E+03
             653     37.7347E-03     11.3189E-03     35.9971E-03     117.066E-03    -58.3040E-03    -58.7871E-03    -57.6003E-03     116.146E-03    -58.5705E-03     25.0816E-03     194.256E-03     48.2694E+06     19.9728E+06    -23.7649E+06    -31.7656E+06    -31.3494E+06     9.34223E+06    -13.5506E+06    -1.24411E+06
             654     37.4405E-03     10.3750E-03     35.9743E-03     117.043E-03    -58.3271E-03    -58.7167E-03    -57.7493E-03     116.459E-03    -58.7108E-03     20.1635E-03     177.961E-03     41.0165E+06    -6.55390E+06    -31.1303E+06    -52.7809E+06    -32.5434E+06    -51.3677E+06    -6.55390E+06    -807.459E+03
             655     37.1703E-03     9.43167E-03     35.9538E-03     117.237E-03    -58.4445E-03    -58.8123E-03    -58.0901E-03     116.877E-03    -58.8064E-03     15.5102E-03     164.611E-03     75.5277E+06    -4.90151E+06    -35.7246E+06    -90.8125E+06    -35.8168E+06    -90.7203E+06    -4.90151E+06     1.23103E+06
             656     36.9308E-03     8.48798E-03     35.9421E-03     117.113E-03    -58.2851E-03    -58.8736E-03    -58.1171E-03     116.945E-03    -58.8736E-03     10.7766E-03     152.998E-03     103.362E+06    -8.78294E+06    -39.3599E+06    -123.814E+06    -39.4777E+06    -123.696E+06    -8.78294E+06     1.64930E+06
             657     36.7149E-03     7.54468E-03     35.9314E-03     117.220E-03    -58.3294E-03    -58.9393E-03    -58.2336E-03     117.125E-03    -58.9393E-03     8.06623E-03     144.591E-03     130.348E+06    -15.2656E+06    -45.0860E+06    -157.926E+06    -45.1454E+06    -157.867E+06    -15.2656E+06    -193.598E+03
             658     36.5264E-03     6.60092E-03     35.9250E-03     117.520E-03    -58.5496E-03    -59.0060E-03    -58.5049E-03     117.475E-03    -59.0060E-03     5.47333E-03     137.930E-03     152.622E+06    -19.1343E+06    -50.1364E+06    -184.860E+06    -50.1535E+06    -184.843E+06    -19.1343E+06    -658.867E+03
             659     36.3630E-03     5.65783E-03     35.9201E-03     117.695E-03    -58.6925E-03    -59.0239E-03    -58.6731E-03     117.675E-03    -59.0239E-03     3.58909E-03     132.163E-03     164.419E+06    -25.8997E+06    -53.2845E+06    -202.244E+06    -53.2980E+06    -202.231E+06    -25.8997E+06    -346.571E+03
             660     36.2258E-03     4.71505E-03     35.9177E-03     117.841E-03    -58.8140E-03    -59.0417E-03    -58.8068E-03     117.834E-03    -59.0417E-03     2.14765E-03     127.708E-03     181.969E+06    -33.2593E+06    -56.7485E+06    -225.816E+06    -56.7569E+06    -225.807E+06    -33.2593E+06    -1.01356E+06
             661     36.1138E-03     3.77209E-03     35.9162E-03     117.814E-03    -58.7748E-03    -59.0537E-03    -58.7728E-03     117.812E-03    -59.0537E-03     1.14598E-03     124.088E-03     192.323E+06    -42.0576E+06    -60.9287E+06    -243.093E+06    -60.9381E+06    -243.084E+06    -42.0576E+06    -1.03286E+06
             662     36.0274E-03     2.82859E-03     35.9161E-03     117.852E-03    -58.7907E-03    -59.0743E-03    -58.8225E-03     117.852E-03    -59.0420E-03     384.436E-06     121.466E-03     191.396E+06    -53.5924E+06    -64.8432E+06    -250.337E+06    -64.8475E+06    -250.333E+06    -53.5924E+06    -513.205E+03
             663     35.9646E-03     1.88603E-03     35.9151E-03     118.096E-03    -58.9372E-03    -59.1685E-03    -59.1093E-03     118.096E-03    -58.9963E-03    -124.085E-06     120.019E-03     194.093E+06    -62.1000E+06    -67.8250E+06    -258.985E+06    -67.8301E+06    -258.980E+06    -62.1000E+06    -773.657E+03
             664     35.9280E-03     943.538E-06     35.9157E-03     117.858E-03    -58.6649E-03    -59.1993E-03    -59.1987E-03     117.858E-03    -58.6649E-03    -550.659E-06     118.847E-03     193.689E+06    -68.2994E+06    -70.3461E+06    -262.997E+06    -70.2484E+06    -262.991E+06    -68.4029E+06     49.2081E+03
             665     38.8992E-03     16.0399E-03     35.4382E-03     153.572E-03    -58.8764E-03    -94.7240E-03    -59.8785E-03     118.726E-03    -58.8764E-03     168.241E-03     449.597E-03     153.023E+06     156.221E+06     132.865E+06    -7.13149E+06    -7.12927E+06     156.218E+06     132.865E+06    -133.303E+03
             666     38.2931E-03     15.0997E-03     35.1903E-03     157.106E-03    -58.8499E-03    -98.4342E-03    -59.7158E-03     118.387E-03    -58.8499E-03     181.293E-03     424.441E-03     143.745E+06     142.391E+06     106.691E+06    -15.2043E+06    -15.1820E+06     142.369E+06     106.691E+06     76.7867E+03
             667     37.7855E-03     14.1511E-03     35.0355E-03     131.243E-03    -58.7307E-03    -72.6960E-03    -57.0429E-03     115.590E-03    -58.7307E-03     104.523E-03     312.914E-03     132.104E+06     128.389E+06     62.6189E+06    -22.2528E+06    -22.2263E+06     128.362E+06     62.6189E+06     688.805E+03
             668     37.3686E-03     13.2059E-03     34.9574E-03     120.511E-03    -58.5584E-03    -61.9841E-03    -56.9768E-03     115.504E-03    -58.5584E-03     58.6524E-03     257.224E-03     128.077E+06     116.018E+06     19.1279E+06    -27.8241E+06    -27.8046E+06     115.999E+06     19.1279E+06    -472.046E+03
             669     36.9952E-03     12.2629E-03     34.9037E-03     118.117E-03    -58.4259E-03    -59.7163E-03    -57.4524E-03     115.910E-03    -58.4830E-03     38.2361E-03     219.151E-03     99.6386E+06     78.1687E+06    -9.62676E+06    -30.0420E+06    -29.9490E+06     78.0758E+06    -9.62676E+06    -2.68021E+06
             670     36.6647E-03     11.3193E-03     34.8736E-03     116.970E-03    -58.3736E-03    -58.6107E-03    -57.5086E-03     116.057E-03    -58.5622E-03     24.9701E-03     194.289E-03     47.2532E+06     19.2447E+06    -23.2869E+06    -31.5811E+06    -31.2195E+06     8.61972E+06    -13.0235E+06    -2.34899E+06
             671     36.3620E-03     10.3754E-03     34.8504E-03     117.051E-03    -58.3302E-03    -58.7028E-03    -57.7502E-03     116.471E-03    -58.7028E-03     20.1019E-03     177.955E-03     43.1370E+06    -6.63266E+06    -31.1778E+06    -55.4254E+06    -33.4889E+06    -53.1143E+06    -6.63266E+06    -667.677E+03
             672     36.0844E-03     9.43117E-03     34.8301E-03     117.115E-03    -58.3241E-03    -58.8069E-03    -57.9693E-03     116.760E-03    -58.8069E-03     15.3534E-03     164.489E-03     77.9881E+06    -4.61297E+06    -35.1245E+06    -93.1168E+06    -35.1561E+06    -93.0853E+06    -4.61297E+06     509.967E+03
             673     35.8371E-03     8.48808E-03     34.8173E-03     117.230E-03    -58.3878E-03    -58.8918E-03    -58.2309E-03     117.074E-03    -58.8918E-03     10.3917E-03     153.214E-03     106.450E+06    -4.71357E+06    -37.7273E+06    -123.674E+06    -37.7936E+06    -123.607E+06    -4.71357E+06     2.21489E+06
             674     35.6165E-03     7.54436E-03     34.8083E-03     117.343E-03    -58.4402E-03    -58.9524E-03    -58.3483E-03     117.251E-03    -58.9524E-03     7.96291E-03     144.729E-03     133.121E+06    -8.50775E+06    -41.6305E+06    -154.996E+06    -41.6909E+06    -154.936E+06    -8.50775E+06     1.64736E+06
             675     35.4209E-03     6.60156E-03     34.8003E-03     117.553E-03    -58.5914E-03    -58.9942E-03    -58.5455E-03     117.507E-03    -58.9942E-03     5.48753E-03     137.943E-03     155.626E+06    -15.0369E+06    -46.2541E+06    -183.859E+06    -46.2724E+06    -183.841E+06    -15.0369E+06    -1.08232E+06
             676     35.2538E-03     5.65857E-03     34.7967E-03     117.606E-03    -58.6227E-03    -59.0025E-03    -58.6049E-03     117.589E-03    -59.0025E-03     3.48690E-03     132.104E-03     166.983E+06    -24.2072E+06    -50.8733E+06    -202.870E+06    -50.8899E+06    -202.853E+06    -24.2072E+06    -1.37821E+06
             677     35.1111E-03     4.71492E-03     34.7930E-03     117.672E-03    -58.6577E-03    -59.0308E-03    -58.6503E-03     117.664E-03    -59.0308E-03     2.11672E-03     127.559E-03     182.276E+06    -33.2808E+06    -55.9220E+06    -225.800E+06    -55.9299E+06    -225.792E+06    -33.2808E+06    -1.03223E+06
             678     34.9964E-03     3.77177E-03     34.7925E-03     117.909E-03    -58.8452E-03    -59.0817E-03    -58.8813E-03     117.908E-03    -59.0441E-03     963.058E-06     124.182E-03     192.545E+06    -42.6408E+06    -61.4876E+06    -243.896E+06    -61.4961E+06    -243.887E+06    -42.6408E+06    -1.05306E+06
             679     34.9064E-03     2.82916E-03     34.7916E-03     117.926E-03    -58.8837E-03    -59.0582E-03    -58.9533E-03     117.926E-03    -58.9884E-03     443.083E-06     121.534E-03     191.263E+06    -53.7369E+06    -65.6318E+06    -250.632E+06    -65.6343E+06    -250.629E+06    -53.7369E+06    -458.195E+03
             680     34.8426E-03     1.88610E-03     34.7915E-03     117.818E-03    -58.7783E-03    -59.0490E-03    -58.8663E-03     117.817E-03    -58.9609E-03     189.241E-06     119.756E-03     193.319E+06    -62.5255E+06    -68.6882E+06    -258.846E+06    -68.6916E+06    -258.842E+06    -62.5255E+06    -626.177E+03
             681     34.8046E-03     942.894E-06     34.7918E-03     117.879E-03    -58.7675E-03    -59.1156E-03    -58.9447E-03     117.879E-03    -58.9382E-03    -243.111E-06     118.903E-03     193.056E+06    -69.9499E+06    -72.5930E+06    -264.307E+06    -72.5544E+06    -264.301E+06    -69.9937E+06    -85.8159E+03
             682     37.8841E-03     16.0432E-03     34.3194E-03     153.138E-03    -58.8863E-03    -94.2913E-03    -59.0619E-03     117.909E-03    -58.8863E-03     168.002E-03     448.705E-03     152.734E+06     155.583E+06     130.912E+06    -7.97092E+06    -7.96977E+06     155.582E+06     130.912E+06    -252.384E+03
             683     37.2559E-03     15.0915E-03     34.0625E-03     157.455E-03    -58.8940E-03    -98.7813E-03    -59.8807E-03     118.555E-03    -58.8940E-03     181.252E-03     425.537E-03     144.065E+06     141.479E+06     106.588E+06    -16.3746E+06    -16.3352E+06     141.440E+06     106.588E+06    -252.321E+03
             684     36.7475E-03     14.1520E-03     33.9132E-03     132.046E-03    -58.7330E-03    -73.4954E-03    -58.4331E-03     116.984E-03    -58.7330E-03     103.437E-03     313.958E-03     134.041E+06     129.372E+06     66.2274E+06    -23.1572E+06    -23.1167E+06     129.332E+06     66.2274E+06     66.8594E+03
             685     36.3193E-03     13.2090E-03     33.8321E-03     120.197E-03    -58.5048E-03    -61.7272E-03    -56.6706E-03     115.140E-03    -58.5048E-03     58.9520E-03     256.273E-03     128.988E+06     118.943E+06     22.0561E+06    -25.4958E+06    -25.4815E+06     118.929E+06     22.0561E+06    -493.905E+03
             686     35.9388E-03     12.2636E-03     33.7817E-03     117.533E-03    -58.3913E-03    -59.1710E-03    -56.8278E-03     115.247E-03    -58.4484E-03     38.7449E-03     218.441E-03     100.118E+06     79.2044E+06    -9.81745E+06    -29.1105E+06    -29.0561E+06     79.1500E+06    -9.81745E+06    -1.40980E+06
             687     35.5963E-03     11.3186E-03     33.7489E-03     117.033E-03    -58.3568E-03    -58.6862E-03    -57.5611E-03     116.106E-03    -58.5550E-03     25.0868E-03     194.305E-03     48.0459E+06     18.2590E+06    -24.6094E+06    -33.6139E+06    -33.0302E+06     7.14116E+06    -14.0752E+06    -1.43313E+06
             688     35.2869E-03     10.3754E-03     33.7271E-03     117.121E-03    -58.4094E-03    -58.6867E-03    -57.8392E-03     116.551E-03    -58.6867E-03     19.9507E-03     177.997E-03     42.9043E+06    -8.18845E+06    -33.0143E+06    -56.7502E+06    -35.2498E+06    -54.5148E+06    -8.18845E+06    -1.03753E+06
             689     35.0011E-03     9.43208E-03     33.7062E-03     117.128E-03    -58.3563E-03    -58.7832E-03    -57.9984E-03     116.770E-03    -58.7832E-03     15.4165E-03     164.432E-03     77.5176E+06    -6.34085E+06    -38.5050E+06    -94.6740E+06    -38.5326E+06    -94.6464E+06    -6.34085E+06     408.339E+03
             690     34.7464E-03     8.48811E-03     33.6937E-03     117.153E-03    -58.3507E-03    -58.8592E-03    -58.1955E-03     116.998E-03    -58.8592E-03     10.3214E-03     153.082E-03     104.404E+06    -6.62323E+06    -41.1120E+06    -123.796E+06    -41.2150E+06    -123.693E+06    -6.62323E+06     57.6391E+03
             691     34.5188E-03     7.54524E-03     33.6841E-03     117.318E-03    -58.4663E-03    -58.9122E-03    -58.3756E-03     117.228E-03    -58.9122E-03     7.92963E-03     144.678E-03     130.693E+06    -9.74465E+06    -41.5741E+06    -153.312E+06    -41.6655E+06    -153.220E+06    -9.74465E+06    -504.943E+03
             692     34.3177E-03     6.60150E-03     33.6767E-03     117.410E-03    -58.4849E-03    -58.9647E-03    -58.4369E-03     117.362E-03    -58.9647E-03     5.63663E-03     137.743E-03     155.460E+06    -15.1225E+06    -44.4647E+06    -183.129E+06    -44.4847E+06    -183.109E+06    -15.1225E+06     188.909E+03
             693     34.1444E-03     5.65817E-03     33.6723E-03     117.498E-03    -58.5299E-03    -58.9912E-03    -58.5111E-03     117.479E-03    -58.9912E-03     3.57938E-03     132.031E-03     167.586E+06    -23.9995E+06    -50.6562E+06    -203.299E+06    -50.6751E+06    -203.280E+06    -23.9995E+06    -109.202E+03
             694     33.9984E-03     4.71526E-03     33.6698E-03     117.712E-03    -58.7145E-03    -59.0162E-03    -58.7064E-03     117.704E-03    -59.0162E-03     2.27510E-03     127.620E-03     182.053E+06    -33.2240E+06    -56.3927E+06    -225.725E+06    -56.3949E+06    -225.723E+06    -33.2240E+06    -259.718E+03
             695     33.8784E-03     3.77205E-03     33.6677E-03     117.898E-03    -58.8592E-03    -59.0560E-03    -58.8946E-03     117.896E-03    -59.0185E-03     1.04040E-03     124.151E-03     193.070E+06    -42.1175E+06    -61.1152E+06    -243.970E+06    -61.1238E+06    -243.962E+06    -42.1175E+06    -668.119E+03
             696     33.7863E-03     2.82919E-03     33.6676E-03     117.796E-03    -58.7896E-03    -59.0207E-03    -58.8269E-03     117.796E-03    -58.9831E-03     405.454E-06     121.421E-03     192.546E+06    -52.4783E+06    -65.6960E+06    -251.266E+06    -65.7039E+06    -251.258E+06    -52.4783E+06    -881.910E+03
             697     33.7207E-03     1.88594E-03     33.6679E-03     117.723E-03    -58.7144E-03    -59.0190E-03    -58.7143E-03     117.723E-03    -59.0190E-03     161.989E-06     119.687E-03     192.849E+06    -62.9964E+06    -70.2059E+06    -259.335E+06    -70.2116E+06    -259.330E+06    -62.9964E+06    -14.9141E+03
             698     33.6810E-03     942.452E-06     33.6678E-03     118.084E-03    -58.8507E-03    -59.2402E-03    -59.0218E-03     118.084E-03    -59.0690E-03    -144.376E-06     119.155E-03     192.244E+06    -69.9473E+06    -73.0568E+06    -263.722E+06    -72.6514E+06    -263.704E+06    -70.3700E+06    -439.319E+03
             699     36.8696E-03     16.0393E-03     33.1980E-03     153.420E-03    -58.9033E-03    -94.5231E-03    -59.5636E-03     118.461E-03    -58.9033E-03     168.247E-03     449.276E-03     154.297E+06     155.842E+06     130.468E+06    -9.55837E+06    -9.55648E+06      155.84E+06     130.468E+06    -297.773E+03
             700     36.2364E-03     15.0984E-03     32.9411E-03     157.935E-03    -58.8773E-03    -99.2469E-03    -60.7346E-03     119.423E-03    -58.8773E-03     181.192E-03     424.723E-03     145.417E+06     141.244E+06     107.194E+06    -17.8296E+06    -17.8024E+06     141.216E+06     107.194E+06    -1.21562E+06
             701     35.7077E-03     14.1527E-03     32.7832E-03     131.401E-03    -58.7146E-03    -72.8550E-03    -57.8461E-03     116.392E-03    -58.7146E-03     102.639E-03     313.481E-03     133.434E+06     129.476E+06     68.0237E+06    -22.1148E+06    -22.0634E+06     129.425E+06     68.0237E+06    -1.74179E+06
             702     35.2791E-03     13.2081E-03     32.7133E-03     120.028E-03    -58.5085E-03    -61.5525E-03    -56.4569E-03     114.933E-03    -58.5085E-03     59.4380E-03     256.493E-03     129.324E+06     119.143E+06     23.5126E+06    -26.2271E+06    -26.1797E+06     119.096E+06     23.5126E+06    -10.9682E+03
             703     34.8822E-03     12.2620E-03     32.6559E-03     117.866E-03    -58.4510E-03    -59.4464E-03    -57.0094E-03     115.429E-03    -58.4510E-03     39.7498E-03     218.255E-03     101.148E+06     79.6928E+06    -8.69209E+06    -30.4802E+06    -30.4525E+06     79.6650E+06    -8.69209E+06     698.077E+03
             704     34.5341E-03     11.3200E-03     32.6261E-03     117.018E-03    -58.3516E-03    -58.6807E-03    -57.5900E-03     116.121E-03    -58.5457E-03     24.7213E-03     194.328E-03     48.7396E+06     19.1259E+06    -24.0535E+06    -33.6938E+06    -33.1346E+06     7.98080E+06    -13.4676E+06    -577.509E+03
             705     34.2139E-03     10.3753E-03     32.6028E-03     117.068E-03    -58.3753E-03    -58.6711E-03    -57.8052E-03     116.498E-03    -58.6711E-03     19.9393E-03     178.014E-03     43.6448E+06    -9.51824E+06    -33.9331E+06    -58.7928E+06    -36.1809E+06    -56.5449E+06    -9.51824E+06    -178.469E+03
             706     33.9205E-03     9.43190E-03     32.5828E-03     117.181E-03    -58.4535E-03    -58.7457E-03    -58.0898E-03     116.817E-03    -58.7457E-03     15.6014E-03     164.414E-03     74.6435E+06    -9.76311E+06    -38.1349E+06    -94.2157E+06    -38.2583E+06    -94.0924E+06    -9.76311E+06    -543.057E+03
             707     33.6580E-03     8.48869E-03     32.5700E-03     117.160E-03    -58.4118E-03    -58.8126E-03    -58.2480E-03     116.996E-03    -58.8126E-03     10.5972E-03     152.995E-03     101.209E+06    -9.60550E+06    -39.3370E+06    -122.229E+06    -39.5252E+06    -122.041E+06    -9.60550E+06    -2.03145E+06
             708     33.4228E-03     7.54485E-03     32.5601E-03     117.204E-03    -58.3876E-03    -58.8732E-03    -58.2974E-03     117.114E-03    -58.8732E-03     7.87630E-03     144.545E-03     129.763E+06    -12.8921E+06    -43.9939E+06    -155.337E+06    -44.0669E+06    -155.264E+06    -12.8921E+06    -1.01492E+06
             709     33.2155E-03     6.60194E-03     32.5528E-03     117.248E-03    -58.3463E-03    -58.9391E-03    -58.2999E-03     117.201E-03    -58.9391E-03     5.57307E-03     137.569E-03     152.866E+06    -17.5979E+06    -49.1658E+06    -183.749E+06    -49.1862E+06    -183.728E+06    -17.5979E+06     283.589E+03
             710     33.0365E-03     5.65835E-03     32.5483E-03     117.461E-03    -58.5023E-03    -58.9841E-03    -58.4830E-03     117.442E-03    -58.9841E-03     3.59081E-03     131.977E-03     166.517E+06    -23.4260E+06    -52.6136E+06    -202.583E+06    -52.6313E+06    -202.565E+06    -23.4260E+06     142.094E+03
             711     32.8853E-03     4.71489E-03     32.5455E-03     117.723E-03    -58.7267E-03    -59.0103E-03    -58.7189E-03     117.715E-03    -59.0103E-03     2.25391E-03     127.615E-03     182.507E+06    -31.6055E+06    -56.5468E+06    -225.268E+06    -56.5486E+06    -225.266E+06    -31.6055E+06    -73.5071E+03
             712     32.7616E-03     3.77229E-03     32.5437E-03     117.769E-03    -58.7628E-03    -59.0211E-03    -58.7601E-03     117.766E-03    -59.0211E-03     1.21488E-03     124.022E-03     192.691E+06    -41.9929E+06    -60.9512E+06    -243.435E+06    -60.9600E+06    -243.426E+06    -41.9929E+06    -703.336E+03
             713     32.6669E-03     2.82886E-03     32.5441E-03     117.816E-03    -58.7920E-03    -59.0373E-03    -58.8234E-03     117.815E-03    -59.0053E-03     378.104E-06     121.449E-03     192.742E+06    -53.4044E+06    -65.6722E+06    -251.968E+06    -65.6795E+06    -251.960E+06    -53.4044E+06    -763.022E+03
             714     32.5983E-03     1.88580E-03     32.5437E-03     117.924E-03    -58.8589E-03    -59.0763E-03    -58.9542E-03     117.924E-03    -58.9808E-03    -37.7342E-06     119.884E-03     193.585E+06    -63.1030E+06    -69.6877E+06    -259.878E+06    -69.6944E+06    -259.872E+06    -63.1030E+06    -21.6715E+03
             715     32.5578E-03     943.211E-06     32.5441E-03     117.874E-03    -58.6970E-03    -59.1841E-03    -59.1365E-03     117.874E-03    -58.7446E-03    -30.0424E-06     118.924E-03     192.628E+06    -70.0312E+06    -72.4332E+06    -263.845E+06    -72.0310E+06    -263.824E+06    -70.4539E+06    -368.400E+03
             716     35.8541E-03     16.0387E-03     32.0668E-03     153.690E-03    -58.9044E-03    -94.8222E-03    -59.9310E-03     118.799E-03    -58.9044E-03     168.867E-03     449.818E-03     154.903E+06     156.507E+06     131.882E+06    -9.22849E+06    -9.22390E+06     156.503E+06     131.882E+06    -35.3544E+03
             717     35.2159E-03     15.0970E-03     31.8157E-03     157.605E-03    -58.8648E-03    -98.9089E-03    -60.3771E-03     119.073E-03    -58.8648E-03     181.436E-03     423.983E-03     145.099E+06     142.549E+06     107.683E+06    -16.3092E+06    -16.2942E+06     142.534E+06     107.683E+06    -1.02614E+06
             718     34.6811E-03     14.1523E-03     31.6622E-03     131.565E-03    -58.7250E-03    -72.9887E-03    -57.4720E-03     116.048E-03    -58.7250E-03     103.922E-03     313.455E-03     133.395E+06     128.723E+06     66.6816E+06    -23.2096E+06    -23.1663E+06     128.680E+06     66.6816E+06    -1.21636E+06
             719     34.2378E-03     13.2063E-03     31.5883E-03     120.455E-03    -58.5311E-03    -61.9339E-03    -56.9986E-03     115.519E-03    -58.5311E-03     58.5207E-03     257.644E-03     129.221E+06     116.363E+06     23.1115E+06    -29.6124E+06     -29.539E+06     116.290E+06     23.1115E+06    -523.677E+03
             720     33.8337E-03     12.2645E-03     31.5325E-03     117.892E-03    -58.3292E-03    -59.5766E-03    -57.0856E-03     115.525E-03    -58.4532E-03     39.5196E-03     218.371E-03     101.575E+06     80.1060E+06    -7.23642E+06    -31.2538E+06    -31.1813E+06     80.0336E+06    -7.23642E+06     437.516E+03
             721     33.4732E-03     11.3188E-03     31.5014E-03     116.922E-03    -58.3513E-03    -58.5951E-03    -57.4547E-03     115.977E-03    -58.5471E-03     25.2206E-03     194.429E-03     50.3188E+06     21.0970E+06    -24.3390E+06    -32.8546E+06    -32.8011E+06     8.62466E+06    -11.9201E+06     637.818E+03
             722     33.1453E-03     10.3760E-03     31.4794E-03     117.177E-03    -58.4675E-03    -58.7048E-03    -57.9416E-03     116.607E-03    -58.6605E-03     19.9591E-03     178.273E-03     43.7728E+06    -8.67975E+06    -32.5392E+06    -57.1520E+06    -34.2617E+06    -55.4295E+06    -8.67975E+06    -1.26537E+06
             723     32.8419E-03     9.43194E-03     31.4584E-03     117.159E-03    -58.4546E-03    -58.7212E-03    -58.0871E-03     116.791E-03    -58.7212E-03     15.6684E-03     164.407E-03     74.1529E+06    -10.0166E+06    -34.1862E+06    -93.1804E+06    -34.5576E+06     -92.809E+06    -10.0166E+06    -2.71702E+06
             724     32.5714E-03     8.48853E-03     31.4458E-03     117.168E-03    -58.4202E-03    -58.8091E-03    -58.2580E-03     117.006E-03    -58.8091E-03     10.5352E-03     153.115E-03     104.429E+06    -8.04105E+06    -38.2359E+06    -124.216E+06    -38.3564E+06    -124.095E+06    -8.04105E+06    -569.974E+03
             725     32.3293E-03     7.54569E-03     31.4364E-03     117.177E-03    -58.3522E-03    -58.8775E-03    -58.2628E-03     117.087E-03    -58.8775E-03     7.85249E-03     144.576E-03     132.928E+06    -9.10737E+06    -43.7006E+06    -155.856E+06    -43.7199E+06    -155.837E+06    -9.10737E+06     639.099E+03
             726     32.1151E-03     6.60163E-03     31.4292E-03     117.329E-03    -58.4378E-03    -58.9219E-03    -58.3912E-03     117.282E-03    -58.9219E-03     5.55659E-03     137.667E-03     153.794E+06    -15.6807E+06    -48.0359E+06    -183.030E+06    -48.0498E+06    -183.017E+06    -15.6807E+06    -798.584E+03
             727     31.9304E-03     5.65844E-03     31.4250E-03     117.455E-03    -58.5295E-03    -58.9438E-03    -58.5107E-03     117.436E-03    -58.9438E-03     3.55597E-03     131.926E-03     166.631E+06    -23.8528E+06    -52.1173E+06    -202.778E+06    -52.1289E+06    -202.766E+06    -23.8528E+06    -1.04784E+06
             728     31.7733E-03     4.71564E-03     31.4215E-03     117.517E-03    -58.5430E-03    -58.9849E-03    -58.5360E-03     117.510E-03    -58.9849E-03     2.08518E-03     127.409E-03     182.559E+06    -31.8330E+06    -56.0974E+06    -225.277E+06    -56.1032E+06    -225.272E+06    -31.8330E+06    -775.433E+03
             729     31.6465E-03     3.77168E-03     31.4210E-03     117.658E-03    -58.6480E-03    -59.0255E-03    -58.6461E-03     117.656E-03    -59.0255E-03     1.09862E-03     123.937E-03     192.624E+06    -42.5746E+06    -60.7790E+06    -243.623E+06    -60.7818E+06    -243.620E+06    -42.5746E+06    -414.994E+03
             730     31.5463E-03     2.82886E-03     31.4193E-03     117.895E-03    -58.8602E-03    -59.0519E-03    -58.9037E-03     117.895E-03    -59.0077E-03     440.090E-06     121.509E-03     192.397E+06    -54.9342E+06    -65.4658E+06    -252.355E+06    -65.4667E+06    -252.354E+06    -54.9342E+06    -128.040E+03
             731     31.4769E-03     1.88633E-03     31.4203E-03     118.003E-03    -58.9353E-03    -59.0800E-03    -59.0798E-03     118.003E-03    -58.9353E-03     78.4095E-06     119.938E-03     194.190E+06    -63.7101E+06    -68.7317E+06    -260.353E+06    -68.7387E+06    -260.346E+06    -63.7101E+06    -73.9898E+03
             732     31.4337E-03     943.257E-06     31.4195E-03     117.719E-03    -58.5839E-03    -59.1403E-03    -59.1401E-03     117.719E-03    -58.5839E-03    -70.4277E-06     118.753E-03     192.960E+06    -70.1705E+06    -72.1241E+06    -264.098E+06    -72.1325E+06    -264.089E+06    -70.1705E+06     400.039E+03
             733     34.8564E-03     16.0437E-03     30.9446E-03     153.377E-03    -58.8358E-03    -94.6254E-03    -59.5794E-03     118.331E-03    -58.8358E-03     168.552E-03     448.793E-03     153.565E+06     157.149E+06     132.552E+06    -7.22972E+06    -7.22487E+06     157.144E+06     132.552E+06     387.793E+03
             734     34.2033E-03     15.0954E-03     30.6920E-03     156.134E-03    -58.8361E-03    -97.4765E-03    -59.1935E-03     117.851E-03    -58.8361E-03     179.360E-03     423.443E-03     144.650E+06     142.687E+06     106.738E+06    -16.0704E+06    -16.0511E+06     142.668E+06     106.738E+06    -432.614E+03
             735     33.6576E-03     14.1500E-03     30.5387E-03     131.340E-03    -58.7193E-03    -72.7604E-03    -57.6486E-03     116.228E-03    -58.7193E-03     102.757E-03     313.813E-03     133.776E+06     128.314E+06     64.7286E+06    -24.0996E+06    -24.0595E+06     128.274E+06     64.7286E+06    -560.817E+03
             736     33.2023E-03     13.2095E-03     30.4615E-03     120.391E-03    -58.5253E-03    -61.8616E-03    -56.9219E-03     115.451E-03    -58.5253E-03     58.5053E-03     257.571E-03     129.540E+06     116.860E+06     22.1852E+06    -29.2866E+06    -29.2376E+06     116.811E+06     22.1852E+06    -769.383E+03
             737     32.7913E-03     12.2630E-03     30.4120E-03     117.920E-03    -58.3279E-03    -59.5947E-03    -57.0679E-03     115.517E-03    -58.4519E-03     40.0159E-03     218.384E-03     101.329E+06     78.8942E+06    -8.75124E+06    -31.9410E+06    -31.8856E+06     78.8387E+06    -8.75124E+06     67.2268E+03
             738     32.4169E-03     11.3192E-03     30.3765E-03     116.996E-03    -58.2394E-03    -58.8017E-03    -57.5139E-03     116.012E-03    -58.5435E-03     25.6446E-03     194.256E-03     49.5062E+06     20.5082E+06    -23.6707E+06    -32.7106E+06    -32.6512E+06     9.21610E+06    -12.4380E+06     273.419E+03
             739     32.0798E-03     10.3755E-03     30.3556E-03     117.157E-03    -58.4498E-03    -58.7174E-03    -57.9422E-03     116.594E-03    -58.6618E-03     19.8524E-03     178.270E-03     41.8503E+06    -7.60507E+06    -32.1880E+06    -54.5040E+06    -34.8217E+06    -51.8704E+06    -7.60507E+06    -1.81412E+06
             740     31.7677E-03     9.43238E-03     30.3350E-03     117.171E-03    -58.4424E-03    -58.7316E-03    -58.0729E-03     116.790E-03    -58.7203E-03     15.9765E-03     164.451E-03     73.7244E+06    -11.5615E+06    -39.3898E+06    -94.9011E+06    -39.6622E+06    -94.6286E+06    -11.5615E+06    -1.92114E+06
             741     31.4876E-03     8.48901E-03     30.3217E-03     117.070E-03    -58.3276E-03    -58.7975E-03    -58.1562E-03     116.899E-03    -58.7975E-03     10.8062E-03     152.995E-03     103.214E+06    -11.1311E+06    -41.8352E+06    -126.146E+06    -41.9284E+06    -126.053E+06    -11.1311E+06    -1.06998E+06
             742     31.2375E-03     7.54487E-03     30.3127E-03     117.285E-03    -58.4760E-03    -58.8648E-03    -58.3835E-03     117.192E-03    -58.8648E-03     7.98963E-03     144.696E-03     131.833E+06    -9.99457E+06    -42.2147E+06    -154.867E+06    -42.3072E+06    -154.774E+06    -9.99457E+06    -1.50434E+06
             743     31.0162E-03     6.60221E-03     30.3053E-03     117.453E-03    -58.5851E-03    -58.8993E-03    -58.5368E-03     117.405E-03    -58.8993E-03     5.67884E-03     137.782E-03     154.581E+06    -15.8691E+06    -45.0520E+06    -182.908E+06    -45.0664E+06    -182.893E+06    -15.8691E+06    -714.630E+03
             744     30.8247E-03     5.65920E-03     30.3008E-03     117.390E-03    -58.5035E-03    -58.9050E-03    -58.4838E-03     117.370E-03    -58.9050E-03     3.62207E-03     131.861E-03     166.453E+06    -25.5670E+06    -50.0026E+06    -202.867E+06    -50.0111E+06    -202.858E+06    -25.5670E+06    -439.461E+03
             745     30.6632E-03     4.71510E-03     30.2985E-03     117.435E-03    -58.4976E-03    -58.9518E-03    -58.4900E-03     117.427E-03    -58.9518E-03     2.20777E-03     127.323E-03     182.771E+06    -33.2065E+06    -55.3836E+06    -226.046E+06    -55.3898E+06    -226.040E+06    -33.2065E+06    -532.857E+03
             746     30.5307E-03     3.77243E-03     30.2967E-03     117.662E-03    -58.6855E-03    -58.9937E-03    -58.6834E-03     117.660E-03    -58.9937E-03     1.13417E-03     123.903E-03     193.233E+06    -42.3712E+06    -60.9614E+06    -244.205E+06    -60.9641E+06    -244.202E+06    -42.3712E+06     105.125E+03
             747     30.4279E-03     2.82891E-03     30.2961E-03     117.765E-03    -58.7929E-03    -58.9878E-03    -58.8047E-03     117.765E-03    -58.9756E-03     397.967E-06     121.378E-03     192.476E+06    -54.7727E+06    -65.8719E+06    -252.518E+06    -65.8781E+06    -252.511E+06    -54.7727E+06     505.344E+03
             748     30.3538E-03     1.88569E-03     30.2952E-03     117.857E-03    -58.8673E-03    -59.0007E-03    -58.9163E-03     117.857E-03    -58.9514E-03    -43.1142E-06     119.817E-03     193.636E+06    -64.3084E+06    -69.8262E+06    -260.638E+06    -69.8363E+06    -260.628E+06    -64.3084E+06     764.833E+03
             749     30.3115E-03     943.004E-06     30.2968E-03     117.843E-03    -58.7297E-03    -59.1179E-03    -59.1101E-03     117.843E-03    -58.7371E-03    -314.158E-06     118.901E-03     192.185E+06    -68.9962E+06    -72.1343E+06    -262.727E+06    -71.4536E+06    -262.723E+06    -69.6812E+06     434.467E+03
             750     33.8628E-03     16.0425E-03     29.8217E-03     153.688E-03    -58.7974E-03    -94.9499E-03    -59.8706E-03     118.609E-03    -58.7974E-03     168.748E-03     449.185E-03     154.581E+06     157.629E+06     132.451E+06    -7.98919E+06    -7.97265E+06     157.612E+06     132.451E+06     468.484E+03
             751     33.2029E-03     15.0985E-03     29.5714E-03     156.800E-03    -58.7838E-03    -98.1744E-03    -59.5261E-03     118.151E-03    -58.7838E-03     180.714E-03     423.160E-03     145.720E+06     143.548E+06     106.794E+06    -16.5878E+06    -16.5672E+06     143.528E+06     106.794E+06     687.358E+03
             752     32.6415E-03     14.1549E-03     29.4127E-03     130.748E-03    -58.6839E-03    -72.2046E-03    -56.7975E-03     115.341E-03    -58.6839E-03     103.658E-03     312.876E-03     133.585E+06     128.483E+06     63.1352E+06    -23.6307E+06    -23.5980E+06     128.450E+06     63.1352E+06    -92.3142E+03
             753     32.1759E-03     13.2054E-03     29.3412E-03     120.140E-03    -58.5333E-03    -61.6118E-03    -56.4306E-03     114.959E-03    -58.5333E-03     59.7443E-03     257.215E-03     129.391E+06     116.955E+06     19.2064E+06    -28.3272E+06    -28.2925E+06     116.921E+06     19.2064E+06    -204.303E+03
             754     31.7489E-03     12.2629E-03     29.2850E-03     118.558E-03    -58.4682E-03    -60.1112E-03    -57.6833E-03     116.130E-03    -58.4682E-03     40.0756E-03     219.072E-03     101.064E+06     78.4092E+06    -10.5839E+06    -31.3349E+06    -31.3209E+06     78.3953E+06    -10.5839E+06    -62.4329E+03
             755     31.3680E-03     11.3200E-03     29.2542E-03     117.082E-03    -58.2391E-03    -58.9064E-03    -57.6662E-03     116.136E-03    -58.5339E-03     25.3550E-03     194.183E-03     48.2628E+06     19.3046E+06    -22.3302E+06    -33.2347E+06    -33.1983E+06     10.5777E+06    -13.6396E+06    -444.056E+03
             756     31.0175E-03     10.3753E-03     29.2308E-03     116.943E-03    -58.2785E-03    -58.6857E-03    -57.7127E-03     116.366E-03    -58.6743E-03     20.0465E-03     177.884E-03     43.3020E+06    -6.93584E+06    -31.2041E+06    -56.6172E+06    -36.1346E+06    -51.6867E+06    -6.93584E+06     292.947E+03
             757     30.6961E-03     9.43198E-03     29.2111E-03     117.162E-03    -58.4282E-03    -58.7453E-03    -58.0695E-03     116.792E-03    -58.7340E-03     15.7634E-03     164.494E-03     72.7783E+06    -11.7835E+06    -39.5019E+06    -93.9402E+06    -39.5795E+06    -93.8626E+06    -11.7835E+06    -561.240E+03
             758     30.4067E-03     8.48817E-03     29.1979E-03     117.106E-03    -58.3869E-03    -58.7734E-03    -58.2124E-03     116.931E-03    -58.7734E-03     10.9381E-03     152.898E-03     97.4675E+06    -17.2049E+06    -42.1873E+06    -124.646E+06    -42.3926E+06    -124.441E+06    -17.2049E+06    -3.97328E+06
             759     30.1479E-03     7.54558E-03     29.1884E-03     117.302E-03    -58.5130E-03    -58.8439E-03    -58.4159E-03     117.205E-03    -58.8439E-03     8.16625E-03     144.649E-03     129.014E+06    -17.0147E+06    -44.6821E+06    -157.606E+06    -44.8504E+06    -157.438E+06    -17.0147E+06    -3.57283E+06
             760     29.9191E-03     6.60205E-03     29.1816E-03     117.387E-03    -58.5264E-03    -58.8979E-03    -58.4754E-03     117.336E-03    -58.8979E-03     5.89443E-03     137.695E-03     152.715E+06    -19.9275E+06    -48.4198E+06    -184.850E+06    -48.4332E+06    -184.837E+06    -19.9275E+06    -467.368E+03
             761     29.7207E-03     5.65842E-03     29.1771E-03     117.444E-03    -58.5578E-03    -58.9115E-03    -58.5353E-03     117.421E-03    -58.9115E-03     3.85137E-03     131.892E-03     163.966E+06    -27.5508E+06    -52.1069E+06    -202.368E+06    -52.1103E+06    -202.364E+06    -27.5508E+06     162.004E+03
             762     29.5533E-03     4.71576E-03     29.1746E-03     117.624E-03    -58.7037E-03    -58.9386E-03    -58.6958E-03     117.616E-03    -58.9386E-03     2.28810E-03     127.501E-03     182.389E+06    -33.9663E+06    -56.0541E+06    -226.389E+06    -56.0557E+06    -226.387E+06    -33.9663E+06     4.13047E+03
             763     29.4155E-03     3.77201E-03     29.1727E-03     117.698E-03    -58.7621E-03    -58.9555E-03    -58.7597E-03     117.696E-03    -58.9555E-03     1.17573E-03     123.964E-03     194.436E+06    -41.3918E+06    -60.9248E+06    -244.842E+06    -60.9330E+06    -244.834E+06    -41.3918E+06     775.736E+03
             764     29.3089E-03     2.82945E-03     29.1720E-03     117.668E-03    -58.7575E-03    -58.9260E-03    -58.7592E-03     117.667E-03    -58.9241E-03     333.440E-06     121.328E-03     193.536E+06    -52.3439E+06    -66.1482E+06    -252.384E+06    -66.1612E+06    -252.371E+06    -52.3439E+06     1.23924E+06
             765     29.2331E-03     1.88618E-03     29.1722E-03     117.654E-03    -58.7448E-03    -58.9193E-03    -58.7466E-03     117.654E-03    -58.9174E-03    -184.967E-06     119.624E-03     193.198E+06    -62.3211E+06    -69.7682E+06    -259.098E+06    -69.7741E+06    -259.092E+06    -62.3211E+06     595.646E+03
             766     29.1871E-03     942.965E-06     29.1718E-03     117.821E-03    -58.7247E-03    -59.1001E-03    -58.8171E-03     117.820E-03    -59.0074E-03    -350.558E-06     118.883E-03     191.213E+06    -69.8405E+06    -72.8738E+06    -262.547E+06    -72.1890E+06    -262.547E+06    -70.5255E+06    -66.1056E+03
             767     32.8779E-03     16.0410E-03     28.6992E-03     153.567E-03    -58.8543E-03    -94.7791E-03    -59.5230E-03     118.310E-03    -58.8543E-03     169.116E-03     449.596E-03     153.831E+06     156.807E+06     132.053E+06    -7.88949E+06    -7.87426E+06     156.792E+06     132.053E+06     248.287E+03
             768     32.2015E-03     15.0972E-03     28.4431E-03     157.369E-03    -58.8658E-03    -98.7275E-03    -59.4076E-03     118.049E-03    -58.8658E-03     182.751E-03     423.541E-03     144.375E+06     144.099E+06     107.226E+06    -14.5647E+06    -14.5161E+06     144.050E+06     107.226E+06     1.34849E+06
             769     31.6354E-03     14.1499E-03     28.2945E-03     131.965E-03    -58.7515E-03    -73.3755E-03    -57.3781E-03     115.967E-03    -58.7515E-03     105.790E-03     313.675E-03     133.506E+06     129.249E+06     62.8260E+06    -23.0213E+06    -22.9752E+06     129.203E+06     62.8260E+06     1.10136E+06
             770     31.1537E-03     13.2069E-03     28.2158E-03     121.004E-03    -58.5488E-03    -62.4617E-03    -57.2921E-03     115.835E-03    -58.5488E-03     59.9284E-03     257.596E-03     129.702E+06     116.868E+06     18.2107E+06    -28.4538E+06    -28.4193E+06     116.833E+06     18.2107E+06     704.921E+03
             771     30.7146E-03     12.2630E-03     28.1603E-03     118.292E-03    -58.4211E-03    -59.9054E-03    -57.4898E-03     115.928E-03    -58.4726E-03     39.5070E-03     218.795E-03     101.227E+06     78.5803E+06    -11.1039E+06    -31.1298E+06    -31.0814E+06     78.5319E+06    -11.1039E+06    -105.063E+03
             772     30.3220E-03     11.3191E-03     28.1301E-03     117.099E-03    -58.3854E-03    -58.7634E-03    -57.6503E-03     116.152E-03    -58.5517E-03     25.4517E-03     194.148E-03     47.6271E+06     18.6885E+06    -22.6623E+06    -33.1213E+06    -32.9277E+06     10.0069E+06    -14.1743E+06    -150.365E+03
             773     29.9619E-03     10.3758E-03     28.1079E-03     117.202E-03    -58.4692E-03    -58.7427E-03    -57.9293E-03     116.604E-03    -58.6849E-03     20.4170E-03     177.927E-03     42.9402E+06    -6.37131E+06    -29.7521E+06    -55.4757E+06    -33.8452E+06    -51.3827E+06    -6.37131E+06     321.173E+03
             774     29.6282E-03     9.43175E-03     28.0868E-03     117.195E-03    -58.4760E-03    -58.7420E-03    -58.1188E-03     116.833E-03    -58.7374E-03     15.5209E-03     164.467E-03     72.2245E+06    -9.39218E+06    -34.8033E+06    -90.5356E+06    -34.9412E+06    -90.3977E+06    -9.39218E+06    -1.59204E+06
             775     29.3299E-03     8.48896E-03     28.0745E-03     117.119E-03    -58.3935E-03    -58.7845E-03    -58.2274E-03     116.953E-03    -58.7845E-03     10.7212E-03     152.835E-03     99.4780E+06    -14.9698E+06    -38.1997E+06    -123.982E+06    -38.3852E+06    -123.796E+06    -14.9698E+06    -2.13688E+06
             776     29.0608E-03     7.54470E-03     28.0643E-03     117.216E-03    -58.4089E-03    -58.8662E-03    -58.3123E-03     117.119E-03    -58.8662E-03     8.11033E-03     144.470E-03     131.898E+06    -16.9402E+06    -45.0687E+06    -160.625E+06    -45.1948E+06    -160.499E+06    -16.9402E+06    -1.39833E+06
             777     28.8240E-03     6.60160E-03     28.0578E-03     117.386E-03    -58.5017E-03    -58.9219E-03    -58.4552E-03     117.339E-03    -58.9219E-03     5.58866E-03     137.689E-03     153.496E+06    -19.8557E+06    -50.0310E+06    -186.176E+06    -50.0563E+06    -186.151E+06    -19.8557E+06    -1.52464E+06
             778     28.6182E-03     5.65855E-03     28.0532E-03     117.565E-03    -58.6621E-03    -58.9286E-03    -58.6418E-03     117.545E-03    -58.9286E-03     3.69652E-03     131.997E-03     164.099E+06    -26.8612E+06    -53.5486E+06    -202.636E+06    -53.5638E+06    -202.621E+06    -26.8612E+06    -709.981E+03
             779     28.4439E-03     4.71523E-03     28.0503E-03     117.760E-03    -58.8386E-03    -58.9355E-03    -58.8345E-03     117.753E-03    -58.9321E-03     2.15926E-03     127.628E-03     181.938E+06    -34.0171E+06    -57.7924E+06    -226.662E+06    -57.7931E+06    -226.661E+06    -34.0171E+06    -169.208E+03
             780     28.3019E-03     3.77300E-03     28.0493E-03     117.690E-03    -58.7794E-03    -58.9244E-03    -58.7809E-03     117.688E-03    -58.9210E-03     1.11126E-03     123.953E-03     194.033E+06    -42.2256E+06    -62.2378E+06    -245.466E+06    -62.2458E+06    -245.458E+06    -42.2256E+06     524.646E+03
             781     28.1904E-03     2.82911E-03     28.0481E-03     117.571E-03    -58.6952E-03    -58.8907E-03    -58.6965E-03     117.570E-03    -58.8888E-03     535.648E-06     121.190E-03     193.248E+06    -51.9358E+06    -65.7461E+06    -251.695E+06    -65.7541E+06    -251.687E+06    -51.9358E+06     784.657E+03
             782     28.1114E-03     1.88640E-03     28.0481E-03     117.599E-03    -58.7113E-03    -58.8967E-03    -58.7132E-03     117.598E-03    -58.8947E-03     49.5631E-06     119.514E-03     193.324E+06    -61.2525E+06    -69.2181E+06    -258.401E+06    -69.2197E+06    -258.399E+06    -61.2525E+06     297.881E+03
             783     28.0652E-03     942.853E-06     28.0493E-03     117.772E-03    -58.6140E-03    -59.1622E-03    -58.8642E-03     117.772E-03    -58.9119E-03    -29.3766E-06     118.817E-03     191.096E+06    -70.1227E+06    -73.3730E+06    -262.814E+06    -72.8191E+06    -262.809E+06    -70.6811E+06     564.664E+03
             784     31.8966E-03     16.0409E-03     27.5696E-03     152.515E-03    -58.9174E-03    -93.6750E-03    -58.5776E-03     117.418E-03    -58.9174E-03     168.180E-03     449.699E-03     152.260E+06     155.504E+06     131.593E+06    -7.29334E+06    -7.29134E+06     155.502E+06     131.593E+06    -151.065E+03
             785     31.2173E-03     15.0927E-03     27.3264E-03     156.559E-03    -58.9665E-03    -97.8534E-03    -59.1361E-03     117.841E-03    -58.9665E-03     180.732E-03     424.119E-03     143.777E+06     142.128E+06     106.047E+06    -15.6575E+06    -15.6202E+06     142.091E+06     106.047E+06     784.918E+03
             786     30.6287E-03     14.1485E-03     27.1650E-03     132.674E-03    -58.8177E-03    -74.0558E-03    -58.4686E-03     117.087E-03    -58.8177E-03     104.535E-03     314.115E-03     134.160E+06     130.622E+06     64.5372E+06    -22.3694E+06    -22.2735E+06     130.526E+06     64.5372E+06     2.03995E+06
             787     30.1398E-03     13.2079E-03     27.0917E-03     121.190E-03    -58.5563E-03    -62.6531E-03    -57.7224E-03     116.259E-03    -58.5563E-03     58.8369E-03     257.657E-03     129.978E+06     118.248E+06     20.2982E+06    -27.7001E+06    -27.6141E+06     118.162E+06     20.2982E+06     1.57832E+06
             788     29.6888E-03     12.2631E-03     27.0378E-03     118.060E-03    -58.4207E-03    -59.6759E-03    -57.2700E-03     115.706E-03    -58.4722E-03     39.2950E-03     218.399E-03     101.048E+06     79.7264E+06    -9.52096E+06    -29.9229E+06    -29.8721E+06     79.6756E+06    -9.52096E+06    -107.175E+03
             789     29.2816E-03     11.3183E-03     27.0057E-03     117.008E-03    -58.3723E-03    -58.6643E-03    -57.5773E-03     116.104E-03    -58.5560E-03     24.7856E-03     193.911E-03     47.3363E+06     19.4391E+06    -22.9196E+06    -31.5974E+06    -30.6136E+06     8.85945E+06    -13.3238E+06    -682.716E+03
             790     28.9093E-03     10.3751E-03     26.9834E-03     117.266E-03    -58.5175E-03    -58.7391E-03    -58.0028E-03     116.693E-03    -58.6814E-03     20.0032E-03     177.961E-03     41.0387E+06    -6.16071E+06    -30.1687E+06    -52.8347E+06    -32.2042E+06    -50.7992E+06    -6.16071E+06    -895.657E+03
             791     28.5654E-03     9.43235E-03     26.9632E-03     117.272E-03    -58.5384E-03    -58.7502E-03    -58.1784E-03     116.907E-03    -58.7456E-03     15.6035E-03     164.440E-03     72.9978E+06    -7.00528E+06    -35.8761E+06    -89.7881E+06    -35.9760E+06    -89.6882E+06    -7.00528E+06    -709.277E+03
             792     28.2555E-03     8.48824E-03     26.9504E-03     117.183E-03    -58.4448E-03    -58.7954E-03    -58.2822E-03     117.020E-03    -58.7954E-03     10.5755E-03     152.914E-03     101.481E+06    -12.2468E+06    -40.8555E+06    -124.798E+06    -40.9466E+06    -124.707E+06    -12.2468E+06     599.709E+03
             793     27.9774E-03     7.54540E-03     26.9407E-03     117.281E-03    -58.4820E-03    -58.8580E-03    -58.3947E-03     117.194E-03    -58.8580E-03     7.70378E-03     144.459E-03     132.608E+06    -14.3117E+06    -43.9136E+06    -159.161E+06    -43.9545E+06    -159.120E+06    -14.3117E+06    -200.975E+03
             794     27.7306E-03     6.60188E-03     26.9333E-03     117.400E-03    -58.5342E-03    -58.8990E-03    -58.4948E-03     117.360E-03    -58.8990E-03     5.12499E-03     137.657E-03     155.792E+06    -18.6471E+06    -47.7813E+06    -186.914E+06    -47.8070E+06    -186.888E+06    -18.6471E+06    -1.53365E+06
             795     27.5173E-03     5.65869E-03     26.9292E-03     117.440E-03    -58.5608E-03    -58.9005E-03    -58.5432E-03     117.422E-03    -58.9005E-03     3.49232E-03     131.847E-03     165.187E+06    -27.1869E+06    -53.2341E+06    -203.842E+06    -53.2493E+06    -203.826E+06    -27.1869E+06    -704.141E+03
             796     27.3355E-03     4.71582E-03     26.9257E-03     117.574E-03    -58.6643E-03    -58.9217E-03    -58.6597E-03     117.566E-03    -58.9182E-03     2.21257E-03     127.392E-03     181.396E+06    -35.0685E+06    -58.5492E+06    -227.038E+06    -58.5510E+06    -227.036E+06    -35.0685E+06     67.1804E+03
             797     27.1881E-03     3.77222E-03     26.9252E-03     117.696E-03    -58.7718E-03    -58.9365E-03    -58.7948E-03     117.694E-03    -58.9115E-03     1.15174E-03     123.897E-03     192.176E+06    -44.6123E+06    -62.9904E+06    -245.285E+06    -62.9968E+06    -245.279E+06    -44.6123E+06    -249.717E+03
             798     27.0729E-03     2.82961E-03     26.9246E-03     117.566E-03    -58.6814E-03    -58.8982E-03    -58.7023E-03     117.566E-03    -58.8766E-03     514.684E-06     121.108E-03     191.583E+06    -54.7373E+06    -66.0643E+06    -251.706E+06    -66.0700E+06    -251.700E+06    -54.7373E+06    -579.190E+03
             799     26.9906E-03     1.88574E-03     26.9247E-03     117.632E-03    -58.7168E-03    -58.9252E-03    -58.7690E-03     117.632E-03    -58.8729E-03     8.18357E-06     119.514E-03     192.740E+06    -62.5225E+06    -69.3530E+06    -258.582E+06    -69.3549E+06    -258.580E+06    -62.5225E+06    -36.7615E+03
             800     26.9413E-03     943.167E-06     26.9248E-03     117.700E-03    -58.4106E-03    -59.2960E-03    -59.2730E-03     117.700E-03    -58.4332E-03    -125.728E-06     118.713E-03     190.612E+06    -68.7460E+06    -73.1447E+06    -261.514E+06    -72.5907E+06    -261.510E+06    -69.3044E+06     645.415E+03
             801     30.9346E-03     16.0399E-03     26.4513E-03     152.094E-03    -58.9236E-03    -93.2634E-03    -58.4666E-03     117.297E-03    -58.9236E-03     166.835E-03     449.469E-03     153.075E+06     154.904E+06     130.557E+06    -8.88466E+06    -8.88069E+06     154.900E+06     130.557E+06    -345.392E+03
             802     30.2386E-03     15.0955E-03     26.2010E-03     157.568E-03    -58.9449E-03    -98.8893E-03    -60.1138E-03     118.792E-03    -58.9449E-03     181.511E-03     425.039E-03     145.465E+06     141.757E+06     105.715E+06    -17.8726E+06    -17.8361E+06     141.720E+06     105.715E+06     576.020E+03
             803     29.6380E-03     14.1529E-03     26.0405E-03     132.428E-03    -58.7702E-03    -73.8718E-03    -58.5466E-03     117.102E-03    -58.7702E-03     103.695E-03     313.143E-03     134.929E+06     130.362E+06     65.7596E+06    -23.3212E+06    -23.2182E+06     130.259E+06     65.7596E+06     1.58852E+06
             804     29.1319E-03     13.2057E-03     25.9669E-03     120.173E-03    -58.5317E-03    -61.6705E-03    -56.9256E-03     115.428E-03    -58.5317E-03     57.3962E-03     256.908E-03     130.322E+06     119.933E+06     22.0854E+06    -26.2697E+06    -26.1896E+06     119.853E+06     22.0854E+06     701.584E+03
             805     28.6681E-03     12.2631E-03     25.9128E-03     118.168E-03    -58.4605E-03    -59.7474E-03    -57.4419E-03     115.862E-03    -58.4605E-03     39.0121E-03     218.573E-03     101.274E+06     81.1582E+06    -8.71314E+06    -28.5250E+06    -28.5110E+06     81.1442E+06    -8.71314E+06    -106.403E+03
             806     28.2495E-03     11.3204E-03     25.8821E-03     117.110E-03    -58.3615E-03    -58.7717E-03    -57.7019E-03     116.207E-03    -58.5291E-03     24.7344E-03     193.904E-03     47.7762E+06     20.8188E+06    -21.8653E+06    -30.7100E+06    -29.9128E+06     10.1750E+06    -12.0187E+06    -684.371E+03
             807     27.8631E-03     10.3758E-03     25.8591E-03     117.024E-03    -58.3584E-03    -58.6538E-03    -57.8067E-03     116.473E-03    -58.6538E-03     19.6225E-03     177.754E-03     42.2611E+06    -6.21304E+06    -30.4326E+06    -54.2568E+06    -32.8217E+06    -51.8678E+06    -6.21304E+06    -615.416E+03
             808     27.5065E-03     9.43149E-03     25.8390E-03     117.225E-03    -58.5065E-03    -58.7391E-03    -58.1608E-03     116.880E-03    -58.7391E-03     15.1040E-03     164.423E-03     76.7480E+06    -5.55137E+06    -37.0976E+06    -92.9536E+06    -37.1895E+06    -92.8616E+06    -5.55137E+06     1.82673E+06
             809     27.1859E-03     8.48904E-03     25.8266E-03     117.240E-03    -58.5234E-03    -58.7716E-03    -58.3749E-03     117.092E-03    -58.7716E-03     10.1283E-03     152.991E-03     100.321E+06    -10.3659E+06    -40.8685E+06    -122.206E+06    -40.9646E+06    -122.110E+06    -10.3659E+06     1.23236E+06
             810     26.8967E-03     7.54554E-03     25.8166E-03     117.257E-03    -58.5127E-03    -58.7945E-03    -58.4258E-03     117.170E-03    -58.7945E-03     7.72542E-03     144.407E-03     128.659E+06    -17.1577E+06    -44.9879E+06    -157.392E+06    -44.9984E+06    -157.381E+06    -17.1577E+06    -979.819E+03
             811     26.6408E-03     6.60256E-03     25.8097E-03     117.347E-03    -58.5369E-03    -58.8403E-03    -58.4950E-03     117.305E-03    -58.8403E-03     5.26640E-03     137.520E-03     155.038E+06    -20.4928E+06    -49.1706E+06    -187.856E+06    -49.1756E+06    -187.851E+06    -20.4928E+06    -533.852E+03
             812     26.4184E-03     5.65917E-03     25.8051E-03     117.316E-03    -58.4897E-03    -58.8469E-03    -58.4730E-03     117.299E-03    -58.8469E-03     3.34405E-03     131.689E-03     165.667E+06    -27.6181E+06    -53.0437E+06    -204.488E+06    -53.0451E+06    -204.487E+06    -27.6181E+06    -325.354E+03
             813     26.2301E-03     4.71524E-03     25.8028E-03     117.394E-03    -58.5367E-03    -58.8720E-03    -58.5303E-03     117.387E-03    -58.8720E-03     1.89085E-03     127.174E-03     182.106E+06    -35.4227E+06    -56.7708E+06    -227.246E+06    -56.7748E+06    -227.242E+06    -35.4227E+06    -324.104E+03
             814     26.0751E-03     3.77239E-03     25.8008E-03     117.577E-03    -58.6772E-03    -58.9175E-03    -58.6976E-03     117.576E-03    -58.8959E-03     729.998E-06     123.817E-03     192.805E+06    -43.7829E+06    -60.7488E+06    -244.490E+06    -60.7572E+06    -244.481E+06    -43.7829E+06    -301.853E+03
             815     25.9557E-03     2.82921E-03     25.8010E-03     117.631E-03    -58.7198E-03    -58.9273E-03    -58.7906E-03     117.631E-03    -58.8563E-03     156.919E-06     121.260E-03     191.930E+06    -54.9571E+06    -65.7779E+06    -252.050E+06    -65.7851E+06    -252.043E+06    -54.9571E+06    -215.190E+03
             816     25.8708E-03     1.88653E-03     25.8019E-03     117.609E-03    -58.7284E-03    -58.8934E-03    -58.8299E-03     117.609E-03    -58.7917E-03     100.220E-06     119.504E-03     191.739E+06    -64.4598E+06    -70.0562E+06    -258.925E+06    -70.0597E+06    -258.922E+06    -64.4598E+06    -276.054E+03
             817     25.8178E-03     943.316E-06     25.8006E-03     117.480E-03    -58.3892E-03    -59.0981E-03    -59.0011E-03     117.479E-03    -58.4856E-03    -184.821E-06     118.446E-03     190.413E+06    -69.2685E+06    -73.0133E+06    -261.525E+06    -71.9879E+06    -261.522E+06    -70.2966E+06    -474.199E+03
             818     29.9848E-03     16.0407E-03     25.3335E-03     152.762E-03    -58.8910E-03    -93.9204E-03    -59.2772E-03     118.119E-03    -58.8910E-03     166.017E-03     448.661E-03     152.913E+06     155.068E+06     129.690E+06    -8.94055E+06    -8.92849E+06     155.056E+06     129.690E+06     456.426E+03
             819     29.2651E-03     15.0942E-03     25.0721E-03     158.418E-03    -58.8774E-03    -99.7641E-03    -60.4461E-03     119.100E-03    -58.8774E-03     183.126E-03     425.056E-03     145.140E+06     142.115E+06     105.768E+06    -17.3454E+06    -17.2931E+06     142.063E+06     105.768E+06     743.468E+03
             820     28.6555E-03     14.1517E-03     24.9172E-03     131.838E-03    -58.7010E-03    -73.3219E-03    -58.0989E-03     116.615E-03    -58.7010E-03     103.456E-03     312.821E-03     134.732E+06     130.121E+06     64.5902E+06    -23.1815E+06    -23.1284E+06     130.068E+06     64.5902E+06    -305.459E+03
             821     28.1372E-03     13.2096E-03     24.8437E-03     120.245E-03    -58.4875E-03    -61.7684E-03    -56.8718E-03     115.348E-03    -58.4875E-03     58.1494E-03     256.659E-03     130.605E+06     120.101E+06     20.9187E+06    -26.3346E+06    -26.3123E+06     120.079E+06     20.9187E+06    -885.083E+03
             822     27.6564E-03     12.2630E-03     24.7890E-03     117.959E-03    -58.3350E-03    -59.6578E-03    -57.2753E-03     115.670E-03    -58.4279E-03     38.9276E-03     218.218E-03     100.932E+06     81.3427E+06    -8.32702E+06    -27.9075E+06    -27.8854E+06     81.3206E+06    -8.32702E+06     152.381E+03
             823     27.2219E-03     11.3189E-03     24.7570E-03     117.089E-03    -58.3710E-03    -58.7396E-03    -57.7025E-03     116.180E-03    -58.4993E-03     24.7784E-03     194.002E-03     47.5882E+06     20.9276E+06    -21.7099E+06    -30.3258E+06    -30.2294E+06     10.9122E+06    -11.7909E+06     596.093E+03
             824     26.8245E-03     10.3763E-03     24.7364E-03     117.218E-03    -58.4809E-03    -58.7126E-03    -58.0352E-03     116.672E-03    -58.6124E-03     19.5436E-03     177.920E-03     43.4654E+06    -6.68991E+06    -31.3588E+06    -56.0885E+06    -34.5300E+06    -52.9173E+06    -6.68991E+06     1.40756E+06
             825     26.4532E-03     9.43305E-03     24.7142E-03     117.128E-03    -58.4281E-03    -58.7184E-03    -58.1298E-03     116.782E-03    -58.6710E-03     15.1113E-03     164.117E-03     75.6994E+06    -7.41161E+06    -36.5343E+06    -93.1571E+06    -36.7590E+06    -92.9324E+06    -7.41161E+06     975.612E+03
             826     26.1204E-03     8.48921E-03     24.7024E-03     117.068E-03    -58.4022E-03    -58.7201E-03    -58.2597E-03     116.925E-03    -58.7201E-03     9.84795E-03     152.707E-03     101.597E+06    -8.57557E+06    -37.6805E+06    -121.431E+06    -37.8791E+06    -121.232E+06    -8.57557E+06     829.419E+03
             827     25.8204E-03     7.54575E-03     24.6932E-03     117.109E-03    -58.3880E-03    -58.7652E-03    -58.3081E-03     117.029E-03    -58.7652E-03     7.42268E-03     144.232E-03     131.792E+06    -12.5973E+06    -42.1257E+06    -156.565E+06    -42.1939E+06    -156.497E+06    -12.5973E+06     1.31635E+06
             828     25.5536E-03     6.60232E-03     24.6860E-03     117.323E-03    -58.5218E-03    -58.8302E-03    -58.5145E-03     117.282E-03    -58.7964E-03     5.18639E-03     137.451E-03     155.417E+06    -19.3417E+06    -48.0026E+06    -187.071E+06    -48.0189E+06    -187.055E+06    -19.3417E+06    -309.773E+03
             829     25.3224E-03     5.65928E-03     24.6819E-03     117.428E-03    -58.6349E-03    -58.8129E-03    -58.6550E-03     117.414E-03    -58.7791E-03     2.96938E-03     131.781E-03     167.021E+06    -26.6966E+06    -52.3701E+06    -205.031E+06    -52.3806E+06    -205.021E+06    -26.6966E+06    -856.791E+03
             830     25.1257E-03     4.71661E-03     24.6790E-03     117.303E-03    -58.5493E-03    -58.7692E-03    -58.5454E-03     117.299E-03    -58.7692E-03     1.52476E-03     127.077E-03     182.222E+06    -34.9924E+06    -56.8590E+06    -227.134E+06    -56.8634E+06    -227.129E+06    -34.9924E+06    -182.616E+03
             831     24.9651E-03     3.77296E-03     24.6783E-03     117.279E-03    -58.5108E-03    -58.7861E-03    -58.5101E-03     117.278E-03    -58.7861E-03     495.800E-06     123.530E-03     192.227E+06    -44.4542E+06    -61.8445E+06    -244.771E+06    -61.8491E+06    -244.766E+06    -44.4542E+06     136.090E+03
             832     24.8384E-03     2.82952E-03     24.6767E-03     117.356E-03    -58.5448E-03    -58.8276E-03    -58.5942E-03     117.356E-03    -58.7782E-03    -9.32557E-06     120.986E-03     191.890E+06    -54.5959E+06    -66.3458E+06    -252.072E+06    -66.3479E+06    -252.070E+06    -54.5959E+06     392.856E+03
             833     24.7496E-03     1.88639E-03     24.6776E-03     117.407E-03    -58.5856E-03    -58.8336E-03    -58.6348E-03     117.407E-03    -58.7842E-03     218.189E-06     119.312E-03     191.762E+06    -63.2060E+06     -69.834E+06    -258.181E+06    -69.8368E+06    -258.179E+06    -63.2060E+06    -31.4242E+03
             834     24.6953E-03     943.162E-06     24.6773E-03     117.535E-03    -58.6726E-03    -58.8695E-03    -58.6785E-03     117.535E-03    -58.8631E-03    -22.7511E-06     118.545E-03     190.539E+06    -70.4480E+06    -74.2851E+06    -262.872E+06    -73.2725E+06    -262.857E+06    -71.4761E+06      307.32E+03
             835     29.0427E-03     16.0413E-03     24.2106E-03     154.214E-03    -58.8937E-03    -95.3151E-03    -60.2565E-03     119.155E-03    -58.8937E-03     168.391E-03     449.491E-03     152.842E+06     155.936E+06     130.706E+06    -7.94426E+06    -7.92500E+06     155.917E+06     130.706E+06     1.50114E+06
             836     28.3099E-03     15.0990E-03     23.9473E-03     158.799E-03    -58.8430E-03    -100.095E-03    -60.7341E-03     119.438E-03    -58.8430E-03     183.668E-03     424.950E-03     144.767E+06     143.369E+06     107.003E+06    -15.6891E+06    -15.6693E+06     143.350E+06     107.003E+06    -49.6676E+03
             837     27.6850E-03     14.1522E-03     23.7944E-03     131.258E-03    -58.6675E-03    -72.7606E-03    -57.4965E-03     115.994E-03    -58.6675E-03     103.413E-03     312.619E-03     133.205E+06     129.249E+06     63.1283E+06    -22.2936E+06    -22.2748E+06     129.230E+06     63.1283E+06    -1.38676E+06
             838     27.1463E-03     13.2058E-03     23.7177E-03     120.658E-03    -58.4666E-03    -62.2078E-03    -57.2460E-03     115.696E-03    -58.4666E-03     58.4812E-03     256.749E-03     130.072E+06     118.680E+06     19.1579E+06    -27.2600E+06    -27.2439E+06     118.664E+06     19.1579E+06    -848.422E+03
             839     26.6556E-03     12.2650E-03     23.6662E-03     118.036E-03    -58.2974E-03    -59.7679E-03    -57.4459E-03     115.807E-03    -58.3903E-03     38.5172E-03     218.091E-03     102.479E+06     81.0729E+06    -9.30615E+06    -30.1989E+06    -30.1802E+06     81.0543E+06    -9.30615E+06     293.126E+03
             840     26.2053E-03     11.3203E-03     23.6341E-03     116.913E-03    -58.2982E-03    -58.6457E-03    -57.5779E-03     116.001E-03    -58.4544E-03     24.7966E-03     193.646E-03     49.1016E+06     19.9493E+06    -23.8749E+06    -33.0506E+06    -32.4330E+06     9.12556E+06    -13.6689E+06     1.65078E+06
             841     25.7903E-03     10.3765E-03     23.6108E-03     117.275E-03    -58.5056E-03    -58.7600E-03    -58.1638E-03     116.742E-03    -58.5689E-03     19.2970E-03     177.867E-03     43.0473E+06    -6.12372E+06    -30.7703E+06    -55.0150E+06    -33.4418E+06    -52.3435E+06    -6.12372E+06     1.66295E+06
             842     25.4076E-03     9.43325E-03     23.5915E-03     117.155E-03    -58.4251E-03    -58.7481E-03    -58.2278E-03     116.819E-03    -58.6096E-03     14.9819E-03     163.923E-03     74.4134E+06    -6.37691E+06    -35.8501E+06    -90.8309E+06    -36.1377E+06    -90.5433E+06    -6.37691E+06     721.531E+03
             843     25.0596E-03     8.48977E-03     23.5777E-03     116.945E-03    -58.3475E-03    -58.6486E-03    -58.2057E-03     116.803E-03    -58.6486E-03     9.77406E-03     152.396E-03     101.762E+06    -9.69722E+06    -40.5586E+06    -123.186E+06    -40.8353E+06    -122.909E+06    -9.69722E+06     511.896E+03
             844     24.7485E-03     7.54670E-03     23.5698E-03     117.111E-03    -58.4212E-03    -58.7341E-03    -58.4040E-03     117.041E-03    -58.6820E-03     6.89307E-03     144.150E-03     131.157E+06    -12.4536E+06    -43.3476E+06    -156.227E+06    -43.4576E+06    -156.117E+06    -12.4536E+06     1.36875E+06
             845     24.4702E-03     6.60302E-03     23.5625E-03     117.168E-03    -58.4151E-03    -58.7816E-03    -58.4678E-03     117.135E-03    -58.6958E-03     4.64449E-03     137.202E-03     154.114E+06    -18.5939E+06    -46.7500E+06    -184.809E+06    -46.7952E+06    -184.764E+06    -18.5939E+06     1.28222E+06
             846     24.2281E-03     5.66024E-03     23.5577E-03     117.170E-03    -58.4810E-03    -58.7097E-03    -58.5042E-03     117.159E-03    -58.6759E-03     2.62673E-03     131.444E-03     166.282E+06    -27.7181E+06    -53.1249E+06    -205.232E+06    -53.1522E+06    -205.205E+06    -27.7181E+06     292.810E+03
             847     24.0234E-03     4.71667E-03     23.5558E-03     117.174E-03    -58.5223E-03    -58.6676E-03    -58.5267E-03     117.170E-03    -58.6597E-03     1.52701E-03     126.930E-03     181.162E+06    -36.2419E+06    -58.9766E+06    -227.673E+06    -58.9795E+06    -227.670E+06    -36.2419E+06     577.574E+03
             848     23.8545E-03     3.77343E-03     23.5541E-03     117.093E-03    -58.4551E-03    -58.6572E-03    -58.4620E-03     117.092E-03    -58.6493E-03     560.502E-06     123.275E-03     191.196E+06    -45.5733E+06    -63.1549E+06    -244.933E+06    -63.1583E+06    -244.930E+06    -45.5733E+06     304.410E+03
             849     23.7237E-03     2.83013E-03     23.5543E-03     116.999E-03    -58.3720E-03    -58.6443E-03    -58.3720E-03     116.999E-03    -58.6443E-03    -46.6663E-06     120.565E-03     190.720E+06    -55.1462E+06    -66.9577E+06    -251.484E+06    -66.9583E+06    -251.484E+06    -55.1462E+06    -239.510E+03
             850     23.6291E-03     1.88620E-03     23.5537E-03     117.163E-03    -58.4257E-03    -58.7469E-03    -58.4954E-03     117.163E-03    -58.6767E-03    -186.471E-06     119.080E-03     190.603E+06    -63.6048E+06    -71.1932E+06    -257.883E+06    -71.1977E+06    -257.878E+06    -63.6048E+06     447.663E+03
             851     23.5731E-03     942.683E-06     23.5543E-03     117.342E-03    -58.4598E-03    -58.8849E-03    -58.7899E-03     117.341E-03    -58.5539E-03    -540.083E-06     118.401E-03     190.098E+06    -70.4989E+06    -74.0536E+06    -262.337E+06    -74.0927E+06    -262.282E+06    -70.5154E+06    -99.7332E+03
             852     28.1028E-03     16.0370E-03     23.0777E-03     154.303E-03    -58.9138E-03    -95.4014E-03    -60.2369E-03     119.138E-03    -58.9138E-03     169.763E-03     449.697E-03     152.450E+06     156.250E+06     132.438E+06    -6.69844E+06    -6.68667E+06     156.238E+06     132.438E+06     981.921E+03
             853     27.3650E-03     15.0956E-03     22.8246E-03     158.196E-03    -58.8543E-03    -99.5137E-03    -60.9257E-03     119.608E-03    -58.8543E-03     181.831E-03     424.760E-03     144.123E+06     144.604E+06     108.880E+06    -13.5669E+06    -13.5618E+06     144.599E+06     108.880E+06    -65.5271E+03
             854     26.7258E-03     14.1519E-03     22.6714E-03     131.647E-03    -58.6688E-03    -73.1783E-03    -57.8359E-03     116.305E-03    -58.6688E-03     103.875E-03     312.903E-03     132.904E+06     129.908E+06     64.4783E+06    -21.3608E+06    -21.3310E+06     129.878E+06     64.4783E+06    -98.8514E+03
             855     26.1717E-03     13.2098E-03     22.5933E-03     120.539E-03    -58.4515E-03    -62.1215E-03    -57.1548E-03     115.572E-03    -58.4515E-03     58.4912E-03     256.265E-03     129.527E+06     117.591E+06     18.4724E+06    -27.4464E+06    -27.4162E+06     117.561E+06     18.4724E+06     362.327E+03
             856     25.6618E-03     12.2636E-03     22.5418E-03     118.222E-03    -58.3625E-03    -59.8847E-03    -57.6608E-03     115.999E-03    -58.3625E-03     38.4467E-03     218.130E-03     101.214E+06     78.9319E+06    -10.9606E+06    -30.6323E+06    -30.6117E+06     78.9113E+06    -10.9606E+06     648.551E+03
             857     25.1966E-03     11.3209E-03     22.5101E-03     117.260E-03    -58.3325E-03    -58.9402E-03    -57.9632E-03     116.346E-03    -58.3958E-03     24.9399E-03     193.613E-03     47.4238E+06     19.0465E+06    -23.3060E+06     -32.133E+06    -31.5354E+06     9.01561E+06    -13.8728E+06     1.19087E+06
             858     24.7659E-03     10.3770E-03     22.4871E-03     117.179E-03    -58.4243E-03    -58.7514E-03    -58.1690E-03     116.660E-03    -58.4876E-03     18.9999E-03     177.466E-03     41.6755E+06    -7.39237E+06    -30.8771E+06    -54.7118E+06    -33.3640E+06    -52.2248E+06    -7.39237E+06     1.46245E+06
             859     24.3674E-03     9.43410E-03     22.4670E-03     117.142E-03    -58.4492E-03    -58.7166E-03    -58.3563E-03     116.848E-03    -58.5158E-03     13.9549E-03     163.768E-03     72.4958E+06    -7.65174E+06    -36.4522E+06    -89.9764E+06    -36.7582E+06    -89.6703E+06    -7.65174E+06     1.87844E+06
             860     24.0065E-03     8.49065E-03     22.4548E-03     116.931E-03    -58.4018E-03    -58.5809E-03    -58.3303E-03     116.808E-03    -58.5296E-03     9.14756E-03     152.152E-03     100.468E+06    -10.5218E+06    -40.1751E+06    -122.332E+06    -40.3822E+06    -122.125E+06    -10.5218E+06     1.28970E+06
             861     23.6802E-03     7.54709E-03     22.4453E-03     116.994E-03    -58.4525E-03    -58.5880E-03    -58.4423E-03     116.931E-03    -58.5359E-03     6.49056E-03     143.884E-03     129.737E+06    -14.9090E+06    -45.2733E+06    -157.114E+06    -45.3765E+06    -157.011E+06    -14.9090E+06     1.15294E+06
             862     23.3909E-03     6.60491E-03     22.4390E-03     116.898E-03    -58.3367E-03    -58.5891E-03    -58.3620E-03     116.871E-03    -58.5371E-03     4.19192E-03     136.759E-03     150.897E+06    -20.3004E+06    -50.2713E+06    -183.912E+06    -50.3069E+06    -183.876E+06    -20.3004E+06     2.03726E+06
             863     23.1380E-03     5.66032E-03     22.4349E-03     116.729E-03    -58.2204E-03    -58.5290E-03    -58.2120E-03     116.720E-03    -58.5290E-03     2.22892E-03     130.865E-03     164.715E+06    -27.7668E+06    -54.0364E+06    -204.002E+06    -54.0616E+06    -203.977E+06    -27.7668E+06     1.55883E+06
             864     22.9231E-03     4.71710E-03     22.4325E-03     116.883E-03    -58.3601E-03    -58.5392E-03    -58.3662E-03     116.882E-03    -58.5313E-03     970.001E-06     126.571E-03     181.107E+06    -35.8299E+06    -58.5907E+06    -227.232E+06    -58.5959E+06    -227.226E+06    -35.8299E+06     405.678E+03
             865     22.7462E-03     3.77395E-03     22.4310E-03     116.931E-03    -58.4137E-03    -58.5359E-03    -58.4351E-03     116.931E-03    -58.5141E-03     156.078E-06     123.064E-03     191.205E+06    -44.7303E+06    -63.3292E+06    -244.532E+06    -63.3321E+06    -244.529E+06    -44.7303E+06    -15.8308E+03
             866     22.6091E-03     2.83023E-03     22.4313E-03     116.885E-03    -58.3233E-03    -58.5795E-03    -58.4649E-03     116.885E-03    -58.4376E-03    -372.990E-06     120.471E-03     189.894E+06    -55.7432E+06    -67.6739E+06    -251.299E+06    -67.6766E+06    -251.297E+06    -55.7432E+06     191.347E+03
             867     22.5103E-03     1.88716E-03     22.4310E-03     116.820E-03    -58.2696E-03    -58.5613E-03    -58.5060E-03     116.820E-03    -58.3243E-03    -527.381E-06     118.770E-03     189.800E+06    -65.5749E+06    -71.4022E+06    -258.199E+06    -71.4117E+06    -258.190E+06    -65.5749E+06     314.669E+03
             868     22.4504E-03     944.454E-06     22.4305E-03     116.482E-03    -58.0360E-03    -58.4501E-03    -58.3987E-03     116.481E-03    -58.0865E-03    -705.701E-06     117.531E-03     189.716E+06    -71.0651E+06    -73.1949E+06    -261.828E+06    -72.6048E+06    -261.781E+06    -71.7016E+06    -1.43246E+06
             869     27.1904E-03     16.0432E-03     21.9530E-03     153.781E-03    -58.8520E-03    -94.9543E-03    -60.0578E-03     118.884E-03    -58.8520E-03     168.404E-03     448.533E-03     152.794E+06     155.718E+06     131.857E+06    -7.59606E+06    -7.58246E+06     155.704E+06     131.857E+06    -350.659E+03
             870     26.4354E-03     15.0966E-03     21.7008E-03     156.942E-03    -58.8240E-03    -98.3052E-03    -59.9498E-03     118.587E-03    -58.8240E-03     180.192E-03     423.870E-03     144.727E+06     143.209E+06     107.284E+06    -15.6477E+06    -15.6231E+06     143.185E+06     107.284E+06    -144.495E+03
             871     25.7781E-03     14.1529E-03     21.5454E-03     131.778E-03    -58.6553E-03    -73.3090E-03    -58.1267E-03     116.596E-03    -58.6553E-03     103.273E-03     313.468E-03     133.735E+06     130.091E+06     65.0105E+06    -22.1755E+06    -22.1438E+06     130.059E+06     65.0105E+06     906.209E+03
             872     25.2081E-03     13.2070E-03     21.4715E-03     120.540E-03    -58.4146E-03    -62.1567E-03    -57.2794E-03     115.663E-03    -58.4146E-03     58.1020E-03     256.098E-03     129.768E+06     117.860E+06     18.9921E+06    -27.3720E+06    -27.3299E+06     117.818E+06     18.9921E+06     1.25007E+06
             873     24.6798E-03     12.2646E-03     21.4167E-03     118.350E-03    -58.3041E-03    -60.0718E-03    -57.8898E-03     116.168E-03    -58.3041E-03     37.8280E-03     217.816E-03     101.045E+06     79.2578E+06    -10.8380E+06    -29.9515E+06    -29.8885E+06     79.1948E+06    -10.8380E+06     465.284E+03
             874     24.1978E-03     11.3213E-03     21.3860E-03     117.500E-03    -58.3090E-03    -59.2041E-03    -58.3888E-03     116.685E-03    -58.3090E-03     23.6286E-03     193.684E-03     47.8118E+06     19.5545E+06    -23.3453E+06    -31.9586E+06    -31.1518E+06     8.74949E+06    -13.3471E+06     415.832E+03
             875     23.7510E-03     10.3788E-03     21.3632E-03     117.263E-03    -58.3626E-03    -58.8982E-03    -58.4264E-03     116.791E-03    -58.3626E-03     18.1253E-03     177.125E-03     42.8760E+06    -6.82786E+06    -30.2690E+06    -55.2788E+06    -32.4156E+06    -53.1322E+06    -6.82786E+06     1.44559E+06
             876     23.3359E-03     9.43526E-03     21.3434E-03     117.058E-03    -58.3598E-03    -58.7199E-03    -58.4621E-03     116.800E-03    -58.3598E-03     12.9847E-03     163.291E-03     73.5556E+06    -6.10570E+06    -33.7517E+06    -89.3657E+06    -34.0337E+06    -89.0838E+06    -6.10570E+06     1.74340E+06
             877     22.9598E-03     8.49233E-03     21.3315E-03     116.848E-03    -58.3433E-03    -58.5501E-03    -58.4409E-03     116.753E-03    -58.3572E-03     8.01616E-03     151.729E-03     104.062E+06    -6.89616E+06    -37.4082E+06    -122.724E+06    -37.5873E+06    -122.545E+06    -6.89616E+06     2.93325E+06
             878     22.6189E-03     7.54929E-03     21.3219E-03     116.572E-03    -58.2246E-03    -58.3862E-03    -58.2145E-03     116.525E-03    -58.3502E-03     5.56323E-03     143.124E-03     132.994E+06    -10.7721E+06    -42.5718E+06    -156.755E+06    -42.7128E+06    -156.614E+06    -10.7721E+06     3.62117E+06
             879     22.3156E-03     6.60474E-03     21.3158E-03     116.534E-03    -58.1853E-03    -58.3717E-03    -58.1996E-03     116.516E-03    -58.3387E-03     3.32618E-03     136.177E-03     152.021E+06    -18.0617E+06    -48.1656E+06    -182.857E+06    -48.2261E+06    -182.796E+06    -18.0617E+06     2.03856E+06
             880     22.0516E-03     5.66242E-03     21.3122E-03     116.525E-03    -58.1862E-03    -58.3560E-03    -58.2329E-03     116.521E-03    -58.3052E-03     1.49459E-03     130.466E-03     164.792E+06    -26.7402E+06    -53.3274E+06    -203.180E+06    -53.3395E+06    -203.168E+06    -26.7402E+06     1.25526E+06
             881     21.8251E-03     4.71836E-03     21.3090E-03     116.430E-03    -58.1451E-03    -58.3017E-03    -58.1617E-03     116.429E-03    -58.2839E-03     168.425E-06     125.938E-03     179.822E+06    -35.4022E+06    -58.1011E+06    -225.478E+06    -58.1114E+06    -225.467E+06    -35.4022E+06     836.249E+03
             882     21.6408E-03     3.77446E-03     21.3091E-03     116.496E-03    -58.1922E-03    -58.3234E-03    -58.2608E-03     116.495E-03    -58.2538E-03    -649.010E-06     122.532E-03     190.791E+06    -44.3476E+06    -63.8446E+06    -244.128E+06    -63.8482E+06    -244.125E+06    -44.3476E+06     348.890E+03
             883     21.4957E-03     2.83142E-03     21.3084E-03     116.433E-03    -58.1205E-03    -58.3321E-03    -58.3170E-03     116.432E-03    -58.1345E-03    -828.820E-06     119.954E-03     189.765E+06    -55.8166E+06    -68.7157E+06    -251.657E+06    -68.7201E+06    -251.653E+06    -55.8166E+06     312.085E+03
             884     21.3920E-03     1.88819E-03     21.3085E-03     116.108E-03    -57.9357E-03    -58.1862E-03    -58.1020E-03     116.107E-03    -58.0193E-03    -547.807E-06     118.052E-03     189.997E+06    -65.2306E+06    -70.7287E+06    -257.897E+06    -70.7352E+06    -257.890E+06    -65.2306E+06    -313.638E+03
             885     21.3299E-03     943.466E-06     21.3090E-03     115.917E-03    -57.7332E-03    -58.1896E-03    -58.0684E-03     115.916E-03    -57.8533E-03    -660.534E-06     116.978E-03     188.804E+06    -71.8732E+06    -73.8823E+06    -261.666E+06    -73.2805E+06    -261.648E+06    -72.4932E+06     339.294E+03
             886     26.2946E-03     16.0432E-03     20.8332E-03     154.531E-03    -58.8245E-03    -95.7202E-03    -60.4058E-03     119.216E-03    -58.8245E-03     169.688E-03     449.147E-03     153.786E+06     156.094E+06     131.693E+06    -8.43216E+06    -8.40326E+06     156.065E+06     131.693E+06    -186.753E+03
             887     25.5213E-03     15.0975E-03     20.5767E-03     157.905E-03    -58.7787E-03    -99.2735E-03    -60.2857E-03     118.918E-03    -58.7787E-03     182.215E-03     423.408E-03     145.162E+06     142.468E+06     106.383E+06    -16.8613E+06    -16.8163E+06     142.423E+06     106.383E+06     21.0861E+03
             888     24.8459E-03     14.1525E-03     20.4212E-03     131.865E-03    -58.5860E-03    -73.4433E-03    -58.3100E-03     116.732E-03    -58.5860E-03     102.875E-03     312.657E-03     134.030E+06     128.800E+06     63.6714E+06    -23.8568E+06    -23.8231E+06     128.767E+06     63.6714E+06     427.224E+03
             889     24.2593E-03     13.2107E-03     20.3468E-03     120.868E-03    -58.3196E-03    -62.5720E-03    -57.9136E-03     116.209E-03    -58.3196E-03     56.9158E-03     255.737E-03     130.097E+06     118.779E+06     20.6697E+06    -27.2575E+06    -27.2177E+06     118.739E+06     20.6697E+06     889.298E+03
             890     23.7119E-03     12.2664E-03     20.2926E-03     118.527E-03    -58.1576E-03    -60.3995E-03    -58.3485E-03     116.476E-03    -58.1576E-03     36.7286E-03     216.987E-03     102.029E+06     80.5722E+06    -10.0724E+06    -29.8148E+06    -29.6898E+06     80.4472E+06    -10.0724E+06     884.586E+03
             891     23.2110E-03     11.3237E-03     20.2615E-03     117.362E-03    -58.1263E-03    -59.2729E-03    -58.5490E-03     116.639E-03    -58.1263E-03     22.1386E-03     192.788E-03     48.8328E+06     18.9221E+06    -25.3659E+06    -33.3805E+06    -32.5316E+06     7.78845E+06    -15.0812E+06     1.07234E+06
             892     22.7458E-03     10.3805E-03     20.2390E-03     117.155E-03    -58.1382E-03    -59.0371E-03    -58.6418E-03     116.760E-03    -58.1382E-03     16.5949E-03     176.261E-03     39.5641E+06    -9.49942E+06    -32.7331E+06    -54.2059E+06    -34.7847E+06    -52.1543E+06    -9.49942E+06     215.463E+03
             893     22.3141E-03     9.43787E-03     20.2199E-03     116.875E-03    -58.0958E-03    -58.8071E-03    -58.5925E-03     116.660E-03    -58.0958E-03     11.6919E-03     162.274E-03     72.7273E+06    -8.54231E+06    -36.1711E+06    -90.7388E+06    -36.2775E+06    -90.6324E+06    -8.54231E+06     576.108E+03
             894     21.9203E-03     8.49471E-03     20.2074E-03     116.495E-03    -58.0671E-03    -58.4651E-03    -58.4004E-03     116.430E-03    -58.0671E-03     6.48086E-03     150.803E-03     106.176E+06    -7.66981E+06    -37.8925E+06    -125.585E+06    -38.1314E+06    -125.346E+06    -7.66981E+06     3.57603E+06
             895     21.5654E-03     7.55104E-03     20.2002E-03     116.156E-03    -57.9412E-03    -58.2485E-03    -58.1337E-03     116.131E-03    -58.0306E-03     3.99041E-03     142.141E-03     131.572E+06    -10.2807E+06    -41.4414E+06    -154.619E+06    -41.6552E+06    -154.405E+06    -10.2807E+06     4.49228E+06
             896     21.2466E-03     6.60787E-03     20.1929E-03     115.950E-03    -57.8427E-03    -58.1306E-03    -57.9667E-03     115.942E-03    -57.9986E-03     1.86200E-03     135.120E-03     151.454E+06    -17.1186E+06    -46.2613E+06    -180.982E+06    -46.3786E+06    -180.865E+06    -17.1186E+06     3.34615E+06
             897     20.9685E-03     5.66337E-03     20.1893E-03     115.914E-03    -57.8736E-03    -58.0601E-03    -57.9924E-03     115.912E-03    -57.9400E-03     299.466E-06     129.519E-03     164.115E+06    -27.3637E+06    -52.0628E+06    -202.407E+06    -52.1281E+06    -202.342E+06    -27.3637E+06     2.46511E+06
             898     20.7322E-03     4.72029E-03     20.1876E-03     115.927E-03    -57.8639E-03    -58.0792E-03    -58.0560E-03     115.924E-03    -57.8848E-03    -771.306E-06     125.163E-03     178.573E+06    -35.6727E+06    -57.8605E+06    -224.289E+06    -57.8906E+06    -224.259E+06    -35.6727E+06     2.09162E+06
             899     20.5369E-03     3.77662E-03     20.1867E-03     115.706E-03    -57.7456E-03    -57.9774E-03    -57.9054E-03     115.703E-03    -57.8145E-03    -1.42481E-03     121.531E-03     189.840E+06    -43.9173E+06    -63.3205E+06    -242.693E+06    -63.3386E+06    -242.675E+06    -43.9173E+06     1.21415E+06
             900     20.3840E-03     2.83251E-03     20.1863E-03     115.376E-03    -57.6124E-03    -57.7814E-03    -57.6644E-03     115.373E-03    -57.7258E-03    -1.48592E-03     118.786E-03     189.531E+06    -55.4985E+06    -68.1966E+06    -251.020E+06    -68.1995E+06    -251.017E+06    -55.4985E+06    -305.254E+03
             901     20.2756E-03     1.88779E-03     20.1875E-03     115.307E-03    -57.5595E-03    -57.7607E-03    -57.6228E-03     115.304E-03    -57.6945E-03    -1.20904E-03     117.208E-03     189.877E+06    -65.3796E+06    -72.6506E+06    -258.782E+06    -72.6540E+06    -258.779E+06    -65.3796E+06    -124.236E+03
             902     20.2093E-03     944.187E-06     20.1872E-03     115.324E-03    -57.3913E-03    -57.9372E-03    -57.8653E-03     115.322E-03    -57.4609E-03    -1.13002E-03     116.414E-03     187.047E+06    -72.7512E+06    -76.5487E+06    -261.655E+06    -76.5673E+06    -261.637E+06    -72.7512E+06     1.44826E+06
             903     25.4070E-03     16.0386E-03     19.7048E-03     154.007E-03    -58.8457E-03    -95.1875E-03    -60.5116E-03     119.331E-03    -58.8457E-03     168.165E-03     448.657E-03     153.126E+06     155.408E+06     131.235E+06    -8.36429E+06    -8.32507E+06     155.369E+06     131.235E+06    -156.384E+03
             904     24.6241E-03     15.0978E-03     19.4525E-03     158.248E-03    -58.7566E-03    -99.6606E-03    -61.3566E-03     119.945E-03    -58.7566E-03     181.205E-03     423.112E-03     144.130E+06     142.600E+06     106.875E+06    -15.5174E+06    -15.4472E+06     142.530E+06     106.875E+06     251.999E+03
             905     23.9316E-03     14.1548E-03     19.2967E-03     132.508E-03    -58.4826E-03    -74.2114E-03    -59.2960E-03     117.593E-03    -58.4826E-03     102.544E-03     311.526E-03     133.402E+06     129.761E+06     64.4574E+06    -22.1926E+06    -22.1273E+06     129.696E+06     64.4574E+06     316.736E+03
             906     23.3221E-03     13.2107E-03     19.2197E-03     121.292E-03    -58.1354E-03    -63.1911E-03    -58.7059E-03     116.807E-03    -58.1354E-03     55.8698E-03     254.835E-03     129.527E+06     117.843E+06     18.9477E+06    -27.0979E+06    -27.0465E+06     117.792E+06     18.9477E+06     283.740E+03
             907     22.7589E-03     12.2695E-03     19.1684E-03     118.699E-03    -57.9059E-03    -60.8223E-03    -58.9430E-03     116.819E-03    -57.9059E-03     35.1431E-03     215.840E-03     101.357E+06     79.2028E+06    -12.5249E+06    -29.4355E+06    -29.3330E+06     79.1004E+06    -12.5249E+06     1.83028E+06
             908     22.2368E-03     11.3268E-03     19.1358E-03     117.302E-03    -57.8141E-03    -59.5327E-03    -58.9200E-03     116.689E-03    -57.8141E-03     20.1735E-03     191.321E-03     46.6871E+06     17.6845E+06    -24.5998E+06    -31.9081E+06    -31.0691E+06     8.82891E+06    -16.5832E+06     2.43588E+06
             909     21.7547E-03     10.3843E-03     19.1163E-03     116.961E-03    -57.7643E-03    -59.2322E-03    -58.9373E-03     116.666E-03    -57.7643E-03     14.3066E-03     174.779E-03     36.1361E+06    -11.8117E+06    -31.6498E+06    -52.8607E+06    -34.6536E+06    -49.8569E+06    -11.8117E+06     1.55208E+06
             910     21.3016E-03     9.44129E-03     19.0951E-03     116.502E-03    -57.6672E-03    -58.8656E-03    -58.7182E-03     116.355E-03    -57.6672E-03     9.03756E-03     160.614E-03     71.1280E+06    -13.3103E+06    -39.5646E+06    -93.5363E+06    -39.6902E+06    -93.4107E+06    -13.3103E+06     1.63431E+06
             911     20.8923E-03     8.49821E-03     19.0858E-03     115.849E-03    -57.5736E-03    -58.3082E-03    -58.2812E-03     115.822E-03    -57.5736E-03     3.85467E-03     149.072E-03     100.727E+06    -15.0329E+06    -43.6442E+06    -126.903E+06    -43.8677E+06    -126.679E+06    -15.0329E+06     2.39402E+06
             912     20.5178E-03     7.55490E-03     19.0762E-03     115.497E-03    -57.4888E-03    -58.0414E-03    -58.0322E-03     115.487E-03    -57.4888E-03     1.65611E-03     140.571E-03     124.860E+06    -16.7256E+06    -46.0317E+06    -153.607E+06    -46.2380E+06    -153.400E+06    -16.7256E+06     3.39212E+06
             913     20.1847E-03     6.61106E-03     19.0714E-03     115.149E-03    -57.3551E-03    -57.8216E-03    -57.7512E-03     115.145E-03    -57.4215E-03    -386.558E-06     133.583E-03     147.834E+06    -20.1205E+06    -49.2151E+06    -180.311E+06    -49.3780E+06    -180.148E+06    -20.1205E+06     4.42314E+06
             914     19.8926E-03     5.66712E-03     19.0683E-03     114.792E-03    -57.2609E-03    -57.5509E-03    -57.4726E-03     114.784E-03    -57.3318E-03    -1.76188E-03     127.828E-03     160.434E+06    -29.0167E+06    -54.0884E+06    -200.472E+06    -54.2292E+06    -200.332E+06    -29.0167E+06     4.31893E+06
             915     19.6417E-03     4.72258E-03     19.0655E-03     114.670E-03    -57.2399E-03    -57.4401E-03    -57.4063E-03     114.659E-03    -57.2636E-03    -2.40293E-03     123.498E-03     175.283E+06    -38.3366E+06    -59.2116E+06    -223.088E+06    -59.2867E+06    -223.013E+06    -38.3366E+06     3.04879E+06
             916     19.4363E-03     3.77878E-03     19.0655E-03     114.488E-03    -57.1278E-03    -57.3714E-03    -57.2939E-03     114.477E-03    -57.1950E-03    -2.51405E-03     120.038E-03     185.875E+06    -46.3684E+06    -63.3241E+06    -240.112E+06    -63.3446E+06    -240.092E+06    -46.3684E+06     1.40389E+06
             917     19.2756E-03     2.83389E-03     19.0661E-03     114.251E-03    -57.0120E-03    -57.2535E-03    -57.1443E-03     114.241E-03    -57.1115E-03    -2.49640E-03     117.520E-03     188.469E+06    -55.9224E+06    -67.7527E+06    -250.013E+06    -67.7575E+06    -250.008E+06    -55.9224E+06     389.182E+03
             918     19.1601E-03     1.88962E-03     19.0666E-03     114.139E-03    -56.9717E-03    -57.1788E-03    -57.1043E-03     114.133E-03    -57.0397E-03    -2.08081E-03     115.949E-03     190.329E+06    -64.9724E+06    -72.9978E+06    -259.184E+06    -73.0026E+06    -259.179E+06    -64.9724E+06     627.315E+03
             919     19.0902E-03     944.966E-06     19.0668E-03     113.935E-03    -56.8441E-03    -57.0945E-03    -57.0195E-03     113.931E-03    -56.9155E-03    -1.51732E-03     114.969E-03     186.485E+06    -72.8001E+06    -77.6396E+06    -261.650E+06    -77.0029E+06    -261.645E+06    -73.4421E+06     728.566E+03
             920     24.5510E-03     16.0445E-03     18.5829E-03     154.148E-03    -58.8008E-03    -95.3932E-03    -61.0220E-03     119.777E-03    -58.8008E-03     167.186E-03     447.476E-03     152.695E+06     155.012E+06     130.509E+06    -8.44557E+06    -8.42256E+06     154.989E+06     130.509E+06    -450.998E+03
             921     23.7444E-03     15.0980E-03     18.3262E-03     158.661E-03    -58.6676E-03    -100.168E-03    -62.0953E-03     120.589E-03    -58.6676E-03     180.829E-03     423.173E-03     143.786E+06     142.422E+06     106.570E+06    -15.4208E+06    -15.3448E+06     142.346E+06     106.570E+06    -744.193E+03
             922     23.0338E-03     14.1563E-03     18.1702E-03     133.213E-03    -58.3085E-03    -75.0828E-03    -60.7083E-03     118.839E-03    -58.3085E-03     100.907E-03     310.825E-03     132.787E+06     130.526E+06     65.2446E+06    -20.6731E+06    -20.5684E+06     130.421E+06     65.2446E+06     328.420E+03
             923     22.4074E-03     13.2161E-03     18.0949E-03     121.752E-03    -57.8446E-03    -63.9618E-03    -59.8742E-03     117.664E-03    -57.8446E-03     53.4964E-03     253.284E-03     128.795E+06     117.056E+06     17.1120E+06    -26.3172E+06    -26.2486E+06     116.987E+06     17.1120E+06     1.43693E+06
             924     21.8206E-03     12.2734E-03     18.0417E-03     118.908E-03    -57.5061E-03    -61.4551E-03    -59.8733E-03     117.326E-03    -57.5061E-03     31.7804E-03     213.812E-03     101.213E+06     77.4895E+06    -15.6896E+06    -30.0772E+06    -30.0039E+06     77.4162E+06    -15.6896E+06     2.34343E+06
             925     21.2803E-03     11.3319E-03     18.0122E-03     117.310E-03    -57.3150E-03    -60.0663E-03    -59.6437E-03     116.887E-03    -57.3150E-03     16.5964E-03     189.222E-03     46.2306E+06     17.6405E+06    -23.9568E+06    -31.4781E+06    -30.7066E+06     10.2555E+06    -17.3432E+06     2.41724E+06
             926     20.7756E-03     10.3897E-03     17.9911E-03     116.800E-03    -57.1737E-03    -59.6743E-03    -59.5048E-03     116.631E-03    -57.1737E-03     10.3643E-03     172.659E-03     38.4973E+06    -10.1822E+06    -28.0420E+06    -53.9787E+06    -31.9775E+06    -50.0432E+06    -10.1822E+06     3.66918E+06
             927     20.3044E-03     9.44783E-03     17.9724E-03     115.932E-03    -56.9852E-03    -58.9679E-03    -58.9066E-03     115.871E-03    -56.9852E-03     4.36272E-03     158.295E-03     74.8448E+06    -10.1763E+06    -35.4782E+06    -94.2961E+06    -36.0436E+06    -93.7307E+06    -10.1763E+06     4.99460E+06
             928     19.8744E-03     8.50447E-03     17.9630E-03     114.973E-03    -56.7969E-03    -58.2012E-03    -58.1898E-03     114.962E-03    -56.7969E-03    -411.658E-06     146.590E-03     100.568E+06    -13.7287E+06    -41.5472E+06    -125.196E+06    -41.8341E+06    -124.909E+06    -13.7287E+06     3.79055E+06
             929     19.4824E-03     7.56075E-03     17.9555E-03     114.313E-03    -56.6288E-03    -57.7141E-03    -57.6925E-03     114.291E-03    -56.6288E-03    -2.42477E-03     138.114E-03     123.661E+06    -19.3825E+06    -47.4117E+06    -154.621E+06    -47.6107E+06    -154.422E+06    -19.3825E+06     3.27868E+06
             930     19.1313E-03     6.61668E-03     17.9506E-03     113.751E-03    -56.4970E-03    -57.2762E-03    -57.2449E-03     113.720E-03    -56.4970E-03    -4.02180E-03     131.108E-03     144.487E+06    -23.6786E+06    -52.0306E+06    -180.234E+06    -52.2323E+06    -180.032E+06    -23.6786E+06     4.74518E+06
             931     18.8225E-03     5.67249E-03     17.9474E-03     113.148E-03    -56.3593E-03    -56.8056E-03    -56.7623E-03     113.109E-03    -56.3637E-03    -4.78966E-03     125.382E-03     156.697E+06    -30.7267E+06    -56.1563E+06    -198.548E+06    -56.3469E+06    -198.357E+06    -30.7267E+06     4.93863E+06
             932     18.5587E-03     4.72738E-03     17.9465E-03     112.622E-03    -56.2499E-03    -56.3804E-03    -56.3122E-03     112.581E-03    -56.2770E-03    -5.01791E-03     120.894E-03     170.800E+06    -40.7966E+06    -60.2171E+06    -220.434E+06    -60.3038E+06    -220.347E+06    -40.7966E+06     3.33262E+06
             933     18.3402E-03     3.78127E-03     17.9462E-03     112.517E-03    -56.2053E-03    -56.3179E-03    -56.2580E-03     112.480E-03    -56.2280E-03    -4.76917E-03     117.700E-03     180.896E+06    -50.4148E+06    -64.4908E+06    -237.922E+06    -64.5152E+06    -237.897E+06    -50.4148E+06     1.73347E+06
             934     18.1698E-03     2.83674E-03     17.9470E-03     112.476E-03    -56.1520E-03    -56.3365E-03    -56.3106E-03     112.450E-03    -56.1520E-03    -3.99824E-03     115.511E-03     186.315E+06    -57.9677E+06    -68.3910E+06    -249.264E+06     -68.398E+06    -249.257E+06    -57.9677E+06     1.10253E+06
             935     18.0470E-03     1.89135E-03     17.9476E-03     112.176E-03    -56.0032E-03    -56.1831E-03    -56.0846E-03     112.163E-03    -56.0885E-03    -2.85525E-03     113.828E-03     190.237E+06    -65.0863E+06    -71.4904E+06    -258.426E+06    -71.4952E+06    -258.421E+06    -65.0863E+06     846.135E+03
             936     17.9737E-03     945.491E-06     17.9488E-03     112.111E-03    -55.9071E-03    -56.2068E-03    -56.0618E-03     112.107E-03    -56.0473E-03    -1.62845E-03     113.013E-03     187.728E+06    -70.7963E+06    -73.7416E+06    -259.970E+06    -73.1027E+06    -259.967E+06    -71.4384E+06    -75.4093E+03
             937     23.7092E-03     16.0414E-03     17.4586E-03     155.335E-03    -58.7507E-03    -96.6202E-03    -62.3088E-03     121.023E-03    -58.7507E-03     167.792E-03     446.484E-03     152.852E+06     156.147E+06     131.713E+06    -7.44328E+06    -7.43703E+06     156.141E+06     131.713E+06    -479.402E+03
             938     22.8883E-03     15.1011E-03     17.1998E-03     160.320E-03    -58.5074E-03    -101.929E-03    -63.9817E-03     122.372E-03    -58.5074E-03     181.760E-03     422.255E-03     144.321E+06     143.234E+06     106.482E+06    -15.4246E+06    -15.3815E+06     143.191E+06     106.482E+06    -764.844E+03
             939     22.1583E-03     14.1612E-03     17.0426E-03     134.404E-03    -58.0100E-03    -76.5471E-03    -62.7594E-03     120.616E-03    -58.0100E-03     99.1940E-03     309.094E-03     132.092E+06     127.843E+06     62.2480E+06    -22.6290E+06    -22.5567E+06     127.771E+06     62.2480E+06     407.026E+03
             940     21.5111E-03     13.2202E-03     16.9692E-03     122.898E-03    -57.3925E-03    -65.5737E-03    -62.0061E-03     119.330E-03    -57.3925E-03     49.9372E-03     250.840E-03     127.965E+06     116.219E+06     17.2797E+06    -26.5523E+06    -26.4543E+06     116.121E+06     17.2797E+06     2.67733E+06
             941     20.9040E-03     12.2816E-03     16.9157E-03     119.389E-03    -56.8703E-03    -62.5800E-03    -61.4130E-03     118.222E-03    -56.8703E-03     26.6472E-03     210.973E-03     101.418E+06     78.8713E+06    -14.0476E+06    -29.0826E+06    -28.9697E+06     78.7583E+06    -14.0476E+06     2.62007E+06
             942     20.3430E-03     11.3405E-03     16.8888E-03     117.449E-03    -56.4975E-03    -61.0306E-03    -60.8163E-03     117.235E-03    -56.4975E-03     11.2417E-03     186.411E-03     46.6688E+06     17.0507E+06    -23.9987E+06    -32.2745E+06    -31.0614E+06     10.4239E+06    -18.5849E+06     2.55648E+06
             943     19.8144E-03     10.4000E-03     16.8656E-03     116.391E-03    -56.1993E-03    -60.2297E-03    -60.1754E-03     116.336E-03    -56.1993E-03     4.24704E-03     169.498E-03     39.3085E+06    -12.1730E+06    -28.2542E+06    -56.6185E+06    -32.8539E+06    -52.0188E+06    -12.1730E+06     4.09631E+06
             944     19.3241E-03     9.45785E-03     16.8514E-03     114.998E-03    -55.8647E-03    -59.1407E-03    -59.1021E-03     114.959E-03    -55.8647E-03    -1.92374E-03     154.844E-03     73.9375E+06    -10.8748E+06    -33.8601E+06    -93.4958E+06    -34.5668E+06    -92.7891E+06    -10.8748E+06     5.63918E+06
             945     18.8720E-03     8.51483E-03     16.8419E-03     113.691E-03    -55.5608E-03    -58.1394E-03    -58.0626E-03     113.614E-03    -55.5608E-03    -6.33071E-03     143.216E-03     101.974E+06    -11.5637E+06    -37.3572E+06    -123.927E+06    -37.9559E+06    -123.329E+06    -11.5637E+06     6.94085E+06
             946     18.4601E-03     7.57111E-03     16.8361E-03     112.503E-03    -55.2941E-03    -57.2218E-03    -57.1105E-03     112.392E-03    -55.2941E-03    -8.10550E-03     134.597E-03     126.360E+06    -16.4144E+06    -43.4764E+06    -154.097E+06    -43.9600E+06    -153.613E+06    -16.4144E+06     6.64685E+06
             947     18.0888E-03     6.62607E-03     16.8316E-03     111.430E-03    -55.0701E-03    -56.3635E-03    -56.2270E-03     111.294E-03    -55.0701E-03    -9.09026E-03     127.315E-03     144.020E+06    -23.5628E+06    -49.5517E+06    -178.782E+06    -49.8597E+06    -178.474E+06    -23.5628E+06     5.27608E+06
             948     17.7628E-03     5.68012E-03     16.8301E-03     110.571E-03    -54.8913E-03    -55.6826E-03    -55.5413E-03     110.430E-03    -54.8913E-03    -9.26343E-03     121.770E-03     156.283E+06    -30.2744E+06    -53.2490E+06    -196.748E+06    -53.4130E+06    -196.584E+06    -30.2744E+06     4.40980E+06
             949     17.4823E-03     4.73404E-03     16.8291E-03     109.993E-03    -54.7735E-03    -55.2233E-03    -55.0951E-03     109.868E-03    -54.7770E-03    -8.76177E-03     117.538E-03     171.112E+06    -37.7755E+06    -57.2840E+06    -217.789E+06    -57.3907E+06    -217.682E+06    -37.7755E+06     4.04422E+06
             950     17.2502E-03     3.78794E-03     16.8292E-03     109.529E-03    -54.6754E-03    -54.8526E-03    -54.7408E-03     109.433E-03    -54.6916E-03    -7.72385E-03     114.211E-03     180.522E+06    -48.9916E+06    -62.7659E+06    -235.971E+06    -62.8356E+06    -235.901E+06    -48.9916E+06     3.17179E+06
             951     17.0676E-03     2.84037E-03     16.8296E-03     109.237E-03    -54.5512E-03    -54.6889E-03    -54.5278E-03     109.171E-03    -54.6465E-03    -6.35813E-03     111.961E-03     184.924E+06    -59.1204E+06    -67.1245E+06    -247.904E+06    -67.1507E+06    -247.878E+06    -59.1204E+06     1.53078E+06
             952     16.9377E-03     1.89357E-03     16.8315E-03     109.254E-03    -54.5201E-03    -54.7365E-03    -54.5504E-03     109.219E-03    -54.6714E-03    -4.45251E-03     110.723E-03     189.710E+06    -65.0361E+06    -69.8149E+06    -257.076E+06    -69.8183E+06    -257.073E+06    -65.0361E+06     88.8680E+03
             953     16.8589E-03     946.570E-06     16.8323E-03     109.363E-03    -54.4838E-03    -54.8790E-03    -54.8000E-03     109.353E-03    -54.5526E-03    -2.30927E-03     110.063E-03     187.718E+06    -70.4673E+06    -72.9229E+06    -259.396E+06    -72.4088E+06    -259.390E+06    -70.9875E+06    -109.459E+03
             954     22.8943E-03     16.0436E-03     16.3326E-03     156.239E-03    -58.6602E-03    -97.5785E-03    -64.4885E-03     123.149E-03    -58.6602E-03     165.770E-03     443.200E-03     153.908E+06     157.318E+06     132.574E+06    -7.44976E+06    -7.44226E+06     157.311E+06     132.574E+06    -748.672E+03
             955     22.0529E-03     15.1034E-03     16.0691E-03     161.301E-03    -58.2382E-03    -103.144E-03    -66.6000E-03     124.757E-03    -58.2382E-03     179.594E-03     419.354E-03     144.363E+06     142.363E+06     105.245E+06    -16.4511E+06    -16.4352E+06     142.347E+06     105.245E+06    -122.883E+03
             956     21.3056E-03     14.1653E-03     15.9146E-03     135.903E-03    -57.5315E-03    -78.5333E-03    -65.7261E-03     123.096E-03    -57.5315E-03     95.7217E-03     306.590E-03     131.246E+06     125.087E+06     60.4976E+06    -24.5516E+06    -24.5114E+06     125.047E+06     60.4976E+06     1.02026E+06
             957     20.6366E-03     13.2311E-03     15.8369E-03     124.106E-03    -56.6807E-03    -67.5011E-03    -64.7346E-03     121.340E-03    -56.6807E-03     43.6701E-03     247.953E-03     128.076E+06     114.595E+06     16.9537E+06    -28.6165E+06    -28.5107E+06     114.489E+06     16.9537E+06     1.57351E+06
             958     20.0119E-03     12.2930E-03     15.7910E-03     120.001E-03    -55.9052E-03    -64.1557E-03    -63.4633E-03     119.308E-03    -55.9052E-03     20.0079E-03     207.911E-03     103.539E+06     80.7457E+06    -13.8551E+06    -29.6094E+06    -29.3848E+06     80.5211E+06    -13.8551E+06     2.41128E+06
             959     19.4257E-03     11.3547E-03     15.7617E-03     117.654E-03    -55.2937E-03    -62.4396E-03    -62.3545E-03     117.569E-03    -55.2937E-03     4.92481E-03     183.126E-03     48.1079E+06     18.2274E+06    -24.8927E+06    -32.2885E+06    -30.6008E+06     11.1341E+06    -19.4872E+06     3.74301E+06
             960     18.8772E-03     10.4149E-03     15.7442E-03     115.823E-03    -54.7735E-03    -61.0673E-03    -61.0243E-03     115.780E-03    -54.7735E-03    -2.94432E-03     165.752E-03     37.6382E+06    -14.1260E+06    -29.4627E+06    -56.4177E+06    -32.8133E+06    -53.0671E+06    -14.1260E+06     4.60114E+06
             961     18.3619E-03     9.47311E-03     15.7296E-03     113.778E-03    -54.2378E-03    -59.5204E-03    -59.3555E-03     113.613E-03    -54.2378E-03    -9.26349E-03     150.568E-03     72.4356E+06    -13.6125E+06    -35.4771E+06    -94.3997E+06    -36.3096E+06    -93.5673E+06    -13.6125E+06     6.14266E+06
             962     17.8884E-03     8.53040E-03     15.7235E-03     111.817E-03    -53.7586E-03    -58.0432E-03    -57.7537E-03     111.528E-03    -53.7586E-03    -13.4401E-03     138.877E-03     100.414E+06    -13.2542E+06    -38.7317E+06    -123.926E+06    -39.4928E+06    -123.165E+06    -13.2542E+06     7.92447E+06
             963     17.4530E-03     7.58541E-03     15.7184E-03     109.998E-03    -53.3587E-03    -56.6311E-03    -56.2703E-03     109.637E-03    -53.3587E-03    -14.9274E-03     130.000E-03     125.364E+06    -13.9589E+06    -40.8702E+06    -150.568E+06    -41.4976E+06    -149.941E+06    -13.9589E+06     7.93301E+06
             964     17.0616E-03     6.63965E-03     15.7167E-03     108.283E-03    -53.0134E-03    -55.2559E-03    -54.8626E-03     107.890E-03    -53.0134E-03    -15.5483E-03     122.519E-03     145.030E+06    -20.3836E+06    -44.2400E+06    -175.813E+06    -44.6669E+06    -175.386E+06    -20.3836E+06     6.67771E+06
             965     16.7152E-03     5.69258E-03     15.7160E-03     106.873E-03    -52.7353E-03    -54.1244E-03    -53.7698E-03     106.518E-03    -52.7353E-03    -14.7649E-03     116.816E-03     155.841E+06    -30.2972E+06    -50.4227E+06    -195.214E+06    -50.7020E+06    -194.935E+06    -30.2972E+06     5.70807E+06
             966     16.4168E-03     4.74455E-03     15.7162E-03     106.003E-03    -52.5744E-03    -53.4224E-03    -53.1325E-03     105.713E-03    -52.5744E-03    -13.2934E-03     112.636E-03     170.576E+06    -37.5197E+06    -56.2849E+06    -216.693E+06    -56.4815E+06    -216.496E+06    -37.5197E+06     5.51576E+06
             967     16.1689E-03     3.79585E-03     15.7170E-03     105.304E-03    -52.4429E-03    -52.8559E-03    -52.6324E-03     105.094E-03    -52.4556E-03    -11.2536E-03     109.403E-03     179.382E+06    -46.6895E+06    -60.8272E+06    -232.690E+06    -60.9831E+06    -232.534E+06    -46.6895E+06     5.02013E+06
             968     15.9746E-03     2.84734E-03     15.7188E-03     104.837E-03    -52.2795E-03    -52.5520E-03    -52.3207E-03     104.701E-03    -52.3748E-03    -9.04808E-03     107.199E-03     183.000E+06    -57.5637E+06    -65.3760E+06    -244.329E+06    -65.4390E+06    -244.266E+06    -57.5637E+06     2.79182E+06
             969     15.8333E-03     1.89763E-03     15.7192E-03     104.771E-03    -52.2683E-03    -52.4966E-03    -52.3407E-03     104.697E-03    -52.3509E-03    -6.52932E-03     106.027E-03     188.371E+06    -64.9345E+06    -70.1962E+06    -255.879E+06    -70.2107E+06    -255.864E+06    -64.9345E+06     852.864E+03
             970     15.7486E-03     949.298E-06     15.7200E-03     104.665E-03    -52.2242E-03    -52.4391E-03    -52.3723E-03     104.641E-03    -52.2661E-03    -3.52460E-03     105.266E-03     186.463E+06    -71.2373E+06    -74.3402E+06    -259.225E+06    -73.7055E+06    -259.215E+06    -71.8821E+06     550.834E+03
             971     22.1031E-03     16.0472E-03     15.1998E-03     158.420E-03    -58.4544E-03    -99.9788E-03    -68.0887E-03     126.530E-03    -58.4544E-03     164.327E-03     439.466E-03     153.806E+06     157.092E+06     131.674E+06    -7.82914E+06    -7.82494E+06     157.088E+06     131.674E+06    -483.114E+03
             972     21.2512E-03     15.1111E-03     14.9422E-03     163.451E-03    -57.7831E-03    -105.842E-03    -70.6866E-03     128.295E-03    -57.7831E-03     178.141E-03     416.611E-03     144.353E+06     141.811E+06     105.390E+06    -16.8434E+06    -16.7908E+06     141.758E+06     105.390E+06     860.887E+03
             973     20.4797E-03     14.1783E-03     14.7782E-03     137.512E-03    -56.7830E-03    -80.9033E-03    -69.3236E-03     125.932E-03    -56.7830E-03     90.9591E-03     303.506E-03     131.521E+06     125.452E+06     61.3524E+06    -24.2714E+06    -24.1745E+06     125.355E+06     61.3524E+06     1.26065E+06
             974     19.7917E-03     13.2440E-03     14.7075E-03     124.658E-03    -55.6567E-03    -69.0745E-03    -67.0624E-03     122.646E-03    -55.6567E-03     37.3229E-03     244.398E-03     127.628E+06     113.581E+06     15.4696E+06    -28.8427E+06    -28.7171E+06     113.455E+06     15.4696E+06     1.00678E+06
             975     19.1433E-03     12.3097E-03     14.6607E-03     120.739E-03    -54.6172E-03    -66.1874E-03    -65.7597E-03     120.311E-03    -54.6172E-03     14.1707E-03     204.970E-03     104.786E+06     79.9697E+06    -16.4401E+06    -31.3202E+06    -31.0886E+06     79.7380E+06    -16.4401E+06     2.87300E+06
             976     18.5362E-03     11.3729E-03     14.6372E-03     117.956E-03    -53.7284E-03    -64.3214E-03    -64.2701E-03     117.905E-03    -53.7284E-03    -1.54190E-03     180.134E-03     50.2000E+06     17.8206E+06    -25.6615E+06    -34.4484E+06    -32.9410E+06     11.9958E+06    -21.3441E+06     4.50027E+06
             977     17.9618E-03     10.4341E-03     14.6203E-03     115.371E-03    -52.9213E-03    -62.4541E-03    -62.2643E-03     115.182E-03    -52.9213E-03    -10.2970E-03     162.170E-03     37.7739E+06    -16.1432E+06    -30.0618E+06    -58.1799E+06    -35.1813E+06    -53.0605E+06    -16.1432E+06     5.48268E+06
             978     17.4249E-03     9.49411E-03     14.6112E-03     112.457E-03    -52.1124E-03    -60.3005E-03    -59.8358E-03     111.992E-03    -52.1124E-03    -17.1061E-03     146.396E-03     71.7173E+06    -15.8180E+06    -36.6482E+06    -95.5785E+06    -37.6834E+06    -94.5433E+06    -15.8180E+06     7.22359E+06
             979     16.9252E-03     8.55032E-03     14.6067E-03     109.503E-03    -51.3770E-03    -58.1068E-03    -57.4256E-03     108.822E-03    -51.3770E-03    -20.9408E-03     134.173E-03     96.2366E+06    -16.6359E+06    -39.0098E+06    -122.036E+06    -39.7706E+06    -121.275E+06    -16.6359E+06     7.23897E+06
             980     16.4667E-03     7.60575E-03     14.6050E-03     106.841E-03    -50.7627E-03    -56.0721E-03    -55.2758E-03     106.045E-03    -50.7627E-03    -22.3617E-03     124.703E-03     120.589E+06    -17.5060E+06    -41.1101E+06    -148.107E+06    -41.6162E+06    -147.601E+06    -17.5060E+06     6.80516E+06
             981     16.0510E-03     6.65831E-03     14.6049E-03     104.294E-03    -50.2521E-03    -54.0351E-03    -53.2126E-03     103.472E-03    -50.2521E-03    -22.4514E-03     116.860E-03     142.961E+06    -21.7936E+06    -44.9689E+06    -174.890E+06    -45.5386E+06    -174.320E+06    -21.7936E+06     8.34403E+06
             982     15.6833E-03     5.70906E-03     14.6073E-03     102.122E-03    -49.8364E-03    -52.2755E-03    -51.5559E-03     101.402E-03    -49.8364E-03    -20.6913E-03     110.771E-03     153.286E+06    -30.8542E+06    -49.8529E+06    -192.725E+06    -50.4125E+06    -192.166E+06    -30.8542E+06     8.68474E+06
             983     15.3639E-03     4.75864E-03     14.6084E-03     100.612E-03    -49.5830E-03    -51.0160E-03    -50.4421E-03     100.038E-03    -49.5830E-03    -18.3113E-03     106.275E-03     168.076E+06    -38.7491E+06    -55.4957E+06    -214.567E+06    -55.9006E+06    -214.162E+06    -38.7491E+06     7.71655E+06
             984     15.0984E-03     3.80758E-03     14.6104E-03     99.6429E-03    -49.4107E-03    -50.2214E-03    -49.8076E-03     99.2291E-03    -49.4107E-03    -15.4152E-03     103.101E-03     175.329E+06    -47.2529E+06    -61.1148E+06    -229.085E+06    -61.3641E+06    -228.836E+06    -47.2529E+06     6.37546E+06
             985     14.8882E-03     2.85555E-03     14.6118E-03     99.0053E-03    -49.2582E-03    -49.7352E-03    -49.4834E-03     98.7534E-03    -49.2582E-03    -11.9346E-03     100.962E-03     179.130E+06    -56.0202E+06    -65.8199E+06    -239.841E+06    -65.9434E+06    -239.718E+06    -56.0202E+06     4.35398E+06
             986     14.7362E-03     1.90480E-03     14.6126E-03     98.5427E-03    -49.1413E-03    -49.3901E-03    -49.2669E-03     98.4195E-03    -49.1413E-03    -8.23646E-03     99.5750E-03     186.637E+06    -63.9844E+06    -69.9852E+06    -253.529E+06    -70.0285E+06    -253.486E+06    -63.9844E+06     2.66293E+06
             987     14.6450E-03     951.915E-06     14.6141E-03     98.1998E-03    -48.9914E-03    -49.2040E-03    -49.1199E-03     98.1576E-03    -49.0334E-03    -4.61616E-03     98.7883E-03     185.418E+06    -70.7468E+06    -72.9281E+06    -257.242E+06    -72.3590E+06    -257.229E+06    -71.3287E+06     697.824E+03
             988     21.3457E-03     16.0509E-03     14.0715E-03     161.680E-03    -58.1695E-03    -103.664E-03    -73.3245E-03     131.341E-03    -58.1695E-03     162.195E-03     434.542E-03     153.341E+06     156.505E+06     131.210E+06    -7.90322E+06    -7.88660E+06     156.489E+06     131.210E+06     72.8212E+03
             989     20.4718E-03     15.1191E-03     13.8024E-03     166.535E-03    -57.1643E-03    -109.609E-03    -75.7487E-03     132.675E-03    -57.1643E-03     177.600E-03     413.057E-03     143.815E+06     141.120E+06     105.486E+06    -16.7748E+06    -16.7011E+06     141.046E+06     105.486E+06     1.13703E+06
             990     19.6866E-03     14.1925E-03     13.6431E-03     138.912E-03    -55.8601E-03    -83.1894E-03    -72.5472E-03     128.270E-03    -55.8601E-03     87.5307E-03     300.313E-03     131.349E+06     125.673E+06     62.0967E+06    -23.7362E+06    -23.5886E+06     125.525E+06     62.0967E+06     1.53040E+06
             991     18.9782E-03     13.2612E-03     13.5762E-03     125.663E-03    -54.4645E-03    -71.2887E-03    -69.6638E-03     124.039E-03    -54.4645E-03     33.7928E-03     241.557E-03     127.100E+06     113.462E+06     15.7243E+06    -28.3401E+06    -28.1832E+06     113.305E+06     15.7243E+06     2.75135E+06
             992     18.3050E-03     12.3277E-03     13.5314E-03     121.955E-03    -53.1273E-03    -68.8822E-03    -68.5523E-03     121.625E-03    -53.1273E-03     9.62447E-03     203.291E-03     105.092E+06     78.9125E+06    -17.7308E+06    -32.7581E+06    -32.5071E+06     78.6615E+06    -17.7308E+06     4.23925E+06
             993     17.6743E-03     11.3939E-03     13.5115E-03     118.590E-03    -51.8975E-03    -66.7752E-03    -66.6530E-03     118.468E-03    -51.8975E-03    -7.62081E-03     178.354E-03     50.6652E+06     17.2599E+06    -25.2799E+06    -35.8502E+06    -34.4998E+06     13.2336E+06    -22.6041E+06     4.95394E+06
             994     17.0754E-03     10.4579E-03     13.4982E-03     114.987E-03    -50.7488E-03    -64.2312E-03    -63.7948E-03     114.551E-03    -50.7488E-03    -16.7864E-03     159.320E-03     37.6759E+06    -17.2417E+06    -28.6985E+06    -59.2025E+06    -35.5451E+06    -52.3558E+06    -17.2417E+06     6.20490E+06
             995     16.5127E-03     9.51800E-03     13.4936E-03     111.200E-03    -49.5968E-03    -61.5411E-03    -60.6805E-03     110.339E-03    -49.5968E-03    -23.9380E-03     142.969E-03     68.7578E+06    -19.6510E+06    -36.0456E+06    -94.9165E+06    -37.1436E+06    -93.8186E+06    -19.6510E+06     6.68573E+06
             996     15.9879E-03     8.57584E-03     13.4932E-03     107.185E-03    -48.5401E-03    -58.6326E-03    -57.4306E-03     105.983E-03    -48.5401E-03    -27.8662E-03     129.921E-03     92.0869E+06    -20.8495E+06    -38.0250E+06    -120.196E+06    -38.8278E+06    -119.393E+06    -20.8495E+06     6.92420E+06
             997     15.5030E-03     7.62942E-03     13.4957E-03     103.249E-03    -47.6625E-03    -55.5912E-03    -54.2126E-03     101.871E-03    -47.6625E-03    -29.2219E-03     119.354E-03     118.800E+06    -20.3239E+06    -42.3545E+06    -148.585E+06    -43.0945E+06    -147.845E+06    -20.3239E+06     8.24046E+06
             998     15.0629E-03     6.68095E-03     13.5002E-03     99.7995E-03    -46.9233E-03    -52.8720E-03    -51.4892E-03     98.4167E-03    -46.9233E-03    -28.7090E-03     110.912E-03     141.621E+06    -22.1255E+06    -46.4213E+06    -174.303E+06    -47.0649E+06    -173.659E+06    -22.1255E+06     8.99855E+06
             999     14.6698E-03     5.72992E-03     13.5045E-03     96.7134E-03    -46.3022E-03    -50.4010E-03    -49.1831E-03     95.4956E-03    -46.3022E-03    -26.4275E-03     104.156E-03     151.410E+06    -29.5812E+06    -49.5788E+06    -189.956E+06    -50.2819E+06    -189.253E+06    -29.5812E+06     9.89237E+06
            1000     14.3271E-03     4.77682E-03     13.5073E-03     94.3155E-03    -45.8786E-03    -48.4236E-03    -47.4603E-03     93.3522E-03    -45.8786E-03    -23.1400E-03     99.0689E-03     165.940E+06    -37.5421E+06    -53.9677E+06    -211.079E+06    -54.6160E+06    -210.430E+06    -37.5421E+06     9.88442E+06
            1001     14.0405E-03     3.82224E-03     13.5102E-03     92.6541E-03    -45.5775E-03    -47.0674E-03    -46.3828E-03     91.9695E-03    -45.5775E-03    -19.2477E-03     95.5038E-03     172.965E+06    -45.5242E+06    -58.8779E+06    -224.762E+06    -59.2663E+06    -224.373E+06    -45.5242E+06     7.85952E+06
            1002     13.8139E-03     2.86775E-03     13.5130E-03     91.4587E-03    -45.3606E-03    -46.0842E-03    -45.6708E-03     91.0453E-03    -45.3606E-03    -14.7699E-03     93.0109E-03     176.570E+06    -54.6961E+06    -63.5192E+06    -235.495E+06    -63.6996E+06    -235.315E+06    -54.6961E+06     5.32215E+06
            1003     13.6493E-03     1.91105E-03     13.5149E-03     90.8170E-03    -45.2489E-03    -45.5520E-03    -45.3541E-03     90.6191E-03    -45.2489E-03    -9.95952E-03     91.6098E-03     186.035E+06    -60.4525E+06    -66.3571E+06    -249.349E+06    -66.4190E+06    -249.287E+06    -60.4525E+06     3.25262E+06
            1004     13.5496E-03     956.268E-06     13.5158E-03     90.4433E-03    -45.0092E-03    -45.4290E-03    -45.3626E-03     90.3769E-03    -45.0092E-03    -5.66505E-03     90.9019E-03     185.089E+06    -67.5312E+06    -70.6128E+06    -254.132E+06    -70.1985E+06    -254.089E+06    -67.9886E+06     2.03014E+06
            1005     20.6164E-03     16.0563E-03     12.9318E-03     165.710E-03    -57.8128E-03    -108.136E-03    -79.6511E-03     137.225E-03    -57.8128E-03     159.365E-03     427.415E-03     152.394E+06     155.965E+06     130.848E+06    -7.41412E+06    -7.39252E+06     155.943E+06     130.848E+06     705.307E+03
            1006     19.7310E-03     15.1331E-03     12.6611E-03     168.079E-03    -56.4615E-03    -111.857E-03    -79.5257E-03     135.748E-03    -56.4615E-03     175.617E-03     408.168E-03     142.152E+06     139.850E+06     104.149E+06    -16.2725E+06    -16.1542E+06     139.731E+06     104.149E+06     2.40291E+06
            1007     18.9250E-03     14.2046E-03     12.5055E-03     139.917E-03    -54.9178E-03    -85.1617E-03    -75.1306E-03     129.886E-03    -54.9178E-03     85.3841E-03     298.349E-03     130.883E+06     125.021E+06     61.6499E+06    -24.1132E+06    -23.9425E+06     124.850E+06     61.6499E+06     2.60647E+06
            1008     18.1952E-03     13.2762E-03     12.4422E-03     127.841E-03    -53.2458E-03    -74.7797E-03    -73.3550E-03     126.416E-03    -53.2458E-03     31.2757E-03     241.019E-03     126.753E+06     112.340E+06     16.5496E+06    -29.6075E+06    -29.4194E+06     112.151E+06     16.5496E+06     3.82961E+06
            1009     17.4993E-03     12.3481E-03     12.3996E-03     123.236E-03    -51.5637E-03    -71.7947E-03    -71.5533E-03     122.995E-03    -51.5637E-03     5.82768E-03     202.644E-03     105.370E+06     80.0361E+06    -16.1776E+06    -32.1821E+06    -31.8843E+06     79.7382E+06    -16.1776E+06     4.68227E+06
            1010     16.8436E-03     11.4170E-03     12.3838E-03     118.995E-03    -49.9955E-03    -69.0775E-03    -68.8624E-03     118.779E-03    -49.9955E-03    -11.5382E-03     177.343E-03     51.5606E+06     19.2136E+06    -23.9717E+06    -34.6331E+06    -32.7043E+06     14.5694E+06    -21.2563E+06     5.39801E+06
            1011     16.2195E-03     10.4818E-03     12.3775E-03     114.891E-03    -48.4951E-03    -66.3961E-03    -65.7352E-03     114.230E-03    -48.4951E-03    -21.2030E-03     157.817E-03     37.5046E+06    -16.1068E+06    -27.7453E+06    -57.9256E+06    -34.4547E+06    -51.2162E+06    -16.1068E+06     6.48175E+06
            1012     15.6299E-03     9.54403E-03     12.3776E-03     110.178E-03    -46.9752E-03    -63.1448E-03    -61.9043E-03     108.937E-03    -46.9752E-03    -28.8912E-03     140.565E-03     68.2815E+06    -18.6915E+06    -35.3968E+06    -93.5445E+06    -36.6088E+06    -92.3324E+06    -18.6915E+06     6.90319E+06
            1013     15.0782E-03     8.60205E-03     12.3838E-03     105.001E-03    -45.5604E-03    -59.4367E-03    -57.7330E-03     103.297E-03    -45.5604E-03    -33.1526E-03     126.563E-03     92.2610E+06    -20.4415E+06    -38.5722E+06    -120.298E+06    -39.5586E+06    -119.312E+06    -20.4415E+06     7.78173E+06
            1014     14.5669E-03     7.65627E-03     12.3926E-03     99.8733E-03    -44.3484E-03    -55.5302E-03    -53.5935E-03     97.9366E-03    -44.3484E-03    -34.3885E-03     114.911E-03     120.050E+06    -18.3164E+06    -40.8369E+06    -148.010E+06    -41.6348E+06    -147.212E+06    -18.3164E+06     8.82534E+06
            1015     14.0969E-03     6.70587E-03     12.3998E-03     95.2314E-03    -43.3006E-03    -51.9166E-03    -49.9628E-03     93.2775E-03    -43.3006E-03    -33.5841E-03     105.362E-03     142.835E+06    -20.1182E+06    -44.2398E+06    -173.456E+06    -44.9864E+06    -172.709E+06    -20.1182E+06     9.74119E+06
            1016     13.6775E-03     5.75305E-03     12.4088E-03     91.0999E-03    -42.4032E-03    -48.6800E-03    -46.9336E-03     89.3535E-03    -42.4032E-03    -30.9119E-03     97.7070E-03     151.524E+06    -27.1335E+06    -49.6637E+06    -188.639E+06    -50.4395E+06    -187.863E+06    -27.1335E+06     10.3381E+06
            1017     13.3095E-03     4.79721E-03     12.4149E-03     87.5720E-03    -41.7174E-03    -45.8413E-03    -44.4571E-03     86.1878E-03    -41.7174E-03    -26.8641E-03     91.6672E-03     162.742E+06    -35.5946E+06    -53.4365E+06    -206.459E+06    -54.1015E+06    -205.794E+06    -35.5946E+06     9.98219E+06
            1018     13.0001E-03     3.83990E-03     12.4201E-03     84.8141E-03    -41.2170E-03    -43.5880E-03    -42.6096E-03     83.8356E-03    -41.2170E-03    -22.1149E-03     87.1910E-03     169.041E+06    -45.3290E+06    -56.0025E+06    -219.413E+06    -56.4347E+06    -218.981E+06    -45.3290E+06     8.27740E+06
            1019     12.7532E-03     2.87997E-03     12.4238E-03     82.9973E-03    -40.8993E-03    -42.0825E-03    -41.4862E-03     82.4010E-03    -40.8993E-03    -16.9499E-03     84.2561E-03     174.757E+06    -53.2267E+06    -58.4187E+06    -230.507E+06    -58.6741E+06    -230.251E+06    -53.2267E+06     6.41327E+06
            1020     12.5734E-03     1.92101E-03     12.4258E-03     81.9353E-03    -40.7501E-03    -41.1690E-03    -40.8838E-03     81.6501E-03    -40.7501E-03    -11.4421E-03     82.5395E-03     184.453E+06    -58.6864E+06    -62.9590E+06    -245.233E+06    -63.0979E+06    -245.094E+06    -58.6864E+06     4.65174E+06
            1021     12.4645E-03     959.896E-06     12.4275E-03     81.4773E-03    -40.4835E-03    -40.9882E-03    -40.8939E-03     81.3830E-03    -40.4835E-03    -6.39539E-03     81.8245E-03     184.125E+06    -63.5399E+06    -66.9623E+06    -249.344E+06    -67.0232E+06    -249.283E+06    -63.5399E+06     3.12256E+06
            1022     19.9223E-03     16.0644E-03     11.7828E-03     169.738E-03    -57.4966E-03    -112.442E-03    -85.3696E-03     142.665E-03    -57.4966E-03     157.700E-03     420.288E-03     151.912E+06     154.359E+06     129.828E+06    -8.31809E+06    -8.30446E+06     154.345E+06     129.828E+06     1.02360E+06
            1023     19.0258E-03     15.1418E-03     11.5199E-03     169.739E-03    -55.8486E-03    -114.132E-03    -83.2018E-03     138.809E-03    -55.8486E-03     173.642E-03     404.335E-03     141.955E+06     138.233E+06     105.008E+06    -16.9671E+06    -16.8669E+06     138.133E+06     105.008E+06     2.55602E+06
            1024     18.2028E-03     14.2170E-03     11.3675E-03     141.935E-03    -54.0321E-03    -88.1293E-03    -78.5576E-03     132.363E-03    -54.0321E-03     83.9565E-03     296.699E-03     130.367E+06     124.707E+06     64.3547E+06    -23.4178E+06    -23.1348E+06     124.424E+06     64.3547E+06     4.11114E+06
            1025     17.4477E-03     13.2932E-03     11.3010E-03     129.284E-03    -52.0642E-03    -77.4641E-03    -76.2476E-03     128.068E-03    -52.0642E-03     28.5552E-03     239.724E-03     126.587E+06     113.375E+06     18.9463E+06    -28.4850E+06    -28.1779E+06     113.068E+06     18.9463E+06     4.28968E+06
            1026     16.7307E-03     12.3675E-03     11.2676E-03     123.764E-03    -50.1021E-03    -73.8206E-03    -73.6584E-03     123.602E-03    -50.1021E-03     3.68714E-03     201.948E-03     104.716E+06     80.6738E+06    -14.2414E+06    -31.3130E+06    -30.9001E+06     80.2610E+06    -14.2414E+06     4.63058E+06
            1027     16.0468E-03     11.4363E-03     11.2565E-03     119.448E-03    -48.2513E-03    -71.2587E-03    -70.9890E-03     119.179E-03    -48.2513E-03    -12.9589E-03     176.897E-03     52.3148E+06     19.3947E+06    -22.3319E+06    -35.5840E+06    -33.3749E+06     14.9332E+06    -20.0795E+06     6.45940E+06
            1028     15.3960E-03     10.5045E-03     11.2558E-03     114.922E-03    -46.4271E-03    -68.5070E-03    -67.6853E-03     114.100E-03    -46.4271E-03    -23.8290E-03     157.118E-03     39.3159E+06    -14.5602E+06    -27.8518E+06    -58.6434E+06    -36.4990E+06    -49.9963E+06    -14.5602E+06     7.58079E+06
            1029     14.7787E-03     9.56849E-03     11.2629E-03     109.123E-03    -44.5638E-03    -64.5229E-03    -63.0624E-03     107.662E-03    -44.5638E-03    -31.4882E-03     139.005E-03     68.2621E+06    -16.5841E+06    -38.1192E+06    -92.8719E+06    -39.8593E+06    -91.1319E+06    -16.5841E+06     7.99780E+06
            1030     14.1981E-03     8.62703E-03     11.2765E-03     103.044E-03    -42.7971E-03    -60.2410E-03    -58.2876E-03     101.091E-03    -42.7971E-03    -35.4209E-03     124.262E-03     89.4570E+06    -19.6440E+06    -40.2799E+06    -117.581E+06    -41.0042E+06    -116.856E+06    -19.6440E+06     6.43257E+06
            1031     13.6554E-03     7.68097E-03     11.2904E-03     97.1104E-03    -41.2211E-03    -55.8852E-03    -53.6301E-03     94.8554E-03    -41.2211E-03    -36.8353E-03     111.870E-03     120.114E+06    -17.6342E+06    -40.6439E+06    -147.560E+06    -41.1058E+06    -147.099E+06    -17.6342E+06     6.86356E+06
            1032     13.1584E-03     6.73097E-03     11.3065E-03     91.1656E-03    -39.8198E-03    -51.3297E-03    -49.0296E-03     88.8656E-03    -39.8198E-03    -35.9018E-03     101.088E-03     145.616E+06    -16.6551E+06    -42.1230E+06    -173.298E+06    -42.8736E+06    -172.548E+06    -16.6551E+06     9.79978E+06
            1033     12.7079E-03     5.77591E-03     11.3194E-03     85.7543E-03    -38.6019E-03    -47.1398E-03    -45.0565E-03     83.6710E-03    -38.6019E-03    -32.9908E-03     92.1858E-03     154.788E+06    -21.1075E+06    -44.2491E+06    -186.123E+06    -44.9529E+06    -185.420E+06    -21.1075E+06     9.83299E+06
            1034     12.3118E-03     4.81842E-03     11.3298E-03     81.1040E-03    -37.6224E-03    -43.4734E-03    -41.7935E-03     79.4242E-03    -37.6224E-03    -28.6626E-03     85.0322E-03     165.108E+06    -30.3376E+06    -47.4020E+06    -203.243E+06    -47.9874E+06    -202.658E+06    -30.3376E+06     9.43702E+06
            1035     11.9758E-03     3.85684E-03     11.3377E-03     77.2672E-03    -36.8624E-03    -40.3984E-03    -39.2056E-03     76.0744E-03    -36.8624E-03    -23.4466E-03     79.4794E-03     167.690E+06    -42.5184E+06    -51.4038E+06    -214.439E+06    -51.9456E+06    -213.897E+06    -42.5184E+06     9.25070E+06
            1036     11.7066E-03     2.89457E-03     11.3431E-03     74.5729E-03    -36.3371E-03    -38.2247E-03    -37.4925E-03     73.8407E-03    -36.3371E-03    -17.9069E-03     75.7159E-03     172.934E+06    -50.9586E+06    -55.4989E+06    -226.115E+06    -55.9006E+06    -225.713E+06    -50.9586E+06     8.11348E+06
            1037     11.5102E-03     1.92958E-03     11.3473E-03     72.8625E-03    -36.0172E-03    -36.8345E-03    -36.4753E-03     72.5034E-03    -36.0172E-03    -12.1812E-03     73.3950E-03     182.676E+06    -55.8452E+06    -59.1912E+06    -240.166E+06    -58.9945E+06    -239.932E+06    -56.2751E+06     6.32677E+06
            1038     11.3897E-03     965.253E-06     11.3487E-03     71.9043E-03    -35.7212E-03    -36.1776E-03    -36.0369E-03     71.7862E-03    -35.7437E-03    -6.55702E-03     72.1851E-03     182.259E+06    -60.0427E+06    -61.8298E+06    -243.188E+06    -61.3459E+06    -243.110E+06    -60.6043E+06     3.21881E+06
            1039     19.2620E-03     16.0655E-03     10.6267E-03     172.602E-03    -57.2957E-03    -115.430E-03    -90.3327E-03     147.505E-03    -57.2957E-03     153.855E-03     413.329E-03     150.788E+06     153.240E+06     129.887E+06    -7.84747E+06    -7.82793E+06     153.221E+06     129.887E+06     1.59287E+06
            1040     18.3610E-03     15.1490E-03     10.3746E-03     171.369E-03    -55.3513E-03    -116.218E-03    -87.3668E-03     142.518E-03    -55.3513E-03     169.709E-03     399.892E-03     140.297E+06     136.615E+06     106.406E+06    -16.0418E+06    -15.9484E+06     136.521E+06     106.406E+06     2.17990E+06
            1041     17.5209E-03     14.2306E-03     10.2211E-03     143.508E-03    -53.2829E-03    -90.4418E-03    -81.2278E-03     134.294E-03    -53.2829E-03     83.8391E-03     293.427E-03     129.724E+06     124.065E+06     67.8734E+06    -22.9207E+06    -22.6378E+06     123.783E+06     67.8734E+06     4.01704E+06
            1042     16.7450E-03     13.3082E-03     10.1629E-03     129.513E-03    -51.1279E-03    -78.6233E-03    -77.3265E-03     128.216E-03    -51.1279E-03     30.0109E-03     237.320E-03     126.028E+06     113.335E+06     21.3237E+06    -28.0355E+06    -27.4970E+06     112.797E+06     21.3237E+06     5.69952E+06
            1043     15.9995E-03     12.3803E-03     10.1347E-03     124.306E-03    -48.9948E-03    -75.4586E-03    -75.2656E-03     124.113E-03    -48.9948E-03     5.43404E-03     201.737E-03     104.561E+06     80.0097E+06    -13.5382E+06    -32.7370E+06    -32.0467E+06     79.3193E+06    -13.5382E+06     6.88224E+06
            1044     15.2902E-03     11.4539E-03     10.1290E-03     119.931E-03    -46.9251E-03    -73.0626E-03    -72.8367E-03     119.705E-03    -46.9251E-03    -11.4993E-03     176.855E-03     54.7623E+06     20.3390E+06    -20.4707E+06    -38.0039E+06    -35.4290E+06     15.5009E+06    -18.2075E+06     8.07464E+06
            1045     14.6086E-03     10.5229E-03     10.1331E-03     114.473E-03    -44.8578E-03    -69.6153E-03    -68.8426E-03     113.700E-03    -44.8578E-03    -22.9017E-03     156.680E-03     42.4970E+06    -12.2901E+06    -27.6406E+06    -60.0216E+06    -38.4395E+06    -49.2227E+06    -12.2901E+06     9.34205E+06
            1046     13.9623E-03     9.58664E-03     10.1509E-03     108.103E-03    -42.7488E-03    -65.3185E-03    -63.9516E-03     106.736E-03    -42.7488E-03    -30.4737E-03     138.493E-03     65.4249E+06    -13.6414E+06    -38.7103E+06    -87.6999E+06    -40.2108E+06    -86.1993E+06    -13.6414E+06     6.74465E+06
            1047     13.3490E-03     8.64602E-03     10.1706E-03     101.476E-03    -40.7199E-03    -60.7513E-03    -58.9339E-03     99.6589E-03    -40.7199E-03    -34.0093E-03     123.400E-03     88.4351E+06    -16.3032E+06    -40.7496E+06    -114.180E+06    -40.9793E+06    -113.950E+06    -16.3032E+06     4.04412E+06
            1048     12.7757E-03     7.70116E-03     10.1937E-03     94.8541E-03    -38.8407E-03    -56.0078E-03    -53.8825E-03     92.7289E-03    -38.8407E-03    -35.4896E-03     110.424E-03     121.548E+06    -16.2955E+06    -43.0822E+06    -148.971E+06    -43.3378E+06    -148.715E+06    -16.2955E+06     5.13881E+06
            1049     12.2447E-03     6.75032E-03     10.2159E-03     88.0564E-03    -37.0929E-03    -50.9526E-03    -48.7923E-03     85.8961E-03    -37.0929E-03    -34.3477E-03     98.7565E-03     143.582E+06    -16.7508E+06    -43.3189E+06    -171.733E+06    -43.6642E+06    -171.387E+06    -16.7508E+06     5.52006E+06
            1050     11.7624E-03     5.79552E-03     10.2355E-03     81.5315E-03    -35.5520E-03    -45.9674E-03    -43.9985E-03     79.5626E-03    -35.5520E-03    -31.4127E-03     88.6008E-03     155.133E+06    -19.7149E+06    -41.9189E+06    -184.718E+06    -42.3579E+06    -184.279E+06    -19.7149E+06     6.80735E+06
            1051     11.3344E-03     4.83500E-03     10.2514E-03     75.9458E-03    -34.2987E-03    -41.6445E-03    -40.0257E-03     74.3270E-03    -34.2987E-03    -27.3563E-03     80.3314E-03     169.984E+06    -23.7791E+06    -43.0742E+06    -202.552E+06    -43.6453E+06    -201.981E+06    -23.7791E+06     9.48331E+06
            1052     10.9699E-03     3.87268E-03     10.2636E-03     71.2554E-03    -33.2457E-03    -38.0197E-03    -36.8457E-03     70.0815E-03    -33.2457E-03    -22.4475E-03     73.7701E-03     171.580E+06    -33.2419E+06    -46.8185E+06    -211.129E+06    -47.5367E+06    -210.411E+06    -33.2419E+06     10.7933E+06
            1053     10.6749E-03     2.90605E-03     10.2717E-03     67.5211E-03    -32.4173E-03    -35.1062E-03    -34.3755E-03     66.7904E-03    -32.4173E-03    -17.1038E-03     68.8073E-03     173.611E+06    -43.1102E+06    -50.8818E+06    -220.460E+06    -51.4257E+06    -219.917E+06    -43.1102E+06     9.26579E+06
            1054     10.4590E-03     1.93905E-03     10.2777E-03     64.9755E-03    -31.8409E-03    -33.1265E-03    -32.7631E-03     64.6120E-03    -31.8409E-03    -11.6409E-03     65.5475E-03     183.242E+06    -47.3645E+06    -53.5947E+06    -233.625E+06    -53.4118E+06    -233.378E+06    -47.7945E+06     6.61676E+06
            1055     10.3264E-03     969.785E-06     10.2807E-03     63.2809E-03    -31.4209E-03    -31.8571E-03    -31.7117E-03     63.1581E-03    -31.4435E-03    -6.32829E-03     63.5123E-03     181.758E+06    -52.2386E+06    -56.2567E+06    -235.950E+06    -54.6216E+06    -235.835E+06    -53.9887E+06     4.19335E+06
            1056     18.6500E-03     16.0688E-03     9.46673E-03     175.628E-03    -57.2368E-03    -118.493E-03    -94.7241E-03     151.859E-03    -57.2368E-03     150.599E-03     404.918E-03     149.705E+06     152.583E+06     129.550E+06    -7.28862E+06    -7.24650E+06     152.541E+06     129.550E+06     2.02691E+06
            1057     17.7414E-03     15.1568E-03     9.22118E-03     172.754E-03    -55.0912E-03    -117.877E-03    -89.8520E-03     144.729E-03    -55.0912E-03     168.854E-03     394.016E-03     140.372E+06     137.046E+06     106.863E+06    -15.6773E+06    -15.5600E+06     136.929E+06     106.863E+06     3.33275E+06
            1058     16.8851E-03     14.2371E-03     9.07795E-03     144.072E-03    -52.9267E-03    -91.3845E-03    -81.9411E-03     134.629E-03    -52.9267E-03     86.5581E-03     289.230E-03     128.398E+06     121.798E+06     67.4073E+06    -23.6679E+06    -23.3364E+06     121.467E+06     67.4073E+06     4.78001E+06
            1059     16.0826E-03     13.3115E-03     9.02521E-03     130.286E-03    -50.7108E-03    -79.8362E-03    -78.1563E-03     128.606E-03    -50.7108E-03     34.8291E-03     235.358E-03     124.497E+06     109.435E+06     22.0283E+06    -31.3205E+06    -30.7131E+06     108.828E+06     22.0283E+06     7.02308E+06
            1060     15.3127E-03     12.3887E-03     8.99990E-03     124.784E-03    -48.4946E-03    -76.4713E-03    -76.2007E-03     124.513E-03    -48.4946E-03     9.74076E-03     201.054E-03     105.036E+06     80.4267E+06    -9.12821E+06    -34.9638E+06    -33.9605E+06     79.4234E+06    -9.12821E+06     9.12815E+06
            1061     14.5723E-03     11.4610E-03     8.99976E-03     119.204E-03    -46.3648E-03    -72.8961E-03    -72.7944E-03     119.103E-03    -46.3648E-03    -6.39321E-03     176.422E-03     59.0083E+06     24.4535E+06    -18.2001E+06    -39.9195E+06    -36.6687E+06     16.0049E+06    -13.0022E+06     9.88469E+06
            1062     13.8608E-03     10.5303E-03     9.01305E-03     113.522E-03    -44.2422E-03    -69.2717E-03    -68.8227E-03     113.073E-03    -44.2422E-03    -16.6544E-03     157.037E-03     43.0700E+06    -6.83786E+06    -28.0119E+06    -55.2849E+06    -38.3108E+06    -44.9860E+06    -6.83786E+06     7.23948E+06
            1063     13.1819E-03     9.59560E-03     9.03815E-03     107.228E-03    -42.0632E-03    -65.1361E-03    -64.2664E-03     106.359E-03    -42.0632E-03    -23.7203E-03     139.491E-03     65.2748E+06    -5.45080E+06    -36.8820E+06    -79.7768E+06    -37.2786E+06    -79.3802E+06    -5.45080E+06     3.16151E+06
            1064     12.5353E-03     8.65573E-03     9.06708E-03     100.287E-03    -39.9224E-03    -60.3570E-03    -59.1775E-03     99.1071E-03    -39.9224E-03    -26.7670E-03     124.532E-03     95.5557E+06    -8.40473E+06    -38.0240E+06    -115.015E+06    -38.1502E+06    -114.889E+06    -8.40473E+06     2.78618E+06
            1065     11.9257E-03     7.70986E-03     9.09844E-03     93.3821E-03    -37.8771E-03    -55.4966E-03    -54.1213E-03     92.0068E-03    -37.8771E-03    -27.9023E-03     111.267E-03     124.648E+06    -11.0106E+06    -39.4508E+06    -147.395E+06    -39.5752E+06    -147.270E+06    -11.0106E+06     2.44357E+06
            1066     11.3586E-03     6.76030E-03     9.12775E-03     86.5568E-03    -35.9426E-03    -50.5997E-03    -49.1908E-03     85.1478E-03    -35.9426E-03    -27.1433E-03     99.4039E-03     146.528E+06    -11.7695E+06    -40.8549E+06    -170.623E+06    -40.9135E+06    -170.564E+06    -11.7695E+06     937.689E+03
            1067     10.8402E-03     5.80461E-03     9.15514E-03     79.8335E-03    -34.1558E-03    -45.6564E-03    -44.3502E-03     78.5273E-03    -34.1558E-03    -25.0276E-03     88.6879E-03     160.872E+06    -14.3356E+06    -42.8113E+06    -187.492E+06    -42.9743E+06    -187.329E+06    -14.3356E+06     3.39809E+06
            1068     10.3780E-03     4.84555E-03     9.17732E-03     73.6226E-03    -32.5970E-03    -41.0161E-03    -39.9150E-03     72.5215E-03    -32.5970E-03    -22.0163E-03     79.3208E-03     173.531E+06    -16.9550E+06     -44.527E+06    -202.578E+06    -44.8648E+06    -202.240E+06    -16.9550E+06     6.78037E+06
            1069     9.98034E-03     3.88100E-03     9.19484E-03     68.1258E-03    -31.2377E-03    -36.9035E-03    -36.0738E-03     67.2961E-03    -31.2377E-03    -18.3216E-03     71.5233E-03     176.331E+06    -22.0024E+06    -44.6844E+06    -208.489E+06    -45.0958E+06    -208.078E+06    -22.0024E+06     7.29258E+06
            1070     9.65804E-03     2.91480E-03     9.20770E-03     63.5555E-03    -30.0964E-03    -33.4687E-03    -32.9396E-03     63.0264E-03    -30.0964E-03    -14.0309E-03     65.3587E-03     177.829E+06    -30.1025E+06    -44.2695E+06    -214.518E+06    -44.6332E+06    -214.154E+06    -30.1025E+06     7.02554E+06
            1071     9.41937E-03     1.94419E-03     9.21654E-03     60.0889E-03    -29.2513E-03    -30.8308E-03    -30.5660E-03     59.8241E-03    -29.2513E-03    -9.50322E-03     60.9480E-03     186.153E+06    -36.1461E+06    -46.0884E+06    -227.064E+06    -46.2641E+06    -226.888E+06    -36.1461E+06     5.12572E+06
            1072     9.27228E-03     972.856E-06     9.22111E-03     57.8193E-03    -28.6271E-03    -29.1894E-03    -29.0965E-03     57.7264E-03    -28.6271E-03    -5.36177E-03     58.2501E-03     183.757E+06    -41.8615E+06    -49.3558E+06    -229.245E+06    -48.2485E+06    -229.164E+06    -43.0499E+06     3.50636E+06
            1073     18.0847E-03     16.0655E-03     8.30394E-03     178.289E-03    -57.5407E-03    -120.962E-03    -96.9428E-03     154.269E-03    -57.5407E-03     150.551E-03     393.351E-03     151.179E+06     151.371E+06     128.377E+06    -9.96434E+06    -9.88978E+06     151.296E+06     128.377E+06     2.77175E+06
            1074     17.1629E-03     15.1513E-03     8.06260E-03     173.797E-03    -55.3722E-03    -118.829E-03    -90.1419E-03     145.110E-03    -55.3722E-03     170.953E-03     386.947E-03     141.219E+06     135.125E+06     105.851E+06    -18.1813E+06    -18.0078E+06     134.951E+06     105.851E+06     3.94875E+06
            1075     16.2962E-03     14.2323E-03     7.93773E-03     145.252E-03    -53.2302E-03    -92.3777E-03    -82.5206E-03     135.395E-03    -53.2302E-03     90.5170E-03     285.008E-03     129.469E+06     118.863E+06     67.7095E+06    -27.4312E+06    -27.0165E+06     118.448E+06     67.7095E+06     6.63045E+06
            1076     15.4699E-03     13.3109E-03     7.88280E-03     131.484E-03    -51.0481E-03    -80.6416E-03    -78.2401E-03     129.083E-03    -51.0481E-03     42.2267E-03     231.747E-03     123.994E+06     107.866E+06     27.4143E+06    -33.4757E+06    -32.8321E+06     107.222E+06     27.4143E+06     8.40893E+06
            1077     14.6725E-03     12.3860E-03     7.86575E-03     123.647E-03    -48.9251E-03    -74.8494E-03    -74.3148E-03     123.113E-03    -48.9251E-03     17.6966E-03     198.093E-03     104.386E+06     79.7992E+06    -2.21537E+06    -37.5459E+06    -36.4465E+06     78.6998E+06    -2.21537E+06     9.94003E+06
            1078     13.9020E-03     11.4568E-03     7.87452E-03     117.055E-03    -46.9944E-03    -70.0944E-03    -69.9525E-03     116.913E-03    -46.9944E-03     4.89509E-03     175.517E-03     59.3771E+06     27.3590E+06    -13.0510E+06    -39.1577E+06    -37.4802E+06     19.4173E+06    -6.78683E+06     8.53254E+06
            1079     13.1550E-03     10.5235E-03     7.89360E-03     111.609E-03    -45.1367E-03    -66.4899E-03    -66.3255E-03     111.445E-03    -45.1367E-03    -2.54356E-03     158.108E-03     43.1732E+06     258.578E+03    -24.9726E+06    -48.6483E+06    -36.9366E+06    -36.6843E+06     258.578E+03     2.18423E+06
            1080     12.4397E-03     9.58740E-03     7.92636E-03     106.090E-03    -43.2193E-03    -62.8886E-03    -62.6249E-03     105.826E-03    -43.2193E-03    -7.49501E-03     142.398E-03     70.5571E+06     2.03918E+06    -36.1105E+06    -78.5296E+06    -36.4708E+06    -78.1693E+06     2.03918E+06    -1.46999E+06
            1081     11.7559E-03     8.64664E-03     7.96470E-03     100.223E-03    -41.2700E-03    -58.9599E-03    -58.6024E-03     99.8660E-03    -41.2700E-03    -9.42529E-03     129.074E-03     104.773E+06     1.63176E+06    -35.6158E+06    -116.313E+06    -35.7370E+06    -116.192E+06     1.63176E+06    -981.523E+03
            1082     11.1073E-03     7.70220E-03     8.00303E-03     94.3290E-03    -39.3224E-03    -55.0099E-03    -54.5884E-03     93.9076E-03    -39.3224E-03    -10.6085E-03     116.556E-03     131.764E+06     1.15152E+06    -34.9866E+06    -144.733E+06    -35.1157E+06    -144.604E+06     1.15152E+06    -1.95614E+06
            1083     10.4992E-03     6.75237E-03     8.03975E-03     88.5182E-03    -37.3943E-03    -51.1205E-03    -50.6781E-03     88.0759E-03    -37.3943E-03    -11.4310E-03     105.256E-03     158.714E+06     2.49494E+06    -36.2711E+06    -171.958E+06    -36.3363E+06    -171.893E+06     2.49494E+06    -2.00774E+06
            1084     9.94154E-03     5.79992E-03     8.07435E-03     82.4461E-03    -35.4714E-03    -46.9626E-03    -46.5383E-03     82.0219E-03    -35.4714E-03    -11.4876E-03     94.4695E-03     174.921E+06     63.2186E+03    -39.4682E+06    -191.198E+06    -39.5063E+06    -191.160E+06     63.2186E+03     24.0842E+03
            1085     9.43983E-03     4.84195E-03     8.10346E-03     76.1403E-03    -33.6355E-03    -42.4986E-03    -42.1217E-03     75.7634E-03    -33.6355E-03    -10.8217E-03     84.1795E-03     181.462E+06    -5.38815E+06    -40.7389E+06    -201.878E+06    -40.8578E+06    -201.759E+06    -5.38815E+06     51.7323E+03
            1086     9.00676E-03     3.88085E-03     8.12778E-03     70.0914E-03    -31.9777E-03    -38.1220E-03    -37.8231E-03     69.7925E-03    -31.9777E-03    -9.42968E-03     75.0413E-03     183.905E+06    -10.2171E+06    -40.6151E+06    -207.406E+06    -40.7333E+06    -207.288E+06    -10.2171E+06    -401.886E+03
            1087     8.65049E-03     2.91391E-03     8.14494E-03     64.8821E-03    -30.5512E-03    -34.3346E-03    -34.1346E-03     64.6820E-03    -30.5512E-03    -7.64834E-03     67.6861E-03     184.447E+06    -18.4288E+06    -40.9061E+06    -212.987E+06    -40.9924E+06    -212.901E+06    -18.4288E+06     742.014E+03
            1088     8.38666E-03     1.94547E-03     8.15789E-03     60.6941E-03    -29.4195E-03    -31.2714E-03    -31.1617E-03     60.5844E-03    -29.4195E-03    -5.58107E-03     62.2328E-03     188.012E+06    -29.7494E+06    -41.2425E+06    -223.157E+06    -41.3091E+06    -223.091E+06    -29.7494E+06     1.13184E+06
            1089     8.22293E-03     973.061E-06     8.16515E-03     57.8566E-03    -28.6044E-03    -29.2511E-03    -29.1798E-03     57.8168E-03    -28.6359E-03    -3.13610E-03     58.6935E-03     185.416E+06    -37.1622E+06    -42.6484E+06    -225.246E+06    -41.8414E+06    -225.223E+06    -37.9925E+06     717.415E+03
            1090     17.5687E-03     16.0531E-03     7.13844E-03     180.178E-03    -58.4036E-03    -121.952E-03    -97.6312E-03     155.857E-03    -58.4036E-03     149.699E-03     379.352E-03     148.557E+06     149.730E+06     129.169E+06    -7.97791E+06    -7.73495E+06     149.487E+06     129.169E+06     5.29726E+06
            1091     16.6380E-03     15.1373E-03     6.90549E-03     174.640E-03    -56.3058E-03    -118.726E-03    -89.1262E-03     145.041E-03    -56.3058E-03     173.435E-03     378.819E-03     141.465E+06     132.633E+06     104.883E+06    -20.4444E+06    -20.1235E+06     132.312E+06     104.883E+06     5.82448E+06
            1092     15.7563E-03     14.2183E-03     6.78982E-03     145.584E-03    -54.3284E-03    -91.5816E-03    -80.7775E-03     134.780E-03    -54.3284E-03     96.2738E-03     279.245E-03     128.641E+06     116.822E+06     68.7600E+06    -28.0458E+06    -27.6364E+06     116.413E+06     68.7600E+06     6.79864E+06
            1093     14.9066E-03     13.2948E-03     6.74197E-03     130.247E-03    -52.4783E-03    -77.8888E-03    -73.9505E-03     126.308E-03    -52.4783E-03     54.7620E-03     226.208E-03     122.760E+06     106.411E+06     30.9300E+06    -34.2463E+06    -33.3955E+06     105.560E+06     30.9300E+06     10.2875E+06
            1094     14.0814E-03     12.3656E-03     6.73623E-03     120.806E-03    -50.8477E-03    -70.0153E-03    -68.2301E-03     119.020E-03    -50.8477E-03     34.2915E-03     195.369E-03     106.194E+06     81.1942E+06     3.54404E+06    -39.7542E+06    -38.8257E+06     80.2657E+06     3.54404E+06     10.5159E+06
            1095     13.2751E-03     11.4307E-03     6.75041E-03     114.286E-03    -49.5216E-03    -64.8002E-03    -63.4751E-03     112.961E-03    -49.5216E-03     26.8291E-03     175.962E-03     65.4107E+06     32.5623E+06    -5.21739E+06    -40.9760E+06    -39.9916E+06     26.8960E+06    -535.601E+03     3.45319E+06
            1096     12.4917E-03     10.4929E-03     6.77802E-03     109.902E-03    -48.3821E-03    -61.5523E-03    -60.3358E-03     108.685E-03    -48.3821E-03     23.3438E-03     161.092E-03     51.7759E+06     8.53809E+06    -20.8379E+06    -48.8396E+06    -38.4566E+06    -31.2208E+06     8.53809E+06    -3.16476E+06
            1097     11.7341E-03     9.55165E-03     6.81584E-03     106.654E-03    -47.1884E-03    -59.5151E-03    -58.4063E-03     105.546E-03    -47.1884E-03     20.6966E-03     148.445E-03     81.9758E+06     12.3375E+06    -37.4796E+06    -80.9319E+06    -38.7402E+06    -79.6712E+06     12.3375E+06    -6.27669E+06
            1098     11.0083E-03     8.60981E-03     6.85962E-03     104.060E-03    -45.8232E-03    -58.2601E-03    -57.1826E-03     102.982E-03    -45.8232E-03     19.8574E-03     138.494E-03     113.957E+06     12.8968E+06    -36.7854E+06    -117.281E+06    -38.0395E+06    -116.027E+06     12.8968E+06    -8.74202E+06
            1099     10.3159E-03     7.66549E-03     6.90350E-03     100.918E-03    -44.2652E-03    -56.6537E-03    -55.7837E-03     100.048E-03    -44.2652E-03     17.2940E-03     128.131E-03     142.396E+06     13.4857E+06    -34.4838E+06    -146.562E+06    -35.5982E+06    -145.447E+06     13.4857E+06    -9.73441E+06
            1100     9.66559E-03     6.72041E-03     6.94693E-03     96.8378E-03    -42.5558E-03    -54.2816E-03    -53.5902E-03     96.1464E-03    -42.5558E-03     14.2736E-03     117.946E-03     172.510E+06     14.4255E+06    -33.4999E+06    -176.955E+06    -34.1039E+06    -176.351E+06     14.4255E+06    -7.92197E+06
            1101     9.06234E-03     5.77132E-03     6.98698E-03     92.0106E-03    -40.7019E-03    -51.3055E-03    -50.7944E-03     91.4995E-03    -40.7019E-03     11.0756E-03     107.638E-03     187.667E+06     13.6850E+06    -33.8840E+06    -193.180E+06    -34.2590E+06    -192.805E+06     13.6850E+06    -6.50210E+06
            1102     8.51763E-03     4.81980E-03     7.02279E-03     86.3178E-03    -38.7585E-03    -47.5606E-03    -47.2224E-03     85.9797E-03    -38.7585E-03     7.93267E-03     97.2201E-03     189.818E+06     4.99179E+06    -35.4456E+06    -201.708E+06    -35.8789E+06    -201.275E+06     4.99179E+06    -7.55864E+06
            1103     8.04161E-03     3.86246E-03     7.05329E-03     80.2833E-03    -36.8730E-03    -43.4127E-03    -43.2091E-03     80.0797E-03    -36.8730E-03     5.33691E-03     87.3018E-03     189.761E+06    -6.96152E+06    -37.5475E+06    -210.088E+06    -37.9239E+06    -209.711E+06    -6.96152E+06    -7.45519E+06
            1104     7.64903E-03     2.90259E-03     7.07690E-03     74.5757E-03    -35.1966E-03    -39.3800E-03    -39.2711E-03     74.4668E-03    -35.1966E-03     2.99838E-03     78.7580E-03     187.939E+06    -18.8042E+06    -40.0901E+06    -216.368E+06    -40.3268E+06    -216.131E+06    -18.8042E+06    -5.70460E+06
            1105     7.35394E-03     1.93713E-03     7.09422E-03     69.7817E-03    -33.8447E-03    -35.9371E-03    -35.8909E-03     69.7355E-03    -33.8447E-03     1.20809E-03     72.2171E-03     187.973E+06    -30.3027E+06    -41.9006E+06    -223.723E+06    -42.0416E+06    -223.582E+06    -30.3027E+06    -4.15504E+06
            1106     7.17100E-03     969.916E-06     7.10510E-03     66.4362E-03    -32.8544E-03    -33.5800E-03    -33.5341E-03     66.4218E-03    -32.8859E-03     567.160E-06     67.8636E-03     185.711E+06    -37.9943E+06    -43.7178E+06    -226.477E+06    -42.9570E+06    -226.407E+06    -38.8246E+06    -2.08227E+06
            1107     17.1064E-03     16.0303E-03     5.97159E-03     183.111E-03    -60.0184E-03    -123.159E-03    -97.5528E-03     157.505E-03    -60.0184E-03     150.567E-03     364.520E-03     150.499E+06     147.774E+06     127.275E+06    -11.8381E+06    -11.3960E+06     147.332E+06     127.275E+06     8.13835E+06
            1108     16.1683E-03     15.1124E-03     5.74731E-03     176.074E-03    -58.1589E-03    -118.156E-03    -85.4910E-03     143.408E-03    -58.1589E-03     181.921E-03     369.573E-03     140.430E+06     133.318E+06     108.431E+06    -17.7387E+06    -17.0453E+06     132.624E+06     108.431E+06     9.19219E+06
            1109     15.2707E-03     14.1897E-03     5.64313E-03     144.032E-03    -56.6415E-03    -87.6615E-03    -74.0204E-03     130.391E-03    -56.6415E-03     107.385E-03     272.058E-03     126.974E+06     114.926E+06     68.3023E+06    -27.5257E+06    -26.6979E+06     114.098E+06     68.3023E+06     9.84932E+06
            1110     14.3946E-03     13.2559E-03     5.61111E-03     126.519E-03    -55.5254E-03    -71.1140E-03    -64.0948E-03     119.499E-03    -55.5254E-03     71.7028E-03     219.667E-03     122.976E+06     104.132E+06     30.1961E+06    -37.2795E+06    -36.1824E+06     103.034E+06     30.1961E+06     12.3012E+06
            1111     13.5334E-03     12.3163E-03     5.60905E-03     117.042E-03    -54.2708E-03    -62.8325E-03    -57.1062E-03     111.948E-03    -54.9030E-03     57.4440E-03     192.154E-03     113.276E+06     88.5947E+06     12.7927E+06    -41.4694E+06    -40.5917E+06     87.7170E+06     12.7927E+06     8.73045E+06
            1112     12.6935E-03     11.3734E-03     5.63658E-03     113.492E-03    -53.7676E-03    -59.7658E-03    -53.6065E-03     108.245E-03    -54.6804E-03     56.5168E-03     176.438E-03     75.1361E+06     42.6968E+06     2.63758E+06    -42.6481E+06    -41.6396E+06     35.0131E+06     9.31277E+06    -2.09030E+06
            1113     11.8647E-03     10.4260E-03     5.66304E-03     112.411E-03    -53.7479E-03    -58.6910E-03    -52.7895E-03     107.402E-03    -54.6411E-03     55.1655E-03     164.798E-03     61.9584E+06     15.2677E+06    -19.1415E+06    -53.9779E+06    -41.6303E+06    -31.4891E+06     15.2677E+06    -9.54807E+06
            1114     11.0661E-03     9.48110E-03     5.70686E-03     112.722E-03    -53.8838E-03    -58.8599E-03    -53.5547E-03     108.029E-03    -54.4964E-03     53.7917E-03     156.097E-03     91.7502E+06     20.7670E+06    -34.9081E+06    -83.9195E+06    -40.1213E+06    -78.7063E+06     20.7670E+06    -14.0271E+06
            1115     10.2910E-03     8.53586E-03     5.74838E-03     114.158E-03    -54.0722E-03    -60.0841E-03    -55.6296E-03     109.704E-03    -54.0722E-03     53.1455E-03     150.016E-03     124.074E+06     21.0970E+06    -32.9644E+06    -120.524E+06    -37.8006E+06    -115.688E+06     21.0970E+06    -19.1899E+06
            1116     9.55433E-03     7.59632E-03     5.79493E-03     114.450E-03    -53.3072E-03    -61.1346E-03    -57.3418E-03     110.657E-03    -53.3072E-03     49.3021E-03     143.258E-03     157.503E+06     21.2051E+06    -31.6701E+06    -155.824E+06    -35.3728E+06    -152.122E+06     21.2051E+06    -20.1216E+06
            1117     8.85468E-03     6.65475E-03     5.84121E-03     113.192E-03    -52.1990E-03    -60.9873E-03    -57.7967E-03     110.001E-03    -52.1990E-03     45.0045E-03     135.980E-03     185.115E+06     20.5456E+06    -31.2739E+06    -184.911E+06    -33.4640E+06    -182.721E+06     20.5456E+06    -17.3411E+06
            1118     8.20295E-03     5.71372E-03     5.88572E-03     110.344E-03    -50.7616E-03    -59.5755E-03    -57.1393E-03     107.908E-03    -50.7616E-03     38.8537E-03     127.599E-03     194.471E+06     15.8803E+06    -30.9178E+06    -197.663E+06    -32.4772E+06    -196.104E+06     15.8803E+06    -15.2957E+06
            1119     7.60811E-03     4.76954E-03     5.92747E-03     106.239E-03    -49.0566E-03    -57.1809E-03    -55.4561E-03     104.514E-03    -49.0566E-03     31.9371E-03     118.772E-03     193.684E+06     4.51027E+06    -33.3699E+06    -205.209E+06    -34.4979E+06    -204.081E+06     4.51027E+06    -13.6252E+06
            1120     7.08470E-03     3.82397E-03     5.96408E-03     101.053E-03    -47.2254E-03    -53.8270E-03    -52.7370E-03     99.9625E-03    -47.2254E-03     24.6027E-03     109.515E-03     191.910E+06    -11.6784E+06    -37.6616E+06    -215.166E+06    -38.4524E+06    -214.376E+06    -11.6784E+06    -11.6772E+06
            1121     6.64638E-03     2.87262E-03     5.99353E-03     95.3162E-03    -45.5040E-03    -49.8123E-03    -49.2181E-03     94.7220E-03    -45.5040E-03     17.4095E-03     100.714E-03     188.968E+06    -27.0626E+06    -40.8981E+06    -222.490E+06    -41.4048E+06    -221.984E+06    -27.0626E+06    -9.43556E+06
            1122     6.31455E-03     1.91858E-03     6.01603E-03     90.3787E-03    -44.1204E-03    -46.2571E-03    -45.9899E-03     90.1116E-03    -44.1204E-03     11.0391E-03     93.6587E-03     188.210E+06    -36.3185E+06    -44.8600E+06    -228.635E+06    -45.1262E+06    -228.369E+06    -36.3185E+06    -6.67919E+06
            1123     6.10662E-03     959.890E-06     6.03070E-03     86.9351E-03    -43.0090E-03    -43.9231E-03    -43.8388E-03     86.8508E-03    -43.0090E-03     5.74882E-03     89.0512E-03     185.910E+06    -45.0688E+06    -51.0543E+06    -233.868E+06    -51.2284E+06    -233.694E+06    -45.0688E+06    -4.56640E+06
            1124     16.6972E-03     15.9904E-03     4.80658E-03     185.339E-03    -62.8348E-03    -122.588E-03    -92.6977E-03     155.448E-03    -62.8348E-03     164.618E-03     360.614E-03     147.132E+06     144.809E+06     125.496E+06    -10.8980E+06    -10.3815E+06     144.293E+06     125.496E+06     8.88731E+06
            1125     15.7478E-03     15.0655E-03     4.58489E-03     179.388E-03    -61.4735E-03    -118.121E-03    -80.1377E-03     141.405E-03    -61.4735E-03     196.247E-03     363.185E-03     140.333E+06     131.693E+06     108.387E+06    -18.7226E+06    -17.3786E+06     130.349E+06     108.387E+06     13.4208E+06
            1126     14.8339E-03     14.1322E-03     4.50822E-03     141.867E-03    -60.5634E-03    -81.4494E-03    -63.7320E-03     124.245E-03    -60.6585E-03     119.613E-03     260.553E-03     132.777E+06     116.413E+06     72.2934E+06    -31.6513E+06    -29.7933E+06     114.555E+06     72.2934E+06     16.1605E+06
            1127     13.9306E-03     13.1903E-03     4.48101E-03     122.851E-03    -57.4943E-03    -65.3987E-03    -50.1234E-03     110.702E-03    -60.6206E-03     90.3576E-03     209.099E-03     127.439E+06     108.058E+06     35.9405E+06    -38.1869E+06    -36.9048E+06     106.776E+06     35.9405E+06     10.7935E+06
            1128     13.0389E-03     12.2376E-03     4.50062E-03     116.976E-03    -55.0526E-03    -61.9752E-03    -44.2923E-03     105.582E-03    -61.3410E-03     84.1015E-03     186.479E-03     117.120E+06     96.7424E+06     15.4864E+06    -36.9978E+06    -36.5298E+06     96.2744E+06     15.4864E+06     3.06119E+06
            1129     12.1513E-03     11.2795E-03     4.51958E-03     118.099E-03    -55.6616E-03    -62.4718E-03    -44.6508E-03     107.088E-03    -62.4718E-03     83.8830E-03     174.371E-03     82.2001E+06     51.7401E+06     5.39388E+06    -40.4970E+06    -36.9066E+06     41.4699E+06     12.0736E+06    -7.52934E+06
            1130     11.2879E-03     10.3297E-03     4.55105E-03     120.950E-03    -57.3018E-03    -63.6537E-03    -47.2099E-03     110.858E-03    -63.6537E-03     81.8123E-03     166.783E-03     65.2632E+06     14.9175E+06    -10.7952E+06    -58.4284E+06    -36.6729E+06    -32.5506E+06     14.9175E+06    -17.9172E+06
            1131     10.4423E-03     9.37975E-03     4.58923E-03     125.030E-03    -59.9596E-03    -65.0580E-03    -51.2777E-03     115.943E-03    -64.6528E-03     79.6901E-03     162.264E-03     95.3080E+06     20.1106E+06    -23.9596E+06    -88.7296E+06    -34.8219E+06    -77.8673E+06     20.1106E+06    -23.5588E+06
            1132     9.62262E-03     8.43722E-03     4.62690E-03     128.651E-03    -61.9584E-03    -66.6911E-03    -55.1553E-03     120.548E-03    -65.3919E-03     76.9520E-03     159.142E-03     131.144E+06     20.6676E+06    -25.5437E+06    -126.773E+06    -34.3313E+06    -117.986E+06     20.6676E+06    -28.1148E+06
            1133     8.83173E-03     7.49536E-03     4.67109E-03     131.941E-03    -63.6265E-03    -68.3401E-03    -59.0825E-03     124.884E-03    -65.8270E-03     73.2307E-03     156.840E-03     168.618E+06     17.7715E+06    -27.8500E+06    -168.767E+06    -34.5778E+06    -162.039E+06     17.7715E+06    -29.4355E+06
            1134     8.07915E-03     6.56060E-03     4.71501E-03     134.560E-03    -65.1612E-03    -69.4036E-03    -62.7455E-03     128.563E-03    -65.8226E-03     68.6029E-03     154.628E-03     192.520E+06     14.4152E+06    -29.8902E+06    -196.185E+06    -34.4941E+06    -191.581E+06     14.4152E+06    -26.8904E+06
            1135     7.37075E-03     5.62674E-03     4.76107E-03     135.077E-03    -65.3068E-03    -69.7626E-03    -64.9748E-03     130.289E-03    -65.3068E-03     61.6789E-03     150.791E-03     194.792E+06     2.90465E+06    -32.1145E+06    -206.841E+06    -35.2430E+06    -203.713E+06     2.90465E+06    -22.9021E+06
            1136     6.71733E-03     4.69436E-03     4.80474E-03     133.817E-03    -64.4189E-03    -69.3996E-03    -65.8246E-03     130.242E-03    -64.4189E-03     53.1526E-03     145.682E-03     194.107E+06    -8.92956E+06    -35.1091E+06    -214.662E+06    -36.9568E+06    -212.815E+06    -8.92956E+06    -17.6624E+06
            1137     6.13334E-03     3.76023E-03     4.84546E-03     131.050E-03    -63.2935E-03    -67.7504E-03    -65.3311E-03     128.631E-03    -63.2935E-03     43.2295E-03     139.433E-03     192.534E+06    -21.3716E+06    -39.9784E+06    -222.454E+06    -40.8664E+06    -221.566E+06    -21.3716E+06    -12.5093E+06
            1138     5.63980E-03     2.82521E-03     4.88115E-03     127.401E-03    -62.0948E-03    -65.2971E-03    -63.8634E-03     125.967E-03    -62.0948E-03     32.6353E-03     133.022E-03     189.657E+06    -35.4597E+06    -45.8447E+06    -230.038E+06    -46.2878E+06    -229.594E+06    -35.4597E+06    -8.54284E+06
            1139     5.25885E-03     1.88494E-03     4.90943E-03     123.721E-03    -61.0239E-03    -62.6913E-03    -62.0123E-03     123.042E-03    -61.0239E-03     21.7839E-03     127.394E-03     188.227E+06    -45.7266E+06    -51.3600E+06    -236.705E+06    -50.3487E+06    -236.526E+06    -46.9172E+06    -5.24183E+06
            1140     5.01627E-03     943.848E-06     4.92667E-03     121.041E-03    -60.1779E-03    -60.8607E-03    -60.5783E-03     120.817E-03    -60.2371E-03     11.9002E-03     123.522E-03     188.004E+06    -51.9290E+06    -56.0109E+06    -241.930E+06    -53.7924E+06    -241.777E+06    -54.3005E+06    -3.02240E+06
            1141     16.3135E-03     15.9086E-03     3.61212E-03     188.049E-03    -67.0893E-03    -121.064E-03    -85.4898E-03     152.475E-03    -67.0893E-03     190.532E-03     380.713E-03     137.572E+06     138.992E+06     125.174E+06    -4.79725E+06    -3.73998E+06     137.934E+06     125.174E+06     11.1167E+06
            1142     15.3748E-03     14.9868E-03     3.43237E-03     179.568E-03    -66.2407E-03    -113.480E-03    -78.0152E-03     144.103E-03    -66.2407E-03     188.676E-03     338.935E-03     139.452E+06     125.738E+06     104.089E+06    -22.9800E+06    -20.6448E+06     123.403E+06     104.089E+06     17.7563E+06
            1143     14.4493E-03     14.0516E-03     3.36672E-03     135.144E-03    -60.2084E-03    -74.8822E-03    -51.7073E-03     117.910E-03    -66.1489E-03     113.158E-03     229.525E-03     136.506E+06     123.265E+06     83.5600E+06    -28.1657E+06    -26.0242E+06     121.124E+06     83.5600E+06     16.0131E+06
            1144     13.5218E-03     13.0931E-03     3.37819E-03     120.353E-03    -52.9277E-03    -67.3364E-03    -38.1643E-03     105.589E-03    -67.3364E-03     96.6483E-03     188.670E-03     127.001E+06     116.814E+06     47.9948E+06    -27.9635E+06    -27.2241E+06     116.074E+06     47.9948E+06     6.16261E+06
            1145     12.5877E-03     12.1246E-03     3.38281E-03     120.687E-03    -51.4340E-03    -69.2588E-03    -37.6511E-03     106.904E-03    -69.2588E-03     93.1092E-03     173.296E-03     121.108E+06     103.025E+06     6.81536E+06    -31.3483E+06    -29.1054E+06     102.592E+06     5.00541E+06    -1.72071E+06
            1146     11.6781E-03     11.1712E-03     3.40343E-03     124.325E-03    -52.8546E-03    -71.5006E-03    -40.6121E-03     112.082E-03    -71.5006E-03     89.5863E-03     165.478E-03     82.5590E+06     52.7792E+06    -7.15192E+06    -36.6170E+06    -30.1199E+06     45.4760E+06    -6.34574E+06    -11.4756E+06
            1147     10.7727E-03     10.2124E-03     3.42886E-03     130.723E-03    -56.9466E-03    -73.8207E-03    -45.7738E-03     119.550E-03    -73.8207E-03     88.4499E-03     163.940E-03     58.5875E+06     7.10239E+06    -12.4629E+06    -58.5126E+06    -31.0526E+06    -29.3956E+06    -3.42492E+06    -23.8953E+06
            1148     9.89095E-03     9.26786E-03     3.45510E-03     137.423E-03    -61.4858E-03    -75.9312E-03    -51.7632E-03     127.700E-03    -75.9312E-03     85.3814E-03     163.745E-03     91.6342E+06     3.26646E+06    -20.6347E+06    -97.1210E+06    -30.5097E+06    -80.8399E+06    -3.13968E+06    -31.8047E+06
            1149     9.02743E-03     8.32448E-03     3.49251E-03     143.239E-03    -65.2887E-03    -77.9178E-03    -56.7530E-03     134.703E-03    -77.9178E-03     82.3511E-03     164.717E-03     130.026E+06     3.38899E+06    -19.0563E+06    -135.496E+06    -29.3039E+06    -124.535E+06     2.67540E+06    -33.5581E+06
            1150     8.18585E-03     7.38697E-03     3.52716E-03     149.233E-03    -69.5161E-03    -79.7268E-03    -61.9906E-03     141.708E-03    -79.7268E-03     79.4147E-03     166.848E-03     170.598E+06     908.942E+03    -22.9390E+06    -179.920E+06    -31.0413E+06    -171.818E+06     908.942E+03    -34.4040E+06
            1151     7.37333E-03     6.45334E-03     3.56657E-03     155.189E-03    -73.9084E-03    -81.2971E-03    -67.5560E-03     148.760E-03    -81.2205E-03     75.3980E-03     169.572E-03     195.107E+06    -5.51468E+06    -28.2480E+06    -210.593E+06    -34.0978E+06    -204.743E+06    -5.51468E+06    -31.8493E+06
            1152     6.59937E-03     5.52653E-03     3.60683E-03     160.289E-03    -77.3885E-03    -82.9222E-03    -72.6966E-03     154.947E-03    -82.2724E-03     70.2506E-03     172.011E-03     195.019E+06    -16.9079E+06    -34.2655E+06    -219.836E+06    -37.7232E+06    -216.378E+06    -16.9079E+06    -24.5992E+06
            1153     5.87379E-03     4.60294E-03     3.64889E-03     163.682E-03    -79.5618E-03    -84.1344E-03    -76.6285E-03     159.536E-03    -82.9215E-03     62.7907E-03     172.871E-03     193.843E+06    -27.7253E+06    -40.6068E+06    -227.599E+06    -42.3225E+06    -225.884E+06    -27.7253E+06    -17.2044E+06
            1154     5.21268E-03     3.68174E-03     3.69010E-03     165.658E-03    -81.1507E-03    -84.4986E-03    -79.4736E-03     162.734E-03    -83.2517E-03     53.0934E-03     172.507E-03     192.123E+06    -36.5246E+06    -45.6297E+06    -232.999E+06    -46.3051E+06    -232.323E+06    -36.5246E+06    -10.7209E+06
            1155     4.63790E-03     2.76051E-03     3.72688E-03     166.629E-03    -82.2075E-03    -84.4117E-03    -81.5262E-03     164.842E-03    -83.3059E-03     41.4907E-03     171.584E-03     190.217E+06    -44.6357E+06    -50.5676E+06    -237.721E+06    -50.7964E+06    -237.492E+06    -44.6357E+06    -6.11909E+06
            1156     4.18375E-03     1.84224E-03     3.75632E-03     166.493E-03    -82.7162E-03    -83.7724E-03    -82.4691E-03     165.626E-03    -83.1525E-03     28.4964E-03     169.920E-03     190.414E+06    -50.2591E+06    -55.7971E+06    -243.362E+06    -54.6859E+06    -243.283E+06    -51.4498E+06    -3.06629E+06
            1157     3.88789E-03     920.549E-06     3.77734E-03     166.007E-03    -82.8249E-03    -83.1793E-03    -82.6526E-03     165.713E-03    -83.0579E-03     16.0654E-03     168.463E-03     190.969E+06    -54.2989E+06    -59.3542E+06    -247.727E+06    -56.7991E+06    -247.679E+06    -56.9013E+06    -174.786E+03
            1158     15.9968E-03     15.8147E-03     2.40700E-03     193.266E-03    -71.7281E-03    -121.577E-03    -86.1354E-03     157.825E-03    -71.7281E-03     194.273E-03     378.555E-03     140.970E+06     137.983E+06     123.755E+06    -9.26272E+06    -6.18808E+06     134.541E+06     124.123E+06     17.4426E+06
            1159     15.0824E-03     14.9129E-03     2.25456E-03     163.091E-03    -63.7390E-03    -99.3883E-03    -71.2291E-03     142.537E-03    -71.3441E-03     135.086E-03     271.838E-03     138.830E+06     129.499E+06     111.257E+06    -17.0718E+06    -13.0726E+06     125.500E+06     111.257E+06     18.1966E+06
            1160     14.1476E-03     13.9654E-03     2.26318E-03     125.965E-03    -52.3631E-03    -73.5432E-03    -41.2666E-03     113.473E-03    -72.1474E-03     91.0296E-03     188.646E-03     128.708E+06     128.328E+06     94.0550E+06    -12.8442E+06    -11.3867E+06     126.870E+06     94.0550E+06     7.76204E+06
            1161     13.1868E-03     12.9917E-03     2.26034E-03     122.612E-03    -48.3226E-03    -74.2085E-03    -36.7980E-03     111.088E-03    -74.2085E-03     84.6271E-03     167.800E-03     125.860E+06     125.996E+06     52.0745E+06    -16.2771E+06    -15.7313E+06     125.450E+06     52.0745E+06     4.03530E+06
            1162     12.2486E-03     12.0376E-03     2.26368E-03     124.143E-03    -47.4159E-03    -76.6881E-03    -38.2942E-03     115.021E-03    -76.6881E-03     75.5816E-03     157.040E-03     125.175E+06     107.495E+06     1.65296E+06    -29.2384E+06    -20.2071E+06     106.977E+06    -6.86012E+06    -2.11867E+06
            1163     11.3026E-03     11.0701E-03     2.28065E-03     128.766E-03    -49.2474E-03    -79.5471E-03    -41.4958E-03     121.015E-03    -79.5471E-03     71.2015E-03     154.271E-03     90.5886E+06     55.1428E+06    -19.7000E+06    -43.4370E+06    -21.7492E+06     50.8908E+06    -37.1359E+06    -10.9545E+06
            1164     10.3753E-03     10.1191E-03     2.29143E-03     136.353E-03    -53.7760E-03    -82.7039E-03    -46.7745E-03     129.352E-03    -82.7039E-03     69.8688E-03     156.674E-03     61.3771E+06     5.97405E+06    -32.8852E+06    -62.0052E+06    -23.7795E+06    -22.9858E+06    -42.1511E+06    -23.8729E+06
            1165     9.45406E-03     9.16701E-03     2.31197E-03     144.358E-03    -58.5850E-03    -85.8689E-03    -52.5622E-03     138.335E-03    -85.8689E-03     67.2086E-03     160.395E-03     83.9432E+06    -10.5880E+06    -48.0239E+06    -100.952E+06    -26.2058E+06    -84.9910E+06    -48.3670E+06    -32.7195E+06
            1166     8.55044E-03     8.22486E-03     2.33703E-03     153.377E-03    -64.3034E-03    -89.0737E-03    -58.8619E-03     147.936E-03    -89.0737E-03     66.3450E-03     166.227E-03     119.291E+06    -16.1417E+06    -47.7539E+06    -144.989E+06    -28.6541E+06    -134.647E+06    -45.5836E+06    -33.9439E+06
            1167     7.66225E-03     7.28822E-03     2.36472E-03     162.466E-03    -70.1481E-03    -92.2893E-03    -65.1850E-03     157.503E-03    -92.2893E-03     65.7896E-03     172.838E-03     160.735E+06    -20.2776E+06    -41.9653E+06    -189.607E+06    -31.7580E+06    -182.986E+06    -37.1056E+06    -31.4901E+06
            1168     6.79322E-03     6.35758E-03     2.39354E-03     171.567E-03    -76.1548E-03    -95.4065E-03    -71.8033E-03     167.216E-03    -95.4065E-03     63.7511E-03     180.016E-03     190.347E+06    -28.3431E+06    -39.7937E+06    -224.131E+06    -37.0946E+06    -219.865E+06    -35.3080E+06    -27.5203E+06
            1169     5.94869E-03     5.43201E-03     2.42490E-03     180.938E-03    -82.6403E-03    -98.3087E-03    -78.9678E-03     177.265E-03    -98.3087E-03     60.3877E-03     187.985E-03     194.306E+06    -37.0483E+06    -44.6571E+06    -235.028E+06    -43.2557E+06    -232.769E+06    -40.7090E+06    -19.8496E+06
            1170     5.14065E-03     4.51451E-03     2.45877E-03     190.117E-03    -89.2178E-03    -100.911E-03    -86.3145E-03     187.214E-03    -100.911E-03     55.2106E-03     195.858E-03     193.767E+06    -43.2439E+06    -48.5031E+06    -239.578E+06    -48.6748E+06    -238.675E+06    -43.9754E+06    -12.6229E+06
            1171     4.38142E-03     3.60319E-03     2.49277E-03     198.280E-03    -95.1889E-03    -103.087E-03    -93.0945E-03     196.185E-03    -103.087E-03     48.0323E-03     202.850E-03     191.650E+06    -49.3547E+06    -53.3568E+06    -242.971E+06    -53.7258E+06    -242.602E+06    -49.3547E+06    -7.66408E+06
            1172     3.69512E-03     2.69870E-03     2.52408E-03     204.871E-03    -100.031E-03    -104.837E-03    -98.7284E-03     203.568E-03    -104.837E-03     38.5110E-03     208.523E-03     190.426E+06    -53.0375E+06    -55.9218E+06    -244.885E+06    -56.0283E+06    -244.779E+06    -53.0375E+06    -4.07695E+06
            1173     3.11921E-03     1.79556E-03     2.55058E-03     209.965E-03    -103.837E-03    -106.132E-03    -103.186E-03     209.313E-03    -106.132E-03     27.3362E-03     212.729E-03     191.131E+06    -54.2989E+06    -58.7859E+06    -247.613E+06    -58.8301E+06    -247.569E+06    -54.2989E+06    -1.83266E+06
            1174     2.72080E-03     898.180E-06     2.56827E-03     213.201E-03    -106.169E-03    -107.033E-03    -106.151E-03     212.972E-03    -106.822E-03     15.7655E-03     215.425E-03     190.856E+06    -58.1763E+06    -61.7959E+06    -250.790E+06    -61.5772E+06    -250.778E+06    -58.4072E+06    -236.077E+03
            1175     15.8180E-03     15.7764E-03     1.14554E-03     205.449E-03    -72.2642E-03    -133.330E-03    -103.754E-03     179.613E-03    -76.0047E-03     170.164E-03     319.794E-03     150.751E+06     145.865E+06     127.228E+06    -13.1021E+06    -4.34587E+06     136.741E+06     127.595E+06     8.69949E+06
            1176     14.9000E-03     14.8560E-03     1.14371E-03     142.890E-03    -58.9208E-03    -84.0064E-03    -59.3774E-03     135.056E-03    -75.7161E-03     78.0412E-03     205.322E-03     140.683E+06     139.648E+06     118.554E+06    -9.95301E+06    -2.43539E+06     132.130E+06     118.554E+06     1.35205E+06
            1177     13.9206E-03     13.8740E-03     1.13847E-03     126.567E-03    -49.4376E-03    -77.1552E-03    -43.1069E-03     120.236E-03    -77.1552E-03     61.0832E-03     166.337E-03     124.646E+06     132.897E+06     93.1846E+06    -5.00554E+06    -3.47872E+06     131.370E+06     93.1846E+06     3.88758E+06
            1178     12.9787E-03     12.9293E-03     1.13093E-03     126.233E-03    -46.8990E-03    -79.3866E-03    -41.9749E-03     121.309E-03    -79.3866E-03     51.4247E-03     155.234E-03     125.324E+06     131.450E+06     48.4735E+06    -9.46601E+06    -8.59644E+06     130.581E+06     48.4735E+06     1.79234E+06
            1179     12.0167E-03     11.9626E-03     1.13900E-03     127.504E-03    -45.5723E-03    -81.9369E-03    -42.1339E-03     124.066E-03    -81.9369E-03     43.3891E-03     149.003E-03     125.353E+06     110.358E+06     5.17519E+06    -28.1216E+06    -9.49859E+06     109.835E+06    -12.9246E+06    -769.129E+03
            1180     11.0714E-03     11.0124E-03     1.14168E-03     132.476E-03    -47.5241E-03    -84.9646E-03    -44.7137E-03     129.665E-03    -84.9646E-03     40.2357E-03     148.813E-03     112.324E+06     60.7800E+06    -13.9330E+06    -64.8154E+06    -10.9244E+06     57.7714E+06    -64.8154E+06    -6.79427E+06
            1181     10.1197E-03     10.0543E-03     1.14922E-03     138.825E-03    -50.3933E-03    -88.5393E-03    -48.0396E-03     136.471E-03    -88.5393E-03     37.7699E-03     151.194E-03     84.9222E+06     10.4194E+06    -40.4326E+06    -84.1695E+06    -13.3635E+06    -16.6497E+06    -84.1695E+06    -14.9871E+06
            1182     9.17792E-03     9.10463E-03     1.15757E-03     147.203E-03    -54.8658E-03    -92.5074E-03    -52.8602E-03     145.198E-03    -92.5074E-03     35.8895E-03     156.582E-03     84.2776E+06    -12.4017E+06    -77.8874E+06    -105.552E+06    -19.6763E+06    -87.3232E+06    -88.8415E+06    -20.9039E+06
            1183     8.24227E-03     8.15869E-03     1.17084E-03     157.854E-03    -61.2850E-03    -96.6729E-03    -59.4631E-03     156.032E-03    -96.6729E-03     35.7469E-03     164.943E-03     111.635E+06    -22.8397E+06    -89.6949E+06    -149.300E+06    -27.8538E+06    -144.286E+06    -89.6949E+06    -21.7204E+06
            1184     7.31683E-03     7.22013E-03     1.18564E-03     169.691E-03    -68.6863E-03    -101.013E-03    -66.9295E-03     167.934E-03    -101.013E-03     36.5363E-03     175.127E-03     148.924E+06    -32.5690E+06    -78.3923E+06    -197.298E+06    -35.5720E+06    -194.295E+06    -78.3923E+06    -19.8824E+06
            1185     6.40310E-03     6.28923E-03     1.20217E-03     182.052E-03    -76.5805E-03    -105.422E-03    -74.9873E-03     180.458E-03    -105.422E-03     36.2692E-03     186.225E-03     182.373E+06    -41.5212E+06    -65.3232E+06    -234.081E+06    -43.1552E+06    -232.447E+06    -65.3232E+06    -15.8988E+06
            1186     5.50358E-03     5.36676E-03     1.21955E-03     194.809E-03    -84.9935E-03    -109.756E-03    -83.6564E-03     193.472E-03    -109.756E-03     34.5487E-03     198.168E-03     193.222E+06    -48.9703E+06    -59.4614E+06    -247.151E+06    -49.7935E+06    -246.327E+06    -59.4614E+06    -11.3068E+06
            1187     4.62031E-03     4.45142E-03     1.23777E-03     208.094E-03    -94.1316E-03    -113.928E-03    -93.0808E-03     207.044E-03    -113.928E-03     31.7662E-03     210.974E-03     192.642E+06    -53.2214E+06    -57.8829E+06    -248.145E+06    -54.6851E+06    -247.816E+06    -56.7482E+06    -6.72900E+06
            1188     3.76306E-03     3.54720E-03     1.25619E-03     221.197E-03    -103.412E-03    -117.747E-03    -102.637E-03     220.421E-03    -117.747E-03     28.1838E-03     223.710E-03     191.683E+06    -56.3932E+06    -59.0685E+06    -249.396E+06    -58.2946E+06    -249.275E+06    -57.2883E+06    -4.16053E+06
            1189     2.94098E-03     2.64980E-03     1.27590E-03     233.053E-03    -111.984E-03    -121.043E-03    -111.480E-03     232.549E-03    -121.043E-03     23.2345E-03     235.270E-03     190.087E+06    -59.0887E+06    -61.0868E+06    -250.164E+06    -61.1397E+06    -250.111E+06    -59.0887E+06    -2.14447E+06
            1190     2.18454E-03     1.76223E-03     1.29103E-03     242.839E-03    -119.192E-03    -123.649E-03    -118.933E-03     242.580E-03    -123.649E-03     16.7822E-03     244.897E-03     189.078E+06    -59.8977E+06    -62.7931E+06    -250.405E+06    -62.8049E+06    -250.393E+06    -59.8977E+06    -876.874E+03
            1191     1.57050E-03     878.306E-06     1.30194E-03     249.465E-03    -123.930E-03    -125.540E-03    -124.255E-03     249.372E-03    -125.123E-03     9.49425E-03     251.468E-03     188.801E+06    -62.3399E+06    -64.1363E+06    -252.030E+06    -64.1491E+06    -252.017E+06    -62.3399E+06    -703.672E+03
            1192     62.8957E-03     942.761E-06     62.8886E-03     117.941E-03    -58.8012E-03    -59.1438E-03    -59.1357E-03     117.940E-03    -58.8087E-03    -342.987E-06     119.026E-03     195.983E+06    -68.8400E+06    -71.3025E+06    -266.038E+06    -71.1894E+06    -266.035E+06    -68.9558E+06    -107.446E+03
            1193     62.9170E-03     1.88571E-03     62.8887E-03     117.907E-03    -58.8940E-03    -59.0224E-03    -58.9214E-03     117.907E-03    -58.9948E-03     46.1023E-06     119.877E-03     197.425E+06    -62.5266E+06    -68.7339E+06    -262.958E+06    -68.7416E+06    -262.950E+06    -62.5266E+06     712.501E+03
            1194     62.9524E-03     2.82909E-03     62.8888E-03     117.778E-03    -58.7944E-03    -59.0034E-03    -58.7940E-03     117.778E-03    -59.0034E-03     416.647E-06     121.408E-03     198.396E+06    -53.0192E+06    -65.1885E+06    -257.192E+06    -65.2016E+06    -257.178E+06    -53.0192E+06     1.12319E+06
            1195     63.0024E-03     3.77212E-03     62.8894E-03     117.756E-03    -58.7637E-03    -59.0138E-03    -58.7615E-03     117.753E-03    -59.0138E-03     1.16531E-03     124.000E-03     199.349E+06    -42.9915E+06     -60.397E+06    -250.463E+06    -60.4048E+06    -250.455E+06    -42.9915E+06     907.543E+03
            1196     63.0669E-03     4.71517E-03     62.8904E-03     117.625E-03    -58.6558E-03    -58.9871E-03    -58.6472E-03     117.616E-03    -58.9871E-03     2.33509E-03     127.504E-03     188.064E+06    -34.5900E+06    -55.3961E+06    -232.173E+06    -55.3998E+06    -232.170E+06    -34.5900E+06     79.7836E+03
            1197     63.1475E-03     5.65827E-03     62.8934E-03     117.402E-03    -58.4764E-03    -58.9498E-03    -58.4544E-03     117.380E-03    -58.9498E-03     3.83127E-03     131.891E-03     171.074E+06    -25.5797E+06    -50.8118E+06    -207.823E+06    -50.8144E+06    -207.821E+06    -25.5797E+06    -530.013E+03
            1198     63.2428E-03     6.60231E-03     62.8972E-03     117.303E-03    -58.4090E-03    -58.9322E-03    -58.3619E-03     117.256E-03    -58.9322E-03     5.65099E-03     137.648E-03     162.610E+06    -15.9682E+06    -45.9974E+06    -191.469E+06    -46.0160E+06    -191.450E+06    -15.9682E+06    -1.28685E+06
            1199     63.3548E-03     7.54539E-03     62.9038E-03     117.272E-03    -58.4609E-03    -58.8671E-03    -58.3682E-03     117.179E-03    -58.8671E-03     7.96632E-03     144.647E-03     136.161E+06    -11.6144E+06    -41.9023E+06    -160.321E+06    -41.9273E+06    -160.296E+06    -11.6144E+06    -1.11088E+06
            1200     63.4837E-03     8.48845E-03     62.9136E-03     117.099E-03    -58.3391E-03    -58.8094E-03    -58.1715E-03     116.932E-03    -58.8094E-03     10.7371E-03     152.987E-03     104.837E+06    -6.34862E+06    -38.6233E+06    -123.382E+06    -38.6914E+06    -123.314E+06    -6.34862E+06     1.45926E+06
            1201     63.6299E-03     9.43228E-03     62.9270E-03     117.020E-03    -58.2689E-03    -58.7551E-03    -57.9034E-03     116.654E-03    -58.7551E-03     15.6239E-03     164.424E-03     81.1176E+06    -1.34254E+06    -35.0651E+06    -93.7510E+06    -35.1324E+06    -93.6837E+06    -1.34254E+06     1.82245E+06
            1202     63.7965E-03     10.3760E-03     62.9471E-03     117.023E-03    -58.3479E-03    -58.6703E-03    -57.7760E-03     116.451E-03    -58.6703E-03     19.9728E-03     177.994E-03     46.6323E+06    -2.44090E+06    -30.7420E+06    -54.9718E+06    -32.5764E+06    -53.1375E+06    -2.44090E+06     383.147E+03
            1203     63.9782E-03     11.3195E-03     62.9689E-03     117.180E-03    -58.3913E-03    -58.8133E-03    -57.7012E-03     116.215E-03    -58.5383E-03     25.5672E-03     194.173E-03     48.8485E+06     20.4962E+06    -22.7888E+06    -32.4265E+06    -31.9273E+06     7.55355E+06    -10.3453E+06     333.599E+03
            1204     64.1847E-03     12.2634E-03     63.0023E-03     118.292E-03    -58.4566E-03    -59.8655E-03    -57.5113E-03     115.938E-03    -58.4566E-03     39.6171E-03     219.109E-03     99.2402E+06     77.6217E+06    -8.34190E+06    -30.9371E+06    -30.9134E+06     77.5980E+06    -8.34190E+06     980.156E+03
            1205     64.4221E-03     13.2060E-03     63.0540E-03     120.369E-03    -58.5296E-03    -61.8904E-03    -56.8169E-03     115.295E-03    -58.5296E-03     59.1367E-03     257.318E-03     128.436E+06     116.439E+06     20.7873E+06    -28.0671E+06    -28.0115E+06     116.384E+06     20.7873E+06     1.75188E+06
            1206     64.6973E-03     14.1533E-03     63.1302E-03     131.298E-03    -58.6966E-03    -72.7497E-03    -56.9649E-03     115.513E-03    -58.6966E-03     104.857E-03     313.578E-03     133.357E+06     129.266E+06     65.5179E+06    -22.5428E+06    -22.3991E+06     129.122E+06     65.5179E+06     1.05873E+06
            1207     65.0634E-03     15.0990E-03     63.2872E-03     157.745E-03    -58.8133E-03    -99.1250E-03    -59.8337E-03     118.454E-03    -58.8133E-03     182.968E-03     425.149E-03     144.778E+06     142.767E+06     109.498E+06    -15.1515E+06    -14.9955E+06     142.611E+06     109.498E+06    -59.7351E+03
            1208     65.5326E-03     16.0395E-03     63.5393E-03     153.583E-03    -58.8505E-03    -94.8107E-03    -60.1791E-03     118.951E-03    -58.8505E-03     167.161E-03     448.672E-03     152.942E+06     155.187E+06     134.044E+06    -7.22346E+06    -7.16573E+06     155.129E+06     134.044E+06    -603.323E+03
            1209     64.0197E-03     943.104E-06     64.0128E-03     117.969E-03    -58.8500E-03    -59.1220E-03    -59.1062E-03     117.968E-03    -58.8651E-03     13.1949E-06     119.018E-03     195.923E+06    -70.2891E+06    -72.4432E+06    -267.273E+06    -72.2823E+06    -267.272E+06    -70.4511E+06     183.887E+03
            1210     64.0406E-03     1.88600E-03     64.0128E-03     117.880E-03    -58.8919E-03    -58.9962E-03    -58.8917E-03     117.880E-03    -58.9962E-03     141.935E-06     119.857E-03     196.816E+06    -64.4725E+06    -69.8157E+06    -263.901E+06    -69.8243E+06    -263.893E+06    -64.4725E+06     528.145E+03
            1211     64.0750E-03     2.82879E-03     64.0125E-03     117.720E-03    -58.7479E-03    -58.9908E-03    -58.7474E-03     117.719E-03    -58.9908E-03     495.168E-06     121.367E-03     197.853E+06    -54.4310E+06    -65.5970E+06    -257.593E+06    -65.6064E+06    -257.583E+06    -54.4310E+06     643.777E+03
            1212     64.1241E-03     3.77225E-03     64.0131E-03     117.616E-03    -58.6447E-03    -58.9920E-03    -58.6425E-03     117.614E-03    -58.9920E-03     1.18751E-03     123.853E-03     199.685E+06    -41.9419E+06    -60.6939E+06    -250.315E+06    -60.6971E+06    -250.312E+06    -41.9419E+06     234.304E+03
            1213     64.1879E-03     4.71547E-03     64.0144E-03     117.459E-03    -58.5268E-03    -58.9492E-03    -58.5180E-03     117.450E-03    -58.9492E-03     2.35165E-03     127.344E-03     188.258E+06    -32.6688E+06    -56.1500E+06    -231.536E+06    -56.1548E+06    -231.532E+06    -32.6688E+06    -34.0439E+03
            1214     64.2665E-03     5.65910E-03     64.0169E-03     117.391E-03    -58.5011E-03    -58.9120E-03    -58.4807E-03     117.371E-03    -58.9120E-03     3.73413E-03     131.849E-03     170.920E+06    -24.3139E+06    -52.3538E+06    -207.486E+06    -52.3581E+06    -207.482E+06    -24.3139E+06    -54.2178E+03
            1215     64.3605E-03     6.60198E-03     64.0210E-03     117.465E-03    -58.5847E-03    -58.9116E-03    -58.5409E-03     117.422E-03    -58.9116E-03     5.43811E-03     137.780E-03     159.904E+06    -15.8400E+06    -48.8902E+06    -189.655E+06    -48.9075E+06    -189.638E+06    -15.8400E+06    -1.00837E+06
            1216     64.4711E-03     7.54523E-03     64.0280E-03     117.368E-03    -58.5538E-03    -58.8618E-03    -58.4605E-03     117.275E-03    -58.8618E-03     7.97774E-03     144.733E-03     135.050E+06    -13.6080E+06    -44.9908E+06    -161.574E+06    -45.0191E+06    -161.546E+06    -13.6080E+06    -1.18888E+06
            1217     64.5978E-03     8.48856E-03     64.0377E-03     117.055E-03    -58.3076E-03    -58.7909E-03    -58.1392E-03     116.886E-03    -58.7909E-03     10.7714E-03     152.981E-03     104.243E+06    -11.0761E+06    -39.6106E+06    -126.487E+06    -39.6459E+06    -126.452E+06    -11.0761E+06     199.016E+03
            1218     64.7408E-03     9.43208E-03     64.0501E-03     116.957E-03    -58.2249E-03    -58.7376E-03    -57.8481E-03     116.580E-03    -58.7376E-03     15.8133E-03     164.294E-03     78.8440E+06    -3.70293E+06    -34.6992E+06    -92.9471E+06    -34.7562E+06    -92.8901E+06    -3.70293E+06     1.07773E+06
            1219     64.9056E-03     10.3761E-03     64.0708E-03     117.100E-03    -58.4225E-03    -58.6634E-03    -57.8418E-03     116.519E-03    -58.6634E-03     20.1443E-03     178.052E-03     46.3457E+06    -2.29197E+06    -31.3412E+06    -54.3574E+06    -32.3645E+06    -53.3341E+06    -2.29197E+06     1.59644E+06
            1220     65.0852E-03     11.3196E-03     64.0933E-03     117.064E-03    -58.4718E-03    -58.6013E-03    -57.5856E-03     116.104E-03    -58.5273E-03     25.4683E-03     194.237E-03     48.5847E+06     20.5443E+06    -22.5762E+06    -32.0480E+06    -31.1422E+06     6.87953E+06    -9.81725E+06     2.08432E+06
            1221     65.2878E-03     12.2637E-03     64.1256E-03     117.964E-03    -58.4259E-03    -59.5577E-03    -57.1935E-03     115.607E-03    -58.4333E-03     39.5635E-03     218.762E-03     98.8097E+06     77.5398E+06    -7.77860E+06    -30.6839E+06    -30.6331E+06     77.4891E+06    -7.77860E+06     1.75930E+06
            1222     65.5240E-03     13.2091E-03     64.1787E-03     120.386E-03    -58.5005E-03    -61.9191E-03    -56.9140E-03     115.380E-03    -58.5005E-03     58.8278E-03     257.671E-03     128.394E+06     116.523E+06     20.6198E+06    -27.9358E+06    -27.8258E+06     116.413E+06     20.6198E+06     346.186E+03
            1223     65.7929E-03     14.1506E-03     64.2532E-03     131.187E-03    -58.6783E-03    -72.6492E-03    -57.1641E-03     115.701E-03    -58.6783E-03     103.818E-03     314.210E-03     133.044E+06     130.129E+06     66.0883E+06    -21.3125E+06    -21.1331E+06     129.950E+06     66.0883E+06    -614.834E+03
            1224     66.1530E-03     15.0972E-03     64.4073E-03     157.102E-03    -58.7805E-03    -98.5180E-03    -59.0694E-03     117.653E-03    -58.7805E-03     182.493E-03     424.806E-03     143.458E+06     142.595E+06     109.281E+06    -14.0168E+06    -13.9109E+06     142.489E+06     109.281E+06     580.678E+03
            1225     66.6285E-03     16.0467E-03     64.6673E-03     153.532E-03    -58.7942E-03    -94.8089E-03    -60.0324E-03     118.756E-03    -58.7942E-03     166.845E-03     447.730E-03     153.169E+06     155.264E+06     133.015E+06    -7.80766E+06    -7.77645E+06     155.233E+06     133.015E+06     844.039E+03
            1226     65.1438E-03     942.881E-06     65.1370E-03     117.774E-03    -58.7947E-03    -58.9849E-03    -58.9522E-03     117.774E-03    -58.8272E-03     50.5925E-06     118.823E-03     195.625E+06    -71.1102E+06    -73.0956E+06    -267.713E+06    -73.0515E+06    -267.711E+06    -71.1564E+06     204.526E+03
            1227     65.1638E-03     1.88598E-03     65.1365E-03     117.755E-03    -58.8468E-03    -58.9173E-03    -58.8467E-03     117.754E-03    -58.9173E-03     198.556E-06     119.715E-03     197.500E+06    -63.9745E+06    -70.2699E+06    -264.533E+06    -70.2730E+06    -264.530E+06    -63.9745E+06     116.712E+03
            1228     65.1978E-03     2.82932E-03     65.1364E-03     117.704E-03    -58.7836E-03    -58.9384E-03    -58.7831E-03     117.703E-03    -58.9384E-03     560.887E-06     121.327E-03     197.868E+06    -53.5745E+06    -66.0524E+06    -257.356E+06    -66.0601E+06    -257.348E+06    -53.5745E+06    -102.193E+03
            1229     65.2459E-03     3.77223E-03     65.1367E-03     117.573E-03    -58.6338E-03    -58.9570E-03    -58.6319E-03     117.571E-03    -58.9570E-03     1.08127E-03     123.811E-03     199.922E+06    -41.2198E+06    -61.5435E+06    -250.496E+06    -61.5529E+06    -250.487E+06    -41.2198E+06    -9.45372E+03
            1230     65.3082E-03     4.71579E-03     65.1377E-03     117.446E-03    -58.5338E-03    -58.9262E-03    -58.5266E-03     117.439E-03    -58.9262E-03     2.14645E-03     127.314E-03     189.368E+06    -31.2094E+06    -56.5874E+06    -231.972E+06    -56.5924E+06    -231.967E+06    -31.2094E+06     477.290E+03
            1231     65.3860E-03     5.65888E-03     65.1407E-03     117.411E-03    -58.5393E-03    -58.8916E-03    -58.5195E-03     117.391E-03    -58.8916E-03     3.64115E-03     131.848E-03     171.565E+06    -24.1185E+06    -51.8206E+06    -207.833E+06    -51.8264E+06    -207.827E+06    -24.1185E+06     837.373E+03
            1232     65.4790E-03     6.60212E-03     65.1453E-03     117.469E-03    -58.6118E-03    -58.8842E-03    -58.5616E-03     117.419E-03    -58.8842E-03     5.79295E-03     137.760E-03     158.093E+06    -16.5904E+06    -48.1912E+06    -188.044E+06    -48.2004E+06    -188.035E+06    -16.5904E+06     429.988E+03
            1233     65.5872E-03     7.54523E-03     65.1517E-03     117.294E-03    -58.4971E-03    -58.8421E-03    -58.4024E-03     117.199E-03    -58.8421E-03     8.08872E-03     144.661E-03     134.690E+06    -13.2391E+06    -44.7951E+06    -160.889E+06    -44.8255E+06    -160.858E+06    -13.2391E+06    -1.21761E+06
            1234     65.7120E-03     8.48881E-03     65.1614E-03     116.996E-03    -58.2751E-03    -58.7643E-03    -58.1093E-03     116.830E-03    -58.7643E-03     10.6535E-03     152.845E-03     103.511E+06    -13.6455E+06    -41.4337E+06    -128.133E+06    -41.4742E+06    -128.092E+06    -13.6455E+06    -1.79997E+06
            1235     65.8526E-03     9.43265E-03     65.1735E-03     117.136E-03    -58.4127E-03    -58.7340E-03    -58.0534E-03     116.760E-03    -58.7173E-03     15.8309E-03     164.419E-03     77.3710E+06    -7.13445E+06    -37.4730E+06    -94.6595E+06    -37.5215E+06     -94.611E+06    -7.13445E+06    -18.2264E+03
            1236     66.0154E-03     10.3759E-03     65.1949E-03     117.158E-03    -58.4504E-03    -58.6886E-03    -57.8886E-03     116.579E-03    -58.6719E-03     20.1080E-03     178.167E-03     48.1967E+06    -2.43390E+06    -31.9534E+06    -57.0845E+06    -34.0004E+06    -55.0376E+06    -2.43390E+06     2.31913E+06
            1237     66.1923E-03     11.3195E-03     65.2172E-03     116.854E-03    -58.3332E-03    -58.5299E-03    -57.4059E-03     115.926E-03    -58.5299E-03     25.0536E-03     194.268E-03     49.0163E+06     20.0737E+06    -22.1563E+06    -33.6327E+06    -32.1981E+06     6.17018E+06    -9.68746E+06     3.14938E+06
            1238     66.3913E-03     12.2639E-03     65.2488E-03     117.881E-03    -58.4004E-03    -59.5114E-03    -57.1044E-03     115.507E-03    -58.4326E-03     39.5208E-03     218.585E-03     98.6746E+06     79.0585E+06    -5.21229E+06    -29.4704E+06    -29.3951E+06     78.9832E+06    -5.21229E+06     1.66207E+06
            1239     66.6251E-03     13.2069E-03     65.3030E-03     120.138E-03    -58.5086E-03    -61.6478E-03    -56.7156E-03     115.206E-03    -58.5086E-03     58.4441E-03     257.314E-03     129.103E+06     118.791E+06     25.3202E+06    -26.8234E+06    -26.7410E+06     118.708E+06     25.3202E+06    -776.116E+03
            1240     66.8913E-03     14.1541E-03     65.3766E-03     131.729E-03    -58.7059E-03    -73.1879E-03    -57.8758E-03     116.417E-03    -58.7059E-03     103.532E-03     314.316E-03     133.285E+06     128.988E+06     67.7424E+06    -22.6352E+06    -22.5342E+06     128.887E+06     67.7424E+06    -431.419E+03
            1241     67.2480E-03     15.0971E-03     65.5315E-03     156.832E-03    -58.8336E-03    -98.2027E-03    -59.7720E-03     118.401E-03    -58.8336E-03     180.303E-03     424.656E-03     143.331E+06     141.721E+06     108.852E+06    -14.6982E+06    -14.6527E+06     141.675E+06     108.852E+06     1.09774E+06
            1242     67.7124E-03     16.0404E-03     65.7851E-03     152.659E-03    -58.8401E-03    -93.8657E-03    -59.2189E-03     118.013E-03    -58.8401E-03     166.923E-03     448.366E-03     153.416E+06     155.741E+06     133.210E+06    -7.69231E+06    -7.67971E+06     155.729E+06     133.210E+06     1.01790E+06
            1243     66.2674E-03     943.301E-06     66.2607E-03     117.646E-03    -58.7521E-03    -58.8994E-03    -58.8744E-03     117.646E-03    -58.7769E-03    -66.5712E-06     118.727E-03     195.343E+06    -70.6949E+06    -73.7947E+06    -267.561E+06    -73.2527E+06    -267.559E+06    -71.2386E+06     236.693E+03
            1244     66.2869E-03     1.88651E-03     66.2601E-03     117.652E-03    -58.7952E-03    -58.8669E-03    -58.7976E-03     117.652E-03    -58.8644E-03     43.8760E-06     119.619E-03     197.691E+06    -62.9018E+06    -70.4641E+06    -264.254E+06    -70.4684E+06    -264.249E+06    -62.9018E+06    -75.5915E+03
            1245     66.3209E-03     2.82924E-03     66.2605E-03     117.597E-03    -58.7284E-03    -58.8858E-03    -58.7280E-03     117.597E-03    -58.8858E-03     384.451E-06     121.219E-03     197.919E+06    -53.1761E+06    -66.6950E+06    -257.484E+06    -66.7036E+06    -257.476E+06    -53.1761E+06    -309.912E+03
            1246     66.3674E-03     3.77261E-03     66.2601E-03     117.624E-03    -58.7254E-03    -58.9155E-03    -58.7236E-03     117.622E-03    -58.9155E-03     1.04886E-03     123.845E-03     199.935E+06    -41.8051E+06    -61.9949E+06    -251.052E+06    -62.0033E+06    -251.043E+06    -41.8051E+06    -36.4841E+03
            1247     66.4292E-03     4.71554E-03     66.2616E-03     117.558E-03    -58.6588E-03    -58.9125E-03    -58.6511E-03     117.550E-03    -58.9125E-03     2.21424E-03     127.381E-03     189.465E+06    -32.0136E+06    -56.6079E+06    -232.557E+06    -56.6115E+06    -232.554E+06    -32.0136E+06     367.297E+03
            1248     66.5056E-03     5.65880E-03     66.2644E-03     117.366E-03    -58.4905E-03    -58.8933E-03    -58.4708E-03     117.346E-03    -58.8933E-03     3.64678E-03     131.799E-03     172.737E+06    -23.6148E+06    -50.9102E+06    -208.363E+06    -50.9153E+06    -208.358E+06    -23.6148E+06     364.713E+03
            1249     66.5967E-03     6.60256E-03     66.2686E-03     117.311E-03    -58.4634E-03    -58.8726E-03    -58.4118E-03     117.259E-03    -58.8726E-03     5.83968E-03     137.572E-03     159.848E+06    -14.6059E+06    -45.6433E+06    -187.653E+06    -45.6544E+06    -187.642E+06    -14.6059E+06     821.380E+03
            1250     66.7047E-03     7.54566E-03     66.2766E-03     117.302E-03    -58.5101E-03    -58.8345E-03    -58.4208E-03     117.213E-03    -58.8345E-03     7.89825E-03     144.645E-03     137.210E+06    -8.55683E+06    -42.4620E+06    -159.488E+06    -42.4986E+06    -159.451E+06    -8.55683E+06     584.452E+03
            1251     66.8255E-03     8.48897E-03     66.2841E-03     117.244E-03    -58.5046E-03    -58.7741E-03    -58.3467E-03     117.086E-03    -58.7741E-03     10.3599E-03     153.133E-03     105.333E+06    -9.89632E+06    -40.5230E+06    -127.104E+06    -40.5876E+06    -127.040E+06    -9.89632E+06    -1.13537E+06
            1252     66.9658E-03     9.43214E-03     66.2982E-03     117.264E-03    -58.5195E-03    -58.7440E-03    -58.1660E-03     116.893E-03    -58.7273E-03     15.7302E-03     164.583E-03     79.4213E+06    -8.11709E+06    -38.3914E+06    -97.9674E+06    -38.4450E+06    -97.9138E+06    -8.11709E+06    -518.900E+03
            1253     67.1253E-03     10.3755E-03     66.3186E-03     117.070E-03    -58.3516E-03    -58.7003E-03    -57.7976E-03     116.499E-03    -58.6836E-03     19.9622E-03     178.066E-03     51.3105E+06    -3.23970E+06    -32.8664E+06    -61.5440E+06    -35.7284E+06    -58.6820E+06    -3.23970E+06     2.46181E+06
            1254     67.2997E-03     11.3196E-03     66.3409E-03     116.892E-03    -58.2667E-03    -58.6357E-03    -57.4454E-03     115.976E-03    -58.5410E-03     24.9184E-03     194.192E-03     50.1838E+06     21.8900E+06    -21.3498E+06    -33.0946E+06    -31.7409E+06     7.82215E+06    -8.63560E+06     2.29338E+06
            1255     67.4956E-03     12.2637E-03     66.3721E-03     117.768E-03    -58.4164E-03    -59.3889E-03    -57.0113E-03     115.415E-03    -58.4412E-03     39.2781E-03     218.439E-03     99.1676E+06     79.9036E+06    -5.04222E+06    -29.0176E+06    -28.9718E+06     79.8578E+06    -5.04222E+06     456.375E+03
            1256     67.7281E-03     13.2091E-03     66.4275E-03     120.156E-03    -58.5316E-03    -61.6538E-03    -56.7792E-03     115.281E-03    -58.5316E-03     58.1520E-03     256.807E-03     129.340E+06     119.715E+06     28.0200E+06    -26.2942E+06    -26.2741E+06     119.695E+06     28.0200E+06     506.366E+03
            1257     67.9875E-03     14.1517E-03     66.4983E-03     132.452E-03    -58.7574E-03    -73.8586E-03    -58.5441E-03     117.138E-03    -58.7574E-03     103.834E-03     314.263E-03     134.003E+06     129.556E+06     70.2774E+06    -22.8313E+06    -22.7995E+06     129.525E+06     70.2774E+06     752.511E+03
            1258     68.3481E-03     15.0945E-03     66.6604E-03     156.796E-03    -58.9166E-03    -98.0937E-03    -60.4555E-03     119.158E-03    -58.9166E-03     178.869E-03     424.671E-03     144.304E+06     140.656E+06     107.744E+06    -16.8218E+06    -16.7811E+06     140.615E+06     107.744E+06     441.937E+03
            1259     68.7995E-03     16.0408E-03     66.9034E-03     152.388E-03    -58.9245E-03    -93.5189E-03    -58.7758E-03     117.645E-03    -58.9245E-03     168.073E-03     449.385E-03     153.401E+06     155.926E+06     133.001E+06    -7.64465E+06    -7.61889E+06     155.900E+06     133.001E+06     906.277E+03
            1260     67.3901E-03     942.973E-06     67.3835E-03     117.684E-03    -58.5804E-03    -59.1083E-03    -59.0579E-03     117.682E-03    -58.6290E-03    -313.101E-06     118.748E-03     196.031E+06    -70.4748E+06    -73.1507E+06    -267.824E+06    -72.6080E+06    -267.823E+06    -71.0186E+06     94.6724E+03
            1261     67.4108E-03     1.88587E-03     67.3844E-03     117.567E-03    -58.7173E-03    -58.8598E-03    -58.7196E-03     117.567E-03    -58.8572E-03     64.7322E-06     119.542E-03     196.995E+06    -63.5621E+06    -70.2511E+06    -263.797E+06    -70.2540E+06    -263.794E+06    -63.5621E+06    -21.4403E+03
            1262     67.4426E-03     2.82953E-03     67.3832E-03     117.524E-03    -58.6786E-03    -58.8609E-03    -58.6781E-03     117.524E-03    -58.8609E-03     323.573E-06     121.141E-03     198.260E+06    -53.0688E+06    -66.5575E+06    -257.701E+06    -66.5609E+06    -257.697E+06    -53.0688E+06    -56.8306E+03
            1263     67.4899E-03     3.77268E-03     67.3843E-03     117.612E-03    -58.7358E-03    -58.8906E-03    -58.7338E-03     117.610E-03    -58.8906E-03     1.13391E-03     123.834E-03     200.308E+06    -41.7050E+06    -61.6541E+06    -251.228E+06    -61.6557E+06    -251.227E+06    -41.7050E+06    -29.5642E+03
            1264     67.5501E-03     4.71573E-03     67.3853E-03     117.570E-03    -58.6872E-03    -58.8943E-03    -58.6794E-03     117.562E-03    -58.8943E-03     2.23408E-03     127.420E-03     189.529E+06    -32.2606E+06    -56.4358E+06    -232.697E+06    -56.4373E+06    -232.696E+06    -32.2606E+06    -290.545E+03
            1265     67.6252E-03     5.65910E-03     67.3880E-03     117.471E-03    -58.5918E-03    -58.8946E-03    -58.5717E-03     117.451E-03    -58.8946E-03     3.68265E-03     131.918E-03     172.871E+06    -23.0218E+06    -51.5712E+06    -208.360E+06    -51.5729E+06    -208.358E+06    -23.0218E+06    -274.628E+03
            1266     67.7151E-03     6.60190E-03     67.3925E-03     117.312E-03    -58.4551E-03    -58.8830E-03    -58.4078E-03     117.264E-03    -58.8830E-03     5.62427E-03     137.593E-03     160.479E+06    -14.8126E+06    -46.6088E+06    -188.790E+06    -46.6149E+06    -188.784E+06    -14.8126E+06     77.7202E+03
            1267     67.8208E-03     7.54590E-03     67.3997E-03     117.198E-03    -58.4139E-03    -58.8341E-03    -58.3242E-03     117.109E-03    -58.8341E-03     7.85646E-03     144.489E-03     137.553E+06    -9.17271E+06    -41.7166E+06    -160.010E+06    -41.7391E+06    -159.987E+06    -9.17271E+06     1.17639E+06
            1268     67.9419E-03     8.48867E-03     67.4095E-03     117.320E-03    -58.5753E-03    -58.7817E-03    -58.4116E-03     117.156E-03    -58.7817E-03     10.5815E-03     153.185E-03     106.293E+06    -7.73644E+06    -39.0125E+06    -126.030E+06    -39.2128E+06    -125.830E+06    -7.73644E+06     1.92703E+06
            1269     68.0778E-03     9.43184E-03     67.4213E-03     117.302E-03    -58.5616E-03    -58.7359E-03    -58.1798E-03     116.920E-03    -58.7359E-03     15.9510E-03     164.570E-03     81.3775E+06    -7.55369E+06    -38.6625E+06    -99.6955E+06    -38.8814E+06    -99.4765E+06    -7.55369E+06     1.98247E+06
            1270     68.2362E-03     10.3760E-03     67.4427E-03     117.084E-03    -58.3960E-03    -58.6701E-03    -57.8166E-03     116.505E-03    -58.6701E-03     20.1257E-03     177.979E-03     49.3255E+06    -6.41667E+06    -32.9154E+06    -62.5582E+06    -36.0899E+06    -59.3837E+06    -6.41667E+06     660.461E+03
            1271     68.4071E-03     11.3196E-03     67.4640E-03     116.987E-03    -58.3645E-03    -58.6289E-03    -57.5211E-03     116.049E-03    -58.5342E-03     25.1780E-03     194.094E-03     48.3943E+06     20.1118E+06    -21.1937E+06    -32.9795E+06    -31.8859E+06     8.77754E+06    -10.9530E+06    -113.583E+03
            1272     68.6020E-03     12.2628E-03     67.4971E-03     117.744E-03    -58.4341E-03    -59.3294E-03    -57.0060E-03     115.436E-03    -58.4495E-03     39.0744E-03     218.282E-03     99.5196E+06     79.9406E+06    -5.28448E+06    -29.3786E+06    -29.3525E+06     79.9145E+06    -5.28448E+06     829.268E+03
            1273     68.8271E-03     13.2075E-03     67.5480E-03     120.630E-03    -58.5402E-03    -62.1110E-03    -57.0512E-03     115.570E-03    -58.5402E-03     59.1330E-03     256.745E-03     128.957E+06     118.263E+06     26.5203E+06    -27.3703E+06    -27.3181E+06     118.211E+06     26.5203E+06     1.87380E+06
            1274     69.0927E-03     14.1515E-03     67.6279E-03     132.676E-03    -58.7531E-03    -74.0686E-03    -58.2473E-03     116.855E-03    -58.7531E-03     105.728E-03     314.412E-03     134.800E+06     130.023E+06     69.2194E+06    -23.4695E+06    -23.4077E+06     129.962E+06     69.2194E+06     2.00675E+06
            1275     69.4427E-03     15.0954E-03     67.7821E-03     157.363E-03    -58.8989E-03    -98.6639E-03    -60.4144E-03     119.114E-03    -58.8989E-03     180.710E-03     425.174E-03     145.835E+06     141.829E+06     107.295E+06    -17.6787E+06    -17.6467E+06     141.797E+06     107.295E+06     881.519E+03
            1276     69.8949E-03     16.0383E-03     68.0300E-03     152.647E-03    -58.9234E-03    -93.7976E-03    -59.1485E-03     117.998E-03    -58.9234E-03     167.770E-03     448.949E-03     153.757E+06     155.451E+06     132.311E+06    -8.56196E+06    -8.52916E+06     155.418E+06     132.311E+06     110.412E+03
            1277     68.5141E-03     943.019E-06     68.5076E-03     117.548E-03    -58.5327E-03    -59.0225E-03    -58.9053E-03     117.546E-03    -58.6481E-03    -285.139E-06     118.595E-03     196.359E+06    -70.3383E+06    -72.6162E+06    -267.823E+06    -72.6186E+06    -267.821E+06    -70.3383E+06    -439.630E+03
            1278     68.5332E-03     1.88661E-03     68.5073E-03     117.524E-03    -58.7054E-03    -58.8299E-03    -58.7327E-03     117.524E-03    -58.8023E-03     178.137E-06     119.487E-03     197.694E+06    -63.6274E+06    -69.3887E+06    -264.124E+06    -69.3891E+06    -264.123E+06    -63.6274E+06     143.246E+03
            1279     68.5657E-03     2.82945E-03     68.5073E-03     117.575E-03    -58.7428E-03    -58.8483E-03    -58.7524E-03     117.575E-03    -58.8383E-03     413.888E-06     121.197E-03     198.672E+06    -53.2360E+06    -66.2854E+06    -258.070E+06    -66.2874E+06    -258.068E+06    -53.2360E+06     395.162E+03
            1280     68.6115E-03     3.77253E-03     68.5077E-03     117.585E-03    -58.7103E-03    -58.8891E-03    -58.7085E-03     117.583E-03    -58.8891E-03     1.09030E-03     123.801E-03     200.334E+06    -40.8265E+06    -61.8138E+06    -250.805E+06    -61.8156E+06    -250.804E+06    -40.8265E+06     219.230E+03
            1281     68.6714E-03     4.71596E-03     68.5092E-03     117.527E-03    -58.6520E-03    -58.8887E-03    -58.6442E-03     117.520E-03    -58.8887E-03     2.21391E-03     127.372E-03     189.565E+06    -31.7621E+06    -57.0887E+06    -232.699E+06    -57.0894E+06    -232.699E+06    -31.7621E+06    -186.861E+03
            1282     68.7453E-03     5.65880E-03     68.5120E-03     117.481E-03    -58.6188E-03    -58.8792E-03    -58.5974E-03     117.460E-03    -58.8792E-03     3.79785E-03     131.903E-03     171.677E+06    -24.2416E+06    -52.5186E+06    -208.277E+06    -52.5204E+06    -208.275E+06    -24.2416E+06    -355.773E+03
            1283     68.8338E-03     6.60237E-03     68.5164E-03     117.398E-03    -58.5510E-03    -58.8791E-03    -58.5011E-03     117.348E-03    -58.8791E-03     5.79795E-03     137.659E-03     159.437E+06    -16.5069E+06    -47.7195E+06    -189.218E+06    -47.7221E+06    -189.215E+06    -16.5069E+06    -524.290E+03
            1284     68.9374E-03     7.54511E-03     68.5233E-03     117.171E-03    -58.3929E-03    -58.8396E-03    -58.2981E-03     117.077E-03    -58.8396E-03     8.07215E-03     144.487E-03     138.159E+06    -10.8694E+06    -42.8543E+06    -162.171E+06    -42.8662E+06    -162.159E+06    -10.8694E+06     407.951E+03
            1285     69.0571E-03     8.48938E-03     68.5333E-03     117.049E-03    -58.3224E-03    -58.7827E-03    -58.1552E-03     116.882E-03    -58.7827E-03     10.7110E-03     152.952E-03     110.191E+06    -6.54833E+06    -38.2356E+06    -128.979E+06    -38.4663E+06    -128.748E+06    -6.54833E+06     3.50938E+06
            1286     69.1918E-03     9.43261E-03     68.5459E-03     117.223E-03    -58.5002E-03    -58.7303E-03    -58.1306E-03     116.847E-03    -58.7237E-03     15.8444E-03     164.481E-03     83.3164E+06    -3.78366E+06    -34.4988E+06    -97.9262E+06    -34.7616E+06    -97.6634E+06    -3.78366E+06     3.80138E+06
            1287     69.3465E-03     10.3757E-03     68.5659E-03     117.165E-03    -58.4987E-03    -58.6554E-03    -57.9051E-03     116.564E-03    -58.6488E-03     20.4621E-03     178.006E-03     47.1288E+06    -4.94918E+06    -30.2456E+06    -58.1920E+06    -32.6054E+06    -55.8321E+06    -4.94918E+06     308.271E+03
            1288     69.5166E-03     11.3193E-03     68.5889E-03     116.891E-03    -58.3876E-03    -58.5261E-03    -57.4411E-03     115.934E-03    -58.5157E-03     25.4979E-03     193.998E-03     47.4794E+06     19.1803E+06    -21.9292E+06    -32.5734E+06    -31.6766E+06     7.88056E+06    -11.5262E+06    -758.656E+03
            1289     69.7066E-03     12.2644E-03     68.6192E-03     117.875E-03    -58.4035E-03    -59.4905E-03    -57.1061E-03     115.506E-03    -58.4189E-03     39.5216E-03     218.355E-03     98.8378E+06     77.9706E+06    -7.27550E+06    -30.3406E+06    -30.2892E+06     77.9192E+06    -7.27550E+06     957.868E+03
            1290     69.9324E-03     13.2080E-03     68.6738E-03     120.718E-03    -58.4886E-03    -62.2432E-03    -56.9227E-03     115.397E-03    -58.4886E-03     60.5860E-03     256.883E-03     128.115E+06     116.639E+06     22.8400E+06    -27.6983E+06    -27.6298E+06     116.570E+06     22.8400E+06     2.59041E+06
            1291     70.1919E-03     14.1522E-03     68.7504E-03     131.912E-03    -58.6743E-03    -73.3801E-03    -57.4058E-03     115.937E-03    -58.6743E-03     106.119E-03     314.043E-03     133.775E+06     129.830E+06     67.1518E+06    -22.4927E+06    -22.3964E+06     129.734E+06     67.1518E+06     2.92719E+06
            1292     70.5412E-03     15.0984E-03     68.9065E-03     157.769E-03    -58.8026E-03    -99.1456E-03    -60.1813E-03     118.805E-03    -58.8026E-03     182.414E-03     425.479E-03     146.114E+06     144.447E+06     109.063E+06    -15.6270E+06    -15.5662E+06     144.386E+06     109.063E+06     1.60831E+06
            1293     70.9947E-03     16.0420E-03     69.1585E-03     153.094E-03    -58.8511E-03    -94.3317E-03    -59.9683E-03     118.730E-03    -58.8511E-03     166.438E-03     448.311E-03     154.915E+06     156.637E+06     133.093E+06    -8.70030E+06    -8.67967E+06     156.616E+06     133.093E+06    -203.567E+03
            1294     69.6375E-03     943.556E-06     69.6312E-03     117.438E-03    -58.5327E-03    -58.9126E-03    -58.8456E-03     117.438E-03    -58.5995E-03    -143.027E-06     118.515E-03     195.025E+06    -71.2911E+06    -74.2674E+06    -267.780E+06    -74.1499E+06    -267.774E+06    -71.4139E+06    -97.4808E+03
            1295     69.6563E-03     1.88623E-03     69.6307E-03     117.539E-03    -58.7368E-03    -58.8132E-03    -58.7770E-03     117.539E-03    -58.7729E-03    -53.4976E-06     119.495E-03     197.266E+06    -64.1565E+06    -71.0969E+06    -264.791E+06    -71.0976E+06    -264.790E+06    -64.1565E+06    -94.1303E+03
            1296     69.6886E-03     2.82955E-03     69.6311E-03     117.550E-03    -58.7299E-03    -58.8349E-03    -58.7395E-03     117.549E-03    -58.8248E-03     481.421E-06     121.178E-03     198.610E+06    -54.0801E+06    -66.9268E+06    -258.772E+06    -66.9289E+06    -258.770E+06    -54.0801E+06     517.331E+03
            1297     69.7335E-03     3.77266E-03     69.6314E-03     117.572E-03    -58.7125E-03    -58.8760E-03    -58.7104E-03     117.569E-03    -58.8760E-03     1.14074E-03     123.812E-03     199.326E+06    -41.9931E+06    -62.2323E+06    -250.637E+06    -62.2347E+06    -250.635E+06    -41.9931E+06     565.927E+03
            1298     69.7922E-03     4.71570E-03     69.6327E-03     117.491E-03    -58.6308E-03    -58.8779E-03    -58.6217E-03     117.482E-03    -58.8779E-03     2.38948E-03     127.322E-03     188.641E+06    -32.6146E+06    -57.2480E+06    -232.346E+06    -57.2485E+06    -232.345E+06    -32.6146E+06     131.973E+03
            1299     69.8654E-03     5.65923E-03     69.6359E-03     117.405E-03    -58.5654E-03    -58.8585E-03    -58.5440E-03     117.383E-03    -58.8585E-03     3.82447E-03     131.822E-03     171.050E+06    -25.6716E+06    -53.1528E+06    -208.773E+06    -53.1681E+06    -208.758E+06    -25.6716E+06     500.379E+03
            1300     69.9523E-03     6.60230E-03     69.6400E-03     117.337E-03    -58.5135E-03    -58.8541E-03    -58.4633E-03     117.287E-03    -58.8541E-03     5.78559E-03     137.632E-03     157.095E+06    -17.8518E+06    -50.2605E+06    -188.566E+06    -50.2771E+06    -188.549E+06    -17.8518E+06     413.858E+03
            1301     70.0552E-03     7.54587E-03     69.6476E-03     117.199E-03    -58.4357E-03    -58.8190E-03    -58.3396E-03     117.103E-03    -58.8190E-03     8.14257E-03     144.566E-03     136.759E+06    -13.5287E+06    -46.9254E+06    -163.873E+06    -46.9356E+06    -163.863E+06    -13.5287E+06     78.7751E+03
            1302     70.1715E-03     8.48858E-03     69.6562E-03     116.995E-03    -58.2949E-03    -58.7539E-03    -58.1269E-03     116.827E-03    -58.7539E-03     10.7296E-03     152.968E-03     109.664E+06    -11.4144E+06    -41.2826E+06    -132.869E+06    -41.3539E+06    -132.798E+06    -11.4144E+06     1.07731E+06
            1303     70.3056E-03     9.43277E-03     69.6700E-03     116.986E-03    -58.3015E-03    -58.6980E-03    -57.9369E-03     116.615E-03    -58.6915E-03     15.7434E-03     164.347E-03     80.1392E+06    -5.57305E+06    -35.1935E+06    -95.9826E+06    -35.3067E+06    -95.8694E+06    -5.57305E+06     1.93500E+06
            1304     70.4582E-03     10.3765E-03     69.6899E-03     117.037E-03    -58.4003E-03    -58.6287E-03    -57.8158E-03     116.446E-03    -58.6221E-03     20.2884E-03     177.982E-03     45.1279E+06    -2.73452E+06    -29.8541E+06    -53.4880E+06    -30.8470E+06    -52.4952E+06    -2.73452E+06     960.070E+03
            1305     70.6254E-03     11.3207E-03     69.7122E-03     116.886E-03    -58.3912E-03    -58.5176E-03    -57.5019E-03     115.968E-03    -58.4887E-03     25.0258E-03     194.253E-03     45.4964E+06     18.9926E+06    -21.9989E+06    -29.9419E+06    -29.0035E+06     6.43774E+06    -10.3824E+06     373.914E+03
            1306     70.8131E-03     12.2637E-03     69.7431E-03     117.877E-03    -58.3960E-03    -59.4985E-03    -57.1559E-03     115.534E-03    -58.3960E-03     39.1698E-03     218.712E-03     96.4308E+06     76.1533E+06    -6.99450E+06    -29.4928E+06    -29.3846E+06     76.0451E+06    -6.99450E+06     1.91024E+06
            1307     71.0359E-03     13.2088E-03     69.7970E-03     120.312E-03    -58.4605E-03    -61.8755E-03    -56.6999E-03     115.136E-03    -58.4605E-03     59.7413E-03     257.080E-03     127.875E+06     116.598E+06     22.8373E+06    -27.7115E+06    -27.6667E+06     116.553E+06     22.8373E+06     2.39837E+06
            1308     71.2935E-03     14.1537E-03     69.8744E-03     131.368E-03    -58.6325E-03    -72.8837E-03    -57.2600E-03     115.744E-03    -58.6325E-03     104.626E-03     314.163E-03     133.232E+06     129.158E+06     65.7189E+06    -22.5923E+06    -22.5247E+06     129.091E+06     65.7189E+06     1.93762E+06
            1309     71.6377E-03     15.0982E-03     70.0286E-03     157.358E-03    -58.7569E-03    -98.7592E-03    -59.7320E-03     118.331E-03    -58.7569E-03     181.999E-03     425.483E-03     146.239E+06     144.958E+06     109.085E+06    -15.4026E+06    -15.3089E+06     144.864E+06     109.085E+06     1.91027E+06
            1310     72.0933E-03     16.0430E-03     70.2856E-03     152.775E-03    -58.8008E-03    -94.0369E-03    -59.9461E-03     118.684E-03    -58.8008E-03     164.883E-03     447.208E-03     155.645E+06     158.188E+06     134.119E+06    -8.08649E+06    -8.04588E+06     158.148E+06     134.119E+06     971.930E+03
            1311     70.7610E-03     942.872E-06     70.7547E-03     117.578E-03    -58.5650E-03    -59.0185E-03    -58.9841E-03     117.578E-03    -58.5992E-03    -267.884E-06     118.644E-03     195.300E+06    -71.5309E+06    -73.8869E+06    -267.989E+06    -73.7704E+06    -267.983E+06    -71.6537E+06     316.391E+03
            1312     70.7796E-03     1.88636E-03     70.7544E-03     117.530E-03    -58.7094E-03    -58.8306E-03    -58.7220E-03     117.530E-03    -58.8179E-03    -29.2645E-06     119.471E-03     198.160E+06    -63.6694E+06    -70.9787E+06    -265.366E+06    -70.9836E+06    -265.361E+06    -63.6694E+06     102.949E+03
            1313     70.8111E-03     2.82947E-03     70.7545E-03     117.437E-03    -58.6307E-03    -58.8216E-03    -58.6302E-03     117.437E-03    -58.8216E-03     489.513E-06     121.049E-03     198.464E+06    -54.8777E+06    -67.4319E+06    -259.309E+06    -67.4361E+06    -259.305E+06    -54.8777E+06     458.726E+03
            1314     70.8556E-03     3.77276E-03     70.7551E-03     117.507E-03    -58.6835E-03    -58.8396E-03    -58.6841E-03     117.504E-03    -58.8364E-03     1.30042E-03     123.753E-03     196.808E+06    -45.1774E+06    -62.7819E+06    -250.180E+06    -62.7866E+06    -250.175E+06    -45.1774E+06    -272.277E+03
            1315     70.9133E-03     4.71605E-03     70.7563E-03     117.526E-03    -58.6846E-03    -58.8580E-03    -58.6795E-03     117.517E-03    -58.8548E-03     2.33186E-03     127.381E-03     187.907E+06    -34.1285E+06    -57.4596E+06    -232.573E+06    -57.4666E+06    -232.566E+06    -34.1285E+06     32.4796E+03
            1316     70.9852E-03     5.65905E-03     70.7593E-03     117.369E-03    -58.5348E-03    -58.8569E-03    -58.5138E-03     117.348E-03    -58.8569E-03     3.74437E-03     131.846E-03     173.326E+06    -25.0841E+06    -52.7997E+06    -210.575E+06    -52.8218E+06    -210.553E+06    -25.0841E+06     1.45983E+06
            1317     71.0714E-03     6.60238E-03     70.7641E-03     117.272E-03    -58.4659E-03    -58.8369E-03    -58.4176E-03     117.224E-03    -58.8369E-03     5.71007E-03     137.624E-03     157.654E+06    -17.9518E+06    -48.7135E+06    -188.656E+06    -48.7657E+06    -188.604E+06    -17.9518E+06     2.29208E+06
            1318     71.1718E-03     7.54570E-03     70.7706E-03     117.213E-03    -58.4595E-03    -58.8020E-03    -58.3668E-03     117.120E-03    -58.8020E-03     7.98313E-03     144.609E-03     136.525E+06    -13.7269E+06    -46.4570E+06    -163.567E+06    -46.5094E+06    -163.514E+06    -13.7269E+06     1.57983E+06
            1319     71.2881E-03     8.48943E-03     70.7808E-03     117.078E-03    -58.3863E-03    -58.7398E-03    -58.2256E-03     116.918E-03    -58.7398E-03     10.5085E-03     153.042E-03     106.598E+06    -14.0651E+06    -44.8287E+06    -132.599E+06    -44.8601E+06    -132.568E+06    -14.0651E+06    -183.537E+03
            1320     71.4182E-03     9.43248E-03     70.7925E-03     116.983E-03    -58.3282E-03    -58.6706E-03    -57.9662E-03     116.621E-03    -58.6706E-03     15.4949E-03     164.391E-03     74.4422E+06    -11.3102E+06    -39.8545E+06    -95.5888E+06    -40.1921E+06    -95.2512E+06    -11.3102E+06    -1.88048E+06
            1321     71.5702E-03     10.3765E-03     70.8140E-03     116.889E-03    -58.2785E-03    -58.6091E-03    -57.7147E-03     116.325E-03    -58.6091E-03     19.8286E-03     177.952E-03     43.5198E+06    -6.98699E+06    -32.3849E+06    -56.3126E+06    -34.9665E+06    -53.7310E+06    -6.98699E+06    -746.370E+03
            1322     71.7348E-03     11.3196E-03     70.8361E-03     116.968E-03    -58.3069E-03    -58.6837E-03    -57.6153E-03     116.081E-03    -58.4889E-03     24.5610E-03     194.338E-03     46.8747E+06     17.3520E+06    -23.2121E+06    -33.9021E+06    -32.7125E+06     5.05037E+06    -12.1001E+06     1.85697E+06
            1323     71.9200E-03     12.2646E-03     70.8666E-03     118.117E-03    -58.4193E-03    -59.7168E-03    -57.4699E-03     115.870E-03    -58.4193E-03     38.4960E-03     219.197E-03     97.3161E+06     75.9128E+06    -7.74080E+06    -30.8525E+06    -30.7619E+06     75.8222E+06    -7.74080E+06     2.65270E+06
            1324     72.1407E-03     13.2078E-03     70.9214E-03     119.918E-03    -58.4848E-03    -61.4596E-03    -56.5239E-03     114.982E-03    -58.4848E-03     58.2030E-03     257.098E-03     128.462E+06     116.549E+06     22.4745E+06    -28.2885E+06    -28.2498E+06     116.511E+06     22.4745E+06     2.27912E+06
            1325     72.3931E-03     14.1524E-03     70.9963E-03     131.462E-03    -58.6445E-03    -72.9628E-03    -57.2634E-03     115.763E-03    -58.6445E-03     104.654E-03     314.067E-03     133.812E+06     128.139E+06     64.5771E+06    -24.3658E+06    -24.3315E+06     128.104E+06     64.5771E+06     1.36291E+06
            1326     72.7378E-03     15.0973E-03     71.1537E-03     157.063E-03    -58.7744E-03    -98.4616E-03    -59.5672E-03     118.168E-03    -58.7744E-03     181.559E-03     425.572E-03     146.790E+06     144.029E+06     107.545E+06    -17.0860E+06    -17.0280E+06     143.971E+06     107.545E+06     1.45118E+06
            1327     73.1866E-03     16.0430E-03     71.4066E-03     152.512E-03    -58.8069E-03    -93.7726E-03    -59.5205E-03     118.260E-03    -58.8069E-03     165.510E-03     447.621E-03     156.982E+06     159.532E+06     134.785E+06    -8.34914E+06    -8.30772E+06     159.490E+06     134.785E+06     1.34447E+06
            1328     71.8841E-03     943.237E-06     71.8779E-03     117.614E-03    -58.6334E-03    -58.9829E-03    -58.9486E-03     117.614E-03    -58.6676E-03    -70.2493E-06     118.631E-03     197.369E+06    -69.5164E+06    -71.9588E+06    -268.091E+06    -71.3455E+06    -268.085E+06    -70.1364E+06     201.130E+03
            1329     71.9028E-03     1.88617E-03     71.8781E-03     117.536E-03    -58.7075E-03    -58.8359E-03    -58.7209E-03     117.536E-03    -58.8224E-03     6.86723E-06     119.471E-03     199.870E+06    -63.8302E+06    -69.6469E+06    -266.534E+06    -69.6544E+06    -266.526E+06    -63.8302E+06     481.704E+03
            1330     71.9333E-03     2.82949E-03     71.8777E-03     117.495E-03    -58.6688E-03    -58.8404E-03    -58.6823E-03     117.494E-03    -58.8264E-03     439.505E-06     121.102E-03     198.199E+06    -54.8742E+06    -65.8751E+06    -258.323E+06    -65.8815E+06    -258.316E+06    -54.8742E+06    -139.197E+03
            1331     71.9774E-03     3.77294E-03     71.8784E-03     117.561E-03    -58.7051E-03    -58.8714E-03    -58.7201E-03     117.559E-03    -58.8541E-03     1.21155E-03     123.786E-03     197.166E+06    -44.1153E+06    -61.6339E+06    -249.432E+06    -61.6407E+06    -249.425E+06    -44.1153E+06    -764.544E+03
            1332     72.0352E-03     4.71574E-03     71.8807E-03     117.509E-03    -58.6489E-03    -58.8737E-03    -58.6451E-03     117.502E-03    -58.8705E-03     2.14283E-03     127.382E-03     189.528E+06    -33.9533E+06    -57.5670E+06    -234.147E+06    -57.5739E+06    -234.140E+06    -33.9533E+06     137.271E+03
            1333     72.1053E-03     5.65904E-03     71.8829E-03     117.376E-03    -58.5296E-03    -58.8672E-03    -58.5095E-03     117.356E-03    -58.8672E-03     3.64002E-03     131.864E-03     174.960E+06    -24.7833E+06    -52.3838E+06    -211.883E+06    -52.3922E+06    -211.875E+06    -24.7833E+06     756.090E+03
            1334     72.1902E-03     6.60264E-03     71.8876E-03     117.355E-03    -58.5306E-03    -58.8562E-03    -58.4841E-03     117.308E-03    -58.8562E-03     5.61572E-03     137.698E-03     161.172E+06    -16.5105E+06    -46.5441E+06    -190.561E+06    -46.5911E+06    -190.514E+06    -16.5105E+06     1.91362E+06
            1335     72.2898E-03     7.54569E-03     71.8949E-03     117.287E-03    -58.4932E-03    -58.8396E-03    -58.4064E-03     117.200E-03    -58.8396E-03     7.73249E-03     144.724E-03     142.166E+06    -8.12965E+06    -41.3222E+06    -163.875E+06    -41.4578E+06    -163.739E+06    -8.12965E+06     3.74851E+06
            1336     72.4034E-03     8.48868E-03     71.9041E-03     117.198E-03    -58.4670E-03    -58.7779E-03    -58.3126E-03     117.044E-03    -58.7779E-03     10.2985E-03     153.121E-03     108.973E+06    -6.80449E+06    -38.4357E+06    -128.041E+06    -38.5465E+06    -127.930E+06    -6.80449E+06     1.39881E+06
            1337     72.5329E-03     9.43242E-03     71.9169E-03     117.244E-03    -58.5502E-03    -58.7051E-03    -58.2056E-03     116.899E-03    -58.7051E-03     15.1726E-03     164.631E-03     75.4654E+06    -8.98504E+06    -37.7716E+06    -94.4447E+06    -38.1446E+06    -94.0716E+06    -8.98504E+06    -1.69662E+06
            1338     72.6816E-03     10.3754E-03     71.9372E-03     117.016E-03    -58.3492E-03    -58.6621E-03    -57.8124E-03     116.479E-03    -58.6621E-03     19.3479E-03     178.106E-03     47.5913E+06    -7.33182E+06    -35.5243E+06    -60.8049E+06    -38.2544E+06    -58.0748E+06    -7.33182E+06    -114.361E+03
            1339     72.8445E-03     11.3206E-03     71.9594E-03     117.066E-03    -58.2827E-03    -58.8058E-03    -57.6584E-03     116.179E-03    -58.5427E-03     24.5193E-03     194.177E-03     50.0201E+06     17.4108E+06    -25.9702E+06    -37.1424E+06    -36.6240E+06     3.53918E+06    -12.6171E+06     1.84133E+06
            1340     73.0290E-03     12.2622E-03     71.9921E-03     118.072E-03    -58.4506E-03    -59.6442E-03    -57.4092E-03     115.837E-03    -58.4506E-03     38.4486E-03     219.146E-03     99.0411E+06     74.9837E+06    -10.2041E+06    -33.6874E+06    -33.6406E+06     74.9370E+06    -10.2041E+06     1.48505E+06
            1341     73.2449E-03     13.2067E-03     72.0444E-03     119.696E-03    -58.4837E-03    -61.2370E-03    -56.3823E-03     114.841E-03    -58.4837E-03     57.6772E-03     256.958E-03     128.852E+06     115.831E+06     19.4994E+06    -29.1266E+06    -29.0979E+06     115.802E+06     19.4994E+06     1.39059E+06
            1342     73.4936E-03     14.1534E-03     72.1179E-03     132.062E-03    -58.6583E-03    -73.5365E-03    -57.5627E-03     116.089E-03    -58.6583E-03     105.627E-03     313.797E-03     133.811E+06     129.228E+06     64.2781E+06    -23.2109E+06    -23.1827E+06     129.200E+06     64.2781E+06     1.68867E+06
            1343     73.8403E-03     15.0970E-03     72.2805E-03     156.453E-03    -58.8290E-03    -97.8058E-03    -59.7377E-03     118.385E-03    -58.8290E-03     179.725E-03     425.476E-03     146.439E+06     144.251E+06     107.492E+06    -16.6037E+06    -16.5857E+06     144.233E+06     107.492E+06     830.177E+03
            1344     74.2785E-03     16.0423E-03     72.5255E-03     151.803E-03    -58.8597E-03    -93.0472E-03    -59.0742E-03     117.830E-03    -58.8597E-03     165.474E-03     448.437E-03     157.235E+06     159.775E+06     134.119E+06    -8.70933E+06    -8.70346E+06     159.769E+06     134.119E+06     566.393E+03
            1345     73.0083E-03     943.142E-06     73.0022E-03     117.550E-03    -58.6251E-03    -58.9276E-03    -58.8889E-03     117.550E-03    -58.6635E-03    -218.085E-06     118.571E-03     198.233E+06    -69.3492E+06    -72.7007E+06    -269.236E+06    -72.0850E+06    -269.232E+06    -69.9692E+06     308.998E+03
            1346     73.0256E-03     1.88636E-03     73.0012E-03     117.623E-03    -58.7339E-03    -58.8960E-03    -58.8149E-03     117.623E-03    -58.8149E-03    -28.7102E-06     119.569E-03     199.575E+06    -63.9613E+06    -69.3850E+06    -266.186E+06    -69.3891E+06    -266.182E+06    -63.9613E+06     160.068E+03
            1347     73.0561E-03     2.82956E-03     73.0013E-03     117.720E-03    -58.7855E-03    -58.9492E-03    -58.8669E-03     117.720E-03    -58.8675E-03     419.176E-06     121.355E-03     196.839E+06    -54.9490E+06    -66.0795E+06    -257.083E+06    -66.0837E+06    -257.079E+06    -54.9490E+06    -460.399E+03
            1348     73.1000E-03     3.77210E-03     73.0026E-03     117.609E-03    -58.6938E-03    -58.9324E-03    -58.7060E-03     117.607E-03    -58.9184E-03     1.08991E-03     123.883E-03     197.148E+06    -44.1088E+06    -62.6619E+06    -249.857E+06    -62.6655E+06    -249.853E+06    -44.1088E+06     51.4624E+03
            1349     73.1559E-03     4.71579E-03     73.0038E-03     117.467E-03    -58.5748E-03    -58.9087E-03    -58.5676E-03     117.460E-03    -58.9087E-03     2.15985E-03     127.371E-03     189.452E+06    -35.0744E+06    -58.6787E+06    -235.204E+06    -58.6794E+06    -235.203E+06    -35.0744E+06     338.472E+03
            1350     73.2257E-03     5.65913E-03     73.0067E-03     117.501E-03    -58.6260E-03    -58.8967E-03    -58.6074E-03     117.482E-03    -58.8967E-03     3.54408E-03     131.966E-03     173.990E+06    -25.3840E+06    -54.1491E+06    -211.916E+06    -54.1527E+06    -211.912E+06    -25.3840E+06     334.152E+03
            1351     73.3092E-03     6.60184E-03     73.0113E-03     117.445E-03    -58.5738E-03    -58.8996E-03    -58.5293E-03     117.400E-03    -58.8996E-03     5.46679E-03     137.766E-03     162.141E+06    -17.1879E+06    -49.5716E+06    -193.068E+06    -49.5864E+06    -193.053E+06    -17.1879E+06     1.06388E+06
            1352     73.4076E-03     7.54532E-03     73.0188E-03     117.286E-03    -58.4642E-03    -58.8669E-03    -58.3795E-03     117.202E-03    -58.8669E-03     7.64900E-03     144.662E-03     140.928E+06    -11.0537E+06    -43.4701E+06    -165.327E+06    -43.5674E+06    -165.230E+06    -11.0537E+06     1.84625E+06
            1353     73.5197E-03     8.48902E-03     73.0280E-03     117.203E-03    -58.4389E-03    -58.8116E-03    -58.2802E-03     117.044E-03    -58.8116E-03     10.4030E-03     153.070E-03     107.767E+06    -5.62973E+06    -37.9444E+06    -125.714E+06    -38.2066E+06    -125.452E+06    -5.62973E+06     2.34875E+06
            1354     73.6479E-03     9.43164E-03     73.0415E-03     117.357E-03    -58.5526E-03    -58.8036E-03    -58.2454E-03     117.001E-03    -58.7550E-03     15.4621E-03     164.676E-03     78.7043E+06    -4.48717E+06    -36.2907E+06    -94.0017E+06    -36.5335E+06    -93.7588E+06    -4.48717E+06     2.50764E+06
            1355     73.7939E-03     10.3755E-03     73.0608E-03     117.435E-03    -58.5902E-03    -58.8165E-03    -58.1449E-03     116.887E-03    -58.7139E-03     19.5853E-03     178.316E-03     48.8304E+06    -5.09825E+06    -34.3505E+06    -59.8071E+06    -35.0004E+06    -59.1572E+06    -5.09825E+06     1.53087E+06
            1356     73.9549E-03     11.3177E-03     73.0837E-03     117.021E-03    -58.2933E-03    -58.7313E-03    -57.5036E-03     116.091E-03    -58.5905E-03     25.0310E-03     194.087E-03     46.9789E+06     16.8660E+06    -25.0011E+06    -33.8411E+06    -32.3797E+06     1.83696E+06    -11.4334E+06     1.20878E+06
            1357     74.1375E-03     12.2634E-03     73.1162E-03     117.612E-03    -58.2597E-03    -59.3686E-03    -56.8534E-03     115.299E-03    -58.4618E-03     39.0895E-03     218.111E-03     96.3304E+06     74.5947E+06    -8.61245E+06    -30.9163E+06    -30.8654E+06     74.5438E+06    -8.61245E+06     1.48786E+06
            1358     74.3498E-03     13.2081E-03     73.1672E-03     120.324E-03    -58.4939E-03    -61.8540E-03    -57.0186E-03     115.489E-03    -58.4939E-03     57.9161E-03     257.009E-03     128.658E+06     116.026E+06     21.0471E+06    -28.8554E+06    -28.8160E+06     115.986E+06     21.0471E+06     828.187E+03
            1359     74.5962E-03     14.1509E-03     73.2417E-03     132.811E-03    -58.7096E-03    -74.2178E-03    -58.2802E-03     116.873E-03    -58.7096E-03     105.640E-03     314.497E-03     134.171E+06     129.369E+06     64.7569E+06    -23.6486E+06    -23.6250E+06     129.345E+06     64.7569E+06     758.034E+03
            1360     74.9414E-03     15.0950E-03     73.4054E-03     156.395E-03    -58.8962E-03    -97.6131E-03    -59.8013E-03     118.583E-03    -58.8962E-03     179.212E-03     425.129E-03     147.186E+06     145.544E+06     107.907E+06    -16.3018E+06    -16.2883E+06     145.530E+06     107.907E+06     483.230E+03
            1361     75.3734E-03     16.0388E-03     73.6472E-03     151.477E-03    -58.9184E-03    -92.5974E-03    -58.5055E-03     117.385E-03    -58.9184E-03     165.951E-03     448.622E-03     156.884E+06     160.000E+06     134.429E+06    -8.09621E+06    -8.08858E+06     159.992E+06     134.429E+06     377.597E+03
            1362     74.1310E-03     943.078E-06     74.1250E-03     117.678E-03    -58.7124E-03    -58.9701E-03    -58.9314E-03     117.678E-03    -58.7508E-03    -342.312E-06     118.765E-03     197.933E+06    -70.7320E+06    -74.0825E+06    -270.318E+06    -73.4717E+06    -270.316E+06    -71.3449E+06     390.223E+03
            1363     74.1491E-03     1.88645E-03     74.1251E-03     117.799E-03    -58.7939E-03    -59.0147E-03    -58.9213E-03     117.799E-03    -58.8873E-03    -63.4806E-06     119.832E-03     196.983E+06    -65.1205E+06    -71.0441E+06    -264.988E+06    -71.0456E+06    -264.987E+06    -65.1205E+06    -82.6305E+03
            1364     74.1796E-03     2.82882E-03     74.1256E-03     117.751E-03    -58.7634E-03    -59.0048E-03    -58.8306E-03     117.751E-03    -58.9372E-03     402.195E-06     121.451E-03     195.951E+06    -55.6305E+06    -68.0221E+06    -257.450E+06    -68.0240E+06    -257.448E+06    -55.6305E+06     81.7195E+03
            1365     74.2218E-03     3.77247E-03     74.1259E-03     117.670E-03    -58.7166E-03    -58.9724E-03    -58.7149E-03     117.668E-03    -58.9724E-03     1.03812E-03     123.970E-03     198.064E+06    -44.1799E+06    -63.7745E+06    -251.296E+06    -63.7791E+06    -251.291E+06    -44.1799E+06     686.319E+03
            1366     74.2772E-03     4.71549E-03     74.1273E-03     117.615E-03    -58.6715E-03    -58.9642E-03    -58.6640E-03     117.608E-03    -58.9642E-03     2.13189E-03     127.516E-03     189.411E+06    -34.1746E+06    -59.1840E+06    -234.818E+06    -59.1893E+06    -234.813E+06    -34.1746E+06      782.51E+03
            1367     74.3465E-03     5.65843E-03     74.1309E-03     117.520E-03    -58.5948E-03    -58.9479E-03    -58.5754E-03     117.500E-03    -58.9479E-03     3.62733E-03     131.983E-03     174.064E+06    -25.6705E+06    -54.9883E+06    -212.506E+06    -54.9970E+06    -212.497E+06    -25.6705E+06     997.610E+03
            1368     74.4288E-03     6.60188E-03     74.1355E-03     117.461E-03    -58.5487E-03    -58.9390E-03    -58.5015E-03     117.414E-03    -58.9390E-03     5.61245E-03     137.747E-03     162.119E+06    -18.2084E+06    -50.6155E+06    -194.056E+06    -50.6269E+06    -194.044E+06    -18.2084E+06     1.25772E+06
            1369     74.5253E-03     7.54509E-03     74.1424E-03     117.308E-03    -58.4627E-03    -58.8879E-03    -58.3724E-03     117.218E-03    -58.8879E-03     7.89981E-03     144.586E-03     137.925E+06    -14.1405E+06    -46.9472E+06    -165.469E+06    -46.9723E+06    -165.444E+06    -14.1405E+06     587.267E+03
            1370     74.6365E-03     8.48795E-03     74.1523E-03     117.102E-03    -58.3229E-03    -58.8183E-03    -58.1602E-03     116.939E-03    -58.8183E-03     10.5434E-03     152.902E-03     105.091E+06    -10.2142E+06    -42.4010E+06    -127.522E+06    -42.6124E+06    -127.311E+06    -10.2142E+06     1.17440E+06
            1371     74.7621E-03     9.43246E-03     74.1647E-03     117.241E-03    -58.4205E-03    -58.8067E-03    -58.0948E-03     116.867E-03    -58.7581E-03     15.8025E-03     164.449E-03     78.4027E+06    -5.40155E+06    -36.1718E+06    -94.4468E+06    -36.4075E+06    -94.2110E+06    -5.40155E+06     2.09111E+06
            1372     74.9082E-03     10.3752E-03     74.1862E-03     117.285E-03    -58.4451E-03    -58.8039E-03    -57.9592E-03     116.696E-03    -58.7012E-03     20.2896E-03     178.028E-03     47.9594E+06    -4.96127E+06    -32.0838E+06    -59.1885E+06    -32.6735E+06    -58.5988E+06    -4.96127E+06     2.27274E+06
            1373     75.0658E-03     11.3193E-03     74.2075E-03     116.999E-03    -58.1876E-03    -58.8136E-03    -57.4774E-03     116.047E-03    -58.5715E-03     25.4156E-03     194.122E-03     47.7256E+06     17.2988E+06    -23.9392E+06    -34.9461E+06    -31.8301E+06     1.62805E+06    -11.3845E+06     2.11722E+06
            1374     75.2438E-03     12.2635E-03     74.2377E-03     117.879E-03    -58.2609E-03    -59.6364E-03    -57.1537E-03     115.598E-03    -58.4630E-03     38.9171E-03     218.271E-03     96.5740E+06     75.2400E+06    -7.93782E+06    -30.6469E+06    -30.5956E+06     75.1887E+06    -7.93782E+06     1.39410E+06
            1375     75.4575E-03     13.2075E-03     74.2926E-03     120.858E-03    -58.5302E-03    -62.3602E-03    -57.4026E-03     115.900E-03    -58.5302E-03     58.6407E-03     257.630E-03     128.699E+06     116.559E+06     22.8940E+06    -28.4594E+06    -28.3923E+06     116.491E+06     22.8940E+06     1.30215E+06
            1376     75.7025E-03     14.1500E-03     74.3683E-03     132.834E-03    -58.7564E-03    -74.2336E-03    -58.1501E-03     116.751E-03    -58.7564E-03     106.292E-03     315.203E-03     135.632E+06     129.625E+06     66.2287E+06    -24.9764E+06    -24.9258E+06     129.575E+06     66.2287E+06     1.16019E+06
            1377     76.0403E-03     15.0950E-03     74.5270E-03     156.988E-03    -58.9052E-03    -98.2385E-03    -59.4458E-03     118.195E-03    -58.9052E-03     181.473E-03     425.050E-03     148.406E+06     145.097E+06     107.648E+06    -17.9905E+06    -17.9770E+06     145.083E+06     107.648E+06     224.016E+03
            1378     76.4757E-03     16.0406E-03     74.7746E-03     152.109E-03    -58.9000E-03    -93.2425E-03    -58.6430E-03     117.509E-03    -58.9000E-03     166.820E-03     448.401E-03     157.414E+06     160.168E+06     134.421E+06    -8.52909E+06    -8.51870E+06     160.158E+06     134.421E+06    -271.054E+03
            1379     75.2546E-03     943.227E-06     75.2487E-03     118.011E-03    -58.7514E-03    -59.2640E-03    -59.2342E-03     118.011E-03    -58.7812E-03    -164.736E-06     119.158E-03     199.287E+06    -69.6593E+06    -72.1899E+06    -270.195E+06    -71.5335E+06    -270.193E+06    -70.3177E+06     317.521E+03
            1380     75.2731E-03     1.88540E-03     75.2494E-03     117.898E-03    -58.8340E-03    -59.0746E-03    -58.8938E-03     117.898E-03    -59.0148E-03    -13.7873E-06     119.982E-03     198.193E+06    -63.9265E+06    -70.1556E+06    -265.149E+06    -70.1568E+06    -265.148E+06    -63.9265E+06     279.085E+03
            1381     75.3021E-03     2.82926E-03     75.2489E-03     117.730E-03    -58.7421E-03    -59.0058E-03    -58.7416E-03     117.729E-03    -59.0058E-03     436.535E-06     121.435E-03     198.232E+06    -53.5552E+06    -66.9167E+06    -258.090E+06    -66.9240E+06    -258.083E+06    -53.5552E+06     834.773E+03
            1382     75.3446E-03     3.77204E-03     75.2501E-03     117.830E-03    -58.8243E-03    -59.0254E-03    -58.8224E-03     117.828E-03    -59.0254E-03     1.09878E-03     124.133E-03     201.046E+06    -41.8387E+06    -62.4249E+06    -252.373E+06    -62.4353E+06    -252.363E+06    -41.8387E+06     1.04533E+06
            1383     75.3989E-03     4.71491E-03     75.2513E-03     117.711E-03    -58.7092E-03    -59.0192E-03    -58.7009E-03     117.702E-03    -59.0192E-03     2.25067E-03     127.595E-03     191.725E+06    -32.5363E+06    -57.6806E+06    -235.567E+06    -57.7059E+06    -235.541E+06    -32.5363E+06     1.65272E+06
            1384     75.4671E-03     5.65843E-03     75.2546E-03     117.477E-03    -58.5129E-03    -58.9861E-03    -58.4919E-03     117.456E-03    -58.9861E-03     3.78643E-03     131.915E-03     175.633E+06    -24.9339E+06    -53.6985E+06    -213.156E+06    -53.7262E+06    -213.129E+06    -24.9339E+06     1.81993E+06
            1385     75.5480E-03     6.60176E-03     75.2590E-03     117.394E-03    -58.4630E-03    -58.9571E-03    -58.4136E-03     117.345E-03    -58.9571E-03     5.74961E-03     137.665E-03     163.487E+06    -17.5111E+06    -49.6887E+06    -194.664E+06    -49.7190E+06    -194.634E+06    -17.5111E+06     1.77348E+06
            1386     75.6441E-03     7.54486E-03     75.2669E-03     117.222E-03    -58.3718E-03    -58.8871E-03    -58.2765E-03     117.127E-03    -58.8871E-03     8.10623E-03     144.441E-03     137.627E+06    -13.3759E+06    -45.4589E+06    -164.185E+06    -45.5013E+06    -164.143E+06    -13.3759E+06     1.24941E+06
            1387     75.7526E-03     8.48896E-03     75.2754E-03     117.127E-03    -58.3636E-03    -58.8011E-03    -58.1878E-03     116.951E-03    -58.8011E-03     10.9550E-03     152.885E-03     103.577E+06    -11.9411E+06    -41.2651E+06    -126.970E+06    -41.3086E+06    -126.926E+06    -11.9411E+06    -705.993E+03
            1388     75.8777E-03     9.43140E-03     75.2893E-03     117.096E-03    -58.3478E-03    -58.7492E-03    -57.9668E-03     116.715E-03    -58.7492E-03     15.9983E-03     164.320E-03     79.7668E+06    -6.85910E+06    -38.0432E+06    -97.2738E+06    -38.1827E+06    -97.1344E+06    -6.85910E+06     761.024E+03
            1389     76.0208E-03     10.3761E-03     75.3093E-03     116.898E-03    -58.2047E-03    -58.6873E-03    -57.6340E-03     116.327E-03    -58.6873E-03     19.9445E-03     177.696E-03     50.9892E+06    -4.12140E+06    -33.8268E+06    -62.1299E+06    -36.0586E+06    -59.8981E+06    -4.12140E+06     3.45140E+06
            1390     76.1766E-03     11.3202E-03     75.3308E-03     117.104E-03    -58.2991E-03    -58.8284E-03    -57.6661E-03     116.188E-03    -58.5451E-03     24.9465E-03     194.249E-03     49.7159E+06     18.2889E+06    -23.8681E+06    -36.5152E+06    -34.1772E+06     3.21327E+06    -11.1304E+06     2.56398E+06
            1391     76.3543E-03     12.2627E-03     75.3632E-03     118.343E-03    -58.4639E-03    -59.9040E-03    -57.5749E-03     116.014E-03    -58.4639E-03     39.2605E-03     218.876E-03     98.2133E+06     75.8360E+06    -7.34256E+06    -32.4804E+06    -32.4318E+06     75.7874E+06    -7.34256E+06     1.27576E+06
            1392     76.5633E-03     13.2063E-03     75.4157E-03     120.844E-03    -58.5368E-03    -62.3362E-03    -57.1327E-03     115.641E-03    -58.5368E-03     59.9869E-03     257.581E-03     129.155E+06     116.267E+06     22.5603E+06    -29.6730E+06    -29.6079E+06     116.202E+06     22.5603E+06     1.31383E+06
            1393     76.8087E-03     14.1521E-03     75.4937E-03     131.767E-03    -58.7269E-03    -73.2178E-03    -57.3088E-03     115.858E-03    -58.7269E-03     105.639E-03     314.530E-03     135.434E+06     130.072E+06     65.6376E+06    -24.3587E+06    -24.2987E+06     130.012E+06     65.6376E+06     1.45340E+06
            1394     77.1407E-03     15.0970E-03     75.6489E-03     156.612E-03    -58.8414E-03    -98.0075E-03    -58.9836E-03     117.588E-03    -58.8414E-03     181.471E-03     424.501E-03     148.103E+06     145.794E+06     108.502E+06    -16.8749E+06    -16.8524E+06     145.772E+06     108.502E+06     551.067E+03
            1395     77.5758E-03     16.0429E-03     75.8988E-03     152.906E-03    -58.8400E-03    -94.1605E-03    -59.5256E-03     118.272E-03    -58.8400E-03     166.803E-03     447.899E-03     156.975E+06     160.030E+06     134.758E+06    -8.04554E+06    -8.03886E+06     160.024E+06     134.758E+06    -584.335E+03
            1396     76.3798E-03     942.415E-06     76.3740E-03     118.032E-03    -58.7876E-03    -59.2480E-03    -59.1303E-03     118.032E-03    -58.9053E-03    -57.1070E-06     119.229E-03     199.425E+06    -71.2116E+06    -73.7905E+06    -271.908E+06    -73.7479E+06    -271.905E+06    -71.2571E+06     511.938E+03
            1397     76.3959E-03     1.88615E-03     76.3727E-03     117.876E-03    -58.8075E-03    -59.0779E-03    -58.8641E-03     117.876E-03    -59.0213E-03     184.946E-06     119.956E-03     198.485E+06    -63.9909E+06    -70.9723E+06    -265.859E+06    -70.9837E+06    -265.847E+06    -63.9909E+06     1.20581E+06
            1398     76.4254E-03     2.82875E-03     76.3731E-03     117.855E-03    -58.7994E-03    -59.0740E-03    -58.8554E-03     117.855E-03    -59.0173E-03     571.565E-06     121.598E-03     197.675E+06    -54.5546E+06    -67.7764E+06    -258.482E+06    -67.7933E+06    -258.465E+06    -54.5546E+06     1.62055E+06
            1399     76.4670E-03     3.77197E-03     76.3739E-03     117.765E-03    -58.7450E-03    -59.0403E-03    -58.7421E-03     117.762E-03    -59.0403E-03     1.34495E-03     124.093E-03     200.092E+06    -43.2630E+06    -63.4733E+06    -252.666E+06    -63.4870E+06    -252.652E+06    -43.2630E+06     1.42863E+06
            1400     76.5208E-03     4.71529E-03     76.3754E-03     117.675E-03    -58.6674E-03    -59.0229E-03    -58.6581E-03     117.665E-03    -59.0229E-03     2.48895E-03     127.535E-03     193.061E+06    -32.8934E+06    -57.9991E+06    -237.263E+06    -58.0248E+06    -237.238E+06    -32.8934E+06     1.51162E+06
            1401     76.5875E-03     5.65836E-03     76.3782E-03     117.544E-03    -58.5716E-03    -58.9940E-03    -58.5486E-03     117.521E-03    -58.9940E-03     3.93682E-03     131.995E-03     177.658E+06    -23.4951E+06    -52.3933E+06    -213.804E+06    -52.4357E+06    -213.762E+06    -23.4951E+06     2.07314E+06
            1402     76.6680E-03     6.60149E-03     76.3833E-03     117.341E-03    -58.4043E-03    -58.9640E-03    -58.3547E-03     117.291E-03    -58.9640E-03     5.80675E-03     137.635E-03     165.747E+06    -15.0826E+06    -47.3759E+06    -194.589E+06    -47.4219E+06    -194.543E+06    -15.0826E+06     1.83955E+06
            1403     76.7615E-03     7.54547E-03     76.3897E-03     117.136E-03    -58.2924E-03    -58.8841E-03    -58.1981E-03     117.042E-03    -58.8841E-03     8.03700E-03     144.374E-03     139.029E+06    -10.6071E+06    -42.4811E+06    -162.768E+06    -42.5238E+06    -162.725E+06    -10.6071E+06     846.281E+03
            1404     76.8700E-03     8.48844E-03     76.3998E-03     117.073E-03    -58.3073E-03    -58.8072E-03    -58.1323E-03     116.898E-03    -58.8072E-03     10.9370E-03     152.922E-03     106.972E+06    -8.21336E+06    -40.6978E+06    -127.508E+06    -40.8690E+06    -127.337E+06    -8.21336E+06     1.57150E+06
            1405     76.9929E-03     9.43269E-03     76.4128E-03     117.106E-03    -58.3577E-03    -58.7565E-03    -57.9930E-03     116.741E-03    -58.7565E-03     15.6823E-03     164.404E-03     84.0231E+06    -4.97341E+06    -40.8825E+06    -100.713E+06    -41.1491E+06    -100.446E+06    -4.97341E+06     3.00757E+06
            1406     77.1335E-03     10.3759E-03     76.4324E-03     117.049E-03    -58.3528E-03    -58.6953E-03    -57.7907E-03     116.487E-03    -58.6953E-03     19.7900E-03     177.892E-03     52.3802E+06    -2.73444E+06    -35.8634E+06    -61.7768E+06    -37.7613E+06    -59.8789E+06    -2.73444E+06     2.51673E+06
            1407     77.2890E-03     11.3189E-03     76.4556E-03     117.018E-03    -58.3842E-03    -58.6526E-03    -57.5479E-03     116.084E-03    -58.5553E-03     25.1607E-03     194.185E-03     49.7488E+06     19.5390E+06    -23.3812E+06    -34.7896E+06    -33.6797E+06     3.99301E+06    -8.94518E+06     2.14001E+06
            1408     77.4635E-03     12.2640E-03     76.4865E-03     118.066E-03    -58.4468E-03    -59.6427E-03    -57.2983E-03     115.722E-03    -58.4468E-03     39.3664E-03     218.593E-03     97.9108E+06     75.9559E+06    -6.35570E+06    -32.2870E+06    -32.1932E+06     75.8621E+06    -6.35570E+06     1.99343E+06
            1409     77.6719E-03     13.2083E-03     76.5406E-03     120.479E-03    -58.4916E-03    -62.0109E-03    -56.7575E-03     115.225E-03    -58.4916E-03     60.1108E-03     257.049E-03     129.078E+06     116.691E+06     22.3520E+06    -29.2046E+06    -29.1698E+06     116.657E+06     22.3520E+06     934.350E+03
            1410     77.9129E-03     14.1509E-03     76.6170E-03     131.296E-03    -58.6570E-03    -72.7776E-03    -56.9751E-03     115.493E-03    -58.6570E-03     105.243E-03     313.864E-03     134.411E+06     130.304E+06     64.9554E+06    -23.0507E+06    -22.9905E+06     130.244E+06     64.9554E+06    -27.5602E+03
            1411     78.2405E-03     15.0979E-03     76.7700E-03     156.869E-03    -58.7870E-03    -98.2657E-03    -59.5726E-03     118.176E-03    -58.7870E-03     181.096E-03     423.782E-03     147.587E+06     147.181E+06     109.699E+06    -14.9664E+06    -14.9015E+06     147.116E+06     109.699E+06     330.493E+03
            1412     78.6771E-03     16.0429E-03     77.0241E-03     153.107E-03    -58.8254E-03    -94.3584E-03    -60.0222E-03     118.770E-03    -58.8254E-03     166.415E-03     447.749E-03     156.760E+06     160.302E+06     135.448E+06    -7.39978E+06    -7.38127E+06     160.283E+06     135.448E+06     267.612E+03
            1413     77.5021E-03     943.286E-06     77.4964E-03     117.781E-03    -58.7903E-03    -58.9938E-03    -58.9043E-03     117.779E-03    -58.8782E-03    -401.275E-06     118.989E-03     198.001E+06    -74.9572E+06    -77.5694E+06    -274.249E+06    -77.1581E+06    -274.245E+06    -75.3721E+06     669.662E+03
            1414     77.5202E-03     1.88615E-03     77.4972E-03     117.823E-03    -58.8055E-03    -59.0258E-03    -58.9082E-03     117.823E-03    -58.9228E-03     379.496E-06     119.944E-03     195.582E+06    -68.7608E+06    -74.5400E+06    -267.152E+06    -74.5539E+06    -267.138E+06    -68.7608E+06     1.51547E+06
            1415     77.5488E-03     2.82893E-03     77.4972E-03     117.830E-03    -58.8185E-03    -59.0264E-03    -58.8745E-03     117.829E-03    -58.9698E-03     639.602E-06     121.612E-03     195.972E+06    -57.9276E+06    -70.4004E+06    -259.790E+06    -70.4161E+06    -259.774E+06    -57.9276E+06     1.64478E+06
            1416     77.5889E-03     3.77215E-03     77.4972E-03     117.731E-03    -58.7365E-03    -59.0133E-03    -58.7333E-03     117.728E-03    -59.0133E-03     1.39883E-03     124.065E-03     198.419E+06    -44.6393E+06    -65.6140E+06    -252.678E+06    -65.6293E+06    -252.663E+06    -44.6393E+06     1.65908E+06
            1417     77.6427E-03     4.71535E-03     77.4993E-03     117.672E-03    -58.6791E-03    -59.0103E-03    -58.6701E-03     117.663E-03    -59.0103E-03     2.45639E-03     127.560E-03     191.941E+06    -32.5789E+06    -60.4006E+06    -236.865E+06    -60.4108E+06    -236.854E+06    -32.5789E+06     1.08044E+06
            1418     77.7085E-03     5.65844E-03     77.5023E-03     117.525E-03    -58.5540E-03    -58.9914E-03    -58.5320E-03     117.503E-03    -58.9914E-03     3.83048E-03     132.010E-03     178.621E+06    -22.5637E+06    -53.9235E+06    -214.765E+06    -53.9489E+06    -214.740E+06    -22.5637E+06     585.649E+03
            1419     77.7874E-03     6.60197E-03     77.5067E-03     117.385E-03    -58.4386E-03    -58.9729E-03    -58.3899E-03     117.336E-03    -58.9729E-03     5.74390E-03     137.692E-03     167.014E+06    -12.8933E+06    -47.2588E+06    -194.375E+06    -47.2954E+06    -194.339E+06    -12.8933E+06     853.222E+03
            1420     77.8801E-03     7.54491E-03     77.5138E-03     117.255E-03    -58.3817E-03    -58.9105E-03    -58.2883E-03     117.161E-03    -58.9105E-03     8.00398E-03     144.597E-03     142.008E+06    -7.39058E+06    -43.4768E+06    -163.894E+06    -43.5516E+06    -163.819E+06    -7.39058E+06     2.10121E+06
            1421     77.9870E-03     8.48890E-03     77.5236E-03     117.073E-03    -58.2696E-03    -58.8362E-03    -58.1069E-03     116.910E-03    -58.8362E-03     10.5873E-03     153.004E-03     112.755E+06    -4.85454E+06    -40.2859E+06    -130.961E+06    -40.5517E+06    -130.695E+06    -4.85454E+06     4.42190E+06
            1422     78.1080E-03     9.43202E-03     77.5364E-03     117.068E-03    -58.2983E-03    -58.7655E-03    -57.9390E-03     116.709E-03    -58.7655E-03     15.4614E-03     164.362E-03     86.7646E+06    -1.71286E+06    -35.9413E+06    -100.118E+06    -36.2209E+06    -99.8382E+06    -1.71286E+06     4.08906E+06
            1423     78.2480E-03     10.3755E-03     77.5570E-03     117.051E-03    -58.3560E-03    -58.6874E-03    -57.7752E-03     116.470E-03    -58.6874E-03     20.1118E-03     177.950E-03     52.8121E+06    -958.884E+03    -32.7522E+06    -60.1461E+06    -33.8802E+06    -59.0181E+06    -958.884E+03     2.40835E+06
            1424     78.3999E-03     11.3201E-03     77.5783E-03     116.982E-03    -58.3714E-03    -58.6276E-03    -57.5021E-03     116.032E-03    -58.5466E-03     25.4143E-03     194.092E-03     49.9638E+06     20.0923E+06    -23.3796E+06    -34.3041E+06    -32.5039E+06     3.09701E+06    -8.18452E+06     1.98059E+06
            1425     78.5738E-03     12.2633E-03     77.6110E-03     117.769E-03    -58.4216E-03    -59.3595E-03    -57.0121E-03     115.422E-03    -58.4216E-03     39.3301E-03     218.199E-03     97.0995E+06     76.4560E+06    -6.84105E+06    -30.1454E+06    -30.0228E+06     76.3334E+06    -6.84105E+06     2.13386E+06
            1426     78.7788E-03     13.2072E-03     77.6638E-03     119.833E-03    -58.4367E-03    -61.4219E-03    -56.2191E-03     114.631E-03    -58.4367E-03     59.6462E-03     256.605E-03     128.709E+06     118.237E+06     23.1197E+06    -26.6274E+06    -26.5633E+06     118.173E+06     23.1197E+06     1.21920E+06
            1427     79.0176E-03     14.1552E-03     77.7394E-03     131.383E-03    -58.6027E-03    -72.9230E-03    -57.2521E-03     115.712E-03    -58.6027E-03     104.981E-03     313.490E-03     134.511E+06     131.334E+06     67.6591E+06    -21.8513E+06    -21.7990E+06     131.282E+06     67.6591E+06    -452.830E+03
            1428     79.3447E-03     15.0981E-03     77.8950E-03     157.846E-03    -58.7746E-03    -99.2288E-03    -60.5983E-03     119.215E-03    -58.7746E-03     181.725E-03     423.978E-03     148.094E+06     145.964E+06     109.262E+06    -16.5935E+06    -16.5371E+06     145.908E+06     109.262E+06    -110.418E+03
            1429     79.7782E-03     16.0402E-03     78.1490E-03     153.009E-03    -58.8398E-03    -94.2258E-03    -59.9614E-03     118.745E-03    -58.8398E-03     166.278E-03     448.134E-03     157.609E+06     159.843E+06     133.869E+06    -9.13778E+06    -9.11684E+06     159.822E+06     133.869E+06     98.2632E+03
            1430     78.6261E-03     943.078E-06     78.6204E-03     117.676E-03    -58.6157E-03    -59.0641E-03    -59.0624E-03     117.674E-03    -58.6157E-03    -230.819E-06     118.836E-03     198.363E+06    -75.8728E+06    -77.2885E+06    -274.938E+06    -76.8770E+06    -274.935E+06    -76.2877E+06     52.5508E+03
            1431     78.6436E-03     1.88601E-03     78.6210E-03     117.786E-03    -58.7982E-03    -58.9944E-03    -58.9126E-03     117.785E-03    -58.8798E-03     319.066E-06     119.894E-03     196.829E+06    -69.5381E+06    -74.4553E+06    -268.751E+06    -74.4604E+06    -268.746E+06    -69.5381E+06     951.197E+03
            1432     78.6718E-03     2.82941E-03     78.6209E-03     117.754E-03    -58.8266E-03    -58.9429E-03    -58.8276E-03     117.753E-03    -58.9414E-03     489.568E-06     121.509E-03     197.412E+06    -57.9115E+06    -71.3066E+06    -261.623E+06    -71.3240E+06    -261.606E+06    -57.9115E+06     1.70278E+06
            1433     78.7118E-03     3.77227E-03     78.6214E-03     117.842E-03    -58.8619E-03    -58.9986E-03    -58.8609E-03     117.839E-03    -58.9972E-03     1.22586E-03     124.211E-03     198.051E+06    -44.2861E+06    -66.4896E+06    -252.476E+06    -66.5086E+06    -252.457E+06    -44.2861E+06     1.76890E+06
            1434     78.7644E-03     4.71512E-03     78.6231E-03     117.654E-03    -58.6610E-03    -59.0107E-03    -58.6526E-03     117.646E-03    -59.0107E-03     2.34584E-03     127.618E-03     191.311E+06    -32.3285E+06    -61.0958E+06    -236.352E+06    -61.1039E+06    -236.344E+06    -32.3285E+06     1.09933E+06
            1435     78.8294E-03     5.65852E-03     78.6260E-03     117.434E-03    -58.4707E-03    -58.9853E-03    -58.4501E-03     117.413E-03    -58.9853E-03     3.73080E-03     131.903E-03     177.661E+06    -23.1941E+06    -56.5701E+06    -215.141E+06    -56.5925E+06    -215.119E+06    -23.1941E+06     743.171E+03
            1436     78.9070E-03     6.60167E-03     78.6304E-03     117.381E-03    -58.4506E-03    -58.9531E-03    -58.4009E-03     117.331E-03    -58.9531E-03     5.77588E-03     137.664E-03     163.789E+06    -16.3006E+06    -52.8733E+06    -195.253E+06    -52.9060E+06    -195.220E+06    -16.3006E+06     1.19781E+06
            1437     78.9989E-03     7.54537E-03     78.6377E-03     117.271E-03    -58.4133E-03    -58.8907E-03    -58.3169E-03     117.175E-03    -58.8907E-03     8.15034E-03     144.609E-03     139.851E+06    -12.1091E+06    -47.4653E+06    -166.194E+06    -47.5303E+06    -166.129E+06    -12.1091E+06     2.20463E+06
            1438     79.1039E-03     8.48816E-03     78.6472E-03     117.049E-03    -58.2753E-03    -58.8097E-03    -58.1038E-03     116.878E-03    -58.8097E-03     10.8306E-03     152.946E-03     110.304E+06    -9.83478E+06    -40.5535E+06    -132.186E+06    -40.6596E+06    -132.080E+06    -9.83478E+06     2.24894E+06
            1439     79.2234E-03     9.43206E-03     78.6600E-03     116.905E-03    -58.1668E-03    -58.7364E-03    -57.7928E-03     116.531E-03    -58.7364E-03     15.7958E-03     164.166E-03     84.6221E+06    -5.24089E+06    -35.1764E+06    -100.582E+06    -35.4353E+06    -100.323E+06    -5.24089E+06     3.08062E+06
            1440     79.3614E-03     10.3766E-03     78.6802E-03     116.994E-03    -58.3138E-03    -58.6619E-03    -57.7190E-03     116.397E-03    -58.6593E-03     20.3914E-03     177.845E-03     51.4338E+06    -1.76231E+06    -30.8217E+06    -59.5944E+06    -32.1004E+06    -58.3157E+06    -1.76231E+06     3.49833E+06
            1441     79.5131E-03     11.3195E-03     78.7032E-03     116.879E-03    -58.2911E-03    -58.5997E-03    -57.4333E-03     115.940E-03    -58.5183E-03     25.3040E-03     193.970E-03     46.8382E+06     19.1087E+06    -21.5907E+06    -31.9986E+06    -29.9828E+06     3.60993E+06    -8.10772E+06     2.38095E+06
            1442     79.6835E-03     12.2639E-03     78.7341E-03     117.446E-03    -58.2255E-03    -59.2292E-03    -56.7032E-03     115.079E-03    -58.3843E-03     39.3043E-03     217.922E-03     95.8302E+06     76.4935E+06    -6.63671E+06    -28.2993E+06    -28.1520E+06     76.3461E+06    -6.63671E+06     1.90521E+06
            1443     79.8862E-03     13.2101E-03     78.7864E-03     120.013E-03    -58.4032E-03    -61.6245E-03    -56.5182E-03     114.907E-03    -58.4032E-03     59.3496E-03     256.795E-03     129.012E+06     119.482E+06     24.3592E+06    -25.4488E+06    -25.3683E+06     119.402E+06     24.3592E+06     1.20892E+06
            1444     80.1224E-03     14.1525E-03     78.8626E-03     131.885E-03    -58.6207E-03    -73.4401E-03    -57.9746E-03     116.419E-03    -58.6207E-03     104.396E-03     314.176E-03     134.357E+06     131.281E+06     69.5781E+06    -21.5299E+06    -21.4937E+06     131.245E+06     69.5781E+06     1.07917E+06
            1445     80.4494E-03     15.0974E-03     79.0201E-03     157.541E-03    -58.8013E-03    -98.9165E-03    -60.1897E-03     118.814E-03    -58.8013E-03     181.482E-03     424.971E-03     147.529E+06     145.901E+06     110.172E+06    -15.8621E+06    -15.8424E+06     145.882E+06     110.172E+06     824.977E+03
            1446     80.8812E-03     16.0426E-03     79.2742E-03     152.789E-03    -58.8345E-03    -93.9879E-03    -59.5388E-03     118.339E-03    -58.8345E-03     166.292E-03     447.871E-03     156.980E+06     160.317E+06     134.130E+06    -8.10798E+06    -8.09718E+06     160.307E+06     134.130E+06     13.0802E+03
            1447     79.7506E-03     943.388E-06     79.7450E-03     117.794E-03    -58.5638E-03    -59.2351E-03    -59.2166E-03     117.793E-03    -58.5816E-03     216.403E-06     118.949E-03     198.552E+06    -75.1459E+06    -77.8226E+06    -274.997E+06    -77.8108E+06    -274.985E+06    -75.1700E+06     173.803E+03
            1448     79.7666E-03     1.88614E-03     79.7443E-03     117.820E-03    -58.8249E-03    -59.0036E-03    -58.8929E-03     117.820E-03    -58.9354E-03    -110.069E-06     119.908E-03     198.969E+06    -68.0289E+06    -75.2269E+06    -270.470E+06    -75.2326E+06    -270.464E+06    -68.0289E+06     483.134E+03
            1449     79.7947E-03     2.82906E-03     79.7446E-03     117.738E-03    -58.7922E-03    -58.9621E-03    -58.7929E-03     117.737E-03    -58.9606E-03     511.159E-06     121.481E-03     198.965E+06    -58.1961E+06    -71.0354E+06    -263.245E+06    -71.0523E+06    -263.228E+06    -58.1961E+06     1.68311E+06
            1450     79.8348E-03     3.77203E-03     79.7457E-03     117.750E-03    -58.7815E-03    -58.9867E-03    -58.7804E-03     117.748E-03    -58.9852E-03     1.29713E-03     124.084E-03     197.610E+06    -45.8509E+06    -66.2109E+06    -252.810E+06    -66.2339E+06    -252.787E+06    -45.8509E+06     1.92970E+06
            1451     79.8861E-03     4.71529E-03     79.7469E-03     117.589E-03    -58.6138E-03    -58.9905E-03    -58.6053E-03     117.580E-03    -58.9905E-03     2.34180E-03     127.493E-03     190.962E+06    -33.4567E+06    -61.2182E+06    -236.739E+06    -61.2405E+06    -236.717E+06    -33.4567E+06     1.81466E+06
            1452     79.9502E-03     5.65857E-03     79.7497E-03     117.416E-03    -58.4735E-03    -58.9643E-03    -58.4517E-03     117.394E-03    -58.9643E-03     3.83783E-03     131.867E-03     177.295E+06    -24.5536E+06    -56.2609E+06    -215.523E+06    -56.2934E+06    -215.491E+06    -24.5536E+06     2.14169E+06
            1453     80.0270E-03     6.60209E-03     79.7542E-03     117.320E-03    -58.4257E-03    -58.9203E-03    -58.3738E-03     117.269E-03    -58.9203E-03     5.90014E-03     137.621E-03     163.236E+06    -18.3144E+06    -51.2079E+06    -195.435E+06    -51.2337E+06    -195.409E+06    -18.3144E+06     1.80972E+06
            1454     80.1177E-03     7.54503E-03     79.7616E-03     117.090E-03    -58.2853E-03    -58.8435E-03    -58.1846E-03     116.990E-03    -58.8435E-03     8.32369E-03     144.418E-03     138.217E+06    -15.0929E+06    -46.6423E+06    -166.292E+06    -46.6534E+06    -166.281E+06    -15.0929E+06     465.201E+03
            1455     80.2213E-03     8.48924E-03     79.7709E-03     116.911E-03    -58.1874E-03    -58.7643E-03    -58.0108E-03     116.734E-03    -58.7643E-03     11.0028E-03     152.743E-03     108.767E+06    -12.0916E+06    -43.0451E+06    -132.877E+06    -43.1026E+06    -132.820E+06    -12.0916E+06     732.213E+03
            1456     80.3393E-03     9.43281E-03     79.7836E-03     117.054E-03    -58.2959E-03    -58.7588E-03    -57.9897E-03     116.686E-03    -58.6971E-03     15.7264E-03     164.356E-03     82.7648E+06    -8.52725E+06    -38.4786E+06    -101.974E+06    -38.8394E+06    -101.613E+06    -8.52725E+06     965.784E+03
            1457     80.4753E-03     10.3760E-03     79.8036E-03     116.969E-03    -58.2435E-03    -58.7000E-03    -57.7145E-03     116.376E-03    -58.6358E-03     20.3068E-03     177.930E-03     49.2654E+06    -4.66419E+06    -32.1112E+06    -59.9691E+06    -33.3439E+06    -58.7364E+06    -4.66419E+06     1.53271E+06
            1458     80.6263E-03     11.3203E-03     79.8277E-03     116.493E-03    -57.9935E-03    -58.5010E-03    -57.0929E-03     115.590E-03    -58.4984E-03     24.8307E-03     193.762E-03     47.9578E+06     19.7710E+06    -21.3642E+06    -32.8041E+06    -30.2405E+06     3.66845E+06    -7.82520E+06     3.10711E+06
            1459     80.7919E-03     12.2651E-03     79.8555E-03     117.786E-03    -58.1325E-03    -59.6716E-03    -57.1309E-03     115.488E-03    -58.3752E-03     38.7352E-03     218.411E-03     97.1716E+06     77.7982E+06    -4.67622E+06    -29.2751E+06    -29.1457E+06     77.6689E+06    -4.67622E+06     2.16039E+06
            1460     80.9954E-03     13.2084E-03     79.9111E-03     120.492E-03    -58.4365E-03    -62.0799E-03    -57.1651E-03     115.578E-03    -58.4365E-03     58.4554E-03     257.500E-03     130.080E+06     119.363E+06     24.7900E+06    -27.4210E+06    -27.3680E+06     119.310E+06     24.7900E+06     996.205E+03
            1461     81.2299E-03     14.1530E-03     79.9875E-03     132.104E-03    -58.6519E-03    -73.6098E-03    -57.8702E-03     116.365E-03    -58.6519E-03     104.826E-03     314.676E-03     134.612E+06     130.708E+06     67.7933E+06    -22.5903E+06    -22.5342E+06     130.652E+06     67.7933E+06     1.77399E+06
            1462     81.5540E-03     15.0960E-03     80.1447E-03     157.093E-03    -58.8111E-03    -98.4565E-03    -59.6383E-03     118.275E-03    -58.8111E-03     181.511E-03     425.848E-03     147.043E+06     146.629E+06     110.060E+06    -14.8455E+06    -14.8067E+06     146.590E+06     110.060E+06     1.82205E+06
            1463     81.9796E-03     16.0425E-03     80.3947E-03     152.503E-03    -58.8334E-03    -93.7207E-03    -59.3149E-03     118.098E-03    -58.8334E-03     166.251E-03     448.235E-03     157.008E+06     161.048E+06     134.957E+06    -7.36909E+06    -7.36033E+06     161.039E+06     134.957E+06     841.364E+03
            1464     80.8742E-03     942.553E-06     80.8687E-03     117.952E-03    -58.7222E-03    -59.2326E-03    -59.0352E-03     117.951E-03    -58.9185E-03     102.276E-06     119.132E-03     197.127E+06    -76.2268E+06    -79.7081E+06    -275.050E+06    -79.3631E+06    -275.032E+06    -76.5893E+06     792.171E+03
            1465     80.8905E-03     1.88576E-03     80.8685E-03     117.857E-03    -58.8589E-03    -59.0075E-03    -58.8667E-03     117.856E-03    -58.9992E-03     40.6063E-06     119.917E-03     199.614E+06    -68.5656E+06    -76.0746E+06    -271.818E+06    -76.0854E+06    -271.807E+06    -68.5656E+06     620.654E+03
            1466     80.9178E-03     2.82896E-03     80.8683E-03     117.707E-03    -58.7312E-03    -58.9908E-03    -58.7387E-03     117.706E-03    -58.9825E-03     512.643E-06     121.393E-03     199.038E+06    -59.8554E+06    -71.5849E+06    -264.481E+06    -71.5904E+06    -264.476E+06    -59.8554E+06     725.518E+03
            1467     80.9571E-03     3.77241E-03     80.8691E-03     117.529E-03    -58.5791E-03    -58.9653E-03    -58.5760E-03     117.526E-03    -58.9653E-03     1.39365E-03     123.779E-03     197.652E+06    -48.1327E+06    -66.3607E+06    -254.242E+06    -66.3740E+06    -254.229E+06    -48.1327E+06     1.30877E+06
            1468     81.0081E-03     4.71547E-03     80.8708E-03     117.546E-03    -58.6122E-03    -58.9464E-03    -58.6038E-03     117.537E-03    -58.9464E-03     2.37230E-03     127.390E-03     190.294E+06    -35.8190E+06    -60.6423E+06    -237.251E+06    -60.6632E+06    -237.230E+06    -35.8190E+06     1.68686E+06
            1469     81.0711E-03     5.65876E-03     80.8734E-03     117.458E-03    -58.5430E-03    -58.9343E-03    -58.5213E-03     117.436E-03    -58.9343E-03     3.80428E-03     131.901E-03     177.323E+06    -25.4247E+06    -54.1849E+06    -215.337E+06    -54.2018E+06    -215.320E+06    -25.4247E+06     1.06725E+06
            1470     81.1470E-03     6.60191E-03     80.8780E-03     117.269E-03    -58.3868E-03    -58.9091E-03    -58.3372E-03     117.219E-03    -58.9091E-03     5.79238E-03     137.572E-03     165.166E+06    -16.3606E+06    -47.6151E+06    -194.883E+06    -47.6252E+06    -194.873E+06    -16.3606E+06     400.916E+03
            1471     81.2361E-03     7.54593E-03     80.8849E-03     117.065E-03    -58.2618E-03    -58.8452E-03    -58.1694E-03     116.973E-03    -58.8452E-03     7.96700E-03     144.410E-03      142.55E+06    -10.3967E+06    -42.9241E+06    -166.337E+06    -42.9732E+06    -166.288E+06    -10.3967E+06     897.194E+03
            1472     81.3386E-03     8.48914E-03     80.8944E-03     117.006E-03    -58.2855E-03    -58.7659E-03    -58.1238E-03     116.845E-03    -58.7659E-03     10.5294E-03     152.843E-03     112.992E+06    -7.88367E+06    -39.1972E+06    -133.135E+06    -39.3433E+06    -132.989E+06    -7.88367E+06     771.776E+03
            1473     81.4553E-03     9.43262E-03     80.9073E-03     117.197E-03    -58.4407E-03    -58.7611E-03    -58.1395E-03     116.834E-03    -58.6994E-03     15.5610E-03     164.561E-03     84.0452E+06    -6.21762E+06    -35.8468E+06    -100.831E+06    -36.1974E+06    -100.480E+06    -6.21762E+06    -180.001E+03
            1474     81.5903E-03     10.3759E-03     80.9279E-03     116.884E-03    -58.1660E-03    -58.7068E-03    -57.6711E-03     116.327E-03    -58.6451E-03     19.6882E-03     177.898E-03     51.5931E+06    -4.50681E+06    -33.3026E+06    -62.8427E+06    -34.4341E+06    -61.7112E+06    -4.50681E+06     865.512E+03
            1475     81.7369E-03     11.3206E-03     80.9491E-03     116.707E-03    -58.0208E-03    -58.6939E-03    -57.3463E-03     115.850E-03    -58.5120E-03     24.1142E-03     193.981E-03     51.0148E+06     20.3064E+06    -22.6567E+06    -36.0588E+06    -31.8655E+06      1.7314E+06    -8.27500E+06     2.42114E+06
            1476     81.9042E-03     12.2643E-03     80.9807E-03     118.214E-03    -58.3331E-03    -59.8948E-03    -57.5075E-03     115.911E-03    -58.4170E-03     38.8151E-03     218.919E-03     98.3920E+06     79.1461E+06    -4.07635E+06    -29.4102E+06    -29.3200E+06     79.0559E+06    -4.07635E+06     2.82543E+06
            1477     82.1059E-03     13.2068E-03     81.0368E-03     120.464E-03    -58.4876E-03    -62.0089E-03    -57.0135E-03     115.469E-03    -58.4876E-03     58.8548E-03     257.061E-03     130.747E+06     120.235E+06     25.9020E+06    -27.4534E+06    -27.3847E+06     120.166E+06     25.9020E+06     2.21167E+06
            1478     82.3338E-03     14.1516E-03     81.1085E-03     131.934E-03    -58.6629E-03    -73.4370E-03    -57.6073E-03     116.104E-03    -58.6629E-03     105.134E-03     313.993E-03     135.502E+06     131.029E+06     67.6203E+06    -23.3981E+06    -23.3218E+06     130.952E+06     67.6203E+06     1.29161E+06
            1479     82.6610E-03     15.0986E-03     81.2704E-03     156.760E-03    -58.8103E-03    -98.1386E-03    -59.6846E-03     118.306E-03    -58.8103E-03     180.646E-03     425.350E-03     147.190E+06     145.675E+06     107.897E+06    -16.3374E+06    -16.2811E+06     145.619E+06     107.897E+06     1.40366E+06
            1480     83.0803E-03     16.0413E-03     81.5170E-03     152.458E-03    -58.8454E-03    -93.6711E-03    -59.3308E-03     118.118E-03    -58.8454E-03     166.504E-03     448.593E-03     157.606E+06     161.473E+06     133.924E+06    -8.08597E+06    -8.06574E+06     161.453E+06     133.924E+06     1.41330E+06
            1481     81.9971E-03     943.045E-06     81.9917E-03     117.951E-03    -58.7916E-03    -59.1608E-03    -58.9819E-03     117.950E-03    -58.9701E-03     21.8190E-06     119.066E-03     197.333E+06    -77.7510E+06    -79.5141E+06    -275.958E+06    -79.1842E+06    -275.949E+06    -78.0895E+06     167.540E+03
            1482     82.0144E-03     1.88628E-03     81.9927E-03     117.797E-03    -58.8053E-03    -59.0005E-03    -58.8219E-03     117.797E-03    -58.9836E-03     249.220E-06     119.782E-03     199.781E+06    -69.9843E+06    -76.0558E+06    -272.697E+06    -76.0658E+06    -272.687E+06    -69.9843E+06     712.730E+03
            1483     82.0409E-03     2.82880E-03     81.9921E-03     117.662E-03    -58.7029E-03    -58.9751E-03    -58.7107E-03     117.662E-03    -58.9668E-03     469.926E-06     121.285E-03     199.025E+06    -59.1594E+06    -72.3147E+06    -264.417E+06    -72.3186E+06    -264.413E+06    -59.1594E+06     57.4682E+03
            1484     82.0791E-03     3.77220E-03     81.9923E-03     117.535E-03    -58.6041E-03    -58.9458E-03    -58.6009E-03     117.531E-03    -58.9458E-03     1.37650E-03     123.762E-03     196.840E+06    -49.2294E+06    -67.1445E+06    -254.405E+06    -67.1535E+06    -254.396E+06    -49.2294E+06    -525.505E+03
            1485     82.1301E-03     4.71579E-03     81.9946E-03     117.521E-03    -58.6106E-03    -58.9219E-03    -58.6026E-03     117.513E-03    -58.9219E-03     2.34069E-03     127.344E-03     188.891E+06    -38.5484E+06    -60.2911E+06    -237.352E+06    -60.3096E+06    -237.333E+06    -38.5484E+06    -793.450E+03
            1486     82.1920E-03     5.65871E-03     81.9970E-03     117.456E-03    -58.5564E-03    -58.9175E-03    -58.5369E-03     117.437E-03    -58.9175E-03     3.59368E-03     131.897E-03     176.631E+06    -26.7871E+06    -54.0189E+06    -215.412E+06    -54.0313E+06    -215.399E+06    -26.7871E+06    -591.961E+03
            1487     82.2669E-03     6.60230E-03     82.0016E-03     117.281E-03    -58.4065E-03    -58.9010E-03    -58.3609E-03     117.235E-03    -58.9010E-03     5.55196E-03     137.586E-03     163.784E+06    -17.4405E+06    -49.6886E+06    -194.922E+06    -49.6908E+06    -194.920E+06    -17.4405E+06    -232.227E+03
            1488     82.3547E-03     7.54528E-03     82.0083E-03     117.195E-03    -58.3943E-03    -58.8454E-03    -58.3038E-03     117.105E-03    -58.8454E-03     7.86571E-03     144.470E-03     141.439E+06    -12.5067E+06    -44.3441E+06    -167.139E+06    -44.4239E+06    -167.059E+06    -12.5067E+06    -56.4208E+03
            1489     82.4565E-03     8.48886E-03     82.0184E-03     117.129E-03    -58.3943E-03    -58.7825E-03    -58.2327E-03     116.967E-03    -58.7825E-03     10.5442E-03     152.979E-03     111.951E+06    -8.82246E+06    -39.0385E+06    -132.633E+06    -39.2344E+06    -132.437E+06    -8.82246E+06     209.385E+03
            1490     82.5716E-03     9.43225E-03     82.0311E-03     117.063E-03    -58.3470E-03    -58.7229E-03    -57.9827E-03     116.699E-03    -58.7229E-03     15.5610E-03     164.350E-03     84.5810E+06    -5.30318E+06    -35.9287E+06    -100.692E+06    -36.1729E+06    -100.448E+06    -5.30318E+06     688.913E+03
            1491     82.7049E-03     10.3763E-03     82.0514E-03     117.071E-03    -58.3499E-03    -58.7090E-03    -57.8570E-03     116.532E-03    -58.6631E-03     19.4137E-03     177.837E-03     52.8391E+06    -3.74535E+06    -32.6846E+06    -63.6339E+06    -33.0341E+06    -63.2845E+06    -3.74535E+06     1.09669E+06
            1492     82.8494E-03     11.3195E-03     82.0725E-03     117.258E-03    -58.3986E-03    -58.8636E-03    -57.8095E-03     116.349E-03    -58.5437E-03     24.7092E-03     194.323E-03     48.5600E+06     18.1426E+06    -23.0020E+06    -35.3332E+06    -30.3625E+06    -391.479E+03    -9.43861E+06     2.06492E+06
            1493     83.0169E-03     12.2622E-03     82.1063E-03     117.925E-03    -58.4472E-03    -59.4768E-03    -57.1650E-03     115.613E-03    -58.4472E-03     39.1074E-03     218.763E-03     97.1886E+06     77.4539E+06    -6.42322E+06    -29.0159E+06    -28.9088E+06     77.3467E+06    -6.42322E+06     3.09859E+06
            1494     83.2127E-03     13.2092E-03     82.1576E-03     120.199E-03    -58.4860E-03    -61.7346E-03    -56.6854E-03     115.149E-03    -58.4860E-03     58.9495E-03     256.400E-03     131.208E+06     120.970E+06     24.1419E+06    -26.6619E+06    -26.5716E+06     120.879E+06     24.1419E+06     3.55871E+06
            1495     83.4451E-03     14.1527E-03     82.2361E-03     132.129E-03    -58.6702E-03    -73.6494E-03    -57.9145E-03     116.394E-03    -58.6702E-03     105.269E-03     313.742E-03     136.818E+06     132.383E+06     67.7958E+06    -23.4387E+06    -23.3464E+06     132.291E+06     67.7958E+06     2.55506E+06
            1496     83.7624E-03     15.0946E-03     82.3911E-03     156.882E-03    -58.8316E-03    -98.2044E-03    -59.7612E-03     118.439E-03    -58.8316E-03     180.552E-03     425.517E-03     149.309E+06     146.304E+06     108.296E+06    -17.9406E+06    -17.8724E+06     146.236E+06     108.296E+06     674.468E+03
            1497     84.1854E-03     16.0419E-03     82.6429E-03     152.439E-03    -58.8552E-03    -93.5784E-03    -59.0018E-03     117.862E-03    -58.8552E-03     166.957E-03     448.521E-03     158.602E+06     161.622E+06     133.709E+06    -9.07922E+06    -9.04688E+06     161.590E+06     133.709E+06     660.510E+03
            1498     83.1218E-03     942.951E-06     83.1165E-03     117.897E-03    -58.6125E-03    -59.2869E-03    -59.2446E-03     117.897E-03    -58.6548E-03    -153.666E-06     118.884E-03     198.135E+06    -76.3817E+06    -79.9120E+06    -276.236E+06    -79.2742E+06    -276.235E+06    -77.0205E+06    -411.699E+03
            1499     83.1373E-03     1.88560E-03     83.1160E-03     117.682E-03    -58.7325E-03    -58.9568E-03    -58.7412E-03     117.682E-03    -58.9481E-03     22.1454E-06     119.566E-03     200.933E+06    -70.1889E+06    -76.6844E+06    -274.258E+06    -76.6880E+06    -274.255E+06    -70.1889E+06     323.976E+03
            1500     83.1642E-03     2.82966E-03     83.1161E-03     117.615E-03    -58.7098E-03    -58.9211E-03    -58.7147E-03     117.614E-03    -58.9157E-03     506.647E-06     121.200E-03     196.498E+06    -60.7732E+06    -72.4802E+06    -262.824E+06    -72.4913E+06    -262.813E+06    -60.7732E+06    -283.095E+03
            1501     83.2018E-03     3.77238E-03     83.1163E-03     117.710E-03    -58.7883E-03    -58.9384E-03    -58.7909E-03     117.707E-03    -58.9330E-03     1.30467E-03     123.941E-03     194.669E+06    -49.4564E+06    -67.2057E+06    -252.378E+06    -67.2390E+06    -252.345E+06    -49.4564E+06    -2.29534E+06
            1502     83.2515E-03     4.71525E-03     83.1179E-03     117.500E-03    -58.5819E-03    -58.9305E-03    -58.5733E-03     117.491E-03    -58.9305E-03     2.36640E-03     127.315E-03     187.302E+06    -39.8339E+06    -61.9732E+06    -237.200E+06    -62.0133E+06    -237.160E+06    -39.8339E+06    -2.56205E+06
            1503     83.3133E-03     5.65889E-03     83.1209E-03     117.391E-03    -58.5007E-03    -58.9080E-03    -58.4806E-03     117.371E-03    -58.9080E-03     3.67887E-03     131.816E-03     173.625E+06    -30.3342E+06    -56.3472E+06    -215.478E+06    -56.4122E+06    -215.413E+06    -30.3342E+06    -2.36966E+06
            1504     83.3872E-03     6.60181E-03     83.1255E-03     117.400E-03    -58.5336E-03    -58.8956E-03    -58.4883E-03     117.354E-03    -58.8956E-03     5.52698E-03     137.717E-03     163.125E+06    -20.2263E+06    -49.3175E+06    -195.919E+06    -49.3776E+06    -195.859E+06    -20.2263E+06    -1.83506E+06
            1505     83.4739E-03     7.54564E-03     83.1322E-03     117.241E-03    -58.4311E-03    -58.8549E-03    -58.3376E-03     117.147E-03    -58.8549E-03     7.98782E-03     144.561E-03     140.860E+06    -13.9580E+06    -44.5326E+06    -167.550E+06    -44.6007E+06    -167.482E+06    -13.9580E+06    -798.872E+03
            1506     83.5747E-03     8.48864E-03     83.1425E-03     117.068E-03    -58.3158E-03    -58.7878E-03    -58.1487E-03     116.901E-03    -58.7878E-03     10.7252E-03     152.908E-03     110.296E+06    -11.1324E+06    -41.0732E+06    -133.161E+06    -41.2938E+06    -132.940E+06    -11.1324E+06    -490.632E+03
            1507     83.6877E-03     9.43237E-03     83.1545E-03     117.079E-03    -58.3498E-03    -58.7198E-03    -57.9847E-03     116.714E-03    -58.7198E-03     15.6093E-03     164.317E-03     83.6212E+06    -7.99934E+06    -36.2265E+06    -101.919E+06    -36.4330E+06    -101.713E+06    -7.99934E+06    -270.506E+03
            1508     83.8201E-03     10.3759E-03     83.1754E-03     117.199E-03    -58.4696E-03    -58.7052E-03    -57.9454E-03     116.629E-03    -58.6592E-03     19.9565E-03     177.887E-03     51.5294E+06    -6.04586E+06    -32.4045E+06    -64.1912E+06    -32.6786E+06    -63.9171E+06    -6.04586E+06     491.526E+03
            1509     83.9641E-03     11.3192E-03     83.1977E-03     117.256E-03    -58.4847E-03    -58.7699E-03    -57.7685E-03     116.314E-03    -58.5435E-03     25.2732E-03     194.376E-03     45.1076E+06     14.7109E+06    -24.3850E+06    -34.5479E+06    -30.1618E+06    -2.26274E+06    -11.7975E+06     1.55256E+06
            1510     84.1275E-03     12.2642E-03     83.2287E-03     118.026E-03    -58.4500E-03    -59.5745E-03    -57.3091E-03     115.761E-03    -58.4500E-03     38.8189E-03     218.940E-03     95.5422E+06     75.0720E+06    -9.05210E+06    -28.7727E+06    -28.6496E+06     74.9489E+06    -9.05210E+06     3.52221E+06
            1511     84.3224E-03     13.2064E-03     83.2818E-03     120.282E-03    -58.4828E-03    -61.8192E-03    -56.7841E-03     115.247E-03    -58.4828E-03     58.7906E-03     256.978E-03      131.99E+06     120.525E+06     19.4836E+06    -27.3442E+06    -27.1864E+06     120.367E+06     19.4836E+06     4.72207E+06
            1512     84.5520E-03     14.1516E-03     83.3593E-03     131.736E-03    -58.6554E-03    -73.2343E-03    -57.3537E-03     115.856E-03    -58.6554E-03     105.456E-03     313.443E-03     137.187E+06     133.535E+06     64.8410E+06    -22.7997E+06    -22.6927E+06     133.428E+06     64.8410E+06     3.91119E+06
            1513     84.8706E-03     15.0981E-03     83.5168E-03     157.097E-03    -58.8038E-03    -98.4053E-03    -59.4740E-03     118.165E-03    -58.8038E-03     181.715E-03     425.508E-03     149.600E+06     148.538E+06     109.663E+06    -16.1532E+06    -16.0721E+06     148.457E+06     109.663E+06     2.08102E+06
            1514     85.2869E-03     16.0407E-03     83.7648E-03     153.011E-03    -58.8309E-03    -94.1746E-03    -59.2880E-03     118.124E-03    -58.8309E-03     167.896E-03     449.270E-03     158.807E+06     162.668E+06     135.088E+06    -8.12155E+06    -8.07275E+06     162.619E+06     135.088E+06     267.199E+03
            1515     84.2457E-03     942.956E-06     84.2404E-03     117.684E-03    -58.5958E-03    -59.0914E-03    -59.0426E-03     117.683E-03    -58.6444E-03    -189.791E-06     118.542E-03     197.970E+06    -76.9808E+06    -80.6406E+06    -276.735E+06    -80.0026E+06    -276.734E+06    -77.6196E+06    -354.202E+03
            1516     84.2608E-03     1.88650E-03     84.2397E-03     117.722E-03    -58.7572E-03    -58.9727E-03    -58.8470E-03     117.722E-03    -58.8829E-03    -12.7212E-06     119.503E-03     200.741E+06    -71.1523E+06    -77.3090E+06    -274.876E+06    -77.3115E+06    -274.874E+06    -71.1523E+06    -225.968E+03
            1517     84.2864E-03     2.82903E-03     84.2390E-03     117.722E-03    -58.7438E-03    -58.9934E-03    -58.8387E-03     117.721E-03    -58.8981E-03     479.658E-06     121.269E-03     191.469E+06    -63.5510E+06    -73.1499E+06    -259.618E+06    -73.1697E+06    -259.598E+06    -63.5510E+06    -1.28825E+06
            1518     84.3253E-03     3.77223E-03     84.2409E-03     117.652E-03    -58.7271E-03    -58.9425E-03    -58.7303E-03     117.650E-03    -58.9371E-03     1.16627E-03     123.877E-03     191.085E+06    -51.3146E+06    -68.4743E+06    -250.358E+06    -68.5285E+06    -250.304E+06    -51.3146E+06    -3.08321E+06
            1519     84.3732E-03     4.71551E-03     84.2414E-03     117.506E-03    -58.5873E-03    -58.9304E-03    -58.5788E-03     117.498E-03    -58.9304E-03     2.30962E-03     127.305E-03     185.613E+06    -41.5464E+06    -63.4721E+06    -237.141E+06    -63.5616E+06    -237.051E+06    -41.5464E+06    -3.65631E+06
            1520     84.4348E-03     5.65880E-03     84.2450E-03     117.349E-03    -58.4764E-03    -58.8901E-03    -58.4545E-03     117.327E-03    -58.8901E-03     3.83922E-03     131.739E-03     168.886E+06    -33.9953E+06    -57.7069E+06    -213.462E+06    -57.8544E+06    -213.314E+06    -33.9953E+06    -4.48220E+06
            1521     84.5072E-03     6.60219E-03     84.2489E-03     117.379E-03    -58.5309E-03    -58.8787E-03    -58.4814E-03     117.330E-03    -58.8787E-03     5.78027E-03     137.682E-03     160.635E+06    -24.8542E+06    -52.0768E+06    -197.350E+06    -52.2442E+06    -197.182E+06    -24.8542E+06    -4.73340E+06
            1522     84.5935E-03     7.54483E-03     84.2564E-03     117.255E-03    -58.4579E-03    -58.8392E-03    -58.3622E-03     117.159E-03    -58.8392E-03     8.10926E-03     144.600E-03     139.734E+06    -17.8924E+06    -45.0956E+06    -169.163E+06    -45.2826E+06    -168.976E+06    -17.8924E+06    -2.90930E+06
            1523     84.6920E-03     8.48898E-03     84.2655E-03     117.049E-03    -58.3058E-03    -58.7736E-03    -58.1390E-03     116.882E-03    -58.7736E-03     10.7103E-03     152.851E-03     109.335E+06    -13.2808E+06    -38.8030E+06    -133.004E+06    -39.0178E+06    -132.789E+06    -13.2808E+06    -1.88425E+06
            1524     84.8050E-03     9.43239E-03     84.2788E-03     117.164E-03    -58.4367E-03    -58.7171E-03    -58.0715E-03     116.799E-03    -58.7171E-03     15.6191E-03     164.461E-03     83.6385E+06    -9.45725E+06    -35.4004E+06    -102.867E+06    -35.5782E+06    -102.689E+06    -9.45725E+06    -1.39639E+06
            1525     84.9349E-03     10.3759E-03     84.2987E-03     117.161E-03    -58.4817E-03    -58.6614E-03    -57.9084E-03     116.588E-03    -58.6614E-03     20.0072E-03     178.032E-03     51.3802E+06    -7.62483E+06    -32.5614E+06    -65.6688E+06    -32.7097E+06    -65.5206E+06    -7.62483E+06    -164.645E+03
            1526     85.0783E-03     11.3201E-03     84.3219E-03     117.110E-03    -58.4080E-03    -58.7066E-03    -57.6519E-03     116.185E-03    -58.5385E-03     25.0650E-03     194.367E-03     44.6283E+06     12.0855E+06    -25.8063E+06    -36.8463E+06    -31.5154E+06    -4.77297E+06    -14.2788E+06     1.46581E+06
            1527     85.2394E-03     12.2623E-03     84.3528E-03     118.196E-03    -58.4420E-03    -59.7541E-03    -57.4630E-03     115.905E-03    -58.4420E-03     38.9621E-03     219.132E-03     95.4396E+06     72.7625E+06    -12.3159E+06    -30.4385E+06    -30.3061E+06     72.6301E+06    -12.3159E+06     3.52608E+06
            1528     85.4335E-03     13.2078E-03     84.4063E-03     120.407E-03    -58.4818E-03    -61.9418E-03    -56.8683E-03     115.333E-03    -58.4818E-03     59.1111E-03     257.712E-03     131.621E+06     120.047E+06     16.7927E+06    -26.6808E+06    -26.5349E+06     119.901E+06     16.7927E+06     4.47683E+06
            1529     85.6590E-03     14.1520E-03     84.4818E-03     131.290E-03    -58.6606E-03    -72.7881E-03    -56.9832E-03     115.485E-03    -58.6606E-03     104.954E-03     313.367E-03     136.768E+06     134.023E+06     63.5149E+06    -21.8497E+06    -21.7320E+06     133.905E+06     63.5149E+06     4.08397E+06
            1530     85.9744E-03     15.0975E-03     84.6384E-03     156.642E-03    -58.7940E-03    -97.9757E-03    -59.2082E-03     117.874E-03    -58.7940E-03     181.063E-03     424.584E-03     149.607E+06     150.117E+06     110.014E+06    -14.9253E+06    -14.8440E+06     150.036E+06     110.014E+06     2.70456E+06
            1531     86.3942E-03     16.0446E-03     84.8912E-03     152.881E-03    -58.8209E-03    -94.0642E-03    -59.6374E-03     118.454E-03    -58.8209E-03     166.506E-03     449.022E-03     159.688E+06     164.589E+06     136.437E+06    -7.30261E+06    -7.25817E+06     164.544E+06     136.437E+06     1.00783E+06
            1532     85.3688E-03     943.375E-06     85.3636E-03     117.553E-03    -58.6844E-03    -58.8752E-03    -58.8687E-03     117.553E-03    -58.6908E-03    -132.742E-06     118.324E-03     196.863E+06    -78.2963E+06    -81.3908E+06    -276.672E+06    -81.0139E+06    -276.668E+06    -78.6777E+06     89.3172E+03
            1533     85.3838E-03     1.88622E-03     85.3629E-03     117.842E-03    -58.8018E-03    -59.0502E-03    -58.9924E-03     117.841E-03    -58.8595E-03    -24.9389E-06     119.548E-03     198.312E+06    -71.8707E+06    -78.2972E+06    -273.296E+06    -78.3134E+06    -273.279E+06    -71.8707E+06    -1.35246E+06
            1534     85.4109E-03     2.82898E-03     85.3640E-03     117.736E-03    -58.7492E-03    -59.0016E-03    -58.8387E-03     117.735E-03    -58.9117E-03     523.091E-06     121.251E-03     188.602E+06    -64.0696E+06    -73.3774E+06    -257.149E+06    -73.4254E+06    -257.101E+06    -64.0696E+06    -2.73910E+06
            1535     85.4468E-03     3.77221E-03     85.3635E-03     117.611E-03    -58.6961E-03    -58.9304E-03    -58.6936E-03     117.609E-03    -58.9304E-03     1.23335E-03     123.812E-03     186.996E+06    -54.4823E+06    -69.2157E+06    -248.367E+06    -69.2855E+06    -248.297E+06    -54.4823E+06    -3.51116E+06
            1536     85.4959E-03     4.71546E-03     85.3657E-03     117.519E-03    -58.6108E-03    -58.9195E-03    -58.6038E-03     117.512E-03    -58.9195E-03     2.16087E-03     127.320E-03     180.860E+06    -44.9334E+06    -64.6522E+06    -234.827E+06    -64.8135E+06    -234.665E+06    -44.9334E+06    -4.94058E+06
            1537     85.5550E-03     5.65860E-03     85.3677E-03     117.283E-03    -58.4245E-03    -58.8792E-03    -58.4026E-03     117.261E-03    -58.8792E-03     3.75585E-03     131.683E-03     164.262E+06    -37.4778E+06    -59.3813E+06    -211.572E+06    -59.6462E+06    -211.307E+06    -37.4778E+06    -6.25672E+06
            1538     85.6279E-03     6.60199E-03     85.3730E-03     117.233E-03    -58.4140E-03    -58.8522E-03    -58.3613E-03     117.180E-03    -58.8522E-03     5.97965E-03     137.500E-03     156.507E+06    -29.4839E+06    -53.9874E+06    -196.779E+06    -54.3512E+06    -196.415E+06    -29.4839E+06    -6.98128E+06
            1539     85.7124E-03     7.54586E-03     85.3796E-03     117.240E-03    -58.4882E-03    -58.7958E-03    -58.3913E-03     117.143E-03    -58.7958E-03     8.17314E-03     144.513E-03     135.054E+06    -25.0388E+06    -48.2806E+06    -170.187E+06    -48.7751E+06    -169.693E+06    -25.0388E+06    -7.54765E+06
            1540     85.8105E-03     8.48850E-03     85.3896E-03     117.165E-03    -58.4519E-03    -58.7494E-03    -58.2825E-03     116.996E-03    -58.7494E-03     10.7887E-03     152.978E-03     106.593E+06    -19.0069E+06    -41.5222E+06    -134.945E+06    -42.0401E+06    -134.427E+06    -19.0069E+06    -5.60361E+06
            1541     85.9212E-03     9.43226E-03     85.4019E-03     117.213E-03    -58.4924E-03    -58.7172E-03    -58.1261E-03     116.847E-03    -58.7172E-03     15.6697E-03     164.508E-03     83.5516E+06    -12.0437E+06    -35.4632E+06    -104.703E+06    -35.7697E+06    -104.397E+06    -12.0437E+06    -2.99313E+06
            1542     86.0512E-03     10.3757E-03     85.4234E-03     117.040E-03    -58.3778E-03    -58.6583E-03    -57.8064E-03     116.469E-03    -58.6583E-03     19.9589E-03     178.036E-03     51.5211E+06    -10.2276E+06    -32.2349E+06    -68.3954E+06    -32.3506E+06    -68.2797E+06    -10.2276E+06    -526.122E+03
            1543     86.1912E-03     11.3189E-03     85.4448E-03     116.938E-03    -58.3066E-03    -58.6558E-03    -57.4714E-03     115.968E-03    -58.5212E-03     25.5787E-03     194.064E-03     44.2428E+06     10.1014E+06    -27.0017E+06    -38.0870E+06    -30.6444E+06    -7.85729E+06    -16.4856E+06     2.40943E+06
            1544     86.3527E-03     12.2643E-03     85.4773E-03     118.055E-03    -58.4111E-03    -59.6466E-03    -57.2823E-03     115.691E-03    -58.4111E-03     39.6677E-03     218.636E-03     94.8670E+06     72.3602E+06    -13.4434E+06    -29.4116E+06    -29.2767E+06     72.2254E+06    -13.4434E+06     3.02654E+06
            1545     86.5435E-03     13.2070E-03     85.5298E-03     120.594E-03    -58.4641E-03    -62.1373E-03    -57.0843E-03     115.541E-03    -58.4641E-03     59.1523E-03     257.477E-03     131.461E+06     119.570E+06     16.4700E+06    -26.8957E+06    -26.8222E+06     119.496E+06     16.4700E+06     3.15609E+06
            1546     86.7672E-03     14.1519E-03     85.6053E-03     131.468E-03    -58.6812E-03    -72.9607E-03    -57.5882E-03     116.096E-03    -58.6812E-03     103.798E-03     313.840E-03     136.327E+06     134.055E+06     63.2429E+06    -21.5244E+06    -21.4262E+06     133.957E+06     63.2429E+06     3.71365E+06
            1547     87.0793E-03     15.0971E-03     85.7606E-03     156.998E-03    -58.8395E-03    -98.3317E-03    -59.6289E-03     118.296E-03    -58.8395E-03     180.976E-03     424.484E-03     150.839E+06     151.720E+06     110.184E+06    -14.9367E+06    -14.8360E+06     151.620E+06     110.184E+06     2.98749E+06
            1548     87.4977E-03     16.0396E-03     86.0150E-03     152.748E-03    -58.8574E-03    -93.9456E-03    -59.3101E-03     118.113E-03    -58.8574E-03     166.765E-03     448.503E-03     161.465E+06     165.747E+06     136.961E+06    -8.17360E+06    -8.11172E+06     165.685E+06     136.961E+06     1.85921E+06
            1549     86.4921E-03     943.284E-06     86.4870E-03     117.672E-03    -58.5521E-03    -59.1257E-03    -59.0924E-03     117.672E-03    -58.5852E-03     225.335E-06     118.386E-03     195.736E+06    -78.8330E+06    -83.0897E+06    -276.647E+06    -82.7153E+06    -276.640E+06    -79.2144E+06     813.900E+03
            1550     86.5082E-03     1.88576E-03     86.4877E-03     117.780E-03    -58.7989E-03    -58.9899E-03    -58.8993E-03     117.779E-03    -58.8892E-03     176.153E-06     119.430E-03     193.871E+06    -72.2367E+06    -79.6048E+06    -269.685E+06    -79.6364E+06    -269.654E+06    -72.2367E+06    -1.51292E+06
            1551     86.5332E-03     2.82931E-03     86.4870E-03     117.666E-03    -58.7851E-03    -58.8949E-03    -58.7845E-03     117.665E-03    -58.8949E-03     482.213E-06     121.163E-03     183.105E+06    -67.4769E+06    -76.2681E+06    -254.814E+06    -76.3565E+06    -254.726E+06    -67.4769E+06    -3.87345E+06
            1552     86.5704E-03     3.77226E-03     86.4882E-03     117.643E-03    -58.7468E-03    -58.9114E-03    -58.7444E-03     117.640E-03    -58.9114E-03     1.24403E-03     123.846E-03     181.474E+06    -58.3031E+06    -71.6082E+06    -246.044E+06    -71.7839E+06    -245.868E+06    -58.3031E+06    -5.21439E+06
            1553     86.6175E-03     4.71513E-03     86.4891E-03     117.473E-03    -58.5825E-03    -58.9039E-03    -58.5743E-03     117.465E-03    -58.9039E-03     2.26681E-03     127.295E-03     175.007E+06    -48.0303E+06    -65.2737E+06    -231.002E+06    -65.6221E+06    -230.654E+06    -48.0303E+06    -7.13782E+06
            1554     86.6767E-03     5.65871E-03     86.4918E-03     117.292E-03    -58.4466E-03    -58.8667E-03    -58.4247E-03     117.270E-03    -58.8667E-03     3.80417E-03     131.725E-03     160.878E+06    -39.9709E+06    -58.7392E+06    -209.394E+06    -59.2993E+06    -208.834E+06    -39.9709E+06    -8.94934E+06
            1555     86.7477E-03     6.60223E-03     86.4961E-03     117.225E-03    -58.4149E-03    -58.8430E-03    -58.3615E-03     117.172E-03    -58.8430E-03     5.96562E-03     137.480E-03     154.112E+06    -31.3817E+06    -52.8494E+06    -195.086E+06    -53.4927E+06    -194.443E+06    -31.3817E+06    -9.43420E+06
            1556     86.8324E-03     7.54513E-03     86.5040E-03     117.202E-03    -58.4606E-03    -58.7857E-03    -58.3647E-03     117.106E-03    -58.7857E-03     8.15499E-03     144.463E-03     132.723E+06    -26.5142E+06    -47.6008E+06    -168.487E+06    -48.5264E+06    -167.561E+06    -26.5142E+06    -10.1357E+06
            1557     86.9284E-03     8.48906E-03     86.5129E-03     117.214E-03    -58.5229E-03    -58.7280E-03    -58.3528E-03     117.044E-03    -58.7280E-03     10.7863E-03     153.027E-03     104.975E+06    -24.7546E+06    -42.7565E+06    -137.528E+06    -43.9589E+06    -136.326E+06    -24.7546E+06    -10.4549E+06
            1558     87.0390E-03     9.43193E-03     86.5264E-03     117.172E-03    -58.4658E-03    -58.7000E-03    -58.0963E-03     116.802E-03    -58.7000E-03     15.7637E-03     164.434E-03     83.5148E+06    -18.4209E+06    -38.4229E+06    -109.962E+06    -39.1103E+06    -109.275E+06    -18.4209E+06    -6.33385E+06
            1559     87.1657E-03     10.3757E-03     86.5460E-03     116.949E-03    -58.2973E-03    -58.6425E-03    -57.7296E-03     116.381E-03    -58.6425E-03     19.8834E-03     178.055E-03     51.4586E+06    -13.3276E+06    -33.3365E+06    -71.3833E+06    -33.6629E+06    -71.0569E+06    -13.3276E+06    -2.21247E+06
            1560     87.3056E-03     11.3207E-03     86.5685E-03     116.825E-03    -58.2918E-03    -58.5613E-03    -57.4101E-03     115.882E-03    -58.5000E-03     25.2313E-03     194.028E-03      40.232E+06     5.77342E+06    -27.2046E+06    -37.4674E+06    -28.9771E+06    -11.2339E+06    -18.6875E+06     360.111E+03
            1561     87.4650E-03     12.2635E-03     86.6010E-03     117.828E-03    -58.3893E-03    -59.4590E-03    -57.1469E-03     115.516E-03    -58.3893E-03     39.1381E-03     218.522E-03     92.4036E+06     70.5636E+06    -14.6714E+06    -27.5010E+06    -27.3178E+06     70.3803E+06    -14.6714E+06     3.54101E+06
            1562     87.6554E-03     13.2091E-03     86.6544E-03     120.547E-03    -58.4371E-03    -62.1257E-03    -57.0429E-03     115.464E-03    -58.4371E-03     59.2407E-03     257.180E-03     133.245E+06     120.626E+06     15.6863E+06    -27.4129E+06    -27.2695E+06     120.483E+06     15.6863E+06     3.79323E+06
            1563     87.8777E-03     14.1513E-03     86.7308E-03     131.931E-03    -58.6672E-03    -73.4138E-03    -58.0294E-03     116.547E-03    -58.6672E-03     104.263E-03     314.582E-03     138.141E+06     133.485E+06     61.4870E+06    -24.3189E+06    -24.2506E+06     133.417E+06     61.4870E+06     2.99589E+06
            1564     88.1848E-03     15.0953E-03     86.8832E-03     157.476E-03    -58.8450E-03    -98.8416E-03    -59.7976E-03     118.432E-03    -58.8450E-03     181.862E-03     424.995E-03     153.366E+06     152.392E+06     108.622E+06    -17.5212E+06    -17.4286E+06     152.299E+06     108.622E+06     3.60809E+06
            1565     88.6051E-03     16.0426E-03     87.1407E-03     152.994E-03    -58.8573E-03    -94.2406E-03    -58.9848E-03     117.739E-03    -58.8573E-03     168.331E-03     448.220E-03     163.701E+06     167.539E+06     137.176E+06    -9.20713E+06    -9.14849E+06     167.481E+06     137.176E+06     2.17493E+06
            1566     87.6158E-03     942.739E-06     87.6107E-03     117.746E-03    -58.6325E-03    -59.1176E-03    -59.0303E-03     117.746E-03    -58.7195E-03     244.687E-06     118.407E-03     193.037E+06    -82.8489E+06    -85.3754E+06    -277.128E+06    -84.7131E+06    -277.121E+06    -83.5184E+06    -104.115E+03
            1567     87.6317E-03     1.88651E-03     87.6114E-03     117.652E-03    -58.7773E-03    -58.8820E-03    -58.7768E-03     117.652E-03    -58.8820E-03     200.024E-06     119.281E-03     187.649E+06    -75.4995E+06    -81.1463E+06    -265.888E+06    -81.0508E+06    -265.853E+06    -75.6292E+06    -1.69642E+06
            1568     87.6564E-03     2.82897E-03     87.6107E-03     117.688E-03    -58.8148E-03    -58.8854E-03    -58.8140E-03     117.688E-03    -58.8854E-03     580.822E-06     121.180E-03     178.224E+06    -67.1628E+06    -77.2423E+06    -250.198E+06    -77.3689E+06    -250.071E+06    -67.1628E+06    -4.46440E+06
            1569     87.6929E-03     3.77207E-03     87.6117E-03     117.552E-03    -58.6661E-03    -58.9007E-03    -58.6638E-03     117.550E-03    -58.9007E-03     1.25408E-03     123.760E-03     176.942E+06    -58.2748E+06    -72.2141E+06    -241.762E+06    -72.5844E+06    -241.392E+06    -58.2748E+06    -7.60293E+06
            1570     87.7391E-03     4.71565E-03     87.6123E-03     117.438E-03    -58.5850E-03    -58.8660E-03    -58.5757E-03     117.429E-03    -58.8660E-03     2.41220E-03     127.243E-03     168.271E+06    -51.0711E+06    -65.3619E+06    -226.027E+06    -66.2661E+06    -225.123E+06    -51.0711E+06    -11.3707E+06
            1571     87.7981E-03     5.65876E-03     87.6156E-03     117.462E-03    -58.6311E-03    -58.8484E-03    -58.6099E-03     117.440E-03    -58.8484E-03     3.82160E-03     131.909E-03     156.746E+06    -43.1222E+06    -58.7333E+06    -207.068E+06    -59.9302E+06    -205.871E+06    -43.1222E+06    -12.9778E+06
            1572     87.8684E-03     6.60167E-03     87.6200E-03     117.337E-03    -58.5140E-03    -58.8523E-03    -58.4634E-03     117.286E-03    -58.8523E-03     5.77532E-03     137.627E-03     152.098E+06    -32.9269E+06    -52.1491E+06    -193.702E+06    -53.3600E+06    -192.491E+06    -32.9269E+06    -12.7554E+06
            1573     87.9519E-03     7.54569E-03     87.6276E-03     117.191E-03    -58.4371E-03    -58.7983E-03    -58.3388E-03     117.092E-03    -58.7983E-03     8.23735E-03     144.484E-03     130.738E+06    -27.5683E+06    -45.4373E+06    -166.303E+06    -47.0034E+06    -164.737E+06    -27.5683E+06    -13.2605E+06
            1574     88.0473E-03     8.48826E-03     87.6372E-03     117.109E-03    -58.4069E-03    -58.7447E-03    -58.2426E-03     116.945E-03    -58.7447E-03     10.6409E-03     153.013E-03     106.502E+06    -25.1341E+06    -42.0258E+06    -139.045E+06    -43.5055E+06    -137.565E+06    -25.1341E+06    -11.7905E+06
            1575     88.1559E-03     9.43230E-03     87.6498E-03     117.076E-03    -58.3791E-03    -58.6925E-03    -58.0165E-03     116.713E-03    -58.6925E-03     15.5372E-03     164.383E-03     85.6110E+06    -21.7823E+06    -38.6731E+06    -114.356E+06    -40.1148E+06    -112.914E+06    -21.7823E+06    -9.57889E+06
            1576     88.2820E-03     10.3760E-03     87.6701E-03     117.190E-03    -58.4537E-03    -58.7160E-03    -57.9716E-03     116.627E-03    -58.6352E-03     19.8395E-03     178.185E-03     52.1845E+06    -17.3683E+06    -32.6497E+06    -75.0086E+06    -34.3893E+06    -73.2690E+06    -17.3683E+06    -7.60598E+06
            1577     88.4198E-03     11.3185E-03     87.6923E-03     116.896E-03    -58.3061E-03    -58.6112E-03    -57.5054E-03     116.008E-03    -58.5240E-03     24.5485E-03     194.283E-03     38.2792E+06     523.979E+03    -28.1421E+06    -40.7801E+06    -29.7151E+06    -17.4071E+06    -21.2760E+06    -2.53070E+06
            1578     88.5776E-03     12.2638E-03     87.7245E-03     117.593E-03    -58.2328E-03    -59.3934E-03    -56.8592E-03     115.211E-03    -58.3855E-03     39.3284E-03     218.211E-03     88.8050E+06     64.5746E+06    -19.6354E+06    -28.0986E+06    -27.3658E+06     64.4296E+06    -20.2232E+06     3.39937E+06
            1579     88.7660E-03     13.2070E-03     87.7780E-03     120.243E-03    -58.3994E-03    -61.8653E-03    -56.7140E-03     115.091E-03    -58.3994E-03     59.6890E-03     256.627E-03     134.216E+06     121.297E+06     11.4696E+06    -25.9583E+06    -25.6606E+06     120.999E+06     11.4696E+06     5.81889E+06
            1580     88.9870E-03     14.1536E-03     87.8542E-03     132.003E-03    -58.6273E-03    -73.5120E-03    -57.9813E-03     116.473E-03    -58.6273E-03     104.650E-03     314.453E-03     139.385E+06     134.878E+06     60.3452E+06    -24.0458E+06    -23.8472E+06     134.680E+06     60.3452E+06     4.53026E+06
            1581     89.2953E-03     15.0970E-03     88.0099E-03     156.907E-03    -58.8276E-03    -98.2560E-03    -59.9251E-03     118.576E-03    -58.8276E-03     180.239E-03     424.983E-03     153.471E+06     152.503E+06     107.626E+06    -17.9250E+06    -17.8700E+06     152.448E+06     107.626E+06     2.92571E+06
            1582     89.7046E-03     16.0419E-03     88.2585E-03     152.358E-03    -58.8592E-03    -93.5558E-03    -58.9034E-03     117.706E-03    -58.8592E-03     167.059E-03     447.849E-03     164.102E+06     169.437E+06     137.659E+06    -8.20988E+06    -8.18963E+06     169.417E+06     137.659E+06     1.68157E+06
            1583     88.7404E-03     943.102E-06     88.7354E-03     117.870E-03    -58.8407E-03    -59.0349E-03    -58.8771E-03     117.870E-03    -58.9984E-03     6.82915E-06     118.485E-03     187.623E+06    -86.1301E+06    -88.2329E+06    -274.794E+06    -87.6063E+06    -274.751E+06    -86.7996E+06    -1.65162E+06
            1584     88.7541E-03     1.88577E-03     88.7341E-03     117.625E-03    -58.7249E-03    -58.9093E-03    -58.7247E-03     117.624E-03    -58.9093E-03     55.1761E-06     119.268E-03     180.208E+06    -80.4776E+06    -84.0316E+06    -262.419E+06    -83.9951E+06    -262.326E+06    -80.6072E+06    -3.72000E+06
            1585     88.7805E-03     2.82940E-03     88.7354E-03     117.443E-03    -58.5968E-03    -58.8593E-03    -58.5963E-03     117.443E-03    -58.8593E-03     594.797E-06     120.941E-03     169.341E+06    -71.2593E+06    -79.4558E+06    -244.512E+06    -79.7457E+06    -244.222E+06    -71.2593E+06    -6.21461E+06
            1586     88.8149E-03     3.77242E-03     88.7348E-03     117.506E-03    -58.6016E-03    -58.9177E-03    -58.6651E-03     117.503E-03    -58.8514E-03     1.30519E-03     123.706E-03     168.435E+06    -60.3004E+06    -72.9571E+06    -234.698E+06    -73.7101E+06    -233.945E+06    -60.3004E+06    -10.5412E+06
            1587     88.8618E-03     4.71558E-03     88.7365E-03     117.593E-03    -58.6959E-03    -58.9098E-03    -58.7534E-03     117.584E-03    -58.8434E-03     2.42001E-03     127.409E-03     159.859E+06    -53.1995E+06    -67.3030E+06    -219.624E+06    -68.6970E+06    -218.230E+06    -53.1995E+06    -14.1884E+06
            1588     88.9200E-03     5.65848E-03     88.7398E-03     117.530E-03    -58.6958E-03    -58.8526E-03    -58.6754E-03     117.510E-03    -58.8526E-03     3.72312E-03     131.989E-03     150.189E+06    -46.8446E+06    -61.9267E+06    -203.982E+06    -63.9769E+06    -201.932E+06    -46.8446E+06    -16.6796E+06
            1589     88.9888E-03     6.60177E-03     88.7436E-03     117.438E-03    -58.6044E-03    -58.8618E-03    -58.5545E-03     117.388E-03    -58.8618E-03     5.76570E-03     137.729E-03     145.898E+06    -37.9208E+06    -54.1833E+06    -191.259E+06    -56.9594E+06    -188.483E+06    -37.9208E+06    -18.6785E+06
            1590     89.0711E-03     7.54449E-03     88.7510E-03     117.173E-03    -58.3952E-03    -58.8229E-03    -58.2964E-03     117.074E-03    -58.8229E-03     8.24484E-03     144.487E-03     128.966E+06    -31.1439E+06    -47.6337E+06    -167.552E+06    -50.2235E+06    -164.963E+06    -31.1439E+06    -17.0768E+06
            1591     89.1663E-03     8.48867E-03     88.7613E-03     116.959E-03    -58.2428E-03    -58.7592E-03    -58.0782E-03     116.794E-03    -58.7592E-03     10.6567E-03     152.848E-03     107.938E+06    -27.1755E+06    -41.9465E+06    -141.654E+06    -44.0342E+06    -139.566E+06    -27.1755E+06    -13.7951E+06
            1592     89.2727E-03     9.43193E-03     88.7731E-03     117.201E-03    -58.4220E-03    -58.7669E-03    -58.1369E-03     116.837E-03    -58.6876E-03     15.5732E-03     164.446E-03     84.3302E+06    -24.4193E+06    -35.8224E+06    -113.766E+06    -38.5496E+06    -111.039E+06    -24.4193E+06    -13.6656E+06
            1593     89.3987E-03     10.3754E-03     88.7945E-03     117.174E-03    -58.3433E-03    -58.8017E-03    -57.9273E-03     116.598E-03    -58.6416E-03     20.0648E-03     178.026E-03     55.1201E+06    -21.6602E+06    -32.5655E+06    -81.1249E+06    -35.3107E+06    -78.3797E+06    -21.6602E+06    -11.1077E+06
            1594     89.5353E-03     11.3193E-03     88.8169E-03     116.936E-03    -58.1115E-03    -58.8427E-03    -57.5258E-03     116.040E-03    -58.5321E-03     24.7180E-03     194.238E-03     40.5123E+06    -4.60623E+06    -31.4938E+06    -47.7037E+06    -32.7666E+06    -24.9707E+06    -26.0665E+06    -4.79726E+06
            1595     89.6874E-03     12.2633E-03     88.8451E-03     117.774E-03    -58.2391E-03    -59.5635E-03    -57.0805E-03     115.444E-03    -58.3918E-03     38.9696E-03     218.485E-03     86.6452E+06     58.6981E+06    -24.8340E+06    -30.7285E+06    -29.9729E+06     58.5303E+06    -25.4219E+06     1.10378E+06
            1596     89.8792E-03     13.2097E-03     88.9032E-03     119.776E-03    -58.3849E-03    -61.4127E-03    -56.3506E-03     114.714E-03    -58.3849E-03     58.9604E-03     256.302E-03     133.235E+06     117.430E+06     3.90455E+06    -27.3263E+06    -27.0689E+06     117.172E+06     3.90455E+06     5.71035E+06
            1597     90.0951E-03     14.1516E-03     88.9768E-03     131.730E-03    -58.5760E-03    -73.2939E-03    -57.3822E-03     115.819E-03    -58.5760E-03     105.451E-03     313.450E-03     140.699E+06     137.229E+06     55.5569E+06    -22.9190E+06    -22.6616E+06     136.972E+06     55.5569E+06     5.79402E+06
            1598     90.4050E-03     15.0966E-03     89.1356E-03     157.393E-03    -58.7911E-03    -98.7266E-03    -60.3740E-03     119.040E-03    -58.7911E-03     181.050E-03     425.355E-03     154.121E+06     155.221E+06     107.505E+06    -16.3212E+06    -16.2536E+06     155.154E+06     107.505E+06     2.60936E+06
            1599     90.8095E-03     16.0397E-03     89.3818E-03     152.381E-03    -58.8663E-03    -93.5175E-03    -59.2498E-03     118.113E-03    -58.8663E-03     166.567E-03     448.488E-03     165.087E+06     170.497E+06     138.369E+06    -8.27882E+06    -8.25983E+06     170.478E+06     138.369E+06     1.43227E+06
            1600     89.8631E-03     942.666E-06     89.8581E-03     117.932E-03    -58.7114E-03    -59.2259E-03    -59.0511E-03     117.932E-03    -58.8856E-03    -110.575E-06     118.504E-03     181.185E+06    -87.1804E+06    -89.5931E+06    -269.558E+06    -89.0097E+06    -269.501E+06    -87.8208E+06    -2.09696E+06
            1601     89.8789E-03     1.88586E-03     89.8591E-03     117.600E-03    -58.6936E-03    -58.9151E-03    -58.6935E-03     117.600E-03    -58.9151E-03     183.840E-06     119.245E-03     170.972E+06    -85.0925E+06    -87.2485E+06    -257.131E+06    -87.4687E+06    -256.911E+06    -85.0925E+06    -5.68547E+06
            1602     89.9023E-03     2.82894E-03     89.8578E-03     117.419E-03    -58.5792E-03    -58.8516E-03    -58.6025E-03     117.419E-03    -58.8279E-03     479.315E-06     120.912E-03     155.615E+06    -79.3262E+06    -82.7349E+06    -236.598E+06    -83.4367E+06    -235.896E+06    -79.3262E+06    -9.58910E+06
            1603     89.9383E-03     3.77282E-03     89.8592E-03     117.581E-03    -58.6579E-03    -58.9333E-03    -58.7459E-03     117.578E-03    -58.8433E-03     1.12242E-03     123.773E-03     155.259E+06    -66.4392E+06    -77.4257E+06    -226.802E+06    -78.7848E+06    -225.443E+06    -66.4392E+06    -13.9754E+06
            1604     89.9842E-03     4.71511E-03     89.8606E-03     117.609E-03    -58.6804E-03    -58.9393E-03    -58.7385E-03     117.601E-03    -58.8730E-03     2.27122E-03     127.423E-03     152.284E+06    -54.7500E+06    -70.6262E+06    -214.330E+06    -72.6506E+06    -212.306E+06    -54.7500E+06    -16.6018E+06
            1605     90.0413E-03     5.65829E-03     89.8633E-03     117.471E-03    -58.6178E-03    -58.8695E-03    -58.5960E-03     117.449E-03    -58.8695E-03     3.82459E-03     131.924E-03     142.724E+06    -47.5406E+06    -63.0656E+06    -197.371E+06    -66.1349E+06    -194.302E+06    -47.5406E+06    -19.7993E+06
            1606     90.1099E-03     6.60139E-03     89.8677E-03     117.394E-03    -58.5622E-03    -58.8613E-03    -58.5089E-03     117.340E-03    -58.8613E-03     5.96893E-03     137.672E-03     138.839E+06    -41.5622E+06    -57.2112E+06    -187.545E+06    -61.3543E+06    -183.401E+06    -41.5622E+06    -22.7586E+06
            1607     90.1914E-03     7.54491E-03     89.8752E-03     117.143E-03    -58.3729E-03    -58.8176E-03    -58.2733E-03     117.043E-03    -58.8176E-03     8.29953E-03     144.427E-03     127.062E+06    -37.1726E+06    -50.8219E+06    -170.484E+06    -55.3310E+06    -165.975E+06    -37.1726E+06    -22.2505E+06
            1608     90.2838E-03     8.48819E-03     89.8839E-03     117.038E-03    -58.3339E-03    -58.7467E-03    -58.1624E-03     116.866E-03    -58.7467E-03     10.8487E-03     152.769E-03     106.870E+06    -33.2476E+06    -41.7744E+06    -144.079E+06    -46.7611E+06    -139.092E+06    -33.2476E+06    -21.1471E+06
            1609     90.3913E-03     9.43208E-03     89.8979E-03     117.225E-03    -58.4503E-03    -58.7703E-03    -58.1574E-03     116.853E-03    -58.6910E-03     15.8010E-03     164.407E-03     84.3911E+06    -28.5936E+06    -35.7024E+06    -116.231E+06    -40.0575E+06    -111.876E+06    -28.5936E+06    -17.9556E+06
            1610     90.5146E-03     10.3749E-03     89.9180E-03     116.984E-03    -58.2327E-03    -58.7279E-03    -57.7610E-03     116.433E-03    -58.6486E-03     19.6132E-03     177.889E-03     58.4767E+06    -25.4126E+06    -33.8126E+06    -87.5771E+06    -36.7880E+06    -84.6017E+06    -25.4126E+06    -12.0902E+06
            1611     90.6480E-03     11.3201E-03     89.9384E-03     117.004E-03    -58.2117E-03    -58.8007E-03    -57.5817E-03     116.097E-03    -58.5234E-03     24.7355E-03     194.159E-03     39.9418E+06    -10.2617E+06    -33.4367E+06    -52.3119E+06    -34.7247E+06    -30.5327E+06    -30.7529E+06    -7.18428E+06
            1612     90.8041E-03     12.2625E-03     89.9723E-03     118.121E-03    -58.4007E-03    -59.7373E-03    -57.4386E-03     115.823E-03    -58.4007E-03     39.0163E-03     218.798E-03     83.0228E+06     51.4319E+06    -29.0793E+06    -33.8172E+06    -32.5197E+06     51.0570E+06    -30.0020E+06    -1.41142E+06
            1613     90.9861E-03     13.2048E-03     90.0228E-03     119.797E-03    -58.3984E-03    -61.4212E-03    -56.4143E-03     114.790E-03    -58.3984E-03     58.5636E-03     256.481E-03     131.621E+06     112.482E+06    -2.71237E+06    -29.3888E+06    -29.2649E+06     112.358E+06    -2.71237E+06     3.85394E+06
            1614     91.2063E-03     14.1546E-03     90.1012E-03     130.972E-03    -58.5662E-03    -72.5469E-03    -56.5992E-03     115.025E-03    -58.5662E-03     105.080E-03     312.746E-03     142.696E+06     138.399E+06     50.2092E+06    -23.7487E+06    -23.5951E+06     138.246E+06     50.2092E+06     4.75103E+06
            1615     91.5132E-03     15.0993E-03     90.2590E-03     157.364E-03    -58.7376E-03    -98.7497E-03    -59.4708E-03     118.085E-03    -58.7376E-03     182.736E-03     425.056E-03     156.644E+06     157.462E+06     106.461E+06    -17.2551E+06    -17.1834E+06     157.390E+06     106.461E+06     2.74532E+06
            1616     91.9222E-03     16.0426E-03     90.5115E-03     152.896E-03    -58.8016E-03    -94.1154E-03    -59.6769E-03     118.457E-03    -58.8016E-03     166.287E-03     448.348E-03     167.976E+06     172.115E+06     139.270E+06    -9.84874E+06    -9.82646E+06     172.093E+06     139.270E+06     1.06721E+06
            1617     90.9876E-03     942.972E-06     90.9827E-03     117.645E-03    -58.5315E-03    -59.1172E-03    -58.9876E-03     117.645E-03    -58.6606E-03    -74.3016E-06     118.174E-03     173.898E+06    -88.5747E+06    -89.7153E+06    -263.039E+06    -89.0944E+06    -262.970E+06    -89.2645E+06    -2.73819E+06
            1618     91.0015E-03     1.88614E-03     90.9820E-03     117.780E-03    -58.7432E-03    -59.0435E-03    -58.9406E-03     117.780E-03    -58.8459E-03     174.521E-06     119.406E-03     161.625E+06    -85.2425E+06    -87.1775E+06    -247.821E+06    -87.5932E+06    -247.405E+06    -85.2425E+06    -7.40887E+06
            1619     91.0264E-03     2.82929E-03     90.9824E-03     117.778E-03    -58.8049E-03    -58.9832E-03    -58.9093E-03     117.778E-03    -58.8782E-03     419.637E-06     121.273E-03     145.723E+06    -79.8147E+06    -83.3851E+06    -227.274E+06    -84.6266E+06    -226.033E+06    -79.8147E+06    -12.7037E+06
            1620     91.0611E-03     3.77121E-03     90.9829E-03     117.616E-03    -58.6840E-03    -58.9443E-03    -58.7052E-03     117.614E-03    -58.9206E-03     1.22915E-03     123.820E-03     145.762E+06    -67.6602E+06    -77.9012E+06    -218.176E+06    -79.9883E+06    -216.089E+06    -67.6602E+06    -16.8573E+06
            1621     91.1069E-03     4.71510E-03     90.9848E-03     117.439E-03    -58.5318E-03    -58.9167E-03    -58.5228E-03     117.430E-03    -58.9167E-03     2.37471E-03     127.250E-03     146.157E+06    -55.6913E+06    -70.9945E+06    -208.875E+06    -74.0341E+06    -205.836E+06    -55.6913E+06    -19.9244E+06
            1622     91.1630E-03     5.65831E-03     90.9873E-03     117.391E-03    -58.5283E-03    -58.8777E-03    -58.5053E-03     117.368E-03    -58.8777E-03     3.94104E-03     131.819E-03     134.790E+06    -48.2249E+06    -63.9743E+06    -190.182E+06     -68.286E+06    -185.870E+06    -48.2249E+06    -22.7521E+06
            1623     91.2311E-03     6.60148E-03     90.9920E-03     117.325E-03    -58.4973E-03    -58.8622E-03    -58.4468E-03     117.274E-03    -58.8622E-03     5.85295E-03     137.600E-03     134.130E+06    -41.6510E+06    -57.1171E+06    -182.834E+06    -62.4272E+06    -177.524E+06    -41.6510E+06    -25.1415E+06
            1624     91.3107E-03     7.54480E-03     90.9985E-03     117.239E-03    -58.4824E-03    -58.8119E-03    -58.3877E-03     117.144E-03    -58.8119E-03     8.07522E-03     144.516E-03     124.963E+06    -39.2709E+06    -48.9615E+06    -168.749E+06    -56.1675E+06    -161.543E+06    -39.2709E+06    -28.0346E+06
            1625     91.4034E-03     8.48834E-03     91.0084E-03     117.163E-03    -58.4629E-03    -58.7481E-03    -58.2906E-03     116.991E-03    -58.7481E-03     10.8668E-03     152.896E-03     106.043E+06    -38.1416E+06    -42.0437E+06    -146.058E+06    -50.5295E+06    -137.358E+06    -38.3555E+06    -28.6781E+06
            1626     91.5087E-03     9.43096E-03     91.0214E-03     117.030E-03    -58.3386E-03    -58.7016E-03    -57.9702E-03     116.661E-03    -58.7016E-03     15.7335E-03     164.209E-03     89.1258E+06    -34.2348E+06    -38.7133E+06    -125.481E+06    -45.0864E+06    -118.894E+06    -34.4487E+06    -22.7037E+06
            1627     91.6306E-03     10.3760E-03     91.0412E-03     117.074E-03    -58.4076E-03    -58.6616E-03    -57.8632E-03     116.522E-03    -58.6540E-03     19.6310E-03     177.885E-03     62.6280E+06    -29.1804E+06    -34.7206E+06    -94.3644E+06    -39.1374E+06    -89.4009E+06    -29.7271E+06    -15.9792E+06
            1628     91.7637E-03     11.3179E-03     91.0631E-03     117.016E-03    -58.4552E-03    -58.5869E-03    -57.5888E-03     116.095E-03    -58.5319E-03     24.9271E-03     194.171E-03     39.4803E+06    -13.9024E+06    -32.7494E+06    -55.4942E+06    -33.0348E+06    -35.3435E+06    -33.7677E+06    -11.5976E+06
            1629     91.9165E-03     12.2636E-03     91.0947E-03     117.754E-03    -58.3617E-03    -59.4208E-03    -57.0469E-03     115.413E-03    -58.3946E-03     39.2879E-03     218.322E-03     75.3960E+06     43.3439E+06    -30.0021E+06     -33.775E+06    -28.7195E+06     41.4614E+06    -33.1752E+06    -4.44410E+06
            1630     92.1009E-03     13.2095E-03     91.1487E-03     120.124E-03    -58.3914E-03    -61.7620E-03    -56.6896E-03     115.052E-03    -58.3914E-03     59.1113E-03     256.561E-03     125.754E+06     108.076E+06    -3.44186E+06    -26.5295E+06    -25.8920E+06     108.001E+06    -4.00489E+06     2.51232E+06
            1631     92.3126E-03     14.1491E-03     91.2218E-03     131.322E-03    -58.5703E-03    -72.8946E-03    -57.0236E-03     115.451E-03    -58.5703E-03     105.079E-03     313.351E-03     142.387E+06     139.256E+06     49.1624E+06    -22.4201E+06    -22.2766E+06     139.112E+06     49.1624E+06     4.50406E+06
            1632     92.6185E-03     15.0977E-03     91.3797E-03     156.645E-03    -58.7309E-03    -98.0471E-03    -58.6958E-03     117.294E-03    -58.7309E-03     182.112E-03     424.469E-03     157.053E+06     158.983E+06     105.488E+06    -16.6991E+06    -16.6104E+06     158.894E+06     105.488E+06     3.40109E+06
            1633     93.0304E-03     16.0459E-03     91.6361E-03     152.233E-03    -58.7757E-03    -93.5175E-03    -59.2263E-03     117.942E-03    -58.7757E-03     164.946E-03     447.181E-03     168.802E+06     174.030E+06     140.206E+06    -9.09620E+06    -9.07700E+06     174.011E+06     140.206E+06     1.05662E+06
            1634     92.1108E-03     943.781E-06     92.1060E-03     117.727E-03    -58.5994E-03    -59.1317E-03    -58.9907E-03     117.727E-03    -58.7397E-03    -366.900E-06     118.251E-03     165.390E+06    -88.3650E+06    -89.5025E+06    -254.316E+06    -88.7310E+06    -254.062E+06    -89.3907E+06    -5.65996E+06
            1635     92.1259E-03     1.88603E-03     92.1066E-03     117.913E-03    -58.8184E-03    -59.1027E-03    -59.0204E-03     117.913E-03    -58.9000E-03     131.053E-06     119.522E-03     152.620E+06    -82.6694E+06    -85.3292E+06    -236.588E+06    -85.9364E+06    -235.877E+06    -82.7735E+06    -9.79575E+06
            1636     92.1497E-03     2.82807E-03     92.1063E-03     117.846E-03    -58.8269E-03    -59.0288E-03    -58.9124E-03     117.845E-03    -58.9424E-03     611.371E-06     121.341E-03     138.835E+06    -75.8576E+06    -81.2126E+06    -217.288E+06    -82.8545E+06    -215.646E+06    -75.8576E+06    -14.4766E+06
            1637     92.1840E-03     3.77209E-03     92.1068E-03     117.591E-03    -58.6475E-03    -58.9549E-03    -58.6443E-03     117.588E-03    -58.9549E-03     1.37194E-03     123.789E-03     138.044E+06    -66.3471E+06    -76.3856E+06    -209.092E+06    -79.0002E+06    -206.477E+06    -66.3471E+06    -18.3986E+06
            1638     92.2286E-03     4.71478E-03     92.1080E-03     117.498E-03    -58.5753E-03    -58.9328E-03    -58.5653E-03     117.489E-03    -58.9328E-03     2.58177E-03     127.291E-03     137.873E+06    -56.2512E+06    -70.0747E+06    -200.497E+06    -74.3107E+06    -196.261E+06    -56.2512E+06    -22.6084E+06
            1639     92.2853E-03     5.65803E-03     92.1117E-03     117.386E-03    -58.5062E-03    -58.8957E-03    -58.4848E-03     117.365E-03    -58.8957E-03     3.81968E-03     131.814E-03     129.132E+06    -48.8053E+06    -62.1822E+06    -184.089E+06    -68.1970E+06    -178.074E+06    -48.8053E+06    -26.2401E+06
            1640     92.3518E-03     6.60138E-03     92.1155E-03     117.348E-03    -58.5004E-03    -58.8807E-03    -58.4521E-03     117.300E-03    -58.8807E-03     5.69376E-03     137.624E-03     130.411E+06    -41.3305E+06    -54.1609E+06    -177.672E+06    -61.5075E+06    -170.325E+06    -41.3305E+06    -29.0823E+06
            1641     92.4310E-03     7.54452E-03     92.1226E-03     117.279E-03    -58.5010E-03    -58.8310E-03    -58.4037E-03     117.182E-03    -58.8310E-03     8.16766E-03     144.545E-03     120.885E+06    -38.5957E+06    -46.4453E+06    -163.165E+06    -56.0888E+06    -153.522E+06    -38.5957E+06    -31.7900E+06
            1642     92.5224E-03     8.48723E-03     92.1323E-03     117.009E-03    -58.2945E-03    -58.7649E-03    -58.1192E-03     116.834E-03    -58.7649E-03     10.9680E-03     152.781E-03     105.975E+06    -39.2632E+06    -42.5886E+06    -146.851E+06    -52.9182E+06    -136.307E+06    -39.4770E+06    -31.4426E+06
            1643     92.6261E-03     9.43192E-03     92.1447E-03     116.994E-03    -58.3020E-03    -58.6993E-03    -57.9206E-03     116.610E-03    -58.6971E-03     16.0028E-03     164.039E-03     94.9427E+06    -34.6816E+06    -42.1025E+06    -132.990E+06    -48.1166E+06    -122.873E+06    -38.7847E+06    -29.0032E+06
            1644     92.7471E-03     10.3745E-03     92.1651E-03     117.092E-03    -58.4584E-03    -58.6344E-03    -57.8728E-03     116.497E-03    -58.6246E-03     20.3878E-03     177.746E-03     72.4253E+06    -25.9678E+06    -38.4074E+06    -103.437E+06    -38.7970E+06    -92.5140E+06    -36.5009E+06    -25.9925E+06
            1645     92.8797E-03     11.3196E-03     92.1873E-03     116.962E-03    -58.4123E-03    -58.5847E-03    -57.5659E-03     116.044E-03    -58.5129E-03     25.0296E-03     194.119E-03     45.6808E+06    -13.5354E+06    -35.4274E+06    -63.1553E+06    -30.2318E+06    -42.9661E+06    -38.9203E+06    -18.7151E+06
            1646     93.0288E-03     12.2625E-03     92.2171E-03     117.662E-03    -58.3516E-03    -59.3288E-03    -56.9732E-03     115.339E-03    -58.3845E-03     38.9774E-03     218.311E-03     68.2559E+06     33.9990E+06    -31.1210E+06    -36.7684E+06    -26.7555E+06     29.6335E+06    -36.7684E+06    -7.75830E+06
            1647     93.2120E-03     13.2066E-03     92.2716E-03     119.852E-03    -58.3640E-03    -61.5115E-03    -56.5200E-03     114.861E-03    -58.3640E-03     58.6359E-03     256.466E-03     119.393E+06     100.513E+06    -6.25060E+06    -27.3516E+06    -25.0509E+06     100.367E+06    -8.40510E+06     1.54769E+06
            1648     93.4253E-03     14.1555E-03     92.3467E-03     131.629E-03    -58.5422E-03    -73.2255E-03    -57.5683E-03     115.972E-03    -58.5422E-03     104.577E-03     313.458E-03     143.372E+06     139.694E+06     45.7889E+06    -22.4237E+06    -22.2477E+06     139.518E+06     45.7889E+06     5.02284E+06
            1649     93.7270E-03     15.0966E-03     92.5032E-03     157.106E-03    -58.7614E-03    -98.4647E-03    -59.3874E-03     118.029E-03    -58.7614E-03     181.862E-03     424.570E-03     158.975E+06     161.598E+06     105.563E+06    -16.5654E+06    -16.4704E+06     161.503E+06     105.563E+06     3.61866E+06
            1650     94.1320E-03     16.0408E-03     92.7552E-03     152.100E-03    -58.8234E-03    -93.3220E-03    -58.5428E-03     117.321E-03    -58.8234E-03     166.625E-03     447.965E-03     169.469E+06     175.843E+06     141.769E+06    -8.03269E+06    -8.01437E+06     175.824E+06     141.769E+06     1.40414E+06
            1651     93.2347E-03     941.592E-06     93.2299E-03     118.180E-03    -58.7308E-03    -59.4518E-03    -59.3691E-03     118.179E-03    -58.8125E-03    -140.032E-06     118.720E-03     155.126E+06    -84.9308E+06    -87.6965E+06    -241.410E+06    -87.1328E+06    -240.997E+06    -85.9072E+06    -7.66485E+06
            1652     93.2494E-03     1.88563E-03     93.2303E-03     117.814E-03    -58.7815E-03    -59.0375E-03    -58.7856E-03     117.813E-03    -59.0323E-03     366.121E-06     119.422E-03     142.636E+06    -81.4055E+06    -83.5434E+06    -225.088E+06    -84.4899E+06    -224.037E+06    -81.5096E+06    -11.7333E+06
            1653     93.2741E-03     2.82922E-03     93.2312E-03     117.657E-03    -58.7092E-03    -58.9590E-03    -58.7136E-03     117.656E-03    -58.9538E-03     629.587E-06     121.127E-03     131.068E+06    -73.6596E+06    -78.5831E+06    -207.102E+06    -80.7281E+06    -204.957E+06    -73.6596E+06    -16.0902E+06
            1654     93.3065E-03     3.77143E-03     93.2303E-03     117.775E-03    -58.8137E-03    -58.9728E-03    -58.8267E-03     117.772E-03    -58.9571E-03     1.26421E-03     123.948E-03     131.232E+06    -63.4243E+06    -72.6743E+06    -198.996E+06    -76.0972E+06    -195.573E+06    -63.4243E+06    -20.3200E+06
            1655     93.3520E-03     4.71486E-03     93.2328E-03     117.649E-03    -58.6839E-03    -58.9746E-03    -58.6907E-03     117.641E-03    -58.9589E-03     2.42977E-03     127.437E-03     130.785E+06    -54.2304E+06    -64.9549E+06    -190.026E+06    -70.5301E+06    -184.450E+06    -54.2304E+06    -25.3539E+06
            1656     93.4067E-03     5.65769E-03     93.2352E-03     117.390E-03    -58.4829E-03    -58.9259E-03    -58.4611E-03     117.368E-03    -58.9259E-03     3.82196E-03     131.840E-03     125.169E+06    -47.6668E+06    -57.2166E+06    -177.333E+06    -65.0594E+06    -169.490E+06    -47.6668E+06    -29.5869E+06
            1657     93.4730E-03     6.60099E-03     93.2396E-03     117.305E-03    -58.4353E-03    -58.9016E-03    -58.3813E-03     117.251E-03    -58.9016E-03     5.99774E-03     137.563E-03     126.167E+06    -40.0855E+06    -50.5583E+06    -171.157E+06    -60.1003E+06    -161.615E+06    -40.0855E+06    -32.4022E+06
            1658     93.5515E-03     7.54420E-03     93.2468E-03     117.121E-03    -58.3240E-03    -58.8430E-03    -58.2234E-03     117.020E-03    -58.8430E-03     8.33043E-03     144.368E-03     118.305E+06    -36.9336E+06    -44.4705E+06    -158.793E+06    -55.7808E+06    -147.483E+06    -36.9336E+06    -34.0093E+06
            1659     93.6411E-03     8.48845E-03     93.2556E-03     116.938E-03    -58.2242E-03    -58.7597E-03    -58.0515E-03     116.765E-03    -58.7597E-03     10.8755E-03     152.696E-03     108.217E+06    -34.2736E+06    -41.5802E+06    -145.870E+06    -50.2777E+06    -133.244E+06    -38.2022E+06    -34.6251E+06
            1660     93.7440E-03     9.43129E-03     93.2683E-03     117.020E-03    -58.3510E-03    -58.6710E-03    -57.9665E-03     116.633E-03    -58.6689E-03     16.0500E-03     164.033E-03     100.364E+06    -26.8962E+06    -41.5918E+06    -133.656E+06    -43.4563E+06    -118.508E+06    -40.1804E+06    -36.6849E+06
            1661     93.8640E-03     10.3760E-03     93.2887E-03     116.987E-03    -58.3828E-03    -58.5885E-03    -57.7850E-03     116.387E-03    -58.5863E-03     20.4597E-03     177.583E-03     82.8906E+06    -20.7387E+06    -41.8967E+06    -111.978E+06    -37.7550E+06    -94.9618E+06    -41.8967E+06    -35.4076E+06
            1662     93.9944E-03     11.3187E-03     93.3105E-03     117.002E-03    -58.3536E-03    -58.6564E-03    -57.6123E-03     116.091E-03    -58.4862E-03     24.9616E-03     194.072E-03     55.3792E+06    -13.9871E+06    -43.4525E+06    -75.5389E+06    -33.5263E+06    -54.1943E+06    -45.2580E+06    -26.1525E+06
            1663     94.1436E-03     12.2637E-03     93.3414E-03     117.988E-03    -58.3863E-03    -59.6071E-03    -57.3353E-03     115.716E-03    -58.3863E-03     38.6452E-03     218.668E-03     64.1979E+06     23.6432E+06    -35.8191E+06    -44.2707E+06    -29.1307E+06     14.4764E+06    -41.7923E+06    -12.2731E+06
            1664     94.3236E-03     13.2085E-03     93.3942E-03     120.018E-03    -58.3568E-03    -61.6788E-03    -56.7346E-03     115.073E-03    -58.3568E-03     58.3398E-03     256.735E-03     113.986E+06     90.9847E+06    -13.5366E+06    -30.2351E+06    -25.8503E+06     90.7676E+06    -17.7043E+06    -474.604E+03
            1665     94.5346E-03     14.1497E-03     93.4696E-03     131.315E-03    -58.5118E-03    -72.9016E-03    -57.2694E-03     115.683E-03    -58.5118E-03     104.286E-03     313.179E-03     143.972E+06     138.647E+06     36.8162E+06    -21.9536E+06    -21.7930E+06     138.486E+06     36.8162E+06     4.31080E+06
            1666     94.8378E-03     15.0974E-03     93.6284E-03     156.870E-03    -58.7446E-03    -98.2135E-03    -58.9580E-03     117.614E-03    -58.7446E-03     181.967E-03     423.926E-03     158.318E+06     162.751E+06     103.736E+06    -15.0482E+06    -14.9295E+06     162.633E+06     103.736E+06     4.33882E+06
            1667     95.2392E-03     16.0437E-03     93.8781E-03     152.564E-03    -58.8026E-03    -93.7764E-03    -58.3056E-03     117.093E-03    -58.8026E-03     168.778E-03     448.400E-03     171.070E+06     178.193E+06     142.572E+06    -7.82753E+06    -7.78334E+06     178.149E+06     142.572E+06     2.53566E+06
            1668     94.3599E-03     943.838E-06     94.3552E-03     118.107E-03    -58.8250E-03    -59.2841E-03    -59.2835E-03     118.106E-03    -58.8251E-03     122.351E-06     118.643E-03     144.345E+06    -81.2724E+06    -84.6355E+06    -227.262E+06    -84.3596E+06    -226.858E+06    -81.9526E+06    -6.21333E+06
            1669     94.3734E-03     1.88518E-03     94.3546E-03     117.901E-03    -58.8446E-03    -59.0609E-03    -58.8810E-03     117.901E-03    -59.0240E-03     295.162E-06     119.525E-03     131.546E+06    -78.5965E+06    -81.2895E+06    -211.461E+06    -82.6053E+06    -210.145E+06    -78.5965E+06    -12.5882E+06
            1670     94.3965E-03     2.82850E-03     94.3541E-03     117.684E-03    -58.7310E-03    -58.9641E-03    -58.7299E-03     117.683E-03    -58.9641E-03     694.003E-06     121.155E-03     120.715E+06    -73.2575E+06    -76.9815E+06    -195.766E+06    -79.8185E+06    -192.698E+06    -73.4885E+06    -18.2727E+06
            1671     94.4309E-03     3.77195E-03     94.3556E-03     117.813E-03    -58.8521E-03    -58.9760E-03    -58.8648E-03     117.810E-03    -58.9603E-03     1.40282E-03     123.984E-03     121.156E+06    -64.1414E+06    -69.9721E+06    -188.086E+06    -74.9038E+06    -182.923E+06    -64.3723E+06    -23.9055E+06
            1672     94.4741E-03     4.71401E-03     94.3564E-03     117.596E-03    -58.6279E-03    -58.9802E-03    -58.6344E-03     117.587E-03    -58.9645E-03     2.40713E-03     127.399E-03     122.318E+06    -54.1893E+06    -61.8015E+06    -180.134E+06    -69.1357E+06    -172.799E+06    -54.1893E+06    -28.1667E+06
            1673     94.5286E-03     5.65786E-03     94.3591E-03     117.328E-03    -58.4156E-03    -58.9349E-03    -58.3905E-03     117.302E-03    -58.9349E-03     4.08807E-03     131.772E-03     119.290E+06    -45.8195E+06    -54.4620E+06    -169.192E+06    -64.0681E+06    -159.586E+06    -45.8195E+06    -31.6465E+06
            1674     94.5940E-03     6.60102E-03     94.3634E-03     117.235E-03    -58.3721E-03    -58.8950E-03    -58.3171E-03     117.180E-03    -58.8950E-03     6.10816E-03     137.493E-03     120.913E+06    -39.2398E+06    -47.6291E+06    -164.097E+06    -59.3172E+06    -152.408E+06    -39.2398E+06    -34.8961E+06
            1675     94.6718E-03     7.54471E-03     94.3707E-03     117.104E-03    -58.3153E-03    -58.8318E-03    -58.2177E-03     117.007E-03    -58.8318E-03     8.20178E-03     144.350E-03     117.483E+06    -34.4010E+06    -40.5728E+06    -154.814E+06    -53.3255E+06    -140.559E+06    -35.9034E+06    -37.8028E+06
            1676     94.7604E-03     8.48760E-03     94.3795E-03     117.039E-03    -58.3221E-03    -58.7520E-03    -58.1570E-03     116.874E-03    -58.7520E-03     10.6544E-03     152.774E-03     111.128E+06    -28.2086E+06    -37.5048E+06    -143.606E+06    -46.8569E+06    -125.891E+06    -36.5715E+06    -41.0561E+06
            1677     94.8621E-03     9.43177E-03     94.3921E-03     116.995E-03    -58.3161E-03    -58.6767E-03    -57.9421E-03     116.621E-03    -58.6767E-03     15.7529E-03     164.133E-03     103.160E+06    -22.6834E+06    -37.6535E+06    -132.431E+06    -42.2017E+06    -112.913E+06    -37.6535E+06    -41.8483E+06
            1678     94.9801E-03     10.3748E-03     94.4118E-03     116.909E-03    -58.2829E-03    -58.6013E-03    -57.6955E-03     116.322E-03    -58.6013E-03     20.2355E-03     177.485E-03     88.4846E+06    -20.1725E+06    -40.3133E+06    -116.754E+06    -40.1979E+06    -96.7291E+06    -40.3133E+06    -39.0059E+06
            1679     95.1103E-03     11.3198E-03     94.4342E-03     117.038E-03    -58.3313E-03    -58.7065E-03    -57.6227E-03     116.111E-03    -58.4882E-03     25.1258E-03     193.927E-03     65.7464E+06    -13.7975E+06    -47.7418E+06    -87.0725E+06    -37.2612E+06    -63.6088E+06    -47.7418E+06    -33.1440E+06
            1680     95.2574E-03     12.2624E-03     94.4649E-03     118.106E-03    -58.3926E-03    -59.7314E-03    -57.4604E-03     115.835E-03    -58.3926E-03     38.7790E-03     218.825E-03     62.8789E+06     13.4056E+06    -41.5270E+06    -54.9291E+06    -31.1637E+06    -4.57412E+06    -47.3126E+06    -20.2747E+06
            1681     95.4360E-03     13.2056E-03     94.5179E-03     120.358E-03    -58.3497E-03    -62.0235E-03    -56.9784E-03     115.313E-03    -58.3497E-03     58.9313E-03     257.101E-03     107.085E+06     80.1262E+06    -20.6464E+06    -32.1293E+06    -24.7589E+06     78.5414E+06    -26.4321E+06    -4.99748E+06
            1682     95.6464E-03     14.1534E-03     94.5934E-03     131.028E-03    -58.4737E-03    -72.6545E-03    -56.9331E-03     115.307E-03    -58.4737E-03     104.550E-03     313.383E-03     143.084E+06     136.293E+06     25.3602E+06    -20.5305E+06    -20.4517E+06     136.214E+06     25.3602E+06     2.75010E+06
            1683     95.9442E-03     15.0975E-03     94.7489E-03     155.970E-03    -58.6949E-03    -97.3945E-03    -58.0201E-03     116.596E-03    -58.6949E-03     181.441E-03     423.469E-03     157.243E+06     161.146E+06     96.2260E+06    -15.9523E+06    -15.7946E+06     160.988E+06     96.2260E+06     4.86249E+06
            1684     96.3453E-03     16.0450E-03     94.9998E-03     152.491E-03    -58.7518E-03    -93.7812E-03    -58.1066E-03     116.817E-03    -58.7518E-03     169.037E-03     447.721E-03     173.790E+06     181.345E+06     143.165E+06    -8.27174E+06    -8.17088E+06     181.244E+06     143.165E+06     3.87249E+06
            1685     95.4838E-03     942.123E-06     95.4792E-03     117.991E-03    -58.8950E-03    -59.1003E-03    -58.9902E-03     117.991E-03    -59.0049E-03    -56.3131E-06     118.521E-03     136.968E+06    -75.2726E+06    -77.4574E+06    -213.317E+06    -76.7611E+06    -212.967E+06    -76.3190E+06    -5.43348E+06
            1686     95.4977E-03     1.88622E-03     95.4791E-03     117.972E-03    -58.9105E-03    -59.0673E-03    -58.9788E-03     117.972E-03    -58.9988E-03     15.1814E-06     119.592E-03     123.676E+06    -71.4908E+06    -74.0092E+06    -196.399E+06    -75.5147E+06    -194.893E+06    -71.4908E+06    -12.7767E+06
            1687     95.5206E-03     2.82853E-03     95.4787E-03     117.868E-03    -58.8594E-03    -59.0183E-03    -58.8891E-03     117.866E-03    -58.9868E-03     856.911E-06     121.353E-03     113.066E+06    -67.2501E+06    -69.6680E+06    -181.498E+06    -73.3166E+06    -177.619E+06    -67.4810E+06    -19.8787E+06
            1688     95.5545E-03     3.77109E-03     95.4800E-03     117.582E-03    -58.6209E-03    -58.9729E-03    -58.6172E-03     117.578E-03    -58.9729E-03     1.60911E-03     123.772E-03     114.332E+06    -59.1643E+06    -64.6262E+06    -176.088E+06    -70.6918E+06    -169.792E+06    -59.3952E+06    -25.7193E+06
            1689     95.5969E-03     4.71499E-03     95.4806E-03     117.458E-03    -58.5272E-03    -58.9419E-03    -58.5168E-03     117.448E-03    -58.9419E-03     2.55248E-03     127.250E-03     116.916E+06    -49.7500E+06    -57.6505E+06    -170.404E+06    -66.6449E+06    -161.410E+06    -49.7500E+06    -30.2488E+06
            1690     95.6506E-03     5.65774E-03     95.4832E-03     117.400E-03    -58.5084E-03    -58.9123E-03    -58.4813E-03     117.373E-03    -58.9123E-03     4.27947E-03     131.799E-03     115.132E+06    -41.9433E+06    -49.0453E+06    -160.445E+06    -60.9429E+06    -148.548E+06    -41.9433E+06    -34.3272E+06
            1691     95.7159E-03     6.60119E-03     95.4880E-03     117.299E-03    -58.4448E-03    -58.8842E-03    -58.3906E-03     117.245E-03    -58.8842E-03     6.09360E-03     137.545E-03     119.277E+06    -35.0669E+06    -39.8275E+06    -156.616E+06    -54.3771E+06    -142.067E+06    -35.0669E+06    -38.4385E+06
            1692     95.7915E-03     7.54428E-03     95.4940E-03     117.171E-03    -58.3784E-03    -58.8333E-03    -58.2786E-03     117.071E-03    -58.8333E-03     8.27461E-03     144.411E-03     117.737E+06    -29.6343E+06    -32.4567E+06    -148.742E+06    -48.7521E+06    -130.944E+06    -31.1367E+06    -42.0499E+06
            1693     95.8803E-03     8.48806E-03     95.5039E-03     117.022E-03    -58.2827E-03    -58.7708E-03    -58.1103E-03     116.849E-03    -58.7708E-03     10.8916E-03     152.758E-03     110.598E+06    -25.5952E+06    -31.2382E+06    -138.850E+06    -46.2103E+06    -118.420E+06    -31.0532E+06    -43.4498E+06
            1694     95.9796E-03     9.43098E-03     95.5151E-03     117.061E-03    -58.3508E-03    -58.6973E-03    -57.9710E-03     116.681E-03    -58.6973E-03     15.9009E-03     164.214E-03     102.519E+06    -23.3473E+06    -34.5622E+06    -130.913E+06    -45.2014E+06    -109.059E+06    -34.5622E+06    -43.2048E+06
            1695     96.0976E-03     10.3757E-03     95.5358E-03     116.954E-03    -58.3088E-03    -58.6129E-03    -57.7200E-03     116.365E-03    -58.6129E-03     20.2665E-03     177.503E-03     92.6682E+06    -17.5371E+06    -39.3954E+06    -118.790E+06    -41.7623E+06    -94.5651E+06    -39.3954E+06     -42.985E+06
            1696     96.2249E-03     11.3187E-03     95.5569E-03     116.831E-03    -58.2399E-03    -58.5998E-03    -57.3893E-03     115.868E-03    -58.4875E-03     25.5106E-03     193.711E-03     77.3006E+06    -9.00039E+06    -48.8170E+06    -96.3845E+06    -36.5044E+06    -68.8805E+06    -48.8170E+06    -40.2696E+06
            1697     96.3730E-03     12.2636E-03     95.5895E-03     118.071E-03    -58.3330E-03    -59.7516E-03    -57.3548E-03     115.716E-03    -58.3743E-03     39.5653E-03     218.445E-03     65.4681E+06     5.84664E+06    -47.1159E+06    -66.9106E+06    -31.8085E+06    -23.1910E+06    -53.1803E+06    -28.7543E+06
            1698     96.5475E-03     13.2088E-03     95.6396E-03     120.327E-03    -58.2783E-03    -62.0562E-03    -56.9510E-03     115.222E-03    -58.2783E-03     59.3270E-03     256.800E-03     103.194E+06     65.2449E+06    -30.9662E+06    -43.4933E+06    -27.9109E+06     60.6170E+06    -41.9207E+06    -11.0285E+06
            1699     96.7572E-03     14.1502E-03     95.7169E-03     130.430E-03    -58.3636E-03    -72.2093E-03    -56.6245E-03     114.845E-03    -58.3636E-03     103.917E-03     312.723E-03     144.957E+06     129.798E+06     10.2738E+06    -28.5217E+06    -23.4906E+06     129.657E+06     5.38378E+06     703.341E+03
            1700     97.0505E-03     15.0985E-03     95.8689E-03     156.031E-03    -58.6187E-03    -97.5878E-03    -58.2865E-03     116.729E-03    -58.6187E-03     181.418E-03     423.227E-03     158.268E+06     160.535E+06     86.8509E+06    -17.1706E+06    -17.0527E+06     160.417E+06     86.8509E+06     3.98162E+06
            1701     97.4527E-03     16.0449E-03     96.1228E-03     152.318E-03    -58.7169E-03    -93.6777E-03    -57.8588E-03     116.500E-03    -58.7169E-03     169.465E-03     447.783E-03     176.036E+06     183.781E+06     143.912E+06    -8.66967E+06    -8.57902E+06     183.691E+06     143.912E+06     3.64263E+06
            1702     96.6078E-03     943.241E-06     96.6032E-03     118.002E-03    -58.8874E-03    -59.1190E-03    -59.0091E-03     118.002E-03    -58.9972E-03     159.647E-06     118.536E-03     129.315E+06    -67.1747E+06    -69.6792E+06    -197.705E+06    -68.1254E+06    -196.999E+06    -69.4344E+06    -8.55077E+06
            1703     96.6218E-03     1.88534E-03     96.6034E-03     117.928E-03    -58.8607E-03    -59.0741E-03    -58.9396E-03     117.928E-03    -58.9946E-03     288.325E-06     119.555E-03     118.004E+06    -61.3164E+06    -63.9300E+06    -180.588E+06    -64.4193E+06    -178.452E+06    -62.9627E+06    -14.8720E+06
            1704     96.6450E-03     2.82840E-03     96.6036E-03     117.764E-03    -58.7509E-03    -59.0236E-03    -58.7808E-03     117.763E-03    -58.9920E-03     852.141E-06     121.263E-03     112.433E+06    -52.8326E+06    -56.5508E+06    -167.050E+06    -60.5868E+06    -163.014E+06    -52.8326E+06    -20.4509E+06
            1705     96.6773E-03     3.77189E-03     96.6037E-03     117.469E-03    -58.5246E-03    -58.9568E-03    -58.5205E-03     117.465E-03    -58.9568E-03     1.62420E-03     123.667E-03     115.434E+06    -43.5825E+06    -51.4863E+06    -162.745E+06    -57.4995E+06    -156.732E+06    -43.5825E+06    -25.0132E+06
            1706     96.7197E-03     4.71490E-03     96.6047E-03     117.431E-03    -58.5360E-03    -58.9075E-03    -58.5242E-03     117.419E-03    -58.9075E-03     2.78150E-03     127.160E-03     115.895E+06    -38.4751E+06    -44.9291E+06    -157.413E+06    -54.5634E+06    -147.757E+06    -38.4976E+06    -31.1118E+06
            1707     96.7732E-03     5.65822E-03     96.6077E-03     117.438E-03    -58.5805E-03    -58.8747E-03    -58.5528E-03     117.411E-03    -58.8747E-03     4.33791E-03     131.759E-03     113.657E+06    -34.9432E+06    -38.5540E+06    -150.346E+06    -51.7386E+06    -137.139E+06    -34.9656E+06    -36.0700E+06
            1708     96.8368E-03     6.60123E-03     96.6115E-03     117.279E-03    -58.4500E-03    -58.8537E-03    -58.3894E-03     117.218E-03    -58.8537E-03     6.39927E-03     137.498E-03     115.872E+06    -29.5325E+06    -33.1811E+06    -147.178E+06    -49.6751E+06    -130.684E+06    -29.5325E+06    -39.9418E+06
            1709     96.9127E-03     7.54465E-03     96.6186E-03     117.075E-03    -58.2965E-03    -58.8103E-03    -58.1871E-03     116.965E-03    -58.8103E-03     8.69129E-03     144.263E-03     113.781E+06    -26.4116E+06    -28.1928E+06    -141.059E+06    -48.0357E+06    -121.204E+06    -26.4241E+06    -42.8851E+06
            1710     96.9988E-03     8.48804E-03     96.6267E-03     117.018E-03    -58.2875E-03    -58.7487E-03    -58.1016E-03     116.832E-03    -58.7487E-03     11.2997E-03     152.736E-03     108.981E+06    -23.3306E+06    -27.7893E+06    -134.379E+06    -45.1068E+06    -112.788E+06    -27.6043E+06    -43.8310E+06
            1711     97.0989E-03     9.43224E-03     96.6397E-03     117.142E-03    -58.4457E-03    -58.6709E-03    -58.0527E-03     116.750E-03    -58.6709E-03     16.2483E-03     164.227E-03     103.320E+06    -16.9945E+06    -31.8660E+06    -126.733E+06    -41.1971E+06    -102.531E+06    -31.8660E+06    -45.4190E+06
            1712     97.2136E-03     10.3746E-03     96.6584E-03     116.944E-03    -58.3252E-03    -58.5861E-03    -57.7172E-03     116.336E-03    -58.5861E-03     20.5800E-03     177.519E-03     97.3271E+06    -9.41064E+06    -37.7525E+06    -117.456E+06    -37.7543E+06    -89.1128E+06    -37.7525E+06    -47.4306E+06
            1713     97.3409E-03     11.3198E-03     96.6805E-03     116.808E-03    -58.2132E-03    -58.6084E-03    -57.3661E-03     115.824E-03    -58.4717E-03     25.8253E-03     193.703E-03     84.8804E+06    -5.15567E+06    -48.3964E+06    -101.978E+06    -35.8243E+06    -71.3098E+06    -48.3964E+06    -44.9191E+06
            1714     97.4857E-03     12.2639E-03     96.7112E-03     117.921E-03    -58.3038E-03    -59.6377E-03    -57.2135E-03     115.538E-03    -58.3452E-03     39.7368E-03     218.131E-03     70.5554E+06     756.832E+03    -55.2976E+06    -76.9068E+06    -34.3137E+06    -38.5413E+06    -58.5925E+06    -35.1413E+06
            1715     97.6622E-03     13.2065E-03     96.7651E-03     119.583E-03    -58.1789E-03    -61.4280E-03    -56.2939E-03     114.449E-03    -58.1789E-03     59.2581E-03     256.335E-03     99.9852E+06     49.5061E+06    -41.4555E+06    -57.1991E+06    -30.1497E+06     38.2003E+06    -57.1991E+06    -18.7976E+06
            1716     97.8666E-03     14.1550E-03     96.8375E-03     130.364E-03    -58.2003E-03    -72.3059E-03    -56.5630E-03     114.621E-03    -58.2003E-03     104.504E-03     312.311E-03     143.194E+06     119.438E+06    -1.52730E+06    -38.0494E+06    -25.1500E+06     118.987E+06    -13.9760E+06    -3.47251E+06
            1717     98.1602E-03     15.0999E-03     96.9918E-03     156.732E-03    -58.4841E-03    -98.3937E-03    -58.9924E-03     117.331E-03    -58.4841E-03     182.299E-03     423.847E-03     161.005E+06     160.319E+06     73.7490E+06    -19.6242E+06    -19.5521E+06     160.247E+06     73.7490E+06     2.58403E+06
            1718     98.5603E-03     16.0442E-03     97.2456E-03     151.407E-03    -58.6395E-03    -92.8099E-03    -57.1660E-03     115.763E-03    -58.6395E-03     168.548E-03     447.408E-03     178.158E+06     184.791E+06     140.948E+06    -10.9145E+06    -10.8740E+06     184.751E+06     140.948E+06     2.09437E+06
            1719     97.7329E-03     942.638E-06     97.7284E-03     117.874E-03    -58.7475E-03    -59.1306E-03    -59.1019E-03     117.874E-03    -58.7760E-03     229.440E-06     118.410E-03     127.044E+06    -50.0015E+06    -53.1382E+06    -178.561E+06    -52.2204E+06    -177.586E+06    -51.8949E+06    -9.90687E+06
            1720     97.7461E-03     1.88595E-03     97.7279E-03     117.691E-03    -58.7446E-03    -58.9551E-03    -58.7919E-03     117.690E-03    -58.9072E-03     541.944E-06     119.325E-03     113.970E+06    -48.1429E+06    -52.0117E+06    -163.988E+06    -52.5132E+06    -161.283E+06    -50.3454E+06    -16.8697E+06
            1721     97.7690E-03     2.82894E-03     97.7281E-03     117.452E-03    -58.5961E-03    -58.8699E-03    -58.5944E-03     117.451E-03    -58.8699E-03     1.03434E-03     120.949E-03     110.191E+06    -42.7536E+06    -46.4768E+06    -154.733E+06    -50.1809E+06    -150.473E+06    -43.3098E+06    -21.0349E+06
            1722     97.8001E-03     3.77211E-03     97.7273E-03     117.443E-03    -58.6115E-03    -58.8453E-03    -58.6066E-03     117.438E-03    -58.8453E-03     1.75806E-03     123.595E-03     112.389E+06    -33.8338E+06    -39.2495E+06    -148.805E+06    -45.9742E+06    -142.080E+06    -33.8338E+06    -25.8387E+06
            1723     97.8428E-03     4.71538E-03     97.7291E-03     117.402E-03    -58.5740E-03    -58.8408E-03    -58.5606E-03     117.388E-03    -58.8408E-03     2.99087E-03     127.077E-03     114.498E+06    -26.5966E+06    -31.3919E+06    -143.381E+06    -41.5212E+06    -133.230E+06    -26.6190E+06    -31.9663E+06
            1724     97.8949E-03     5.65855E-03     97.7312E-03     117.230E-03    -58.4271E-03    -58.8222E-03    -58.3968E-03     117.200E-03    -58.8222E-03     4.53320E-03     131.525E-03     115.932E+06    -21.6740E+06    -26.3953E+06    -139.867E+06    -38.7184E+06    -127.521E+06    -21.6965E+06    -35.2712E+06
            1725     97.9585E-03     6.60196E-03     97.7357E-03     117.067E-03    -58.3019E-03    -58.7883E-03    -58.2362E-03     117.001E-03    -58.7883E-03     6.66069E-03     137.178E-03     114.792E+06    -17.6009E+06    -22.4535E+06    -134.738E+06    -37.4411E+06    -119.751E+06    -17.6009E+06    -37.9478E+06
            1726     98.0327E-03     7.54557E-03     97.7419E-03     117.046E-03    -58.3109E-03    -58.7473E-03    -58.1929E-03     116.928E-03    -58.7473E-03     9.02834E-03     144.128E-03     113.158E+06    -15.7712E+06    -18.0482E+06    -130.035E+06    -36.3843E+06    -111.686E+06    -15.7837E+06    -41.2007E+06
            1727     98.1190E-03     8.48921E-03     97.7510E-03     117.032E-03    -58.3342E-03    -58.6922E-03    -58.1342E-03     116.832E-03    -58.6922E-03     11.7279E-03     152.677E-03     110.857E+06    -12.3740E+06    -19.0390E+06    -126.266E+06    -35.0220E+06    -103.700E+06    -18.9574E+06    -45.1731E+06
            1728     98.2173E-03     9.43188E-03     97.7633E-03     116.908E-03    -58.2927E-03    -58.6096E-03    -57.8668E-03     116.482E-03    -58.6096E-03     16.8733E-03     163.875E-03     107.253E+06    -5.49366E+06    -24.4935E+06    -120.837E+06    -32.3933E+06    -93.9374E+06    -24.4935E+06    -48.7372E+06
            1729     98.3311E-03     10.3770E-03     97.7821E-03     116.955E-03    -58.2998E-03    -58.6686E-03    -57.7869E-03     116.307E-03    -58.5340E-03     21.2550E-03     177.478E-03     99.8851E+06    -2.42581E+06    -30.3271E+06    -113.131E+06    -30.9871E+06    -84.5702E+06    -30.3271E+06    -48.3791E+06
            1730     98.4561E-03     11.3199E-03     97.8031E-03     117.040E-03    -58.3425E-03    -58.7219E-03    -57.6034E-03     116.025E-03    -58.4455E-03     26.2887E-03     193.837E-03     86.8000E+06    -3.30262E+06    -41.0572E+06    -101.842E+06    -32.5426E+06    -72.6024E+06    -41.0572E+06    -44.8484E+06
            1731     98.6009E-03     12.2635E-03     97.8353E-03     117.574E-03    -58.2898E-03    -59.2987E-03    -56.8056E-03     115.080E-03    -58.2898E-03     40.4827E-03     217.766E-03     76.2508E+06     1.21798E+06    -56.5529E+06    -82.1103E+06    -32.6937E+06    -47.7587E+06    -56.9928E+06    -39.9590E+06
            1732     98.7729E-03     13.2106E-03     97.8854E-03     119.078E-03    -58.0762E-03    -61.0301E-03    -55.8905E-03     113.938E-03    -58.0762E-03     59.3401E-03     255.681E-03     95.9204E+06     37.3406E+06    -48.1796E+06    -65.7957E+06    -29.4622E+06     16.8141E+06    -63.9866E+06    -27.8506E+06
            1733     98.9762E-03     14.1552E-03     97.9588E-03     130.704E-03    -58.0281E-03    -72.7834E-03    -56.9126E-03     114.833E-03    -58.0281E-03     104.913E-03     312.152E-03     135.076E+06     103.696E+06    -15.4444E+06    -42.2218E+06    -24.6257E+06     101.467E+06    -30.8115E+06    -8.72016E+06
            1734     99.2720E-03     15.0997E-03     98.1170E-03     156.631E-03    -58.2895E-03    -98.4485E-03    -58.7895E-03     116.972E-03    -58.2895E-03     182.743E-03     423.893E-03     161.614E+06     159.206E+06     56.9220E+06    -18.6473E+06    -18.6013E+06     159.160E+06     56.9220E+06     1.00316E+06
            1735     99.6666E-03     16.0470E-03     98.3662E-03     150.167E-03    -58.4905E-03    -91.7390E-03    -56.2397E-03     114.668E-03    -58.4905E-03     167.169E-03     445.926E-03     177.442E+06     186.362E+06     136.361E+06    -9.88380E+06    -9.85428E+06     186.333E+06     136.361E+06     477.577E+03
            1736     98.8568E-03     943.277E-06     98.8523E-03     117.501E-03    -58.4530E-03    -59.0512E-03    -58.9747E-03     117.501E-03    -58.5290E-03     319.519E-06     118.035E-03     123.339E+06    -34.6418E+06    -36.3964E+06    -158.839E+06    -36.7043E+06    -158.020E+06    -35.1532E+06    -8.77268E+06
            1737     98.8700E-03     1.88605E-03     98.8520E-03     117.318E-03    -58.5770E-03    -58.7480E-03    -58.5933E-03     117.318E-03    -58.7314E-03     521.194E-06     118.931E-03     114.013E+06    -30.4208E+06    -33.3998E+06    -145.885E+06    -35.1161E+06    -143.498E+06    -31.0912E+06    -15.8083E+06
            1738     98.8921E-03     2.82975E-03     98.8517E-03     117.279E-03    -58.5784E-03    -58.7145E-03    -58.5931E-03     117.277E-03    -58.6978E-03     1.05129E-03     120.746E-03     113.089E+06    -27.3945E+06    -29.8309E+06    -141.677E+06    -33.5777E+06    -137.114E+06    -28.2103E+06    -21.9656E+06
            1739     98.9238E-03     3.77283E-03     98.8518E-03     117.228E-03    -58.5521E-03    -58.6937E-03    -58.5455E-03     117.222E-03    -58.6937E-03     2.08542E-03     123.330E-03     111.502E+06    -21.7009E+06    -23.6133E+06    -134.145E+06    -31.1338E+06    -126.365E+06    -21.9605E+06    -27.9521E+06
            1740     98.9653E-03     4.71576E-03     98.8529E-03     117.070E-03    -58.3783E-03    -58.7064E-03    -58.3604E-03     117.052E-03    -58.7064E-03     3.41096E-03     126.739E-03     115.771E+06    -12.3544E+06    -18.6146E+06    -131.083E+06    -28.5694E+06    -121.128E+06    -12.3544E+06    -31.9220E+06
            1741     99.0172E-03     5.65934E-03     98.8553E-03     116.849E-03    -58.1972E-03    -58.6738E-03    -58.1570E-03     116.809E-03    -58.6738E-03     5.18142E-03     131.076E-03     118.567E+06    -7.61465E+06    -14.8903E+06    -129.618E+06    -25.9916E+06    -117.991E+06    -8.14069E+06    -34.5556E+06
            1742     99.0793E-03     6.60314E-03     98.8590E-03     116.811E-03    -58.2146E-03    -58.6178E-03    -58.1355E-03     116.732E-03    -58.6178E-03     7.32519E-03     136.702E-03     115.077E+06    -6.34965E+06    -10.1417E+06    -123.267E+06    -22.8774E+06    -109.316E+06    -7.56484E+06    -37.3911E+06
            1743     99.1534E-03     7.54667E-03     98.8658E-03     116.817E-03    -58.2336E-03    -58.5860E-03    -58.0931E-03     116.676E-03    -58.5860E-03     9.79961E-03     143.680E-03     114.799E+06    -2.70624E+06     -5.8561E+06    -119.033E+06    -20.0871E+06    -102.652E+06    -4.85663E+06    -40.1768E+06
            1744     99.2388E-03     8.48975E-03     98.8750E-03     116.627E-03    -58.0941E-03    -58.5302E-03    -57.8566E-03     116.390E-03    -58.5302E-03     12.7374E-03     151.957E-03     111.182E+06     2.09142E+06    -6.02727E+06    -112.822E+06    -18.9251E+06    -91.8876E+06    -5.94561E+06    -44.1423E+06
            1745     99.3347E-03     9.43473E-03     98.8856E-03     116.726E-03    -58.1194E-03    -58.6127E-03    -57.8061E-03     116.252E-03    -58.4522E-03     17.8506E-03     163.239E-03     106.630E+06     3.47346E+06    -13.7080E+06    -110.610E+06    -21.3628E+06    -85.7734E+06    -13.7080E+06    -46.9705E+06
            1746     99.4484E-03     10.3779E-03     98.9055E-03     116.909E-03    -58.2398E-03    -58.6795E-03    -57.8169E-03     116.191E-03    -58.3844E-03     22.3537E-03     177.008E-03     99.4753E+06     797.789E+03    -23.5527E+06    -108.481E+06    -25.1026E+06    -82.5811E+06    -23.5527E+06    -46.3931E+06
            1747     99.5740E-03     11.3213E-03     98.9283E-03     116.761E-03    -58.2500E-03    -58.5168E-03    -57.3638E-03     115.657E-03    -58.2998E-03     27.4002E-03     193.129E-03     89.6250E+06     2.18861E+06    -33.5705E+06    -99.2258E+06    -25.4681E+06    -71.5691E+06    -33.5705E+06    -45.0575E+06
            1748     99.7131E-03     12.2669E-03     98.9556E-03     117.441E-03    -58.1455E-03    -59.3113E-03    -56.7595E-03     114.890E-03    -58.1455E-03     41.0737E-03     217.218E-03     81.5408E+06     8.45085E+06    -49.1018E+06    -82.3413E+06    -24.5053E+06    -49.3851E+06    -49.1018E+06    -43.1448E+06
            1749     99.8855E-03     13.2110E-03     99.0080E-03     119.532E-03    -57.9449E-03    -61.6377E-03    -56.4106E-03     114.305E-03    -57.9449E-03     59.9930E-03     255.059E-03     89.9694E+06     27.2970E+06    -47.1060E+06    -71.8881E+06    -25.0036E+06    -1.39288E+06    -65.3006E+06    -33.3242E+06
            1750     100.087E-03     14.1562E-03     99.0812E-03     131.121E-03    -57.8098E-03    -73.3807E-03    -56.9883E-03     114.728E-03    -57.8098E-03     106.588E-03     311.591E-03     126.707E+06     84.3518E+06    -26.2416E+06    -52.2478E+06    -22.4265E+06     79.1548E+06    -50.8658E+06    -14.9562E+06
            1751     100.382E-03     15.1029E-03     99.2396E-03     155.905E-03    -57.9925E-03    -97.9980E-03    -57.4978E-03     115.405E-03    -57.9925E-03     183.857E-03     422.893E-03     161.396E+06     155.062E+06     41.5058E+06    -22.5109E+06    -15.7481E+06     154.729E+06     35.0763E+06    -2.76385E+06
            1752     100.773E-03     16.0498E-03     99.4870E-03     149.529E-03    -58.2325E-03    -91.4001E-03    -55.4049E-03     113.533E-03    -58.2325E-03     167.544E-03     444.496E-03     175.791E+06     187.213E+06     129.487E+06    -8.17035E+06    -8.16181E+06     187.204E+06     129.487E+06    -84.4132E+03
            1753     99.9801E-03     943.131E-06     99.9757E-03     116.815E-03    -58.1674E-03    -58.6486E-03    -58.4903E-03     116.814E-03    -58.3252E-03     135.327E-06     117.338E-03     117.284E+06    -20.3983E+06    -21.8845E+06    -138.413E+06    -21.4185E+06    -137.393E+06    -21.8845E+06    -10.0774E+06
            1754     99.9938E-03     1.88726E-03     99.9760E-03     116.870E-03    -58.3777E-03    -58.4968E-03    -58.4482E-03     116.869E-03    -58.4253E-03     788.821E-06     118.461E-03     112.116E+06    -15.6437E+06    -17.9211E+06    -128.872E+06    -19.3016E+06    -126.352E+06    -16.7837E+06    -16.2782E+06
            1755     100.015E-03     2.82991E-03     99.9751E-03     116.839E-03    -58.3486E-03    -58.5023E-03    -58.3825E-03     116.836E-03    -58.4648E-03     1.41725E-03     120.275E-03     115.255E+06    -9.37180E+06    -12.1350E+06    -125.972E+06    -16.4189E+06    -121.216E+06    -9.84358E+06    -22.5208E+06
            1756     100.047E-03     3.77349E-03     99.9761E-03     116.489E-03    -58.0805E-03    -58.4267E-03    -58.0679E-03     116.477E-03    -58.4267E-03     2.77186E-03     122.520E-03     112.056E+06    -6.82404E+06    -8.84647E+06    -119.868E+06    -15.5960E+06    -112.859E+06    -7.08364E+06    -26.8649E+06
            1757     100.088E-03     4.71752E-03     99.9767E-03     116.321E-03    -57.9622E-03    -58.3771E-03    -57.9325E-03     116.291E-03    -58.3771E-03     4.41790E-03     125.871E-03     114.954E+06    -2.06422E+06    -5.92861E+06    -118.835E+06    -14.8367E+06    -109.733E+06    -2.25833E+06    -30.6472E+06
            1758     100.139E-03     5.66142E-03     99.9784E-03     116.303E-03    -57.9827E-03    -58.3410E-03    -57.9235E-03     116.244E-03    -58.3410E-03     6.30640E-03     130.276E-03     119.151E+06     2.63642E+06    -1.19108E+06    -118.312E+06    -12.2143E+06    -106.523E+06     1.87038E+06    -35.2206E+06
            1759     100.200E-03     6.60505E-03     99.9823E-03     116.235E-03    -57.9659E-03    -58.2883E-03    -57.8479E-03     116.117E-03    -58.2883E-03     8.87048E-03     135.794E-03     116.513E+06     3.72119E+06     1.36847E+06    -113.943E+06    -10.1031E+06    -100.118E+06     1.36847E+06    -37.8320E+06
            1760     100.274E-03     7.54866E-03     99.9896E-03     116.085E-03    -57.8511E-03    -58.2460E-03    -57.6568E-03     115.890E-03    -58.2460E-03     11.5143E-03     142.517E-03     114.699E+06     7.88343E+06     2.88112E+06    -109.226E+06    -8.55601E+06    -92.7870E+06     2.88112E+06    -40.5421E+06
            1761     100.358E-03     8.49368E-03     99.9975E-03     116.058E-03    -57.8421E-03    -58.2281E-03    -57.5665E-03     115.749E-03    -58.1943E-03     14.5043E-03     150.788E-03     109.996E+06     10.9579E+06     3.51085E+06    -102.533E+06    -7.85265E+06    -83.7223E+06     3.51085E+06    -42.1353E+06
            1762     100.454E-03     9.43685E-03     100.009E-03     116.433E-03    -58.0332E-03    -58.4083E-03    -57.7052E-03     115.837E-03    -58.1397E-03     19.9916E-03     162.264E-03     104.810E+06     10.3055E+06    -1.86320E+06    -99.9623E+06    -9.16800E+06    -80.4888E+06    -1.86320E+06    -41.9464E+06
            1763     100.567E-03     10.3806E-03     100.030E-03     116.434E-03    -58.0224E-03    -58.4149E-03    -57.4910E-03     115.560E-03    -58.0722E-03     24.5837E-03     175.711E-03     99.8270E+06     9.40883E+06    -12.4856E+06    -99.3559E+06    -11.8703E+06    -78.0768E+06    -12.4856E+06    -42.9297E+06
            1764     100.689E-03     11.3260E-03     100.050E-03     116.481E-03    -57.9341E-03    -58.5586E-03    -57.2430E-03     115.215E-03    -57.9839E-03     29.3890E-03     191.756E-03     91.4430E+06     10.9539E+06    -24.9899E+06    -92.4401E+06    -14.9358E+06    -66.5505E+06    -24.9899E+06    -44.3992E+06
            1765     100.829E-03     12.2695E-03     100.080E-03     117.801E-03    -57.8755E-03    -59.9559E-03    -57.2109E-03     115.056E-03    -57.8755E-03     42.8078E-03     216.494E-03     82.0641E+06     13.0965E+06    -40.6323E+06    -79.9804E+06    -17.8694E+06    -49.0145E+06    -40.6323E+06    -43.6382E+06
            1766     100.998E-03     13.2143E-03     100.130E-03     120.165E-03    -57.7289E-03    -62.5004E-03    -56.9143E-03     114.579E-03    -57.7289E-03     62.1880E-03     254.797E-03     82.8475E+06     20.6104E+06    -43.9866E+06    -72.4593E+06    -18.7746E+06    -16.5356E+06    -60.5252E+06    -35.7112E+06
            1767     101.200E-03     14.1598E-03     100.204E-03     130.944E-03    -57.5385E-03    -73.4623E-03    -56.7398E-03     114.222E-03    -57.5385E-03     107.832E-03     311.287E-03     120.663E+06     69.7572E+06    -28.9158E+06    -64.0657E+06    -18.2625E+06     59.1039E+06    -64.0657E+06    -21.4128E+06
            1768     101.490E-03     15.1056E-03     100.360E-03     154.719E-03    -57.6189E-03    -97.1535E-03    -56.3345E-03     113.900E-03    -57.6189E-03     183.533E-03     421.743E-03     160.289E+06     144.764E+06     27.5988E+06    -35.5126E+06    -16.1480E+06     144.011E+06     8.98755E+06    -7.69871E+06
            1769     101.877E-03     16.0579E-03     100.604E-03     148.629E-03    -57.8580E-03    -90.8841E-03    -54.3949E-03     112.140E-03    -57.8580E-03     168.012E-03     443.284E-03     174.374E+06     184.771E+06     117.167E+06    -9.18849E+06    -9.15865E+06     184.741E+06     117.167E+06    -531.632E+03
            1770     101.104E-03     944.326E-06     101.100E-03     115.907E-03    -57.8045E-03    -58.1061E-03    -57.9671E-03     115.906E-03    -57.9425E-03     525.313E-06     116.411E-03     114.751E+06    -1.34369E+06    -4.17809E+06    -117.471E+06    -4.21107E+06    -116.463E+06    -2.31856E+06    -9.39662E+06
            1771     101.116E-03     1.88726E-03     101.099E-03     115.777E-03    -57.7930E-03    -57.9899E-03    -57.8436E-03     115.772E-03    -57.9350E-03     1.46272E-03     117.333E-03     109.761E+06    -1.37015E+06    -2.96081E+06    -111.915E+06    -4.68901E+06    -109.161E+06    -2.39590E+06    -16.8819E+06
            1772     101.139E-03     2.83164E-03     101.099E-03     115.564E-03    -57.6436E-03    -57.9333E-03    -57.6538E-03     115.554E-03    -57.9125E-03     2.55672E-03     118.901E-03     112.400E+06     2.86611E+06     798.856E+03    -110.546E+06    -3.71412E+06    -105.820E+06     2.65393E+06    -22.3110E+06
            1773     101.168E-03     3.77586E-03     101.098E-03     115.323E-03    -57.4818E-03    -57.8569E-03    -57.4572E-03     115.298E-03    -57.8569E-03     3.96792E-03     121.196E-03     114.271E+06     8.31824E+06     5.77700E+06    -107.195E+06     -44.385E+03    -100.602E+06     7.54626E+06    -26.5079E+06
            1774     101.209E-03     4.72039E-03     101.099E-03     115.177E-03    -57.4120E-03    -57.7803E-03    -57.3563E-03     115.121E-03    -57.7803E-03     6.00478E-03     124.433E-03     116.464E+06     12.5551E+06     9.79870E+06    -105.244E+06     3.36987E+06    -96.1984E+06     9.93795E+06    -31.2082E+06
            1775     101.260E-03     5.66434E-03     101.101E-03     115.165E-03    -57.4299E-03    -57.7498E-03    -57.3260E-03     115.061E-03    -57.7498E-03     8.25869E-03     128.724E-03     122.340E+06     16.8402E+06     14.4401E+06    -106.661E+06     5.19051E+06    -95.5208E+06     14.9492E+06    -35.2632E+06
            1776     101.320E-03     6.60883E-03     101.105E-03     114.980E-03    -57.2997E-03    -57.6925E-03    -57.1082E-03     114.788E-03    -57.6925E-03     11.2398E-03     133.980E-03     122.086E+06     19.5304E+06     14.8422E+06    -104.762E+06     6.34832E+06    -92.0893E+06     15.3513E+06    -37.4349E+06
            1777     101.393E-03     7.55395E-03     101.111E-03     115.002E-03    -57.3012E-03    -57.7145E-03    -57.0886E-03     114.696E-03    -57.6211E-03     14.3261E-03     140.632E-03     115.293E+06     20.2342E+06     12.6154E+06    -98.6534E+06     5.52782E+06    -83.9471E+06     12.6154E+06    -39.0155E+06
            1778     101.476E-03     8.49767E-03     101.119E-03     115.242E-03    -57.4886E-03    -57.7619E-03    -57.1974E-03     114.777E-03    -57.5879E-03     17.6492E-03     149.034E-03     110.596E+06     19.6107E+06     12.0643E+06    -94.5342E+06     3.61015E+06    -78.5336E+06     12.0643E+06    -39.5316E+06
            1779     101.572E-03     9.44263E-03     101.132E-03     115.420E-03    -57.5354E-03    -57.8873E-03    -57.0585E-03     114.591E-03    -57.5354E-03     23.5140E-03     160.182E-03     105.884E+06     19.0144E+06     6.83644E+06    -92.3336E+06     2.63070E+06    -75.9499E+06     6.83644E+06    -39.4100E+06
            1780     101.683E-03     10.3878E-03     101.151E-03     115.863E-03    -57.4825E-03    -58.3956E-03    -57.2447E-03     114.712E-03    -57.4825E-03     28.1383E-03     173.644E-03     99.5845E+06     19.0899E+06    -2.73227E+06    -89.4018E+06     1.52742E+06    -71.8393E+06    -2.73227E+06    -39.8789E+06
            1781     101.805E-03     11.3312E-03     101.173E-03     116.441E-03    -57.4403E-03    -59.0358E-03    -57.4556E-03     114.860E-03    -57.4403E-03     32.8521E-03     190.263E-03     89.0533E+06     18.4344E+06    -15.8007E+06    -82.2144E+06    -2.57637E+06    -61.2036E+06    -15.8007E+06    -40.5081E+06
            1782     101.944E-03     12.2758E-03     101.203E-03     117.820E-03    -57.3934E-03    -60.4613E-03    -57.2419E-03     114.601E-03    -57.3934E-03     46.4697E-03     214.937E-03     78.0539E+06     16.6093E+06    -30.3536E+06    -72.8292E+06    -8.40163E+06    -47.8183E+06    -30.3536E+06    -39.7293E+06
            1783     102.112E-03     13.2202E-03     101.253E-03     120.824E-03    -57.2806E-03    -63.5929E-03    -57.2204E-03     114.452E-03    -57.2806E-03     66.5968E-03     253.649E-03     76.8365E+06     17.8320E+06    -41.3269E+06    -68.8441E+06    -14.0739E+06    -24.6151E+06    -53.6501E+06    -35.5427E+06
            1784     102.312E-03     14.1637E-03     101.327E-03     131.296E-03    -57.0759E-03    -74.2809E-03    -57.0130E-03     114.028E-03    -57.0759E-03     110.386E-03     310.714E-03     117.907E+06     57.9287E+06    -33.2033E+06    -74.9670E+06    -17.3542E+06     42.0796E+06    -74.9670E+06    -25.5620E+06
            1785     102.596E-03     15.1126E-03     101.477E-03     154.768E-03    -57.0907E-03    -97.7242E-03    -56.3039E-03     113.348E-03    -57.0907E-03     184.825E-03     420.837E-03     157.517E+06     131.558E+06     11.8491E+06    -46.2463E+06    -15.0421E+06     129.794E+06    -17.5915E+06    -11.5368E+06
            1786     102.983E-03     16.0602E-03     101.723E-03     147.952E-03    -57.3282E-03    -90.7591E-03    -53.3959E-03     110.589E-03    -57.3282E-03     169.666E-03     442.405E-03     170.650E+06     179.397E+06     100.272E+06    -8.85614E+06    -8.79843E+06     179.339E+06     100.272E+06    -2.25163E+06
            1787     102.225E-03     943.994E-06     102.221E-03     113.965E-03    -56.7360E-03    -57.2327E-03    -57.1681E-03     113.961E-03    -56.7966E-03     1.45242E-03     114.450E-03     111.011E+06     14.4774E+06     9.78425E+06    -98.7743E+06     11.6519E+06    -97.8084E+06     11.6438E+06    -8.32959E+06
            1788     102.238E-03     1.88962E-03     102.221E-03     113.684E-03    -56.7377E-03    -56.9539E-03    -56.7267E-03     113.673E-03    -56.9539E-03     2.55315E-03     115.174E-03     110.310E+06     18.1065E+06     16.3335E+06    -93.0772E+06     14.0507E+06    -90.4317E+06     17.7437E+06    -16.6427E+06
            1789     102.259E-03     2.83471E-03     102.220E-03     113.471E-03    -56.6090E-03    -56.8742E-03    -56.5833E-03     113.445E-03    -56.8742E-03     4.01905E-03     116.647E-03     116.528E+06     22.7149E+06     18.0713E+06    -95.9923E+06     16.4003E+06    -91.2241E+06     19.6177E+06    -22.8504E+06
            1790     102.290E-03     3.77968E-03     102.220E-03     113.384E-03    -56.5914E-03    -56.8041E-03    -56.5351E-03     113.328E-03    -56.8041E-03     5.91190E-03     119.003E-03     117.312E+06     26.3405E+06     19.9501E+06    -93.9733E+06     18.4197E+06    -86.5286E+06     20.4262E+06    -28.8068E+06
            1791     102.329E-03     4.72451E-03     102.219E-03     113.162E-03    -56.4291E-03    -56.7440E-03    -56.3108E-03     113.044E-03    -56.7440E-03     8.62687E-03     121.994E-03     119.444E+06     28.8900E+06     22.1398E+06    -93.7684E+06     19.7357E+06    -84.6141E+06     22.1398E+06    -32.2074E+06
            1792     102.379E-03     5.67044E-03     102.222E-03     112.934E-03    -56.2627E-03    -56.6816E-03    -56.0567E-03     112.728E-03    -56.6816E-03     11.5433E-03     125.817E-03     122.698E+06     30.9628E+06     23.7540E+06    -95.1431E+06     20.0453E+06    -84.7346E+06     24.2631E+06    -34.5918E+06
            1793     102.439E-03     6.61593E-03     102.225E-03     112.969E-03    -56.2900E-03    -56.6813E-03    -56.0177E-03     112.622E-03    -56.6069E-03     14.9545E-03     131.042E-03     124.846E+06     32.6003E+06     24.4801E+06    -96.0523E+06     20.3697E+06    -84.3307E+06     24.9892E+06    -36.8448E+06
            1794     102.511E-03     7.56142E-03     102.231E-03     113.240E-03    -56.4231E-03    -56.8162E-03    -56.1583E-03     112.692E-03    -56.5330E-03     18.9432E-03     137.598E-03     117.678E+06     32.4142E+06     21.2690E+06    -90.3662E+06     20.1361E+06    -78.0881E+06     21.2690E+06    -36.7273E+06
            1795     102.594E-03     8.50702E-03     102.241E-03     113.596E-03    -56.5091E-03    -57.0855E-03    -56.3150E-03     112.825E-03    -56.5091E-03     22.6179E-03     145.826E-03     113.132E+06     32.3590E+06     20.2965E+06    -86.2687E+06     19.2776E+06    -73.1874E+06     20.2965E+06    -36.9960E+06
            1796     102.688E-03     9.45226E-03     102.252E-03     114.252E-03    -56.4934E-03    -57.7582E-03    -56.5282E-03     113.022E-03    -56.4934E-03     28.5264E-03     157.034E-03     109.269E+06     30.7179E+06     15.9573E+06    -85.1298E+06     17.3474E+06    -71.7593E+06     15.9573E+06    -36.8088E+06
            1797     102.800E-03     10.3972E-03     102.273E-03     115.124E-03    -56.4886E-03    -58.6362E-03    -56.9654E-03     113.453E-03    -56.4886E-03     33.7075E-03     170.455E-03     99.5251E+06     28.0279E+06     4.72073E+06    -80.8978E+06     13.7232E+06    -66.5930E+06     4.72073E+06    -36.4882E+06
            1798     102.922E-03     11.3417E-03     102.295E-03     116.068E-03    -56.5091E-03    -59.5719E-03    -57.4076E-03     113.904E-03    -56.5091E-03     38.4385E-03     187.314E-03     87.3979E+06     24.6388E+06    -8.68961E+06    -74.2348E+06     9.03255E+06    -58.6285E+06    -8.68961E+06    -35.8325E+06
            1799     103.058E-03     12.2861E-03     102.323E-03     118.040E-03    -56.5514E-03    -61.5121E-03    -57.6284E-03     114.157E-03    -56.5514E-03     51.4159E-03     212.709E-03     73.1079E+06     19.5500E+06    -22.8603E+06    -64.1342E+06     2.51202E+06    -47.0962E+06    -22.8603E+06    -33.2660E+06
            1800     103.227E-03     13.2312E-03     102.376E-03     120.870E-03    -56.5206E-03    -64.3725E-03    -57.1558E-03     113.654E-03    -56.5206E-03     70.9864E-03     250.954E-03     69.1322E+06     19.2675E+06    -35.6293E+06    -57.8399E+06    -5.06884E+06    -24.9723E+06    -44.1605E+06    -31.5734E+06
            1801     103.426E-03     14.1766E-03     102.449E-03     131.903E-03    -56.3246E-03    -75.6097E-03    -57.2629E-03     113.556E-03    -56.3246E-03     114.624E-03     308.339E-03     110.786E+06     50.2068E+06    -29.6012E+06    -75.0631E+06    -10.7107E+06     31.3162E+06    -75.0631E+06    -26.2861E+06
            1802     103.705E-03     15.1209E-03     102.596E-03     155.666E-03    -56.2887E-03    -99.4163E-03    -56.8835E-03     113.133E-03    -56.2887E-03     188.018E-03     419.822E-03     152.188E+06     117.144E+06    -1.56352E+06    -51.6293E+06    -11.9873E+06     114.432E+06    -38.4942E+06    -14.5459E+06
            1803     104.088E-03     16.0735E-03     102.840E-03     147.583E-03    -56.5661E-03    -91.1603E-03    -52.8545E-03     109.277E-03    -56.5661E-03     171.728E-03     441.397E-03     166.251E+06     171.371E+06     82.5780E+06    -8.11977E+06    -7.88804E+06     171.140E+06     82.5780E+06    -4.16255E+06
            1804     103.344E-03     946.990E-06     103.340E-03     110.459E-03    -55.0604E-03    -55.4033E-03    -55.3634E-03     110.452E-03    -55.0933E-03     1.89527E-03     110.918E-03     111.516E+06     35.5418E+06     28.4398E+06    -79.3068E+06     32.9615E+06    -78.2972E+06     30.0106E+06    -9.22992E+06
            1805     103.356E-03     1.89271E-03     103.338E-03     110.261E-03    -55.0887E-03    -55.1807E-03    -55.0672E-03     110.236E-03    -55.1772E-03     3.83057E-03     111.657E-03     105.550E+06     34.3470E+06     28.0822E+06    -74.1310E+06     30.5273E+06    -71.1566E+06     28.9275E+06    -17.1349E+06
            1806     103.377E-03     2.83907E-03     103.338E-03     110.067E-03    -54.9505E-03    -55.1248E-03    -54.8840E-03     110.000E-03    -55.1248E-03     6.23855E-03     113.037E-03     113.840E+06     37.7100E+06     29.1238E+06    -80.1358E+06     31.1210E+06    -74.3922E+06     29.9691E+06    -24.9075E+06
            1807     103.407E-03     3.78592E-03     103.337E-03     109.891E-03    -54.8497E-03    -55.0464E-03    -54.7108E-03     109.752E-03    -55.0464E-03     9.19976E-03     115.127E-03     115.622E+06     40.2430E+06     29.8281E+06    -80.2220E+06     32.0674E+06    -72.0464E+06     29.8281E+06    -30.2621E+06
            1808     103.446E-03     4.73295E-03     103.338E-03     109.744E-03    -54.7665E-03    -54.9835E-03    -54.5164E-03     109.494E-03    -54.9835E-03     12.4615E-03     117.977E-03     122.718E+06     43.6120E+06     31.9011E+06    -84.5125E+06     33.8854E+06    -74.7859E+06     31.9011E+06    -33.9173E+06
            1809     103.494E-03     5.67985E-03     103.338E-03     109.625E-03    -54.6641E-03    -54.9682E-03    -54.3068E-03     109.210E-03    -54.9103E-03     16.1197E-03     121.574E-03     126.059E+06     46.3207E+06     33.5011E+06    -85.6381E+06     35.8752E+06    -75.1926E+06     33.5011E+06    -35.5626E+06
            1810     103.555E-03     6.62749E-03     103.343E-03     109.925E-03    -54.7522E-03    -55.1692E-03    -54.4020E-03     109.265E-03    -54.8596E-03     20.4040E-03     126.673E-03     129.191E+06     46.4509E+06     35.5763E+06    -87.8186E+06     35.8445E+06    -77.2121E+06     35.5763E+06    -36.1619E+06
            1811     103.626E-03     7.57427E-03     103.349E-03     110.377E-03    -54.8086E-03    -55.5532E-03    -54.5678E-03     109.391E-03    -54.8086E-03     25.1111E-03     132.939E-03     124.303E+06     46.7916E+06     31.8303E+06    -84.1747E+06     35.8036E+06    -73.1868E+06     31.8303E+06    -36.2651E+06
            1812     103.709E-03     8.52126E-03     103.358E-03     111.233E-03    -54.8100E-03    -56.4158E-03    -55.0599E-03     109.877E-03    -54.8100E-03     29.6139E-03     141.093E-03     118.312E+06     45.3010E+06     29.9098E+06    -79.8550E+06     34.5961E+06    -69.1500E+06     29.9098E+06    -34.9181E+06
            1813     103.803E-03     9.46740E-03     103.371E-03     112.700E-03    -54.8808E-03    -57.8351E-03    -55.8382E-03     110.703E-03    -54.8808E-03     36.1347E-03     152.543E-03     114.874E+06     42.6437E+06     27.2116E+06    -79.0477E+06     32.1448E+06    -68.5488E+06     27.2116E+06    -34.0845E+06
            1814     103.915E-03     10.4127E-03     103.392E-03     113.953E-03    -54.9617E-03    -58.9972E-03    -56.3951E-03     111.351E-03    -54.9617E-03     41.8075E-03     165.801E-03     104.056E+06     38.8397E+06     16.2169E+06    -74.5874E+06     28.6756E+06    -64.4232E+06     16.2169E+06    -32.0614E+06
            1815     104.036E-03     11.3584E-03     103.414E-03     115.602E-03    -55.0804E-03    -60.5234E-03    -57.2847E-03     112.364E-03    -55.0804E-03     46.9291E-03     182.620E-03     89.3485E+06     32.1558E+06     4.07694E+06    -67.6080E+06     22.4498E+06    -57.9020E+06     4.07694E+06    -28.9695E+06
            1816     104.175E-03     12.3017E-03     103.446E-03     118.842E-03    -55.2392E-03    -63.6190E-03    -58.4150E-03     113.638E-03    -55.2392E-03     59.9104E-03     208.767E-03     72.8492E+06     26.2226E+06    -11.5816E+06    -56.8221E+06     15.2834E+06    -45.8829E+06    -11.5816E+06    -27.5412E+06
            1817     104.340E-03     13.2442E-03     103.496E-03     121.633E-03    -55.3567E-03    -66.2803E-03    -57.9450E-03     113.297E-03    -55.3567E-03     76.8544E-03     247.516E-03     63.8040E+06     25.0059E+06    -23.0863E+06    -46.5464E+06     9.55624E+06    -23.0335E+06    -31.1495E+06    -25.8960E+06
            1818     104.536E-03     14.1910E-03     103.568E-03     133.044E-03    -55.2790E-03    -77.7683E-03    -57.7904E-03     113.066E-03    -55.2790E-03     120.155E-03     304.995E-03     94.9679E+06     45.5679E+06    -16.8433E+06    -62.2497E+06     2.86416E+06     25.8604E+06    -62.2497E+06    -22.4182E+06
            1819     104.820E-03     15.1383E-03     103.721E-03     155.565E-03    -55.2093E-03    -100.389E-03    -56.9915E-03     112.167E-03    -55.2093E-03     190.369E-03     416.877E-03     139.885E+06     103.965E+06    -4.67838E+06    -49.0219E+06    -4.29553E+06     100.549E+06    -45.9887E+06    -13.6127E+06
            1820     105.188E-03     16.0866E-03     103.951E-03     147.087E-03    -55.5095E-03    -91.6604E-03    -52.8309E-03     108.257E-03    -55.5095E-03     173.227E-03     440.116E-03     162.012E+06     162.958E+06     72.6168E+06    -9.91477E+06    -5.72942E+06     162.740E+06     68.6496E+06    -3.43491E+06
            1821     104.458E-03     948.132E-06     104.453E-03     105.193E-03    -52.4155E-03    -52.7799E-03    -52.7175E-03     105.174E-03    -52.4586E-03     2.87097E-03     105.609E-03     111.006E+06     54.1289E+06     48.0073E+06    -59.7693E+06     51.6532E+06    -58.8645E+06     49.5781E+06    -9.22901E+06
            1822     104.471E-03     1.89771E-03     104.453E-03     104.949E-03    -52.4345E-03    -52.5196E-03    -52.3762E-03     104.887E-03    -52.5162E-03     5.86922E-03     106.217E-03     103.181E+06     52.4879E+06     45.0290E+06    -54.1792E+06     49.4979E+06    -51.1892E+06     45.0290E+06    -16.9731E+06
            1823     104.490E-03     2.84683E-03     104.451E-03     104.806E-03    -52.3464E-03    -52.4649E-03    -52.2106E-03     104.660E-03    -52.4547E-03     9.21420E-03     107.499E-03     111.336E+06     53.6463E+06     44.5470E+06    -61.9555E+06     47.5343E+06    -55.8435E+06     44.5470E+06    -25.6453E+06
            1824     104.520E-03     3.79613E-03     104.451E-03     104.603E-03    -52.2339E-03    -52.3733E-03    -51.9509E-03     104.310E-03    -52.3630E-03     13.1638E-03     109.324E-03     116.120E+06     55.5469E+06     41.3489E+06    -66.8834E+06     46.6330E+06    -57.9695E+06     41.3489E+06    -31.7233E+06
            1825     104.559E-03     4.74542E-03     104.451E-03     104.554E-03    -52.1830E-03    -52.3739E-03    -51.7792E-03     104.042E-03    -52.2652E-03     17.4401E-03     111.917E-03     121.904E+06     57.0237E+06     38.0930E+06    -73.1472E+06     46.0549E+06    -62.1784E+06     38.0930E+06    -36.1185E+06
            1826     104.607E-03     5.69515E-03     104.452E-03     104.862E-03    -52.1815E-03    -52.6883E-03    -51.8262E-03     104.023E-03    -52.2043E-03     22.3825E-03     115.546E-03     128.057E+06     56.3546E+06     36.9814E+06    -80.2239E+06     45.4628E+06    -69.3321E+06     36.9814E+06    -36.9384E+06
            1827     104.667E-03     6.64416E-03     104.456E-03     105.428E-03    -52.1818E-03    -53.2536E-03    -51.9668E-03     104.141E-03    -52.1818E-03     27.8693E-03     120.367E-03     128.406E+06     55.5475E+06     37.3381E+06    -80.8747E+06     45.0126E+06    -70.3398E+06     37.3381E+06    -36.3703E+06
            1828     104.738E-03     7.59377E-03     104.462E-03     106.333E-03    -52.1859E-03    -54.1480E-03    -52.3365E-03     104.521E-03    -52.1859E-03     33.3470E-03     126.436E-03     125.258E+06     53.7700E+06     34.7401E+06    -79.8218E+06     43.4090E+06    -69.4609E+06     34.7401E+06    -35.6362E+06
            1829     104.821E-03     8.54270E-03     104.472E-03     107.838E-03    -52.2413E-03    -55.6042E-03    -53.1165E-03     105.351E-03    -52.2413E-03     39.3881E-03     134.324E-03     118.917E+06     50.1971E+06     31.2032E+06    -76.9386E+06     41.0899E+06    -67.8314E+06     31.2032E+06    -32.7271E+06
            1830     104.918E-03     9.48996E-03     104.488E-03     110.099E-03    -52.3990E-03    -57.7155E-03    -54.2568E-03     106.640E-03    -52.3990E-03     47.0117E-03     145.703E-03     112.699E+06     46.2788E+06     29.4552E+06    -73.7086E+06     37.5710E+06    -65.0008E+06     29.4552E+06    -31.0493E+06
            1831     105.027E-03     10.4374E-03     104.507E-03     112.512E-03    -52.5997E-03    -59.9018E-03    -55.6100E-03     108.220E-03    -52.5997E-03     53.2248E-03     159.264E-03     105.684E+06     40.3526E+06     18.4351E+06    -74.2886E+06     32.9685E+06    -66.9045E+06     18.4351E+06    -27.9523E+06
            1832     105.151E-03     11.3821E-03     104.534E-03     115.176E-03    -52.8749E-03    -62.2852E-03    -57.0873E-03     109.978E-03    -52.8749E-03     59.2952E-03     176.206E-03     89.0433E+06     35.1064E+06     8.23877E+06    -64.1564E+06     29.0425E+06    -58.0926E+06     8.23877E+06    -23.6944E+06
            1833     105.290E-03     12.3270E-03     104.566E-03     119.413E-03    -53.2165E-03    -66.2184E-03    -58.6558E-03     111.851E-03    -53.2165E-03     72.6484E-03     201.967E-03     70.6636E+06     31.0217E+06    -1.64330E+06    -49.4443E+06     24.0421E+06    -42.4647E+06    -1.64330E+06    -22.4637E+06
            1834     105.459E-03     13.2703E-03     104.621E-03     124.162E-03    -53.5481E-03    -70.6196E-03    -59.9675E-03     113.510E-03    -53.5481E-03     88.2584E-03     242.951E-03     56.9858E+06     25.6195E+06    -14.7280E+06    -38.6077E+06     17.2712E+06    -24.5567E+06    -20.4307E+06    -19.8560E+06
            1835     105.647E-03     14.2113E-03     104.686E-03     136.287E-03    -53.7912E-03    -82.4869E-03    -60.2299E-03     114.030E-03    -53.7912E-03     129.193E-03     302.347E-03     74.0530E+06     41.0832E+06    -11.3521E+06    -42.1939E+06     7.17464E+06     21.7136E+06    -41.3512E+06    -13.3195E+06
            1836     105.933E-03     15.1572E-03     104.843E-03     156.434E-03    -53.8851E-03    -102.570E-03    -57.9991E-03     111.863E-03    -53.8851E-03     194.158E-03     414.205E-03     123.046E+06     96.2280E+06    -7.23874E+06    -35.5538E+06    -4.94107E+06     93.9304E+06    -35.5538E+06    -8.51941E+06
            1837     106.292E-03     16.1103E-03     105.064E-03     147.264E-03    -54.2340E-03    -93.0320E-03    -53.9965E-03     108.229E-03    -54.2340E-03     174.359E-03     439.927E-03     157.171E+06     155.540E+06     66.6821E+06    -10.6122E+06    -6.31212E+06     155.259E+06     62.6634E+06    -3.26703E+06
            1838     105.565E-03     952.910E-06     105.561E-03     97.3913E-03    -48.3603E-03    -49.0299E-03    -48.9466E-03     97.3511E-03    -48.4034E-03     4.46122E-03     97.7548E-03     98.3682E+06     59.0027E+06     54.4721E+06    -41.5345E+06     56.6907E+06    -40.2632E+06     55.5127E+06    -9.66149E+06
            1839     105.576E-03     1.90499E-03     105.559E-03     97.3385E-03    -48.5712E-03    -48.7693E-03    -48.5762E-03     97.2127E-03    -48.6385E-03     8.18287E-03     98.4362E-03     91.5881E+06     60.5130E+06     53.7202E+06    -34.2267E+06     56.6959E+06    -30.4096E+06     53.7202E+06    -17.8740E+06
            1840     105.597E-03     2.85767E-03     105.558E-03     97.2223E-03    -48.5614E-03    -48.6626E-03    -48.3438E-03     96.9276E-03    -48.5855E-03     12.6152E-03     99.5491E-03     101.199E+06     63.1482E+06     49.8684E+06    -43.8351E+06     56.0828E+06    -36.7697E+06     49.8684E+06    -26.1033E+06
            1841     105.625E-03     3.81027E-03     105.556E-03     97.1467E-03    -48.4653E-03    -48.6796E-03    -48.0852E-03     96.5733E-03    -48.4862E-03     17.7296E-03     101.174E-03     108.707E+06     64.6541E+06     43.7211E+06    -52.8303E+06     54.5235E+06    -42.6997E+06     43.7211E+06    -32.8272E+06
            1842     105.664E-03     4.76382E-03     105.557E-03     97.3686E-03    -48.3747E-03    -48.9926E-03    -47.9836E-03     96.3806E-03    -48.3956E-03     23.4145E-03     103.594E-03     114.884E+06     62.5728E+06     38.3982E+06    -62.4567E+06     51.3055E+06    -51.1894E+06     38.3982E+06    -35.7552E+06
            1843     105.713E-03     5.71665E-03     105.558E-03     98.0450E-03    -48.3496E-03    -49.6999E-03    -48.1317E-03     96.4768E-03    -48.3496E-03     29.6976E-03     107.046E-03     122.959E+06     59.7021E+06     34.3635E+06    -73.9296E+06     48.2187E+06    -62.4462E+06     34.3635E+06    -37.3826E+06
            1844     105.773E-03     6.66974E-03     105.562E-03     99.1895E-03    -48.3525E-03    -50.8463E-03    -48.4765E-03     96.8197E-03    -48.3525E-03     36.7669E-03     111.685E-03     123.038E+06     57.2995E+06     31.5434E+06    -76.5621E+06     46.2506E+06    -65.5132E+06     31.5434E+06    -36.7164E+06
            1845     105.844E-03     7.62182E-03     105.569E-03     100.991E-03    -48.4407E-03    -52.5658E-03    -49.2584E-03     97.6839E-03    -48.4407E-03     43.9126E-03     117.868E-03     120.362E+06     52.4171E+06     30.7840E+06    -77.2496E+06     43.0966E+06    -67.9291E+06     30.7840E+06    -33.3944E+06
            1846     105.928E-03     8.57296E-03     105.581E-03     103.249E-03    -48.5956E-03    -54.6670E-03    -50.3039E-03     98.8861E-03    -48.5956E-03     51.1155E-03     125.575E-03     113.856E+06     46.5309E+06     26.7277E+06    -75.8868E+06     38.7306E+06    -68.0865E+06     26.7277E+06    -29.8328E+06
            1847     106.025E-03     9.52444E-03     105.596E-03     106.625E-03    -48.8636E-03    -57.7652E-03    -51.9243E-03     100.784E-03    -48.8636E-03     60.1936E-03     136.812E-03     104.490E+06     39.8885E+06     26.2699E+06    -70.4978E+06     33.5044E+06    -64.1137E+06     26.2699E+06    -25.6546E+06
            1848     106.139E-03     10.4720E-03     105.621E-03     110.554E-03    -49.2364E-03    -61.3114E-03    -54.3387E-03     103.582E-03    -49.2364E-03     67.3199E-03     150.961E-03     100.214E+06     31.7715E+06     17.5020E+06    -74.2975E+06     26.7851E+06    -69.3112E+06     17.5020E+06    -22.2468E+06
            1849     106.262E-03     11.4191E-03     105.647E-03     114.611E-03    -49.7179E-03    -64.8742E-03    -56.8002E-03     106.537E-03    -49.7179E-03     73.9461E-03     168.533E-03     80.0613E+06     23.6070E+06     5.15066E+06    -63.6472E+06     19.1298E+06    -59.1700E+06     5.15066E+06    -18.9622E+06
            1850     106.406E-03     12.3627E-03     105.685E-03     120.250E-03    -50.3312E-03    -69.9195E-03    -59.3487E-03     109.680E-03    -50.3312E-03     86.7065E-03     194.726E-03     57.1501E+06     18.1685E+06     -30.267E+03    -44.9252E+06     12.6175E+06    -39.3741E+06     -30.267E+03    -17.6381E+06
            1851     106.574E-03     13.3061E-03     105.740E-03     127.025E-03    -51.0002E-03    -76.0371E-03    -62.3839E-03     113.372E-03    -51.0002E-03     101.496E-03     237.742E-03     41.2511E+06     9.97630E+06    -15.2735E+06    -35.2620E+06     4.93328E+06    -30.2190E+06    -15.2735E+06    -13.9646E+06
            1852     106.771E-03     14.2448E-03     105.817E-03     139.425E-03    -51.6409E-03    -87.7940E-03    -63.4906E-03     115.122E-03    -51.6409E-03     138.285E-03     299.332E-03     52.7203E+06     30.1628E+06    -15.1624E+06    -27.4215E+06    -2.63353E+06     15.7816E+06    -25.5692E+06    -5.25407E+06
            1853     107.042E-03     15.1872E-03     105.960E-03     160.013E-03    -52.1138E-03    -107.917E-03    -62.1341E-03     114.229E-03    -52.1138E-03     200.440E-03     413.568E-03     108.867E+06     97.4608E+06    -3.72157E+06    -16.6655E+06    -5.80774E+06     97.0613E+06    -14.1798E+06    -1.70042E+06
            1854     107.405E-03     16.1324E-03     106.186E-03     150.474E-03    -52.7709E-03    -97.6530E-03    -59.5082E-03     112.329E-03    -52.7709E-03     174.490E-03     443.557E-03     152.554E+06     153.295E+06     70.0103E+06    -6.19802E+06    -5.74866E+06     152.897E+06     69.9588E+06    -2.27223E+06
            1855     106.662E-03     957.481E-06     106.658E-03     87.1090E-03    -43.3417E-03    -43.7651E-03    -43.6753E-03     87.0370E-03    -43.3595E-03     5.73464E-03     87.4092E-03     82.0587E+06     63.3908E+06     57.5850E+06    -21.3752E+06     60.6941E+06    -19.7192E+06     58.6257E+06    -10.0083E+06
            1856     106.674E-03     1.91475E-03     106.657E-03     87.1097E-03    -43.4422E-03    -43.6677E-03    -43.4193E-03     86.8791E-03    -43.4600E-03     10.4060E-03     88.0060E-03     74.2191E+06     64.5789E+06     52.9591E+06    -14.6413E+06     59.2013E+06    -9.26373E+06     52.9591E+06    -19.4617E+06
            1857     106.693E-03     2.87224E-03     106.654E-03     87.1098E-03    -43.4084E-03    -43.6990E-03    -43.1603E-03     86.5711E-03    -43.4084E-03     16.2428E-03     88.9879E-03     86.4012E+06     67.4982E+06     48.1846E+06    -26.8426E+06     57.9305E+06    -17.2750E+06     48.1846E+06    -28.3415E+06
            1858     106.722E-03     3.83043E-03     106.653E-03     87.4060E-03    -43.3351E-03    -44.0589E-03    -43.0383E-03     86.3854E-03    -43.3351E-03     22.5422E-03     90.6117E-03     97.6943E+06     67.0561E+06     42.3993E+06    -40.5730E+06     55.6401E+06    -29.1570E+06     42.3993E+06    -33.0629E+06
            1859     106.759E-03     4.78781E-03     106.652E-03     88.1044E-03    -43.2889E-03    -44.8162E-03    -43.0800E-03     86.3682E-03    -43.2889E-03     29.5730E-03     93.0358E-03     105.961E+06     62.7796E+06     35.3472E+06    -54.1424E+06     51.5534E+06    -42.9161E+06     35.3472E+06    -34.3756E+06
            1860     106.809E-03     5.74560E-03     106.654E-03     89.2436E-03    -43.2752E-03    -45.9740E-03    -43.2739E-03     86.5435E-03    -43.2752E-03     37.1904E-03     96.2898E-03     110.387E+06     56.7896E+06     27.9884E+06    -65.0823E+06     45.6815E+06    -53.9742E+06     27.9884E+06    -35.0113E+06
            1861     106.868E-03     6.70296E-03     106.658E-03     91.2155E-03    -43.3336E-03    -47.8741E-03    -43.8942E-03     87.2356E-03    -43.3336E-03     45.7050E-03     100.934E-03     110.958E+06     47.8853E+06     20.8713E+06    -74.0358E+06     37.9707E+06    -64.1212E+06     20.8713E+06    -33.2130E+06
            1862     106.942E-03     7.65969E-03     106.667E-03     94.0555E-03    -43.5047E-03    -50.5503E-03    -45.0934E-03     88.5986E-03    -43.5047E-03     54.5217E-03     107.221E-03     105.200E+06     37.4167E+06     17.3317E+06    -76.3261E+06     29.8026E+06    -68.7120E+06     17.3317E+06    -28.3819E+06
            1863     107.027E-03     8.61506E-03     106.680E-03     97.7429E-03    -43.8207E-03    -53.9295E-03    -46.9721E-03     90.7855E-03    -43.8207E-03     62.9292E-03     115.574E-03     97.5545E+06     27.9963E+06     14.2823E+06    -75.6402E+06     20.8843E+06    -70.1036E+06     15.8578E+06    -22.9625E+06
            1864     107.126E-03     9.56747E-03     106.698E-03     102.614E-03    -44.2965E-03    -58.3220E-03    -49.4146E-03     93.7068E-03    -44.2965E-03     73.0913E-03     127.349E-03     87.5293E+06     22.5475E+06     11.2142E+06    -69.7379E+06     12.1007E+06    -65.7351E+06     17.6582E+06    -18.0420E+06
            1865     107.245E-03     10.5197E-03     106.727E-03     108.152E-03    -44.9418E-03    -63.2129E-03    -52.9674E-03     97.9063E-03    -44.9418E-03     80.9351E-03     142.365E-03     87.0238E+06     17.5294E+06     3.81400E+06    -75.1543E+06     4.54982E+06    -72.3932E+06     14.0325E+06    -14.2854E+06
            1866     107.372E-03     11.4657E-03     106.759E-03     114.018E-03    -45.7503E-03    -68.2622E-03    -57.1783E-03     102.934E-03    -45.7503E-03     86.9208E-03     161.347E-03     66.2450E+06     9.53365E+06    -3.60201E+06    -61.7352E+06    -2.51545E+06    -58.9342E+06     5.64601E+06    -11.2542E+06
            1867     107.519E-03     12.4105E-03     106.801E-03     121.746E-03    -46.7579E-03    -74.9840E-03    -61.5235E-03     108.286E-03    -46.7579E-03     99.1565E-03     189.333E-03     41.8361E+06     5.49966E+06    -8.82098E+06    -40.4685E+06    -9.65570E+06    -36.4738E+06     2.33968E+06    -10.7173E+06
            1868     107.694E-03     13.3485E-03     106.864E-03     129.828E-03    -47.8696E-03    -81.9837E-03    -65.6859E-03     113.530E-03    -47.8696E-03     112.825E-03     233.663E-03     33.7601E+06    -2.41993E+06    -20.6472E+06    -40.1542E+06    -14.0387E+06    -35.7981E+06    -13.3845E+06    -9.98657E+06
            1869     107.892E-03     14.2858E-03     106.942E-03     142.050E-03    -48.9598E-03    -93.1229E-03    -68.3940E-03     117.321E-03    -48.9598E-03     143.060E-03     297.704E-03     45.7993E+06     22.3295E+06    -19.2505E+06    -26.2776E+06    -12.7548E+06     12.5912E+06    -23.0350E+06    -6.36993E+06
            1870     108.161E-03     15.2253E-03     107.084E-03     163.347E-03    -50.0400E-03    -113.315E-03    -70.0098E-03     120.041E-03    -50.0400E-03     199.766E-03     416.053E-03     105.449E+06     99.0301E+06     2.93966E+06    -13.0047E+06    -8.83724E+06     98.6470E+06    -844.831E+03    -2.88644E+06
            1871     108.527E-03     16.1636E-03     107.317E-03     154.838E-03    -51.3645E-03    -103.369E-03    -69.5210E-03     120.990E-03    -51.3645E-03     166.899E-03     450.147E-03     150.010E+06     152.950E+06     84.2676E+06    -4.62549E+06    -4.30731E+06     152.373E+06     84.5269E+06    -748.023E+03
            1872     107.746E-03     963.175E-06     107.742E-03     74.5470E-03    -37.1869E-03    -37.3575E-03    -37.1825E-03     74.4245E-03    -37.2394E-03     6.75205E-03     74.7765E-03     65.3454E+06     68.9597E+06     60.9120E+06     459.792E+03     65.9213E+06     3.15507E+06     61.2550E+06    -10.8957E+06
            1873     107.758E-03     1.92719E-03     107.741E-03     74.3668E-03    -37.0438E-03    -37.3223E-03    -36.8817E-03     73.9788E-03    -37.0963E-03     12.5884E-03     75.0361E-03     58.8763E+06     69.5260E+06     51.6142E+06     4.24489E+06     61.8664E+06     11.9045E+06     51.6142E+06    -20.0972E+06
            1874     107.777E-03     2.89097E-03     107.738E-03     74.7971E-03    -37.0131E-03    -37.7873E-03    -36.9084E-03     73.9182E-03    -37.0131E-03     19.2564E-03     76.1756E-03     68.7516E+06     66.0129E+06     41.9274E+06    -11.0508E+06     54.5577E+06     404.517E+03     41.9274E+06    -27.0400E+06
            1875     107.806E-03     3.85437E-03     107.737E-03     75.5798E-03    -36.9845E-03    -38.5906E-03    -36.9326E-03     73.9218E-03    -36.9845E-03     26.7144E-03     77.9075E-03     78.2957E+06     57.2784E+06     28.6170E+06    -30.7957E+06     45.1459E+06    -18.6631E+06     28.6170E+06    -30.1253E+06
            1876     107.844E-03     4.81813E-03     107.736E-03     76.8108E-03    -36.9794E-03    -39.8325E-03    -37.0722E-03     74.0505E-03    -36.9794E-03     34.8557E-03     80.3228E-03     82.6048E+06     45.8178E+06     13.6853E+06    -47.5386E+06     34.9491E+06    -36.6700E+06     13.6853E+06    -29.7589E+06
            1877     107.893E-03     5.78150E-03     107.738E-03     78.8718E-03    -37.0449E-03    -41.8342E-03    -37.6086E-03     74.6462E-03    -37.0449E-03     43.7765E-03     83.8547E-03     80.1001E+06     30.6633E+06     1.30519E+06    -59.6261E+06     22.1047E+06    -51.0676E+06     1.30519E+06    -26.3959E+06
            1878     107.955E-03     6.74399E-03     107.744E-03     82.0103E-03    -37.2493E-03    -44.7547E-03    -38.7396E-03     75.9951E-03    -37.2493E-03     53.3677E-03     89.0179E-03     77.0194E+06     13.8171E+06    -5.14201E+06    -70.5037E+06     7.21561E+06    -63.9023E+06    -5.14201E+06    -22.6317E+06
            1879     108.029E-03     7.70537E-03     107.754E-03     86.1333E-03    -37.6123E-03    -48.5128E-03    -40.5380E-03     78.1585E-03    -37.6123E-03     63.1237E-03     95.8493E-03     73.7051E+06     2.99504E+06    -10.6502E+06    -76.3329E+06    -6.20830E+06    -71.5670E+06    -6.21273E+06    -18.2145E+06
            1880     108.119E-03     8.66461E-03     107.771E-03     91.5417E-03    -38.1809E-03    -53.3746E-03    -43.4745E-03     81.6416E-03    -38.1809E-03     72.7677E-03     105.247E-03     71.5946E+06     1.28237E+06    -16.1648E+06    -76.4651E+06    -16.0017E+06    -73.4307E+06    -1.91516E+06    -13.4875E+06
            1881     108.222E-03     9.62102E-03     107.793E-03     98.4763E-03    -38.9689E-03    -59.5365E-03    -47.5083E-03     86.4481E-03    -38.9689E-03     83.5530E-03     118.716E-03     67.9956E+06     5.08072E+06    -20.2326E+06    -70.1760E+06    -22.2522E+06    -68.1563E+06     5.08072E+06    -9.46831E+06
            1882     108.345E-03     10.5724E-03     107.828E-03     106.023E-03    -40.0079E-03    -66.0260E-03    -52.6383E-03     92.6352E-03    -40.0079E-03     92.0202E-03     135.312E-03     73.2228E+06     7.38567E+06    -23.0755E+06    -75.0892E+06    -24.8339E+06    -73.3308E+06     7.38567E+06    -8.49993E+06
            1883     108.481E-03     11.5202E-03     107.868E-03     113.966E-03    -41.2720E-03    -72.6807E-03    -58.8737E-03     100.159E-03    -41.2720E-03     97.5949E-03     156.251E-03     57.7659E+06     4.37685E+06    -21.4669E+06    -60.7577E+06    -23.8231E+06    -58.4016E+06     4.37685E+06    -7.79909E+06
            1884     108.632E-03     12.4596E-03     107.915E-03     123.626E-03    -42.8116E-03    -80.7981E-03    -65.1399E-03     107.968E-03    -42.8116E-03     108.656E-03     186.574E-03     38.6450E+06     7.60763E+06    -19.0606E+06    -36.5756E+06    -21.6054E+06    -34.0308E+06     7.60763E+06    -5.90051E+06
            1885     108.815E-03     13.3973E-03     107.988E-03     133.205E-03    -44.4926E-03    -88.7240E-03    -71.1086E-03     115.589E-03    -44.4926E-03     119.964E-03     232.287E-03     34.3242E+06    -80.5444E+03    -23.2730E+06    -39.2035E+06    -20.7072E+06    -34.3613E+06    -7.48862E+06    -9.02349E+06
            1886     109.017E-03     14.3282E-03     108.071E-03     147.063E-03    -46.2614E-03    -100.835E-03    -76.9013E-03     123.129E-03    -46.2614E-03     145.673E-03     300.840E-03     49.6055E+06     23.7761E+06    -13.6893E+06    -30.4482E+06    -20.1731E+06     13.5036E+06    -13.6919E+06    -10.5117E+06
            1887     109.289E-03     15.2526E-03     108.220E-03     168.751E-03    -48.1623E-03    -120.611E-03    -80.9920E-03     129.132E-03    -48.1623E-03     197.905E-03     423.567E-03     105.424E+06     97.8902E+06     13.9687E+06    -18.7260E+06    -18.0090E+06     97.1758E+06     13.9661E+06    -7.91606E+06
            1888     109.651E-03     16.1759E-03     108.451E-03     161.522E-03    -50.2711E-03    -111.195E-03    -81.5938E-03     131.920E-03    -50.2711E-03     160.713E-03     459.230E-03      149.87E+06     147.232E+06     92.4896E+06    -11.2315E+06    -10.9444E+06     146.686E+06     92.7489E+06    -3.79648E+06
            1889     108.816E-03     970.533E-06     108.812E-03     59.9222E-03    -29.8464E-03    -30.0732E-03    -29.8640E-03     59.7478E-03    -29.8812E-03     7.05590E-03     60.0739E-03     43.5924E+06     67.0919E+06     56.2830E+06     20.2353E+06     61.7910E+06     25.1931E+06     56.6260E+06    -11.6944E+06
            1890     108.827E-03     1.94146E-03     108.810E-03     60.0684E-03    -29.7459E-03    -30.3219E-03    -29.7135E-03     59.4948E-03    -29.7807E-03     13.8111E-03     60.4968E-03     36.9773E+06     62.5805E+06     41.0849E+06     20.5483E+06     52.8361E+06     30.2927E+06     41.0849E+06    -17.2109E+06
            1891     108.847E-03     2.91217E-03     108.808E-03     60.8689E-03    -29.7439E-03    -31.1285E-03    -29.8441E-03     59.5845E-03    -29.7439E-03     21.0425E-03     61.7368E-03     43.7167E+06     51.4880E+06     23.6922E+06     1.88109E+06     40.3305E+06     13.0386E+06     23.6922E+06    -20.5726E+06
            1892     108.876E-03     3.88264E-03     108.806E-03     62.2477E-03    -29.7832E-03    -32.4650E-03    -30.0680E-03     59.8507E-03    -29.7832E-03     29.2193E-03     63.6930E-03     50.3680E+06     35.7124E+06     5.36468E+06    -21.9124E+06     26.0061E+06    -12.2061E+06     5.36468E+06    -21.0904E+06
            1893     108.913E-03     4.85276E-03     108.805E-03     64.4237E-03    -29.8822E-03    -34.5399E-03    -30.6160E-03     60.4998E-03    -29.8822E-03     38.1244E-03     66.6001E-03     49.1867E+06     14.1767E+06    -14.0995E+06    -42.4750E+06     7.83735E+06    -36.1357E+06    -14.0995E+06    -17.4159E+06
            1894     108.964E-03     5.82214E-03     108.809E-03     67.7340E-03    -30.1210E-03    -37.6114E-03    -31.7482E-03     61.8707E-03    -30.1210E-03     47.8532E-03     70.9148E-03     44.5349E+06    -7.59234E+06    -26.4518E+06    -57.5985E+06    -11.2551E+06    -53.9357E+06    -26.4518E+06    -11.5457E+06
            1895     109.027E-03     6.79013E-03     108.816E-03     72.3550E-03    -30.5736E-03    -41.7798E-03    -33.6523E-03     64.2275E-03    -30.5736E-03     58.3366E-03     77.1114E-03     44.7663E+06    -20.1935E+06    -31.7697E+06    -68.6634E+06    -28.2606E+06    -66.2473E+06    -26.1187E+06    -6.42955E+06
            1896     109.106E-03     7.75571E-03     108.830E-03     78.2451E-03    -31.2498E-03    -47.0010E-03    -36.5551E-03     67.7992E-03    -31.2498E-03     68.9944E-03     85.3669E-03     50.5273E+06    -18.6191E+06    -39.5489E+06    -74.2597E+06    -40.8961E+06    -72.6037E+06    -18.9280E+06    -4.78166E+06
            1897     109.199E-03     8.71857E-03     108.850E-03     85.4690E-03    -32.1636E-03    -53.3145E-03    -40.7104E-03     72.8649E-03    -32.1636E-03     79.5864E-03     96.2672E-03     57.6829E+06    -10.1453E+06    -45.7552E+06    -75.2817E+06    -46.9460E+06    -74.0909E+06    -10.1453E+06    -5.37690E+06
            1898     109.311E-03     9.67650E-03     108.881E-03     94.5757E-03    -33.3398E-03    -61.2401E-03    -46.4242E-03     79.7598E-03    -33.3398E-03     91.2806E-03     111.684E-03     61.3577E+06    -1.32056E+06    -44.8786E+06    -70.9792E+06    -46.4157E+06    -69.4421E+06    -1.32056E+06    -5.29852E+06
            1899     109.440E-03     10.6291E-03     108.923E-03     104.475E-03    -34.8541E-03    -69.6184E-03    -53.5497E-03     88.4067E-03    -34.8541E-03     100.673E-03     130.423E-03     66.7359E+06     5.12387E+06    -39.5801E+06    -71.0934E+06    -42.3242E+06    -68.3493E+06     5.12387E+06    -7.95803E+06
            1900     109.586E-03     11.5739E-03     108.973E-03     114.613E-03    -36.6721E-03    -77.9258E-03    -61.6797E-03     98.3666E-03    -36.6721E-03     106.959E-03     153.551E-03     58.3368E+06     4.28029E+06    -30.6298E+06    -62.5497E+06    -36.0923E+06    -57.0872E+06     4.28029E+06    -11.0535E+06
            1901     109.749E-03     12.5124E-03     109.033E-03     126.372E-03    -38.8261E-03    -87.5266E-03    -70.1466E-03     108.992E-03    -38.8261E-03     116.865E-03     186.335E-03     46.9783E+06     10.8181E+06    -20.2685E+06    -42.7196E+06    -27.4782E+06    -35.5100E+06     10.8181E+06    -9.89932E+06
            1902     109.937E-03     13.4419E-03     109.112E-03     138.821E-03    -41.2213E-03    -97.5977E-03    -79.0162E-03     120.239E-03    -41.2213E-03     127.218E-03     234.669E-03     37.3202E+06     5.47905E+06    -19.6425E+06    -37.1174E+06    -22.7724E+06    -31.6828E+06     3.17425E+06    -7.93617E+06
            1903     110.151E-03     14.3636E-03     109.211E-03     154.748E-03    -43.8137E-03    -110.952E-03    -87.5159E-03     131.312E-03    -43.8137E-03     150.244E-03     307.838E-03     57.9034E+06     34.1113E+06     91.9175E+03    -32.6697E+06    -23.6579E+06     20.2452E+06     4.94625E+06    -9.01255E+06
            1904     110.429E-03     15.2820E-03     109.366E-03     175.919E-03    -46.5323E-03    -129.406E-03    -92.7109E-03     139.224E-03    -46.5323E-03     197.487E-03     431.217E-03     106.368E+06     99.7173E+06     29.5443E+06    -22.3526E+06    -20.6014E+06     97.9662E+06     29.5443E+06    -12.4608E+06
            1905     110.795E-03     16.1965E-03     109.605E-03     170.283E-03    -49.4079E-03    -120.913E-03    -93.9922E-03     143.362E-03    -49.4079E-03     158.617E-03     466.145E-03     141.192E+06     138.862E+06     93.4001E+06    -12.1681E+06    -10.9529E+06     136.117E+06     94.9303E+06    -9.26540E+06
            1906     109.870E-03     978.583E-06     109.865E-03     44.5320E-03    -22.0353E-03    -22.4958E-03    -22.2741E-03     44.3104E-03    -22.0353E-03     6.86698E-03     44.6119E-03     27.8214E+06     59.4917E+06     46.0003E+06     29.5166E+06     47.1303E+06     43.0541E+06     44.8242E+06    -8.40509E+06
            1907     109.881E-03     1.95647E-03     109.864E-03     45.2296E-03    -22.1433E-03    -23.0850E-03    -22.3348E-03     44.4794E-03    -22.1433E-03     13.6906E-03     45.4491E-03     27.0072E+06     52.2041E+06     29.8625E+06     22.3755E+06     36.7319E+06     40.7624E+06     26.9477E+06    -10.1505E+06
            1908     109.901E-03     2.93438E-03     109.862E-03     46.4475E-03    -22.1993E-03    -24.2456E-03    -22.5606E-03     44.7625E-03    -22.1993E-03     21.0687E-03     46.8850E-03     30.9150E+06     32.1040E+06     8.90103E+06    -2.63486E+06     19.4075E+06     16.9853E+06     1.97744E+06    -8.52979E+06
            1909     109.930E-03     3.91212E-03     109.860E-03     48.6031E-03    -22.3398E-03    -26.2635E-03    -23.2041E-03     45.5437E-03    -22.3398E-03     29.2242E-03     49.3468E-03     32.9490E+06     6.85583E+06    -17.5159E+06    -29.9399E+06    -4.25201E+06    -13.6472E+06    -22.7008E+06    -3.53256E+06
            1910     109.970E-03     4.88882E-03     109.861E-03     51.9819E-03    -22.6487E-03    -29.3367E-03    -24.4009E-03     47.0461E-03    -22.6487E-03     38.4633E-03     53.1952E-03     28.6341E+06    -18.7174E+06    -39.0731E+06    -50.9007E+06    -28.6453E+06    -40.9728E+06    -39.0731E+06     1.87914E+06
            1911     110.022E-03     5.86384E-03     109.866E-03     56.6842E-03    -23.1566E-03    -33.5203E-03    -26.2659E-03     49.4298E-03    -23.1566E-03     48.7690E-03     58.6574E-03     29.2113E+06    -35.1605E+06    -46.7064E+06    -67.5453E+06    -47.2548E+06    -58.1515E+06    -44.0059E+06     5.38233E+06
            1912     110.089E-03     6.83669E-03     109.876E-03     62.9229E-03    -23.9158E-03    -38.9996E-03    -29.0899E-03     53.0132E-03    -23.9158E-03     60.1675E-03     66.2585E-03     35.2646E+06    -35.2092E+06    -50.8590E+06    -74.4627E+06    -56.5598E+06    -68.6336E+06    -35.3375E+06     6.17075E+06
            1913     110.172E-03     7.80659E-03     109.895E-03     70.7335E-03    -24.9334E-03    -45.8094E-03    -33.2642E-03     58.1883E-03    -24.9334E-03     72.0902E-03     76.3068E-03     46.3800E+06    -20.8206E+06    -55.5282E+06    -72.9896E+06    -58.5055E+06    -70.0123E+06    -20.8206E+06     4.09341E+06
            1914     110.272E-03     8.77123E-03     109.923E-03     80.0095E-03    -26.2304E-03    -53.7814E-03    -38.8631E-03     65.0913E-03    -26.2304E-03     84.1105E-03     89.1773E-03     56.3794E+06    -8.77699E+06    -56.2262E+06    -70.9755E+06    -57.0632E+06    -70.1385E+06    -8.77699E+06    -288.751E+03
            1915     110.390E-03     9.73093E-03     109.961E-03     91.2738E-03    -27.8440E-03    -63.4147E-03    -46.0306E-03     73.8897E-03    -27.8440E-03     97.6273E-03     106.555E-03     61.1516E+06    -522.629E+03    -50.4488E+06    -68.5946E+06    -52.7331E+06    -66.3103E+06    -522.629E+03    -5.51336E+06
            1916     110.532E-03     10.6831E-03     110.015E-03     103.429E-03    -29.8437E-03    -73.5771E-03    -54.9281E-03     84.7801E-03    -29.8437E-03     108.552E-03     127.295E-03     64.5033E+06     6.08687E+06    -40.8709E+06    -67.2722E+06    -46.1929E+06    -61.9502E+06     6.08687E+06    -10.4825E+06
            1917     110.689E-03     11.6268E-03     110.076E-03     115.941E-03    -32.2216E-03    -83.7196E-03    -65.0512E-03     97.2721E-03    -32.2216E-03     116.153E-03     152.546E-03     60.1919E+06     6.70434E+06    -29.1814E+06    -62.4305E+06    -39.9014E+06    -51.7105E+06     6.70434E+06    -14.8398E+06
            1918     110.864E-03     12.5604E-03     110.150E-03     130.338E-03    -35.0012E-03    -95.3393E-03    -75.9449E-03     110.943E-03    -35.0012E-03     126.464E-03     187.994E-03     54.6204E+06     10.0803E+06    -20.1148E+06      -52.63E+06    -34.6268E+06    -38.1180E+06     10.0803E+06    -16.0009E+06
            1919     111.067E-03     13.4851E-03     110.245E-03     146.452E-03    -38.1228E-03    -108.341E-03    -87.9629E-03     126.074E-03    -38.1228E-03     138.186E-03     239.404E-03     43.8209E+06     3.83311E+06    -18.1603E+06    -45.3650E+06    -26.7122E+06    -36.8131E+06     3.83311E+06    -11.3008E+06
            1920     111.295E-03     14.3982E-03     110.360E-03     164.710E-03    -41.5538E-03    -123.169E-03    -99.1928E-03     140.734E-03    -41.5538E-03     158.943E-03     316.258E-03     66.5735E+06     46.4068E+06     13.1094E+06    -29.2556E+06    -17.8251E+06     29.8864E+06     18.1993E+06    -9.77024E+06
            1921     111.579E-03     15.3004E-03     110.525E-03     184.422E-03    -45.1307E-03    -139.296E-03    -105.200E-03     150.326E-03    -45.1307E-03     197.999E-03     438.103E-03     104.152E+06     105.418E+06     47.6242E+06    -14.4464E+06    -12.5727E+06     103.544E+06     47.6242E+06    -13.8369E+06
            1922     111.942E-03     16.2029E-03     110.763E-03     178.704E-03    -48.7533E-03    -129.990E-03    -105.549E-03     154.263E-03    -48.7533E-03     156.997E-03     470.119E-03     129.240E+06     129.316E+06     95.9132E+06    -9.70272E+06    -8.19690E+06     123.994E+06     99.7301E+06    -11.5051E+06
            1923     110.908E-03     985.551E-06     110.904E-03     29.9161E-03    -14.6633E-03    -15.2524E-03    -14.9806E-03     29.6443E-03    -14.6633E-03     6.39981E-03     29.9464E-03     37.5081E+06     52.5903E+06     20.0828E+06     13.2629E+06     18.5519E+06     51.1319E+06     16.2523E+06    -1.95631E+06
            1924     110.919E-03     1.97097E-03     110.902E-03     30.9888E-03    -14.8649E-03    -16.1222E-03    -15.2547E-03     30.1213E-03    -14.8649E-03     12.2066E-03     31.0690E-03     44.7662E+06     42.0359E+06     38.1206E+03    -4.83136E+06     2.58243E+06     39.4916E+06    -4.83136E+06     2.75263E+06
            1925     110.939E-03     2.95601E-03     110.900E-03     32.9088E-03    -15.0666E-03    -17.8405E-03    -15.9163E-03     30.9847E-03    -15.0666E-03     19.0417E-03     33.0899E-03     45.1921E+06     15.1603E+06    -22.5091E+06    -33.9119E+06    -19.9900E+06     9.16939E+06    -30.4401E+06     10.6081E+06
            1926     110.969E-03     3.93982E-03     110.899E-03     36.0042E-03    -15.4284E-03    -20.5766E-03    -17.0924E-03     32.5201E-03    -15.4284E-03     26.9119E-03     36.3797E-03     42.7590E+06    -11.6211E+06    -43.2990E+06    -59.4279E+06    -42.7202E+06    -23.1440E+06    -48.4838E+06     18.4399E+06
            1927     111.011E-03     4.92201E-03     110.902E-03     40.4909E-03    -15.9944E-03    -24.4958E-03    -18.8742E-03     34.8693E-03    -15.9944E-03     36.2780E-03     41.2344E-03     39.5236E+06    -30.9693E+06    -54.0876E+06    -75.3020E+06    -60.1904E+06    -46.0810E+06    -54.0876E+06     20.9951E+06
            1928     111.067E-03     5.90228E-03     110.910E-03     46.5128E-03    -16.7796E-03    -29.7241E-03    -21.4948E-03     38.2835E-03    -16.7796E-03     47.1300E-03     47.9488E-03     38.3236E+06    -41.9648E+06    -53.7131E+06    -84.2982E+06    -70.2664E+06    -59.8065E+06    -49.9033E+06     18.4972E+06
            1929     111.138E-03     6.87951E-03     110.925E-03     54.2633E-03    -17.8164E-03    -36.4380E-03    -25.2221E-03     43.0474E-03    -17.8164E-03     59.5761E-03     57.0152E-03     39.2230E+06    -39.1474E+06    -56.0135E+06    -82.8250E+06    -73.3255E+06     -65.513E+06    -39.1474E+06     12.4459E+06
            1930     111.228E-03     7.85246E-03     110.950E-03     63.7106E-03    -19.1254E-03    -44.5833E-03    -30.3141E-03     49.4413E-03    -19.1254E-03     73.1518E-03     68.5812E-03     44.6241E+06    -25.4549E+06    -60.4279E+06    -75.0132E+06    -70.0856E+06    -65.3555E+06    -25.4549E+06     5.35902E+06
            1931     111.336E-03     8.82052E-03     110.986E-03     74.8697E-03    -20.7623E-03    -54.1146E-03    -37.0420E-03     57.7971E-03    -20.7623E-03     87.3240E-03     83.1808E-03     53.0498E+06    -10.6458E+06    -57.2297E+06    -68.3444E+06    -62.1397E+06    -63.4344E+06    -10.6458E+06    -1.16422E+06
            1932     111.465E-03     9.78093E-03     111.035E-03     88.5232E-03    -22.7691E-03    -65.7630E-03    -45.7058E-03     68.4660E-03    -22.7691E-03     103.683E-03     102.767E-03     59.2716E+06     617.320E+03    -46.5822E+06    -65.5825E+06    -53.4752E+06    -58.6895E+06     617.320E+03    -8.02386E+06
            1933     111.619E-03     10.7334E-03     111.102E-03     102.978E-03    -25.1905E-03    -77.7901E-03    -56.2018E-03     81.3897E-03    -25.1905E-03     117.066E-03     125.419E-03     62.8048E+06     6.30046E+06    -35.4706E+06    -65.6804E+06    -45.1758E+06    -55.9753E+06     6.30046E+06    -13.7568E+06
            1934     111.790E-03     11.6757E-03     111.178E-03     117.890E-03    -28.0514E-03    -89.8373E-03    -68.1657E-03     96.2183E-03    -28.0514E-03     126.854E-03     152.548E-03     58.4622E+06     7.48902E+06    -26.0856E+06    -59.9641E+06    -39.1235E+06    -46.9261E+06     7.48902E+06    -16.1161E+06
            1935     111.983E-03     12.6065E-03     111.271E-03     135.313E-03    -31.3967E-03    -103.918E-03    -81.4822E-03     112.877E-03    -31.3967E-03     139.382E-03     190.710E-03     56.4520E+06     11.2643E+06    -16.3091E+06    -53.5479E+06    -34.8467E+06    -35.0102E+06     11.2643E+06    -18.5362E+06
            1936     112.200E-03     13.5249E-03     111.382E-03     155.421E-03    -35.1533E-03    -120.281E-03    -96.6323E-03     131.772E-03    -35.1533E-03     154.303E-03     245.457E-03     55.7306E+06     5.50627E+06    -12.0831E+06    -56.3211E+06    -26.5062E+06    -37.7816E+06     1.38992E+06    -22.5121E+06
            1937     112.450E-03     14.4286E-03     111.521E-03     175.929E-03    -39.3339E-03    -136.611E-03    -110.237E-03     149.555E-03    -39.3339E-03     173.693E-03     324.710E-03     73.1900E+06     48.4967E+06     19.7533E+06    -33.7353E+06    -13.3700E+06     27.8959E+06     19.9889E+06    -19.0319E+06
            1938     112.744E-03     15.3239E-03     111.698E-03     196.081E-03    -43.7289E-03    -152.371E-03    -118.175E-03     161.885E-03    -43.7289E-03     206.883E-03     444.792E-03     98.8444E+06     106.899E+06     58.0016E+06    -6.80422E+06    -5.57510E+06     105.670E+06     58.0016E+06    -11.3142E+06
            1939     113.108E-03     16.2133E-03     111.940E-03     189.795E-03    -48.1025E-03    -141.707E-03    -118.091E-03     166.180E-03    -48.1025E-03     160.032E-03     472.321E-03     122.417E+06     130.138E+06      93.973E+06    -4.62798E+06    -4.04104E+06     117.892E+06     105.632E+06    -7.88103E+06
            1940     111.931E-03     992.012E-06     111.927E-03     17.5100E-03    -8.47821E-03    -9.03194E-03    -8.75012E-03     17.2282E-03    -8.47821E-03     5.10053E-03     17.5315E-03     75.8407E+06     45.5460E+06    -25.3671E+06    -34.2665E+06    -30.0720E+06     44.0060E+06    -28.0215E+06     8.09423E+06
            1941     111.943E-03     1.98339E-03     111.925E-03     19.0315E-03    -8.76611E-03    -10.2653E-03    -9.41292E-03     18.1791E-03    -8.76611E-03     9.57402E-03     19.0902E-03     77.4181E+06     29.3957E+06    -42.8873E+06    -51.9285E+06    -43.8751E+06     23.2969E+06    -44.8420E+06     19.6667E+06
            1942     111.965E-03     2.97359E-03     111.925E-03     21.6206E-03    -9.18961E-03    -12.4307E-03    -10.5156E-03     19.7055E-03    -9.18961E-03     15.4538E-03     21.7756E-03     75.4721E+06     7.19167E+06    -54.6747E+06    -75.7437E+06    -59.8971E+06    -7.64757E+06    -55.6820E+06     30.4393E+06
            1943     111.996E-03     3.96255E-03     111.925E-03     25.4130E-03    -9.76890E-03    -15.6432E-03    -12.0556E-03     21.8254E-03    -9.76890E-03     22.9812E-03     25.7640E-03     69.5979E+06    -13.7347E+06    -60.7753E+06    -93.2536E+06    -71.9237E+06    -35.0647E+06    -60.7753E+06     35.0612E+06
            1944     112.041E-03     4.94980E-03     111.932E-03     30.7277E-03    -10.5076E-03    -20.2132E-03    -14.2903E-03     24.8048E-03    -10.5076E-03     32.4987E-03     31.4558E-03     62.8868E+06    -27.5628E+06    -59.6943E+06    -99.4569E+06    -78.0925E+06    -48.9272E+06    -59.6943E+06     32.7134E+06
            1945     112.100E-03     5.93427E-03     111.943E-03     37.7373E-03    -11.4758E-03    -26.2509E-03    -17.4470E-03     28.9334E-03    -11.4758E-03     43.9632E-03     39.1454E-03     52.1890E+06    -38.9619E+06    -52.2562E+06    -96.0849E+06    -79.3005E+06    -56.8555E+06    -51.1469E+06     25.2847E+06
            1946     112.178E-03     6.91514E-03     111.964E-03     46.6401E-03    -12.6959E-03    -33.9475E-03    -21.7270E-03     34.4196E-03    -12.6959E-03     57.7007E-03     49.3263E-03     43.3113E+06    -37.7794E+06    -50.0310E+06    -85.1514E+06    -76.4006E+06    -57.4123E+06    -39.1490E+06     15.0698E+06
            1947     112.274E-03     7.89162E-03     111.996E-03     57.4039E-03    -14.1988E-03    -43.2163E-03    -27.4009E-03     41.5885E-03    -14.1988E-03     73.1528E-03     62.1163E-03     41.9197E+06    -26.0740E+06    -54.5282E+06    -73.0782E+06    -70.6410E+06    -56.9654E+06    -26.0740E+06     3.92200E+06
            1948     112.392E-03     8.86204E-03     112.042E-03     70.1228E-03    -16.0444E-03    -54.0852E-03    -34.8045E-03     50.8421E-03    -16.0444E-03     89.8579E-03     78.0701E-03     48.1240E+06    -12.7308E+06    -50.3162E+06    -66.3835E+06    -62.0895E+06    -54.6101E+06    -12.7308E+06    -6.04443E+06
            1949     112.533E-03     9.82547E-03     112.103E-03     85.9352E-03    -18.2943E-03    -67.6572E-03    -44.5272E-03     62.8052E-03    -18.2943E-03     109.753E-03     99.4975E-03     55.1993E+06    -1.30968E+06    -39.2481E+06    -64.2422E+06    -52.2238E+06    -51.2665E+06    -1.30968E+06    -12.2841E+06
            1950     112.702E-03     10.7786E-03     112.185E-03     102.905E-03    -21.0110E-03    -81.8946E-03    -56.6458E-03     77.6560E-03    -21.0110E-03     126.696E-03     124.278E-03     59.9140E+06     4.88608E+06    -30.3828E+06    -64.0924E+06    -44.9496E+06    -49.5257E+06     4.88608E+06    -16.4989E+06
            1951     112.889E-03     11.7203E-03     112.279E-03     120.115E-03    -24.2356E-03    -95.8595E-03    -70.2799E-03     94.5349E-03    -24.2356E-03     139.380E-03     153.259E-03     58.9485E+06     6.53421E+06    -22.4106E+06    -61.1062E+06    -38.3513E+06    -45.1654E+06     6.53421E+06    -18.8279E+06
            1952     113.101E-03     12.6497E-03     112.391E-03     140.684E-03    -28.0123E-03    -112.652E-03    -85.8316E-03     113.864E-03    -28.0123E-03     155.718E-03     193.924E-03     57.5156E+06     13.8208E+06    -7.91251E+06    -51.0724E+06    -31.4283E+06    -27.5566E+06     13.8208E+06    -20.4490E+06
            1953     113.340E-03     13.5644E-03     112.525E-03     164.628E-03    -32.2683E-03    -132.355E-03    -103.658E-03     135.931E-03    -32.2683E-03     175.319E-03     252.202E-03     63.8388E+06     13.2108E+06    -4.59140E+06    -57.5451E+06    -28.0255E+06    -25.3318E+06     4.43161E+06    -29.4521E+06
            1954     113.615E-03     14.4628E-03     112.691E-03     186.900E-03    -37.0144E-03    -149.899E-03    -119.339E-03     156.341E-03    -37.0144E-03     193.404E-03     332.693E-03     81.8592E+06     42.9869E+06     11.3728E+06    -49.4908E+06    -23.9568E+06     17.4528E+06     11.3728E+06    -31.4468E+06
            1955     113.919E-03     15.3489E-03     112.880E-03     208.815E-03    -42.1103E-03    -166.693E-03    -130.281E-03     172.402E-03    -42.1103E-03     222.016E-03     450.306E-03     101.353E+06     96.6217E+06     51.6819E+06    -19.0790E+06    -14.7214E+06     92.2640E+06     51.6819E+06    -17.2638E+06
            1956     114.297E-03     16.2269E-03     113.139E-03     203.826E-03    -47.2842E-03    -156.527E-03    -133.003E-03     180.303E-03    -47.2842E-03     163.641E-03     469.844E-03     123.090E+06     130.484E+06     90.2406E+06    -7.10615E+06    -6.74629E+06     111.986E+06     108.379E+06    -5.92801E+06
            1957     112.942E-03     996.200E-06     112.938E-03     8.78701E-03    -4.18136E-03    -4.60608E-03    -4.38795E-03     8.56888E-03    -4.18136E-03     3.17149E-03     8.83675E-03     107.258E+06     22.0995E+06    -74.2214E+06    -92.6228E+06    -85.4959E+06     14.9725E+06    -74.2214E+06     25.2317E+06
            1958     112.957E-03     1.99162E-03     112.939E-03     10.5128E-03    -4.56540E-03    -5.94707E-03    -5.23908E-03     9.80479E-03    -4.56540E-03     6.52447E-03     10.6447E-03     103.282E+06     10.6829E+06    -74.0615E+06    -103.267E+06    -91.5008E+06    -1.08366E+06    -74.0615E+06     34.0979E+06
            1959     112.979E-03     2.98594E-03     112.939E-03     13.2612E-03    -5.07371E-03    -8.18743E-03    -6.47071E-03     11.5445E-03    -5.07371E-03     11.4813E-03     13.5404E-03     90.5251E+06    -7.16484E+06    -72.3868E+06    -110.055E+06    -90.1202E+06    -27.1000E+06    -72.3868E+06     39.7868E+06
            1960     113.014E-03     3.97879E-03     112.944E-03     17.3482E-03    -5.69133E-03    -11.6578E-03    -8.19861E-03     13.8890E-03    -5.69133E-03     18.6665E-03     17.8820E-03     80.1315E+06    -19.1433E+06    -70.7669E+06    -111.412E+06    -85.7302E+06    -44.8255E+06    -70.7669E+06     41.1836E+06
            1961     113.061E-03     4.96958E-03     112.952E-03     23.1365E-03    -6.48154E-03    -16.6536E-03    -10.6728E-03     17.1556E-03    -6.48154E-03     28.3313E-03     24.0977E-03     69.9662E+06    -26.1631E+06    -64.8000E+06    -106.625E+06    -82.4518E+06    -50.3362E+06    -64.8000E+06     36.7381E+06
            1962     113.126E-03     5.95764E-03     112.969E-03     30.6463E-03    -7.50429E-03    -23.1374E-03    -13.9779E-03     21.4867E-03    -7.50429E-03     40.3443E-03     32.2888E-03     54.0817E+06    -33.8845E+06    -53.4302E+06    -94.5663E+06    -78.3783E+06    -50.0725E+06    -53.4302E+06     26.5818E+06
            1963     113.207E-03     6.94224E-03     112.994E-03     40.2505E-03    -8.77816E-03    -31.4752E-03    -18.3695E-03     27.1447E-03    -8.77816E-03     55.3455E-03     43.1082E-03     40.4489E+06    -33.7397E+06    -45.8687E+06    -78.6238E+06    -72.0321E+06    -47.2462E+06    -38.9539E+06     13.8601E+06
            1964     113.312E-03     7.92211E-03     113.035E-03     51.9584E-03    -10.3340E-03    -41.6335E-03    -24.2342E-03     34.5591E-03    -10.3340E-03     72.7243E-03     56.7294E-03     36.7433E+06    -24.6264E+06    -43.5531E+06    -66.3724E+06    -64.5545E+06    -45.3710E+06    -24.6264E+06     1.84165E+06
            1965     113.439E-03     8.89596E-03     113.090E-03     65.9992E-03    -12.2288E-03    -53.7686E-03    -31.9901E-03     44.2207E-03    -12.2288E-03     92.2769E-03     73.8401E-03     43.6573E+06    -13.4593E+06    -38.5108E+06    -63.4165E+06    -58.0819E+06    -43.8454E+06    -13.4593E+06    -8.91266E+06
            1966     113.593E-03     9.86186E-03     113.164E-03     83.7096E-03    -14.5572E-03    -69.1599E-03    -42.4065E-03     56.9562E-03    -14.5572E-03     116.042E-03     96.8790E-03     53.0278E+06    -4.29533E+06    -31.8324E+06    -65.2130E+06    -51.7283E+06    -45.3172E+06    -4.29533E+06    -15.9490E+06
            1967     113.778E-03     10.8183E-03     113.263E-03     102.661E-03    -17.3951E-03    -85.2866E-03    -55.4430E-03     72.8175E-03    -17.3951E-03     137.098E-03     123.271E-03     59.2703E+06     3.79152E+06    -23.0920E+06    -63.8284E+06    -44.0446E+06    -42.8758E+06     3.79152E+06    -20.1545E+06
            1968     113.986E-03     11.7610E-03     113.378E-03     122.362E-03    -20.7942E-03    -101.575E-03    -70.7704E-03     91.5575E-03    -20.7942E-03     153.966E-03     154.330E-03     62.5265E+06     7.07139E+06    -14.0707E+06    -62.9788E+06    -35.2628E+06    -41.7867E+06     7.07139E+06    -24.0403E+06
            1969     114.216E-03     12.6901E-03     113.509E-03     146.343E-03    -24.8173E-03    -121.510E-03    -88.6378E-03     113.471E-03    -24.8173E-03     175.542E-03     197.866E-03     59.9746E+06     14.9454E+06     1.19290E+06    -50.5291E+06    -25.8453E+06    -23.4909E+06     14.9454E+06    -24.4528E+06
            1970     114.484E-03     13.6030E-03     113.673E-03     173.399E-03    -29.4259E-03    -143.967E-03    -108.725E-03     138.157E-03    -29.4259E-03     199.163E-03     258.759E-03     56.2697E+06     16.4895E+06     6.36399E+06    -43.9840E+06    -21.8128E+06    -11.1443E+06     11.8266E+06    -26.4827E+06
            1971     114.783E-03     14.4988E-03     113.863E-03     197.602E-03    -34.6067E-03    -163.004E-03    -127.107E-03     161.705E-03    -34.6067E-03     215.735E-03     340.511E-03     73.6926E+06     38.4877E+06     12.9123E+06    -43.9089E+06    -24.2028E+06     18.3154E+06     13.3785E+06    -31.0954E+06
            1972     115.111E-03     15.3791E-03     114.079E-03     222.803E-03    -40.3074E-03    -182.434E-03    -142.366E-03     182.735E-03    -40.3074E-03     241.834E-03     456.009E-03     99.8324E+06     80.8585E+06     46.2287E+06    -31.2549E+06    -23.1884E+06     72.7920E+06     46.2287E+06    -26.0073E+06
            1973     115.501E-03     16.2469E-03     114.353E-03     221.210E-03    -46.2870E-03    -174.827E-03    -150.371E-03     196.754E-03    -46.2870E-03     170.999E-03     464.929E-03     121.620E+06     118.673E+06     83.9388E+06    -16.2987E+06    -13.7973E+06     95.6210E+06     104.489E+06    -12.4972E+06
            1974     113.949E-03     998.234E-06     113.944E-03     4.23002E-03    -1.99197E-03    -2.23800E-03    -2.07051E-03     4.07490E-03    -2.00434E-03     1.79416E-03     4.32504E-03     95.8439E+06    -22.3800E+06    -106.259E+06    -126.063E+06    -111.685E+06    -35.8914E+06    -107.125E+06     33.5042E+06
            1975     113.962E-03     1.99569E-03     113.945E-03     5.54886E-03    -2.26510E-03    -3.28292E-03    -2.68187E-03     4.94781E-03    -2.26510E-03     4.31905E-03     5.80949E-03     107.895E+06    -6.01347E+06    -89.5390E+06    -127.574E+06    -107.909E+06    -25.6783E+06    -89.5390E+06     43.6257E+06
            1976     113.987E-03     2.99246E-03     113.948E-03     8.08135E-03    -2.66248E-03    -5.41848E-03    -3.83755E-03     6.50042E-03    -2.66248E-03     8.56719E-03     8.54512E-03     92.2574E+06    -20.7303E+06    -86.0007E+06    -126.203E+06    -105.065E+06    -41.8677E+06    -86.0007E+06     41.7707E+06
            1977     114.023E-03     3.98809E-03     113.953E-03     12.1484E-03    -3.20704E-03    -8.94452E-03    -5.59400E-03     8.79789E-03    -3.20704E-03     15.3319E-03     12.9123E-03     78.9512E+06    -30.4643E+06    -84.5177E+06    -121.029E+06    -98.9079E+06    -52.5849E+06    -84.5177E+06     38.2726E+06
            1978     114.075E-03     4.98174E-03     113.966E-03     17.8979E-03    -3.94931E-03    -13.9544E-03    -7.95609E-03     11.8996E-03    -3.94931E-03     24.8380E-03     19.1093E-03     65.0296E+06    -30.1492E+06    -73.7775E+06    -104.392E+06    -86.4307E+06    -48.1105E+06    -73.7775E+06     30.5168E+06
            1979     114.143E-03     5.97266E-03     113.986E-03     25.4480E-03    -4.91110E-03    -20.5394E-03    -11.0531E-03     15.9617E-03    -4.91110E-03     37.1495E-03     27.3219E-03     43.4964E+06    -31.4290E+06    -56.4400E+06    -80.7962E+06    -70.5446E+06    -41.6807E+06    -56.4400E+06     18.9016E+06
            1980     114.232E-03     6.96027E-03     114.019E-03     35.4027E-03    -6.10984E-03    -29.2868E-03    -15.2829E-03     21.3988E-03    -6.10984E-03     53.2113E-03     38.4344E-03     28.7213E+06    -30.7701E+06    -41.6708E+06    -62.9049E+06    -57.9915E+06    -39.0480E+06    -38.3064E+06     9.73040E+06
            1981     114.342E-03     7.94351E-03     114.066E-03     47.5164E-03    -7.57516E-03    -39.9358E-03    -20.8846E-03     28.4651E-03    -7.57516E-03     72.1132E-03     52.3492E-03     28.1053E+06    -23.1513E+06    -32.8472E+06    -54.6476E+06    -52.6982E+06    -34.7966E+06    -23.1513E+06     1.72006E+06
            1982     114.480E-03     8.92122E-03     114.132E-03     62.5622E-03    -9.37974E-03    -53.1798E-03    -28.6382E-03     38.0206E-03    -9.37974E-03     94.5087E-03     70.3313E-03     37.9359E+06    -11.2676E+06    -28.8909E+06    -54.7205E+06    -51.1446E+06    -32.4668E+06    -11.2676E+06    -7.44696E+06
            1983     114.645E-03     9.89116E-03     114.218E-03     81.9430E-03    -11.6264E-03    -70.3153E-03    -39.3736E-03     51.0013E-03    -11.6264E-03     122.388E-03     94.8241E-03     51.3304E+06    -2.30294E+06    -23.6488E+06    -60.6313E+06    -47.9135E+06    -36.3666E+06    -2.30294E+06    -17.1907E+06
            1984     114.848E-03     10.8499E-03     114.334E-03     102.363E-03    -14.3913E-03    -87.9875E-03    -52.7251E-03     67.1007E-03    -14.3913E-03     147.614E-03     122.277E-03     60.8909E+06     4.36933E+06    -13.7249E+06    -63.3609E+06    -41.1814E+06    -35.9043E+06     4.36933E+06    -24.5825E+06
            1985     115.073E-03     11.7982E-03     114.467E-03     124.358E-03    -17.7722E-03    -106.609E-03    -69.3286E-03     87.0780E-03    -17.7722E-03     169.611E-03     155.049E-03     67.3878E+06     8.79124E+06    -4.55602E+06    -64.1194E+06    -33.2637E+06    -35.4117E+06     8.79124E+06    -29.5482E+06
            1986     115.332E-03     12.7288E-03     114.627E-03     151.443E-03    -21.8538E-03    -129.591E-03    -89.4745E-03     111.326E-03    -21.8538E-03     196.342E-03     201.241E-03     67.8112E+06     14.8335E+06     6.91842E+06    -56.5164E+06    -26.2058E+06    -23.3921E+06     14.8335E+06    -31.2067E+06
            1987     115.624E-03     13.6429E-03     114.816E-03     181.738E-03    -26.6483E-03    -155.091E-03    -111.889E-03     138.537E-03    -26.6483E-03     224.955E-03     263.916E-03     60.1358E+06     19.8864E+06     16.4638E+06    -41.8529E+06    -18.1025E+06    -7.28652E+06     19.8864E+06    -28.5929E+06
            1988     115.959E-03     14.5359E-03     115.045E-03     209.264E-03    -32.1406E-03    -177.121E-03    -134.007E-03     166.150E-03    -32.1406E-03     242.850E-03     346.896E-03     62.7904E+06     39.9002E+06     28.5106E+06    -27.0208E+06    -11.5361E+06     23.6010E+06     29.3252E+06    -25.2889E+06
            1989     116.306E-03     15.4108E-03     115.280E-03     239.562E-03    -38.3599E-03    -201.154E-03    -155.856E-03     194.264E-03    -38.3599E-03     267.622E-03     463.952E-03     80.5978E+06     74.3671E+06     55.4861E+06    -13.5074E+06    -7.20635E+06     65.8270E+06     57.7252E+06    -20.4176E+06
            1990     116.732E-03     16.2657E-03     115.593E-03     242.070E-03    -45.1735E-03    -196.820E-03    -170.376E-03     215.625E-03    -45.1735E-03     184.060E-03     463.229E-03     109.708E+06     113.469E+06     76.5356E+06    -9.01019E+06    -6.25208E+06     79.8444E+06     107.402E+06    -13.0944E+06
            1991     114.950E-03     998.325E-06     114.946E-03     2.49927E-03    -1.20498E-03    -1.29427E-03    -1.18161E-03     2.41171E-03    -1.23009E-03     979.521E-06     2.56888E-03     98.4943E+06    -74.2805E+06    -166.555E+06    -177.453E+06    -165.462E+06    -82.1546E+06    -170.672E+06     17.2764E+06
            1992     114.967E-03     1.99742E-03     114.949E-03     3.12512E-03    -1.27352E-03    -1.85146E-03    -1.41475E-03     2.68841E-03    -1.27352E-03     2.70882E-03     3.35932E-03     113.271E+06    -37.6163E+06    -137.224E+06    -159.972E+06    -138.967E+06    -51.7898E+06    -144.057E+06     31.0891E+06
            1993     114.991E-03     2.99564E-03     114.952E-03     5.37273E-03    -1.53452E-03    -3.83835E-03    -2.36608E-03     3.90046E-03    -1.53452E-03     6.69717E-03     5.89359E-03     92.5152E+06    -35.2879E+06    -110.530E+06    -137.682E+06    -114.884E+06    -50.0570E+06    -118.559E+06     32.5950E+06
            1994     115.031E-03     3.99215E-03     114.961E-03     9.54286E-03    -2.01166E-03    -7.53428E-03    -4.06586E-03     6.07444E-03    -2.01166E-03     13.6942E-03     10.4699E-03     63.5375E+06    -42.3198E+06    -88.6701E+06    -114.448E+06    -94.0135E+06    -54.3843E+06    -97.0400E+06     24.6939E+06
            1995     115.084E-03     4.98686E-03     114.975E-03     15.1705E-03    -2.66392E-03    -12.5116E-03    -6.26070E-03     8.91962E-03    -2.66392E-03     23.1144E-03     16.5625E-03     47.6518E+06    -36.8214E+06    -72.2629E+06    -90.8470E+06    -76.5925E+06    -43.8568E+06    -79.4821E+06     16.5011E+06
            1996     115.156E-03     5.97993E-03     115.000E-03     22.4129E-03    -3.51504E-03    -18.8991E-03    -9.08283E-03     12.5967E-03    -3.51504E-03     35.1444E-03     24.4144E-03     37.4035E+06    -32.7069E+06    -62.1730E+06    -74.7356E+06    -68.8643E+06    -36.1560E+06    -64.5953E+06     10.9436E+06
            1997     115.248E-03     6.97022E-03     115.037E-03     32.0256E-03    -4.57941E-03    -27.4452E-03    -12.7751E-03     17.3555E-03    -4.57941E-03     51.2398E-03     35.0811E-03     34.4287E+06    -29.6411E+06    -50.3563E+06    -68.4149E+06    -65.5501E+06    -32.8421E+06    -50.0202E+06     4.60248E+06
            1998     115.367E-03     7.95648E-03     115.092E-03     44.0691E-03    -5.88779E-03    -38.1828E-03    -17.7598E-03     23.6461E-03    -5.88779E-03     71.0193E-03     48.7687E-03     34.3995E+06    -19.4957E+06    -33.3431E+06    -58.2928E+06    -55.1652E+06    -25.3979E+06    -30.5684E+06    -3.96325E+06
            1999     115.511E-03     8.93779E-03     115.164E-03     59.8382E-03    -7.52148E-03    -52.3184E-03    -25.1386E-03     32.6583E-03    -7.52148E-03     96.0363E-03     67.2897E-03     37.6569E+06    -5.70949E+06    -20.5265E+06    -48.3193E+06    -40.3314E+06    -24.6384E+06    -9.58544E+06    -10.6634E+06
            2000     115.691E-03     9.91130E-03     115.265E-03     80.1150E-03    -9.56626E-03    -70.5454E-03    -35.5102E-03     45.0797E-03    -9.56626E-03     127.176E-03     92.3483E-03      45.449E+06     5.56779E+06    -12.7173E+06    -45.7871E+06    -32.0005E+06    -26.5039E+06     5.56779E+06    -15.3969E+06
            2001     115.907E-03     10.8765E-03     115.396E-03     101.959E-03    -12.1201E-03    -89.8325E-03    -49.0893E-03     61.2155E-03    -12.1201E-03     156.643E-03     120.839E-03     57.2416E+06     12.2678E+06    -4.61643E+06    -51.1344E+06    -31.1805E+06    -24.5703E+06     12.2678E+06    -22.8868E+06
            2002     116.156E-03     11.8269E-03     115.552E-03     126.066E-03    -15.3342E-03    -110.733E-03    -66.6656E-03     81.9991E-03    -15.3342E-03     184.011E-03     155.095E-03     69.1017E+06     15.1721E+06     1.98950E+06    -59.4923E+06    -31.1491E+06    -26.3537E+06     15.1721E+06    -30.6071E+06
            2003     116.438E-03     12.7632E-03     115.736E-03     155.441E-03    -19.3240E-03    -136.117E-03    -88.4185E-03     107.742E-03    -19.3240E-03     215.401E-03     202.531E-03     74.8817E+06     19.6535E+06     9.90116E+06    -59.5139E+06    -28.4441E+06    -21.1687E+06     19.6535E+06    -34.4234E+06
            2004     116.764E-03     13.6788E-03     115.960E-03     188.335E-03    -24.1266E-03    -164.214E-03    -113.155E-03     137.276E-03    -24.1266E-03     247.865E-03     265.544E-03     74.9235E+06     25.3181E+06     19.1710E+06    -52.4264E+06    -24.7425E+06    -8.51287E+06     25.3181E+06    -34.6288E+06
            2005     117.130E-03     14.5770E-03     116.219E-03     220.234E-03    -29.7961E-03    -190.439E-03    -139.899E-03     169.694E-03    -29.7961E-03     269.294E-03     348.579E-03     79.1557E+06     43.4560E+06     36.8522E+06    -38.7555E+06    -19.6227E+06     21.8475E+06     39.3280E+06    -32.8511E+06
            2006     117.522E-03     15.4461E-03     116.502E-03     257.446E-03    -36.4701E-03    -220.968E-03    -169.536E-03     206.013E-03    -36.4701E-03     296.309E-03     473.255E-03     87.8480E+06     70.6452E+06     60.8564E+06    -21.6739E+06    -10.5397E+06     53.8502E+06     66.5172E+06    -26.1851E+06
            2007     117.980E-03     16.2878E-03     116.851E-03     264.137E-03    -44.1117E-03    -220.038E-03    -190.863E-03     234.962E-03    -44.1117E-03     201.690E-03     467.596E-03     110.699E+06     114.213E+06     66.7595E+06    -7.97513E+06    -2.52503E+06     61.3094E+06     114.213E+06    -10.1155E+06
            2008     115.954E-03     998.188E-06     115.950E-03     3.14497E-03    -1.55249E-03    -1.59262E-03    -1.53533E-03     3.12680E-03    -1.59160E-03     249.173E-06     3.17901E-03     104.917E+06    -94.9508E+06    -196.422E+06    -202.850E+06    -198.818E+06    -95.7318E+06    -199.673E+06    -3.79149E+06
            2009     115.967E-03     1.99597E-03     115.950E-03     3.34444E-03    -1.57997E-03    -1.76446E-03    -1.59570E-03     3.19086E-03    -1.59516E-03     1.15912E-03     3.48582E-03     113.169E+06    -65.0740E+06    -171.144E+06    -184.165E+06    -174.116E+06    -68.2902E+06    -177.976E+06    -1.42827E+06
            2010     115.994E-03     2.99463E-03     115.956E-03     4.70040E-03    -1.72514E-03    -2.97526E-03    -2.12958E-03     3.85471E-03    -1.72514E-03     4.27620E-03     5.12041E-03     100.009E+06    -49.0306E+06    -142.605E+06    -154.073E+06    -141.323E+06    -53.7523E+06    -150.634E+06     2.49135E+06
            2011     116.034E-03     3.99263E-03     115.965E-03     7.92941E-03    -2.00224E-03    -5.92758E-03    -3.37659E-03     5.37842E-03    -2.00224E-03     10.5031E-03     8.72258E-03     80.5854E+06    -44.1299E+06    -115.969E+06    -130.113E+06    -111.388E+06    -49.1288E+06    -129.695E+06    -1.98284E+06
            2012     116.091E-03     4.98893E-03     115.984E-03     13.0272E-03    -2.45455E-03    -10.5740E-03    -5.27312E-03     7.72636E-03    -2.45455E-03     19.6257E-03     14.2063E-03     68.9082E+06    -37.2777E+06    -91.6461E+06    -114.129E+06    -86.8389E+06    -42.0849E+06    -114.129E+06    -5.31319E+06
            2013     116.165E-03     5.98224E-03     116.011E-03     20.2310E-03    -3.18862E-03    -17.0428E-03    -7.88817E-03     11.0764E-03    -3.18862E-03     32.0742E-03     22.0128E-03     52.4888E+06    -29.7439E+06    -68.8327E+06    -89.3201E+06    -64.7057E+06    -37.6433E+06    -85.5476E+06     -2.4562E+06
            2014     116.263E-03     6.97257E-03     116.053E-03     29.7645E-03    -4.14759E-03    -25.6170E-03    -11.2499E-03     15.3975E-03    -4.14759E-03     48.5429E-03     32.5431E-03     40.8550E+06    -18.1511E+06    -44.8037E+06    -64.7556E+06    -47.6875E+06    -26.6255E+06    -53.3975E+06    -3.08368E+06
            2015     116.384E-03     7.96076E-03     116.111E-03     41.6623E-03    -5.30209E-03    -36.3652E-03    -15.7907E-03     21.0878E-03    -5.30209E-03     68.7617E-03     45.9133E-03     34.2638E+06    -11.9526E+06    -26.7102E+06    -50.8563E+06    -41.3853E+06    -17.2153E+06    -30.9185E+06    -9.04117E+06
            2016     116.537E-03     8.94467E-03     116.193E-03     57.2390E-03    -6.74295E-03    -50.4975E-03    -22.3080E-03     29.0495E-03    -6.74295E-03     94.6991E-03     63.8881E-03     40.1592E+06    -8.61396E+06    -16.8595E+06    -51.9576E+06    -43.2609E+06    -20.1651E+06    -14.0052E+06    -12.7469E+06
            2017     116.726E-03     9.92273E-03     116.303E-03     77.4916E-03    -8.53514E-03    -68.9475E-03    -31.5655E-03     40.1096E-03    -8.53514E-03     127.656E-03     88.2342E-03     55.5941E+06     5.80403E+06    -5.53854E+06    -53.8282E+06    -39.9798E+06    -16.5443E+06     2.96146E+06    -19.1845E+06
            2018     116.959E-03     10.8912E-03     116.451E-03     100.578E-03    -10.8153E-03    -89.7539E-03    -44.8907E-03     55.7148E-03    -10.8153E-03     161.385E-03     117.327E-03     63.1539E+06     20.5382E+06     3.99106E+06    -48.6810E+06    -27.0633E+06    -15.3705E+06     18.2820E+06    -26.0388E+06
            2019     117.227E-03     11.8485E-03     116.627E-03     126.517E-03    -13.7653E-03    -112.747E-03    -63.0047E-03     76.7744E-03    -13.7653E-03     193.926E-03     152.545E-03     66.4083E+06     27.5914E+06     8.03303E+06    -46.2298E+06    -17.8845E+06    -20.3122E+06     27.5914E+06    -26.5769E+06
            2020     117.536E-03     12.7872E-03     116.838E-03     158.319E-03    -17.5465E-03    -140.772E-03    -86.3287E-03     103.876E-03    -17.5465E-03     230.544E-03     200.834E-03     71.9872E+06     34.8946E+06     14.3921E+06    -44.7289E+06    -17.7493E+06    -12.5875E+06     34.8946E+06    -28.3880E+06
            2021     117.893E-03     13.7088E-03     117.094E-03     194.280E-03    -22.2926E-03    -171.991E-03    -114.690E-03     136.979E-03    -22.2926E-03     265.725E-03     265.024E-03     80.3056E+06     42.6367E+06     26.0358E+06    -44.3497E+06    -15.9520E+06    -2.36188E+06     42.6367E+06    -33.7827E+06
            2022     118.298E-03     14.6033E-03     117.393E-03     229.307E-03    -28.0633E-03    -201.243E-03    -144.875E-03     172.939E-03    -28.0633E-03     290.000E-03     346.179E-03     84.5478E+06     56.8799E+06     40.6352E+06    -33.9140E+06    -10.5750E+06     19.5724E+06     54.6038E+06    -33.4974E+06
            2023     118.738E-03     15.4716E-03     117.726E-03     274.830E-03    -35.0079E-03    -239.818E-03    -181.104E-03     216.116E-03    -35.0079E-03     327.053E-03     477.260E-03     87.9584E+06     73.9822E+06     50.6911E+06    -21.6268E+06    -10.1936E+06     41.5340E+06     71.7060E+06    -23.7180E+06
            2024     119.254E-03     16.3028E-03     118.135E-03     285.255E-03    -43.2613E-03    -241.998E-03    -208.541E-03     251.798E-03    -43.2613E-03     224.408E-03     471.290E-03     116.881E+06     115.427E+06     47.8526E+06    -15.3431E+06    -9.83943E+06     42.3489E+06     115.427E+06    -8.46309E+06
            2025     116.957E-03     996.575E-06     116.952E-03     6.16970E-03    -3.03762E-03    -3.13221E-03    -3.08648E-03     6.16295E-03    -3.07660E-03    -435.924E-06     6.22138E-03     76.4786E+06    -78.8379E+06    -152.122E+06    -157.987E+06    -155.948E+06    -80.8770E+06    -152.122E+06    -11.6742E+06
            2026     116.973E-03     1.99351E-03     116.956E-03     6.64801E-03    -3.18234E-03    -3.46573E-03    -3.43445E-03     6.63192E-03    -3.19753E-03    -121.749E-06     6.82276E-03     88.7340E+06    -60.4125E+06    -141.951E+06    -154.825E+06    -150.900E+06    -64.3376E+06    -141.951E+06    -18.5230E+06
            2027     116.998E-03     2.98934E-03     116.960E-03     7.56231E-03    -3.39910E-03    -4.16310E-03    -3.98180E-03     7.38101E-03    -3.39910E-03     1.73873E-03     7.99986E-03     95.5743E+06    -45.8359E+06    -133.899E+06    -146.977E+06    -141.940E+06    -50.8724E+06    -133.899E+06    -20.6931E+06
            2028     117.039E-03     3.98508E-03     116.972E-03     9.20915E-03    -3.64301E-03    -5.56642E-03    -4.66583E-03     8.30856E-03    -3.64301E-03     5.87881E-03     9.99680E-03     102.107E+06    -32.3033E+06    -123.178E+06    -141.979E+06    -129.684E+06    -39.2429E+06    -128.534E+06    -24.3701E+06
            2029     117.096E-03     4.98039E-03     116.990E-03     12.3579E-03    -3.97009E-03    -8.38802E-03    -5.70586E-03     9.67578E-03    -3.97009E-03     12.9687E-03     13.5321E-03     103.291E+06    -24.4817E+06    -105.454E+06    -140.203E+06    -113.139E+06    -36.2821E+06    -120.717E+06    -30.8341E+06
            2030     117.174E-03     5.97527E-03     117.022E-03     17.9507E-03    -4.45915E-03    -13.4899E-03    -7.49834E-03     11.9592E-03    -4.45915E-03     24.1381E-03     19.5554E-03     88.9887E+06    -20.9064E+06    -88.3735E+06    -121.420E+06    -88.4628E+06    -39.5704E+06    -102.666E+06    -32.3340E+06
            2031     117.273E-03     6.96815E-03     117.066E-03     26.3690E-03    -5.09933E-03    -21.2685E-03    -10.2887E-03     15.3892E-03    -5.09933E-03     39.8823E-03     28.4825E-03     74.5699E+06    -7.82461E+06    -70.4248E+06    -88.9122E+06    -58.8186E+06    -26.5867E+06    -81.7562E+06    -27.6877E+06
            2032     117.401E-03     7.95651E-03     117.131E-03     38.0903E-03    -6.03352E-03    -32.0615E-03    -14.4285E-03     20.4573E-03    -6.03352E-03     60.7922E-03     41.2669E-03     48.1875E+06    -5.07817E+06    -43.8205E+06    -56.1758E+06    -34.8920E+06    -19.4161E+06    -50.7664E+06    -18.2151E+06
            2033     117.558E-03     8.94022E-03     117.218E-03     53.8856E-03    -7.31817E-03    -46.5667E-03    -20.4536E-03     27.7725E-03    -7.31817E-03     88.1022E-03     59.0882E-03     38.5949E+06     1.28960E+06    -12.1424E+06    -40.0309E+06    -20.5097E+06    -18.2315E+06    -12.1424E+06    -12.0048E+06
            2034     117.756E-03     9.91899E-03     117.337E-03     74.0931E-03    -8.88988E-03    -65.1984E-03    -29.0031E-03     37.8978E-03    -8.88988E-03     122.165E-03     82.6874E-03     53.5986E+06     21.3521E+06     7.44224E+06    -35.9180E+06    -16.7431E+06    -3.78078E+06     13.4002E+06    -16.2280E+06
            2035     117.999E-03     10.8924E-03     117.495E-03     97.4123E-03    -10.9063E-03    -86.5071E-03    -41.1476E-03     52.0528E-03    -10.9063E-03     158.488E-03     111.083E-03     62.4545E+06     27.3961E+06     5.44906E+06    -41.3779E+06    -24.3571E+06    -9.31558E+06     25.1400E+06    -22.4180E+06
            2036     118.288E-03     11.8526E-03     117.693E-03     124.148E-03    -13.5353E-03    -110.607E-03    -58.3301E-03     71.8711E-03    -13.5353E-03     195.176E-03     145.454E-03     77.4228E+06     33.7081E+06     8.79901E+06    -52.5234E+06    -28.4051E+06    -15.3193E+06     33.7081E+06    -27.5441E+06
            2037     118.622E-03     12.7995E-03     117.929E-03     159.084E-03    -17.0428E-03    -142.034E-03    -83.8075E-03     100.857E-03    -17.0428E-03     237.539E-03     194.755E-03     87.0001E+06     48.9254E+06     23.6592E+06    -47.5548E+06    -17.8469E+06    -6.04860E+06     48.9254E+06    -32.5153E+06
            2038     119.017E-03     13.7209E-03     118.223E-03     198.597E-03    -21.6775E-03    -176.920E-03    -115.889E-03     137.566E-03    -21.6775E-03     276.615E-03     259.742E-03     88.1125E+06      61.675E+06     32.8501E+06    -36.9005E+06    -6.41476E+06     2.36443E+06      61.675E+06    -33.3247E+06
            2039     119.461E-03     14.6154E-03     118.564E-03     234.974E-03    -27.4520E-03    -207.521E-03    -147.318E-03     174.771E-03    -27.4520E-03     303.050E-03     335.862E-03     85.4396E+06     70.4423E+06     35.7894E+06    -26.4102E+06    -4.93015E+06     14.3094E+06     70.4423E+06    -28.5341E+06
            2040     119.942E-03     15.4861E-03     118.938E-03     289.028E-03    -34.3250E-03    -254.700E-03    -186.582E-03     220.910E-03    -34.3250E-03     359.739E-03     467.394E-03     77.2858E+06     76.2575E+06     32.0241E+06    -12.0849E+06    -2.71128E+06     22.6505E+06     76.2575E+06    -14.1911E+06
            2041     120.551E-03     16.3143E-03     119.442E-03     305.361E-03    -42.6850E-03    -262.663E-03    -220.653E-03     263.352E-03    -42.6850E-03     263.006E-03     475.631E-03     110.999E+06     122.225E+06     41.4006E+06    -3.81851E+06     4.97293E+06     32.6092E+06     122.225E+06     1.74479E+06
            2042     117.966E-03     994.839E-06     117.962E-03     11.3393E-03    -5.53086E-03    -5.80840E-03    -5.74042E-03     11.3161E-03    -5.57560E-03    -1.20794E-03     11.3953E-03     49.9926E+06    -56.2309E+06    -103.914E+06    -108.207E+06    -104.962E+06    -59.4762E+06    -103.914E+06    -11.7981E+06
            2043     117.980E-03     1.98859E-03     117.963E-03     12.5435E-03    -5.88338E-03    -6.65987E-03    -6.62455E-03     12.5082E-03    -5.88338E-03    -1.57631E-03     12.7278E-03     62.5195E+06    -42.6652E+06    -97.8198E+06    -110.209E+06    -103.579E+06    -49.2952E+06    -97.8198E+06    -18.8480E+06
            2044     118.009E-03     2.98161E-03     117.971E-03     14.0651E-03    -6.36500E-03    -7.69817E-03    -7.66027E-03     14.0272E-03    -6.36500E-03    -767.619E-06     14.5295E-03     71.6675E+06    -29.1846E+06    -86.9128E+06    -108.999E+06    -98.6877E+06    -39.4959E+06    -86.9128E+06    -25.6135E+06
            2045     118.049E-03     3.97321E-03     117.982E-03     15.5330E-03    -6.87648E-03    -8.65586E-03    -8.50280E-03     15.3800E-03    -6.87648E-03     1.71939E-03     16.4662E-03     80.9672E+06    -14.3154E+06    -75.4697E+06    -105.637E+06    -92.9794E+06    -26.9732E+06    -75.4697E+06    -31.1316E+06
            2046     118.108E-03     4.96444E-03     118.004E-03     17.3421E-03    -7.37474E-03    -9.96973E-03    -9.28956E-03     16.6620E-03    -7.37474E-03     6.25225E-03     18.9108E-03     89.3975E+06    -6.78237E+06    -68.6257E+06    -108.864E+06    -92.6237E+06    -23.0223E+06    -68.6257E+06    -36.8269E+06
            2047     118.184E-03     5.95490E-03     118.034E-03     20.2994E-03    -7.84485E-03    -12.4530E-03    -10.2980E-03     18.1444E-03    -7.84485E-03     13.9008E-03     22.4089E-03     100.430E+06    -5.70853E+06    -73.4151E+06    -119.726E+06    -95.6854E+06    -29.7487E+06    -73.4151E+06    -45.6656E+06
            2048     118.286E-03     6.94429E-03     118.082E-03     25.2429E-03    -8.30597E-03    -16.9368E-03    -11.6902E-03     19.9962E-03    -8.30597E-03     25.9467E-03     27.5322E-03     111.747E+06     1.27586E+06    -78.8473E+06    -122.781E+06    -92.5241E+06    -26.2430E+06    -81.5850E+06    -50.3382E+06
            2049     118.414E-03     7.93367E-03     118.148E-03     33.9203E-03    -8.97004E-03    -24.9511E-03    -14.2769E-03     23.2461E-03    -8.97004E-03     44.1736E-03     36.4383E-03     97.3877E+06     1.75750E+06    -65.1339E+06    -106.515E+06    -73.9541E+06    -28.0655E+06    -67.8716E+06    -45.6092E+06
            2050     118.579E-03     8.92025E-03     118.243E-03     47.7389E-03    -9.92063E-03    -37.8135E-03    -19.0896E-03     29.0150E-03    -9.92063E-03     70.1695E-03     51.1455E-03     78.0430E+06     9.67969E+06    -38.5445E+06    -79.1224E+06    -44.8378E+06    -24.6050E+06    -38.5445E+06    -35.4632E+06
            2051     118.782E-03     9.90038E-03     118.368E-03     67.1403E-03    -11.2366E-03    -55.9005E-03    -26.6605E-03     37.9004E-03    -11.2366E-03     104.537E-03     72.7957E-03     59.9589E+06     23.8736E+06    -10.8149E+06    -43.8384E+06    -22.1804E+06    -7.59611E+06    -1.00308E+06    -20.9239E+06
            2052     119.035E-03     10.8708E-03     118.538E-03     90.7684E-03    -13.0085E-03    -77.7625E-03    -37.4288E-03     50.4348E-03    -13.0085E-03     143.763E-03     100.296E-03     51.5811E+06     34.9367E+06     5.97252E+06    -22.9638E+06    -12.0955E+06    -4.89583E+06     34.9367E+06    -10.9803E+06
            2053     119.336E-03     11.8352E-03     118.747E-03     119.278E-03    -15.3404E-03    -103.932E-03    -54.7025E-03     70.0476E-03    -15.3404E-03     184.897E-03     134.970E-03     75.5621E+06     55.7703E+06     18.6516E+06    -28.3684E+06    -10.6254E+06     908.564E+03     55.7703E+06    -17.9591E+06
            2054     119.695E-03     12.7831E-03     119.010E-03     156.447E-03    -18.6192E-03    -137.823E-03    -81.7464E-03     100.370E-03    -18.6192E-03     230.806E-03     184.067E-03     96.4954E+06     65.2018E+06     27.9395E+06    -42.3737E+06    -17.1424E+06     2.70821E+06     65.2018E+06    -29.0064E+06
            2055     120.127E-03     13.7064E-03     119.342E-03     195.917E-03    -23.0723E-03    -172.854E-03    -112.696E-03     135.760E-03    -23.0723E-03     272.198E-03     243.363E-03     108.745E+06     72.8565E+06     29.8831E+06    -50.5148E+06    -25.5969E+06     4.96514E+06     72.8565E+06    -34.1527E+06
            2056     120.609E-03     14.6038E-03     119.722E-03     233.002E-03    -28.5739E-03    -204.432E-03    -142.446E-03     171.016E-03    -28.5739E-03     304.835E-03     311.436E-03     114.920E+06     86.1443E+06     30.6698E+06    -45.5214E+06    -23.1843E+06     8.33272E+06     86.1443E+06    -34.4404E+06
            2057     121.131E-03     15.4751E-03     120.138E-03     293.226E-03    -34.8451E-03    -258.378E-03    -182.480E-03     217.328E-03    -34.8451E-03     379.871E-03     439.734E-03     90.5841E+06     64.3882E+06     10.9563E+06    -39.3008E+06    -19.0820E+06    -9.26244E+06     64.3882E+06    -23.6304E+06
            2058     121.814E-03     16.3291E-03     120.715E-03     316.637E-03    -42.6862E-03    -273.921E-03    -221.356E-03     264.072E-03    -42.6862E-03     310.590E-03     475.934E-03     118.268E+06     101.465E+06     27.0970E+06    -33.2388E+06    -16.1845E+06     10.0427E+06     101.465E+06    -8.90644E+06
            2059     118.979E-03     990.946E-06     118.974E-03     19.4602E-03    -9.46574E-03    -9.99409E-03    -9.92896E-03     19.4272E-03    -9.49787E-03    -1.83142E-03     19.5115E-03     26.1636E+06    -33.8215E+06    -53.3814E+06    -61.6205E+06    -55.4226E+06    -40.0193E+06    -53.3814E+06    -10.1585E+06
            2060     118.997E-03     1.98096E-03     118.981E-03     21.3066E-03    -10.0441E-03    -11.2617E-03    -11.1809E-03     21.2258E-03    -10.0441E-03    -3.19531E-03     21.4509E-03     41.5930E+06    -20.1321E+06    -49.3844E+06    -66.1539E+06    -54.3172E+06    -31.9688E+06    -49.3844E+06    -18.7740E+06
            2061     119.025E-03     2.96918E-03     118.988E-03     23.4177E-03    -10.7114E-03    -12.7018E-03    -12.5915E-03     23.3075E-03    -10.7114E-03    -3.88299E-03     23.7883E-03     51.2663E+06    -9.30454E+06    -43.8907E+06    -68.0591E+06    -52.8022E+06    -24.5614E+06    -43.8907E+06    -25.2527E+06
            2062     119.068E-03     3.95621E-03     119.003E-03     25.6369E-03    -11.4580E-03    -14.1866E-03    -14.0920E-03     25.5423E-03    -11.4580E-03    -3.19320E-03     26.4283E-03     59.0388E+06    -1.08086E+06    -37.3567E+06    -69.0298E+06    -53.4100E+06    -16.7006E+06    -37.3567E+06    -28.0774E+06
            2063     119.126E-03     4.94144E-03     119.024E-03     28.0469E-03    -12.2708E-03    -15.8016E-03    -15.7051E-03     27.9503E-03    -12.2708E-03    -789.243E-06     29.5165E-03     63.6465E+06     3.51788E+06    -30.2465E+06    -69.4773E+06    -53.9004E+06    -12.0589E+06    -30.2465E+06    -29.0945E+06
            2064     119.205E-03     5.92468E-03     119.058E-03     30.4842E-03    -13.1276E-03    -17.3645E-03    -17.0249E-03     30.1446E-03    -13.1276E-03     3.65709E-03     32.8053E-03     76.2875E+06     8.98607E+06    -21.5050E+06    -76.7769E+06    -56.2957E+06    -11.4951E+06    -21.5050E+06    -35.4288E+06
            2065     119.304E-03     6.90744E-03     119.104E-03     33.3247E-03    -13.9424E-03    -19.3759E-03    -18.1277E-03     32.0764E-03    -13.9424E-03     11.2587E-03     36.3774E-03     90.7811E+06     10.2484E+06    -21.0071E+06    -90.4025E+06    -64.0529E+06    -16.1012E+06    -21.0071E+06    -43.7210E+06
            2066     119.434E-03     7.88843E-03     119.173E-03     37.9643E-03    -14.7366E-03    -23.2198E-03    -19.7213E-03     34.4658E-03    -14.7366E-03     23.5370E-03     41.4188E-03     103.047E+06     8.17658E+06    -31.1718E+06    -107.266E+06    -76.4713E+06    -22.6185E+06    -31.1718E+06    -50.4400E+06
            2067     119.596E-03     8.86781E-03     119.266E-03     45.9745E-03    -15.6461E-03    -30.3172E-03    -22.3219E-03     37.9792E-03    -15.6461E-03     42.4213E-03     49.6152E-03     111.241E+06     6.01646E+06    -39.1858E+06    -117.700E+06    -82.5996E+06    -29.0844E+06    -39.1858E+06    -53.5301E+06
            2068     119.804E-03     9.84535E-03     119.399E-03     58.8147E-03    -16.7928E-03    -42.0241E-03    -26.2795E-03     43.0701E-03    -16.7928E-03     70.1881E-03     62.6738E-03     98.1214E+06     7.34184E+06    -27.1136E+06    -100.635E+06    -71.2518E+06    -25.8954E+06    -23.2598E+06    -44.7880E+06
            2069     120.062E-03     10.8210E-03     119.573E-03     78.0226E-03    -18.2993E-03    -59.7316E-03    -33.9443E-03     52.2354E-03    -18.2993E-03     105.827E-03     83.2433E-03     85.7817E+06     24.2871E+06     1.57678E+06    -67.8869E+06    -44.4443E+06    -13.8956E+06     16.3169E+06    -32.1687E+06
            2070     120.375E-03     11.7854E-03     119.797E-03     106.492E-03    -20.4404E-03    -86.0520E-03    -49.9360E-03     70.3762E-03    -20.4404E-03     149.515E-03     115.873E-03     93.9341E+06     62.2215E+06     20.4412E+06    -40.9054E+06    -22.1417E+06     1.67743E+06     62.2215E+06    -20.0411E+06
            2071     120.758E-03     12.7276E-03     120.085E-03     145.288E-03    -23.5169E-03    -121.772E-03    -75.6600E-03     99.1757E-03    -23.5169E-03     201.569E-03     163.346E-03     105.343E+06     92.2930E+06     20.5243E+06    -25.1207E+06    -16.7189E+06     12.1224E+06     92.2930E+06    -12.1877E+06
            2072     121.214E-03     13.6474E-03     120.443E-03     183.425E-03    -27.5900E-03    -155.842E-03    -102.861E-03     130.444E-03    -27.5900E-03     246.127E-03     214.874E-03     119.300E+06     106.983E+06     32.9076E+06    -25.9980E+06    -17.0386E+06     23.9482E+06     106.983E+06    -17.5601E+06
            2073     121.725E-03     14.5533E-03     120.852E-03     218.130E-03    -32.4265E-03    -185.706E-03    -128.411E-03     160.835E-03    -32.4265E-03     281.687E-03     271.640E-03     121.613E+06     100.930E+06     32.6075E+06    -38.5733E+06    -21.0805E+06     15.1147E+06     100.930E+06    -26.4319E+06
            2074     122.291E-03     15.4456E-03     121.312E-03     278.222E-03    -37.9850E-03    -240.230E-03    -168.226E-03     206.217E-03    -37.9850E-03     358.499E-03     382.558E-03     105.441E+06     70.7893E+06     2.74765E+06    -50.0378E+06    -24.3929E+06    -22.8972E+06     70.7893E+06    -24.5687E+06
            2075     123.020E-03     16.2972E-03     121.936E-03     299.253E-03    -44.5692E-03    -254.658E-03    -193.744E-03     238.339E-03    -44.5692E-03     336.522E-03     434.849E-03     119.254E+06     88.1956E+06     12.2381E+06    -47.2791E+06    -24.9730E+06    -10.0679E+06     88.1956E+06    -17.4319E+06
            2076     120.004E-03     985.673E-06     120.000E-03     31.1114E-03    -15.1060E-03    -16.0046E-03    -15.5871E-03     31.0745E-03    -15.4865E-03    -2.45488E-03     31.1549E-03     28.8556E+06     2.10966E+06    -2.34509E+06    -28.5588E+06    -3.88276E+06    -22.7399E+06    -2.17157E+06    -8.61315E+06
            2077     120.022E-03     1.96958E-03     120.006E-03     33.1286E-03    -15.8962E-03    -17.2300E-03    -17.1189E-03     33.0175E-03    -15.8962E-03    -4.61460E-03     33.2226E-03     35.2811E+06     8.63093E+06    -581.981E+03    -29.2330E+06    -5.97513E+06    -14.8004E+06     -408.47E+03    -15.4310E+06
            2078     120.054E-03     2.95196E-03     120.018E-03     35.9277E-03    -16.6545E-03    -19.2710E-03    -19.0829E-03     35.7396E-03    -16.6545E-03    -6.41436E-03     36.1826E-03     40.1851E+06     10.8508E+06    -4.67005E+06    -33.6004E+06    -10.2622E+06    -12.4874E+06    -4.67005E+06    -19.7603E+06
            2079     120.097E-03     3.93227E-03     120.033E-03     39.4778E-03    -17.6614E-03    -21.8207E-03    -21.5866E-03     39.2437E-03    -17.6614E-03    -7.52810E-03     40.0338E-03     42.3565E+06     12.1300E+06    -2.50367E+06    -34.6751E+06    -13.5738E+06    -9.20472E+06    -2.27024E+06    -21.4881E+06
            2080     120.160E-03     4.90953E-03     120.060E-03     43.2182E-03    -18.8772E-03    -24.3624E-03    -24.1306E-03     42.9864E-03    -18.8772E-03    -7.64929E-03     44.2447E-03     47.7848E+06     17.4436E+06     3.39720E+06    -35.2295E+06    -15.8923E+06    -5.38510E+06     6.88877E+06    -22.6720E+06
            2081     120.238E-03     5.88434E-03     120.094E-03     47.1255E-03    -20.2085E-03    -26.9245E-03    -26.7315E-03     46.9326E-03    -20.2085E-03    -6.54802E-03     48.8810E-03     54.2067E+06     24.4012E+06     8.91649E+06    -35.4213E+06    -18.9177E+06    -949.163E+03     17.7634E+06    -22.6060E+06
            2082     120.340E-03     6.85588E-03     120.144E-03     51.4264E-03    -21.6473E-03    -29.7680E-03    -29.5535E-03     51.2119E-03    -21.6473E-03    -3.96238E-03     54.2205E-03     64.0847E+06     27.8894E+06     8.72211E+06    -42.0066E+06    -25.3870E+06    -4.13015E+06     24.1221E+06    -23.8352E+06
            2083     120.467E-03     7.82464E-03     120.212E-03     55.9825E-03    -23.1876E-03    -32.7907E-03    -32.3015E-03     55.4933E-03    -23.1876E-03     1.37016E-03     59.9801E-03     76.4571E+06     31.6056E+06     3.45381E+06    -53.1964E+06    -33.5645E+06    -8.66364E+06     24.0911E+06    -28.1543E+06
            2084     120.630E-03     8.78965E-03     120.309E-03     60.8077E-03    -24.8203E-03    -35.9677E-03    -34.5112E-03     59.3512E-03    -24.8203E-03     10.3770E-03     65.8627E-03     90.9939E+06     28.2288E+06     2.34161E+06    -71.7112E+06    -44.2587E+06    -16.2161E+06     19.3340E+06    -36.6386E+06
            2085     120.831E-03     9.75168E-03     120.437E-03     66.4420E-03    -26.4988E-03    -39.9451E-03    -36.1537E-03     62.6506E-03    -26.4988E-03     24.1717E-03     71.9402E-03     101.396E+06     21.0044E+06    -5.42643E+06    -90.5043E+06    -56.5077E+06    -28.5889E+06     10.1702E+06    -43.1762E+06
            2086     121.084E-03     10.7112E-03     120.610E-03     75.5577E-03    -28.3662E-03    -47.2161E-03    -39.3648E-03     67.7064E-03    -28.3662E-03     45.6621E-03     81.2861E-03     109.609E+06     23.5338E+06     1.97110E+06    -94.3987E+06    -63.7714E+06    -20.6860E+06     15.5636E+06    -44.9496E+06
            2087     121.401E-03     11.6642E-03     120.839E-03     93.1188E-03    -30.7606E-03    -62.3724E-03    -48.1546E-03     78.9010E-03    -30.7606E-03     78.0602E-03     100.319E-03     121.112E+06     46.1638E+06     15.2505E+06    -85.4390E+06    -55.6933E+06    -14.4951E+06     46.1638E+06    -39.2399E+06
            2088     121.796E-03     12.6099E-03     121.142E-03     118.907E-03    -33.8739E-03    -85.0479E-03    -62.4826E-03     96.3420E-03    -33.8739E-03     119.941E-03     129.669E-03     123.847E+06     84.8126E+06     18.3217E+06    -52.4053E+06    -30.2297E+06    -3.85382E+06     84.8126E+06    -26.5541E+06
            2089     122.278E-03     13.5358E-03     121.526E-03     144.269E-03    -37.5712E-03    -106.719E-03    -76.8539E-03     114.404E-03    -37.5712E-03     158.655E-03     161.106E-03     113.583E+06     109.233E+06     27.1888E+06    -15.0549E+06    -8.22351E+06     20.3574E+06     109.233E+06    -8.67717E+06
            2090     122.801E-03     14.4428E-03     121.949E-03     174.261E-03    -41.8735E-03    -132.461E-03    -97.8132E-03     139.613E-03    -41.8735E-03     191.548E-03     205.483E-03     115.432E+06     119.254E+06     42.8526E+06    -11.5667E+06    -3.26625E+06     34.5522E+06     119.254E+06     2.53274E+06
            2091     123.389E-03     15.3254E-03     122.433E-03     224.166E-03    -47.0151E-03    -177.253E-03    -129.268E-03     176.181E-03    -47.0151E-03     258.520E-03     289.211E-03     128.610E+06     119.930E+06     39.2044E+06    -27.5851E+06     4.86043E+06     6.75885E+06     119.930E+06    -8.41579E+06
            2092     124.143E-03     16.1877E-03     123.083E-03     224.438E-03    -51.6003E-03    -172.894E-03    -116.763E-03     168.307E-03    -51.6003E-03     272.559E-03     312.851E-03     108.220E+06     92.8938E+06     11.6530E+06    -29.2569E+06     1.65297E+06    -19.2568E+06     92.8938E+06    -10.1485E+06
            2093     121.041E-03     977.921E-06     121.037E-03     46.0494E-03    -22.3888E-03    -23.6610E-03    -23.0362E-03     46.0062E-03    -22.9703E-03    -3.35180E-03     46.0812E-03     56.6023E+06     51.0511E+06     44.8548E+06    -8.36245E+06     47.6936E+06    -7.01312E+06     46.8630E+06    -7.32450E+06
            2094     121.063E-03     1.95517E-03     121.047E-03     47.6150E-03    -23.0814E-03    -24.5329E-03    -24.2390E-03     47.5220E-03    -23.2824E-03    -4.97204E-03     47.6650E-03     51.2387E+06     46.8974E+06     42.2060E+06    -6.48948E+06     42.4931E+06    -4.01096E+06     44.1318E+06    -8.37156E+06
            2095     121.095E-03     2.93076E-03     121.060E-03     51.6352E-03    -24.1544E-03    -27.4745E-03    -27.3089E-03     51.4696E-03    -24.1544E-03    -7.03558E-03     51.7666E-03     52.9901E+06     46.4945E+06     38.2889E+06    -10.0001E+06     35.6090E+06    -5.13907E+06     44.3135E+06    -10.5515E+06
            2096     121.146E-03     3.90178E-03     121.083E-03     56.7956E-03    -25.5215E-03    -31.2665E-03    -31.0032E-03     56.5323E-03    -25.5215E-03    -9.48374E-03     57.1186E-03     51.5857E+06     46.4372E+06     34.0964E+06    -9.80506E+06     28.9606E+06    -2.94805E+06     44.7160E+06    -12.2519E+06
            2097     121.208E-03     4.86928E-03     121.110E-03     62.7702E-03    -27.2260E-03    -35.5531E-03    -35.1727E-03     62.3897E-03    -27.2260E-03    -12.1377E-03     63.4330E-03     52.4343E+06     47.2116E+06     32.3401E+06    -10.6297E+06     22.5227E+06    -812.349E+03     47.2116E+06    -12.3445E+06
            2098     121.292E-03     5.83269E-03     121.152E-03     69.9008E-03    -29.2447E-03    -40.6484E-03    -40.1442E-03     69.3967E-03    -29.2447E-03    -14.8461E-03     71.1209E-03     54.1467E+06     53.1582E+06     27.3377E+06    -8.14224E+06     18.1635E+06     1.03198E+06     53.1582E+06    -10.4984E+06
            2099     121.396E-03     6.78991E-03     121.206E-03     78.2514E-03    -31.6463E-03    -46.5906E-03    -45.9123E-03     77.5731E-03    -31.6463E-03    -18.0442E-03     80.4010E-03     64.7404E+06     65.2809E+06     24.9378E+06    -9.18026E+06     15.8419E+06    -84.3438E+03     65.2809E+06    -8.54723E+06
            2100     121.528E-03     7.73962E-03     121.281E-03     86.8205E-03    -34.3830E-03    -52.4161E-03    -51.4733E-03     85.8777E-03    -34.3830E-03    -21.6612E-03     90.3082E-03     75.9003E+06     75.8456E+06     24.0789E+06    -10.2824E+06     13.6577E+06     138.806E+03     75.8456E+06    -9.12800E+06
            2101     121.689E-03     8.68304E-03     121.379E-03     94.9876E-03    -37.3714E-03    -57.5759E-03    -56.2194E-03     93.6311E-03    -37.3714E-03    -25.4473E-03     100.177E-03     86.2810E+06     76.1107E+06     25.8776E+06    -21.2241E+06     7.78223E+06    -3.12876E+06     76.1107E+06    -10.2356E+06
            2102     121.889E-03     9.61978E-03     121.509E-03     102.877E-03    -40.6157E-03    -62.2423E-03    -60.1240E-03     100.759E-03    -40.6157E-03    -29.5491E-03     110.155E-03     95.8421E+06     73.0698E+06     22.0963E+06    -35.2108E+06     680.217E+03    -13.7947E+06     73.0698E+06    -15.0835E+06
            2103     122.132E-03     10.5481E-03     121.676E-03     110.511E-03    -44.1621E-03    -66.3399E-03    -62.6873E-03     106.858E-03    -44.1621E-03    -32.1978E-03     119.947E-03     103.272E+06     73.4813E+06     22.4957E+06    -41.6716E+06    -5.12200E+06    -14.0539E+06     73.4813E+06    -20.3046E+06
            2104     122.437E-03     11.4700E-03     121.899E-03     117.341E-03    -48.1152E-03    -69.2355E-03    -63.4833E-03     111.589E-03    -48.1152E-03    -28.4817E-03     129.007E-03     110.907E+06     77.1428E+06     28.6985E+06    -46.7347E+06    -9.21416E+06    -8.82207E+06     77.1428E+06    -26.4988E+06
            2105     122.819E-03     12.3707E-03     122.194E-03     118.976E-03    -51.2078E-03    -67.7784E-03    -58.9656E-03     111.291E-03    -52.3358E-03    -13.3681E-03     133.045E-03     117.143E+06     78.8527E+06     20.5181E+06    -53.8802E+06    -15.6065E+06    -17.7557E+06     78.8527E+06    -24.5379E+06
            2106     123.271E-03     13.2698E-03     122.554E-03     118.556E-03    -49.5047E-03    -69.0641E-03    -52.0970E-03     108.595E-03    -56.5110E-03     8.16976E-03     136.212E-03     114.077E+06     82.8882E+06     23.3447E+06    -43.8024E+06    -15.3729E+06    -5.08473E+06     82.8882E+06    -17.2438E+06
            2107     123.795E-03     14.1773E-03     122.981E-03     130.803E-03    -47.1708E-03    -83.7477E-03    -57.4133E-03     118.524E-03    -61.2261E-03     27.5969E-03     158.138E-03     124.746E+06     112.754E+06     37.0562E+06    -25.8109E+06    -3.38714E+06     14.6325E+06     112.754E+06     352.394E+03
            2108     124.409E-03     15.0419E-03     123.496E-03     136.711E-03    -32.1067E-03    -104.752E-03    -52.3921E-03     118.287E-03    -66.0421E-03     81.7348E-03     179.783E-03     137.167E+06     129.901E+06     59.4832E+06    -23.0051E+06     9.01349E+06     27.4647E+06     129.901E+06     2.39921E+06
            2109     125.085E-03     15.9145E-03     124.069E-03     109.114E-03    -13.1547E-03    -96.0157E-03    -14.7044E-03     83.2503E-03    -68.6027E-03     109.470E-03     156.783E-03     108.148E+06     86.0349E+06     26.1761E+06    -32.2172E+06     8.34741E+06     6.25732E+06     65.3890E+06    -1.23685E+06


