********************************************************************************
Field Output Report, written Mon Apr 21 02:02:52 2025

Source 1
---------

   ODB: F:/Abaqus_calc/Vel_20/odb/Correct/1020_2a_32_rd_1500_cal_100_v_20_f_0100.odb
   Step: Step-1
   Frame: Increment   7324669: Step Time =   0.8763

Loc 1 : Nodal values from source 1

Output sorted by column "Nodal Label".

Field Output reported at nodes for region: DIE_2A_32_D0_36-1.Region_1
   Computation algorithm: EXTRAPOLATE_COMPUTE_AVERAGE
   Averaged at nodes
   Averaging regions: ODB_REGIONS

      Node Label  COORD.Magnitude     COORD.COOR1     COORD.COOR2
                          @Loc 1          @Loc 1          @Loc 1
------------------------------------------------------------------
               1     169.449E-03     19.5173E-03     168.321E-03


Field Output reported at nodes for region: DIE_2A_32_D0_36-1.Region_2
   Computation algorithm: EXTRAPOLATE_COMPUTE_AVERAGE
   Averaged at nodes
   Averaging regions: ODB_REGIONS

      Node Label  COORD.Magnitude     COORD.COOR1     COORD.COOR2
                          @Loc 1          @Loc 1          @Loc 1
------------------------------------------------------------------
               1     169.449E-03     19.5173E-03     168.321E-03


Field Output reported at nodes for part: WIRE_1-1
   Computation algorithm: EXTRAPOLATE_COMPUTE_AVERAGE
   Averaged at nodes
   Averaging regions: ODB_REGIONS

      Node Label  COORD.Magnitude     COORD.COOR1     COORD.COOR2    PE.Max. Prin    PE.Mid. Prin    PE.Min. Prin         PE.PE11         PE.PE22         PE.PE33         PE.PE12            PEEQ         S.Mises     S.Max. Prin     S.Mid. Prin     S.Min. Prin           S.S11           S.S22           S.S33           S.S12
                          @Loc 1          @Loc 1          @Loc 1          @Loc 1          @Loc 1          @Loc 1          @Loc 1          @Loc 1          @Loc 1          @Loc 1          @Loc 1          @Loc 1          @Loc 1          @Loc 1          @Loc 1          @Loc 1          @Loc 1          @Loc 1          @Loc 1
----------------------------------------------------------------------------------------------------------------------------------------------------------------------------------------------------------------------------------------------------------------------------------------------------------------------------------
               1     82.2123E-03     14.9794E-03     80.8361E-03     377.343E-03    -184.607E-03    -193.114E-03    -185.766E-03     369.995E-03    -184.607E-03     128.646E-03     457.519E-03     87.9655E+06     97.9758E+06      56.981E+06    -3.00426E+06    -2.99936E+06     56.9761E+06     97.9758E+06     476.940E+03
               2     79.1147E-03     1.28230E-06     79.1147E-03     369.852E-03    -184.086E-03    -185.761E-03    -185.758E-03     369.849E-03    -184.086E-03    -1.85428E-03     370.347E-03     176.231E+06    -133.177E+06    -134.235E+06    -309.935E+06    -133.729E+06    -309.928E+06    -133.691E+06     987.809E+03
               3     2.44631E-06    -2.31533E-06     789.762E-09     580.335E-03    -288.229E-03    -292.034E-03    -288.204E-03     580.310E-03    -292.034E-03     9.30051E-03     580.647E-03     199.132E+06    -64.7332E+06    -68.2496E+06    -265.600E+06    -68.2804E+06    -265.570E+06    -64.7332E+06     2.46370E+06
               4     14.5282E-03     14.5282E-03     789.762E-09     748.687E-03    -198.620E-03    -551.216E-03    -520.879E-03     718.349E-03    -198.620E-03     392.507E-03     828.021E-03     157.445E+06     124.671E+06     123.891E+06    -33.1629E+06     81.8836E+06     9.62419E+06     123.891E+06     70.1606E+06
               5     161.426E-03     15.0383E-03     160.724E-03     93.7828E-03     83.4415E-03    -177.202E-03     92.6018E-03     84.6225E-03    -177.202E-03     6.57808E-03     183.983E-03     143.546E+06     130.922E+06     94.1916E+06    -27.4208E+06    -10.1807E+06     76.9516E+06     130.922E+06    -42.4191E+06
               6     154.777E-03     1.71065E-06     154.777E-03     210.282E-03    -104.090E-03    -106.217E-03    -105.989E-03     210.055E-03    -104.090E-03    -16.9615E-03     211.075E-03     65.9054E+06     46.5611E+06     44.4730E+06    -20.3635E+06     42.3357E+06    -18.2262E+06     46.5611E+06    -11.5761E+06
               7     81.8835E-03     14.1462E-03     80.6523E-03     394.536E-03    -184.380E-03    -210.055E-03    -190.503E-03     374.984E-03    -184.380E-03     203.158E-03     518.327E-03     83.7785E+06     89.9681E+06     55.2907E+06    -5.46527E+06    -5.45637E+06     55.2818E+06     89.9681E+06     290.708E+03
               8     81.3537E-03     13.3140E-03     80.2569E-03     394.858E-03    -183.973E-03    -210.706E-03    -189.416E-03     373.568E-03    -183.973E-03     216.779E-03     537.842E-03     75.5381E+06     74.7832E+06     48.6445E+06    -10.3484E+06    -10.3350E+06     48.6311E+06     74.7832E+06         633.172
               9     81.0155E-03     12.4795E-03     80.0486E-03     381.067E-03    -184.083E-03    -197.219E-03    -184.334E-03     368.182E-03    -184.083E-03     170.185E-03     507.067E-03     73.2135E+06     66.9131E+06     41.8857E+06    -15.5276E+06    -15.5168E+06     41.8749E+06     66.9131E+06     165.315E+03
              10     80.6446E-03     11.6495E-03     79.7988E-03     379.842E-03    -184.558E-03    -195.905E-03    -183.908E-03     367.845E-03    -184.558E-03     163.300E-03     506.946E-03     78.6144E+06     67.4922E+06     37.8906E+06    -21.5982E+06    -21.5816E+06     37.8740E+06     67.4922E+06     762.371E+03
              11     80.3433E-03     10.8193E-03     79.6115E-03     373.773E-03    -184.558E-03    -189.952E-03    -181.521E-03     365.342E-03    -184.558E-03     136.748E-03     494.309E-03     85.1303E+06     68.3593E+06     33.9833E+06    -28.5836E+06    -28.5546E+06     33.9544E+06     68.3593E+06     1.20871E+06
              12     80.0706E-03     9.98512E-03     79.4455E-03     370.486E-03    -184.200E-03    -186.373E-03    -179.693E-03     363.847E-03    -184.241E-03     120.400E-03     486.712E-03     87.2632E+06     62.8682E+06     28.2787E+06    -36.3819E+06    -36.3605E+06     28.2573E+06     62.8682E+06     1.04124E+06
              13     79.8389E-03     9.15125E-03     79.3127E-03     368.048E-03    -183.422E-03    -184.466E-03    -179.249E-03     363.615E-03    -184.205E-03     97.8436E-03     472.688E-03     84.6894E+06     50.4701E+06     19.1451E+06    -45.4054E+06    -45.3834E+06     19.1232E+06     50.4701E+06     346.145E+03
              14     79.6432E-03     8.31677E-03     79.2077E-03     367.025E-03    -183.002E-03    -184.465E-03    -180.324E-03     364.346E-03    -184.465E-03     75.8508E-03     457.722E-03     80.9413E+06     35.5889E+06     8.30365E+06    -55.4600E+06    -55.4415E+06     8.28521E+06     35.5889E+06    -262.152E+03
              15     79.4949E-03     7.48731E-03     79.1415E-03     366.383E-03    -182.479E-03    -184.813E-03    -181.014E-03     364.918E-03    -184.813E-03     55.8158E-03     442.239E-03     78.2027E+06     22.5767E+06    -2.08195E+06    -64.9811E+06    -64.9718E+06    -2.09125E+06     22.5767E+06     203.378E+03
              16     79.3777E-03     6.65421E-03     79.0983E-03     365.905E-03    -181.501E-03    -184.901E-03    -180.784E-03     365.188E-03    -184.901E-03     38.8996E-03     426.410E-03     72.9464E+06     7.92145E+06    -18.5310E+06    -74.4547E+06    -74.4354E+06    -18.5503E+06     7.92145E+06     963.271E+03
              17     79.2879E-03     5.82104E-03     79.0739E-03     366.765E-03    -181.806E-03    -184.797E-03    -181.497E-03     366.456E-03    -184.797E-03     25.2137E-03     413.541E-03     68.3380E+06    -13.1414E+06    -60.0752E+06    -87.7604E+06    -84.7968E+06    -63.0389E+06    -13.1414E+06     986.458E+03
              18     79.2220E-03     4.98898E-03     79.0647E-03     368.087E-03    -182.814E-03    -184.879E-03    -182.710E-03     367.983E-03    -184.879E-03     14.4470E-03     402.152E-03     79.3470E+06    -35.8486E+06    -95.1252E+06    -123.609E+06    -95.2292E+06    -123.505E+06    -35.8486E+06     745.676E+03
              19     79.1734E-03     4.15755E-03     79.0642E-03     368.522E-03    -183.606E-03    -185.004E-03    -183.582E-03     368.498E-03    -185.004E-03     6.04842E-03     392.579E-03     103.928E+06    -57.3086E+06    -105.065E+06    -175.823E+06    -105.082E+06    -175.806E+06    -57.3086E+06     288.375E+03
              20     79.1445E-03     3.32664E-03     79.0745E-03     368.692E-03    -184.033E-03    -185.080E-03    -184.031E-03     368.691E-03    -185.080E-03     554.121E-06     384.577E-03     124.570E+06    -79.1181E+06    -113.585E+06    -216.997E+06    -113.597E+06    -216.986E+06    -79.1181E+06     138.308E+03
              21     79.1240E-03     2.49402E-03     79.0847E-03     369.508E-03    -184.474E-03    -185.184E-03    -184.553E-03     369.505E-03    -185.101E-03    -2.02606E-03     378.345E-03     140.566E+06    -101.018E+06    -122.119E+06    -250.782E+06    -122.129E+06    -250.773E+06    -101.018E+06    -138.870E+03
              22     79.1147E-03     1.66315E-03     79.0972E-03     369.856E-03    -184.740E-03    -185.142E-03    -184.903E-03     369.852E-03    -184.974E-03    -3.17743E-03     373.985E-03     154.713E+06    -117.925E+06    -128.657E+06    -277.661E+06    -128.674E+06    -277.644E+06    -117.925E+06     43.7796E+03
              23     79.1122E-03     832.083E-06     79.1079E-03     369.746E-03    -184.359E-03    -185.399E-03    -185.278E-03     369.742E-03    -184.476E-03    -2.53741E-03     371.184E-03     168.186E+06    -128.658E+06    -132.372E+06    -298.652E+06    -132.128E+06    -298.638E+06    -128.915E+06     815.278E+03
              24     77.6648E-03    -187.801E-09     77.6648E-03     371.369E-03    -185.198E-03    -186.118E-03    -186.117E-03     371.367E-03    -185.198E-03    -1.24300E-03     371.871E-03     174.969E+06    -132.767E+06    -133.960E+06    -308.330E+06    -133.453E+06    -308.323E+06    -133.281E+06    -501.314E+03
              25     76.2176E-03     824.727E-09     76.2176E-03     371.032E-03    -184.977E-03    -186.012E-03    -186.009E-03     371.029E-03    -184.977E-03    -2.62582E-03     371.532E-03     177.954E+06    -132.192E+06    -134.102E+06    -311.093E+06    -132.878E+06    -311.086E+06    -133.423E+06    -1.00467E+06
              26     74.7697E-03     465.817E-09     74.7697E-03     369.927E-03    -184.332E-03    -185.523E-03    -185.521E-03     369.925E-03    -184.332E-03    -1.67843E-03     370.413E-03     178.435E+06    -130.535E+06    -134.807E+06    -311.061E+06    -133.592E+06    -311.045E+06    -131.766E+06     860.584E+03
              27     73.3245E-03     313.106E-09     73.3245E-03     370.555E-03    -184.941E-03    -185.538E-03    -185.537E-03     370.553E-03    -184.941E-03    -1.30820E-03     371.015E-03     177.445E+06    -127.597E+06    -133.533E+06    -307.935E+06    -130.662E+06    -307.910E+06    -130.492E+06     198.905E+03
              28     71.8762E-03    -215.641E-09     71.8762E-03     370.679E-03    -184.719E-03    -185.954E-03    -185.952E-03     370.676E-03    -184.719E-03    -2.41813E-03     371.145E-03      177.71E+06    -127.971E+06    -132.340E+06    -307.821E+06    -129.481E+06    -307.785E+06    -130.866E+06     587.160E+03
              29     70.4298E-03     2.13507E-06     70.4298E-03     369.702E-03    -183.706E-03    -186.063E-03    -186.060E-03     369.700E-03    -183.706E-03    -2.23678E-03     370.161E-03     174.388E+06    -129.755E+06    -133.753E+06    -306.105E+06    -131.259E+06    -306.076E+06    -132.279E+06     967.762E+03
              30     68.9854E-03     28.1752E-09     68.9854E-03     369.349E-03    -183.745E-03    -185.679E-03    -184.992E-03     369.349E-03    -184.431E-03    -1.13776E-03     369.819E-03     170.485E+06    -131.034E+06    -135.843E+06    -303.872E+06    -133.323E+06    -303.868E+06    -133.558E+06    -392.606E+03
              31     67.5379E-03    -1.15710E-06     67.5379E-03     369.404E-03    -184.342E-03    -185.075E-03    -184.386E-03     369.401E-03    -185.028E-03    -1.96909E-03     369.869E-03     171.390E+06    -131.340E+06    -133.941E+06    -304.007E+06    -133.626E+06    -304.005E+06    -131.656E+06     461.076E+03
              32     66.0950E-03     1.30998E-06     66.0950E-03     368.718E-03    -184.331E-03    -184.419E-03    -184.376E-03     368.715E-03    -184.372E-03    -2.23822E-03     369.167E-03     172.468E+06    -130.095E+06    -131.527E+06    -303.273E+06    -130.099E+06    -303.269E+06    -131.527E+06    -195.121E+03
              33     64.6492E-03    -1.29601E-06     64.6492E-03     368.887E-03    -184.314E-03    -184.604E-03    -184.561E-03     368.885E-03    -184.355E-03    -1.86621E-03     369.356E-03     172.934E+06    -130.094E+06    -131.390E+06    -303.671E+06    -130.277E+06    -303.668E+06    -131.211E+06    -460.976E+03
              34     63.2051E-03     1.67755E-06     63.2051E-03     370.892E-03    -184.612E-03    -186.215E-03    -186.213E-03     370.890E-03    -184.612E-03    -1.66476E-03     371.377E-03     173.638E+06    -130.436E+06    -130.940E+06    -304.325E+06    -130.616E+06    -304.325E+06    -130.761E+06     106.406E+03
              35     61.7558E-03     522.644E-09     61.7558E-03     371.325E-03    -184.198E-03    -187.056E-03    -187.051E-03     371.320E-03    -184.198E-03    -2.66127E-03     371.815E-03     170.959E+06    -131.155E+06    -132.421E+06    -302.743E+06    -132.096E+06    -302.743E+06    -131.480E+06     160.296E+03
              36     60.3074E-03     2.07316E-06     60.3074E-03     369.434E-03    -183.923E-03    -185.548E-03    -185.543E-03     369.429E-03    -183.923E-03    -1.81112E-03     369.907E-03     167.152E+06    -130.079E+06    -133.077E+06    -298.707E+06    -131.023E+06    -298.704E+06    -132.136E+06     587.133E+03
              37     58.8626E-03    -1.80905E-06     58.8626E-03     369.208E-03    -184.298E-03    -184.915E-03    -184.911E-03     369.205E-03    -184.298E-03    -1.38981E-03     369.657E-03     164.319E+06    -129.499E+06    -136.246E+06    -297.071E+06    -134.192E+06    -297.068E+06    -131.556E+06     545.704E+03
              38     57.4186E-03     2.65978E-06     57.4186E-03     369.824E-03    -184.262E-03    -185.590E-03    -185.587E-03     369.820E-03    -184.262E-03    -1.94050E-03     370.290E-03     166.965E+06    -125.948E+06    -137.014E+06    -298.166E+06    -130.657E+06    -298.147E+06    -132.323E+06    -1.24682E+06
              39     55.9696E-03    -1.33853E-06     55.9696E-03     369.770E-03    -184.179E-03    -185.590E-03    -185.012E-03     369.768E-03    -184.757E-03    -1.11295E-03     370.231E-03     169.990E+06    -122.724E+06    -134.555E+06    -298.319E+06    -128.229E+06    -298.269E+06    -129.100E+06     289.661E+03
              40     54.5260E-03     483.824E-09     54.5260E-03     370.166E-03    -184.259E-03    -185.844E-03    -185.265E-03     370.164E-03    -184.837E-03    -1.79839E-03     370.630E-03     169.745E+06    -124.211E+06    -135.662E+06    -299.391E+06    -129.715E+06    -299.342E+06    -130.206E+06     315.157E+03
              41     53.0776E-03     1.11347E-06     53.0776E-03     370.376E-03    -184.260E-03    -186.080E-03    -186.079E-03     370.374E-03    -184.260E-03    -1.76515E-03     370.858E-03     169.245E+06    -125.844E+06    -138.413E+06    -301.022E+06    -132.439E+06    -301.001E+06    -131.839E+06    -764.938E+03
              42     51.6339E-03     228.205E-09     51.6339E-03     370.266E-03    -184.375E-03    -185.856E-03    -185.854E-03     370.264E-03    -184.375E-03    -1.91946E-03     370.755E-03     170.542E+06    -127.722E+06    -140.415E+06    -304.256E+06    -134.320E+06    -304.232E+06    -133.841E+06    -856.498E+03
              43     50.1859E-03     866.313E-09     50.1859E-03     370.411E-03    -184.172E-03    -186.254E-03    -186.252E-03     370.409E-03    -184.172E-03    -1.95439E-03     370.898E-03     171.826E+06    -127.103E+06    -136.537E+06    -303.435E+06    -130.481E+06    -303.373E+06    -133.222E+06     510.723E+03
              44     48.7391E-03     1.60077E-06     48.7391E-03     370.750E-03    -184.305E-03    -186.453E-03    -186.452E-03     370.749E-03    -184.305E-03    -1.15340E-03     371.226E-03     170.369E+06    -125.736E+06    -131.395E+06    -298.862E+06    -129.112E+06    -298.802E+06    -128.080E+06     610.846E+03
              45     47.2912E-03    -324.155E-09     47.2912E-03     369.992E-03    -184.496E-03    -185.477E-03    -185.226E-03     369.990E-03    -184.744E-03    -1.84334E-03     370.466E-03     166.691E+06    -128.927E+06    -134.155E+06    -298.169E+06    -131.858E+06    -298.122E+06    -131.270E+06     253.922E+03
              46     45.8460E-03    -65.5590E-09     45.8460E-03     369.284E-03    -184.411E-03    -184.858E-03    -184.608E-03     369.281E-03    -184.659E-03    -1.65072E-03     369.762E-03     164.133E+06    -129.318E+06    -134.901E+06    -296.172E+06    -132.244E+06    -296.129E+06    -132.017E+06     446.183E+03
              47     44.3988E-03     371.294E-09     44.3988E-03     370.894E-03    -185.113E-03    -185.764E-03    -185.763E-03     370.894E-03    -185.113E-03    -344.154E-06     371.397E-03     164.441E+06    -129.022E+06    -133.184E+06    -295.501E+06    -130.526E+06    -295.460E+06    -131.720E+06     420.564E+03
              48     42.9512E-03     292.281E-09     42.9512E-03     371.281E-03    -184.852E-03    -186.422E-03    -186.419E-03     371.278E-03    -184.852E-03    -2.31932E-03     371.774E-03     163.547E+06    -130.445E+06    -133.421E+06    -295.460E+06    -131.947E+06    -295.421E+06    -131.958E+06     490.035E+03
              49     41.5051E-03     1.58902E-06     41.5051E-03     368.920E-03    -183.735E-03    -185.205E-03    -185.201E-03     368.917E-03    -183.735E-03    -2.56444E-03     369.395E-03     162.741E+06    -131.434E+06    -133.722E+06    -295.306E+06    -132.222E+06    -295.294E+06    -132.948E+06    -784.510E+03
              50     40.0623E-03    -1.00037E-06     40.0623E-03     368.846E-03    -183.707E-03    -185.169E-03    -185.167E-03     368.845E-03    -183.707E-03    -1.66179E-03     369.318E-03     165.764E+06    -130.450E+06    -131.897E+06    -296.933E+06    -131.899E+06    -296.931E+06    -130.450E+06    -112.542E+03
              51     38.6145E-03     2.80820E-06     38.6145E-03     369.596E-03    -183.949E-03    -185.643E-03    -185.059E-03     369.594E-03    -184.531E-03    -1.76953E-03     370.065E-03     165.910E+06    -131.499E+06    -134.020E+06    -298.652E+06    -132.173E+06    -298.651E+06    -133.348E+06    -354.589E+03
              52     37.1690E-03    -3.72644E-06     37.1690E-03     369.074E-03    -183.649E-03    -185.418E-03    -184.834E-03     369.072E-03    -184.231E-03    -2.09465E-03     369.550E-03     165.754E+06    -130.327E+06    -133.765E+06    -297.773E+06    -131.921E+06    -297.768E+06    -132.175E+06     590.782E+03
              53     35.7253E-03     5.65688E-06     35.7253E-03     369.570E-03    -183.254E-03    -186.275E-03    -186.274E-03     369.568E-03    -183.254E-03    -1.37375E-03     370.064E-03     168.834E+06    -127.645E+06    -129.664E+06    -297.477E+06    -129.260E+06    -297.451E+06    -128.075E+06    -724.720E+03
              54     34.2778E-03    -2.60362E-06     34.2778E-03     369.607E-03    -183.117E-03    -186.456E-03    -184.951E-03     369.607E-03    -184.622E-03    -493.384E-06     370.139E-03     169.756E+06    -130.723E+06    -131.334E+06    -300.784E+06    -130.744E+06    -300.762E+06    -131.334E+06    -1.31074E+06
              55     32.8333E-03     280.343E-09     32.8333E-03     370.283E-03    -183.472E-03    -186.762E-03    -185.256E-03     370.281E-03    -184.977E-03    -1.77591E-03     370.787E-03     171.546E+06    -130.323E+06    -131.422E+06    -302.414E+06    -130.334E+06    -302.403E+06    -131.422E+06     1.01112E+06
              56     31.3842E-03     2.66072E-06     31.3842E-03     370.336E-03    -183.693E-03    -186.573E-03    -186.571E-03     370.335E-03    -183.693E-03    -1.82402E-03     370.805E-03     172.027E+06    -129.324E+06    -131.935E+06    -302.641E+06    -131.062E+06    -302.597E+06    -130.242E+06    -693.313E+03
              57     29.9405E-03    -713.833E-09     29.9405E-03     369.011E-03    -183.261E-03    -185.726E-03    -184.355E-03     369.011E-03    -184.632E-03    -1.20436E-03     369.506E-03     173.187E+06    -127.089E+06    -133.050E+06    -303.166E+06    -128.845E+06    -303.103E+06    -131.357E+06    -53.7485E+03
              58     28.4963E-03    -1.51437E-06     28.4963E-03     369.160E-03    -183.640E-03    -185.500E-03    -183.639E-03     369.159E-03    -185.500E-03    -1.77947E-03     369.661E-03     172.347E+06    -125.694E+06    -133.898E+06    -301.996E+06    -129.667E+06    -301.959E+06    -129.962E+06     824.584E+03
              59     27.0470E-03     703.753E-09     27.0470E-03     368.562E-03    -183.039E-03    -185.552E-03    -185.061E-03     368.560E-03    -183.527E-03    -2.08659E-03     369.040E-03     168.663E+06    -128.640E+06    -136.313E+06    -301.008E+06    -132.597E+06    -300.987E+06    -132.377E+06     299.922E+03
              60     25.6044E-03     2.59723E-06     25.6044E-03     366.360E-03    -181.891E-03    -184.502E-03    -183.914E-03     366.359E-03    -182.478E-03    -1.18970E-03     366.837E-03     167.913E+06    -128.525E+06    -135.712E+06    -299.916E+06    -131.991E+06    -299.900E+06    -132.262E+06     709.570E+03
              61     24.1660E-03    -3.54504E-06     24.1660E-03     365.374E-03    -182.137E-03    -183.280E-03    -182.134E-03     365.372E-03    -183.280E-03    -1.73658E-03     365.874E-03     173.617E+06    -124.860E+06    -132.516E+06    -302.178E+06    -128.330E+06    -302.159E+06    -129.065E+06    -1.63600E+06
              62     22.7245E-03     2.62817E-06     22.7245E-03     366.246E-03    -181.640E-03    -184.611E-03    -184.052E-03     366.243E-03    -182.197E-03    -2.30518E-03     366.724E-03     175.963E+06    -127.609E+06    -135.061E+06    -307.178E+06    -130.877E+06    -307.156E+06    -131.815E+06    -630.594E+03
              63     21.2812E-03     1.40966E-06     21.2812E-03     363.824E-03    -180.034E-03    -183.765E-03    -182.445E-03     363.821E-03    -181.351E-03    -2.37044E-03     364.276E-03     171.589E+06    -130.345E+06    -135.827E+06    -304.607E+06    -133.596E+06    -304.602E+06    -132.581E+06     834.663E+03
              64     19.8484E-03    -3.58288E-06     19.8484E-03     358.254E-03    -178.350E-03    -179.884E-03    -178.558E-03     358.245E-03    -179.667E-03    -4.29676E-03     358.689E-03     166.107E+06    -128.567E+06    -132.142E+06    -296.431E+06    -129.915E+06    -296.423E+06    -130.802E+06     974.308E+03
              65     18.4231E-03     4.02306E-06     18.4231E-03     355.227E-03    -176.418E-03    -178.803E-03    -178.796E-03     355.220E-03    -176.418E-03    -3.45947E-03     355.631E-03     157.055E+06    -132.429E+06    -134.254E+06    -290.386E+06    -133.777E+06    -290.378E+06    -132.914E+06     455.311E+03
              66     16.9971E-03    -399.027E-09     16.9971E-03     349.262E-03    -173.435E-03    -175.854E-03    -175.586E-03     349.245E-03    -173.686E-03    -4.95355E-03     349.589E-03     151.424E+06    -134.408E+06    -135.933E+06    -286.588E+06    -135.524E+06    -286.512E+06    -134.894E+06     2.06791E+06
              67     15.5868E-03    -82.8286E-09     15.5868E-03     336.191E-03    -167.300E-03    -168.913E-03    -167.278E-03     336.168E-03    -168.913E-03    -6.62291E-03     336.435E-03     146.826E+06    -129.823E+06    -132.874E+06    -278.148E+06    -130.937E+06    -278.072E+06    -131.836E+06     2.22805E+06
              68     14.2002E-03    -2.28265E-06     14.2002E-03     320.477E-03    -158.986E-03    -161.494E-03    -160.088E-03     320.432E-03    -160.348E-03    -8.51898E-03     320.690E-03     141.305E+06    -127.955E+06    -130.310E+06    -270.416E+06    -128.333E+06    -270.380E+06    -129.968E+06     1.43306E+06
              69     12.8338E-03     4.15554E-06     12.8338E-03     299.575E-03    -148.797E-03    -150.766E-03    -150.706E-03     299.514E-03    -148.797E-03    -10.3632E-03     299.730E-03     140.464E+06    -124.415E+06    -127.213E+06    -266.245E+06    -127.253E+06    -266.205E+06    -124.415E+06     1.00817E+06
              70     11.5003E-03    -2.72980E-06     11.5003E-03     274.577E-03    -136.811E-03    -137.754E-03    -137.688E-03     274.511E-03    -136.811E-03    -10.1973E-03     274.685E-03     141.840E+06    -120.125E+06    -124.437E+06    -264.071E+06    -122.594E+06    -264.057E+06    -121.982E+06    -1.38593E+06
              71     10.2054E-03     2.77287E-06     10.2054E-03     251.887E-03    -124.965E-03    -126.906E-03    -126.822E-03     251.804E-03    -124.965E-03    -11.2652E-03     252.068E-03     143.376E+06    -121.425E+06    -124.246E+06    -266.189E+06    -122.400E+06    -266.177E+06    -123.282E+06    -1.24965E+06
              72     8.93467E-03     401.369E-09     8.93467E-03     238.172E-03    -117.683E-03    -120.477E-03    -120.429E-03     238.124E-03    -117.683E-03    -7.78162E-03     238.533E-03     141.780E+06    -124.947E+06    -126.204E+06    -267.350E+06    -126.207E+06    -267.347E+06    -124.947E+06    -281.004E+03
              73     7.67327E-03     1.29946E-06     7.67327E-03     247.703E-03    -123.096E-03    -124.596E-03    -124.576E-03     247.683E-03    -123.096E-03     754.182E-06     248.257E-03     137.182E+06    -128.828E+06    -130.316E+06    -266.746E+06    -130.317E+06    -266.745E+06    -128.828E+06    -51.1858E+03
              74     6.37484E-03    -282.586E-09     6.37484E-03     292.298E-03    -145.279E-03    -147.065E-03    -145.708E-03     292.200E-03    -146.538E-03     12.2388E-03     292.932E-03     139.989E+06    -126.349E+06    -129.938E+06    -268.095E+06    -127.549E+06    -268.091E+06    -128.742E+06     325.683E+03
              75     4.99541E-03    -1.74759E-06     4.99541E-03     372.098E-03    -185.347E-03    -186.803E-03    -185.347E-03     371.900E-03    -186.605E-03     21.0231E-03     372.633E-03     160.195E+06    -106.850E+06    -109.716E+06    -268.448E+06    -107.328E+06    -268.443E+06    -109.243E+06     224.226E+03
              76     3.47631E-03     2.28353E-06     3.47631E-03     469.332E-03    -234.046E-03    -235.244E-03    -235.036E-03     469.123E-03    -234.046E-03     24.1317E-03     469.809E-03     188.288E+06    -79.2538E+06    -81.0178E+06    -268.417E+06    -79.7552E+06    -268.388E+06    -80.5447E+06     1.35599E+06
              77     1.79102E-03    -543.234E-09     1.79102E-03     549.462E-03    -273.241E-03    -276.144E-03    -274.133E-03     549.354E-03    -275.144E-03     16.8812E-03     549.878E-03     200.134E+06    -65.4486E+06    -68.4978E+06    -267.089E+06    -67.2495E+06    -267.046E+06    -66.7395E+06     2.89409E+06
              78     742.408E-06     742.407E-06     789.762E-09     575.776E-03    -285.821E-03    -289.926E-03    -285.760E-03     575.715E-03    -289.926E-03     13.7232E-03     575.982E-03     197.602E+06    -62.1438E+06    -65.4839E+06    -261.395E+06    -65.4994E+06    -261.380E+06    -62.1438E+06     1.14109E+06
              79     1.48956E-03     1.48956E-03     789.762E-09     562.403E-03    -276.921E-03    -285.668E-03    -276.745E-03     562.227E-03    -285.668E-03     23.6262E-03     562.509E-03     195.490E+06    -57.6443E+06    -61.6189E+06    -255.090E+06    -61.6445E+06    -255.065E+06    -57.6443E+06    -1.65803E+06
              80     2.24748E-03     2.24748E-03     789.762E-09     542.100E-03    -261.618E-03    -280.240E-03    -261.289E-03     541.771E-03    -280.240E-03     32.2621E-03     542.329E-03     175.358E+06    -55.7184E+06    -58.1763E+06    -232.284E+06    -58.1978E+06    -232.197E+06    -55.7836E+06    -3.75019E+06
              81     3.02228E-03     3.02228E-03     789.762E-09     516.530E-03    -242.721E-03    -273.312E-03    -242.248E-03     516.056E-03    -273.312E-03     37.7505E-03     517.305E-03     136.096E+06    -54.0517E+06    -56.2248E+06    -191.205E+06    -54.2250E+06    -191.032E+06    -56.2248E+06    -4.75668E+06
              82     3.81145E-03     3.81145E-03     789.762E-09     487.797E-03    -222.293E-03    -265.178E-03    -221.686E-03     487.191E-03    -265.178E-03     41.4023E-03     489.231E-03     92.1787E+06    -49.8374E+06    -55.0788E+06    -144.500E+06    -50.2188E+06    -144.118E+06    -55.0788E+06    -5.65161E+06
              83     4.62038E-03     4.62038E-03     789.762E-09     458.175E-03    -201.657E-03    -256.009E-03    -200.960E-03     457.478E-03    -256.009E-03     42.8308E-03     460.229E-03     46.5336E+06    -38.6083E+06    -51.6987E+06    -88.1458E+06    -43.6892E+06    -83.0649E+06    -51.6987E+06    -9.76008E+06
              84     5.44579E-03     5.44579E-03     789.762E-09     429.050E-03    -181.876E-03    -246.598E-03    -181.131E-03     428.305E-03    -246.598E-03     42.6199E-03     432.036E-03     29.9762E+06    -13.3484E+06    -40.2106E+06    -45.3511E+06    -34.7624E+06    -22.9316E+06    -41.2161E+06    -8.92503E+06
              85     6.28794E-03     6.28794E-03     789.762E-09     401.921E-03    -164.131E-03    -237.204E-03    -163.365E-03     401.156E-03    -237.204E-03     41.6044E-03     406.211E-03     36.0270E+06     10.3575E+06    -20.3272E+06    -28.7067E+06    -26.7428E+06     9.39905E+06    -21.3326E+06    -5.90817E+06
              86     7.14469E-03     7.14469E-03     789.762E-09     377.444E-03    -149.197E-03    -227.961E-03    -148.406E-03     376.652E-03    -227.961E-03     40.7892E-03     383.955E-03     37.3433E+06     21.2116E+06    -2.30684E+06    -21.5529E+06    -20.8126E+06     20.4714E+06    -2.30684E+06    -2.31392E+06
              87     8.01201E-03     8.01201E-03     789.762E-09     355.357E-03    -136.218E-03    -218.930E-03    -135.469E-03     354.607E-03    -218.930E-03     38.3598E-03     363.851E-03     38.7063E+06     26.8500E+06     10.6459E+06    -17.1524E+06    -17.0653E+06     26.7630E+06     10.6459E+06     1.12781E+06
              88     8.89444E-03     8.89444E-03     789.762E-09     336.947E-03    -126.491E-03    -210.386E-03    -125.806E-03     336.262E-03    -210.386E-03     35.6125E-03     346.857E-03     42.5307E+06     29.8079E+06     19.8070E+06    -16.7132E+06    -16.4783E+06     29.5730E+06     19.8070E+06     2.13454E+06
              89     9.77943E-03     9.77943E-03     789.762E-09     324.198E-03    -121.262E-03    -203.046E-03    -120.629E-03     323.566E-03    -203.046E-03     33.5196E-03     336.616E-03     47.4530E+06     33.9221E+06     28.8189E+06    -15.8367E+06    -15.3674E+06     31.8856E+06      30.386E+06    -16.4775E+03
              90     10.6689E-03     10.6689E-03     789.762E-09     316.093E-03    -119.669E-03    -196.831E-03    -119.181E-03     315.606E-03    -196.831E-03     29.0201E-03     330.568E-03     54.0594E+06     40.0671E+06     35.2236E+06    -16.2388E+06    -14.7586E+06     33.7434E+06     40.0671E+06     3.32843E+06
              91     11.5640E-03     11.5640E-03     789.762E-09     318.827E-03    -127.794E-03    -191.441E-03    -127.393E-03     318.426E-03    -191.441E-03     26.7419E-03     333.499E-03     58.5481E+06     43.7000E+06     31.4910E+06    -19.7773E+06    -10.1456E+06     21.8593E+06     43.7000E+06    -5.69188E+06
              92     12.4394E-03     12.4394E-03     789.762E-09     342.498E-03    -154.855E-03    -187.914E-03    -154.429E-03     342.072E-03    -187.914E-03     29.1024E-03     358.560E-03     72.3436E+06     68.2786E+06     44.6340E+06    -12.9181E+06    -1.98440E+06     33.7003E+06     68.2786E+06    -2.49204E+06
              93     13.2873E-03     13.2873E-03     789.762E-09     407.761E-03    -181.622E-03    -226.736E-03    -219.455E-03     406.883E-03    -188.026E-03     46.1459E-03     427.929E-03     97.9048E+06     92.4304E+06     42.8965E+06    -19.2912E+06    -8.85733E+06     32.4627E+06     92.4304E+06     21.6551E+06
              94     14.0527E-03     14.0527E-03     789.762E-09     601.979E-03    -193.931E-03    -408.939E-03    -393.117E-03     586.156E-03    -193.931E-03     226.951E-03     652.967E-03     133.655E+06     108.607E+06     73.3954E+06    -33.6349E+06     31.7768E+06     8.37357E+06     108.217E+06     47.8325E+06
              95     15.0101E-03     14.8083E-03     2.45325E-03     629.292E-03    -195.792E-03    -433.513E-03    -388.619E-03     584.397E-03    -195.792E-03     409.690E-03     769.649E-03     163.997E+06     72.2446E+06     41.6415E+06    -102.940E+06    -42.8673E+06    -18.0412E+06     71.8547E+06     22.3565E+06
              96     15.3555E-03     14.8743E-03     3.81373E-03     473.644E-03    -191.661E-03    -281.694E-03    -228.921E-03     420.872E-03    -191.661E-03     385.040E-03     693.091E-03     128.600E+06     70.8029E+06     33.2244E+06    -72.0011E+06    -26.2573E+06    -5.15403E+06     63.4376E+06    -709.057E+03
              97     15.7929E-03     14.9181E-03     5.18312E-03     432.677E-03    -188.726E-03    -244.278E-03    -212.036E-03     400.435E-03    -188.726E-03     280.987E-03     610.478E-03     110.644E+06     97.0368E+06     66.2720E+06    -25.3947E+06     18.0435E+06     30.1992E+06     89.6714E+06     8.44639E+06
              98     16.3685E-03     14.9485E-03     6.66870E-03     429.869E-03    -186.322E-03    -243.810E-03    -228.831E-03     414.890E-03    -186.322E-03     197.209E-03     525.438E-03     98.8985E+06     84.1062E+06     43.5779E+06    -28.2332E+06    -12.0598E+06     27.4045E+06     84.1062E+06     3.77562E+06
              99     17.0386E-03     14.9524E-03     8.16949E-03     429.553E-03    -185.039E-03    -244.743E-03    -233.682E-03     418.492E-03    -185.039E-03     171.273E-03     502.322E-03     86.6154E+06     86.1296E+06     49.6740E+06    -12.4060E+06     3.61156E+06     33.6564E+06     86.1296E+06     5.40793E+06
             100     17.8279E-03     14.9718E-03     9.67886E-03     425.847E-03    -184.278E-03    -241.625E-03    -231.123E-03     415.344E-03    -184.278E-03     166.134E-03     500.031E-03     84.2886E+06     87.0602E+06     41.5399E+06    -6.59975E+06    -5.38587E+06     40.3261E+06     87.0602E+06     251.426E+03
             101     18.6869E-03     14.9723E-03     11.1817E-03     428.919E-03    -183.938E-03    -245.303E-03    -235.615E-03     419.232E-03    -183.938E-03     160.295E-03     506.090E-03     81.4705E+06     90.9280E+06     43.5285E+06    -124.248E+03     1.11870E+06     42.2855E+06     90.9280E+06     75.4285E+03
             102     19.6428E-03     14.9661E-03     12.7223E-03     427.421E-03    -183.885E-03    -243.949E-03    -233.997E-03     417.469E-03    -183.885E-03     161.954E-03     506.186E-03     86.3727E+06     91.7007E+06     46.5646E+06    -6.89827E+06    -6.46360E+06     46.1299E+06     91.7007E+06      61.638E+03
             103     20.6552E-03     14.9806E-03     14.2204E-03     414.233E-03    -183.909E-03    -230.659E-03    -219.202E-03     402.776E-03    -183.909E-03     170.285E-03     495.038E-03     82.2474E+06     96.0229E+06     52.8379E+06     2.17215E+06     2.60236E+06     52.4077E+06     96.0229E+06     179.538E+03
             104     21.6978E-03     14.9815E-03     15.6955E-03     405.202E-03    -183.903E-03    -221.840E-03    -210.654E-03     394.016E-03    -183.903E-03     165.919E-03     488.407E-03     87.5177E+06     95.5256E+06     52.9310E+06    -4.73035E+06    -4.61226E+06     52.8129E+06     95.5256E+06    -1.63973E+06
             105     22.7859E-03     14.9813E-03     17.1685E-03     399.099E-03    -184.051E-03    -215.780E-03    -205.691E-03     389.010E-03    -184.051E-03     156.218E-03     483.600E-03     87.1565E+06     97.9588E+06     52.7811E+06    -2.30431E+06    -2.28666E+06     52.7634E+06     97.9588E+06    -273.569E+03
             106     23.9030E-03     14.9787E-03     18.6277E-03     391.795E-03    -184.345E-03    -208.287E-03    -198.845E-03     382.353E-03    -184.345E-03     149.347E-03     476.233E-03     88.7898E+06     98.1663E+06     53.2266E+06    -3.98263E+06    -3.95183E+06     53.1958E+06     98.1663E+06      47.939E+03
             107     25.0540E-03     14.9752E-03     20.0859E-03     383.927E-03    -184.595E-03    -199.924E-03    -190.847E-03     374.850E-03    -184.595E-03     144.457E-03     466.789E-03     85.8182E+06     96.7496E+06     52.5868E+06    -2.06110E+06    -2.01361E+06     52.5393E+06     96.7496E+06     1.60828E+06
             108     26.2191E-03     14.9808E-03     21.5179E-03     376.462E-03    -184.625E-03    -192.099E-03    -183.790E-03     368.154E-03    -184.625E-03     136.357E-03     458.687E-03     84.7597E+06     95.8178E+06     52.9274E+06    -1.75295E+06    -1.71345E+06     52.8879E+06     95.8178E+06     419.424E+03
             109     27.4082E-03     14.9811E-03     22.9516E-03     376.419E-03    -184.497E-03    -192.241E-03    -184.946E-03     369.124E-03    -184.497E-03     127.942E-03     458.597E-03     86.0631E+06     96.0614E+06     53.1673E+06    -2.93309E+06    -2.91977E+06     53.1540E+06     96.0614E+06    -794.577E+03
             110     28.6438E-03     14.9810E-03     24.4138E-03     380.947E-03    -184.442E-03    -197.027E-03    -189.693E-03     373.613E-03    -184.442E-03     129.359E-03     462.138E-03     87.6775E+06     96.8420E+06     52.4373E+06    -4.03285E+06    -4.00626E+06     52.4107E+06     96.8420E+06     489.765E+03
             111     29.9040E-03     14.9780E-03     25.8826E-03     381.157E-03    -184.460E-03    -197.097E-03    -189.250E-03     373.311E-03    -184.460E-03     133.792E-03     461.927E-03     87.3044E+06     96.4632E+06     51.2482E+06    -4.09756E+06    -4.04531E+06     51.1960E+06     96.4632E+06     1.69964E+06
             112     31.1592E-03     14.9787E-03     27.3228E-03     378.184E-03    -184.488E-03    -193.801E-03    -185.974E-03     370.357E-03    -184.488E-03     132.893E-03     459.270E-03     87.9423E+06     97.0778E+06     52.2472E+06    -4.19828E+06    -4.16329E+06     52.2122E+06     97.0778E+06     1.34840E+06
             113     32.4296E-03     14.9779E-03     28.7635E-03     375.928E-03    -184.523E-03    -191.527E-03    -184.126E-03     368.527E-03    -184.523E-03     128.754E-03     457.357E-03     86.7488E+06     98.2303E+06     53.8283E+06    -1.68877E+06    -1.68121E+06     53.8207E+06     98.2303E+06     273.645E+03
             114     33.7141E-03     14.9805E-03     30.2030E-03     375.037E-03    -184.471E-03    -190.798E-03    -183.596E-03     367.835E-03    -184.471E-03     126.855E-03     456.913E-03     87.1480E+06     96.4284E+06     52.6886E+06    -3.90800E+06    -3.89902E+06     52.6796E+06     96.4284E+06    -617.448E+03
             115     35.0153E-03     14.9819E-03     31.6483E-03     377.362E-03    -184.410E-03    -193.250E-03    -185.941E-03     370.054E-03    -184.410E-03     128.326E-03     459.032E-03     87.8611E+06     99.7496E+06     54.8450E+06    -1.48302E+06    -1.47456E+06     54.8365E+06     99.7496E+06    -549.846E+03
             116     36.3401E-03     14.9797E-03     33.1090E-03     379.195E-03    -184.431E-03    -195.092E-03    -187.453E-03     371.556E-03    -184.431E-03     131.562E-03     459.794E-03     88.8643E+06     99.6782E+06     54.6723E+06    -2.68347E+06    -2.68123E+06     54.6700E+06     99.6782E+06     158.846E+03
             117     37.6594E-03     14.9839E-03     34.5501E-03     378.346E-03    -184.489E-03    -194.131E-03    -186.540E-03     370.755E-03    -184.489E-03     130.938E-03     458.582E-03     88.6397E+06     97.8220E+06     53.5542E+06    -4.22418E+06    -4.18721E+06     53.5173E+06     97.8220E+06     1.25868E+06
             118     38.9904E-03     14.9783E-03     35.9986E-03     378.466E-03    -184.620E-03    -194.044E-03    -186.846E-03     371.268E-03    -184.620E-03     127.582E-03     458.907E-03     87.8288E+06     99.1113E+06     54.2345E+06    -2.05977E+06    -2.00332E+06     54.1780E+06     99.1113E+06     1.77460E+06
             119     40.3296E-03     14.9778E-03     37.4452E-03     377.666E-03    -184.732E-03    -193.150E-03    -186.025E-03     370.540E-03    -184.732E-03     126.754E-03     458.408E-03     87.6765E+06     97.9458E+06     53.3825E+06    -3.02606E+06    -3.00377E+06     53.3603E+06     97.9458E+06     906.698E+03
             120     41.6709E-03     14.9779E-03     38.8861E-03     376.541E-03    -184.729E-03    -192.064E-03    -184.963E-03     369.440E-03    -184.729E-03     126.292E-03     457.627E-03     87.1250E+06     97.1543E+06     53.8606E+06    -3.12519E+06    -3.11918E+06     53.8546E+06     97.1543E+06    -222.664E+03
             121     43.0249E-03     14.9786E-03     40.3334E-03     376.499E-03    -184.689E-03    -192.224E-03    -185.101E-03     369.376E-03    -184.689E-03     126.492E-03     457.660E-03     86.0999E+06     96.5225E+06     54.0672E+06    -2.54154E+06    -2.53606E+06     54.0617E+06     96.5225E+06    -290.007E+03
             122     44.3827E-03     14.9792E-03     41.7785E-03     376.436E-03    -184.709E-03    -192.262E-03    -185.119E-03     369.293E-03    -184.709E-03     126.670E-03     457.730E-03     86.6263E+06     96.4285E+06     54.0750E+06    -3.21467E+06    -3.21338E+06     54.0737E+06     96.4285E+06    -84.6089E+03
             123     45.7495E-03     14.9785E-03     43.2280E-03     377.696E-03    -184.705E-03    -193.304E-03    -186.210E-03     370.602E-03    -184.705E-03     126.495E-03     458.803E-03     86.7806E+06     96.8988E+06     53.9516E+06    -2.97637E+06    -2.97498E+06     53.9502E+06     96.8988E+06    -270.693E+03
             124     47.1185E-03     14.9756E-03     44.6754E-03     376.635E-03    -184.748E-03    -192.115E-03    -185.114E-03     369.634E-03    -184.748E-03     125.424E-03     457.542E-03     86.0297E+06     96.7042E+06     54.8276E+06    -2.24594E+06    -2.22290E+06     54.8046E+06     96.7042E+06    -894.814E+03
             125     48.4882E-03     14.9791E-03     46.1165E-03     372.690E-03    -184.761E-03    -188.199E-03    -181.258E-03     365.749E-03    -184.761E-03     124.013E-03     454.558E-03     85.2245E+06     93.7863E+06     53.2917E+06    -4.12808E+06    -4.09676E+06     53.2604E+06     93.7863E+06    -1.29949E+06
             126     49.8514E-03     14.9823E-03     47.5468E-03     374.189E-03    -184.559E-03    -189.875E-03    -183.178E-03     367.492E-03    -184.559E-03     122.151E-03     456.369E-03     85.2892E+06     95.7178E+06     54.8090E+06    -2.30577E+06    -2.21016E+06     54.7134E+06     95.7178E+06    -2.05005E+06
             127     51.2498E-03     14.9795E-03     49.0119E-03     379.165E-03    -184.418E-03    -194.930E-03    -188.180E-03     372.414E-03    -184.418E-03     123.746E-03     459.792E-03     85.7147E+06     96.5167E+06     55.6364E+06    -1.96707E+06    -1.87873E+06     55.5480E+06     96.5167E+06    -1.34334E+06
             128     52.6438E-03     14.9788E-03     50.4678E-03     379.408E-03    -184.548E-03    -195.040E-03    -187.840E-03     372.207E-03    -184.548E-03     127.807E-03     459.410E-03     85.0949E+06     94.3656E+06     54.0995E+06    -3.37720E+06    -3.37498E+06     54.0973E+06     94.3656E+06     356.165E+03
             129     54.0285E-03     14.9783E-03     51.9108E-03     377.198E-03    -184.630E-03    -192.819E-03    -185.481E-03     369.859E-03    -184.630E-03     128.522E-03     457.436E-03     84.6078E+06     94.8922E+06     54.9867E+06    -2.27422E+06    -2.27246E+06     54.9849E+06     94.8922E+06     317.269E+03
             130     55.4191E-03     14.9798E-03     53.3562E-03     376.493E-03    -184.569E-03    -192.243E-03    -185.019E-03     369.269E-03    -184.569E-03     127.378E-03     456.903E-03     85.0706E+06     94.7248E+06     54.6824E+06    -2.96546E+06    -2.95364E+06     54.6706E+06     94.7248E+06    -388.063E+03
             131     56.8095E-03     14.9785E-03     54.7993E-03     377.041E-03    -184.596E-03    -192.923E-03    -185.694E-03     369.812E-03    -184.596E-03     127.559E-03     457.698E-03     85.5768E+06     95.7204E+06     55.0954E+06    -2.59486E+06    -2.58362E+06     55.0842E+06     95.7204E+06    -648.115E+03
             132     58.2090E-03     14.9805E-03     56.2483E-03     377.738E-03    -184.588E-03    -193.565E-03    -186.339E-03     370.512E-03    -184.588E-03     127.684E-03     458.281E-03     86.2232E+06     96.2863E+06     55.4030E+06    -2.76690E+06    -2.76657E+06     55.4027E+06     96.2863E+06    -118.360E+03
             133     59.6079E-03     14.9787E-03     57.6952E-03     377.845E-03    -184.591E-03    -193.593E-03    -186.472E-03     370.724E-03    -184.591E-03     126.786E-03     457.952E-03     85.7588E+06     96.1536E+06     55.6515E+06    -2.34602E+06    -2.34204E+06     55.6475E+06     96.1536E+06     322.163E+03
             134     61.0116E-03     14.9788E-03     59.1443E-03     377.012E-03    -184.630E-03    -192.732E-03    -185.407E-03     369.686E-03    -184.630E-03     128.365E-03     456.966E-03     85.3704E+06     94.9676E+06     55.2089E+06    -3.02784E+06    -3.02045E+06     55.2015E+06     94.9676E+06     655.674E+03
             135     62.4091E-03     14.9809E-03     60.5844E-03     376.586E-03    -184.602E-03    -192.336E-03    -185.093E-03     369.342E-03    -184.602E-03     127.548E-03     457.089E-03     86.1215E+06     96.1447E+06     55.7853E+06    -2.74382E+06    -2.72650E+06     55.7679E+06     96.1447E+06    -333.334E+03
             136     63.8157E-03     14.9787E-03     62.0330E-03     377.504E-03    -184.587E-03    -193.324E-03    -186.213E-03     370.393E-03    -184.587E-03     126.619E-03     458.317E-03     87.3977E+06     97.7172E+06     56.3968E+06    -2.67531E+06    -2.66107E+06     56.3825E+06     97.7172E+06    -544.424E+03
             137     65.2234E-03     14.9800E-03     63.4799E-03     377.279E-03    -184.603E-03    -193.077E-03    -185.848E-03     370.049E-03    -184.603E-03     127.613E-03     457.688E-03     87.1481E+06     96.9216E+06     55.9242E+06    -3.15900E+06    -3.15752E+06     55.9227E+06     96.9216E+06    -82.1586E+03
             138     66.6323E-03     14.9797E-03     64.9266E-03     377.850E-03    -184.612E-03    -193.502E-03    -186.202E-03     370.550E-03    -184.612E-03     128.333E-03     458.077E-03     86.5917E+06     96.5328E+06     56.2912E+06    -2.85549E+06    -2.85430E+06     56.2900E+06     96.5328E+06    -138.453E+03
             139     68.0442E-03     14.9784E-03     66.3752E-03     379.160E-03    -184.637E-03    -194.676E-03    -187.452E-03     371.937E-03    -184.637E-03     127.942E-03     459.207E-03     86.5355E+06     97.2667E+06     56.8080E+06    -2.08683E+06    -2.08127E+06     56.8025E+06     97.2667E+06     449.445E+03
             140     69.4600E-03     14.9766E-03     67.8262E-03     377.678E-03    -184.715E-03    -193.191E-03    -185.844E-03     370.331E-03    -184.715E-03     128.657E-03     457.481E-03     86.5300E+06     96.6957E+06     56.1237E+06    -2.66460E+06    -2.62953E+06     56.0887E+06     96.6957E+06     1.33015E+06
             141     70.8649E-03     14.9796E-03     69.2636E-03     376.188E-03    -184.713E-03    -191.809E-03    -184.400E-03     368.779E-03    -184.713E-03     128.876E-03     456.036E-03     86.3920E+06     96.1075E+06     55.8479E+06    -3.06399E+06    -3.03419E+06     55.8181E+06     96.1075E+06     1.00681E+06
             142     72.2811E-03     14.9786E-03     70.7121E-03     376.782E-03    -184.632E-03    -192.627E-03    -185.350E-03     369.505E-03    -184.632E-03     127.909E-03     457.136E-03     86.6049E+06     96.7049E+06     56.2411E+06    -2.72247E+06    -2.72099E+06     56.2396E+06     96.7049E+06    -110.161E+03
             143     73.6972E-03     14.9793E-03     72.1589E-03     377.389E-03    -184.585E-03    -193.272E-03    -185.885E-03     370.002E-03    -184.585E-03     129.013E-03     458.227E-03     87.2160E+06     97.3535E+06     56.3530E+06    -2.80621E+06    -2.80262E+06     56.3494E+06     97.3535E+06    -455.795E+03
             144     75.1125E-03     14.9787E-03     73.6039E-03     377.756E-03    -184.571E-03    -193.543E-03    -186.136E-03     370.348E-03    -184.571E-03     129.262E-03     458.311E-03     87.9751E+06     98.1156E+06     56.4304E+06    -2.95025E+06    -2.94748E+06     56.4276E+06     98.1156E+06    -150.092E+03
             145     76.5328E-03     14.9788E-03     75.0527E-03     377.241E-03    -184.585E-03    -192.968E-03    -185.624E-03     369.897E-03    -184.585E-03     128.588E-03     457.723E-03     88.0896E+06     98.0653E+06     56.2265E+06    -3.14385E+06    -3.14268E+06     56.2254E+06     98.0653E+06    -32.8384E+03
             146     77.9460E-03     14.9802E-03     76.4930E-03     376.406E-03    -184.568E-03    -192.219E-03    -184.871E-03     369.058E-03    -184.568E-03     128.435E-03     457.604E-03     87.8530E+06     98.3845E+06     57.1536E+06    -2.49996E+06    -2.49396E+06     57.1476E+06     98.3845E+06    -542.459E+03
             147     79.3665E-03     14.9797E-03     77.9400E-03     377.699E-03    -184.543E-03    -193.506E-03    -186.273E-03     370.465E-03    -184.543E-03     127.728E-03     458.815E-03     88.0197E+06     98.7591E+06     57.5011E+06    -2.31083E+06    -2.28857E+06     57.4789E+06     98.7591E+06    -1.11153E+06
             148     80.7893E-03     14.9781E-03     79.3887E-03     378.337E-03    -184.576E-03    -194.095E-03    -186.901E-03     371.143E-03    -184.576E-03     127.530E-03     458.699E-03     87.9617E+06     98.0045E+06     56.9317E+06    -2.98072E+06    -2.95927E+06     56.9103E+06     98.0045E+06    -351.945E+03
             149     83.6325E-03     14.9798E-03     82.2801E-03     377.117E-03    -184.580E-03    -192.874E-03    -185.593E-03     369.836E-03    -184.580E-03     128.015E-03     457.376E-03     88.4693E+06     99.0220E+06     57.9243E+06    -2.52095E+06    -2.52031E+06     57.9236E+06     99.0220E+06     195.847E+03
             150     85.0551E-03     14.9794E-03     83.7257E-03     377.140E-03    -184.536E-03    -192.991E-03    -185.740E-03     369.890E-03    -184.536E-03     127.764E-03     457.437E-03     88.0785E+06     98.8449E+06     58.3462E+06    -2.19745E+06    -2.19715E+06     58.3459E+06     98.8449E+06     36.0941E+03
             151     86.4790E-03     14.9815E-03     85.1714E-03     376.753E-03    -184.521E-03    -192.704E-03    -185.469E-03     369.517E-03    -184.521E-03     127.557E-03     457.297E-03     87.9888E+06     98.1444E+06     58.1800E+06    -2.73382E+06    -2.73375E+06     58.1799E+06     98.1444E+06    -57.4892E+03
             152     87.9019E-03     14.9794E-03     86.6162E-03     377.477E-03    -184.560E-03    -193.322E-03    -186.070E-03     370.225E-03    -184.560E-03     127.856E-03     457.875E-03     88.2356E+06     97.9551E+06     57.9533E+06    -3.19635E+06    -3.19328E+06     57.9502E+06     97.9551E+06     296.144E+03
             153     89.3332E-03     14.9786E-03     88.0685E-03     378.340E-03    -184.630E-03    -194.027E-03    -186.584E-03     370.897E-03    -184.630E-03     129.687E-03     458.352E-03     88.3496E+06     98.0228E+06     58.3030E+06    -3.21483E+06    -3.20598E+06     58.2941E+06     98.0228E+06     729.052E+03
             154     90.7551E-03     14.9792E-03     89.5104E-03     377.950E-03    -184.638E-03    -193.698E-03    -186.369E-03     370.622E-03    -184.638E-03     128.600E-03     458.213E-03     87.7527E+06     97.6477E+06     58.8417E+06    -2.81693E+06    -2.81026E+06     58.8350E+06     97.6477E+06     587.824E+03
             155     92.1848E-03     14.9777E-03     90.9599E-03     376.976E-03    -184.668E-03    -192.768E-03    -185.565E-03     369.772E-03    -184.668E-03     127.310E-03     457.473E-03     87.3768E+06     97.2793E+06     58.8881E+06    -2.72029E+06    -2.71909E+06     58.8869E+06     97.2793E+06     67.0009E+03
             156     93.6115E-03     14.9792E-03     92.4053E-03     376.694E-03    -184.641E-03    -192.440E-03    -185.034E-03     369.288E-03    -184.641E-03     128.996E-03     457.171E-03     87.3880E+06     96.8119E+06     58.5374E+06    -3.18265E+06    -3.18167E+06     58.5364E+06     96.8119E+06    -242.241E+03
             157     95.0312E-03     14.9802E-03     93.8431E-03     376.607E-03    -184.528E-03    -192.503E-03    -185.235E-03     369.339E-03    -184.528E-03     127.786E-03     456.999E-03     87.3193E+06     97.5720E+06     59.4920E+06    -2.32028E+06    -2.31322E+06     59.4849E+06     97.5720E+06    -588.451E+03
             158     96.4635E-03     14.9800E-03     95.2932E-03     377.258E-03    -184.506E-03    -193.351E-03    -186.073E-03     369.979E-03    -184.506E-03     128.049E-03     457.452E-03     87.7091E+06     98.0739E+06     59.2474E+06    -2.34585E+06    -2.33833E+06     59.2399E+06     98.0739E+06    -259.118E+03
             159     97.8873E-03     14.9777E-03     96.7347E-03     377.658E-03    -184.565E-03    -193.766E-03    -186.446E-03     370.338E-03    -184.565E-03     128.507E-03     457.711E-03     87.6766E+06     97.1242E+06     58.6393E+06    -3.20944E+06    -3.20804E+06     58.6379E+06     97.1242E+06     278.802E+03
             160     99.3142E-03     14.9809E-03     98.1778E-03     376.752E-03    -184.610E-03    -192.773E-03    -185.565E-03     369.543E-03    -184.610E-03     127.330E-03     457.093E-03     87.5218E+06     97.2037E+06     60.0307E+06    -2.76788E+06    -2.76751E+06     60.0304E+06     97.2037E+06     41.7220E+03
             161     100.741E-03     14.9798E-03     99.6214E-03     377.068E-03    -184.639E-03    -192.848E-03    -185.683E-03     369.903E-03    -184.639E-03     126.993E-03     456.892E-03     86.8765E+06     97.3478E+06     60.5786E+06    -1.86674E+06    -1.86419E+06     60.5761E+06     97.3478E+06     223.782E+03
             162     102.170E-03     14.9792E-03     101.066E-03     377.524E-03    -184.722E-03    -193.113E-03    -185.990E-03     370.401E-03    -184.722E-03     126.713E-03     456.538E-03     86.9808E+06     96.2038E+06     58.9570E+06    -3.19796E+06    -3.19056E+06     58.9496E+06     96.2038E+06    -117.757E+03
             163     103.596E-03     14.9790E-03     102.507E-03     377.520E-03    -184.618E-03    -193.031E-03    -185.842E-03     370.332E-03    -184.618E-03     127.274E-03     456.377E-03     87.5576E+06     96.5523E+06     58.7132E+06    -3.56110E+06    -3.55390E+06     58.7060E+06     96.5523E+06    -128.578E+03
             164     105.031E-03     14.9819E-03     103.957E-03     378.183E-03    -184.458E-03    -193.573E-03    -186.386E-03     370.996E-03    -184.458E-03     127.394E-03     456.451E-03      87.372E+06     97.6701E+06     61.0756E+06    -2.03881E+06    -2.03324E+06     61.0700E+06     97.6701E+06     591.006E+03
             165     106.468E-03     14.9778E-03     105.409E-03     378.935E-03    -184.560E-03    -194.197E-03    -187.049E-03     371.786E-03    -184.560E-03     127.212E-03     457.045E-03     88.0346E+06     97.1105E+06     60.1251E+06    -3.37151E+06    -3.36642E+06     60.1200E+06     97.1105E+06     89.7707E+03
             166     107.892E-03     14.9787E-03     106.847E-03     378.692E-03    -184.675E-03    -193.835E-03    -186.718E-03     371.575E-03    -184.675E-03     126.868E-03     457.014E-03     89.0869E+06     99.2881E+06     59.9972E+06    -2.68917E+06    -2.68697E+06     59.9950E+06     99.2881E+06    -122.442E+03
             167     109.328E-03     14.9787E-03     108.297E-03     377.355E-03    -184.693E-03    -192.496E-03    -185.330E-03     370.189E-03    -184.693E-03     126.999E-03     455.330E-03     89.9772E+06     100.205E+06     62.1481E+06    -2.52639E+06    -2.47652E+06     62.0982E+06     100.205E+06     1.39635E+06
             168     110.758E-03     14.9809E-03     109.740E-03     376.585E-03    -184.683E-03    -191.750E-03    -184.610E-03     369.445E-03    -184.683E-03     126.600E-03     454.286E-03     90.9804E+06     99.2342E+06     64.4921E+06    -3.98360E+06    -3.93390E+06     64.4424E+06     99.2342E+06     1.37378E+06
             169     112.185E-03     14.9794E-03     111.181E-03     377.508E-03    -184.616E-03    -192.691E-03    -185.611E-03     370.427E-03    -184.616E-03     126.290E-03     455.008E-03     93.2492E+06     102.798E+06     68.5760E+06    -2.72649E+06    -2.71579E+06     68.5653E+06     102.798E+06     706.195E+03
             170     113.624E-03     14.9815E-03     112.632E-03     377.152E-03    -184.569E-03    -192.428E-03    -185.351E-03     370.075E-03    -184.569E-03     126.187E-03     455.039E-03     95.7922E+06     105.967E+06     72.0487E+06    -2.15782E+06    -2.13523E+06     72.0262E+06     105.967E+06     1.29420E+06
             171     115.053E-03     14.9815E-03     114.073E-03     376.691E-03    -184.523E-03    -192.038E-03    -184.822E-03     369.476E-03    -184.523E-03     127.304E-03     455.090E-03     97.6563E+06     106.375E+06     72.5694E+06    -3.68951E+06    -3.67074E+06     72.5506E+06     106.375E+06     175.779E+03
             172     116.484E-03     14.9827E-03     115.517E-03     377.158E-03    -184.439E-03    -192.601E-03    -185.412E-03     369.969E-03    -184.439E-03     127.180E-03     455.583E-03     98.9790E+06     108.939E+06     73.3455E+06    -2.91342E+06    -2.90419E+06     73.3362E+06     108.939E+06    -189.957E+03
             173     117.916E-03     14.9845E-03     116.960E-03     377.380E-03    -184.404E-03    -192.799E-03    -185.687E-03     370.268E-03    -184.404E-03     126.561E-03     455.804E-03     101.642E+06     111.390E+06     77.2889E+06    -2.88173E+06    -2.87599E+06     77.2832E+06     111.390E+06     677.778E+03
             174     119.352E-03     14.9818E-03     118.408E-03     378.550E-03    -184.429E-03    -193.857E-03    -186.626E-03     371.319E-03    -184.429E-03     127.857E-03     456.463E-03     105.181E+06     113.884E+06     80.9847E+06    -3.81248E+06    -3.78395E+06     80.9562E+06     113.884E+06     1.40492E+06
             175     120.783E-03     14.9833E-03     119.850E-03     378.237E-03    -184.365E-03    -193.607E-03    -186.387E-03     371.017E-03    -184.365E-03     127.695E-03     456.197E-03     108.534E+06     116.809E+06     86.2701E+06    -3.66615E+06    -3.62532E+06     86.2293E+06     116.809E+06     1.89489E+06
             176     122.214E-03     14.9862E-03     121.292E-03     376.653E-03    -184.224E-03    -192.106E-03    -185.048E-03     369.595E-03    -184.224E-03     125.925E-03     455.142E-03     112.113E+06     120.942E+06     92.9773E+06    -2.50585E+06    -2.47819E+06     92.9496E+06     120.942E+06     1.62160E+06
             177     123.647E-03     14.9858E-03     122.736E-03     376.473E-03    -184.121E-03    -191.866E-03    -184.649E-03     369.257E-03    -184.121E-03     127.246E-03     454.862E-03     115.384E+06     124.116E+06     97.3833E+06    -2.26909E+06    -2.22111E+06     97.3353E+06     124.116E+06     2.12284E+06
             178     125.078E-03     14.9889E-03     124.177E-03     377.280E-03    -183.965E-03    -192.524E-03    -185.155E-03     369.911E-03    -183.965E-03     128.750E-03     455.807E-03     120.329E+06     126.253E+06     102.111E+06    -4.31156E+06    -4.27063E+06     102.070E+06     126.253E+06     1.88838E+06
             179     126.508E-03     14.9899E-03     125.617E-03     376.521E-03    -183.712E-03    -191.880E-03    -184.555E-03     369.196E-03    -183.712E-03     128.218E-03     455.562E-03     123.879E+06     130.194E+06     108.045E+06    -3.25907E+06    -3.22700E+06     108.013E+06     130.194E+06     1.76326E+06
             180     127.911E-03     14.9954E-03     127.029E-03     373.179E-03    -183.418E-03    -189.079E-03    -181.506E-03     365.606E-03    -183.418E-03     129.608E-03     453.356E-03     127.303E+06     131.517E+06     111.786E+06    -4.49177E+06    -4.46486E+06     111.759E+06     131.517E+06     1.21921E+06
             181     129.335E-03     15.0008E-03     128.462E-03     370.471E-03    -183.158E-03    -187.265E-03    -179.321E-03     362.528E-03    -183.158E-03     132.159E-03     451.145E-03     129.267E+06     135.251E+06     114.354E+06    -3.17464E+06    -3.17105E+06     114.350E+06     135.251E+06     443.241E+03
             182     130.765E-03     15.0090E-03     129.901E-03     369.119E-03    -182.766E-03    -186.292E-03    -177.913E-03     360.739E-03    -182.766E-03     135.389E-03     449.031E-03     131.642E+06     139.183E+06     113.916E+06    -3.25433E+06    -3.24881E+06     113.911E+06     139.183E+06     794.231E+03
             183     132.190E-03     15.0201E-03     131.334E-03     366.425E-03    -182.322E-03    -183.973E-03    -175.014E-03     357.466E-03    -182.322E-03     139.265E-03     445.690E-03     135.479E+06     143.463E+06     115.071E+06    -3.95962E+06    -3.87400E+06     114.985E+06     143.463E+06     2.56769E+06
             184     133.623E-03     15.0370E-03     132.774E-03     358.552E-03    -177.451E-03    -181.649E-03    -167.949E-03     348.806E-03    -181.404E-03     143.186E-03     437.678E-03     140.348E+06     148.995E+06     118.118E+06    -4.22021E+06    -4.11158E+06     118.009E+06     148.995E+06     3.48065E+06
             185     135.017E-03     15.0660E-03     134.173E-03     345.257E-03    -166.333E-03    -179.817E-03    -155.674E-03     334.598E-03    -179.817E-03     146.052E-03     424.819E-03     144.942E+06     154.922E+06     120.758E+06    -4.04147E+06    -3.87656E+06     120.593E+06     154.922E+06     4.19186E+06
             186     136.390E-03     15.1100E-03     135.550E-03     333.147E-03    -156.265E-03    -177.283E-03    -144.027E-03     320.908E-03    -177.283E-03     152.599E-03     412.321E-03     152.779E+06     162.542E+06     125.626E+06     -5.3109E+06    -5.16257E+06     125.477E+06     162.542E+06     3.69923E+06
             187     137.764E-03     15.1712E-03     136.926E-03     325.905E-03    -152.546E-03    -173.411E-03    -138.351E-03     311.710E-03    -173.411E-03     162.273E-03     405.533E-03     154.676E+06     167.196E+06     127.668E+06    -3.38325E+06    -3.05372E+06     127.338E+06     167.196E+06     5.20979E+06
             188     139.147E-03     15.2395E-03     138.310E-03     327.931E-03    -159.190E-03    -168.864E-03    -145.318E-03     314.059E-03    -168.864E-03     161.805E-03     412.286E-03     160.108E+06     170.617E+06     132.387E+06    -5.06524E+06    -4.64463E+06     131.966E+06     170.617E+06     7.18751E+06
             189     140.526E-03     15.2891E-03     139.691E-03     350.036E-03    -164.568E-03    -185.508E-03    -174.372E-03     339.198E-03    -164.865E-03     149.629E-03     442.136E-03     169.122E+06     178.189E+06     137.834E+06    -7.38544E+06    -7.26284E+06     137.712E+06     178.189E+06     4.00862E+06
             190     141.989E-03     15.3047E-03     141.162E-03     387.883E-03    -162.481E-03    -225.390E-03    -217.306E-03     379.799E-03    -162.481E-03     139.329E-03     483.732E-03     161.081E+06     171.134E+06     132.672E+06    -5.61877E+06    -5.32530E+06     132.379E+06     171.134E+06    -3.02581E+06
             191     143.502E-03     15.3037E-03     142.683E-03     421.439E-03    -161.365E-03    -259.982E-03    -252.493E-03     413.950E-03    -161.365E-03     142.090E-03     516.165E-03     154.204E+06     168.914E+06     130.087E+06    -841.692E+03    -415.479E+03     129.660E+06     168.914E+06    -1.18196E+06
             192     145.037E-03     15.3049E-03     144.227E-03     440.044E-03    -160.863E-03    -279.126E-03    -271.388E-03     432.305E-03    -160.863E-03     148.393E-03     533.828E-03     161.142E+06     170.765E+06     121.945E+06    -9.14157E+06    -8.29614E+06     121.100E+06     170.765E+06    -3.73445E+06
             193     146.580E-03     15.3035E-03     145.779E-03     449.171E-03    -160.691E-03    -288.441E-03    -280.398E-03     441.128E-03    -160.691E-03     153.182E-03     542.491E-03     151.641E+06     167.881E+06     113.027E+06    -3.27581E+06    -1.94608E+06     111.697E+06     167.881E+06    -1.36662E+06
             194     148.146E-03     15.3052E-03     147.353E-03     457.465E-03    -160.543E-03    -296.845E-03    -288.250E-03     448.870E-03    -160.543E-03     160.118E-03     550.664E-03     150.897E+06     159.813E+06     100.227E+06    -11.6952E+06    -8.94538E+06     97.4771E+06     159.813E+06    -5.97542E+06
             195     149.710E-03     15.3033E-03     148.926E-03     463.600E-03    -160.387E-03    -303.140E-03    -294.445E-03     454.904E-03    -160.387E-03     162.367E-03     555.754E-03     144.922E+06     160.224E+06     85.3459E+06    -4.25106E+06     711.042E+03     80.3838E+06     160.224E+06    -3.46284E+06
             196     151.279E-03     15.3061E-03     150.503E-03     467.246E-03    -160.296E-03    -306.860E-03    -298.300E-03     458.686E-03    -160.296E-03     161.902E-03     557.096E-03     155.156E+06     166.868E+06     72.2614E+06    -11.3180E+06    -6.26862E+06     67.2120E+06     166.868E+06    -3.10908E+06
             197     152.872E-03     15.3039E-03     152.104E-03     474.552E-03    -160.081E-03    -314.311E-03    -305.277E-03     465.519E-03    -160.081E-03     167.831E-03     562.243E-03     164.666E+06     174.212E+06     63.3834E+06    -11.8148E+06    -911.816E+03     52.4805E+06     174.212E+06    -2.66859E+06
             198     154.468E-03     15.3097E-03     153.708E-03     475.152E-03    -160.038E-03    -315.008E-03    -305.728E-03     465.873E-03    -160.038E-03     170.247E-03     558.979E-03     172.119E+06     174.029E+06     43.2951E+06    -19.8974E+06    -6.76888E+06     30.1666E+06     174.029E+06    -5.17584E+06
             199     156.052E-03     15.3064E-03     155.300E-03     466.898E-03    -160.192E-03    -306.565E-03    -295.885E-03     456.218E-03    -160.192E-03     179.885E-03     549.099E-03     193.119E+06     193.256E+06     58.5685E+06    -27.9934E+06     1.37259E+06     29.2025E+06     193.256E+06     5.92745E+06
             200     157.598E-03     15.3159E-03     156.852E-03     447.663E-03    -160.603E-03    -286.882E-03    -274.173E-03     434.954E-03    -160.603E-03     191.432E-03     549.110E-03     206.528E+06     206.663E+06     67.7213E+06    -30.5423E+06    -3.99405E+06     41.1730E+06     206.663E+06     10.0240E+06
             201     159.138E-03     15.3116E-03     158.400E-03     395.494E-03    -162.139E-03    -233.528E-03    -212.037E-03     374.004E-03    -162.139E-03     220.323E-03     529.004E-03     190.980E+06     179.856E+06     41.9423E+06    -36.7748E+06    -14.6786E+06     19.8460E+06     179.856E+06    -7.43816E+06
             202     160.537E-03     15.3232E-03     159.804E-03     226.431E-03    -39.9291E-03    -186.717E-03    -36.8668E-03     206.902E-03    -170.251E-03     128.622E-03     345.289E-03     147.821E+06     152.574E+06     70.6556E+06    -10.8524E+06     18.2590E+06     41.5442E+06     152.574E+06    -19.1331E+06
             203     161.033E-03     13.9092E-03     160.431E-03     142.889E-03     38.6484E-03    -181.797E-03     48.7830E-03     132.754E-03    -181.797E-03    -42.2926E-03     257.365E-03     175.299E+06     111.641E+06     39.7527E+06    -86.8616E+06    -18.0185E+06    -29.0904E+06     111.641E+06    -2.86983E+06
             204     160.464E-03     13.0391E-03     159.933E-03     190.208E-03    -2.58743E-03    -188.065E-03     3.90850E-03     183.713E-03    -188.065E-03    -64.2747E-03     319.604E-03     184.355E+06     120.936E+06     41.4450E+06    -89.0169E+06    -17.3118E+06    -30.2601E+06     120.936E+06    -6.36893E+06
             205     159.830E-03     12.1408E-03     159.368E-03     185.474E-03     5.86564E-03    -191.475E-03     11.3195E-03     180.020E-03    -191.475E-03    -57.0165E-03     302.963E-03     158.992E+06     123.919E+06     43.3187E+06    -56.2356E+06    -11.8816E+06    -1.03528E+06     123.919E+06    -16.5429E+06
             206     159.219E-03     11.2580E-03     158.821E-03     190.696E-03     3.93644E-03    -194.547E-03     16.1583E-03     178.475E-03    -194.547E-03    -91.9247E-03     299.786E-03     146.200E+06     121.538E+06     26.0290E+06    -46.5354E+06    -7.58874E+06    -12.9177E+06     121.538E+06    -5.68685E+06
             207     158.611E-03     10.3967E-03     158.270E-03     211.421E-03    -15.3665E-03    -196.013E-03     6.00831E-03     190.046E-03    -196.013E-03    -131.930E-03     305.873E-03     136.170E+06     123.904E+06     21.4656E+06    -27.8401E+06    -10.1405E+06     3.76610E+06     123.904E+06    -14.2958E+06
             208     158.005E-03     9.57280E-03     157.715E-03     238.837E-03    -44.5309E-03    -194.243E-03    -9.76033E-03     204.067E-03    -194.243E-03    -185.619E-03     314.974E-03     134.488E+06     116.563E+06     9.35660E+06    -32.7588E+06    -12.9540E+06    -10.4482E+06     116.563E+06    -13.9474E+06
             209     157.424E-03     8.79734E-03     157.178E-03     269.544E-03    -80.7268E-03    -188.965E-03    -32.7546E-03     221.571E-03    -188.965E-03    -240.833E-03     327.001E-03     130.720E+06     115.246E+06     13.5385E+06    -31.1585E+06    -10.4865E+06    -7.13349E+06     115.246E+06    -18.1546E+06
             210     156.901E-03     8.04264E-03     156.695E-03     297.000E-03    -116.229E-03    -181.118E-03    -59.5710E-03     240.343E-03    -181.118E-03    -284.260E-03     337.489E-03     120.927E+06     102.309E+06     8.20335E+06    -32.9755E+06    -8.99831E+06    -15.7738E+06     102.309E+06    -17.9801E+06
             211     156.446E-03     7.29858E-03     156.275E-03     315.370E-03    -144.433E-03    -171.273E-03    -85.6896E-03     256.626E-03    -171.273E-03    -306.827E-03     342.607E-03     109.285E+06     92.7706E+06     10.2031E+06    -30.4454E+06    -6.80514E+06    -13.4371E+06     92.7706E+06    -17.6532E+06
             212     156.039E-03     6.56835E-03     155.901E-03     323.050E-03    -155.302E-03    -167.921E-03    -110.467E-03     270.224E-03    -159.930E-03    -302.066E-03     340.328E-03     99.0647E+06     85.6365E+06     5.25570E+06    -24.9096E+06    -4.97681E+06    -14.6771E+06     85.6365E+06    -12.5469E+06
             213     155.706E-03     5.82706E-03     155.597E-03     318.703E-03    -148.080E-03    -170.419E-03    -129.552E-03     277.837E-03    -148.080E-03    -269.670E-03     328.889E-03     89.7286E+06     81.4391E+06     10.7433E+06    -19.4859E+06    -2.29284E+06    -6.44985E+06     81.4391E+06    -14.6169E+06
             214     155.414E-03     5.07315E-03     155.331E-03     304.132E-03    -137.106E-03    -166.880E-03    -139.395E-03     276.646E-03    -137.106E-03    -219.446E-03     310.420E-03     84.1425E+06     74.1858E+06     12.8708E+06    -21.3440E+06    -192.297E+03    -8.28094E+06     74.1858E+06    -16.5108E+06
             215     155.225E-03     4.28007E-03     155.166E-03     281.752E-03    -127.554E-03    -154.157E-03    -137.925E-03     265.520E-03    -127.554E-03    -163.711E-03     285.491E-03     77.7943E+06     69.4014E+06     19.7810E+06    -20.2496E+06     5.51028E+06    -5.97891E+06     69.4014E+06    -18.9387E+06
             216     155.053E-03     3.46139E-03     155.015E-03     257.223E-03    -119.379E-03    -137.766E-03    -128.704E-03     248.162E-03    -119.379E-03    -117.513E-03     259.323E-03     65.8000E+06     58.5167E+06     21.1300E+06    -17.3055E+06     11.3881E+06    -7.56352E+06     58.5167E+06    -16.6642E+06
             217     154.924E-03     2.61310E-03     154.902E-03     237.469E-03    -113.030E-03    -124.414E-03    -119.418E-03     232.474E-03    -113.030E-03    -83.4878E-03     238.745E-03     52.0878E+06     47.4592E+06     29.0176E+06    -10.7855E+06     21.9449E+06    -3.71285E+06     47.4592E+06    -15.0546E+06
             218     154.835E-03     1.75309E-03     154.825E-03     222.751E-03    -108.592E-03    -114.108E-03    -111.825E-03     220.468E-03    -108.592E-03    -53.8521E-03     223.539E-03     44.1185E+06     38.1948E+06     30.2962E+06    -9.33951E+06     28.0115E+06    -3.35684E+06     34.4968E+06    -14.9485E+06
             219     154.794E-03     879.625E-06     154.792E-03     213.310E-03    -105.438E-03    -107.843E-03    -107.120E-03     212.586E-03    -105.438E-03    -28.3802E-03     214.056E-03     53.7453E+06     40.8406E+06     36.0986E+06    -15.0152E+06     35.6249E+06    -10.8437E+06     37.1426E+06    -13.5248E+06
             220     153.546E-03     209.318E-09     153.546E-03     171.205E-03    -85.0048E-03    -86.2209E-03    -85.8921E-03     171.029E-03    -85.1576E-03    -13.4445E-03     171.647E-03     43.3553E+06     3.24305E+06    -2.92473E+06    -42.1899E+06    -2.84464E+06    -37.1463E+06    -1.88063E+06    -11.4256E+06
             221     152.405E-03    -605.661E-09     152.405E-03     106.214E-03    -52.7789E-03    -53.4439E-03    -52.7129E-03     106.148E-03    -53.4439E-03    -5.91662E-03     106.305E-03     32.3932E+06    -66.3578E+06    -91.8499E+06    -101.644E+06    -90.3965E+06    -74.6582E+06    -94.7970E+06    -8.11017E+06
             222     151.322E-03    -481.889E-09     151.322E-03     66.1184E-03    -32.7457E-03    -33.3716E-03    -32.7317E-03     66.1044E-03    -33.3716E-03     307.477E-06     66.2077E-03     70.9149E+06    -107.067E+06    -171.630E+06    -182.954E+06    -178.677E+06    -108.397E+06    -174.578E+06    -9.74366E+06
             223     150.272E-03     280.013E-09     150.272E-03     47.2097E-03    -23.4520E-03    -23.7562E-03    -23.5536E-03     47.1209E-03    -23.5658E-03     4.42663E-03     47.3044E-03     110.591E+06    -152.762E+06    -257.591E+06    -267.984E+06    -263.361E+06    -155.369E+06    -259.607E+06    -16.9339E+06
             224     149.228E-03    -142.030E-09     149.228E-03     46.0370E-03    -22.9031E-03    -23.1315E-03    -22.9146E-03     45.8200E-03    -22.9031E-03     7.69562E-03     46.1297E-03     151.359E+06    -200.936E+06    -348.939E+06    -355.434E+06    -351.788E+06    -202.567E+06    -350.956E+06    -11.7855E+06
             225     148.180E-03     9.49059E-09     148.180E-03     63.5802E-03    -31.5648E-03    -32.0118E-03    -31.7139E-03     63.2823E-03    -31.5648E-03     10.6264E-03     63.6468E-03     128.875E+06    -205.640E+06    -326.790E+06    -340.443E+06    -328.433E+06    -208.476E+06    -335.965E+06     7.17131E+06
             226     147.101E-03     411.241E-09     147.101E-03     99.0764E-03    -48.9777E-03    -50.0965E-03    -49.7968E-03     98.7768E-03    -48.9777E-03     13.2230E-03     99.1102E-03     61.3048E+06    -148.460E+06    -183.293E+06    -214.045E+06    -191.620E+06    -162.763E+06    -191.415E+06     20.0780E+06
             227     145.975E-03     923.180E-09     145.975E-03     141.748E-03    -70.2918E-03    -71.4544E-03    -71.2017E-03     141.495E-03    -70.2918E-03     14.5497E-03     141.781E-03     46.3226E+06    -86.9503E+06    -92.7541E+06    -135.804E+06    -100.911E+06    -122.895E+06    -91.7014E+06     4.16318E+06
             228     144.793E-03    -300.457E-09     144.793E-03     181.814E-03    -90.6060E-03    -91.2028E-03    -90.8444E-03     181.599E-03    -90.7499E-03     15.2484E-03     181.888E-03     62.9664E+06    -64.3052E+06    -70.4055E+06    -129.952E+06    -66.1001E+06    -128.157E+06    -70.4055E+06    -6.75106E+06
             229     143.574E-03    -173.835E-09     143.574E-03     219.892E-03    -109.366E-03    -110.528E-03    -110.211E-03     219.719E-03    -109.510E-03     14.9763E-03     220.029E-03     93.3730E+06    -50.1076E+06    -52.9495E+06    -144.869E+06    -51.6393E+06    -144.830E+06    -51.4568E+06    -1.57043E+06
             230     142.306E-03     1.93108E-06     142.306E-03     257.183E-03    -127.193E-03    -129.982E-03    -129.867E-03     257.068E-03    -127.193E-03     13.1649E-03     257.387E-03     118.287E+06    -32.2274E+06    -39.7371E+06    -154.041E+06     -33.776E+06    -153.985E+06    -38.2444E+06    -2.51580E+06
             231     140.989E-03     1.12698E-06     140.989E-03     288.945E-03    -143.497E-03    -145.441E-03    -145.191E-03     288.868E-03    -143.671E-03     11.5144E-03     289.234E-03     122.974E+06    -40.4850E+06    -51.8784E+06    -168.759E+06    -46.0550E+06    -168.566E+06    -46.5021E+06    -4.22525E+06
             232     139.634E-03    -1.48126E-06     139.634E-03     313.787E-03    -156.425E-03    -157.467E-03    -157.246E-03     313.740E-03    -156.599E-03     9.12633E-03     314.137E-03     120.984E+06    -64.6648E+06    -70.9146E+06    -188.586E+06    -70.2373E+06    -188.390E+06    -65.5383E+06    -4.26138E+06
             233     138.256E-03     2.94139E-06     138.256E-03     333.441E-03    -165.377E-03    -168.076E-03    -168.054E-03     333.419E-03    -165.377E-03     6.56604E-03     333.830E-03     128.617E+06    -79.6720E+06    -85.9238E+06    -211.248E+06    -79.8922E+06    -211.028E+06    -85.9238E+06    -4.83628E+06
             234     136.847E-03     123.889E-09     136.847E-03     346.081E-03    -171.989E-03    -173.998E-03    -173.987E-03     346.071E-03    -171.989E-03     4.50789E-03     346.511E-03     132.342E+06    -94.6745E+06    -103.601E+06    -231.245E+06    -98.4249E+06    -231.043E+06    -100.053E+06    -4.07699E+06
             235     135.426E-03     294.375E-09     135.426E-03     354.397E-03    -176.982E-03    -177.356E-03    -177.350E-03     354.391E-03    -176.982E-03     3.71444E-03     354.845E-03     125.915E+06    -123.435E+06    -129.732E+06    -252.379E+06    -127.088E+06    -252.275E+06    -126.184E+06    -2.87023E+06
             236     133.999E-03    -21.7052E-09     133.999E-03     360.174E-03    -179.217E-03    -180.874E-03    -180.869E-03     360.170E-03    -179.217E-03     1.63757E-03     360.631E-03     132.760E+06    -134.597E+06    -139.202E+06    -269.594E+06    -136.574E+06    -269.473E+06    -137.345E+06    -3.65956E+06
             237     132.563E-03     2.43710E-06     132.563E-03     361.094E-03    -179.391E-03    -181.590E-03    -181.589E-03     361.094E-03    -179.391E-03    -169.684E-06     361.558E-03     141.843E+06    -147.348E+06    -151.242E+06    -291.098E+06    -149.474E+06    -290.828E+06    -149.386E+06    -5.34798E+06
             238     131.132E-03    -1.18015E-06     131.132E-03     361.686E-03    -180.053E-03    -181.595E-03    -180.791E-03     361.686E-03    -180.857E-03     395.810E-06     362.199E-03     149.463E+06    -167.522E+06    -170.268E+06    -318.334E+06    -168.484E+06    -318.080E+06    -169.560E+06    -3.83635E+06
             239     129.694E-03    -38.6139E-09     129.694E-03     364.173E-03    -181.476E-03    -182.896E-03    -182.092E-03     364.172E-03    -182.280E-03    -626.338E-06     364.712E-03     171.116E+06    -161.391E+06    -162.963E+06    -333.288E+06    -163.166E+06    -333.084E+06    -161.391E+06    -3.90188E+06
             240     128.255E-03     1.13108E-06     128.255E-03     365.690E-03    -181.938E-03    -183.928E-03    -183.927E-03     365.690E-03    -181.938E-03    -1.08993E-03     366.190E-03     188.871E+06    -160.190E+06    -163.910E+06    -350.886E+06    -161.262E+06    -350.678E+06    -163.046E+06    -3.46352E+06
             241     126.812E-03     1.11604E-06     126.812E-03     366.539E-03    -182.276E-03    -184.434E-03    -184.434E-03     366.539E-03    -182.276E-03    -811.865E-06     367.048E-03     196.170E+06    -159.996E+06    -165.422E+06    -358.823E+06    -162.576E+06    -358.813E+06    -162.852E+06     303.185E+03
             242     125.369E-03     168.366E-09     125.369E-03     366.868E-03    -182.918E-03    -184.063E-03    -184.062E-03     366.867E-03    -182.918E-03    -1.10717E-03     367.389E-03     201.800E+06    -156.993E+06    -161.797E+06    -361.152E+06    -159.573E+06    -361.142E+06    -159.227E+06    -1.38939E+06
             243     123.926E-03     422.605E-09     123.926E-03     366.893E-03    -182.922E-03    -184.113E-03    -184.112E-03     366.892E-03    -182.922E-03    -799.934E-06     367.554E-03     205.569E+06    -155.544E+06    -158.229E+06    -362.437E+06    -156.006E+06    -362.425E+06    -157.778E+06    -260.391E+03
             244     122.483E-03     1.00055E-06     122.483E-03     367.039E-03    -182.630E-03    -184.565E-03    -184.564E-03     367.038E-03    -182.630E-03    -1.19698E-03     367.805E-03     208.088E+06    -148.960E+06    -150.495E+06    -357.810E+06    -149.424E+06    -357.798E+06    -150.044E+06     1.60297E+06
             245     121.042E-03     797.887E-09     121.042E-03     366.870E-03    -182.645E-03    -184.272E-03    -184.270E-03     366.869E-03    -182.645E-03    -1.69337E-03     367.664E-03     209.318E+06    -142.579E+06    -145.352E+06    -353.269E+06    -144.276E+06    -353.260E+06    -143.663E+06     850.414E+03
             246     119.599E-03     176.066E-09     119.599E-03     367.777E-03    -183.423E-03    -184.427E-03    -184.426E-03     367.776E-03    -183.423E-03    -1.48792E-03     368.553E-03     207.967E+06    -138.968E+06    -143.335E+06    -349.083E+06    -140.657E+06    -349.082E+06    -141.647E+06     136.531E+03
             247     118.154E-03     588.848E-09     118.154E-03     369.031E-03    -184.179E-03    -184.788E-03    -184.661E-03     369.030E-03    -184.304E-03    -1.34935E-03     369.752E-03     207.863E+06    -133.455E+06    -139.178E+06    -344.120E+06    -136.503E+06    -344.116E+06    -136.134E+06     843.216E+03
             248     116.707E-03    -795.529E-09     116.707E-03     368.661E-03    -183.933E-03    -184.588E-03    -184.460E-03     368.658E-03    -184.059E-03    -2.19160E-03     369.307E-03     206.820E+06    -134.757E+06    -140.134E+06    -344.212E+06    -137.806E+06    -344.208E+06    -137.090E+06     192.069E+03
             249     115.265E-03     1.36575E-06     115.265E-03     368.168E-03    -183.559E-03    -184.428E-03    -184.425E-03     368.165E-03    -183.559E-03    -2.24230E-03     368.730E-03     203.156E+06    -136.078E+06    -139.158E+06    -340.752E+06    -136.889E+06    -340.688E+06    -138.410E+06     2.09560E+06
             250     113.819E-03    -919.085E-09     113.819E-03     369.276E-03    -184.152E-03    -184.953E-03    -184.489E-03     369.274E-03    -184.614E-03    -1.84112E-03     369.842E-03     197.393E+06    -131.801E+06    -133.784E+06    -330.178E+06    -133.850E+06    -330.112E+06    -131.801E+06     1.89941E+06
             251     112.374E-03    -59.6707E-09     112.374E-03     370.466E-03    -184.302E-03    -186.143E-03    -185.677E-03     370.462E-03    -184.764E-03    -2.93075E-03     370.983E-03     194.953E+06    -132.379E+06    -134.396E+06    -328.332E+06    -133.619E+06    -328.327E+06    -133.160E+06    -991.153E+03
             252     110.926E-03     2.25431E-06     110.926E-03     369.841E-03    -183.815E-03    -186.063E-03    -186.060E-03     369.838E-03    -183.815E-03    -2.38487E-03     370.323E-03     194.595E+06    -133.197E+06    -135.107E+06    -328.740E+06    -133.219E+06    -328.717E+06    -135.107E+06     1.01463E+06
             253     109.478E-03    -885.419E-09     109.478E-03     368.487E-03    -183.692E-03    -184.790E-03    -184.788E-03     368.485E-03    -183.692E-03    -1.75709E-03     368.968E-03     188.690E+06    -129.444E+06    -134.598E+06    -320.639E+06    -133.493E+06    -320.616E+06    -130.573E+06     1.96112E+06
             254     108.034E-03     1.28625E-06     108.034E-03     368.856E-03    -183.632E-03    -185.221E-03    -185.219E-03     368.855E-03    -183.632E-03    -1.47869E-03     369.344E-03     183.444E+06    -129.067E+06    -138.932E+06    -317.238E+06    -133.109E+06    -317.221E+06    -134.906E+06    -585.224E+03
             255     106.588E-03     942.808E-09     106.588E-03     370.369E-03    -184.148E-03    -186.188E-03    -186.187E-03     370.369E-03    -184.148E-03    -1.24444E-03     370.862E-03     185.096E+06    -126.794E+06    -136.186E+06    -316.396E+06    -130.434E+06    -316.309E+06    -132.633E+06     1.46220E+06
             256     105.138E-03     278.153E-09     105.138E-03     370.116E-03    -184.234E-03    -185.815E-03    -185.811E-03     370.112E-03    -184.234E-03    -2.60930E-03     370.597E-03     185.508E+06    -125.033E+06    -130.447E+06    -313.183E+06    -128.756E+06    -313.013E+06    -126.894E+06    -421.358E+03
             257     103.694E-03     1.19596E-06     103.694E-03     369.126E-03    -183.854E-03    -185.201E-03    -185.198E-03     369.123E-03    -183.854E-03    -2.00916E-03     369.592E-03     185.264E+06    -129.980E+06    -132.486E+06    -316.481E+06    -130.094E+06    -316.367E+06    -132.486E+06    -1.74204E+06
             258     102.247E-03    -539.064E-09     102.247E-03     369.378E-03    -183.987E-03    -185.310E-03    -185.307E-03     369.375E-03    -183.987E-03    -1.97792E-03     369.844E-03     183.679E+06    -131.722E+06    -133.401E+06    -316.234E+06    -132.797E+06    -316.193E+06    -132.366E+06     2.73295E+06
             259     100.801E-03     1.95593E-06     100.801E-03     369.058E-03    -183.844E-03    -185.193E-03    -184.718E-03     369.055E-03    -184.315E-03    -2.36378E-03     369.518E-03     179.678E+06    -130.712E+06    -131.755E+06    -310.907E+06    -131.819E+06    -310.835E+06    -130.721E+06    -606.698E+03
             260     99.3598E-03    -2.70371E-06     99.3598E-03     369.078E-03    -184.317E-03    -184.791E-03    -184.317E-03     369.075E-03    -184.789E-03    -2.12881E-03     369.571E-03     177.503E+06    -134.852E+06    -134.963E+06    -312.410E+06    -135.051E+06    -312.313E+06    -134.860E+06    -10.8614E+03
             261     97.9109E-03     2.84664E-06     97.9109E-03     370.916E-03    -184.525E-03    -186.347E-03    -186.345E-03     370.914E-03    -184.525E-03    -1.69092E-03     371.393E-03     174.001E+06    -133.724E+06    -134.599E+06    -308.160E+06    -134.649E+06    -308.110E+06    -133.724E+06     1.64466E+06
             262     96.4648E-03     146.413E-09     96.4648E-03     371.489E-03    -184.222E-03    -187.161E-03    -187.158E-03     371.485E-03    -184.222E-03    -1.97691E-03     371.955E-03     170.837E+06    -130.157E+06    -133.469E+06    -302.619E+06    -130.932E+06    -302.617E+06    -132.696E+06    -468.479E+03
             263     95.0161E-03     1.57714E-06     95.0161E-03     370.575E-03    -184.505E-03    -186.086E-03    -186.082E-03     370.572E-03    -184.505E-03    -1.89354E-03     371.057E-03     173.332E+06    -130.969E+06    -135.460E+06    -306.501E+06    -132.924E+06    -306.499E+06    -133.508E+06    -543.266E+03
             264     93.5680E-03    -669.937E-09     93.5680E-03     369.081E-03    -184.042E-03    -185.150E-03    -185.145E-03     369.076E-03    -184.042E-03    -2.31872E-03     369.533E-03     176.528E+06    -132.056E+06    -136.415E+06    -310.723E+06    -134.012E+06    -310.720E+06    -134.463E+06    -331.627E+03
             265     92.1252E-03     1.78518E-06     92.1252E-03     368.487E-03    -183.482E-03    -184.994E-03    -184.988E-03     368.481E-03    -183.482E-03    -1.44982E-03     368.928E-03     175.558E+06    -132.380E+06    -136.803E+06    -310.107E+06    -134.399E+06    -310.105E+06    -134.786E+06     593.334E+03
             266     90.6811E-03    -417.906E-09     90.6811E-03     370.106E-03    -184.533E-03    -185.481E-03    -185.476E-03     370.100E-03    -184.533E-03    -1.41394E-03     370.564E-03     175.032E+06    -130.143E+06    -133.689E+06    -306.920E+06    -132.163E+06    -306.918E+06    -131.672E+06     345.466E+03
             267     89.2327E-03     496.168E-09     89.2327E-03     370.097E-03    -184.822E-03    -185.229E-03    -185.224E-03     370.092E-03    -184.822E-03    -2.99951E-03     370.561E-03     175.792E+06    -132.004E+06    -134.439E+06    -309.000E+06    -132.923E+06    -308.988E+06    -133.532E+06    -1.07195E+06
             268     87.7875E-03     111.704E-09     87.7875E-03     369.423E-03    -184.083E-03    -185.340E-03    -185.338E-03     369.421E-03    -184.083E-03    -2.17608E-03     369.876E-03     173.538E+06    -133.695E+06    -136.226E+06    -308.483E+06    -134.664E+06    -308.422E+06    -135.318E+06     1.10355E+06
             269     86.3426E-03     1.47997E-06     86.3426E-03     370.010E-03    -184.134E-03    -185.887E-03    -185.885E-03     370.007E-03    -184.134E-03    -2.19358E-03     370.461E-03     170.716E+06    -130.738E+06    -135.103E+06    -303.592E+06    -133.565E+06    -303.506E+06    -132.361E+06     375.442E+03
             270     84.8939E-03    -20.7805E-09     84.8939E-03     369.755E-03    -184.305E-03    -185.420E-03    -185.418E-03     369.754E-03    -184.305E-03    -1.73853E-03     370.215E-03     172.798E+06    -131.275E+06    -137.605E+06    -307.150E+06    -134.053E+06    -307.114E+06    -134.864E+06    -1.48624E+06
             271     83.4489E-03     489.046E-09     83.4489E-03     369.268E-03    -184.182E-03    -185.069E-03    -185.068E-03     369.267E-03    -184.182E-03    -1.38288E-03     369.731E-03     176.429E+06    -132.468E+06    -139.083E+06    -312.111E+06    -135.502E+06    -312.104E+06    -136.057E+06     992.242E+03
             272     82.0031E-03     518.887E-09     82.0031E-03     369.537E-03    -184.149E-03    -185.401E-03    -185.399E-03     369.536E-03    -184.149E-03    -1.42033E-03     370.001E-03     177.138E+06    -131.258E+06    -136.179E+06    -310.802E+06    -134.300E+06    -310.787E+06    -133.153E+06    -121.665E+03
             273     80.5588E-03     552.381E-09     80.5588E-03     369.523E-03    -183.893E-03    -185.622E-03    -185.618E-03     369.519E-03    -183.893E-03    -2.86102E-03     369.993E-03     177.871E+06    -131.785E+06    -134.224E+06    -310.859E+06    -132.345E+06    -310.844E+06    -133.679E+06    -128.727E+03
             274     80.4606E-03     14.1479E-03     79.2070E-03     394.498E-03    -184.345E-03    -210.014E-03    -190.722E-03     375.206E-03    -184.345E-03     201.594E-03     518.343E-03     83.9173E+06     89.6644E+06     55.0201E+06    -5.90282E+06    -5.88845E+06     55.0058E+06     89.6644E+06    -506.222E+03
             275     79.9284E-03     13.3146E-03     78.8116E-03     394.630E-03    -183.932E-03    -210.549E-03    -189.465E-03     373.546E-03    -183.932E-03     215.719E-03     537.453E-03     75.7402E+06     74.4421E+06     48.2103E+06    -10.9241E+06    -10.9129E+06     48.1991E+06     74.4421E+06    -362.525E+03
             276     79.5898E-03     12.4834E-03     78.6047E-03     381.378E-03    -184.010E-03    -197.605E-03    -184.745E-03     368.518E-03    -184.010E-03     170.118E-03     506.768E-03     73.4881E+06     66.4432E+06     41.3059E+06    -16.3131E+06    -16.2950E+06     41.2877E+06     66.4432E+06     520.802E+03
             277     79.2110E-03     11.6506E-03     78.3495E-03     378.935E-03    -184.497E-03    -195.081E-03    -182.992E-03     366.846E-03    -184.497E-03     163.794E-03     505.897E-03     78.5955E+06     66.8628E+06     37.3448E+06    -22.1873E+06    -22.1736E+06     37.3312E+06     66.8628E+06     851.384E+03
             278     78.9131E-03     10.8168E-03     78.1682E-03     372.723E-03    -184.594E-03    -188.957E-03    -180.318E-03     364.084E-03    -184.594E-03     138.162E-03     493.477E-03     84.9190E+06     68.0565E+06     33.3685E+06    -28.7138E+06    -28.6967E+06     33.3513E+06     68.0565E+06     763.022E+03
             279     78.6384E-03     9.98274E-03     78.0022E-03     371.050E-03    -184.311E-03    -186.815E-03    -179.974E-03     364.210E-03    -184.311E-03     122.315E-03     486.988E-03     87.7505E+06     63.2826E+06     27.8065E+06    -36.6479E+06    -36.6228E+06     27.7813E+06     63.2826E+06     1.06048E+06
             280     78.4014E-03     9.15070E-03     77.8656E-03     368.969E-03    -183.760E-03    -185.071E-03    -180.103E-03     364.474E-03    -184.232E-03     98.5592E-03     473.525E-03     85.1357E+06     51.4496E+06     19.4443E+06    -45.0337E+06    -44.9967E+06     19.4073E+06     51.4496E+06     1.48606E+06
             281     78.2090E-03     8.32003E-03     77.7652E-03     366.535E-03    -182.666E-03    -184.476E-03    -180.025E-03     363.893E-03    -184.476E-03     75.3040E-03     457.255E-03     80.5577E+06     36.5421E+06     9.43232E+06    -54.0586E+06    -53.9894E+06     9.36313E+06     36.5421E+06     1.59483E+06
             282     78.0537E-03     7.48399E-03     77.6940E-03     365.712E-03    -181.932E-03    -184.850E-03    -180.523E-03     364.302E-03    -184.850E-03     54.4564E-03     441.918E-03     77.9359E+06     22.6755E+06    -1.90768E+06    -64.5877E+06    -64.5436E+06    -1.95179E+06     22.6755E+06     855.050E+03
             283     77.9378E-03     6.65324E-03     77.6533E-03     366.258E-03    -181.888E-03    -184.956E-03    -181.222E-03     365.592E-03    -184.956E-03     37.6036E-03     427.245E-03     73.3744E+06     7.43318E+06    -19.3210E+06    -75.4713E+06    -75.4662E+06    -19.3262E+06     7.43318E+06     422.993E+03
             284     77.8453E-03     5.82185E-03     77.6273E-03     367.251E-03    -182.254E-03    -184.806E-03    -181.953E-03     366.950E-03    -184.806E-03     24.9053E-03     413.999E-03     68.4880E+06    -13.0570E+06    -60.1831E+06    -87.6321E+06    -85.2276E+06    -62.5876E+06    -13.0570E+06     768.952E+03
             285     77.7787E-03     4.99028E-03     77.6184E-03     368.031E-03    -182.723E-03    -184.856E-03    -182.621E-03     367.929E-03    -184.856E-03     14.3457E-03     402.003E-03     78.7866E+06    -35.7303E+06    -94.4194E+06    -122.649E+06    -94.5398E+06    -122.528E+06    -35.7303E+06     722.088E+03
             286     77.7291E-03     4.15809E-03     77.6178E-03     368.307E-03    -183.410E-03    -185.019E-03    -183.384E-03     368.280E-03    -185.019E-03     6.81132E-03     392.370E-03     103.274E+06    -57.2297E+06    -103.646E+06    -174.886E+06    -103.660E+06    -174.872E+06    -57.2297E+06     75.4108E+03
             287     77.6996E-03     3.32539E-03     77.6284E-03     368.877E-03    -184.241E-03    -185.100E-03    -184.238E-03     368.874E-03    -185.100E-03     1.41318E-03     384.778E-03     125.832E+06    -78.6103E+06    -113.185E+06    -217.877E+06    -113.193E+06    -217.869E+06    -78.6103E+06     11.1410E+03
             288     77.6788E-03     2.49468E-03     77.6387E-03     369.231E-03    -184.248E-03    -185.154E-03    -184.245E-03     369.228E-03    -185.154E-03    -1.97541E-03     378.103E-03     142.087E+06    -99.6315E+06    -121.347E+06    -251.146E+06    -121.355E+06    -251.138E+06    -99.6315E+06     744.077E+03
             289     77.6688E-03     1.66248E-03     77.6510E-03     369.679E-03    -184.398E-03    -185.320E-03    -184.394E-03     369.675E-03    -185.320E-03    -2.88925E-03     373.830E-03     155.127E+06    -117.236E+06    -127.472E+06    -277.157E+06    -127.479E+06    -277.149E+06    -117.236E+06     215.163E+03
             290     77.6665E-03     830.267E-06     77.6620E-03     370.779E-03    -184.990E-03    -185.785E-03    -185.448E-03     370.777E-03    -185.325E-03    -1.88339E-03     372.233E-03     167.984E+06    -128.766E+06    -132.171E+06    -298.413E+06    -131.920E+06    -298.407E+06    -129.023E+06    -618.225E+03
             291     79.0354E-03     14.1491E-03     77.7586E-03     394.504E-03    -184.311E-03    -210.080E-03    -190.686E-03     375.111E-03    -184.311E-03     202.192E-03     518.626E-03     83.9706E+06     89.9168E+06     55.5705E+06    -5.63078E+06    -5.61802E+06     55.5578E+06     89.9168E+06    -606.510E+03
             292     78.5085E-03     13.3158E-03     77.3710E-03     395.421E-03    -183.898E-03    -211.312E-03    -189.969E-03     374.077E-03    -183.898E-03     217.593E-03     537.664E-03     75.6584E+06     73.7238E+06     47.6187E+06    -11.5294E+06    -11.5219E+06     47.6112E+06     73.7238E+06     354.406E+03
             293     78.1553E-03     12.4828E-03     77.1520E-03     381.403E-03    -184.002E-03    -197.559E-03    -184.394E-03     368.239E-03    -184.002E-03     172.104E-03     506.516E-03     73.3374E+06     66.2170E+06     40.2265E+06    -16.5731E+06    -16.5601E+06     40.2135E+06     66.2170E+06     653.417E+03
             294     77.7894E-03     11.6507E-03     76.9119E-03     378.420E-03    -184.539E-03    -194.484E-03    -182.283E-03     366.219E-03    -184.539E-03     164.263E-03     505.470E-03     78.5365E+06     66.7783E+06     36.7483E+06    -22.3274E+06    -22.3181E+06     36.7390E+06     66.7783E+06     478.382E+03
             295     77.4818E-03     10.8150E-03     76.7233E-03     372.834E-03    -184.632E-03    -189.000E-03    -180.521E-03     364.354E-03    -184.632E-03     136.868E-03     493.457E-03     84.7312E+06     67.2701E+06     32.9194E+06    -29.2398E+06    -29.2301E+06     32.9097E+06     67.2701E+06     566.788E+03
             296     77.2061E-03     9.98188E-03     76.5581E-03     371.202E-03    -184.303E-03    -186.946E-03    -180.311E-03     364.568E-03    -184.303E-03     120.541E-03     486.874E-03     87.5130E+06     62.2823E+06     27.0570E+06    -37.3505E+06    -37.3357E+06     27.0422E+06     62.2823E+06     767.834E+03
             297     76.9620E-03     9.14986E-03     76.4161E-03     368.740E-03    -183.587E-03    -185.028E-03    -179.997E-03     364.360E-03    -184.238E-03     97.2124E-03     473.357E-03     85.5325E+06     51.5720E+06     19.0319E+06    -45.4450E+06    -45.4156E+06     19.0025E+06     51.5720E+06     1.22035E+06
             298     76.7731E-03     8.31771E-03     76.3212E-03     366.590E-03    -182.685E-03    -184.503E-03    -180.079E-03     363.984E-03    -184.503E-03     74.9230E-03     457.690E-03     81.4596E+06     37.8920E+06     9.73451E+06    -53.8963E+06    -53.8274E+06     9.66561E+06     37.8920E+06     1.86847E+06
             299     76.6165E-03     7.48739E-03     76.2497E-03     365.839E-03    -181.972E-03    -184.864E-03    -180.528E-03     364.395E-03    -184.864E-03     55.1466E-03     442.097E-03     78.0809E+06     24.3011E+06    -577.610E+03    -63.1837E+06    -63.1160E+06    -645.284E+03     24.3011E+06     1.69238E+06
             300     76.4959E-03     6.65379E-03     76.2060E-03     366.159E-03    -181.723E-03    -184.975E-03    -181.042E-03     365.478E-03    -184.975E-03     37.9452E-03     427.054E-03     72.0962E+06     8.52399E+06    -18.4560E+06    -73.0181E+06    -72.9897E+06    -18.4844E+06     8.52399E+06     943.529E+03
             301     76.4043E-03     5.82167E-03     76.1822E-03     367.024E-03    -181.988E-03    -184.860E-03    -181.670E-03     366.706E-03    -184.860E-03     25.8639E-03     413.825E-03     67.3135E+06    -12.8672E+06    -59.9630E+06    -86.4776E+06    -83.4741E+06    -62.9665E+06    -12.8672E+06     590.148E+03
             302     76.3349E-03     4.98945E-03     76.1717E-03     367.925E-03    -182.581E-03    -184.950E-03    -182.461E-03     367.805E-03    -184.950E-03     15.4428E-03     402.052E-03     78.6784E+06    -34.9507E+06    -93.0930E+06    -121.999E+06    -93.1279E+06    -121.964E+06    -34.9507E+06     377.074E+03
             303     76.2881E-03     4.15649E-03     76.1748E-03     368.606E-03    -183.589E-03    -185.119E-03    -183.560E-03     368.577E-03    -185.119E-03     7.43337E-03     392.540E-03     103.268E+06     -56.732E+06    -103.009E+06    -174.374E+06    -103.015E+06    -174.368E+06     -56.732E+06     486.277E+03
             304     76.2511E-03     3.32566E-03     76.1786E-03     369.020E-03    -184.236E-03    -185.213E-03    -184.231E-03     369.015E-03    -185.213E-03     1.57100E-03     384.776E-03     127.690E+06    -77.6213E+06    -112.176E+06    -218.778E+06    -112.180E+06    -218.774E+06    -77.6213E+06     379.016E+03
             305     76.2345E-03     2.49440E-03     76.1937E-03     369.477E-03    -184.339E-03    -185.300E-03    -184.336E-03     369.475E-03    -185.300E-03    -2.16984E-03     378.353E-03     144.525E+06    -96.6383E+06    -119.571E+06    -251.140E+06    -119.576E+06    -251.135E+06    -96.6383E+06     351.687E+03
             306     76.2243E-03     1.66160E-03     76.2062E-03     370.079E-03    -184.671E-03    -185.450E-03    -184.739E-03     370.075E-03    -185.378E-03    -3.00474E-03     374.201E-03     155.161E+06    -115.086E+06    -126.397E+06    -275.496E+06    -126.409E+06    -275.485E+06    -115.086E+06     709.022E+03
             307     76.2158E-03     830.688E-06     76.2113E-03     370.754E-03    -184.976E-03    -185.783E-03    -185.561E-03     370.750E-03    -185.193E-03    -2.82499E-03     372.182E-03     169.020E+06    -128.213E+06    -131.893E+06    -299.032E+06    -131.287E+06    -299.022E+06    -128.829E+06    -134.903E+03
             308     77.6154E-03     14.1454E-03     76.3155E-03     394.438E-03    -184.341E-03    -210.003E-03    -190.426E-03     374.861E-03    -184.341E-03     203.331E-03     518.435E-03     83.7190E+06     89.8007E+06     54.9106E+06    -5.59670E+06    -5.59181E+06     54.9057E+06     89.8007E+06    -40.3094E+03
             309     77.0769E-03     13.3149E-03     75.9182E-03     395.688E-03    -183.935E-03    -211.532E-03    -190.161E-03     374.318E-03    -183.935E-03     217.588E-03     537.979E-03     75.6022E+06     73.9808E+06     47.4578E+06    -11.2988E+06    -11.2939E+06     47.4529E+06     73.9808E+06     490.318E+03
             310     76.7370E-03     12.4824E-03     75.7150E-03     381.003E-03    -184.059E-03    -197.132E-03    -184.041E-03     367.913E-03    -184.059E-03     171.439E-03     506.519E-03     73.2637E+06     65.9498E+06     40.2477E+06    -16.6961E+06    -16.6918E+06     40.2434E+06     65.9498E+06     315.733E+03
             311     76.3548E-03     11.6469E-03     75.4613E-03     379.276E-03    -184.582E-03    -195.258E-03    -183.118E-03     367.136E-03    -184.582E-03     163.955E-03     506.517E-03     78.6775E+06     66.4142E+06     36.5426E+06    -22.8101E+06    -22.8084E+06     36.5409E+06     66.4142E+06     165.421E+03
             312     76.0554E-03     10.8178E-03     75.2821E-03     374.390E-03    -184.584E-03    -190.449E-03    -182.088E-03     366.029E-03    -184.584E-03     136.318E-03     495.038E-03     85.0751E+06     67.4258E+06     32.9463E+06    -29.4714E+06    -29.4633E+06     32.9382E+06     67.4258E+06     415.945E+03
             313     75.7711E-03     9.98585E-03     75.1102E-03     371.037E-03    -184.123E-03    -186.913E-03    -180.325E-03     364.526E-03    -184.198E-03     119.374E-03     486.716E-03     87.2087E+06     63.2439E+06     27.6461E+06    -36.1281E+06    -36.1143E+06     27.6323E+06     63.2439E+06     703.933E+03
             314     75.5316E-03     9.15167E-03     74.9752E-03     367.381E-03    -182.809E-03    -184.388E-03    -178.710E-03     363.072E-03    -184.177E-03     96.3312E-03     471.670E-03     84.7309E+06     51.6055E+06     18.4872E+06    -44.6710E+06    -44.6546E+06     18.4708E+06     51.6055E+06     957.605E+03
             315     75.3343E-03     8.31827E-03     74.8736E-03     365.988E-03    -181.959E-03    -184.525E-03    -179.331E-03     363.360E-03    -184.525E-03     75.0803E-03     456.892E-03     80.7101E+06     37.2180E+06     8.55116E+06    -53.8917E+06    -53.8756E+06     8.53506E+06     37.2180E+06     975.197E+03
             316     75.1789E-03     7.48447E-03     74.8054E-03     365.801E-03    -181.837E-03    -184.942E-03    -180.347E-03     364.312E-03    -184.942E-03     56.2735E-03     441.930E-03     77.8402E+06     24.7761E+06    -384.048E+03    -62.5284E+06    -62.5002E+06    -412.228E+03     24.7761E+06     1.13756E+06
             317     75.0563E-03     6.65287E-03     74.7608E-03     366.166E-03    -181.551E-03    -185.091E-03    -180.812E-03     365.428E-03    -185.091E-03     39.4710E-03     426.808E-03     72.2998E+06     9.21004E+06    -17.9197E+06    -72.5846E+06    -72.5301E+06    -17.9743E+06     9.21004E+06     1.56629E+06
             318     74.9639E-03     5.82033E-03     74.7376E-03     367.281E-03    -182.036E-03    -185.016E-03    -181.714E-03     366.959E-03    -185.016E-03     25.8226E-03     414.040E-03     67.4146E+06    -12.1196E+06    -59.0814E+06    -85.9222E+06    -82.8554E+06    -62.1482E+06    -12.1196E+06     1.36932E+06
             319     74.8934E-03     4.98738E-03     74.7271E-03     368.447E-03    -182.951E-03    -185.073E-03    -182.840E-03     368.336E-03    -185.073E-03     14.8133E-03     402.512E-03     78.3041E+06    -34.7154E+06    -93.3097E+06    -121.396E+06    -93.4725E+06    -121.233E+06    -34.7154E+06     789.317E+03
             320     74.8415E-03     4.15741E-03     74.7260E-03     368.913E-03    -183.779E-03    -185.178E-03    -183.753E-03     368.887E-03    -185.178E-03     6.87534E-03     392.808E-03     103.895E+06    -56.2202E+06    -103.484E+06    -174.552E+06    -103.492E+06    -174.543E+06    -56.2202E+06     741.281E+03
             321     74.8082E-03     3.32517E-03     74.7343E-03     368.907E-03    -184.040E-03    -185.290E-03    -184.036E-03     368.903E-03    -185.290E-03     1.11645E-03     384.627E-03     127.478E+06    -77.6118E+06    -112.349E+06    -218.603E+06    -112.355E+06    -218.597E+06    -77.6118E+06     628.844E+03
             322     74.7877E-03     2.49243E-03     74.7462E-03     369.816E-03    -184.637E-03    -185.372E-03    -184.634E-03     369.813E-03    -185.372E-03    -2.37400E-03     378.646E-03     143.180E+06    -97.8503E+06    -120.283E+06    -250.792E+06    -120.284E+06    -250.792E+06    -97.8503E+06     199.677E+03
             323     74.7759E-03     1.66355E-03     74.7574E-03     370.462E-03    -185.182E-03    -185.330E-03    -185.293E-03     370.458E-03    -185.216E-03    -2.86696E-03     374.556E-03     154.492E+06    -115.491E+06    -126.710E+06    -275.207E+06    -126.718E+06    -275.199E+06    -115.491E+06     347.284E+03
             324     74.7706E-03     832.256E-06     74.7660E-03     370.115E-03    -184.693E-03    -185.403E-03    -185.400E-03     370.112E-03    -184.693E-03    -2.10643E-03     371.530E-03     168.799E+06    -127.194E+06    -132.277E+06    -298.470E+06    -131.677E+06    -298.455E+06    -127.809E+06     728.851E+03
             325     76.1924E-03     14.1473E-03     74.8675E-03     394.408E-03    -184.373E-03    -209.836E-03    -190.248E-03     374.820E-03    -184.373E-03     203.230E-03     518.001E-03     83.9856E+06     90.1687E+06     54.3370E+06    -5.68717E+06    -5.68510E+06     54.3349E+06     90.1687E+06     159.294E+03
             326     75.6556E-03     13.3138E-03     74.4749E-03     395.145E-03    -183.992E-03    -210.938E-03    -189.610E-03     373.817E-03    -183.992E-03     217.007E-03     537.681E-03     75.6708E+06     74.6013E+06     47.1776E+06    -10.9466E+06    -10.9447E+06     47.1758E+06     74.6013E+06     228.571E+03
             327     75.3086E-03     12.4810E-03     74.2672E-03     381.553E-03    -184.090E-03    -197.713E-03    -184.797E-03     368.636E-03    -184.090E-03     170.530E-03     507.385E-03     72.9127E+06     66.3448E+06     40.9451E+06    -15.8636E+06    -15.8573E+06     40.9388E+06     66.3448E+06     443.506E+03
             328     74.9302E-03     11.6508E-03     74.0188E-03     379.754E-03    -184.562E-03    -195.892E-03    -183.787E-03     367.650E-03    -184.562E-03     164.072E-03     506.876E-03     77.5137E+06     66.3968E+06     36.9014E+06    -21.4940E+06    -21.4855E+06     36.8928E+06     66.3968E+06     626.653E+03
             329     74.6155E-03     10.8165E-03     73.8274E-03     374.093E-03    -184.566E-03    -190.318E-03    -181.763E-03     365.539E-03    -184.566E-03     137.811E-03     494.896E-03     83.8822E+06     67.7427E+06     32.7665E+06    -27.9625E+06    -27.9577E+06     32.7617E+06     67.7427E+06     374.053E+03
             330     74.3411E-03     9.98623E-03     73.6673E-03     371.137E-03    -184.123E-03    -187.127E-03    -180.311E-03     364.396E-03    -184.199E-03     121.493E-03     487.220E-03     86.9701E+06     63.6977E+06     27.1834E+06    -35.5755E+06    -35.5669E+06     27.1748E+06     63.6977E+06     551.182E+03
             331     74.0983E-03     9.15192E-03     73.5309E-03     367.615E-03    -182.781E-03    -184.725E-03    -178.856E-03     363.132E-03    -184.166E-03     98.2656E-03     471.922E-03     84.4650E+06     51.9898E+06     18.0865E+06    -44.1465E+06    -44.1303E+06     18.0703E+06     51.9898E+06     957.065E+03
             332     73.9001E-03     8.31755E-03     73.4306E-03     365.652E-03    -181.644E-03    -184.533E-03    -178.947E-03     362.955E-03    -184.533E-03     76.0011E-03     456.367E-03     80.1676E+06     37.6105E+06     8.93978E+06    -52.9242E+06    -52.8998E+06     8.91535E+06     37.6105E+06     1.14908E+06
             333     73.7402E-03     7.48481E-03     73.3594E-03     365.573E-03    -181.697E-03    -184.989E-03    -180.236E-03     364.112E-03    -184.989E-03     55.4536E-03     441.626E-03     77.8088E+06     23.9105E+06    -1.29718E+06    -63.3756E+06    -63.3429E+06    -1.32990E+06     23.9105E+06     1.26808E+06
             334     73.6170E-03     6.65122E-03     73.3159E-03     366.396E-03    -181.817E-03    -185.135E-03    -181.140E-03     365.720E-03    -185.135E-03     37.8024E-03     427.009E-03     73.3633E+06     9.19777E+06    -18.0476E+06    -73.7858E+06    -73.7409E+06    -18.0926E+06     9.19777E+06     1.37364E+06
             335     73.5195E-03     5.81972E-03     73.2888E-03     367.805E-03    -182.551E-03    -185.006E-03    -182.262E-03     367.516E-03    -185.006E-03     24.3551E-03     414.393E-03     68.0932E+06    -11.7503E+06    -58.9338E+06    -85.8680E+06    -83.8219E+06    -60.9800E+06    -11.7503E+06     1.38036E+06
             336     73.4502E-03     4.98968E-03     73.2805E-03     368.716E-03    -183.249E-03    -184.993E-03    -183.157E-03     368.624E-03    -184.993E-03     13.4937E-03     402.638E-03     77.7849E+06    -34.7176E+06    -93.2228E+06    -120.404E+06    -93.4468E+06    -120.180E+06    -34.7176E+06     867.595E+03
             337     73.3970E-03     4.15655E-03     73.2792E-03     368.582E-03    -183.520E-03    -185.088E-03    -183.500E-03     368.562E-03    -185.088E-03     5.69790E-03     392.543E-03     104.692E+06    -55.0162E+06    -102.139E+06    -174.211E+06    -102.146E+06    -174.204E+06    -55.0162E+06     260.142E+03
             338     73.3639E-03     3.32515E-03     73.2885E-03     368.802E-03    -184.017E-03    -185.201E-03    -184.015E-03     368.800E-03    -185.201E-03     312.392E-06     384.618E-03     128.339E+06    -76.2390E+06    -110.928E+06    -218.092E+06    -110.938E+06    -218.082E+06    -76.2390E+06     485.567E+03
             339     73.3408E-03     2.49477E-03     73.2983E-03     369.569E-03    -184.466E-03    -185.285E-03    -184.464E-03     369.566E-03    -185.285E-03    -2.29531E-03     378.408E-03     142.843E+06    -97.9709E+06    -119.805E+06    -250.345E+06    -119.810E+06    -250.340E+06    -97.9709E+06     455.470E+03
             340     73.3290E-03     1.66178E-03     73.3102E-03     370.163E-03    -184.901E-03    -185.320E-03    -184.939E-03     370.158E-03    -185.277E-03    -2.78631E-03     374.277E-03     154.736E+06    -115.685E+06    -126.231E+06    -275.343E+06    -126.233E+06    -275.341E+06    -115.685E+06    -4.94322E+03
             341     73.3239E-03     830.787E-06     73.3192E-03     370.465E-03    -185.023E-03    -185.432E-03    -185.361E-03     370.462E-03    -185.091E-03    -2.01302E-03     371.882E-03     168.630E+06    -125.323E+06    -130.841E+06    -296.644E+06    -129.407E+06    -296.630E+06    -126.770E+06     62.4078E+03
             342     74.7740E-03     14.1468E-03     73.4235E-03     394.452E-03    -184.368E-03    -209.919E-03    -190.400E-03     374.933E-03    -184.368E-03     203.057E-03     518.242E-03     83.4757E+06     89.6217E+06     54.4184E+06    -5.56944E+06    -5.56798E+06     54.4169E+06     89.6217E+06    -61.4849E+03
             343     74.2336E-03     13.3133E-03     73.0300E-03     394.751E-03    -183.988E-03    -210.585E-03    -189.358E-03     373.524E-03    -183.988E-03     216.442E-03     537.321E-03     74.8826E+06     73.8864E+06     46.6201E+06    -10.8075E+06    -10.8071E+06     46.6197E+06     73.8864E+06     61.3459E+03
             344     73.8801E-03     12.4814E-03     72.8181E-03     381.394E-03    -184.087E-03    -197.593E-03    -184.635E-03     368.436E-03    -184.087E-03     170.736E-03     507.159E-03     72.5309E+06     66.0147E+06     40.2018E+06    -15.8884E+06    -15.8786E+06     40.1920E+06     66.0147E+06     61.2586E+03
             345     73.4982E-03     11.6495E-03     72.5691E-03     379.644E-03    -184.589E-03    -195.746E-03    -183.476E-03     367.373E-03    -184.589E-03     165.239E-03     506.691E-03     77.1785E+06     66.3784E+06     37.0140E+06    -21.1330E+06    -21.1204E+06     37.0014E+06     66.3784E+06     300.554E+03
             346     73.1892E-03     10.8173E-03     72.3854E-03     373.170E-03    -184.651E-03    -189.328E-03    -180.636E-03     364.478E-03    -184.651E-03     138.644E-03     493.882E-03     83.4139E+06     67.3622E+06     32.5229E+06    -27.8170E+06    -27.8118E+06     32.5177E+06     67.3622E+06     468.557E+03
             347     72.9045E-03     9.98095E-03     72.2180E-03     370.625E-03    -184.342E-03    -186.490E-03    -179.672E-03     363.807E-03    -184.342E-03     122.095E-03     487.056E-03     86.6043E+06     62.6189E+06     26.2675E+06    -36.2336E+06    -36.2250E+06     26.2590E+06     62.6189E+06     596.708E+03
             348     72.6637E-03     9.15009E-03     72.0853E-03     368.772E-03    -183.732E-03    -185.133E-03    -179.985E-03     364.205E-03    -184.313E-03     99.3452E-03     473.864E-03     84.3806E+06     51.4979E+06     17.7787E+06    -44.5156E+06    -44.5035E+06     17.7666E+06     51.4979E+06     829.204E+03
             349     72.4669E-03     8.31789E-03     71.9880E-03     367.321E-03    -183.176E-03    -184.754E-03    -180.610E-03     364.590E-03    -184.589E-03     76.7023E-03     458.253E-03     80.7084E+06     37.9147E+06     8.86467E+06    -53.2774E+06    -53.2326E+06     8.81982E+06     37.9147E+06     1.50342E+06
             350     72.3012E-03     7.48440E-03     71.9128E-03     366.574E-03    -182.722E-03    -184.906E-03    -181.286E-03     365.137E-03    -184.906E-03     54.8387E-03     442.256E-03     78.0393E+06     24.8056E+06    -913.446E+03    -62.8444E+06    -62.7799E+06    -977.953E+03     24.8056E+06     1.96035E+06
             351     72.1758E-03     6.65416E-03     71.8684E-03     366.503E-03    -182.166E-03    -184.950E-03    -181.545E-03     365.882E-03    -184.950E-03     36.2473E-03     427.056E-03     72.7457E+06     10.1575E+06    -16.9947E+06    -72.1651E+06    -72.1324E+06    -17.0275E+06     10.1575E+06     1.28518E+06
             352     72.0773E-03     5.82187E-03     71.8418E-03     367.188E-03    -182.246E-03    -184.791E-03    -181.978E-03     366.920E-03    -184.791E-03     23.5034E-03     413.881E-03     67.8892E+06    -10.5774E+06    -57.6812E+06    -84.4784E+06    -82.1755E+06    -59.9841E+06    -10.5774E+06     663.653E+03
             353     72.0037E-03     4.98926E-03     71.8307E-03     368.095E-03    -182.885E-03    -184.812E-03    -182.798E-03     368.009E-03    -184.812E-03     13.0591E-03     402.197E-03     77.6740E+06    -33.6763E+06    -91.8653E+06    -119.265E+06    -91.9344E+06    -119.196E+06    -33.6763E+06     506.626E+03
             354     71.9557E-03     4.15904E-03     71.8354E-03     368.323E-03    -183.442E-03    -184.927E-03    -183.424E-03     368.304E-03    -184.927E-03     5.54163E-03     392.374E-03     104.855E+06     -54.981E+06    -101.739E+06    -174.344E+06    -101.746E+06    -174.338E+06     -54.981E+06     217.428E+03
             355     71.9173E-03     3.32638E-03     71.8403E-03     368.418E-03    -183.756E-03    -185.039E-03    -183.755E-03     368.416E-03    -185.039E-03     804.736E-06     384.204E-03     128.895E+06    -75.7062E+06    -111.041E+06    -218.346E+06    -111.050E+06    -218.338E+06    -75.7062E+06     469.835E+03
             356     71.8968E-03     2.49364E-03     71.8536E-03     369.301E-03    -184.241E-03    -185.188E-03    -184.282E-03     369.299E-03    -185.145E-03    -1.98661E-03     378.134E-03     142.852E+06    -96.8898E+06    -118.767E+06    -249.243E+06    -118.778E+06    -249.233E+06    -96.8898E+06     879.002E+03
             357     71.8823E-03     1.66285E-03     71.8631E-03     369.933E-03    -184.743E-03    -185.234E-03    -184.781E-03     369.927E-03    -185.191E-03    -3.40495E-03     374.036E-03     154.654E+06    -115.372E+06    -125.119E+06    -274.592E+06    -125.126E+06    -274.585E+06    -115.372E+06     290.161E+03
             358     71.8771E-03     831.344E-06     71.8723E-03     370.334E-03    -184.800E-03    -185.572E-03    -185.413E-03     370.329E-03    -184.954E-03    -3.07308E-03     371.749E-03     168.748E+06    -125.580E+06    -130.029E+06    -296.506E+06    -128.601E+06    -296.486E+06    -127.028E+06     214.393E+03
             359     73.3525E-03     14.1463E-03     71.9755E-03     394.519E-03    -184.374E-03    -210.065E-03    -190.574E-03     375.028E-03    -184.374E-03     202.979E-03     518.449E-03     82.6157E+06     88.6532E+06     54.6019E+06    -5.40108E+06    -5.39901E+06     54.5998E+06     88.6532E+06    -179.631E+03
             360     72.8119E-03     13.3158E-03     71.5840E-03     394.973E-03    -183.981E-03    -210.854E-03    -189.550E-03     373.669E-03    -183.981E-03     217.150E-03     537.410E-03     74.3969E+06     73.0654E+06     46.7408E+06    -10.9114E+06    -10.9108E+06     46.7402E+06     73.0654E+06     133.038E+03
             361     72.4572E-03     12.4817E-03     71.3740E-03     380.788E-03    -184.115E-03    -196.968E-03    -183.804E-03     367.623E-03    -184.115E-03     171.868E-03     506.061E-03     72.4086E+06     65.4545E+06     39.6979E+06    -16.3101E+06    -16.3036E+06     39.6913E+06     65.4545E+06    -14.6555E+03
             362     72.0698E-03     11.6474E-03     71.1224E-03     379.012E-03    -184.682E-03    -194.921E-03    -182.597E-03     366.688E-03    -184.682E-03     165.231E-03     506.013E-03     77.1025E+06     65.4561E+06     36.4337E+06    -21.9246E+06    -21.9173E+06     36.4264E+06     65.4561E+06     -71.468E+03
             363     71.7577E-03     10.8142E-03     70.9382E-03     373.384E-03    -184.765E-03    -189.347E-03    -180.777E-03     364.815E-03    -184.765E-03     137.697E-03     494.337E-03     83.4963E+06     65.7885E+06     31.2720E+06    -29.4250E+06    -29.4238E+06     31.2708E+06     65.7885E+06     73.0304E+03
             364     71.4759E-03     9.98265E-03     70.7753E-03     370.787E-03    -184.439E-03    -186.474E-03    -179.821E-03     364.134E-03    -184.439E-03     120.591E-03     487.092E-03     86.3864E+06     62.0217E+06     25.8920E+06    -36.5611E+06    -36.5554E+06     25.8862E+06     62.0217E+06     333.693E+03
             365     71.2261E-03     9.14572E-03     70.6365E-03     369.159E-03    -184.348E-03    -184.929E-03    -180.489E-03     364.770E-03    -184.399E-03     97.3870E-03     474.321E-03     84.0270E+06     50.9086E+06     17.6603E+06    -44.6443E+06    -44.6352E+06     17.6512E+06     50.9086E+06     617.443E+03
             366     71.0265E-03     8.31631E-03     70.5379E-03     368.597E-03    -184.383E-03    -184.763E-03    -181.943E-03     365.992E-03    -184.598E-03     75.0569E-03     459.582E-03     80.6990E+06     37.6212E+06     8.47620E+06    -53.5874E+06    -53.5560E+06     8.44477E+06     37.6212E+06     803.462E+03
             367     70.8621E-03     7.48804E-03     70.4654E-03     367.291E-03    -183.360E-03    -184.801E-03    -181.946E-03     365.876E-03    -184.801E-03     54.7598E-03     442.903E-03     78.2576E+06     26.4746E+06     54.1718E+03    -61.5728E+06    -61.5262E+06      7.5785E+03     26.4746E+06     1.22984E+06
             368     70.7349E-03     6.65519E-03     70.4211E-03     366.302E-03    -182.088E-03    -184.800E-03    -181.422E-03     365.635E-03    -184.800E-03     37.5779E-03     426.932E-03     72.8559E+06     11.1115E+06    -15.6484E+06    -71.2929E+06    -71.2436E+06    -15.6977E+06     11.1115E+06     1.58327E+06
             369     70.6363E-03     5.82379E-03     70.3959E-03     366.719E-03    -181.928E-03    -184.636E-03    -181.630E-03     366.421E-03    -184.636E-03     24.7888E-03     413.548E-03     67.8794E+06    -10.4753E+06    -56.5160E+06    -84.4171E+06    -81.7421E+06     -59.191E+06    -10.4753E+06     1.25070E+06
             370     70.5635E-03     4.99091E-03     70.3868E-03     367.424E-03    -182.461E-03    -184.691E-03    -182.362E-03     367.324E-03    -184.691E-03     13.8779E-03     401.524E-03     77.0029E+06    -34.0810E+06    -92.2545E+06    -119.085E+06    -92.4102E+06    -118.929E+06    -34.0810E+06     889.790E+03
             371     70.5090E-03     4.15766E-03     70.3863E-03     368.026E-03    -183.317E-03    -184.842E-03    -183.296E-03     368.005E-03    -184.842E-03     5.88343E-03     392.072E-03     103.366E+06    -55.7569E+06    -102.334E+06    -173.394E+06    -102.350E+06    -173.379E+06    -55.7569E+06     921.106E+03
             372     70.4769E-03     3.32615E-03     70.3984E-03     368.484E-03    -183.924E-03    -184.928E-03    -183.923E-03     368.482E-03    -184.928E-03     1.21385E-03     384.292E-03     128.353E+06    -75.9380E+06    -111.562E+06    -218.144E+06    -111.568E+06    -218.138E+06    -75.9380E+06     768.963E+03
             373     70.4485E-03     2.49463E-03     70.4043E-03     369.145E-03    -184.290E-03    -185.010E-03    -184.330E-03     369.142E-03    -184.967E-03    -2.11017E-03     377.948E-03     142.298E+06    -96.6963E+06    -119.919E+06    -249.003E+06    -119.927E+06    -248.995E+06    -96.6963E+06     825.936E+03
             374     70.4373E-03     1.66348E-03     70.4177E-03     369.534E-03    -184.584E-03    -185.003E-03    -184.669E-03     369.528E-03    -184.912E-03    -3.35362E-03     373.654E-03     153.518E+06    -115.495E+06    -126.487E+06    -274.122E+06    -126.501E+06    -274.108E+06    -115.495E+06     795.455E+03
             375     70.4305E-03     831.442E-06     70.4256E-03     369.626E-03    -184.191E-03    -185.502E-03    -185.413E-03     369.623E-03    -184.277E-03    -2.52065E-03     371.052E-03     166.769E+06    -126.790E+06    -131.626E+06    -295.917E+06    -130.387E+06    -295.894E+06    -128.052E+06     768.408E+03
             376     71.9350E-03     14.1469E-03     70.5302E-03     394.221E-03    -184.418E-03    -209.658E-03    -189.850E-03     374.414E-03    -184.418E-03     203.942E-03     517.760E-03     82.4840E+06     88.2533E+06     54.2645E+06    -5.66214E+06    -5.66109E+06     54.2634E+06     88.2533E+06     37.4083E+03
             377     71.3898E-03     13.3123E-03     70.1376E-03     395.619E-03    -184.066E-03    -211.273E-03    -189.524E-03     373.871E-03    -184.066E-03     219.336E-03     537.873E-03     74.6012E+06     73.4788E+06     47.2372E+06    -10.6924E+06    -10.6910E+06     47.2357E+06     73.4788E+06    -7.79587E+03
             378     71.0330E-03     12.4810E-03     69.9279E-03     381.797E-03    -184.200E-03    -197.749E-03    -184.613E-03     368.661E-03    -184.200E-03     172.040E-03     507.143E-03     72.0473E+06     64.9020E+06     39.7892E+06    -16.3382E+06    -16.3350E+06     39.7860E+06     64.9020E+06     135.710E+03
             379     70.6455E-03     11.6477E-03     69.6786E-03     378.991E-03    -184.716E-03    -194.821E-03    -182.723E-03     366.893E-03    -184.716E-03     163.682E-03     506.151E-03     76.4721E+06     63.8994E+06     35.7239E+06    -22.6418E+06    -22.6392E+06     35.7213E+06     63.8994E+06     130.347E+03
             380     70.3285E-03     10.8144E-03     69.4921E-03     373.395E-03    -184.776E-03    -189.301E-03    -180.928E-03     365.023E-03    -184.776E-03     136.127E-03     494.349E-03     82.9822E+06     65.9239E+06     31.6663E+06    -28.6778E+06    -28.6739E+06     31.6624E+06     65.9239E+06    -283.744E+03
             381     70.0419E-03     9.98120E-03     69.3270E-03     371.961E-03    -184.391E-03    -187.687E-03    -181.187E-03     365.461E-03    -184.391E-03     119.448E-03     488.168E-03     86.1980E+06     62.1628E+06     25.5731E+06    -36.2881E+06    -36.2845E+06     25.5695E+06     62.1628E+06    -134.100E+03
             382     69.7948E-03     9.15190E-03     69.1921E-03     369.437E-03    -184.007E-03    -185.557E-03    -181.037E-03     365.176E-03    -184.266E-03     96.0891E-03     474.013E-03     84.2211E+06     51.2026E+06     17.6323E+06    -44.6139E+06    -44.6117E+06     17.6301E+06     51.2026E+06     287.931E+03
             383     69.5855E-03     8.31934E-03     69.0864E-03     367.073E-03    -183.159E-03    -184.481E-03    -180.640E-03     364.554E-03    -184.481E-03     73.6219E-03     457.782E-03     80.6254E+06     37.8771E+06     8.66413E+06    -53.2679E+06    -53.2583E+06     8.65451E+06     37.8771E+06     382.226E+03
             384     69.4238E-03     7.48612E-03     69.0190E-03     366.179E-03    -182.316E-03    -184.800E-03    -180.898E-03     364.761E-03    -184.800E-03     55.0128E-03     442.102E-03     77.9316E+06     24.8734E+06    -1.42813E+06    -62.8047E+06    -62.7855E+06    -1.44734E+06     24.8734E+06     684.731E+03
             385     69.2957E-03     6.65497E-03     68.9754E-03     366.336E-03    -182.037E-03    -184.848E-03    -181.321E-03     365.620E-03    -184.848E-03     38.9098E-03     426.850E-03     73.4267E+06     9.99940E+06    -15.9713E+06    -72.8652E+06    -72.8192E+06    -16.0174E+06     9.99940E+06     1.47028E+06
             386     69.1963E-03     5.82178E-03     68.9510E-03     367.059E-03    -182.193E-03    -184.659E-03    -181.881E-03     366.746E-03    -184.659E-03     25.4838E-03     413.735E-03     68.0082E+06    -10.9351E+06    -56.2692E+06    -84.4486E+06    -82.9880E+06    -57.7298E+06    -10.9351E+06     1.56787E+06
             387     69.1203E-03     4.99036E-03     68.9400E-03     367.606E-03    -182.619E-03    -184.691E-03    -182.512E-03     367.499E-03    -184.691E-03     14.5040E-03     401.696E-03     77.0878E+06    -33.8588E+06    -92.2867E+06    -118.580E+06    -92.6075E+06    -118.259E+06    -33.8588E+06     1.11453E+06
             388     69.0687E-03     4.15853E-03     68.9434E-03     368.234E-03    -183.554E-03    -184.810E-03    -183.531E-03     368.211E-03    -184.810E-03     6.27030E-03     392.248E-03     103.094E+06    -55.3527E+06    -102.167E+06    -172.774E+06    -102.189E+06    -172.752E+06    -55.3527E+06     1.15024E+06
             389     69.0288E-03     3.32666E-03     68.9486E-03     368.743E-03    -184.296E-03    -184.793E-03    -184.293E-03     368.740E-03    -184.793E-03     844.699E-06     384.537E-03     128.047E+06    -75.6130E+06    -111.065E+06    -217.424E+06    -111.078E+06    -217.412E+06    -75.6130E+06     1.04924E+06
             390     69.0056E-03     2.49582E-03     68.9605E-03     368.726E-03    -184.111E-03    -184.789E-03    -184.108E-03     368.724E-03    -184.789E-03    -2.18384E-03     377.554E-03     143.206E+06    -95.3143E+06    -119.381E+06    -248.908E+06    -119.385E+06    -248.904E+06    -95.3143E+06     646.512E+03
             391     68.9915E-03     1.66277E-03     68.9715E-03     369.045E-03    -184.298E-03    -184.841E-03    -184.340E-03     369.040E-03    -184.794E-03    -3.02922E-03     373.203E-03     152.775E+06    -114.339E+06    -126.798E+06    -272.867E+06    -126.806E+06    -272.858E+06    -114.339E+06     906.274E+03
             392     68.9849E-03     831.913E-06     68.9799E-03     369.390E-03    -184.195E-03    -185.266E-03    -184.864E-03     369.388E-03    -184.595E-03    -2.07896E-03     370.832E-03     163.805E+06    -127.111E+06    -132.830E+06    -293.697E+06    -131.577E+06    -293.688E+06    -128.373E+06     432.949E+03
             393     70.5218E-03     14.1449E-03     69.0887E-03     394.257E-03    -184.478E-03    -209.559E-03    -189.754E-03     374.452E-03    -184.478E-03     204.286E-03     517.477E-03     82.5119E+06     88.6602E+06     54.6150E+06    -5.30476E+06    -5.28896E+06     54.5992E+06     88.6602E+06     646.254E+03
             394     69.9683E-03     13.3111E-03     68.6905E-03     395.858E-03    -184.092E-03    -211.386E-03    -189.914E-03     374.386E-03    -184.092E-03     217.688E-03     538.037E-03     74.6777E+06     73.3831E+06     47.4780E+06    -10.7938E+06    -10.7918E+06     47.4760E+06     73.3831E+06     9.90338E+03
             395     69.6058E-03     12.4796E-03     68.4780E-03     381.868E-03    -184.196E-03    -197.724E-03    -184.982E-03     369.126E-03    -184.196E-03     169.471E-03     507.596E-03     71.9516E+06     64.3787E+06     39.7004E+06    -16.6635E+06    -16.6508E+06     39.6876E+06     64.3787E+06    -453.164E+03
             396     69.2191E-03     11.6493E-03     68.2318E-03     379.404E-03    -184.664E-03    -195.194E-03    -183.342E-03     367.551E-03    -184.664E-03     162.224E-03     507.119E-03     76.2724E+06     64.1441E+06     36.0499E+06    -22.1730E+06    -22.1600E+06     36.0368E+06     64.1441E+06    -488.729E+03
             397     68.9033E-03     10.8157E-03     68.0492E-03     373.825E-03    -184.690E-03    -189.671E-03    -181.298E-03     365.452E-03    -184.690E-03     136.268E-03     494.417E-03     82.8118E+06     66.0834E+06     32.0715E+06    -28.2943E+06    -28.2764E+06     32.0535E+06     66.0834E+06     65.3000E+03
             398     68.6080E-03     9.98432E-03     67.8776E-03     372.215E-03    -184.309E-03    -187.971E-03    -181.357E-03     365.601E-03    -184.309E-03     120.539E-03     487.943E-03     86.3830E+06     62.1469E+06     25.6571E+06    -36.4859E+06    -36.4687E+06     25.6399E+06     62.1469E+06     205.343E+03
             399     68.3564E-03     9.15209E-03     67.7409E-03     369.249E-03    -183.717E-03    -185.596E-03    -180.784E-03     364.873E-03    -184.153E-03     97.3967E-03     473.815E-03     84.4284E+06     50.9631E+06     17.2321E+06    -45.1076E+06    -45.1061E+06     17.2306E+06     50.9631E+06     140.433E+03
             400     68.1549E-03     8.32037E-03     67.6451E-03     366.132E-03    -182.456E-03    -184.385E-03    -179.861E-03     363.537E-03    -184.385E-03     74.5677E-03     456.956E-03     80.2022E+06     37.0604E+06     7.64129E+06    -53.6837E+06    -53.6769E+06     7.63440E+06     37.0604E+06     493.793E+03
             401     67.9862E-03     7.48600E-03     67.5728E-03     365.293E-03    -181.627E-03    -184.786E-03    -180.227E-03     363.893E-03    -184.786E-03     54.4032E-03     441.300E-03     77.2020E+06     23.7320E+06    -2.45095E+06    -63.1533E+06    -63.1346E+06    -2.46970E+06     23.7320E+06     892.259E+03
             402     67.8557E-03     6.65274E-03     67.5288E-03     366.054E-03    -181.747E-03    -184.874E-03    -181.076E-03     365.383E-03    -184.874E-03     37.6107E-03     426.494E-03     73.2552E+06     9.55576E+06    -16.0847E+06    -73.0595E+06    -73.0357E+06    -16.1085E+06     9.55576E+06     1.06993E+06
             403     67.7545E-03     5.82283E-03     67.5038E-03     366.987E-03    -182.090E-03    -184.732E-03    -181.796E-03     366.694E-03    -184.732E-03     24.7048E-03     413.620E-03     67.8829E+06    -10.9586E+06    -56.2329E+06    -84.0216E+06    -83.4633E+06    -56.7912E+06    -10.9586E+06     986.685E+03
             404     67.6796E-03     4.98994E-03     67.4954E-03     368.012E-03    -182.902E-03    -184.776E-03    -182.795E-03     367.905E-03    -184.776E-03     14.7425E-03     402.209E-03     77.2718E+06    -33.7346E+06    -92.7444E+06    -118.400E+06    -93.3038E+06    -117.840E+06    -33.7346E+06     1.08503E+06
             405     67.6239E-03     4.15800E-03     67.4960E-03     368.669E-03    -183.932E-03    -184.814E-03    -183.903E-03     368.640E-03    -184.814E-03     7.22995E-03     392.717E-03     102.371E+06    -55.5287E+06    -102.701E+06    -172.203E+06    -102.735E+06    -172.170E+06    -55.5287E+06     1.38924E+06
             406     67.5843E-03     3.32790E-03     67.5023E-03     368.631E-03    -184.199E-03    -184.743E-03    -184.195E-03     368.627E-03    -184.743E-03     1.14480E-03     384.320E-03     125.490E+06    -77.6199E+06    -111.940E+06    -216.421E+06    -111.956E+06    -216.405E+06    -77.6199E+06     822.721E+03
             407     67.5624E-03     2.49494E-03     67.5163E-03     368.739E-03    -184.154E-03    -184.737E-03    -184.152E-03     368.737E-03    -184.737E-03    -1.94824E-03     377.554E-03     141.876E+06    -96.8716E+06    -119.205E+06    -248.470E+06    -119.210E+06    -248.466E+06    -96.8716E+06     385.572E+03
             408     67.5458E-03     1.66391E-03     67.5253E-03     369.027E-03    -184.409E-03    -184.711E-03    -184.405E-03     369.023E-03    -184.711E-03    -2.82204E-03     373.123E-03     152.501E+06    -113.436E+06    -124.865E+06    -271.249E+06    -124.868E+06    -271.246E+06    -113.436E+06     289.674E+03
             409     67.5400E-03     831.278E-06     67.5349E-03     369.241E-03    -184.421E-03    -184.862E-03    -184.441E-03     369.237E-03    -184.839E-03    -2.66375E-03     370.658E-03     163.909E+06    -126.575E+06    -130.883E+06    -292.583E+06    -130.726E+06    -292.581E+06    -126.734E+06     169.028E+03
             410     69.1008E-03     14.1442E-03     67.6378E-03     395.100E-03    -184.451E-03    -210.394E-03    -191.013E-03     375.719E-03    -184.451E-03     202.612E-03     518.669E-03     82.5320E+06     88.8016E+06     54.7471E+06    -5.17472E+06    -5.15528E+06     54.7276E+06     88.8016E+06     652.997E+03
             411     68.5510E-03     13.3154E-03     67.2454E-03     395.469E-03    -184.008E-03    -211.071E-03    -189.995E-03     374.393E-03    -184.008E-03     215.970E-03     538.049E-03     74.3478E+06     73.1252E+06     47.7732E+06    -10.5780E+06    -10.5750E+06     47.7701E+06     73.1252E+06     102.328E+03
             412     68.1838E-03     12.4827E-03     67.0314E-03     380.936E-03    -184.109E-03    -196.818E-03    -184.018E-03     368.136E-03    -184.109E-03     169.540E-03     506.727E-03     71.6231E+06     64.4438E+06     40.0355E+06    -16.1891E+06    -16.1768E+06     40.0231E+06     64.4438E+06    -314.881E+03
             413     67.7936E-03     11.6487E-03     66.7853E-03     379.612E-03    -184.602E-03    -195.314E-03    -183.406E-03     367.704E-03    -184.602E-03     162.555E-03     507.268E-03     76.7603E+06     64.6416E+06     35.8897E+06    -22.3261E+06    -22.3135E+06     35.8770E+06     64.6416E+06    -597.264E+03
             414     67.4748E-03     10.8175E-03     66.6021E-03     374.435E-03    -184.623E-03    -190.319E-03    -181.892E-03     366.008E-03    -184.623E-03     136.880E-03     494.872E-03     83.5207E+06     65.5709E+06     31.4727E+06    -29.5986E+06    -29.5840E+06     31.4580E+06     65.5709E+06     301.480E+03
             415     67.1763E-03     9.98514E-03     66.4300E-03     371.321E-03    -184.262E-03    -187.053E-03    -180.298E-03     364.567E-03    -184.262E-03     121.657E-03     486.557E-03     86.1940E+06     61.1911E+06     25.7781E+06    -37.0637E+06    -37.0445E+06     25.7589E+06     61.1911E+06     683.887E+03
             416     66.9232E-03     9.15092E-03     66.2946E-03     368.436E-03    -183.683E-03    -184.634E-03    -179.703E-03     363.998E-03    -184.176E-03     97.7736E-03     472.967E-03     83.6720E+06     49.6483E+06     16.9367E+06    -45.4311E+06    -45.4228E+06     16.9284E+06     49.6483E+06     110.732E+03
             417     66.7183E-03     8.31868E-03     66.1976E-03     367.034E-03    -183.180E-03    -184.411E-03    -180.595E-03     364.449E-03    -184.411E-03     74.5736E-03     458.199E-03     79.9264E+06     35.9834E+06     6.72433E+06    -54.4431E+06    -54.4407E+06     6.72191E+06     35.9834E+06    -88.4114E+03
             418     66.5508E-03     7.48816E-03     66.1282E-03     365.979E-03    -182.236E-03    -184.734E-03    -180.824E-03     364.567E-03    -184.734E-03     54.6807E-03     442.033E-03     77.4013E+06     23.8406E+06    -2.60737E+06    -63.3142E+06    -63.3014E+06    -2.62017E+06     23.8406E+06     580.275E+03
             419     66.4168E-03     6.65568E-03     66.0825E-03     365.350E-03    -181.080E-03    -184.830E-03    -180.402E-03     364.673E-03    -184.830E-03     37.7770E-03     425.823E-03     73.0807E+06     9.82077E+06    -15.4444E+06    -72.5299E+06    -72.5071E+06    -15.4672E+06     9.82077E+06     1.04982E+06
             420     66.3138E-03     5.82096E-03     66.0579E-03     366.625E-03    -181.702E-03    -184.776E-03    -181.402E-03     366.325E-03    -184.776E-03     24.9654E-03     413.223E-03     67.5184E+06    -10.8377E+06    -55.3841E+06    -83.6015E+06    -82.6003E+06    -56.3853E+06    -10.8377E+06     982.700E+03
             421     66.2377E-03     4.98921E-03     66.0495E-03     368.312E-03    -183.221E-03    -184.820E-03    -183.114E-03     368.205E-03    -184.820E-03     14.6556E-03     402.503E-03     76.3373E+06    -34.2449E+06    -92.4271E+06    -118.019E+06    -92.9084E+06    -117.538E+06    -34.2449E+06     1.02879E+06
             422     66.1782E-03     4.15850E-03     66.0474E-03     368.490E-03    -183.746E-03    -184.840E-03    -183.720E-03     368.465E-03    -184.840E-03     6.52633E-03     392.541E-03     101.692E+06    -55.4245E+06    -102.208E+06    -171.330E+06    -102.233E+06    -171.305E+06    -55.4245E+06     888.545E+03
             423     66.1412E-03     3.32576E-03     66.0575E-03     368.546E-03    -184.044E-03    -184.844E-03    -184.042E-03     368.544E-03    -184.844E-03     1.09565E-03     384.288E-03     124.726E+06    -77.3860E+06    -111.573E+06    -215.355E+06    -111.593E+06    -215.335E+06    -77.3860E+06     791.541E+03
             424     66.1163E-03     2.49539E-03     66.0692E-03     369.279E-03    -184.539E-03    -184.908E-03    -184.652E-03     369.276E-03    -184.792E-03    -1.95273E-03     378.110E-03     139.797E+06    -98.1982E+06    -119.686E+06    -247.366E+06    -119.701E+06    -247.351E+06    -98.1982E+06     398.363E+03
             425     66.1023E-03     1.66334E-03     66.0814E-03     369.245E-03    -184.530E-03    -184.756E-03    -184.703E-03     369.240E-03    -184.578E-03    -3.27034E-03     373.321E-03     151.123E+06    -114.814E+06    -125.875E+06    -271.101E+06    -125.878E+06    -271.098E+06    -114.814E+06    -44.1410E+03
             426     66.0944E-03     832.240E-06     66.0892E-03     368.808E-03    -184.360E-03    -184.484E-03    -184.442E-03     368.804E-03    -184.397E-03    -2.80152E-03     370.191E-03     164.238E+06    -126.227E+06    -130.162E+06    -292.380E+06    -129.449E+06    -292.376E+06    -126.943E+06    -106.149E+03
             427     67.6877E-03     14.1497E-03     66.1922E-03     395.452E-03    -184.376E-03    -210.743E-03    -191.267E-03     375.975E-03    -184.376E-03     202.726E-03     519.172E-03     82.5683E+06     88.8743E+06     54.7629E+06    -5.15967E+06    -5.15481E+06     54.7580E+06     88.8743E+06     223.759E+03
             428     67.1312E-03     13.3155E-03     65.7974E-03     395.122E-03    -183.959E-03    -210.781E-03    -189.437E-03     373.778E-03    -183.959E-03     217.251E-03     537.806E-03     74.3495E+06     72.9288E+06     47.3880E+06    -10.8197E+06    -10.8138E+06     47.3821E+06     72.9288E+06     316.673E+03
             429     66.7659E-03     12.4820E-03     65.5887E-03     381.109E-03    -184.080E-03    -197.085E-03    -184.107E-03     368.131E-03    -184.080E-03     170.802E-03     506.724E-03     71.7637E+06     64.7008E+06     40.2757E+06    -16.0842E+06    -16.0707E+06     40.2622E+06     64.7008E+06     662.757E+03
             430     66.3686E-03     11.6502E-03     65.3381E-03     379.536E-03    -184.557E-03    -195.426E-03    -183.379E-03     367.489E-03    -184.557E-03     163.528E-03     506.707E-03     77.3084E+06     65.0540E+06     36.3482E+06    -22.4839E+06    -22.4685E+06     36.3327E+06     65.0540E+06     605.060E+03
             431     66.0444E-03     10.8180E-03     65.1524E-03     374.004E-03    -184.580E-03    -190.113E-03    -181.656E-03     365.548E-03    -184.580E-03     137.008E-03     494.849E-03     83.8364E+06     65.6162E+06     31.6840E+06    -29.8614E+06    -29.8557E+06     31.6783E+06     65.6162E+06     271.077E+03
             432     65.7493E-03     9.98532E-03     64.9866E-03     371.187E-03    -184.232E-03    -186.950E-03    -180.235E-03     364.473E-03    -184.232E-03     121.301E-03     486.831E-03     85.7966E+06     60.5253E+06     25.4781E+06    -37.2424E+06    -37.2369E+06     25.4726E+06     60.5253E+06     316.137E+03
             433     65.4915E-03     9.15059E-03     64.8491E-03     368.211E-03    -183.280E-03    -184.694E-03    -179.401E-03     363.809E-03    -184.169E-03     97.2706E-03     472.299E-03     83.2411E+06     48.9174E+06     16.7173E+06    -45.6037E+06    -45.5909E+06     16.7045E+06     48.9174E+06     414.691E+03
             434     65.2817E-03     8.31912E-03     64.7494E-03     366.530E-03    -182.524E-03    -184.448E-03    -179.953E-03     363.959E-03    -184.448E-03     74.3943E-03     457.420E-03     79.5410E+06     35.1969E+06     6.76306E+06    -54.6429E+06    -54.6344E+06     6.75460E+06     35.1969E+06    -32.8248E+03
             435     65.1129E-03     7.48686E-03     64.6811E-03     366.113E-03    -182.262E-03    -184.801E-03    -180.798E-03     364.650E-03    -184.801E-03     55.7700E-03     442.292E-03     77.1211E+06     23.0778E+06    -2.72183E+06    -63.6321E+06    -63.6289E+06    -2.72503E+06     23.0778E+06    -76.4336E+03
             436     64.9814E-03     6.65411E-03     64.6398E-03     366.124E-03    -181.810E-03    -184.865E-03    -181.096E-03     365.409E-03    -184.865E-03     38.8450E-03     426.642E-03     73.0693E+06     8.56779E+06    -15.6994E+06    -73.5448E+06    -73.5341E+06    -15.7101E+06     8.56779E+06     465.028E+03
             437     64.8754E-03     5.82153E-03     64.6137E-03     367.035E-03    -182.158E-03    -184.729E-03    -181.851E-03     366.727E-03    -184.729E-03     25.2038E-03     413.529E-03     67.4976E+06    -11.4689E+06    -55.1763E+06    -84.0116E+06    -83.0473E+06    -56.1405E+06    -11.4689E+06     868.626E+03
             438     64.7910E-03     4.99034E-03     64.5986E-03     367.939E-03    -182.974E-03    -184.753E-03    -182.874E-03     367.838E-03    -184.753E-03     14.0084E-03     402.202E-03     75.7028E+06    -34.2454E+06     -92.281E+06    -117.268E+06    -92.7641E+06    -116.785E+06    -34.2454E+06     717.205E+03
             439     64.7372E-03     4.15832E-03     64.6035E-03     368.224E-03    -183.576E-03    -184.819E-03    -183.556E-03     368.204E-03    -184.819E-03     5.64934E-03     392.381E-03     101.492E+06    -55.8636E+06    -102.856E+06    -171.565E+06    -102.861E+06    -171.560E+06    -55.8636E+06     401.515E+03
             440     64.6969E-03     3.32640E-03     64.6114E-03     368.487E-03    -184.037E-03    -184.855E-03    -184.035E-03     368.486E-03    -184.855E-03     492.369E-06     384.283E-03     124.671E+06    -76.1921E+06    -111.699E+06    -214.523E+06    -111.714E+06    -214.508E+06    -76.1921E+06     884.908E+03
             441     64.6698E-03     2.49442E-03     64.6216E-03     369.097E-03    -184.340E-03    -184.954E-03    -184.453E-03     369.094E-03    -184.838E-03    -2.37066E-03     377.958E-03     138.130E+06    -97.8424E+06    -120.189E+06    -245.612E+06    -120.209E+06    -245.592E+06    -97.8424E+06     991.575E+03
             442     64.6568E-03     1.66441E-03     64.6354E-03     369.365E-03    -184.522E-03    -184.884E-03    -184.716E-03     369.360E-03    -184.685E-03    -3.16807E-03     373.544E-03     149.236E+06    -116.482E+06    -126.653E+06    -270.457E+06    -126.662E+06    -270.448E+06    -116.482E+06     153.765E+03
             443     64.6502E-03     831.972E-06     64.6448E-03     369.069E-03    -184.438E-03    -184.666E-03    -184.643E-03     369.066E-03    -184.459E-03    -2.37049E-03     370.511E-03     163.759E+06    -127.072E+06    -130.142E+06    -292.331E+06    -129.588E+06    -292.327E+06    -127.631E+06    -337.380E+03
             444     66.2717E-03     14.1473E-03     64.7440E-03     394.687E-03    -184.357E-03    -210.089E-03    -190.483E-03     375.081E-03    -184.357E-03     203.263E-03     518.477E-03     82.5873E+06     88.6320E+06     54.5809E+06    -5.42027E+06    -5.41863E+06     54.5793E+06     88.6320E+06     41.2983E+03
             445     65.7176E-03     13.3146E-03     64.3547E-03     395.281E-03    -183.951E-03    -211.028E-03    -189.637E-03     373.891E-03    -183.951E-03     217.358E-03     537.972E-03     74.6442E+06     73.3263E+06     47.3145E+06    -10.8415E+06    -10.8363E+06     47.3092E+06     73.3263E+06     447.286E+03
             446     65.3433E-03     12.4824E-03     64.1400E-03     381.362E-03    -184.059E-03    -197.469E-03    -184.560E-03     368.454E-03    -184.059E-03     170.433E-03     507.020E-03     72.0363E+06     64.9008E+06     39.9355E+06    -16.2959E+06    -16.2813E+06     39.9209E+06     64.9008E+06     816.206E+03
             447     64.9461E-03     11.6515E-03     63.8924E-03     379.032E-03    -184.535E-03    -195.183E-03    -183.028E-03     366.877E-03    -184.535E-03     164.301E-03     506.122E-03     76.8916E+06     65.3269E+06     36.6082E+06    -21.7748E+06    -21.7375E+06     36.5709E+06     65.3269E+06     1.33346E+06
             448     64.6165E-03     10.8169E-03     63.7047E-03     373.687E-03    -184.575E-03    -190.006E-03    -181.448E-03     365.130E-03    -184.575E-03     137.697E-03     494.501E-03     82.9581E+06     65.5673E+06     32.3508E+06    -28.8501E+06    -28.8147E+06     32.3154E+06     65.5673E+06     1.21562E+06
             449     64.3201E-03     9.98476E-03     63.5404E-03     371.531E-03    -184.217E-03    -187.429E-03    -180.777E-03     364.879E-03    -184.217E-03     120.825E-03     487.551E-03     85.6328E+06     60.3999E+06     25.7603E+06    -37.1248E+06    -37.1113E+06     25.7468E+06     60.3999E+06     652.109E+03
             450     64.0604E-03     9.15353E-03     63.4030E-03     368.076E-03    -182.944E-03    -184.957E-03    -179.319E-03     363.643E-03    -184.149E-03     97.7490E-03     472.269E-03     83.7933E+06     49.7264E+06     17.2019E+06    -45.4429E+06    -45.4325E+06     17.1915E+06     49.7264E+06     512.790E+03
             451     63.8509E-03     8.31870E-03     63.3067E-03     365.771E-03    -181.841E-03    -184.467E-03    -179.215E-03     363.145E-03    -184.467E-03     74.9698E-03     456.665E-03     79.3908E+06     35.5197E+06     7.60148E+06    -54.0407E+06    -54.0298E+06     7.59057E+06     35.5197E+06     343.642E+03
             452     63.6759E-03     7.48430E-03     63.2345E-03     365.918E-03    -182.130E-03    -184.858E-03    -180.710E-03     364.498E-03    -184.858E-03     54.7279E-03     442.269E-03     76.4811E+06     22.1902E+06    -2.61021E+06    -63.6121E+06    -63.6033E+06    -2.61906E+06     22.1902E+06    -175.247E+03
             453     63.5412E-03     6.65326E-03     63.1919E-03     366.942E-03    -182.636E-03    -184.885E-03    -181.965E-03     366.271E-03    -184.885E-03     37.7568E-03     427.531E-03     72.9354E+06     8.05745E+06    -15.9553E+06    -73.8507E+06    -73.8450E+06    -15.9610E+06     8.05745E+06    -400.864E+03
             454     63.4323E-03     5.82352E-03     63.1644E-03     367.298E-03    -182.539E-03    -184.659E-03    -182.234E-03     366.993E-03    -184.659E-03     25.2407E-03     413.927E-03     67.4891E+06    -11.9071E+06    -55.8464E+06    -84.2400E+06    -83.9223E+06    -56.1641E+06    -11.9071E+06    -137.658E+03
             455     63.3519E-03     4.99048E-03     63.1550E-03     367.450E-03    -182.615E-03    -184.675E-03    -182.508E-03     367.343E-03    -184.675E-03     14.4879E-03     401.733E-03     76.4176E+06    -33.8268E+06    -92.4649E+06    -117.465E+06    -93.1045E+06    -116.826E+06    -33.8268E+06     559.448E+03
             456     63.2923E-03     4.15809E-03     63.1555E-03     368.191E-03    -183.649E-03    -184.764E-03    -183.627E-03     368.169E-03    -184.764E-03     5.85297E-03     392.317E-03     101.479E+06    -55.2492E+06    -102.434E+06    -170.963E+06    -102.452E+06    -170.945E+06    -55.2492E+06     857.007E+03
             457     63.2531E-03     3.32743E-03     63.1655E-03     368.270E-03    -183.915E-03    -184.792E-03    -183.913E-03     368.269E-03    -184.792E-03     396.824E-06     384.145E-03     124.435E+06    -76.3663E+06    -111.632E+06    -214.380E+06    -111.634E+06    -214.377E+06    -76.3663E+06     410.066E+03
             458     63.2264E-03     2.49538E-03     63.1771E-03     368.322E-03    -183.605E-03    -184.934E-03    -183.604E-03     368.320E-03    -184.934E-03    -1.86686E-03     377.309E-03     138.582E+06    -96.4551E+06    -118.925E+06    -244.734E+06    -118.932E+06    -244.727E+06    -96.4551E+06     764.443E+03
             459     63.2106E-03     1.66177E-03     63.1887E-03     369.421E-03    -184.296E-03    -185.195E-03    -184.314E-03     369.418E-03    -185.175E-03    -2.40079E-03     373.649E-03     149.056E+06    -115.168E+06    -125.157E+06    -268.872E+06    -125.167E+06    -268.861E+06    -115.168E+06     634.418E+03
             460     63.2048E-03     831.366E-06     63.1994E-03     370.527E-03    -184.760E-03    -185.777E-03    -185.580E-03     370.525E-03    -184.955E-03    -2.06716E-03     372.006E-03     164.112E+06    -127.088E+06    -129.502E+06    -292.382E+06    -129.344E+06    -292.378E+06    -127.250E+06     69.0894E+03
             461     64.8629E-03     14.1481E-03     63.3011E-03     394.555E-03    -184.354E-03    -210.107E-03    -190.671E-03     375.119E-03    -184.354E-03     202.429E-03     518.511E-03     82.9865E+06     88.9610E+06     53.9233E+06    -5.69473E+06    -5.69183E+06     53.9204E+06     88.9610E+06     124.068E+03
             462     64.2984E-03     13.3159E-03     62.9045E-03     395.321E-03    -183.941E-03    -211.149E-03    -189.872E-03     374.044E-03    -183.941E-03     217.015E-03     538.070E-03     74.4718E+06     73.4434E+06     46.8698E+06    -10.6637E+06    -10.6600E+06     46.8661E+06     73.4434E+06     339.019E+03
             463     63.9239E-03     12.4840E-03     62.6930E-03     381.120E-03    -184.037E-03    -197.197E-03    -184.182E-03     368.105E-03    -184.037E-03     171.014E-03     506.623E-03     71.5330E+06     64.6423E+06     39.7548E+06    -16.0092E+06    -15.9990E+06     39.7446E+06     64.6423E+06     614.899E+03
             464     63.5221E-03     11.6495E-03     62.4448E-03     379.227E-03    -184.520E-03    -195.296E-03    -183.105E-03     367.036E-03    -184.520E-03     164.464E-03     506.277E-03     76.6446E+06     65.0015E+06     36.4182E+06    -21.8140E+06    -21.7837E+06     36.3880E+06     65.0015E+06     1.08194E+06
             465     63.1915E-03     10.8173E-03     62.2588E-03     373.725E-03    -184.578E-03    -190.004E-03    -181.504E-03     365.225E-03    -184.578E-03     137.256E-03     494.278E-03     82.5696E+06     65.7310E+06     32.5428E+06    -28.2633E+06    -28.2214E+06     32.5010E+06     65.7310E+06     1.42812E+06
             466     62.8880E-03     9.98588E-03     62.0901E-03     370.729E-03    -184.208E-03    -186.685E-03    -180.032E-03     364.113E-03    -184.244E-03     120.323E-03     486.999E-03     84.9121E+06     60.5675E+06     26.3437E+06    -36.1112E+06    -36.0819E+06     26.3144E+06     60.5675E+06     1.32260E+06
             467     62.6323E-03     9.14997E-03     61.9604E-03     367.919E-03    -183.295E-03    -184.535E-03    -179.160E-03     363.462E-03    -184.213E-03     98.0766E-03     472.849E-03     83.4660E+06     50.3486E+06     18.4258E+06    -44.3595E+06    -44.3427E+06     18.4090E+06     50.3486E+06     814.902E+03
             468     62.4158E-03     8.31779E-03     61.8591E-03     366.811E-03    -182.791E-03    -184.507E-03    -180.116E-03     364.136E-03    -184.507E-03     75.7311E-03     457.658E-03     79.7526E+06     36.7586E+06     8.81472E+06    -53.1888E+06    -53.1755E+06     8.80139E+06     36.7586E+06     389.562E+03
             469     62.2418E-03     7.48741E-03     61.7899E-03     366.503E-03    -182.645E-03    -184.823E-03    -181.220E-03     365.078E-03    -184.823E-03     54.9184E-03     442.470E-03     76.5055E+06     23.1084E+06    -1.44131E+06    -62.6556E+06    -62.6455E+06    -1.45140E+06     23.1084E+06     51.8971E+03
             470     62.1000E-03     6.65510E-03     61.7424E-03     366.468E-03    -182.164E-03    -184.848E-03    -181.483E-03     365.787E-03    -184.848E-03     38.0379E-03     427.012E-03     71.6507E+06     8.57478E+06    -15.6928E+06    -72.0296E+06    -72.0208E+06    -15.7016E+06     8.57478E+06    -391.548E+03
             471     61.9936E-03     5.82167E-03     61.7197E-03     367.262E-03    -182.479E-03    -184.656E-03    -182.176E-03     366.959E-03    -184.656E-03     24.9553E-03     414.042E-03     66.3593E+06    -11.6016E+06    -55.8705E+06     -83.046E+06    -82.0750E+06    -56.8415E+06    -11.6016E+06    -346.044E+03
             472     61.9095E-03     4.99038E-03     61.7080E-03     367.653E-03    -182.804E-03    -184.662E-03    -182.704E-03     367.553E-03    -184.662E-03     14.1165E-03     401.832E-03     76.5973E+06    -33.9244E+06    -92.3252E+06    -117.949E+06    -92.6325E+06    -117.641E+06    -33.9244E+06     456.720E+03
             473     61.8491E-03     4.15915E-03     61.7091E-03     367.557E-03    -182.988E-03    -184.797E-03    -182.963E-03     367.531E-03    -184.797E-03     6.70235E-03     391.628E-03     100.632E+06    -55.4717E+06    -102.535E+06    -170.289E+06    -102.551E+06    -170.273E+06    -55.4717E+06     746.398E+03
             474     61.8082E-03     3.32654E-03     61.7186E-03     368.151E-03    -183.673E-03    -184.953E-03    -183.669E-03     368.147E-03    -184.953E-03     1.43925E-03     384.089E-03     123.876E+06    -76.5687E+06    -111.484E+06    -213.880E+06    -111.487E+06    -213.877E+06    -76.5687E+06     163.701E+03
             475     61.7839E-03     2.49400E-03     61.7335E-03     368.931E-03    -184.072E-03    -185.090E-03    -184.076E-03     368.928E-03    -185.083E-03    -1.84343E-03     377.909E-03     138.984E+06    -96.2388E+06    -119.018E+06    -245.072E+06    -119.020E+06    -245.070E+06    -96.2388E+06     229.240E+03
             476     61.7645E-03     1.66217E-03     61.7422E-03     369.574E-03    -184.394E-03    -185.271E-03    -184.396E-03     369.569E-03    -185.264E-03    -3.20912E-03     373.739E-03     148.024E+06    -114.530E+06    -125.279E+06    -267.536E+06    -125.284E+06    -267.531E+06    -114.530E+06     797.389E+03
             477     61.7556E-03     829.860E-06     61.7500E-03     370.666E-03    -184.450E-03    -186.229E-03    -185.874E-03     370.661E-03    -184.800E-03    -3.11427E-03     372.116E-03     161.947E+06    -127.273E+06    -130.365E+06    -290.733E+06    -130.205E+06    -290.730E+06    -127.435E+06     534.967E+03
             478     63.4497E-03     14.1484E-03     61.8521E-03     394.811E-03    -184.355E-03    -210.342E-03    -190.721E-03     375.191E-03    -184.355E-03     202.998E-03     518.728E-03     82.7358E+06     88.6663E+06     53.7351E+06    -5.69198E+06    -5.68214E+06     53.7252E+06     88.6663E+06    -184.011E+03
             479     62.8851E-03     13.3166E-03     61.4589E-03     395.420E-03    -183.971E-03    -211.151E-03    -189.574E-03     373.842E-03    -183.971E-03     218.450E-03     537.976E-03     73.7001E+06     72.1703E+06     45.8201E+06    -11.0781E+06    -11.0733E+06     45.8152E+06     72.1703E+06     284.687E+03
             480     62.5062E-03     12.4817E-03     61.2473E-03     381.602E-03    -184.062E-03    -197.640E-03    -184.539E-03     368.500E-03    -184.062E-03     171.742E-03     506.943E-03     71.2295E+06     64.6530E+06     39.4435E+06    -15.7500E+06    -15.7332E+06     39.4267E+06     64.6530E+06     839.457E+03
             481     62.1001E-03     11.6506E-03     60.9974E-03     379.763E-03    -184.520E-03    -195.817E-03    -183.653E-03     367.599E-03    -184.520E-03     164.387E-03     506.771E-03     76.5002E+06     65.0214E+06     35.9635E+06    -21.7333E+06    -21.7119E+06     35.9420E+06     65.0214E+06     1.02525E+06
             482     61.7658E-03     10.8196E-03     60.8108E-03     373.174E-03    -184.595E-03    -189.298E-03    -180.793E-03     364.669E-03    -184.595E-03     137.191E-03     493.882E-03     82.6802E+06     66.0380E+06     32.1544E+06    -28.1957E+06    -28.1766E+06     32.1353E+06     66.0380E+06     902.035E+03
             483     61.4643E-03     9.98322E-03     60.6481E-03     370.565E-03    -184.263E-03    -186.291E-03    -179.557E-03     363.867E-03    -184.299E-03     120.952E-03     486.626E-03     84.9956E+06     61.9236E+06     27.5163E+06    -34.8718E+06    -34.8489E+06     27.4935E+06     61.9236E+06     1.09556E+06
             484     61.2006E-03     9.15040E-03     60.5126E-03     368.716E-03    -183.777E-03    -184.812E-03    -179.976E-03     364.344E-03    -184.241E-03     97.0701E-03     473.539E-03     82.8936E+06     50.4313E+06     19.4522E+06    -43.4805E+06    -43.4617E+06     19.4334E+06     50.4313E+06     1.02629E+06
             485     60.9845E-03     8.31804E-03     60.4146E-03     366.961E-03    -183.011E-03    -184.484E-03    -180.434E-03     364.383E-03    -184.484E-03     74.5423E-03     457.633E-03     79.4981E+06     37.1427E+06     9.87971E+06    -52.3918E+06    -52.3782E+06     9.86613E+06     37.1427E+06       554.3E+03
             486     60.8020E-03     7.48588E-03     60.3394E-03     366.148E-03    -182.289E-03    -184.810E-03    -180.844E-03     364.702E-03    -184.810E-03     55.3476E-03     442.046E-03     76.4363E+06     23.9691E+06    -271.166E+03    -61.6436E+06    -61.6366E+06    -278.145E+03     23.9691E+06     224.856E+03
             487     60.6662E-03     6.65398E-03     60.3002E-03     366.312E-03    -181.964E-03    -184.877E-03    -181.261E-03     365.610E-03    -184.877E-03     38.6315E-03     426.959E-03     71.1355E+06     7.88152E+06    -15.8406E+06    -72.0518E+06    -72.0362E+06    -15.8562E+06     7.88152E+06     350.719E+03
             488     60.5510E-03     5.82241E-03     60.2705E-03     367.047E-03    -182.191E-03    -184.716E-03    -181.875E-03     366.732E-03    -184.716E-03     25.4905E-03     413.732E-03     66.2213E+06    -12.6167E+06    -56.8347E+06    -83.8548E+06    -82.6957E+06    -57.9938E+06    -12.6167E+06     630.322E+03
             489     60.4694E-03     4.99174E-03     60.2631E-03     367.655E-03    -182.647E-03    -184.763E-03    -182.538E-03     367.545E-03    -184.763E-03     14.8005E-03     401.927E-03     75.8403E+06    -34.7086E+06    -92.9639E+06    -117.830E+06    -93.1145E+06    -117.679E+06    -34.7086E+06     592.032E+03
             490     60.4100E-03     4.15747E-03     60.2667E-03     367.769E-03    -183.049E-03    -184.932E-03    -183.021E-03     367.741E-03    -184.932E-03     6.87407E-03     391.947E-03     99.8735E+06    -55.5201E+06    -102.533E+06    -169.502E+06    -102.537E+06    -169.498E+06    -55.5201E+06     263.824E+03
             491     60.3645E-03     3.32417E-03     60.2729E-03     368.481E-03    -183.882E-03    -185.077E-03    -183.877E-03     368.477E-03    -185.077E-03     847.368E-06     384.312E-03     123.220E+06    -75.8499E+06    -111.224E+06    -212.616E+06    -111.232E+06    -212.609E+06    -75.8499E+06     292.078E+03
             492     60.3360E-03     2.49450E-03     60.2844E-03     369.694E-03    -184.727E-03    -185.176E-03    -184.831E-03     369.690E-03    -185.067E-03    -2.74382E-03     378.559E-03     137.830E+06    -97.5273E+06    -120.430E+06    -245.230E+06    -120.440E+06    -245.220E+06    -97.5273E+06     5.60131E+03
             493     60.3202E-03     1.66405E-03     60.2973E-03     369.718E-03    -184.728E-03    -185.058E-03    -184.897E-03     369.713E-03    -184.883E-03    -3.24720E-03     373.833E-03     147.461E+06    -115.418E+06    -127.061E+06    -268.275E+06    -127.073E+06    -268.263E+06    -115.418E+06     420.116E+03
             494     60.3094E-03     832.534E-06     60.3037E-03     369.383E-03    -184.195E-03    -185.230E-03    -185.070E-03     369.378E-03    -184.350E-03    -2.20206E-03     370.772E-03     159.726E+06    -126.111E+06    -130.967E+06    -288.190E+06    -129.947E+06    -288.182E+06    -127.140E+06     927.728E+03
             495     62.0424E-03     14.1481E-03     60.4077E-03     394.173E-03    -184.379E-03    -209.632E-03    -189.980E-03     374.521E-03    -184.379E-03     203.229E-03     517.954E-03     81.5291E+06     86.9616E+06     53.4530E+06    -5.84184E+06    -5.83108E+06     53.4423E+06     86.9616E+06    -105.633E+03
             496     61.4702E-03     13.3127E-03     60.0113E-03     395.596E-03    -184.005E-03    -211.281E-03    -189.789E-03     374.103E-03    -184.005E-03     217.954E-03     538.106E-03     73.1452E+06     71.7576E+06     46.2462E+06    -10.7258E+06    -10.7215E+06     46.2419E+06     71.7576E+06     179.639E+03
             497     61.0890E-03     12.4824E-03     59.8002E-03     382.022E-03    -184.083E-03    -198.133E-03    -185.082E-03     368.972E-03    -184.083E-03     171.518E-03     507.466E-03     71.5914E+06     64.5042E+06     38.9575E+06    -16.3544E+06    -16.3453E+06     38.9485E+06     64.5042E+06     438.647E+03
             498     60.6762E-03     11.6511E-03     59.5471E-03     379.223E-03    -184.542E-03    -195.402E-03    -183.242E-03     367.064E-03    -184.542E-03     164.239E-03     506.402E-03     76.5291E+06     64.5842E+06     34.9439E+06    -22.3102E+06    -22.2948E+06     34.9285E+06     64.5842E+06     447.075E+03
             499     60.3455E-03     10.8158E-03     59.3684E-03     373.002E-03    -184.630E-03    -189.143E-03    -180.676E-03     364.535E-03    -184.630E-03     136.828E-03     494.017E-03     82.4992E+06     66.3843E+06     32.4341E+06    -27.6719E+06    -27.6623E+06     32.4244E+06     66.3843E+06     306.448E+03
             500     60.0372E-03     9.98338E-03     59.2014E-03     371.381E-03    -184.311E-03    -187.119E-03    -180.464E-03     364.727E-03    -184.311E-03     120.755E-03     487.381E-03     85.4185E+06     62.0800E+06     27.9597E+06    -35.1175E+06    -35.1078E+06     27.9500E+06     62.0800E+06     315.784E+03
             501     59.7682E-03     9.15114E-03     59.0635E-03     369.006E-03    -183.737E-03    -185.193E-03    -180.362E-03     364.635E-03    -184.197E-03     97.1450E-03     473.515E-03     83.3629E+06     51.0171E+06     19.9517E+06    -43.4104E+06    -43.3972E+06     19.9385E+06     51.0171E+06     490.116E+03
             502     59.5518E-03     8.32081E-03     58.9677E-03     366.583E-03    -182.747E-03    -184.432E-03    -180.164E-03     364.001E-03    -184.432E-03     74.5555E-03     457.466E-03     79.4878E+06     37.3042E+06     10.3117E+06    -52.1524E+06    -52.1201E+06     10.2794E+06     37.3042E+06     1.20840E+06
             503     59.3706E-03     7.48650E-03     58.8966E-03     365.633E-03    -181.810E-03    -184.812E-03    -180.363E-03     364.187E-03    -184.812E-03     55.3308E-03     441.561E-03     76.5630E+06     23.6425E+06    -350.045E+03    -62.0416E+06    -61.9825E+06    -409.158E+03     23.6425E+06     1.51944E+06
             504     59.2243E-03     6.65415E-03     58.8493E-03     365.979E-03    -181.558E-03    -184.941E-03    -180.850E-03     365.271E-03    -184.941E-03     38.7364E-03     426.557E-03     72.4981E+06     8.04576E+06    -15.3393E+06    -73.2496E+06    -73.2028E+06    -15.3861E+06     8.04576E+06     1.28947E+06
             505     59.1142E-03     5.82178E-03     58.8269E-03     366.758E-03    -181.786E-03    -184.847E-03    -181.466E-03     366.438E-03    -184.847E-03     25.6787E-03     413.473E-03     66.7280E+06    -13.1005E+06    -56.5373E+06    -84.6203E+06    -83.7985E+06    -57.3592E+06    -13.1005E+06     739.142E+03
             506     59.0274E-03     4.98656E-03     58.8164E-03     367.898E-03    -182.711E-03    -184.929E-03    -182.601E-03     367.788E-03    -184.929E-03     14.7170E-03     402.179E-03     75.3576E+06    -34.7914E+06    -92.6276E+06    -117.260E+06    -92.7412E+06    -117.146E+06    -34.7914E+06    -129.917E+03
             507     58.9657E-03     4.15785E-03     58.8189E-03     368.963E-03    -184.036E-03    -185.063E-03    -184.060E-03     368.938E-03    -185.013E-03     6.38529E-03     393.105E-03     100.470E+06    -54.2691E+06    -101.383E+06    -168.929E+06    -101.405E+06    -168.907E+06    -54.2691E+06     64.4850E+03
             508     58.9220E-03     3.32788E-03     58.8280E-03     368.984E-03    -184.318E-03    -185.024E-03    -184.364E-03     368.981E-03    -184.974E-03     722.372E-06     384.629E-03     123.462E+06    -75.2545E+06    -111.033E+06    -212.397E+06    -111.047E+06    -212.383E+06    -75.2545E+06     771.394E+03
             509     58.8896E-03     2.49434E-03     58.8367E-03     369.097E-03    -184.184E-03    -185.066E-03    -184.281E-03     369.093E-03    -184.964E-03    -2.57658E-03     377.896E-03     137.615E+06    -96.5283E+06    -119.606E+06    -244.065E+06    -119.617E+06    -244.054E+06    -96.5283E+06     386.556E+03
             510     58.8746E-03     1.66303E-03     58.8511E-03     369.592E-03    -184.542E-03    -185.099E-03    -184.757E-03     369.588E-03    -184.881E-03    -2.66162E-03     373.774E-03     148.164E+06    -114.913E+06    -126.391E+06    -268.396E+06    -126.406E+06    -268.380E+06    -114.913E+06     45.8262E+03
             511     58.8656E-03     831.460E-06     58.8597E-03     369.480E-03    -184.539E-03    -184.965E-03    -184.962E-03     369.478E-03    -184.539E-03    -1.44229E-03     370.881E-03     158.925E+06    -126.476E+06    -133.080E+06    -288.581E+06    -132.062E+06    -288.571E+06    -127.504E+06     394.652E+03
             512     60.6321E-03     14.1458E-03     58.9588E-03     394.426E-03    -184.391E-03    -209.896E-03    -190.430E-03     374.961E-03    -184.391E-03     202.722E-03     518.522E-03     81.3668E+06     87.4754E+06     53.7297E+06    -5.21966E+06    -5.21331E+06     53.7234E+06     87.4754E+06     352.998E+03
             513     60.0627E-03     13.3168E-03     58.5678E-03     395.687E-03    -183.979E-03    -211.463E-03    -190.164E-03     374.388E-03    -183.979E-03     217.307E-03     538.477E-03     73.2303E+06     71.7588E+06     46.3999E+06    -10.7643E+06    -10.7518E+06     46.3874E+06     71.7588E+06     344.693E+03
             514     59.6697E-03     12.4830E-03     58.3493E-03     381.343E-03    -184.066E-03    -197.484E-03    -184.437E-03     368.297E-03    -184.066E-03     171.309E-03     506.705E-03     71.1082E+06     63.5457E+06     38.7671E+06    -16.6234E+06    -16.6126E+06     38.7563E+06     63.5457E+06     221.996E+03
             515     59.2599E-03     11.6492E-03     58.1036E-03     378.770E-03    -184.556E-03    -194.854E-03    -182.797E-03     366.713E-03    -184.556E-03     163.333E-03     506.140E-03     76.3091E+06     64.8836E+06     35.7652E+06    -21.6818E+06    -21.6786E+06     35.7620E+06     64.8836E+06    -242.678E+03
             516     58.9236E-03     10.8167E-03     57.9223E-03     373.816E-03    -184.618E-03    -189.984E-03    -181.626E-03     365.459E-03    -184.618E-03     136.165E-03     494.808E-03     82.4901E+06     65.2963E+06     32.3485E+06    -28.5712E+06    -28.5591E+06     32.3364E+06     65.2963E+06    -445.139E+03
             517     58.6106E-03     9.98600E-03     57.7536E-03     371.392E-03    -184.267E-03    -187.241E-03    -180.643E-03     364.793E-03    -184.267E-03     120.304E-03     487.521E-03     85.2431E+06     60.3828E+06     26.9510E+06    -36.5053E+06    -36.4926E+06     26.9382E+06     60.3828E+06    -377.201E+03
             518     58.3415E-03     9.15174E-03     57.6192E-03     367.971E-03    -183.111E-03    -184.716E-03    -179.202E-03     363.544E-03    -184.198E-03     97.7228E-03     472.381E-03     83.4233E+06     50.0715E+06     19.1421E+06    -44.3923E+06    -44.3825E+06     19.1323E+06     50.0715E+06     389.541E+03
             519     58.1183E-03     8.31692E-03     57.5201E-03     366.490E-03    -182.505E-03    -184.502E-03    -179.802E-03     363.787E-03    -184.502E-03     76.2670E-03     457.385E-03     79.8802E+06     36.7253E+06     9.61651E+06    -53.1699E+06    -53.1369E+06     9.58359E+06     36.7253E+06     1.25869E+06
             520     57.9373E-03     7.48703E-03     57.4515E-03     366.387E-03    -182.481E-03    -184.877E-03    -180.956E-03     364.862E-03    -184.877E-03     56.9034E-03     442.395E-03     77.1157E+06     23.8006E+06    -420.462E+03    -62.5163E+06    -62.4430E+06    -493.773E+03     23.8006E+06     1.98478E+06
             521     57.7899E-03     6.65338E-03     57.4056E-03     366.196E-03    -181.733E-03    -184.965E-03    -181.026E-03     365.489E-03    -184.965E-03     38.4059E-03     426.689E-03     72.3265E+06     9.53744E+06    -13.6387E+06    -71.5303E+06    -71.4765E+06    -13.6924E+06     9.53744E+06     1.60778E+06
             522     57.6732E-03     5.81981E-03     57.3788E-03     367.022E-03    -181.978E-03    -184.860E-03    -181.700E-03     366.744E-03    -184.860E-03     23.8707E-03     413.679E-03     66.1833E+06    -11.0303E+06    -54.0987E+06    -81.8495E+06    -81.0892E+06    -54.8591E+06    -11.0303E+06     401.125E+03
             523     57.5867E-03     4.99086E-03     57.3700E-03     368.161E-03    -182.904E-03    -184.916E-03    -182.813E-03     368.069E-03    -184.916E-03     13.4894E-03     402.154E-03     75.1622E+06    -34.5061E+06    -92.1047E+06    -116.709E+06    -92.1537E+06    -116.660E+06    -34.5061E+06     29.1861E+03
             524     57.5213E-03     4.15672E-03     57.3709E-03     368.671E-03    -183.707E-03    -185.048E-03    -183.735E-03     368.649E-03    -184.999E-03     6.14630E-03     392.619E-03     100.253E+06    -55.8434E+06    -102.413E+06    -170.194E+06    -102.455E+06    -170.151E+06    -55.8434E+06     39.8489E+03
             525     57.4764E-03     3.32554E-03     57.3802E-03     368.917E-03    -184.200E-03    -185.066E-03    -184.247E-03     368.914E-03    -185.016E-03     1.20944E-03     384.615E-03     123.629E+06    -75.0262E+06    -110.600E+06    -212.308E+06    -110.617E+06    -212.290E+06    -75.0262E+06     238.100E+03
             526     57.4474E-03     2.49549E-03     57.3932E-03     369.145E-03    -184.291E-03    -185.035E-03    -184.294E-03     369.142E-03    -185.030E-03    -1.75077E-03     378.005E-03     137.815E+06    -94.8530E+06    -118.498E+06    -242.816E+06    -118.502E+06    -242.812E+06    -94.8530E+06     409.586E+03
             527     57.4283E-03     1.66216E-03     57.4042E-03     369.560E-03    -184.617E-03    -185.011E-03    -184.666E-03     369.555E-03    -184.957E-03    -3.10566E-03     373.784E-03     148.027E+06    -113.894E+06    -125.835E+06    -267.433E+06    -125.847E+06    -267.420E+06    -113.894E+06     316.556E+03
             528     57.4180E-03     831.512E-06     57.4119E-03     369.809E-03    -184.566E-03    -185.281E-03    -185.276E-03     369.804E-03    -184.567E-03    -2.66720E-03     371.281E-03     160.220E+06    -124.092E+06    -132.906E+06    -288.516E+06    -129.737E+06    -288.497E+06    -127.280E+06    -475.190E+03
             529     59.2289E-03     14.1489E-03     57.5141E-03     394.756E-03    -184.347E-03    -210.216E-03    -190.847E-03     375.387E-03    -184.347E-03     201.913E-03     518.665E-03     81.7124E+06     88.1807E+06     53.4706E+06    -5.05694E+06    -5.05309E+06     53.4667E+06     88.1807E+06     138.785E+03
             530     58.6483E-03     13.3144E-03     57.1170E-03     395.216E-03    -183.945E-03    -210.931E-03    -189.583E-03     373.869E-03    -183.945E-03     217.472E-03     538.015E-03     73.1434E+06     71.8330E+06     45.8605E+06    -10.7349E+06    -10.7229E+06     45.8484E+06     71.8330E+06     263.032E+03
             531     58.2601E-03     12.4830E-03     56.9070E-03     380.922E-03    -184.062E-03    -196.969E-03    -183.946E-03     367.900E-03    -184.062E-03     171.077E-03     506.282E-03     70.4259E+06     63.6832E+06     39.5511E+06    -15.6202E+06    -15.5997E+06     39.5306E+06     63.6832E+06     545.665E+03
             532     57.8425E-03     11.6495E-03     56.6572E-03     378.937E-03    -184.562E-03    -194.987E-03    -182.915E-03     366.865E-03    -184.562E-03     163.589E-03     506.137E-03     75.9005E+06     64.4686E+06     36.4537E+06    -21.4368E+06    -21.4259E+06     36.4428E+06     64.4686E+06     208.615E+03
             533     57.4994E-03     10.8186E-03     56.4724E-03     373.747E-03    -184.617E-03    -189.889E-03    -181.349E-03     365.207E-03    -184.617E-03     137.609E-03     494.489E-03     82.4010E+06     64.5926E+06     32.5441E+06    -29.0169E+06    -29.0011E+06     32.5283E+06     64.5926E+06    -128.589E+03
             534     57.1857E-03     9.98498E-03     56.3073E-03     370.998E-03    -184.280E-03    -186.744E-03    -179.974E-03     364.228E-03    -184.280E-03     121.735E-03     487.019E-03     84.9995E+06     59.3788E+06     26.5792E+06    -37.1323E+06    -37.1160E+06     26.5628E+06     59.3788E+06    -42.8295E+03
             535     56.9158E-03     9.15031E-03     56.1754E-03     368.068E-03    -183.284E-03    -184.600E-03    -179.106E-03     363.562E-03    -184.272E-03     98.5235E-03     472.625E-03     83.2532E+06     48.5766E+06     17.8948E+06    -45.6574E+06    -45.6529E+06     17.8902E+06     48.5766E+06     334.618E+03
             536     56.6892E-03     8.31756E-03     56.0757E-03     366.745E-03    -182.712E-03    -184.591E-03    -180.031E-03     364.064E-03    -184.591E-03     75.8939E-03     457.513E-03     80.0230E+06     36.1933E+06     9.02970E+06    -53.8662E+06    -53.8589E+06     9.02247E+06     36.1933E+06     640.517E+03
             537     56.4996E-03     7.48296E-03     56.0019E-03     366.840E-03    -182.974E-03    -184.909E-03    -181.528E-03     365.395E-03    -184.909E-03     55.2316E-03     443.038E-03     77.1099E+06     23.6378E+06    -423.399E+03    -62.6299E+06    -62.6026E+06    -450.675E+03     23.6378E+06     494.642E+03
             538     56.3534E-03     6.65445E-03     55.9591E-03     367.009E-03    -182.614E-03    -184.921E-03    -181.961E-03     366.356E-03    -184.921E-03     37.0505E-03     427.570E-03     72.8990E+06     9.82845E+06    -12.6428E+06    -71.6545E+06    -71.6278E+06    -12.6695E+06     9.82845E+06     431.288E+03
             539     56.2367E-03     5.82375E-03     55.9344E-03     367.245E-03    -182.342E-03    -184.709E-03    -182.071E-03     366.974E-03    -184.709E-03     23.6547E-03     413.845E-03     67.6257E+06    -9.89519E+06    -52.9548E+06    -82.3210E+06    -81.5019E+06    -53.7739E+06    -9.89519E+06     797.706E+03
             540     56.1443E-03     4.98876E-03     55.9222E-03     367.680E-03    -182.565E-03    -184.740E-03    -182.475E-03     367.591E-03    -184.740E-03     13.2387E-03     401.718E-03     75.4071E+06    -33.2718E+06    -91.1101E+06    -115.887E+06    -91.5930E+06    -115.404E+06    -33.2718E+06     743.676E+03
             541     56.0807E-03     4.15897E-03     55.9263E-03     367.694E-03    -182.906E-03    -184.932E-03    -182.886E-03     367.674E-03    -184.932E-03     5.85030E-03     391.686E-03     100.274E+06    -55.0447E+06    -100.862E+06    -169.240E+06    -100.889E+06    -169.212E+06    -55.0447E+06    -25.9387E+03
             542     56.0325E-03     3.32559E-03     55.9337E-03     368.356E-03    -183.699E-03    -185.118E-03    -183.697E-03     368.353E-03    -185.118E-03     930.535E-06     384.280E-03     124.296E+06    -75.5086E+06    -110.038E+06    -213.203E+06    -110.060E+06    -213.180E+06    -75.5086E+06    -712.794E+03
             543     56.0013E-03     2.49294E-03     55.9458E-03     369.745E-03    -184.697E-03    -185.246E-03    -184.780E-03     369.743E-03    -185.160E-03    -1.98090E-03     378.692E-03     138.163E+06    -95.0419E+06    -118.288E+06    -243.231E+06    -118.305E+06    -243.213E+06    -95.0419E+06    -232.816E+03
             544     55.9811E-03     1.66406E-03     55.9564E-03     369.892E-03    -184.936E-03    -185.023E-03    -185.016E-03     369.887E-03    -184.938E-03    -3.21863E-03     374.074E-03     148.124E+06    -113.157E+06    -124.470E+06    -266.482E+06    -124.495E+06    -266.456E+06    -113.157E+06    -20.6151E+03
             545     55.9736E-03     831.529E-06     55.9674E-03     369.622E-03    -184.469E-03    -185.177E-03    -184.883E-03     369.618E-03    -184.760E-03    -2.35046E-03     371.094E-03     161.702E+06    -122.210E+06    -130.722E+06    -287.956E+06    -127.579E+06    -287.911E+06    -125.398E+06    -107.272E+03
             546     57.8234E-03     14.1486E-03     56.0657E-03     394.778E-03    -184.327E-03    -210.318E-03    -190.758E-03     375.218E-03    -184.327E-03     202.979E-03     518.680E-03     81.9006E+06     87.7393E+06     52.8733E+06    -5.72159E+06    -5.72019E+06     52.8719E+06     87.7393E+06    -37.6308E+03
             547     57.2456E-03     13.3166E-03     55.6752E-03     395.025E-03    -183.931E-03    -210.755E-03    -189.343E-03     373.614E-03    -183.931E-03     217.492E-03     537.887E-03     73.2894E+06     72.4741E+06     45.7972E+06    -10.4145E+06    -10.4125E+06     45.7951E+06     72.4741E+06     2.55931E+03
             548     56.8462E-03     12.4822E-03     55.4589E-03     380.904E-03    -184.071E-03    -196.964E-03    -183.919E-03     367.858E-03    -184.071E-03     171.144E-03     506.405E-03     70.5577E+06     64.4110E+06     39.7166E+06    -15.1685E+06    -15.1580E+06     39.7061E+06     64.4110E+06     410.752E+03
             549     56.4285E-03     11.6508E-03     55.2127E-03     378.757E-03    -184.579E-03    -194.912E-03    -182.671E-03     366.516E-03    -184.579E-03     164.709E-03     505.868E-03     75.7460E+06     63.8437E+06     36.5331E+06    -21.7532E+06    -21.7321E+06     36.5120E+06     63.8437E+06     755.648E+03
             550     56.0792E-03     10.8154E-03     55.0264E-03     372.827E-03    -184.669E-03    -188.985E-03    -180.350E-03     364.192E-03    -184.669E-03     138.127E-03     493.682E-03     82.0191E+06     64.0966E+06     32.7949E+06    -28.9579E+06    -28.9406E+06     32.7776E+06     64.0966E+06     635.223E+03
             551     55.7637E-03     9.98185E-03     54.8630E-03     370.979E-03    -184.363E-03    -186.757E-03    -180.005E-03     364.226E-03    -184.363E-03     121.506E-03     487.239E-03     84.9117E+06     59.6168E+06     27.0418E+06    -36.7580E+06    -36.7515E+06     27.0354E+06     59.6168E+06     294.003E+03
             552     55.4879E-03     9.14878E-03     54.7285E-03     369.361E-03    -184.065E-03    -185.311E-03    -180.671E-03     364.958E-03    -184.303E-03     97.5422E-03     474.437E-03     83.4142E+06     49.3647E+06     18.6305E+06    -45.0516E+06    -45.0497E+06     18.6286E+06     49.3647E+06    -58.2756E+03
             553     55.2580E-03     8.31746E-03     54.6285E-03     367.830E-03    -183.686E-03    -184.675E-03    -181.282E-03     365.256E-03    -184.504E-03     74.5147E-03     458.765E-03     79.9120E+06     35.8853E+06     8.83423E+06    -54.0283E+06    -54.0228E+06     8.82868E+06     35.8853E+06    -94.6333E+03
             554     55.0659E-03     7.48861E-03     54.5543E-03     366.501E-03    -182.672E-03    -184.776E-03    -181.301E-03     365.130E-03    -184.776E-03     53.7429E-03     442.451E-03     77.3950E+06     24.2148E+06    -7.23931E+03    -62.3917E+06    -62.3790E+06    -19.9917E+03     24.2148E+06    -263.099E+03
             555     54.9145E-03     6.65417E-03     54.5099E-03     366.190E-03    -181.878E-03    -184.825E-03    -181.246E-03     365.558E-03    -184.825E-03     36.6496E-03     426.800E-03     73.6397E+06     10.0049E+06    -12.9640E+06    -72.3748E+06    -72.3655E+06    -12.9733E+06     10.0049E+06    -167.808E+03
             556     54.7962E-03     5.82212E-03     54.4860E-03     366.983E-03    -182.123E-03    -184.633E-03    -181.831E-03     366.691E-03    -184.633E-03     24.6044E-03     413.738E-03     67.8643E+06    -10.9376E+06    -53.8939E+06    -83.7750E+06    -83.0815E+06    -54.5874E+06    -10.9376E+06     216.236E+03
             557     54.7071E-03     4.99269E-03     54.4788E-03     367.502E-03    -182.458E-03    -184.687E-03    -182.356E-03     367.399E-03    -184.687E-03     14.1888E-03     401.558E-03     74.7095E+06    -32.8754E+06     -91.145E+06    -114.767E+06    -91.9892E+06    -113.923E+06    -32.8754E+06     290.201E+03
             558     54.6386E-03     4.15752E-03     54.4802E-03     367.782E-03    -183.075E-03    -184.890E-03    -183.051E-03     367.758E-03    -184.890E-03     6.34560E-03     391.817E-03     99.4720E+06    -54.6921E+06    -101.621E+06    -168.017E+06    -101.635E+06    -168.003E+06    -54.6921E+06     372.545E+03
             559     54.5910E-03     3.32551E-03     54.4896E-03     368.423E-03    -183.855E-03    -185.005E-03    -183.852E-03     368.420E-03    -185.005E-03     853.577E-06     384.281E-03     121.992E+06    -77.8612E+06    -111.601E+06    -212.885E+06    -111.625E+06    -212.861E+06    -77.8612E+06     174.571E+03
             560     54.5531E-03     2.49487E-03     54.4960E-03     369.265E-03    -184.275E-03    -185.151E-03    -184.353E-03     369.261E-03    -185.069E-03    -2.74086E-03     378.140E-03     136.321E+06    -98.6648E+06    -119.334E+06    -243.988E+06    -119.397E+06    -243.924E+06    -98.6648E+06    -854.148E+03
             561     54.5368E-03     1.66216E-03     54.5114E-03     369.796E-03    -184.720E-03    -185.145E-03    -184.795E-03     369.790E-03    -185.064E-03    -3.62201E-03     374.004E-03     147.995E+06    -114.833E+06    -124.699E+06    -267.416E+06    -124.756E+06    -267.359E+06    -114.833E+06    -1.31942E+06
             562     54.5269E-03     831.620E-06     54.5206E-03     370.053E-03    -184.616E-03    -185.436E-03    -185.117E-03     370.050E-03    -184.932E-03    -2.50897E-03     371.508E-03     161.236E+06    -123.239E+06    -131.492E+06    -288.403E+06    -128.535E+06    -288.363E+06    -126.237E+06    -388.080E+03
             563     56.4242E-03     14.1472E-03     54.6218E-03     394.603E-03    -184.351E-03    -210.192E-03    -190.483E-03     374.894E-03    -184.351E-03     203.608E-03     518.729E-03     81.7852E+06     87.4734E+06     52.7612E+06    -5.83226E+06    -5.82546E+06     52.7544E+06     87.4734E+06    -305.816E+03
             564     55.8353E-03     13.3142E-03     54.2246E-03     395.624E-03    -183.966E-03    -211.388E-03    -189.813E-03     374.049E-03    -183.966E-03     218.419E-03     538.215E-03     73.6785E+06     72.1692E+06     45.6299E+06    -11.0982E+06    -11.0965E+06     45.6282E+06     72.1692E+06     144.971E+03
             565     55.4411E-03     12.4836E-03     54.0173E-03     381.298E-03    -184.103E-03    -197.399E-03    -184.238E-03     368.137E-03    -184.103E-03     171.962E-03     506.711E-03     70.7226E+06     63.9601E+06     38.8485E+06    -15.8904E+06    -15.8881E+06     38.8462E+06     63.9601E+06     328.410E+03
             566     55.0106E-03     11.6483E-03     53.7632E-03     378.827E-03    -184.621E-03    -194.913E-03    -182.677E-03     366.591E-03    -184.621E-03     164.517E-03     506.167E-03     75.5853E+06     64.2927E+06     36.6333E+06    -21.2222E+06    -21.2096E+06     36.6206E+06     64.2927E+06     606.110E+03
             567     54.6650E-03     10.8162E-03     53.5843E-03     373.250E-03    -184.697E-03    -189.351E-03    -180.954E-03     364.853E-03    -184.697E-03     136.309E-03     494.330E-03     81.9965E+06     65.2107E+06     33.8107E+06    -27.8379E+06    -27.8212E+06     33.7939E+06     65.2107E+06     711.251E+03
             568     54.3381E-03     9.98201E-03     53.4134E-03     371.311E-03    -184.347E-03    -187.165E-03    -180.663E-03     364.809E-03    -184.347E-03     119.321E-03     487.708E-03     85.0583E+06     60.8585E+06     27.8257E+06    -35.7591E+06    -35.7505E+06     27.8172E+06     60.8585E+06     564.978E+03
             569     54.0579E-03     9.15045E-03     53.2778E-03     369.465E-03    -184.184E-03    -185.290E-03    -180.978E-03     365.184E-03    -184.215E-03     96.3432E-03     474.501E-03     83.3401E+06     49.6504E+06     19.0697E+06    -44.6484E+06    -44.6435E+06     19.0649E+06     49.6504E+06     269.492E+03
             570     53.8251E-03     8.32087E-03     53.1781E-03     367.653E-03    -183.618E-03    -184.548E-03    -181.207E-03     365.072E-03    -184.378E-03     74.6529E-03     458.923E-03     79.6499E+06     35.9163E+06     9.42828E+06    -53.5908E+06    -53.5839E+06     9.42136E+06     35.9163E+06    -376.668E+03
             571     53.6328E-03     7.48727E-03     53.1076E-03     365.874E-03    -182.155E-03    -184.692E-03    -180.731E-03     364.451E-03    -184.692E-03     54.9015E-03     441.875E-03     77.3015E+06     23.6425E+06    -339.255E+03    -62.8056E+06    -62.7966E+06    -348.198E+03     23.6425E+06    -475.784E+03
             572     53.4797E-03     6.65599E-03     53.0639E-03     365.418E-03    -181.129E-03    -184.814E-03    -180.444E-03     364.733E-03    -184.814E-03     38.0415E-03     425.896E-03     72.8756E+06     9.35843E+06    -13.6695E+06    -72.2434E+06    -72.2391E+06    -13.6738E+06     9.35843E+06    -161.348E+03
             573     53.3557E-03     5.82243E-03     53.0371E-03     366.456E-03    -181.513E-03    -184.718E-03    -181.207E-03     366.150E-03    -184.718E-03     25.0805E-03     413.207E-03     66.4908E+06    -11.3884E+06    -54.3038E+06    -82.4458E+06    -82.2131E+06    -54.5365E+06    -11.3884E+06    -334.104E+03
             574     53.2644E-03     4.98793E-03     53.0304E-03     367.944E-03    -182.812E-03    -184.798E-03    -182.707E-03     367.839E-03    -184.798E-03     14.5594E-03     402.117E-03     73.9678E+06    -34.4021E+06    -92.6126E+06    -115.120E+06    -93.0934E+06    -114.640E+06    -34.4021E+06    -144.819E+03
             575     53.1968E-03     4.15841E-03     53.0340E-03     368.718E-03    -184.006E-03    -184.879E-03    -183.980E-03     368.692E-03    -184.879E-03     6.56217E-03     392.753E-03     98.9276E+06    -55.0777E+06    -102.514E+06    -167.904E+06    -102.537E+06    -167.882E+06    -55.0777E+06     658.978E+03
             576     53.1437E-03     3.32772E-03     53.0394E-03     368.511E-03    -184.071E-03    -184.839E-03    -184.068E-03     368.509E-03    -184.839E-03     941.711E-06     384.320E-03     120.926E+06    -76.4307E+06    -110.925E+06    -210.558E+06    -110.948E+06    -210.535E+06    -76.4307E+06     785.938E+03
             577     53.1115E-03     2.49482E-03     53.0528E-03     368.604E-03    -183.865E-03    -184.903E-03    -183.862E-03     368.601E-03    -184.903E-03    -2.22422E-03     377.532E-03     135.308E+06    -99.0848E+06    -119.613E+06    -243.298E+06    -119.689E+06    -243.222E+06    -99.0848E+06     37.9687E+03
             578     53.0899E-03     1.66302E-03     53.0639E-03     369.408E-03    -184.459E-03    -185.030E-03    -184.453E-03     369.402E-03    -185.030E-03    -3.63060E-03     373.587E-03     147.766E+06    -117.114E+06    -126.680E+06    -269.354E+06    -126.765E+06    -269.269E+06    -117.114E+06    -883.429E+03
             579     53.0816E-03     831.038E-06     53.0751E-03     370.138E-03    -184.578E-03    -185.573E-03    -185.484E-03     370.134E-03    -184.662E-03    -2.82340E-03     371.573E-03     161.046E+06    -124.799E+06    -133.749E+06    -290.091E+06    -130.783E+06    -290.059E+06    -127.797E+06    -1.06119E+06
             580     55.0238E-03     14.1466E-03     53.1742E-03     394.199E-03    -184.375E-03    -209.633E-03    -189.916E-03     374.482E-03    -184.375E-03     203.482E-03     517.926E-03     81.2091E+06     87.3696E+06     53.3833E+06    -5.19217E+06    -5.18534E+06     53.3765E+06     87.3696E+06    -34.1133E+03
             581     54.4332E-03     13.3136E-03     52.7800E-03     395.796E-03    -184.028E-03    -211.438E-03    -189.888E-03     374.247E-03    -184.028E-03     218.207E-03     538.087E-03     73.1479E+06     71.4713E+06     45.7124E+06    -11.0684E+06    -11.0667E+06     45.7107E+06     71.4713E+06     145.335E+03
             582     54.0282E-03     12.4804E-03     52.5670E-03     381.713E-03    -184.126E-03    -197.677E-03    -184.801E-03     368.837E-03    -184.126E-03     170.306E-03     507.539E-03     70.6059E+06     62.8141E+06     38.3400E+06    -16.7713E+06    -16.7433E+06     38.3120E+06     62.8141E+06    -471.250E+03
             583     53.6020E-03     11.6501E-03     52.3206E-03     379.266E-03    -184.601E-03    -195.200E-03    -183.226E-03     367.292E-03    -184.601E-03     163.013E-03     506.909E-03     75.6385E+06     64.1330E+06     36.2036E+06    -21.4880E+06    -21.4606E+06     36.1762E+06     64.1330E+06    -511.263E+03
             584     53.2421E-03     10.8161E-03     52.1318E-03     374.113E-03    -184.649E-03    -190.151E-03    -181.777E-03     365.739E-03    -184.649E-03     136.334E-03     495.213E-03     82.2476E+06     66.1006E+06     33.4808E+06    -27.4474E+06    -27.4395E+06     33.4729E+06     66.1006E+06     422.385E+03
             585     52.9176E-03     9.98714E-03     51.9667E-03     371.723E-03    -184.276E-03    -187.472E-03    -180.875E-03     365.126E-03    -184.276E-03     120.363E-03     487.801E-03     85.3624E+06     61.5125E+06     27.9074E+06    -35.5284E+06    -35.4995E+06     27.8785E+06     61.5125E+06     1.22812E+06
             586     52.6309E-03     9.15205E-03     51.8291E-03     368.722E-03    -183.592E-03    -184.882E-03    -179.843E-03     364.242E-03    -184.152E-03     98.4429E-03     472.975E-03     83.1176E+06     50.0455E+06     19.8876E+06    -43.9270E+06    -43.9020E+06     19.8625E+06     50.0455E+06     1.09486E+06
             587     52.3933E-03     8.31893E-03     51.7287E-03     366.666E-03    -182.762E-03    -184.389E-03    -180.087E-03     363.991E-03    -184.389E-03     75.7186E-03     457.717E-03     79.1634E+06     36.3671E+06     10.5585E+06    -52.4682E+06    -52.4602E+06     10.5504E+06     36.3671E+06     337.403E+03
             588     52.2000E-03     7.48721E-03     51.6603E-03     365.667E-03    -181.977E-03    -184.769E-03    -180.538E-03     364.228E-03    -184.769E-03     55.2476E-03     441.798E-03     76.5159E+06     22.9179E+06    -123.269E+03    -62.4692E+06    -62.4608E+06    -131.652E+03     22.9179E+06    -360.476E+03
             589     52.0426E-03     6.65332E-03     51.6155E-03     365.733E-03    -181.401E-03    -184.919E-03    -180.695E-03     365.027E-03    -184.919E-03     38.6154E-03     426.326E-03     72.5717E+06     8.37487E+06    -14.2333E+06    -72.7983E+06    -72.7924E+06    -14.2392E+06     8.37487E+06    -530.046E+03
             590     51.9176E-03     5.82119E-03     51.5903E-03     366.752E-03    -181.788E-03    -184.806E-03    -181.480E-03     366.444E-03    -184.806E-03     25.1087E-03     413.597E-03     66.3880E+06    -12.1229E+06    -54.7612E+06    -83.2344E+06    -83.2230E+06    -54.7726E+06    -12.1229E+06    -163.760E+03
             591     51.8207E-03     4.99024E-03     51.5799E-03     368.114E-03    -182.941E-03    -184.843E-03    -182.839E-03     368.012E-03    -184.843E-03     14.3115E-03     402.250E-03     74.2329E+06    -34.9353E+06    -92.3613E+06    -116.161E+06    -93.2809E+06    -115.241E+06    -34.9353E+06    -66.3660E+03
             592     51.7481E-03     4.15842E-03     51.5808E-03     368.559E-03    -183.822E-03    -184.931E-03    -183.795E-03     368.532E-03    -184.931E-03     7.01097E-03     392.613E-03     98.8825E+06    -55.3935E+06    -102.570E+06    -168.290E+06    -102.589E+06    -168.271E+06    -55.3935E+06     78.8702E+03
             593     51.7028E-03     3.32656E-03     51.5957E-03     368.549E-03    -184.072E-03    -184.927E-03    -184.069E-03     368.545E-03    -184.927E-03     2.04032E-03     384.478E-03     121.400E+06    -76.0563E+06    -111.778E+06    -211.044E+06    -111.819E+06    -211.002E+06    -76.0563E+06     709.150E+03
             594     51.6671E-03     2.49478E-03     51.6068E-03     369.038E-03    -184.246E-03    -184.958E-03    -184.244E-03     369.036E-03    -184.958E-03    -1.39769E-03     377.946E-03     135.449E+06    -96.8462E+06    -119.976E+06    -242.214E+06    -120.029E+06    -242.161E+06    -96.8462E+06     1.45979E+06
             595     51.6461E-03     1.66311E-03     51.6193E-03     369.420E-03    -184.531E-03    -184.948E-03    -184.527E-03     369.416E-03    -184.948E-03    -2.94329E-03     373.529E-03     146.584E+06    -115.867E+06    -126.445E+06    -267.330E+06    -126.520E+06    -267.256E+06    -115.867E+06     1.05599E+06
             596     51.6338E-03     831.718E-06     51.6271E-03     369.886E-03    -184.511E-03    -185.379E-03    -185.248E-03     369.883E-03    -184.638E-03    -2.47936E-03     371.322E-03     161.492E+06    -126.384E+06    -134.963E+06    -291.951E+06    -131.964E+06    -291.891E+06    -129.443E+06    -280.266E+03
             597     53.6294E-03     14.1459E-03     51.7301E-03     394.588E-03    -184.388E-03    -209.976E-03    -190.621E-03     375.234E-03    -184.388E-03     202.322E-03     518.344E-03     80.6826E+06     86.3938E+06     53.4817E+06    -5.36195E+06    -5.36019E+06     53.4800E+06     86.3938E+06     115.964E+03
             598     53.0286E-03     13.3127E-03     51.3303E-03     394.976E-03    -183.980E-03    -210.648E-03    -189.632E-03     373.961E-03    -183.980E-03     215.426E-03     537.999E-03     72.4579E+06     70.9286E+06     45.8258E+06    -10.7265E+06    -10.7119E+06     45.8112E+06     70.9286E+06    -531.499E+03
             599     52.6176E-03     12.4832E-03     51.1154E-03     380.855E-03    -184.080E-03    -196.833E-03    -184.099E-03     368.121E-03    -184.080E-03     169.100E-03     507.386E-03     70.0062E+06     63.1299E+06     38.9766E+06    -15.7441E+06    -15.7042E+06     38.9367E+06     63.1299E+06    -1.15572E+06
             600     52.1879E-03     11.6504E-03     50.8709E-03     379.485E-03    -184.554E-03    -195.480E-03    -183.416E-03     367.421E-03    -184.554E-03     163.809E-03     507.133E-03     75.5439E+06     63.1087E+06     35.7726E+06    -22.2731E+06    -22.2451E+06     35.7445E+06     63.1087E+06    -552.584E+03
             601     51.8249E-03     10.8189E-03     50.6831E-03     373.917E-03    -184.614E-03    -190.049E-03    -181.412E-03     365.280E-03    -184.614E-03     138.411E-03     494.496E-03     82.3817E+06     64.0068E+06     31.3312E+06    -29.6945E+06    -29.6902E+06     31.3270E+06     64.0068E+06     208.439E+03
             602     51.4917E-03     9.98379E-03     50.5145E-03     371.519E-03    -184.298E-03    -187.252E-03    -180.418E-03     364.685E-03    -184.298E-03     122.427E-03     487.297E-03     85.3744E+06     60.7069E+06     27.2570E+06    -36.3172E+06    -36.2907E+06     27.2306E+06     60.7069E+06     349.456E+03
             603     51.2069E-03     9.15164E-03     50.3825E-03     368.660E-03    -183.317E-03    -185.064E-03    -179.604E-03     364.080E-03    -184.197E-03     99.4650E-03     472.805E-03     83.1140E+06     50.5196E+06     20.5079E+06    -43.4205E+06    -43.3897E+06     20.4772E+06     50.5196E+06     711.577E+03
             604     50.9649E-03     8.31822E-03     50.2815E-03     366.212E-03    -182.220E-03    -184.478E-03    -179.527E-03     363.519E-03    -184.478E-03     75.9034E-03     456.945E-03     79.0193E+06     36.6213E+06     10.9461E+06    -52.0304E+06    -52.0217E+06     10.9374E+06     36.6213E+06     588.530E+03
             605     50.7675E-03     7.48497E-03     50.2127E-03     365.846E-03    -182.066E-03    -184.903E-03    -180.618E-03     364.399E-03    -184.903E-03     55.3980E-03     442.013E-03     76.4931E+06     23.4303E+06     495.254E+03    -61.9054E+06    -61.8879E+06     477.797E+03     23.4303E+06     468.147E+03
             606     50.6085E-03     6.65397E-03     50.1691E-03     366.438E-03    -182.057E-03    -185.020E-03    -181.356E-03     365.737E-03    -185.020E-03     38.5236E-03     427.064E-03     72.3562E+06     8.31040E+06    -14.1617E+06    -72.6039E+06    -72.5766E+06    -14.1890E+06     8.31040E+06      564.69E+03
             607     50.4780E-03     5.82154E-03     50.1412E-03     367.143E-03    -182.148E-03    -184.862E-03    -181.835E-03     366.829E-03    -184.862E-03     25.5702E-03     413.846E-03     66.1259E+06    -12.0701E+06    -54.2781E+06    -83.2001E+06    -83.1086E+06    -54.3695E+06    -12.0701E+06     449.829E+03
             608     50.3799E-03     4.98970E-03     50.1322E-03     367.792E-03    -182.553E-03    -184.918E-03    -182.435E-03     367.674E-03    -184.918E-03     15.5131E-03     401.784E-03     74.1355E+06    -34.6880E+06    -91.8376E+06    -116.115E+06    -93.3798E+06    -114.573E+06    -34.6880E+06     437.085E+03
             609     50.3093E-03     4.15689E-03     50.1373E-03     368.290E-03    -183.361E-03    -185.102E-03    -183.329E-03     368.258E-03    -185.102E-03     7.66790E-03     392.271E-03     98.5309E+06    -57.0030E+06    -103.808E+06    -169.423E+06    -103.817E+06    -169.414E+06    -57.0030E+06     145.800E+03
             610     50.2559E-03     3.32474E-03     50.1458E-03     369.056E-03    -184.320E-03    -185.183E-03    -184.316E-03     369.052E-03    -185.183E-03     1.91068E-03     384.869E-03     121.506E+06    -77.1317E+06    -112.726E+06    -212.221E+06    -112.761E+06    -212.185E+06    -77.1317E+06     415.856E+03
             611     50.2223E-03     2.49434E-03     50.1603E-03     369.678E-03    -184.668E-03    -185.175E-03    -184.666E-03     369.676E-03    -185.175E-03    -1.50259E-03     378.490E-03     134.572E+06    -96.9020E+06    -120.310E+06    -241.486E+06    -120.342E+06    -241.454E+06    -96.9020E+06     816.858E+03
             612     50.2008E-03     1.66291E-03     50.1733E-03     369.862E-03    -184.779E-03    -185.112E-03    -184.777E-03     369.859E-03    -185.112E-03    -2.52223E-03     373.967E-03     144.607E+06    -115.207E+06    -126.598E+06    -265.080E+06    -126.631E+06    -265.047E+06    -115.207E+06     1.25814E+06
             613     50.1886E-03     830.991E-06     50.1817E-03     370.165E-03    -184.519E-03    -185.662E-03    -185.558E-03     370.163E-03    -184.621E-03    -2.15813E-03     371.573E-03     161.311E+06    -124.962E+06    -132.694E+06    -289.986E+06    -129.695E+06    -289.926E+06    -128.021E+06     1.18278E+06
             614     52.2298E-03     14.1478E-03     50.2772E-03     395.005E-03    -184.291E-03    -210.503E-03    -191.479E-03     375.980E-03    -184.291E-03     200.594E-03     518.939E-03     80.7574E+06     86.9341E+06     53.9060E+06    -4.91845E+06    -4.91472E+06     53.9023E+06     86.9341E+06    -91.2032E+03
             615     51.6310E-03     13.3198E-03     49.8833E-03     393.609E-03    -183.887E-03    -209.535E-03    -188.579E-03     372.652E-03    -183.887E-03     215.289E-03     537.247E-03     72.6268E+06     71.9232E+06     46.9405E+06    -9.87986E+06    -9.85955E+06     46.9202E+06     71.9232E+06    -431.763E+03
             616     51.2157E-03     12.4823E-03     49.6714E-03     380.176E-03    -184.048E-03    -196.291E-03    -183.078E-03     366.963E-03    -184.048E-03     171.997E-03     506.157E-03     70.1595E+06     62.5806E+06     38.7739E+06    -16.3720E+06    -16.3505E+06     38.7524E+06     62.5806E+06    -10.5010E+03
             617     50.7745E-03     11.6494E-03     49.4200E-03     379.370E-03    -184.585E-03    -195.342E-03    -182.964E-03     366.992E-03    -184.585E-03     165.724E-03     506.427E-03     75.1037E+06     61.7893E+06     35.1109E+06    -22.9884E+06    -22.9828E+06     35.1053E+06     61.7893E+06     320.050E+03
             618     50.4114E-03     10.8162E-03     49.2374E-03     373.784E-03    -184.679E-03    -189.845E-03    -181.108E-03     365.047E-03    -184.679E-03     139.169E-03     494.401E-03     81.9884E+06     63.4785E+06     31.7379E+06    -29.6325E+06    -29.6264E+06     31.7318E+06     63.4785E+06    -158.242E+03
             619     50.0746E-03     9.98400E-03     49.0692E-03     371.417E-03    -184.378E-03    -187.044E-03    -180.154E-03     364.528E-03    -184.378E-03     122.833E-03     487.060E-03     85.1378E+06     59.9426E+06     27.1771E+06    -36.7060E+06    -36.6918E+06     27.1630E+06     59.9426E+06    -886.860E+03
             620     49.7796E-03     9.14947E-03     48.9315E-03     368.825E-03    -183.686E-03    -185.010E-03    -179.833E-03     364.277E-03    -184.314E-03     99.1117E-03     473.348E-03     83.4568E+06     49.6404E+06     19.4113E+06    -44.7097E+06    -44.6838E+06     19.3854E+06     49.6404E+06    -753.525E+03
             621     49.5407E-03     8.31784E-03     48.8375E-03     366.701E-03    -182.710E-03    -184.604E-03    -180.036E-03     364.028E-03    -184.604E-03     75.7444E-03     457.507E-03     79.8160E+06     36.2714E+06     9.96724E+06    -53.3641E+06    -53.3328E+06     9.93597E+06     36.2714E+06     252.534E+03
             622     49.3367E-03     7.48436E-03     48.7657E-03     366.065E-03    -182.214E-03    -184.979E-03    -180.773E-03     364.624E-03    -184.979E-03     55.2416E-03     442.010E-03     76.7288E+06     23.0384E+06    -125.744E+03    -62.6012E+06    -62.5711E+06    -155.851E+03     23.0384E+06     1.02675E+06
             623     49.1717E-03     6.65192E-03     48.7197E-03     366.431E-03    -181.997E-03    -185.084E-03    -181.304E-03     365.738E-03    -185.084E-03     38.3475E-03     427.020E-03     72.1762E+06     8.41437E+06    -13.6931E+06    -72.2239E+06    -72.1977E+06    -13.7192E+06     8.41437E+06     1.06564E+06
             624     49.0403E-03     5.82099E-03     48.6936E-03     367.073E-03    -181.920E-03    -185.015E-03    -181.599E-03     366.753E-03    -185.015E-03     25.9447E-03     413.777E-03     65.5907E+06    -11.7926E+06    -53.4057E+06    -82.1566E+06    -82.0628E+06    -53.4995E+06    -11.7926E+06     763.207E+03
             625     48.9407E-03     4.98773E-03     48.6859E-03     368.174E-03    -182.748E-03    -185.105E-03    -182.628E-03     368.054E-03    -185.105E-03     15.5027E-03     402.277E-03     74.7202E+06    -33.9129E+06    -90.7533E+06    -115.948E+06    -91.9633E+06    -114.738E+06    -33.9129E+06     671.859E+03
             626     48.8654E-03     4.15624E-03     48.6883E-03     369.137E-03    -184.002E-03    -185.204E-03    -183.975E-03     369.110E-03    -185.204E-03     6.90138E-03     393.054E-03     99.9794E+06    -54.8936E+06    -101.569E+06    -168.942E+06    -101.579E+06    -168.931E+06    -54.8936E+06     588.525E+03
             627     48.8114E-03     3.32545E-03     48.6980E-03     369.312E-03    -184.451E-03    -185.239E-03    -184.447E-03     369.308E-03    -185.239E-03     673.636E-06     384.992E-03     122.471E+06    -75.6692E+06    -110.592E+06    -211.547E+06    -110.599E+06    -211.540E+06    -75.6692E+06    -82.6663E+03
             628     48.7770E-03     2.49322E-03     48.7133E-03     369.586E-03    -184.519E-03    -185.261E-03    -184.515E-03     369.582E-03    -185.261E-03    -2.71119E-03     378.443E-03     135.823E+06    -95.9654E+06    -118.446E+06    -241.477E+06    -118.458E+06    -241.466E+06    -95.9654E+06    -258.153E+03
             629     48.7557E-03     1.66214E-03     48.7274E-03     370.122E-03    -184.885E-03    -185.288E-03    -184.881E-03     370.117E-03    -185.288E-03    -2.97859E-03     374.244E-03     145.684E+06    -114.534E+06    -124.830E+06    -264.996E+06    -124.840E+06    -264.985E+06    -114.534E+06     250.174E+03
             630     48.7414E-03     831.422E-06     48.7343E-03     370.562E-03    -184.708E-03    -185.878E-03    -185.780E-03     370.560E-03    -184.804E-03    -1.78491E-03     371.963E-03     160.984E+06    -124.481E+06    -129.603E+06    -287.963E+06    -128.464E+06    -287.930E+06    -125.652E+06     535.621E+03
             631     50.8373E-03     14.1532E-03     48.8274E-03     393.926E-03    -184.222E-03    -209.442E-03    -190.097E-03     374.580E-03    -184.222E-03     200.378E-03     518.113E-03     81.2088E+06     86.9463E+06     53.3960E+06    -5.47772E+06    -5.43035E+06     53.3486E+06     86.9463E+06    -701.812E+03
             632     50.2365E-03     13.3139E-03     48.4401E-03     393.504E-03    -183.951E-03    -209.331E-03    -187.604E-03     371.777E-03    -183.951E-03     218.907E-03     536.816E-03     72.9242E+06     71.0621E+06     46.0881E+06    -11.0595E+06    -11.0501E+06     46.0786E+06     71.0621E+06     373.015E+03
             633     49.8142E-03     12.4825E-03     48.2249E-03     381.128E-03    -184.151E-03    -197.146E-03    -183.687E-03     367.669E-03    -184.151E-03     173.957E-03     506.226E-03     70.5707E+06     63.4530E+06     38.9332E+06    -16.0981E+06    -16.0573E+06     38.8925E+06     63.4530E+06     1.28142E+06
             634     49.3678E-03     11.6481E-03     47.9740E-03     379.150E-03    -184.683E-03    -194.975E-03    -182.621E-03     366.796E-03    -184.683E-03     165.433E-03     505.668E-03     75.1815E+06     63.2108E+06       35.83E+06    -21.8137E+06    -21.7787E+06     35.7950E+06     63.2108E+06     804.991E+03
             635     48.9969E-03     10.8150E-03     47.7884E-03     373.746E-03    -184.790E-03    -189.620E-03    -180.932E-03     365.058E-03    -184.790E-03     138.760E-03     494.732E-03     81.8149E+06     64.4062E+06     33.3825E+06    -28.3810E+06    -28.3766E+06     33.3781E+06     64.4062E+06    -327.509E+03
             636     48.6557E-03     9.98207E-03     47.6208E-03     371.750E-03    -184.450E-03    -187.297E-03    -180.447E-03     364.900E-03    -184.450E-03     122.519E-03     487.584E-03     85.0422E+06     59.8019E+06     27.7415E+06    -36.6073E+06    -36.5968E+06     27.7310E+06     59.8019E+06    -708.288E+03
             637     48.3580E-03     9.14825E-03     47.4848E-03     368.967E-03    -183.776E-03    -185.127E-03    -180.053E-03     364.515E-03    -184.398E-03     98.0034E-03     473.536E-03     83.1679E+06     48.0113E+06     18.2113E+06    -45.9426E+06    -45.9238E+06     18.1925E+06     48.0113E+06    -911.386E+03
             638     48.1116E-03     8.31590E-03     47.3874E-03     367.155E-03    -183.083E-03    -184.683E-03    -180.505E-03     364.577E-03    -184.683E-03     74.4407E-03     458.180E-03     79.7799E+06     34.4325E+06     8.18153E+06    -55.1552E+06    -55.1037E+06     8.13000E+06     34.4325E+06    -578.558E+03
             639     47.9080E-03     7.48547E-03     47.3196E-03     366.123E-03    -182.141E-03    -184.998E-03    -180.723E-03     364.706E-03    -184.998E-03     54.9269E-03     442.152E-03     77.0217E+06     22.6513E+06    -824.711E+03    -63.3740E+06    -63.3311E+06    -867.544E+03     22.6513E+06     199.522E+03
             640     47.7370E-03     6.65287E-03     47.2711E-03     366.067E-03    -181.486E-03    -185.128E-03    -180.790E-03     365.370E-03    -185.128E-03     38.2980E-03     426.806E-03     72.5351E+06     8.22836E+06    -13.2558E+06    -72.6087E+06    -72.6041E+06    -13.2605E+06     8.22836E+06     379.690E+03
             641     47.6054E-03     5.81857E-03     47.2484E-03     367.649E-03    -182.361E-03    -185.090E-03    -182.062E-03     367.350E-03    -185.090E-03     24.8413E-03     414.380E-03     65.9237E+06    -12.5260E+06    -53.6071E+06    -82.8954E+06    -82.8756E+06    -53.6268E+06    -12.5260E+06     189.291E+03
             642     47.5004E-03     4.98808E-03     47.2378E-03     368.946E-03    -183.458E-03    -185.098E-03    -183.356E-03     368.844E-03    -185.098E-03     14.1856E-03     402.887E-03     74.3867E+06    -34.4173E+06    -91.4770E+06    -115.914E+06    -92.4951E+06    -114.896E+06    -34.4173E+06     297.847E+03
             643     47.4225E-03     4.15726E-03     47.2399E-03     369.055E-03    -184.007E-03    -185.124E-03    -183.985E-03     369.033E-03    -185.124E-03     6.15382E-03     392.987E-03     99.5044E+06    -54.5615E+06    -101.519E+06    -168.117E+06    -101.528E+06    -168.108E+06    -54.5615E+06     256.396E+03
             644     47.3675E-03     3.32577E-03     47.2506E-03     369.013E-03    -184.282E-03    -185.160E-03    -184.279E-03     369.010E-03    -185.160E-03     753.072E-06     384.831E-03     121.861E+06    -75.8681E+06    -110.230E+06    -210.903E+06    -110.232E+06    -210.900E+06    -75.8681E+06    -52.2438E+03
             645     47.3324E-03     2.49493E-03     47.2666E-03     369.581E-03    -184.555E-03    -185.234E-03    -184.597E-03     369.577E-03    -185.187E-03    -2.50825E-03     378.483E-03     136.500E+06    -96.3928E+06    -118.156E+06    -242.352E+06    -118.162E+06    -242.345E+06    -96.3928E+06    -251.866E+03
             646     47.3087E-03     1.66267E-03     47.2795E-03     370.092E-03    -184.888E-03    -185.271E-03    -185.007E-03     370.086E-03    -185.147E-03    -3.58943E-03     374.183E-03     146.856E+06    -113.487E+06    -124.679E+06    -265.539E+06    -124.688E+06    -265.530E+06    -113.487E+06    -5.98541E+03
             647     47.2939E-03     830.768E-06     47.2867E-03     370.081E-03    -184.736E-03    -185.366E-03    -185.176E-03     370.076E-03    -184.922E-03    -2.61451E-03     371.476E-03     159.057E+06    -125.230E+06    -130.876E+06    -287.030E+06    -129.732E+06    -287.003E+06    -126.402E+06     231.707E+03
             648     49.4586E-03     14.1476E-03     47.3920E-03     393.030E-03    -184.378E-03    -208.390E-03    -188.601E-03     373.241E-03    -184.378E-03     202.219E-03     517.204E-03     81.1226E+06     87.0207E+06     52.7398E+06    -5.45055E+06    -5.39697E+06     52.6862E+06     87.0207E+06    -634.026E+03
             649     48.8423E-03     13.3135E-03     46.9927E-03     395.933E-03    -184.111E-03    -211.466E-03    -189.415E-03     373.882E-03    -184.111E-03     220.751E-03     538.078E-03     73.2222E+06     71.7648E+06     45.8654E+06    -10.8631E+06    -10.8311E+06     45.8333E+06     71.7648E+06     1.13169E+06
             650     48.4120E-03     12.4800E-03     46.7757E-03     382.104E-03    -184.263E-03    -197.954E-03    -184.710E-03     368.860E-03    -184.263E-03     172.794E-03     507.450E-03     71.0976E+06     64.5656E+06     39.2168E+06    -15.7279E+06    -15.6693E+06     39.1582E+06     64.5656E+06     1.26576E+06
             651     47.9630E-03     11.6490E-03     46.5269E-03     379.387E-03    -184.724E-03    -195.261E-03    -183.067E-03     367.193E-03    -184.724E-03     164.407E-03     506.423E-03     75.8706E+06     64.7742E+06     36.8614E+06    -21.0975E+06    -21.0646E+06     36.8285E+06     64.7742E+06     494.518E+03
             652     47.5863E-03     10.8144E-03     46.3412E-03     373.714E-03    -184.776E-03    -189.565E-03    -181.065E-03     365.214E-03    -184.776E-03     137.247E-03     494.554E-03     82.2435E+06     65.4531E+06     34.4323E+06    -27.7847E+06    -27.7803E+06     34.4279E+06     65.4531E+06     208.062E+03
             653     47.2368E-03     9.98123E-03     46.1702E-03     371.581E-03    -184.435E-03    -187.153E-03    -180.512E-03     364.940E-03    -184.435E-03     120.579E-03     487.505E-03     85.2420E+06     60.0332E+06     27.8629E+06    -36.6086E+06    -36.5924E+06     27.8468E+06     60.0332E+06     455.012E+03
             654     46.9393E-03     9.14937E-03     46.0389E-03     368.577E-03    -183.385E-03    -185.155E-03    -179.839E-03     364.255E-03    -184.379E-03     96.6248E-03     473.206E-03     82.7555E+06     47.5873E+06     18.1823E+06    -45.8450E+06    -45.8324E+06     18.1698E+06     47.5873E+06     136.535E+03
             655     46.6877E-03     8.31791E-03     45.9407E-03     366.567E-03    -182.393E-03    -184.701E-03    -179.779E-03     363.953E-03    -184.701E-03     75.0020E-03     457.606E-03     78.9997E+06     33.6754E+06     8.11512E+06    -54.9313E+06    -54.9066E+06     8.09039E+06     33.6754E+06    -623.031E+03
             656     46.4775E-03     7.48376E-03     45.8710E-03     366.430E-03    -182.360E-03    -185.066E-03    -180.904E-03     364.973E-03    -185.066E-03     55.4261E-03     442.590E-03     77.2390E+06     21.9254E+06    -1.79237E+06    -64.3903E+06    -64.3436E+06    -1.83912E+06     21.9254E+06    -878.765E+03
             657     46.3072E-03     6.65083E-03     45.8271E-03     366.953E-03    -182.376E-03    -185.130E-03    -181.695E-03     366.272E-03    -185.130E-03     37.9824E-03     427.517E-03     73.8368E+06     7.60830E+06    -13.3406E+06    -74.4220E+06    -74.3995E+06    -13.3630E+06     7.60830E+06    -374.812E+03
             658     46.1655E-03     5.82088E-03     45.7970E-03     368.032E-03    -182.886E-03    -184.965E-03    -182.595E-03     367.741E-03    -184.965E-03     24.4386E-03     414.589E-03     67.2511E+06    -12.7778E+06    -53.3532E+06    -84.1798E+06    -84.0506E+06    -53.4824E+06    -12.7778E+06    -136.167E+03
             659     46.0605E-03     4.99011E-03     45.7894E-03     368.609E-03    -183.331E-03    -184.931E-03    -183.238E-03     368.517E-03    -184.931E-03     13.6346E-03     402.599E-03     73.5249E+06    -35.2049E+06    -92.4975E+06    -115.585E+06    -93.3318E+06    -114.751E+06    -35.2049E+06    -70.9806E+03
             660     45.9819E-03     4.15745E-03     45.7935E-03     368.307E-03    -183.443E-03    -185.032E-03    -183.421E-03     368.285E-03    -185.032E-03     6.19460E-03     392.338E-03     97.7088E+06    -56.9442E+06    -102.647E+06    -168.254E+06    -102.664E+06    -168.238E+06    -56.9442E+06    -359.772E+03
             661     45.9261E-03     3.32514E-03     45.8056E-03     368.694E-03    -184.033E-03    -185.146E-03    -184.031E-03     368.691E-03    -185.146E-03     938.174E-06     384.584E-03     121.311E+06    -76.6875E+06    -111.116E+06    -211.276E+06    -111.133E+06    -211.259E+06    -76.6875E+06    -333.739E+03
             662     45.8855E-03     2.49312E-03     45.8177E-03     369.741E-03    -184.731E-03    -185.208E-03    -184.775E-03     369.737E-03    -185.161E-03    -2.20529E-03     378.599E-03     135.968E+06    -96.6759E+06    -119.224E+06    -242.338E+06    -119.229E+06    -242.332E+06    -96.6759E+06     192.110E+03
             663     45.8620E-03     1.66356E-03     45.8318E-03     370.096E-03    -184.980E-03    -185.180E-03    -185.151E-03     370.091E-03    -185.004E-03    -3.33616E-03     374.165E-03     146.543E+06    -114.386E+06    -125.698E+06    -266.192E+06    -125.702E+06    -266.188E+06    -114.386E+06     121.198E+03
             664     45.8486E-03     832.821E-06     45.8411E-03     369.621E-03    -184.646E-03    -184.999E-03    -184.871E-03     369.617E-03    -184.770E-03    -2.53137E-03     371.012E-03     157.875E+06    -125.377E+06    -131.548E+06    -286.245E+06    -130.222E+06    -286.221E+06    -126.726E+06     204.196E+03
             665     48.0670E-03     14.1402E-03     45.9401E-03     393.265E-03    -184.558E-03    -208.461E-03    -188.894E-03     373.698E-03    -184.558E-03     202.174E-03     517.210E-03     81.5089E+06     87.1531E+06     52.4598E+06    -5.84746E+06    -5.82699E+06     52.4394E+06     87.1531E+06    -461.846E+03
             666     47.4454E-03     13.3114E-03     45.5398E-03     397.108E-03    -184.201E-03    -212.536E-03    -190.944E-03     375.517E-03    -184.201E-03     219.020E-03     539.249E-03     74.1416E+06     72.5171E+06     45.8547E+06    -11.2527E+06    -11.2023E+06     45.8044E+06     72.5171E+06     240.942E+03
             667     47.0166E-03     12.4815E-03     45.3296E-03     382.512E-03    -184.262E-03    -198.290E-03    -185.241E-03     369.463E-03    -184.262E-03     171.627E-03     508.367E-03     71.8649E+06     63.8676E+06     39.0025E+06    -17.1226E+06    -17.0757E+06     38.9556E+06     63.8676E+06    -115.909E+03
             668     46.5583E-03     11.6480E-03     45.0777E-03     380.147E-03    -184.657E-03    -195.939E-03    -183.847E-03     368.056E-03    -184.657E-03     163.955E-03     507.508E-03     76.1455E+06     63.9538E+06     36.4016E+06    -22.1173E+06    -22.1121E+06     36.3964E+06     63.9538E+06     110.463E+03
             669     46.1810E-03     10.8170E-03     44.8963E-03     374.289E-03    -184.685E-03    -190.131E-03    -181.700E-03     365.858E-03    -184.685E-03     136.843E-03     494.985E-03     82.6553E+06     65.3319E+06     33.7624E+06    -28.4503E+06    -28.4340E+06     33.7462E+06     65.3319E+06     902.211E+03
             670     45.8268E-03     9.98503E-03     44.7258E-03     370.906E-03    -184.186E-03    -186.730E-03    -179.859E-03     364.231E-03    -184.382E-03     120.852E-03     486.493E-03     85.6694E+06     60.9363E+06     28.1662E+06    -36.2768E+06    -36.2543E+06     28.1437E+06     60.9363E+06     1.03432E+06
             671     45.5194E-03     9.14983E-03     44.5903E-03     367.805E-03    -183.156E-03    -184.655E-03    -179.049E-03     363.391E-03    -184.348E-03     97.4077E-03     472.280E-03     83.1331E+06     49.5600E+06     19.5723E+06    -44.3920E+06    -44.3746E+06     19.5549E+06     49.5600E+06     688.722E+03
             672     45.2686E-03     8.31463E-03     44.4984E-03     366.846E-03    -182.687E-03    -184.682E-03    -180.090E-03     364.249E-03    -184.682E-03     74.6737E-03     457.636E-03     79.2808E+06     35.5938E+06     9.67888E+06    -53.3921E+06    -53.3831E+06     9.66983E+06     35.5938E+06     491.743E+03
             673     45.0486E-03     7.48268E-03     44.4228E-03     366.918E-03    -182.861E-03    -185.044E-03    -181.483E-03     365.540E-03    -185.044E-03     53.7611E-03     442.545E-03     76.9913E+06     21.8352E+06    -1.81850E+06    -64.2052E+06    -64.1841E+06    -1.83968E+06     21.8352E+06    -311.249E+03
             674     44.8732E-03     6.65386E-03     44.3772E-03     367.006E-03    -182.585E-03    -185.076E-03    -181.946E-03     366.367E-03    -185.076E-03     37.0413E-03     427.493E-03     73.5516E+06     7.69787E+06    -13.9055E+06    -74.2185E+06    -74.1913E+06    -13.9327E+06     7.69787E+06    -841.463E+03
             675     44.7302E-03     5.82129E-03     44.3497E-03     367.359E-03    -182.412E-03    -184.893E-03    -182.103E-03     367.050E-03    -184.893E-03     25.3001E-03     414.085E-03     66.8153E+06    -12.7163E+06    -53.8308E+06    -83.8491E+06    -83.6783E+06    -54.0016E+06    -12.7163E+06    -639.658E+03
             676     44.6214E-03     4.98901E-03     44.3416E-03     368.137E-03    -182.935E-03    -184.905E-03    -182.831E-03     368.033E-03    -184.905E-03     14.3594E-03     402.271E-03     73.8502E+06    -35.3692E+06    -92.2368E+06    -116.153E+06    -92.9584E+06    -115.432E+06    -35.3692E+06    -774.743E+03
             677     44.5432E-03     4.15763E-03     44.3487E-03     368.677E-03    -183.781E-03    -185.012E-03    -183.758E-03     368.654E-03    -185.012E-03     6.28438E-03     392.682E-03     98.3405E+06    -55.8294E+06    -101.897E+06    -168.007E+06    -101.953E+06    -167.952E+06    -55.8294E+06    -505.005E+03
             678     44.4816E-03     3.32580E-03     44.3571E-03     368.785E-03    -184.174E-03    -185.043E-03    -184.171E-03     368.782E-03    -185.043E-03     462.536E-06     384.601E-03     121.572E+06    -76.9141E+06    -111.830E+06    -211.863E+06    -111.860E+06    -211.833E+06    -76.9141E+06    -171.947E+03
             679     44.4424E-03     2.49515E-03     44.3723E-03     369.112E-03    -184.229E-03    -185.098E-03    -184.226E-03     369.108E-03    -185.098E-03    -2.60170E-03     377.971E-03     135.824E+06    -97.1558E+06    -120.235E+06    -242.895E+06    -120.243E+06    -242.887E+06    -97.1558E+06    -196.738E+03
             680     44.4154E-03     1.66237E-03     44.3843E-03     369.688E-03    -184.498E-03    -185.278E-03    -184.545E-03     369.684E-03    -185.227E-03    -2.99591E-03     373.816E-03     145.972E+06    -114.657E+06    -126.185E+06    -265.958E+06    -126.186E+06    -265.956E+06    -114.657E+06     53.3105E+03
             681     44.4030E-03     830.575E-06     44.3952E-03     370.480E-03    -184.916E-03    -185.585E-03    -185.291E-03     370.478E-03    -185.209E-03    -1.59378E-03     371.920E-03     157.883E+06    -125.905E+06    -131.017E+06    -286.277E+06    -129.689E+06    -286.255E+06    -127.254E+06     342.638E+03
             682     46.6880E-03     14.1470E-03     44.4930E-03     394.016E-03    -184.528E-03    -209.175E-03    -190.000E-03     374.841E-03    -184.528E-03     200.574E-03     517.700E-03     81.8618E+06     87.4370E+06     52.4881E+06    -5.94417E+06    -5.93118E+06     52.4751E+06     87.4370E+06    -380.476E+03
             683     46.0573E-03     13.3123E-03     44.0915E-03     395.263E-03    -184.165E-03    -210.654E-03    -189.422E-03     374.031E-03    -184.165E-03     216.972E-03     537.708E-03     73.7982E+06     70.9529E+06     45.1984E+06    -12.2577E+06    -12.2351E+06     45.1758E+06     70.9529E+06    -459.367E+03
             684     45.6181E-03     12.4794E-03     43.8779E-03     382.212E-03    -184.233E-03    -198.014E-03    -184.959E-03     369.157E-03    -184.233E-03     171.662E-03     508.085E-03     71.2026E+06     62.8231E+06     38.6841E+06    -17.3023E+06    -17.2725E+06     38.6542E+06     62.8231E+06    -904.990E+03
             685     45.1623E-03     11.6497E-03     43.6339E-03     380.499E-03    -184.625E-03    -196.227E-03    -184.119E-03     368.391E-03    -184.625E-03     164.279E-03     507.603E-03     75.7541E+06     62.6443E+06     34.9886E+06    -23.0330E+06    -23.0206E+06     34.9762E+06     62.6443E+06    -136.698E+03
             686     44.7703E-03     10.8163E-03     43.4441E-03     374.097E-03    -184.702E-03    -189.926E-03    -181.308E-03     365.479E-03    -184.702E-03     138.292E-03     494.920E-03     82.6197E+06     65.0200E+06     32.5342E+06    -28.8942E+06    -28.8792E+06     32.5192E+06     65.0200E+06     418.097E+03
             687     44.4177E-03     9.98396E-03     43.2811E-03     371.097E-03    -184.227E-03    -186.919E-03    -179.897E-03     364.272E-03    -184.424E-03     122.182E-03     486.855E-03     85.9886E+06     62.4565E+06     28.8345E+06    -35.2505E+06    -35.2195E+06     28.8035E+06     62.4565E+06     752.413E+03
             688     44.1063E-03     9.14754E-03     43.1473E-03     368.922E-03    -183.772E-03    -185.081E-03    -180.108E-03     364.490E-03    -184.313E-03     97.7158E-03     472.985E-03     83.6930E+06     50.5064E+06     19.8324E+06    -44.1839E+06    -44.1567E+06     19.8052E+06     50.5064E+06     836.035E+03
             689     43.8437E-03     8.31804E-03     43.0474E-03     367.669E-03    -183.471E-03    -184.686E-03    -181.133E-03     365.181E-03    -184.536E-03     73.0654E-03     458.073E-03     79.8067E+06     36.4279E+06     9.79472E+06    -53.2793E+06    -53.2550E+06     9.77043E+06     36.4279E+06     901.183E+03
             690     43.6237E-03     7.48798E-03     42.9762E-03     366.351E-03    -182.394E-03    -184.872E-03    -181.076E-03     365.032E-03    -184.872E-03     52.9793E-03     441.742E-03     76.6359E+06     23.9320E+06     385.452E+03    -61.7111E+06    -61.6941E+06     368.478E+03     23.9320E+06     610.831E+03
             691     43.4418E-03     6.65259E-03     42.9294E-03     366.019E-03    -181.656E-03    -184.981E-03    -180.995E-03     365.359E-03    -184.981E-03     37.3760E-03     426.512E-03     71.7922E+06     8.67602E+06    -13.9208E+06    -71.6803E+06    -71.6722E+06    -13.9289E+06     8.67602E+06    -302.117E+03
             692     43.2972E-03     5.82113E-03     42.9042E-03     366.936E-03    -182.027E-03    -184.859E-03    -181.736E-03     366.645E-03    -184.859E-03     24.4453E-03     413.747E-03     65.9269E+06    -12.0639E+06    -54.9527E+06    -82.5203E+06    -82.3376E+06    -55.1354E+06    -12.0639E+06    -477.980E+03
             693     43.1837E-03     4.98857E-03     42.8945E-03     368.028E-03    -182.844E-03    -184.890E-03    -182.751E-03     367.934E-03    -184.890E-03     13.5047E-03     402.155E-03     74.6185E+06    -34.8088E+06    -92.6027E+06    -116.311E+06    -93.0565E+06    -115.857E+06    -34.8088E+06    -631.793E+03
             694     43.1006E-03     4.15736E-03     42.8996E-03     368.749E-03    -183.870E-03    -184.985E-03    -183.850E-03     368.728E-03    -184.985E-03     6.03054E-03     392.762E-03     99.0474E+06    -55.9551E+06    -103.150E+06    -169.044E+06    -103.202E+06    -168.993E+06    -55.9551E+06    -355.513E+03
             695     43.0403E-03     3.32707E-03     42.9115E-03     368.800E-03    -184.218E-03    -184.978E-03    -184.215E-03     368.798E-03    -184.978E-03     1.07486E-03     384.554E-03     121.342E+06    -76.8773E+06    -111.996E+06    -211.606E+06    -112.023E+06    -211.579E+06    -76.8773E+06     96.1015E+03
             696     42.9980E-03     2.49411E-03     42.9256E-03     368.930E-03    -184.059E-03    -185.035E-03    -184.055E-03     368.926E-03    -185.035E-03    -2.38884E-03     377.747E-03     135.032E+06    -98.4125E+06    -120.498E+06    -242.963E+06    -120.509E+06    -242.952E+06    -98.4125E+06    -112.959E+03
             697     42.9725E-03     1.66219E-03     42.9404E-03     369.508E-03    -184.358E-03    -185.227E-03    -184.353E-03     369.503E-03    -185.227E-03    -3.44409E-03     373.656E-03     145.532E+06    -116.237E+06    -126.947E+06    -266.742E+06    -126.953E+06    -266.736E+06    -116.237E+06    -636.745E+03
             698     42.9551E-03     830.393E-06     42.9471E-03     370.630E-03    -184.779E-03    -185.884E-03    -185.560E-03     370.626E-03    -185.099E-03    -2.74755E-03     372.085E-03     157.403E+06    -126.924E+06    -131.270E+06    -286.449E+06    -130.538E+06    -286.424E+06    -127.680E+06    -252.457E+03
             699     45.3080E-03     14.1473E-03     43.0427E-03     394.482E-03    -184.471E-03    -209.830E-03    -190.422E-03     375.074E-03    -184.471E-03     201.883E-03     518.398E-03     81.9206E+06     87.8475E+06     52.8144E+06    -5.55972E+06    -5.55535E+06     52.8101E+06     87.8475E+06    -200.458E+03
             700     44.6820E-03     13.3153E-03     42.6519E-03     394.982E-03    -184.097E-03    -210.546E-03    -188.997E-03     373.433E-03    -184.097E-03     218.600E-03     537.309E-03     72.8233E+06     71.1866E+06     46.4115E+06    -10.7776E+06    -10.7721E+06     46.4060E+06     71.1866E+06     94.1573E+03
             701     44.2276E-03     12.4802E-03     42.4302E-03     381.330E-03    -184.224E-03    -197.156E-03    -183.859E-03     368.033E-03    -184.224E-03     172.960E-03     506.484E-03     70.0447E+06     62.1244E+06     38.2721E+06    -16.7242E+06    -16.6971E+06     38.2451E+06     62.1244E+06     298.946E+03
             702     43.7591E-03     11.6477E-03     42.1805E-03     379.789E-03    -184.713E-03    -195.470E-03    -183.150E-03     367.470E-03    -184.713E-03     165.468E-03     507.082E-03     75.3005E+06     62.5587E+06     34.9455E+06    -22.6448E+06    -22.5885E+06     34.8892E+06     62.5587E+06    -527.366E+03
             703     43.3722E-03     10.8153E-03     42.0021E-03     374.553E-03    -184.800E-03    -190.338E-03    -181.716E-03     365.931E-03    -184.800E-03     138.347E-03     495.996E-03     82.4492E+06     64.1460E+06     31.7131E+06    -29.5764E+06    -29.5409E+06     31.6775E+06     64.1460E+06    -1.04059E+06
             704     43.0064E-03     9.98041E-03     41.8323E-03     372.394E-03    -184.432E-03    -188.086E-03    -181.534E-03     365.843E-03    -184.432E-03     119.891E-03     488.489E-03     86.0809E+06     61.4079E+06     27.1428E+06    -36.5183E+06    -36.4831E+06     27.1076E+06     61.4079E+06    -216.702E+03
             705     42.6907E-03     9.15178E-03     41.6982E-03     369.610E-03    -183.856E-03    -185.685E-03    -181.054E-03     365.325E-03    -184.203E-03     96.4931E-03     473.556E-03     83.9596E+06     50.8851E+06     19.7904E+06    -44.1675E+06    -44.1183E+06     19.7412E+06     50.8851E+06     618.375E+03
             706     42.4208E-03     8.31978E-03     41.5969E-03     367.010E-03    -182.945E-03    -184.543E-03    -180.539E-03     364.454E-03    -184.393E-03     74.0379E-03     457.324E-03     79.6050E+06     36.5439E+06     9.88120E+06    -52.9602E+06    -52.9058E+06     9.82675E+06     36.5439E+06     398.648E+03
             707     42.2019E-03     7.48579E-03     41.5327E-03     366.029E-03    -182.281E-03    -184.759E-03    -180.912E-03     364.659E-03    -184.759E-03     53.9495E-03     441.940E-03     76.7062E+06     24.5239E+06     706.330E+03    -61.2629E+06    -61.2108E+06     654.163E+03     24.5239E+06     388.430E+03
             708     42.0141E-03     6.65483E-03     41.4837E-03     366.071E-03    -181.831E-03    -184.844E-03    -181.178E-03     365.418E-03    -184.844E-03     36.9718E-03     426.575E-03     71.9846E+06     9.11077E+06    -13.3509E+06    -71.4098E+06    -71.3922E+06    -13.3685E+06     9.11077E+06     630.783E+03
             709     41.8628E-03     5.82222E-03     41.4560E-03     366.689E-03    -181.846E-03    -184.688E-03    -181.580E-03     366.423E-03    -184.688E-03     23.4377E-03     413.362E-03     66.4423E+06    -11.6258E+06    -54.5634E+06    -82.6032E+06    -82.1173E+06    -55.0493E+06    -11.6258E+06     438.266E+03
             710     41.7481E-03     4.99092E-03     41.4487E-03     367.620E-03    -182.628E-03    -184.732E-03    -182.538E-03     367.530E-03    -184.732E-03     13.2873E-03     401.686E-03     75.0881E+06    -33.7454E+06    -91.8705E+06    -115.814E+06    -92.2109E+06    -115.474E+06    -33.7454E+06     461.086E+03
             711     41.6611E-03     4.15812E-03     41.4531E-03     368.066E-03    -183.393E-03    -184.873E-03    -183.373E-03     368.046E-03    -184.873E-03     5.35260E-03     392.095E-03     99.4538E+06    -55.7545E+06    -102.411E+06    -169.176E+06    -102.425E+06    -169.162E+06    -55.7545E+06     123.821E+03
             712     41.5970E-03     3.32484E-03     41.4639E-03     368.402E-03    -183.851E-03    -184.940E-03    -183.848E-03     368.400E-03    -184.940E-03    -37.3576E-06     384.179E-03     122.074E+06    -77.2181E+06    -111.632E+06    -212.527E+06    -111.655E+06    -212.504E+06    -77.2181E+06    -71.9291E+03
             713     41.5540E-03     2.49474E-03     41.4790E-03     369.267E-03    -184.327E-03    -185.077E-03    -184.430E-03     369.262E-03    -184.968E-03    -2.86247E-03     378.065E-03     134.977E+06    -98.3501E+06    -119.623E+06    -242.535E+06    -119.635E+06    -242.523E+06    -98.3501E+06     17.5772E+03
             714     41.5275E-03     1.66346E-03     41.4941E-03     369.775E-03    -184.664E-03    -185.178E-03    -185.009E-03     369.769E-03    -184.827E-03    -3.49940E-03     373.907E-03     146.305E+06    -116.211E+06    -126.383E+06    -267.269E+06    -126.390E+06    -267.262E+06    -116.211E+06    -257.477E+03
             715     41.5088E-03     832.362E-06     41.5004E-03     369.327E-03    -184.181E-03    -185.186E-03    -185.154E-03     369.323E-03    -184.208E-03    -2.87616E-03     370.755E-03     158.068E+06    -127.430E+06    -131.440E+06    -287.456E+06    -130.695E+06    -287.444E+06    -128.187E+06    -660.771E+03
             716     43.9385E-03     14.1467E-03     41.5988E-03     393.950E-03    -184.475E-03    -209.465E-03    -189.990E-03     374.475E-03    -184.475E-03     202.206E-03     517.871E-03     81.7421E+06     87.4975E+06     52.5152E+06    -5.73486E+06    -5.72811E+06     52.5084E+06     87.4975E+06    -13.1534E+03
             717     43.2991E-03     13.3125E-03     41.2018E-03     395.370E-03    -184.105E-03    -210.976E-03    -189.343E-03     373.737E-03    -184.105E-03     219.200E-03     537.755E-03     73.0894E+06     71.6865E+06     46.0172E+06    -10.7587E+06    -10.7481E+06     46.0066E+06     71.6865E+06     376.364E+03
             718     42.8446E-03     12.4822E-03     40.9860E-03     381.154E-03    -184.251E-03    -196.912E-03    -183.541E-03     367.783E-03    -184.251E-03     173.354E-03     506.178E-03     70.5058E+06     63.3863E+06     39.0967E+06    -16.0524E+06    -16.0241E+06     39.0684E+06     63.3863E+06     514.424E+03
             719     42.3677E-03     11.6450E-03     40.7359E-03     379.586E-03    -184.770E-03    -195.272E-03    -183.014E-03     367.327E-03    -184.770E-03     164.860E-03     506.722E-03     75.4324E+06     62.9731E+06     35.6181E+06    -22.3119E+06    -22.2512E+06     35.5573E+06     62.9731E+06    -209.850E+03
             720     41.9667E-03     10.8128E-03     40.5498E-03     375.562E-03    -184.801E-03    -191.406E-03    -183.065E-03     367.221E-03    -184.801E-03     136.310E-03     496.875E-03     82.1412E+06     63.5818E+06     31.6598E+06    -29.7231E+06    -29.6807E+06     31.6173E+06     63.5818E+06    -784.553E+03
             721     41.5997E-03     9.98728E-03     40.3830E-03     372.742E-03    -184.348E-03    -188.565E-03    -182.153E-03     366.331E-03    -184.348E-03     118.904E-03     488.863E-03     85.6627E+06     59.7842E+06     25.9487E+06    -37.6241E+06    -37.6003E+06     25.9250E+06     59.7842E+06    -1.16850E+06
             722     41.2749E-03     9.15216E-03     40.2474E-03     368.655E-03    -183.424E-03    -185.234E-03    -180.223E-03     364.343E-03    -184.122E-03     96.5450E-03     473.195E-03     83.9317E+06     50.4414E+06     19.0266E+06    -44.6489E+06    -44.5914E+06     18.9691E+06     50.4414E+06    -787.338E+03
             723     41.0083E-03     8.31850E-03     40.1557E-03     366.419E-03    -182.673E-03    -184.345E-03    -180.106E-03     363.852E-03    -184.345E-03     74.2209E-03     457.055E-03     79.4524E+06     36.5296E+06     9.72513E+06    -52.8403E+06    -52.7687E+06     9.65356E+06     36.5296E+06    -152.019E+03
             724     40.7747E-03     7.48720E-03     40.0814E-03     366.247E-03    -182.711E-03    -184.707E-03    -181.326E-03     364.862E-03    -184.707E-03     54.1318E-03     442.263E-03     76.8525E+06     23.1339E+06    -1.08050E+06    -62.9075E+06    -62.8587E+06    -1.12937E+06     23.1339E+06     294.285E+03
             725     40.5867E-03     6.65628E-03     40.0371E-03     366.414E-03    -182.317E-03    -184.715E-03    -181.668E-03     365.765E-03    -184.715E-03     37.0669E-03     426.885E-03     73.2047E+06     8.89698E+06    -12.9834E+06    -72.7435E+06    -72.7052E+06    -13.0216E+06     8.89698E+06     1.10012E+06
             726     40.4336E-03     5.82388E-03     40.0119E-03     366.536E-03    -181.890E-03    -184.481E-03    -181.612E-03     366.259E-03    -184.481E-03     23.8545E-03     413.075E-03     66.8788E+06    -12.1866E+06    -53.4472E+06    -83.4544E+06    -82.7456E+06    -54.1560E+06    -12.1866E+06     872.401E+03
             727     40.3121E-03     4.99036E-03     40.0020E-03     367.132E-03    -182.374E-03    -184.538E-03    -182.283E-03     367.042E-03    -184.538E-03     13.4561E-03     401.215E-03     74.0776E+06    -34.5638E+06    -91.9007E+06    -115.636E+06    -92.2617E+06    -115.275E+06    -34.5638E+06     460.166E+03
             728     40.2231E-03     4.15904E-03     40.0075E-03     367.750E-03    -183.250E-03    -184.706E-03    -183.229E-03     367.729E-03    -184.706E-03     5.44061E-03     391.762E-03     99.8273E+06    -55.0301E+06    -101.341E+06    -168.755E+06    -101.353E+06    -168.742E+06    -55.0301E+06     316.653E+03
             729     40.1574E-03     3.32852E-03     40.0193E-03     368.133E-03    -183.739E-03    -184.737E-03    -183.737E-03     368.131E-03    -184.737E-03    -388.009E-06     383.882E-03     123.319E+06    -76.2339E+06    -110.815E+06    -212.906E+06    -110.838E+06    -212.882E+06    -76.2339E+06     205.700E+03
             730     40.1117E-03     2.49428E-03     40.0341E-03     368.763E-03    -184.047E-03    -184.880E-03    -184.151E-03     368.759E-03    -184.771E-03    -2.82050E-03     377.581E-03     136.274E+06    -96.6034E+06    -119.135E+06    -242.598E+06    -119.152E+06    -242.581E+06    -96.6034E+06     313.268E+03
             731     40.0800E-03     1.66370E-03     40.0455E-03     369.278E-03    -184.328E-03    -185.055E-03    -184.675E-03     369.274E-03    -184.704E-03    -3.01554E-03     373.424E-03     147.108E+06    -114.353E+06    -125.597E+06    -266.674E+06    -125.598E+06    -266.672E+06    -114.353E+06     435.093E+03
             732     40.0650E-03     832.563E-06     40.0563E-03     369.099E-03    -184.013E-03    -185.128E-03    -184.984E-03     369.096E-03    -184.154E-03    -2.21270E-03     370.524E-03     159.387E+06    -126.512E+06    -130.192E+06    -287.694E+06    -130.194E+06    -287.692E+06    -126.512E+06     222.511E+03
             733     42.5719E-03     14.1465E-03     40.1528E-03     394.318E-03    -184.471E-03    -209.592E-03    -189.986E-03     374.712E-03    -184.471E-03     202.807E-03     517.900E-03     82.2282E+06     88.2837E+06     52.5744E+06    -5.60016E+06    -5.58708E+06     52.5613E+06     88.2837E+06     406.859E+03
             734     41.9274E-03     13.3147E-03     39.7571E-03     395.947E-03    -184.124E-03    -211.318E-03    -189.686E-03     374.314E-03    -184.124E-03     218.966E-03     538.210E-03     74.1192E+06     72.3756E+06     45.5047E+06    -11.4223E+06    -11.4078E+06     45.4902E+06     72.3756E+06     608.482E+03
             735     41.4615E-03     12.4782E-03     39.5392E-03     382.254E-03    -184.202E-03    -198.015E-03    -185.061E-03     369.300E-03    -184.202E-03     171.058E-03     507.967E-03     71.0771E+06     64.0693E+06     39.2503E+06    -16.0871E+06    -16.0751E+06     39.2383E+06     64.0693E+06    -361.614E+03
             736     40.9817E-03     11.6496E-03     39.2911E-03     380.152E-03    -184.588E-03    -196.129E-03    -184.231E-03     368.255E-03    -184.588E-03     162.791E-03     507.041E-03     75.4503E+06     63.8418E+06     35.7963E+06    -21.5850E+06    -21.5705E+06     35.7818E+06     63.8418E+06    -21.8981E+03
             737     40.5665E-03     10.8189E-03     39.0973E-03     373.919E-03    -184.624E-03    -190.092E-03    -181.796E-03     365.623E-03    -184.624E-03     135.653E-03     494.739E-03     81.7606E+06     64.5676E+06     32.3962E+06    -28.3738E+06    -28.3634E+06     32.3858E+06     64.5676E+06     112.550E+03
             738     40.1938E-03     9.98363E-03     38.9342E-03     371.030E-03    -184.317E-03    -186.898E-03    -180.361E-03     364.493E-03    -184.317E-03     119.734E-03     487.402E-03     84.9088E+06     60.2714E+06     27.1960E+06    -36.1906E+06    -36.1793E+06     27.1847E+06     60.2714E+06    -687.882E+03
             739     39.8683E-03     9.15177E-03     38.8037E-03     368.678E-03    -183.803E-03    -184.901E-03    -180.133E-03     364.261E-03    -184.154E-03     97.6479E-03     473.480E-03     83.1899E+06     48.7364E+06     17.7133E+06    -45.4910E+06    -45.4623E+06     17.6845E+06     48.7364E+06    -1.02072E+06
             740     39.5909E-03     8.32064E-03     38.7067E-03     367.077E-03    -183.370E-03    -184.395E-03    -180.822E-03     364.463E-03    -184.330E-03     75.0492E-03     457.805E-03     79.4972E+06     35.2567E+06     8.10782E+06    -54.2424E+06    -54.2053E+06     8.07069E+06     35.2567E+06    -432.056E+03
             741     39.3545E-03     7.48813E-03     38.6356E-03     366.266E-03    -182.734E-03    -184.668E-03    -181.317E-03     364.850E-03    -184.668E-03     54.7070E-03     442.082E-03     76.7856E+06     22.5265E+06    -2.03855E+06    -63.5288E+06    -63.5068E+06    -2.06055E+06     22.5265E+06     398.484E+03
             742     39.1595E-03     6.65508E-03     38.5899E-03     366.157E-03    -181.980E-03    -184.683E-03    -181.324E-03     365.502E-03    -184.683E-03     37.2493E-03     426.800E-03     72.9191E+06     8.47014E+06    -13.9178E+06    -73.0048E+06    -72.9728E+06    -13.9497E+06     8.47014E+06     503.116E+03
             743     39.0035E-03     5.82406E-03     38.5662E-03     366.731E-03    -182.122E-03    -184.422E-03    -181.829E-03     366.438E-03    -184.422E-03     24.6349E-03     413.460E-03     66.4754E+06    -11.7797E+06    -52.7931E+06    -83.1878E+06    -82.5915E+06    -53.3893E+06    -11.7797E+06     716.704E+03
             744     38.8799E-03     4.99310E-03     38.5579E-03     367.242E-03    -182.609E-03    -184.437E-03    -182.504E-03     367.137E-03    -184.437E-03     14.3836E-03     401.261E-03     73.7921E+06    -35.0903E+06    -91.3218E+06    -116.290E+06    -92.6952E+06    -114.917E+06    -35.0903E+06     456.101E+03
             745     38.7856E-03     4.15935E-03     38.5620E-03     367.390E-03    -182.972E-03    -184.605E-03    -182.948E-03     367.366E-03    -184.605E-03     6.19974E-03     391.242E-03     99.8531E+06    -55.8836E+06    -102.312E+06    -169.733E+06    -102.335E+06    -169.710E+06    -55.8836E+06     231.952E+03
             746     38.7159E-03     3.32641E-03     38.5727E-03     367.886E-03    -183.565E-03    -184.639E-03    -183.563E-03     367.884E-03    -184.639E-03     924.680E-06     383.585E-03     123.269E+06    -75.8464E+06    -111.468E+06    -212.770E+06    -111.499E+06    -212.740E+06    -75.8464E+06     326.808E+03
             747     38.6674E-03     2.49696E-03     38.5867E-03     368.552E-03    -184.062E-03    -184.678E-03    -184.060E-03     368.550E-03    -184.678E-03    -1.66332E-03     377.395E-03     136.252E+06    -95.6875E+06    -119.162E+06    -242.003E+06    -119.182E+06    -241.982E+06    -95.6875E+06     461.318E+03
             748     38.6364E-03     1.66305E-03     38.6006E-03     368.878E-03    -184.274E-03    -184.707E-03    -184.267E-03     368.871E-03    -184.707E-03    -3.44626E-03     373.024E-03     146.644E+06    -113.735E+06    -125.500E+06    -265.818E+06    -125.504E+06    -265.813E+06    -113.735E+06     315.731E+03
             749     38.6196E-03     830.176E-06     38.6107E-03     369.309E-03    -184.158E-03    -185.169E-03    -184.707E-03     369.303E-03    -184.613E-03    -3.03007E-03     370.727E-03     158.982E+06    -126.777E+06    -131.208E+06    -287.916E+06    -130.285E+06    -287.914E+06    -127.701E+06    -199.426E+03
             750     41.2134E-03     14.1455E-03     38.7098E-03     395.074E-03    -184.483E-03    -210.194E-03    -190.662E-03     375.542E-03    -184.483E-03     202.767E-03     518.714E-03     83.0169E+06     88.3878E+06     51.9873E+06    -6.44822E+06    -6.43763E+06     51.9767E+06     88.3878E+06     325.598E+03
             751     40.5550E-03     13.3112E-03     38.3083E-03     397.159E-03    -184.059E-03    -212.574E-03    -191.224E-03     375.809E-03    -184.059E-03     217.624E-03     539.693E-03     74.3019E+06     72.1941E+06     45.9961E+06    -11.6146E+06    -11.6055E+06     45.9870E+06     72.1941E+06     310.524E+03
             752     40.0881E-03     12.4849E-03     38.0944E-03     383.061E-03    -184.020E-03    -199.073E-03    -186.278E-03     370.266E-03    -184.020E-03     170.156E-03     509.145E-03     70.8200E+06     63.5391E+06     39.1806E+06    -16.2180E+06    -16.2059E+06     39.1685E+06     63.5391E+06    -592.530E+03
             753     39.5933E-03     11.6533E-03     37.8395E-03     379.702E-03    -184.350E-03    -195.893E-03    -183.878E-03     367.688E-03    -184.350E-03     163.527E-03     506.794E-03     75.6454E+06     64.2815E+06     35.6351E+06    -21.4826E+06    -21.4689E+06     35.6213E+06     64.2815E+06    -174.309E+03
             754     39.1805E-03     10.8198E-03     37.6569E-03     372.219E-03    -184.462E-03    -188.569E-03    -180.078E-03     363.728E-03    -184.462E-03     136.862E-03     493.035E-03     81.8955E+06     65.3585E+06     32.9416E+06    -27.7682E+06    -27.7646E+06     32.9379E+06     65.3585E+06     166.077E+03
             755     38.7973E-03     9.98519E-03     37.4903E-03     369.993E-03    -184.274E-03    -185.899E-03    -179.274E-03     363.368E-03    -184.274E-03     120.159E-03     486.153E-03     84.4701E+06     59.6499E+06     26.7244E+06    -36.3107E+06    -36.3086E+06     26.7223E+06     59.6499E+06    -35.7981E+03
             756     38.4604E-03     9.15019E-03     37.3561E-03     368.740E-03    -183.894E-03    -184.702E-03    -180.087E-03     364.388E-03    -184.157E-03     96.9552E-03     473.143E-03     82.6326E+06     48.1709E+06     17.4365E+06    -45.4086E+06    -45.4068E+06     17.4347E+06     48.1709E+06     6.87970E+03
             757     38.1766E-03     8.31883E-03     37.2593E-03     367.284E-03    -183.382E-03    -184.392E-03    -180.853E-03     364.689E-03    -184.326E-03     74.7754E-03     457.998E-03     79.2598E+06     34.8277E+06     7.49877E+06    -54.4651E+06    -54.4515E+06     7.48517E+06     34.8277E+06     52.5296E+03
             758     37.9361E-03     7.48804E-03     37.1898E-03     366.218E-03    -182.476E-03    -184.688E-03    -181.047E-03     364.788E-03    -184.688E-03     55.0484E-03     442.081E-03     76.6400E+06     22.2978E+06    -2.37788E+06    -63.6346E+06    -63.6005E+06    -2.41196E+06     22.2978E+06    -38.8310E+03
             759     37.7374E-03     6.65673E-03     37.1456E-03     365.979E-03    -181.577E-03    -184.742E-03    -180.885E-03     365.287E-03    -184.742E-03     38.2492E-03     426.463E-03     72.7382E+06     7.85247E+06    -14.4479E+06    -73.4112E+06    -73.3814E+06    -14.4776E+06     7.85247E+06    -201.541E+03
             760     37.5736E-03     5.82277E-03     37.1196E-03     366.773E-03    -182.010E-03    -184.544E-03    -181.691E-03     366.455E-03    -184.544E-03     25.7741E-03     413.488E-03     66.8837E+06    -12.1701E+06    -53.3730E+06    -84.1136E+06    -83.5402E+06    -53.9464E+06    -12.1701E+06     210.061E+03
             761     37.4446E-03     4.99049E-03     37.1105E-03     367.630E-03    -182.923E-03    -184.559E-03    -182.805E-03     367.512E-03    -184.559E-03     15.3575E-03     401.640E-03     74.1872E+06    -35.2084E+06    -91.8932E+06    -116.926E+06    -93.5849E+06    -115.234E+06    -35.2084E+06     756.434E+03
             762     37.3519E-03     4.15999E-03     37.1195E-03     367.720E-03    -183.287E-03    -184.678E-03    -183.258E-03     367.691E-03    -184.678E-03     7.07312E-03     391.602E-03     99.1229E+06    -56.3693E+06    -102.692E+06    -169.362E+06    -102.763E+06    -169.292E+06    -56.3693E+06     606.965E+03
             763     37.2755E-03     3.32751E-03     37.1267E-03     368.048E-03    -183.686E-03    -184.677E-03    -183.682E-03     368.044E-03    -184.677E-03     1.15119E-03     383.712E-03     122.547E+06    -76.3888E+06    -111.187E+06    -212.322E+06    -111.215E+06    -212.295E+06    -76.3888E+06     17.7573E+03
             764     37.2242E-03     2.49350E-03     37.1406E-03     368.734E-03    -184.212E-03    -184.674E-03    -184.208E-03     368.730E-03    -184.674E-03    -2.26408E-03     377.479E-03     135.584E+06    -96.9820E+06    -119.524E+06    -242.282E+06    -119.547E+06    -242.258E+06    -96.9820E+06    -276.789E+03
             765     37.1919E-03     1.66446E-03     37.1546E-03     368.950E-03    -184.444E-03    -184.623E-03    -184.436E-03     368.942E-03    -184.623E-03    -3.46305E-03     373.046E-03     145.868E+06    -114.687E+06    -126.159E+06    -265.878E+06    -126.175E+06    -265.862E+06    -114.687E+06    -65.7146E+03
             766     37.1754E-03     833.496E-06     37.1661E-03     369.013E-03    -184.040E-03    -184.979E-03    -184.628E-03     369.008E-03    -184.385E-03    -2.89231E-03     370.400E-03     158.862E+06    -126.297E+06    -131.364E+06    -287.623E+06    -130.445E+06    -287.618E+06    -127.221E+06     436.510E+03
             767     39.8535E-03     14.1448E-03     37.2589E-03     395.687E-03    -184.448E-03    -211.005E-03    -191.731E-03     376.412E-03    -184.448E-03     201.957E-03     519.959E-03     83.2556E+06     89.3351E+06     52.1683E+06    -5.83697E+06    -5.82355E+06     52.1549E+06     89.3351E+06     415.263E+03
             768     39.1913E-03     13.3186E-03     36.8589E-03     397.101E-03    -183.963E-03    -212.797E-03    -191.586E-03     375.890E-03    -183.963E-03     217.471E-03     540.220E-03     74.0007E+06     72.1545E+06     46.3197E+06    -11.2566E+06    -11.2494E+06     46.3125E+06     72.1545E+06    -281.432E+03
             769     38.7106E-03     12.4850E-03     36.6420E-03     382.321E-03    -183.874E-03    -198.382E-03    -185.260E-03     369.198E-03    -183.874E-03     172.031E-03     508.138E-03     70.5691E+06     62.6533E+06     39.1077E+06    -16.6556E+06    -16.6181E+06     39.0702E+06     62.6533E+06    -31.9404E+03
             770     38.2154E-03     11.6527E-03     36.3955E-03     378.924E-03    -184.242E-03    -194.987E-03    -182.744E-03     366.681E-03    -184.242E-03     164.706E-03     506.293E-03     75.3347E+06     63.1522E+06     35.0938E+06    -22.1589E+06    -22.0996E+06     35.0345E+06     63.1522E+06    -171.270E+03
             771     37.7936E-03     10.8186E-03     36.2121E-03     372.968E-03    -184.434E-03    -189.192E-03    -180.626E-03     364.402E-03    -184.434E-03     137.624E-03     493.799E-03     81.8318E+06     64.5495E+06     32.2584E+06    -28.4892E+06    -28.4586E+06     32.2279E+06     64.5495E+06    -223.010E+03
             772     37.4026E-03     9.98575E-03     36.0450E-03     370.842E-03    -184.195E-03    -186.700E-03    -180.035E-03     364.178E-03    -184.195E-03     120.678E-03     486.554E-03     84.6629E+06     59.8181E+06     26.3125E+06    -36.4485E+06    -36.4434E+06     26.3073E+06     59.8181E+06     321.940E+03
             773     37.0572E-03     9.15260E-03     35.9092E-03     368.129E-03    -183.249E-03    -184.563E-03    -179.372E-03     363.782E-03    -184.094E-03     96.7876E-03     472.351E-03     82.7930E+06     48.7130E+06     17.2799E+06    -45.1670E+06    -45.1448E+06     17.2577E+06     48.7130E+06     707.816E+03
             774     36.7665E-03     8.32009E-03     35.8127E-03     366.168E-03    -182.300E-03    -184.349E-03    -179.711E-03     363.579E-03    -184.349E-03     74.5364E-03     456.978E-03     79.1049E+06     35.2913E+06     7.89054E+06    -53.8553E+06    -53.8196E+06     7.85485E+06     35.2913E+06     643.072E+03
             775     36.5181E-03     7.48702E-03     35.7424E-03     365.589E-03    -181.833E-03    -184.751E-03    -180.389E-03     364.146E-03    -184.751E-03     55.3534E-03     441.580E-03     76.3777E+06     22.2981E+06    -2.43972E+06    -63.3796E+06    -63.3379E+06    -2.48140E+06     22.2981E+06     54.2019E+03
             776     36.3145E-03     6.65309E-03     35.6999E-03     366.310E-03    -181.755E-03    -184.849E-03    -181.042E-03     365.597E-03    -184.849E-03     38.8323E-03     426.483E-03     72.3967E+06     7.84813E+06    -14.6434E+06    -73.1087E+06    -73.0691E+06    -14.6831E+06     7.84813E+06    -147.314E+03
             777     36.1451E-03     5.82210E-03     35.6731E-03     367.149E-03    -182.221E-03    -184.732E-03    -181.904E-03     366.832E-03    -184.732E-03     25.6308E-03     413.552E-03     66.5284E+06    -12.3102E+06    -53.8480E+06    -83.6366E+06    -82.9782E+06    -54.5065E+06    -12.3102E+06     49.4203E+03
             778     36.0128E-03     4.99036E-03     35.6654E-03     367.709E-03    -182.826E-03    -184.789E-03    -182.716E-03     367.599E-03    -184.789E-03     14.7832E-03     401.900E-03     74.6558E+06    -34.6977E+06    -91.9478E+06    -116.713E+06    -93.0649E+06    -115.596E+06    -34.6977E+06     309.425E+03
             779     35.9108E-03     4.15736E-03     35.6693E-03     368.496E-03    -183.875E-03    -184.864E-03    -183.881E-03     368.469E-03    -184.832E-03     7.10233E-03     392.569E-03     99.1265E+06    -56.3063E+06    -102.510E+06    -169.280E+06    -102.612E+06    -169.179E+06    -56.3063E+06     391.462E+03
             780     35.8357E-03     3.32683E-03     35.6810E-03     368.899E-03    -184.419E-03    -184.798E-03    -184.504E-03     368.894E-03    -184.708E-03     1.30842E-03     384.537E-03     121.538E+06    -76.9041E+06    -111.055E+06    -211.617E+06    -111.092E+06    -211.580E+06    -76.9041E+06     109.132E+03
             781     35.7820E-03     2.49744E-03     35.6947E-03     368.632E-03    -184.138E-03    -184.684E-03    -184.191E-03     368.627E-03    -184.626E-03    -2.70657E-03     377.355E-03     135.588E+06    -96.9415E+06    -118.489E+06    -241.854E+06    -118.515E+06    -241.829E+06    -96.9415E+06    -326.637E+03
             782     35.7490E-03     1.66286E-03     35.7103E-03     368.653E-03    -184.163E-03    -184.669E-03    -184.156E-03     368.647E-03    -184.669E-03    -3.43868E-03     372.769E-03     146.600E+06    -115.693E+06    -125.385E+06    -266.811E+06    -125.410E+06    -266.786E+06    -115.693E+06    -541.407E+03
             783     35.7305E-03     830.100E-06     35.7208E-03     369.255E-03    -183.783E-03    -185.475E-03    -185.290E-03     369.252E-03    -183.964E-03    -2.21260E-03     370.666E-03     160.479E+06    -125.871E+06    -129.082E+06    -287.921E+06    -128.893E+06    -287.895E+06    -126.086E+06    -703.440E+03
             784     38.5032E-03     14.1499E-03     35.8088E-03     395.560E-03    -184.350E-03    -211.060E-03    -191.571E-03     376.070E-03    -184.350E-03     202.905E-03     519.909E-03     83.4916E+06     89.9886E+06     52.1761E+06    -5.53837E+06    -5.49198E+06     52.1297E+06     89.9886E+06     257.235E+03
             785     37.8324E-03     13.3159E-03     35.4116E-03     396.030E-03    -183.971E-03    -211.915E-03    -190.414E-03     374.529E-03    -183.971E-03     218.659E-03     539.117E-03     74.2030E+06     72.9695E+06     45.3930E+06    -11.0448E+06    -11.0213E+06     45.3695E+06     72.9695E+06    -807.213E+03
             786     37.3446E-03     12.4849E-03     35.1959E-03     381.168E-03    -183.928E-03    -197.154E-03    -183.977E-03     367.990E-03    -183.928E-03     172.126E-03     506.911E-03     70.3294E+06     63.6352E+06     38.9697E+06    -15.6963E+06    -15.6656E+06     38.9390E+06     63.6352E+06     210.829E+03
             787     36.8408E-03     11.6507E-03     34.9500E-03     378.798E-03    -184.256E-03    -194.758E-03    -182.562E-03     366.602E-03    -184.256E-03     164.350E-03     506.418E-03     74.5444E+06     62.5960E+06     35.0193E+06    -21.7816E+06    -21.7225E+06     34.9602E+06     62.5960E+06     188.826E+03
             788     36.4094E-03     10.8180E-03     34.7652E-03     373.758E-03    -184.473E-03    -189.975E-03    -181.370E-03     365.154E-03    -184.473E-03     138.128E-03     494.607E-03     81.1218E+06     63.6494E+06     31.3134E+06    -28.6244E+06    -28.5857E+06     31.2746E+06     63.6494E+06    -114.571E+03
             789     36.0088E-03     9.98713E-03     34.5961E-03     371.391E-03    -184.200E-03    -187.123E-03    -180.312E-03     364.581E-03    -184.200E-03     122.166E-03     486.611E-03     84.6277E+06     60.0742E+06     26.0441E+06    -36.2386E+06    -36.1958E+06     26.0013E+06     60.0742E+06     889.617E+03
             790     35.6596E-03     9.15267E-03     34.4649E-03     368.144E-03    -183.104E-03    -184.739E-03    -179.214E-03     363.609E-03    -184.095E-03     98.8462E-03     471.995E-03     82.7840E+06     49.4100E+06     17.5539E+06    -44.5429E+06    -44.4790E+06     17.4901E+06     49.4100E+06     1.10933E+06
             791     35.3579E-03     8.31846E-03     34.3655E-03     365.862E-03    -182.019E-03    -184.401E-03    -179.370E-03     363.213E-03    -184.401E-03     75.2128E-03     456.619E-03     79.1484E+06     35.9842E+06     8.00457E+06    -53.3315E+06    -53.2737E+06     7.94676E+06     35.9842E+06     662.892E+03
             792     35.1060E-03     7.48476E-03     34.2989E-03     365.701E-03    -181.768E-03    -184.788E-03    -180.358E-03     364.292E-03    -184.788E-03     54.6007E-03     441.701E-03     76.3600E+06     23.2219E+06    -1.74966E+06    -62.4952E+06    -62.4368E+06    -1.80812E+06     23.2219E+06     321.399E+03
             793     34.8915E-03     6.65394E-03     34.2512E-03     366.444E-03    -181.787E-03    -184.882E-03    -181.116E-03     365.773E-03    -184.882E-03     37.6392E-03     426.716E-03     72.0080E+06     8.87132E+06    -14.9916E+06    -72.0327E+06    -71.9860E+06    -15.0383E+06     8.87132E+06     10.6319E+03
             794     34.7174E-03     5.82144E-03     34.2258E-03     367.371E-03    -182.310E-03    -184.815E-03    -182.016E-03     367.076E-03    -184.815E-03     24.7729E-03     413.648E-03     66.0176E+06    -11.7995E+06    -54.4276E+06    -82.9513E+06    -82.2554E+06    -55.1235E+06    -11.7995E+06     229.052E+03
             795     34.5805E-03     4.98902E-03     34.2187E-03     368.157E-03    -183.208E-03    -184.859E-03    -183.106E-03     368.056E-03    -184.859E-03     14.0995E-03     402.327E-03     74.7177E+06    -34.6987E+06    -91.3353E+06    -116.848E+06    -92.3567E+06    -115.826E+06    -34.6987E+06     210.420E+03
             796     34.4766E-03     4.15819E-03     34.2249E-03     368.580E-03    -183.907E-03    -184.875E-03    -183.919E-03     368.559E-03    -184.842E-03     5.98865E-03     392.594E-03     99.6326E+06    -55.2934E+06    -101.192E+06    -168.866E+06    -101.284E+06    -168.774E+06    -55.2934E+06     67.3626E+03
             797     34.3929E-03     3.32685E-03     34.2316E-03     368.590E-03    -184.040E-03    -184.872E-03    -184.127E-03     368.588E-03    -184.782E-03     861.346E-06     384.350E-03     121.726E+06    -76.4919E+06    -110.032E+06    -211.194E+06    -110.075E+06    -211.151E+06    -76.4919E+06    -219.333E+03
             798     34.3414E-03     2.49431E-03     34.2507E-03     368.724E-03    -184.125E-03    -184.868E-03    -184.181E-03     368.722E-03    -184.811E-03    -1.88008E-03     377.797E-03     136.325E+06    -97.1306E+06    -118.542E+06    -242.774E+06    -118.558E+06    -242.758E+06    -97.1306E+06    -217.370E+03
             799     34.3060E-03     1.66419E-03     34.2656E-03     369.204E-03    -184.440E-03    -184.920E-03    -184.502E-03     369.200E-03    -184.854E-03    -2.67510E-03     373.462E-03     147.410E+06    -114.430E+06    -124.915E+06    -266.708E+06    -124.943E+06    -266.680E+06    -114.430E+06     57.9289E+03
             800     34.2832E-03     832.760E-06     34.2730E-03     369.509E-03    -183.822E-03    -185.706E-03    -184.801E-03     369.506E-03    -184.723E-03    -1.62890E-03     370.979E-03     161.115E+06    -126.612E+06    -129.465E+06    -289.113E+06    -129.192E+06    -289.081E+06    -126.918E+06    -637.570E+03
             801     37.1634E-03     14.1492E-03     34.3645E-03     394.898E-03    -184.234E-03    -210.484E-03    -190.827E-03     375.240E-03    -184.234E-03     204.185E-03     518.662E-03     83.7308E+06     90.4321E+06     53.1232E+06    -5.31400E+06    -5.26682E+06     53.0761E+06     90.4321E+06     580.766E+03
             802     36.4827E-03     13.3186E-03     33.9647E-03     394.607E-03    -183.942E-03    -210.475E-03    -188.983E-03     373.115E-03    -183.942E-03     218.163E-03     537.591E-03     73.5278E+06     73.8994E+06     45.4982E+06    -9.56357E+06    -9.51985E+06     45.4545E+06     73.8994E+06    -385.578E+03
             803     35.9855E-03     12.4837E-03     33.7507E-03     380.473E-03    -184.064E-03    -196.464E-03    -183.209E-03     367.218E-03    -184.064E-03     172.412E-03     506.403E-03     70.0184E+06     64.0595E+06     37.6165E+06    -15.3169E+06    -15.2981E+06     37.5976E+06     64.0595E+06    -394.193E+03
             804     35.4731E-03     11.6509E-03     33.5052E-03     379.106E-03    -184.426E-03    -195.130E-03    -182.717E-03     366.693E-03    -184.426E-03     165.977E-03     506.436E-03     74.6688E+06     63.5936E+06     34.8280E+06    -21.1527E+06    -21.1309E+06     34.8062E+06     63.5936E+06     658.648E+03
             805     35.0291E-03     10.8183E-03     33.3167E-03     374.070E-03    -184.568E-03    -190.299E-03    -181.521E-03     365.291E-03    -184.568E-03     139.519E-03     494.756E-03     81.1403E+06     63.7220E+06     30.9474E+06    -28.6407E+06    -28.5842E+06     30.8909E+06     63.7220E+06     1.34654E+06
             806     34.6238E-03     9.98302E-03     33.1534E-03     371.639E-03    -184.282E-03    -187.326E-03    -180.557E-03     364.869E-03    -184.282E-03     121.774E-03     486.888E-03     84.4116E+06     59.5608E+06     25.7361E+06    -36.4856E+06    -36.3904E+06     25.6409E+06     59.5608E+06     896.475E+03
             807     34.2610E-03     9.15006E-03     33.0166E-03     368.274E-03    -183.208E-03    -184.866E-03    -179.514E-03     363.860E-03    -184.146E-03     97.4916E-03     472.321E-03     82.7164E+06     49.7901E+06     17.8388E+06    -44.1178E+06    -44.0434E+06     17.7645E+06     49.7901E+06     439.372E+03
             808     33.9586E-03     8.31855E-03     32.9239E-03     366.499E-03    -182.517E-03    -184.433E-03    -179.910E-03     363.892E-03    -184.433E-03     74.8380E-03     457.104E-03      79.272E+06     36.8712E+06     8.37317E+06    -52.6903E+06    -52.6171E+06     8.29996E+06     36.8712E+06     168.170E+03
             809     33.6911E-03     7.48670E-03     32.8488E-03     366.422E-03    -182.235E-03    -184.784E-03    -180.818E-03     365.005E-03    -184.784E-03     54.6871E-03     441.957E-03     76.5559E+06     24.1827E+06    -1.42221E+06    -61.8896E+06    -61.7801E+06    -1.53175E+06     24.1827E+06     308.846E+03
             810     33.4746E-03     6.65386E-03     32.8066E-03     366.382E-03    -181.742E-03    -184.841E-03    -181.088E-03     365.728E-03    -184.841E-03     37.1846E-03     426.401E-03     72.4316E+06     9.15832E+06    -15.3002E+06    -72.3321E+06    -72.2668E+06    -15.3655E+06     9.15832E+06     648.818E+03
             811     33.2923E-03     5.82122E-03     32.7794E-03     367.371E-03    -182.399E-03    -184.786E-03    -182.118E-03     367.090E-03    -184.786E-03     24.0157E-03     413.646E-03     66.2994E+06    -12.1864E+06    -54.9881E+06    -83.8067E+06    -82.9050E+06    -55.8898E+06    -12.1864E+06     696.490E+03
             812     33.1481E-03     4.99012E-03     32.7703E-03     368.193E-03    -183.337E-03    -184.799E-03    -183.247E-03     368.102E-03    -184.799E-03     13.3839E-03     402.376E-03     73.9752E+06    -34.7497E+06    -91.1159E+06    -116.149E+06    -92.2524E+06    -115.013E+06    -34.7497E+06     272.412E+03
             813     33.0381E-03     4.15907E-03     32.7752E-03     368.066E-03    -183.472E-03    -184.789E-03    -183.452E-03     368.046E-03    -184.789E-03     5.81125E-03     392.138E-03     99.0636E+06    -55.6365E+06    -101.467E+06    -168.553E+06    -101.566E+06    -168.454E+06    -55.6365E+06    -215.816E+03
             814     32.9582E-03     3.32621E-03     32.7899E-03     368.026E-03    -183.459E-03    -184.874E-03    -183.457E-03     368.024E-03    -184.874E-03     586.802E-06     383.882E-03     121.867E+06    -76.6936E+06    -111.067E+06    -211.804E+06    -111.093E+06    -211.777E+06    -76.6936E+06     167.326E+03
             815     32.8974E-03     2.49393E-03     32.8027E-03     368.825E-03    -184.049E-03    -185.063E-03    -184.046E-03     368.822E-03    -185.063E-03    -2.39176E-03     378.048E-03     136.587E+06    -97.1835E+06    -119.186E+06    -243.280E+06    -119.194E+06    -243.272E+06    -97.1835E+06     306.174E+03
             816     32.8608E-03     1.66192E-03     32.8187E-03     369.846E-03    -184.751E-03    -185.232E-03    -184.812E-03     369.841E-03    -185.166E-03    -2.69506E-03     374.255E-03     147.617E+06    -113.852E+06    -125.120E+06    -266.717E+06    -125.144E+06    -266.694E+06    -113.852E+06     149.557E+03
             817     32.8394E-03     830.746E-06     32.8289E-03     370.213E-03    -184.208E-03    -186.020E-03    -185.164E-03     370.210E-03    -185.062E-03    -1.93685E-03     371.686E-03     161.752E+06    -125.642E+06    -129.564E+06    -289.295E+06    -129.038E+06    -289.272E+06    -126.192E+06     642.554E+03
             818     35.8258E-03     14.1520E-03     32.9121E-03     394.560E-03    -184.182E-03    -210.237E-03    -190.528E-03     374.850E-03    -184.182E-03     204.270E-03     518.379E-03     83.4258E+06     90.3570E+06     53.1635E+06    -5.01789E+06    -5.00340E+06     53.1490E+06     90.3570E+06     371.389E+03
             819     35.1451E-03     13.3170E-03     32.5244E-03     393.745E-03    -183.906E-03    -209.587E-03    -187.940E-03     372.098E-03    -183.906E-03     218.774E-03     536.682E-03     73.2053E+06     72.1829E+06     45.6635E+06    -10.5050E+06    -10.4730E+06     45.6315E+06     72.1829E+06     121.245E+03
             820     34.6348E-03     12.4820E-03     32.3074E-03     380.623E-03    -184.119E-03    -196.609E-03    -183.218E-03     367.233E-03    -184.119E-03     173.396E-03     506.145E-03     69.6904E+06     62.5002E+06     36.2657E+06    -16.3820E+06    -16.3608E+06     36.2445E+06     62.5002E+06    -173.396E+03
             821     34.1097E-03     11.6485E-03     32.0591E-03     379.343E-03    -184.490E-03    -195.330E-03    -183.034E-03     367.047E-03    -184.490E-03     165.129E-03     506.070E-03     75.1613E+06     63.0976E+06     32.7225E+06    -22.4537E+06    -22.4418E+06     32.7107E+06     63.0976E+06     442.459E+03
             822     33.6561E-03     10.8141E-03     31.8714E-03     373.988E-03    -184.651E-03    -190.126E-03    -181.581E-03     365.443E-03    -184.651E-03     137.621E-03     494.481E-03     81.9716E+06     64.6868E+06     31.2428E+06    -28.6719E+06    -28.6184E+06     31.1893E+06     64.6868E+06     906.306E+03
             823     33.2393E-03     9.98603E-03     31.7037E-03     371.484E-03    -184.356E-03    -187.264E-03    -180.671E-03     364.891E-03    -184.356E-03     120.195E-03     487.300E-03     84.5303E+06     60.7626E+06     26.5259E+06    -35.4740E+06    -35.3760E+06     26.4280E+06     60.7626E+06     696.843E+03
             824     32.8745E-03     9.15260E-03     31.5747E-03     368.490E-03    -183.571E-03    -184.942E-03    -179.948E-03     364.129E-03    -184.204E-03     97.0730E-03     472.994E-03     82.9126E+06     50.4787E+06     18.3444E+06    -43.6734E+06    -43.5975E+06     18.2685E+06     50.4787E+06     307.330E+03
             825     32.5553E-03     8.31854E-03     31.4746E-03     366.957E-03    -182.961E-03    -184.443E-03    -180.354E-03     364.351E-03    -184.443E-03     74.8236E-03     457.217E-03     79.2387E+06     37.0154E+06     8.48091E+06    -52.5190E+06    -52.4176E+06     8.37960E+06     37.0154E+06     307.252E+03
             826     32.2829E-03     7.48586E-03     31.4030E-03     366.700E-03    -182.344E-03    -184.656E-03    -180.962E-03     365.319E-03    -184.656E-03     53.9243E-03     441.920E-03     76.2880E+06     23.3934E+06    -2.29486E+06    -62.4199E+06    -62.2867E+06    -2.42809E+06     23.3934E+06     551.953E+03
             827     32.0581E-03     6.65406E-03     31.3599E-03     366.610E-03    -181.969E-03    -184.717E-03    -181.343E-03     365.984E-03    -184.717E-03     36.4180E-03     426.479E-03     72.3536E+06     8.81802E+06    -15.6747E+06    -72.6013E+06    -72.5199E+06    -15.7561E+06     8.81802E+06     874.981E+03
             828     31.8695E-03     5.82327E-03     31.3330E-03     366.952E-03    -182.202E-03    -184.736E-03    -181.925E-03     366.676E-03    -184.736E-03     23.9299E-03     413.205E-03     67.0269E+06    -10.9961E+06    -54.1814E+06    -83.4748E+06    -82.5897E+06    -55.0665E+06    -10.9961E+06     794.335E+03
             829     31.7176E-03     4.99089E-03     31.3225E-03     367.294E-03    -182.456E-03    -184.836E-03    -182.360E-03     367.198E-03    -184.836E-03     13.8571E-03     401.498E-03     74.3896E+06    -33.9923E+06    -91.1453E+06    -115.889E+06    -92.6701E+06    -114.364E+06    -33.9923E+06     635.121E+03
             830     31.6051E-03     4.15755E-03     31.3304E-03     367.921E-03    -183.051E-03    -184.877E-03    -183.029E-03     367.899E-03    -184.877E-03     5.97764E-03     392.013E-03     98.7095E+06    -56.3827E+06    -102.655E+06    -168.904E+06    -102.822E+06    -168.737E+06    -56.3827E+06     482.079E+03
             831     31.5179E-03     3.32595E-03     31.3420E-03     368.594E-03    -183.835E-03    -184.946E-03    -183.833E-03     368.592E-03    -184.946E-03     390.932E-06     384.265E-03     122.275E+06    -77.0781E+06    -111.828E+06    -212.718E+06    -111.845E+06    -212.701E+06    -77.0781E+06     297.738E+03
             832     31.4571E-03     2.49436E-03     31.3580E-03     369.046E-03    -184.290E-03    -185.009E-03    -184.286E-03     369.042E-03    -185.009E-03    -2.73792E-03     378.197E-03     135.746E+06    -96.9704E+06    -119.420E+06    -242.389E+06    -119.425E+06    -242.385E+06    -96.9704E+06     351.168E+03
             833     31.4163E-03     1.66255E-03     31.3723E-03     369.601E-03    -184.629E-03    -185.086E-03    -184.673E-03     369.594E-03    -185.035E-03    -3.95052E-03     374.077E-03     145.951E+06    -115.811E+06    -125.608E+06    -266.290E+06    -125.622E+06    -266.276E+06    -115.811E+06    -29.4609E+03
             834     31.3920E-03     831.186E-06     31.3810E-03     370.113E-03    -184.255E-03    -185.849E-03    -185.742E-03     370.109E-03    -184.357E-03    -2.94704E-03     371.554E-03     161.780E+06    -126.895E+06    -129.961E+06    -290.178E+06    -129.534E+06    -290.146E+06    -127.354E+06    -512.218E+03
             835     34.5070E-03     14.1505E-03     31.4722E-03     393.971E-03    -184.217E-03    -209.589E-03    -189.715E-03     374.097E-03    -184.217E-03     204.148E-03     517.750E-03     82.7968E+06     89.3154E+06     52.3131E+06    -5.32975E+06    -5.32143E+06     52.3048E+06     89.3154E+06    -211.957E+03
             836     33.8106E-03     13.3142E-03     31.0787E-03     394.812E-03    -184.041E-03    -210.629E-03    -188.731E-03     372.914E-03    -184.041E-03     219.945E-03     537.171E-03     73.0513E+06     71.6416E+06     45.5609E+06    -10.8004E+06    -10.7893E+06     45.5499E+06     71.6416E+06     496.781E+03
             837     33.2922E-03     12.4821E-03     30.8637E-03     381.825E-03    -184.158E-03    -197.814E-03    -184.474E-03     368.485E-03    -184.158E-03     173.380E-03     507.192E-03     69.7065E+06     62.8373E+06     36.7813E+06    -16.0341E+06    -15.9988E+06     36.7460E+06     62.8373E+06     917.407E+03
             838     32.7522E-03     11.6498E-03     30.6103E-03     380.023E-03    -184.391E-03    -195.869E-03    -183.678E-03     367.832E-03    -184.391E-03     164.494E-03     506.354E-03     74.9242E+06     63.2423E+06     32.3892E+06    -22.1244E+06    -22.0884E+06     32.3532E+06     63.2423E+06     295.137E+03
             839     32.2930E-03     10.8208E-03     30.4261E-03     373.583E-03    -184.617E-03    -189.618E-03    -181.213E-03     365.178E-03    -184.617E-03     136.464E-03     493.942E-03     81.9622E+06     65.0365E+06     30.9854E+06    -28.4036E+06    -28.3774E+06     30.9592E+06     65.0365E+06    -78.7993E+03
             840     31.8627E-03     9.98376E-03     30.2582E-03     370.896E-03    -184.339E-03    -186.772E-03    -180.175E-03     364.299E-03    -184.339E-03     120.117E-03     486.478E-03     84.7570E+06     60.9332E+06     26.2189E+06    -35.6281E+06    -35.5378E+06     26.1287E+06     60.9332E+06     141.738E+03
             841     31.4838E-03     9.14901E-03     30.1252E-03     368.975E-03    -184.124E-03    -185.132E-03    -180.707E-03     364.667E-03    -184.241E-03     96.4193E-03     473.343E-03     83.0466E+06     50.7095E+06     18.2444E+06    -43.6404E+06    -43.5038E+06     18.1077E+06     50.7095E+06     601.585E+03
             842     31.1586E-03     8.32006E-03     30.0272E-03     367.266E-03    -183.297E-03    -184.406E-03    -180.813E-03     364.782E-03    -184.406E-03     73.0407E-03     457.633E-03     79.1871E+06     36.7357E+06     8.01343E+06    -52.7851E+06    -52.6638E+06     7.89220E+06     36.7357E+06     1.15142E+06
             843     30.8781E-03     7.48844E-03     29.9563E-03     366.468E-03    -181.964E-03    -184.422E-03    -180.633E-03     365.136E-03    -184.422E-03     53.1207E-03     441.468E-03     75.9364E+06     23.4343E+06    -2.27258E+06    -62.0127E+06    -61.8727E+06    -2.41259E+06     23.4343E+06     1.14777E+06
             844     30.6441E-03     6.65616E-03     29.9125E-03     366.161E-03    -181.597E-03    -184.526E-03    -180.953E-03     365.516E-03    -184.526E-03     36.9487E-03     425.934E-03     72.2411E+06     9.13526E+06    -15.3721E+06    -72.1693E+06    -72.0530E+06    -15.4885E+06     9.13526E+06     909.847E+03
             845     30.4485E-03     5.82311E-03     29.8865E-03     366.298E-03    -181.893E-03    -184.692E-03    -181.607E-03     366.012E-03    -184.692E-03     24.2893E-03     412.630E-03     66.9407E+06    -10.9770E+06    -53.8927E+06    -83.5784E+06    -82.4956E+06    -54.9755E+06    -10.9770E+06     800.523E+03
             846     30.2941E-03     4.98945E-03     29.8804E-03     367.051E-03    -182.384E-03    -184.876E-03    -182.292E-03     366.960E-03    -184.876E-03     13.1856E-03     401.398E-03     75.1752E+06    -33.5346E+06    -90.4293E+06    -116.550E+06    -92.2120E+06    -114.768E+06    -33.5346E+06     785.692E+03
             847     30.1717E-03     4.15781E-03     29.8839E-03     367.981E-03    -182.975E-03    -184.912E-03    -182.959E-03     367.965E-03    -184.912E-03     4.73129E-03     391.815E-03     99.4805E+06    -54.8205E+06    -101.077E+06    -168.228E+06    -101.256E+06    -168.050E+06    -54.8205E+06     546.059E+03
             848     30.0793E-03     3.32634E-03     29.8948E-03     368.699E-03    -183.819E-03    -184.928E-03    -183.818E-03     368.698E-03    -184.928E-03    -133.565E-06     383.956E-03     122.859E+06    -75.7781E+06    -110.350E+06    -211.964E+06    -110.373E+06    -211.941E+06    -75.7781E+06     252.327E+03
             849     30.0152E-03     2.49464E-03     29.9113E-03     369.254E-03    -184.513E-03    -184.901E-03    -184.549E-03     369.250E-03    -184.861E-03    -2.53761E-03     378.325E-03     136.139E+06    -96.7000E+06    -118.965E+06    -242.454E+06    -118.971E+06    -242.448E+06    -96.7000E+06     207.620E+03
             850     29.9717E-03     1.66369E-03     29.9255E-03     369.372E-03    -184.676E-03    -184.791E-03    -184.762E-03     369.367E-03    -184.700E-03    -3.45695E-03     373.846E-03     145.643E+06    -115.297E+06    -125.982E+06    -265.881E+06    -125.990E+06    -265.873E+06    -115.297E+06     429.634E+03
             851     29.9473E-03     832.158E-06     29.9357E-03     369.112E-03    -183.917E-03    -185.205E-03    -184.513E-03     369.109E-03    -184.606E-03    -2.31390E-03     370.575E-03     162.353E+06    -125.427E+06    -131.170E+06    -290.546E+06    -129.071E+06    -290.512E+06    -127.560E+06     230.572E+03
             852     33.1917E-03     14.1451E-03     30.0267E-03     393.812E-03    -184.323E-03    -209.209E-03    -189.410E-03     374.013E-03    -184.323E-03     203.748E-03     517.358E-03     82.3421E+06     88.6533E+06     52.0937E+06    -5.46297E+06    -5.45502E+06     52.0858E+06     88.6533E+06         120.016
             853     32.4843E-03     13.3137E-03     29.6307E-03     396.574E-03    -184.188E-03    -212.225E-03    -190.441E-03     374.790E-03    -184.188E-03     219.853E-03     538.535E-03     73.3515E+06     71.8344E+06     45.5007E+06    -10.9696E+06    -10.9608E+06     45.4920E+06     71.8344E+06     686.769E+03
             854     31.9556E-03     12.4820E-03     29.4171E-03     382.926E-03    -184.155E-03    -198.822E-03    -185.638E-03     369.743E-03    -184.155E-03     172.670E-03     507.966E-03     70.2864E+06     63.0653E+06     37.3996E+06    -16.3688E+06    -16.3334E+06     37.3642E+06     63.0653E+06     793.797E+03
             855     31.4023E-03     11.6509E-03     29.1610E-03     379.986E-03    -184.294E-03    -195.718E-03    -183.572E-03     367.841E-03    -184.294E-03     164.256E-03     505.805E-03     75.0026E+06     64.1007E+06     33.9560E+06    -21.2347E+06    -21.1917E+06     33.9130E+06     64.1007E+06     426.904E+03
             856     30.9309E-03     10.8159E-03     28.9782E-03     373.643E-03    -184.514E-03    -189.595E-03    -181.230E-03     365.279E-03    -184.514E-03     136.106E-03     494.054E-03     81.1274E+06     64.5891E+06     30.5552E+06    -27.9214E+06    -27.8663E+06     30.5001E+06     64.5891E+06    -193.269E+03
             857     30.4985E-03     9.98589E-03     28.8173E-03     371.448E-03    -184.215E-03    -187.337E-03    -180.847E-03     364.958E-03    -184.215E-03     119.267E-03     486.731E-03     84.1368E+06     60.0695E+06     25.1343E+06    -35.8382E+06    -35.7005E+06     24.9966E+06     60.0695E+06     57.0635E+03
             858     30.1011E-03     9.15407E-03     28.6754E-03     368.452E-03    -183.676E-03    -185.260E-03    -180.557E-03     364.220E-03    -184.147E-03     95.5435E-03     472.572E-03     82.7839E+06     49.3935E+06     17.0164E+06    -44.6604E+06    -44.4675E+06     16.8235E+06     49.3935E+06     435.843E+03
             859     29.7667E-03     8.32187E-03     28.5797E-03     366.668E-03    -182.929E-03    -184.326E-03    -180.440E-03     364.180E-03    -184.326E-03     73.1710E-03     457.179E-03     79.0577E+06     36.5198E+06     7.68639E+06    -52.8915E+06    -52.6895E+06     7.48443E+06     36.5198E+06     1.11601E+06
             860     29.4770E-03     7.48857E-03     28.5099E-03     366.329E-03    -181.818E-03    -184.308E-03    -180.438E-03     364.948E-03    -184.308E-03     54.0774E-03     440.882E-03     76.3578E+06     24.2917E+06    -1.79448E+06    -61.6860E+06    -61.5124E+06    -1.96803E+06     24.2917E+06     1.92449E+06
             861     29.2350E-03     6.65536E-03     28.4674E-03     365.961E-03    -181.461E-03    -184.383E-03    -180.817E-03     365.317E-03    -184.383E-03     36.7235E-03     425.196E-03     71.9528E+06     9.34984E+06    -14.4589E+06    -71.4846E+06    -71.3558E+06    -14.5877E+06     9.34984E+06     1.58820E+06
             862     29.0277E-03     5.82230E-03     28.4377E-03     366.262E-03    -182.198E-03    -184.572E-03    -181.936E-03     366.001E-03    -184.572E-03     23.1330E-03     412.447E-03     66.2582E+06    -11.0560E+06    -52.5659E+06    -83.0229E+06    -81.3490E+06    -54.2398E+06    -11.0560E+06     749.040E+03
             863     28.8638E-03     4.99197E-03     28.4288E-03     366.985E-03    -182.748E-03    -184.745E-03    -182.666E-03     366.902E-03    -184.745E-03     12.5974E-03     401.514E-03     75.4653E+06    -32.7593E+06    -89.4558E+06    -116.413E+06    -91.2436E+06    -114.625E+06    -32.7593E+06     217.229E+03
             864     28.7367E-03     4.16008E-03     28.4340E-03     367.796E-03    -183.081E-03    -184.753E-03    -183.065E-03     367.780E-03    -184.753E-03     4.43438E-03     391.485E-03     100.165E+06    -53.7550E+06    -100.955E+06    -168.060E+06    -101.085E+06    -167.930E+06    -53.7550E+06     392.011E+03
             865     28.6404E-03     3.32683E-03     28.4465E-03     368.286E-03    -183.634E-03    -184.718E-03    -183.632E-03     368.284E-03    -184.718E-03    -650.120E-06     383.310E-03     122.793E+06    -75.0511E+06    -109.990E+06    -211.231E+06    -110.015E+06    -211.207E+06    -75.0511E+06     569.038E+03
             866     28.5714E-03     2.49486E-03     28.4623E-03     368.656E-03    -184.133E-03    -184.666E-03    -184.167E-03     368.651E-03    -184.626E-03    -3.04353E-03     377.662E-03     136.727E+06    -96.0599E+06    -118.208E+06    -242.369E+06    -118.219E+06    -242.358E+06    -96.0599E+06     355.714E+03
             867     28.5268E-03     1.66313E-03     28.4783E-03     368.811E-03    -184.343E-03    -184.590E-03    -184.376E-03     368.805E-03    -184.550E-03    -3.65983E-03     373.307E-03     147.314E+06    -113.692E+06    -124.800E+06    -266.151E+06    -124.808E+06    -266.142E+06    -113.692E+06     364.311E+03
             868     28.5026E-03     831.383E-06     28.4904E-03     368.943E-03    -183.971E-03    -185.006E-03    -183.967E-03     368.939E-03    -185.006E-03    -2.57521E-03     370.438E-03     162.773E+06    -123.383E+06    -130.573E+06    -289.615E+06    -128.461E+06    -289.593E+06    -125.517E+06     671.351E+03
             869     31.8902E-03     14.1464E-03     28.5808E-03     395.007E-03    -184.403E-03    -210.183E-03    -190.540E-03     375.364E-03    -184.403E-03     203.954E-03     518.384E-03     82.6954E+06     88.6123E+06     51.3182E+06    -5.96562E+06    -5.96069E+06     51.3132E+06     88.6123E+06     314.915E+03
             870     31.1694E-03     13.3134E-03     28.1830E-03     397.670E-03    -184.202E-03    -213.193E-03    -191.758E-03     376.235E-03    -184.202E-03     218.559E-03     539.247E-03     73.5152E+06     71.4737E+06     44.3437E+06    -11.6496E+06    -11.6449E+06     44.3390E+06     71.4737E+06     249.124E+03
             871     30.6240E-03     12.4836E-03     27.9641E-03     382.656E-03    -184.046E-03    -198.667E-03    -185.838E-03     369.827E-03    -184.046E-03     170.364E-03     507.381E-03     70.2403E+06     62.9172E+06     38.1635E+06    -16.2142E+06    -16.2055E+06     38.1549E+06     62.9172E+06     42.2269E+03
             872     30.0678E-03     11.6518E-03     27.7183E-03     379.135E-03    -184.142E-03    -194.984E-03    -183.214E-03     367.364E-03    -184.142E-03     161.575E-03     505.226E-03     74.8457E+06     63.3485E+06     34.2419E+06    -21.5166E+06      -21.47E+06     34.1953E+06     63.3485E+06    -372.040E+03
             873     29.5819E-03     10.8199E-03     27.5321E-03     373.652E-03    -184.348E-03    -189.705E-03    -181.454E-03     365.400E-03    -184.348E-03     135.254E-03     493.728E-03     80.6129E+06     64.1129E+06     30.0481E+06    -27.8163E+06    -27.6847E+06     29.9164E+06     64.1129E+06     19.5404E+03
             874     29.1244E-03     9.98797E-03     27.3582E-03     371.321E-03    -184.077E-03    -187.386E-03    -180.865E-03     364.800E-03    -184.077E-03     119.585E-03     486.158E-03     83.7350E+06     59.1951E+06     24.5409E+06    -36.2253E+06    -36.0561E+06     24.3718E+06     59.1951E+06     819.299E+03
             875     28.7257E-03     9.15389E-03     27.2281E-03     367.680E-03    -183.417E-03    -184.921E-03    -179.972E-03     363.349E-03    -184.035E-03     96.6549E-03     471.425E-03     82.0780E+06     48.4766E+06     16.5335E+06    -44.7324E+06    -44.5142E+06     16.3152E+06     48.4766E+06     938.407E+03
             876     28.3760E-03     8.31980E-03     27.1289E-03     366.456E-03    -182.933E-03    -184.247E-03    -180.435E-03     363.958E-03    -184.247E-03     72.9895E-03     456.460E-03     78.8272E+06     35.6658E+06     7.28337E+06    -53.4046E+06    -53.1195E+06     6.99829E+06     35.6658E+06     903.492E+03
             877     28.0782E-03     7.48873E-03     27.0611E-03     366.717E-03    -182.182E-03    -184.205E-03    -180.901E-03     365.436E-03    -184.205E-03     52.0510E-03     441.112E-03     76.5239E+06     23.7502E+06    -2.50134E+06    -62.4420E+06    -62.2522E+06    -2.69109E+06     23.7502E+06     1.19540E+06
             878     27.8223E-03     6.65719E-03     27.0141E-03     366.164E-03    -181.672E-03    -184.178E-03    -181.082E-03     365.574E-03    -184.178E-03     35.2089E-03     424.991E-03     72.9602E+06     10.4603E+06    -12.8923E+06    -71.3035E+06    -71.1821E+06    -13.0138E+06     10.4603E+06     1.07117E+06
             879     27.6110E-03     5.82584E-03     26.9894E-03     366.032E-03    -182.168E-03    -184.313E-03    -181.926E-03     365.790E-03    -184.313E-03     22.2889E-03     411.795E-03     67.7395E+06    -9.95142E+06    -50.9916E+06    -83.5000E+06    -81.4623E+06    -53.0293E+06    -9.95142E+06     738.764E+03
             880     27.4396E-03     4.99161E-03     26.9817E-03     366.345E-03    -182.455E-03    -184.479E-03    -182.380E-03     366.270E-03    -184.479E-03     11.9245E-03     400.757E-03     74.6910E+06    -33.2864E+06    -90.2990E+06    -116.168E+06    -92.2762E+06    -114.191E+06    -33.2864E+06     958.039E+03
             881     27.3037E-03     4.15947E-03     26.9850E-03     367.394E-03    -182.974E-03    -184.483E-03    -182.960E-03     367.381E-03    -184.483E-03     4.35325E-03     391.015E-03     99.3567E+06    -54.5899E+06    -101.677E+06    -167.834E+06    -101.765E+06    -167.746E+06    -54.5899E+06     768.208E+03
             882     27.2012E-03     3.32926E-03     26.9967E-03     368.176E-03    -183.710E-03    -184.486E-03    -183.833E-03     368.173E-03    -184.361E-03    -756.735E-06     383.147E-03     121.697E+06    -76.2265E+06    -110.998E+06    -211.274E+06    -111.022E+06    -211.250E+06    -76.2265E+06     962.863E+03
             883     27.1264E-03     2.49652E-03     27.0113E-03     367.933E-03    -183.764E-03    -184.285E-03    -183.882E-03     367.926E-03    -184.160E-03    -3.85730E-03     376.877E-03     134.804E+06    -97.6498E+06    -119.508E+06    -241.873E+06    -119.520E+06    -241.861E+06    -97.6498E+06     691.166E+03
             884     27.0800E-03     1.66386E-03     27.0288E-03     367.725E-03    -183.771E-03    -184.079E-03    -183.761E-03     367.715E-03    -184.079E-03    -4.67270E-03     372.232E-03     146.342E+06    -114.891E+06    -125.253E+06    -266.046E+06    -125.263E+06    -266.036E+06    -114.891E+06    -16.4096E+03
             885     27.0535E-03     831.648E-06     27.0407E-03     368.165E-03    -183.441E-03    -184.808E-03    -184.448E-03     368.160E-03    -183.796E-03    -3.31744E-03     369.701E-03     160.268E+06    -125.143E+06    -131.660E+06    -288.558E+06    -129.809E+06    -288.541E+06    -127.012E+06     153.700E+03
             886     30.5976E-03     14.1442E-03     27.1321E-03     396.417E-03    -184.364E-03    -211.578E-03    -192.217E-03     377.056E-03    -184.364E-03     204.065E-03     519.589E-03     83.2279E+06     89.2321E+06     51.3185E+06    -6.01919E+06    -6.00136E+06     51.3007E+06     89.2321E+06     754.115E+03
             887     29.8650E-03     13.3168E-03     26.7316E-03     397.296E-03    -184.091E-03    -212.791E-03    -191.910E-03     376.415E-03    -184.091E-03     215.996E-03     538.508E-03     73.7360E+06     72.5765E+06     44.9181E+06    -10.8702E+06    -10.8672E+06     44.9150E+06     72.5765E+06     117.197E+03
             888     29.3075E-03     12.4857E-03     26.5149E-03     381.513E-03    -183.902E-03    -197.571E-03    -184.803E-03     368.745E-03    -183.902E-03     169.599E-03     506.355E-03     69.6659E+06     62.7546E+06     38.5232E+06    -15.6745E+06    -15.6560E+06     38.5048E+06     62.7546E+06    -197.917E+03
             889     28.7378E-03     11.6533E-03     26.2690E-03     379.217E-03    -183.991E-03    -195.141E-03    -183.235E-03     367.311E-03    -183.991E-03     162.621E-03     505.485E-03     74.2329E+06     62.3501E+06     34.3613E+06    -21.6381E+06    -21.5357E+06     34.2589E+06     62.3501E+06     30.5698E+03
             890     28.2363E-03     10.8210E-03     26.0805E-03     373.852E-03    -184.172E-03    -189.963E-03    -181.509E-03     365.398E-03    -184.172E-03     136.934E-03     493.083E-03     80.6387E+06     62.5789E+06     29.2648E+06    -29.2318E+06    -29.0669E+06     29.1000E+06     62.5789E+06     767.052E+03
             891     27.7695E-03     9.98771E-03     25.9112E-03     370.923E-03    -183.961E-03    -187.210E-03    -180.694E-03     364.408E-03    -183.961E-03     119.356E-03     485.196E-03     83.5187E+06     58.5622E+06     24.2642E+06    -36.5747E+06    -36.4154E+06     24.1048E+06     58.5622E+06     978.428E+03
             892     27.3529E-03     9.15346E-03     25.7759E-03     367.997E-03    -183.735E-03    -185.125E-03    -180.837E-03     363.869E-03    -183.895E-03     94.2558E-03     471.350E-03     82.0402E+06     48.5153E+06     16.4471E+06    -44.6734E+06    -44.4596E+06     16.2333E+06     48.5153E+06     1.02848E+06
             893     26.9920E-03     8.32381E-03     25.6765E-03     366.466E-03    -183.171E-03    -184.163E-03    -181.003E-03     364.149E-03    -184.014E-03     70.4417E-03     456.002E-03     78.7163E+06     35.7274E+06     7.05708E+06    -53.2818E+06    -53.0273E+06     6.80260E+06     35.7274E+06     807.102E+03
             894     26.6809E-03     7.49194E-03     25.6075E-03     366.391E-03    -182.182E-03    -183.922E-03    -180.983E-03     365.192E-03    -183.922E-03     50.2947E-03     440.560E-03     76.6615E+06     24.5798E+06    -1.72859E+06    -61.7690E+06    -61.5504E+06    -1.94715E+06     24.5798E+06     199.052E+03
             895     26.4199E-03     6.65958E-03     25.5668E-03     365.841E-03    -181.603E-03    -183.847E-03    -181.057E-03     365.295E-03    -183.847E-03     33.8733E-03     424.448E-03     73.4449E+06     10.5978E+06    -12.9321E+06    -71.7166E+06    -71.4812E+06    -13.1675E+06     10.5978E+06     645.755E+03
             896     26.1937E-03     5.82578E-03     25.5377E-03     365.386E-03    -181.861E-03    -183.951E-03    -181.638E-03     365.164E-03    -183.951E-03     21.1773E-03     410.996E-03     67.3049E+06    -10.8142E+06    -51.7074E+06    -83.7012E+06    -82.1813E+06    -53.2274E+06    -10.8142E+06     1.47454E+06
             897     26.0152E-03     4.99538E-03     25.5311E-03     365.732E-03    -182.336E-03    -184.066E-03    -182.275E-03     365.671E-03    -184.066E-03     10.5585E-03     399.973E-03     72.9352E+06    -34.2491E+06    -89.9908E+06    -114.941E+06    -91.8941E+06    -113.037E+06    -34.2491E+06     1.26817E+06
             898     25.8750E-03     4.16207E-03     25.5381E-03     366.552E-03    -182.613E-03    -184.025E-03    -182.604E-03     366.543E-03    -184.025E-03     3.07633E-03     389.979E-03     98.3888E+06    -55.6039E+06    -101.946E+06    -167.777E+06    -102.034E+06    -167.689E+06    -55.6039E+06     1.34485E+06
             899     25.7629E-03     3.32840E-03     25.5470E-03     367.307E-03    -183.203E-03    -184.040E-03    -183.325E-03     367.304E-03    -183.915E-03    -1.59614E-03     382.167E-03     121.025E+06    -76.8481E+06    -111.784E+06    -211.249E+06    -111.808E+06    -211.224E+06    -76.8481E+06     1.50372E+06
             900     25.6863E-03     2.49812E-03     25.5645E-03     367.427E-03    -183.461E-03    -184.046E-03    -183.817E-03     367.419E-03    -183.683E-03    -4.12573E-03     376.341E-03     133.267E+06    -97.5425E+06    -119.582E+06    -240.285E+06    -119.597E+06    -240.270E+06    -97.5425E+06     1.30341E+06
             901     25.6365E-03     1.66553E-03     25.5823E-03     366.878E-03    -183.269E-03    -183.740E-03    -183.626E-03     366.868E-03    -183.373E-03    -4.61331E-03     371.383E-03     144.501E+06    -115.464E+06    -126.400E+06    -265.034E+06    -126.411E+06    -265.023E+06    -115.464E+06     543.428E+03
             902     25.6076E-03     832.729E-06     25.5940E-03     366.397E-03    -182.527E-03    -183.970E-03    -183.663E-03     366.392E-03    -182.830E-03    -2.78662E-03     367.962E-03     158.843E+06    -126.171E+06    -132.827E+06    -288.232E+06    -130.971E+06    -288.220E+06    -128.039E+06     249.775E+03
             903     29.3139E-03     14.1504E-03     25.6724E-03     396.815E-03    -184.291E-03    -212.330E-03    -192.987E-03     377.472E-03    -184.291E-03     203.945E-03     520.197E-03     82.9566E+06     89.2552E+06     51.4482E+06    -5.62154E+06    -5.59463E+06     51.4213E+06     89.2552E+06     744.267E+03
             904     28.5751E-03     13.3199E-03     25.2808E-03     395.787E-03    -183.985E-03    -211.386E-03    -190.431E-03     374.832E-03    -183.985E-03     216.016E-03     537.469E-03     73.1542E+06     72.8907E+06     45.5891E+06    -9.85045E+06    -9.84721E+06     45.5858E+06     72.8907E+06    -50.3291E+03
             905     28.0040E-03     12.4866E-03     25.0661E-03     381.022E-03    -183.818E-03    -196.975E-03    -183.982E-03     368.029E-03    -183.818E-03     170.910E-03     505.758E-03     68.9548E+06     61.6098E+06     37.2742E+06    -16.0891E+06    -16.0593E+06     37.2443E+06     61.6098E+06     104.768E+03
             906     27.4171E-03     11.6531E-03     24.8174E-03     379.507E-03    -183.928E-03    -195.343E-03    -183.243E-03     367.407E-03    -183.928E-03     163.967E-03     505.034E-03     73.3585E+06     61.2277E+06     32.9347E+06    -21.8501E+06    -21.7713E+06     32.8559E+06     61.2277E+06     923.431E+03
             907     26.9035E-03     10.8209E-03     24.6315E-03     374.799E-03    -184.049E-03    -190.859E-03    -182.485E-03     366.426E-03    -184.049E-03     136.421E-03     493.547E-03     79.9037E+06     62.9098E+06     29.7578E+06    -28.0284E+06    -27.8516E+06     29.5810E+06     62.9098E+06     1.72578E+06
             908     26.4255E-03     9.98927E-03     24.4647E-03     372.040E-03    -183.740E-03    -188.368E-03    -182.031E-03     365.704E-03    -183.740E-03     118.042E-03     485.626E-03     83.5218E+06     59.2423E+06     25.0699E+06    -35.8569E+06    -35.6315E+06     24.8445E+06     59.2423E+06     1.12891E+06
             909     25.9901E-03     9.15867E-03     24.3229E-03     368.549E-03    -183.594E-03    -185.779E-03    -181.753E-03     364.523E-03    -183.594E-03     93.1134E-03     470.954E-03     82.4098E+06     49.7230E+06     16.9850E+06    -43.9849E+06    -43.7473E+06     16.7474E+06     49.7230E+06     862.991E+03
             910     25.6239E-03     8.32688E-03     24.2332E-03     366.196E-03    -183.113E-03    -184.038E-03    -181.336E-03     363.989E-03    -183.608E-03     68.7553E-03     455.364E-03     79.1236E+06     37.0838E+06     8.26178E+06    -52.3842E+06    -52.0723E+06     7.94996E+06     37.0838E+06     464.505E+03
             911     25.2962E-03     7.49368E-03     24.1608E-03     365.510E-03    -181.753E-03    -183.467E-03    -180.631E-03     364.388E-03    -183.467E-03     48.4270E-03     439.378E-03     76.2293E+06     24.0664E+06    -1.44019E+06    -61.6440E+06    -61.2759E+06    -1.80824E+06     24.0664E+06     464.698E+03
             912     25.0230E-03     6.66224E-03     24.1198E-03     365.203E-03    -181.353E-03    -183.389E-03    -180.863E-03     364.713E-03    -183.389E-03     32.0733E-03     423.577E-03     71.8591E+06     8.80483E+06    -14.2630E+06    -71.7536E+06    -71.4112E+06    -14.6053E+06     8.80483E+06     1.20757E+06
             913     24.7900E-03     5.83139E-03     24.0944E-03     364.877E-03    -181.845E-03    -183.450E-03    -181.650E-03     364.682E-03    -183.450E-03     19.7110E-03     410.220E-03     65.8334E+06    -11.3334E+06    -51.7029E+06    -82.8419E+06    -81.1399E+06    -53.4050E+06    -11.3334E+06     1.57234E+06
             914     24.5992E-03     4.99628E-03     24.0865E-03     364.862E-03    -182.074E-03    -183.489E-03    -182.025E-03     364.813E-03    -183.489E-03     9.47603E-03     398.768E-03     72.5497E+06    -34.0256E+06    -89.6793E+06    -114.417E+06    -91.7625E+06    -112.333E+06    -34.0256E+06     1.98555E+06
             915     24.4485E-03     4.16486E-03     24.0912E-03     365.540E-03    -182.244E-03    -183.381E-03    -182.236E-03     365.533E-03    -183.381E-03     2.09562E-03     388.775E-03     98.0600E+06    -55.3201E+06    -102.125E+06    -167.108E+06    -102.208E+06    -167.025E+06    -55.3201E+06     1.89100E+06
             916     24.3330E-03     3.33262E-03     24.1037E-03     365.676E-03    -182.345E-03    -183.302E-03    -182.341E-03     365.672E-03    -183.302E-03    -2.74746E-03     380.476E-03     120.749E+06    -75.8402E+06    -111.030E+06    -210.029E+06    -111.060E+06    -209.999E+06    -75.8402E+06     1.67494E+06
             917     24.2458E-03     2.49751E-03     24.1168E-03     365.949E-03    -182.592E-03    -183.440E-03    -182.821E-03     365.939E-03    -183.201E-03    -4.61643E-03     374.835E-03     132.333E+06    -96.9354E+06    -119.448E+06    -238.916E+06    -119.471E+06    -238.893E+06    -96.9354E+06     1.61764E+06
             918     24.1972E-03     1.66636E-03     24.1398E-03     366.125E-03    -182.806E-03    -183.412E-03    -183.242E-03     366.116E-03    -182.968E-03    -4.17685E-03     370.577E-03     142.406E+06    -115.788E+06    -126.108E+06    -262.962E+06    -126.120E+06    -262.950E+06    -115.788E+06     1.21171E+06
             919     24.1692E-03     833.789E-06     24.1548E-03     365.600E-03    -182.457E-03    -183.235E-03    -182.659E-03     365.596E-03    -183.029E-03    -2.57423E-03     367.126E-03     160.502E+06    -124.578E+06    -130.607E+06    -288.006E+06    -128.516E+06    -287.994E+06    -126.681E+06    -405.364E+03
             920     28.0582E-03     14.1534E-03     24.2270E-03     396.175E-03    -184.258E-03    -211.852E-03    -191.954E-03     376.278E-03    -184.258E-03     204.878E-03     519.778E-03     82.4481E+06     88.4969E+06     51.2990E+06    -5.75602E+06    -5.74024E+06     51.2832E+06     88.4969E+06     279.221E+03
             921     27.3015E-03     13.3178E-03     23.8329E-03     395.835E-03    -183.995E-03    -211.370E-03    -189.494E-03     373.959E-03    -183.995E-03     220.074E-03     537.417E-03     72.3093E+06     71.7855E+06     44.3764E+06    -10.1040E+06    -10.0915E+06     44.3640E+06     71.7855E+06     303.828E+03
             922     26.7144E-03     12.4857E-03     23.6171E-03     382.564E-03    -183.822E-03    -198.307E-03    -185.208E-03     369.464E-03    -183.822E-03     172.095E-03     506.406E-03     68.4378E+06     62.1696E+06      36.294E+06    -15.2364E+06    -15.2107E+06     36.2683E+06     62.1696E+06     877.574E+03
             923     26.1141E-03     11.6536E-03     23.3697E-03     381.039E-03    -183.830E-03    -196.827E-03    -184.957E-03     369.169E-03    -183.830E-03     162.623E-03     505.345E-03     73.4695E+06     61.8826E+06     32.2331E+06    -21.5032E+06    -21.3981E+06     32.1279E+06     61.8826E+06     1.78839E+06
             924     25.5805E-03     10.8223E-03     23.1784E-03     375.900E-03    -183.795E-03    -192.179E-03    -184.204E-03     367.925E-03    -183.795E-03     133.452E-03     493.693E-03     80.3444E+06     63.4503E+06     30.1203E+06    -27.9825E+06    -27.7364E+06     29.8742E+06     63.4503E+06     1.72242E+06
             925     25.0880E-03     9.99372E-03     23.0116E-03     372.162E-03    -183.304E-03    -189.035E-03    -183.086E-03     366.213E-03    -183.304E-03     114.358E-03     484.908E-03     83.6579E+06     60.4127E+06     26.1833E+06    -34.8356E+06    -34.5023E+06     25.8499E+06     60.4127E+06     1.33135E+06
             926     24.6448E-03     9.16040E-03     22.8791E-03     367.458E-03    -183.023E-03    -185.345E-03    -181.464E-03     363.685E-03    -183.132E-03     90.1454E-03     469.184E-03     82.3146E+06     50.2663E+06     18.2334E+06    -43.2080E+06    -42.8300E+06     17.8554E+06     50.2663E+06     892.216E+03
             927     24.2561E-03     8.33072E-03     22.7807E-03     365.407E-03    -182.867E-03    -183.405E-03    -181.043E-03     363.303E-03    -183.125E-03     66.9452E-03     453.800E-03     78.7152E+06     36.2412E+06     8.49410E+06    -52.5763E+06    -52.0358E+06     7.95366E+06     36.2412E+06     836.533E+03
             928     23.9241E-03     7.50074E-03     22.7178E-03     365.073E-03    -181.808E-03    -182.905E-03    -180.754E-03     364.020E-03    -182.905E-03     47.0879E-03     438.200E-03       75.72E+06     22.4520E+06    -2.11359E+06    -62.4961E+06    -61.9979E+06    -2.61175E+06     22.4520E+06     1.68274E+06
             929     23.6342E-03     6.66627E-03     22.6746E-03     364.437E-03    -181.262E-03    -182.775E-03    -180.798E-03     363.972E-03    -182.775E-03     30.9794E-03     422.143E-03     71.8916E+06     7.91883E+06    -14.2911E+06    -72.4530E+06    -72.0174E+06    -14.7267E+06     7.91883E+06     2.18167E+06
             930     23.3888E-03     5.83295E-03     22.6498E-03     364.078E-03    -181.754E-03    -182.766E-03    -181.591E-03     363.914E-03    -182.766E-03     17.7342E-03     408.753E-03     66.2233E+06    -12.1527E+06    -51.8026E+06    -84.3275E+06    -82.7791E+06    -53.3510E+06    -12.1527E+06     2.40078E+06
             931     23.1914E-03     5.00231E-03     22.6455E-03     363.623E-03    -181.459E-03    -182.749E-03    -181.424E-03     363.589E-03    -182.749E-03     7.73778E-03     396.996E-03     71.9664E+06    -34.6039E+06    -89.5923E+06    -114.652E+06    -92.7703E+06    -111.474E+06    -34.6039E+06     2.46765E+06
             932     23.0275E-03     4.16734E-03     22.6472E-03     363.887E-03    -181.220E-03    -182.644E-03    -181.216E-03     363.883E-03    -182.644E-03     1.15972E-03     386.816E-03     96.3836E+06    -55.7046E+06    -101.880E+06    -165.576E+06    -102.013E+06    -165.443E+06    -55.7046E+06     2.12685E+06
             933     22.9040E-03     3.33404E-03     22.6600E-03     364.209E-03    -181.579E-03    -182.623E-03    -181.573E-03     364.203E-03    -182.623E-03    -3.20757E-03     378.780E-03     118.681E+06    -76.7176E+06    -111.690E+06    -208.738E+06    -111.725E+06    -208.704E+06    -76.7176E+06     1.80640E+06
             934     22.8133E-03     2.50103E-03     22.6757E-03     364.190E-03    -181.663E-03    -182.639E-03    -181.652E-03     364.179E-03    -182.639E-03    -4.82557E-03     372.873E-03     129.697E+06    -98.5041E+06    -120.342E+06    -237.535E+06    -120.371E+06    -237.506E+06    -98.5041E+06     1.79769E+06
             935     22.7539E-03     1.66510E-03     22.6929E-03     364.668E-03    -181.956E-03    -182.826E-03    -182.023E-03     364.658E-03    -182.748E-03    -4.56760E-03     369.060E-03     139.204E+06    -116.692E+06    -125.545E+06    -260.010E+06    -125.557E+06    -259.998E+06    -116.692E+06     948.127E+03
             936     22.7258E-03     832.415E-06     22.7106E-03     365.651E-03    -181.949E-03    -183.793E-03    -183.228E-03     365.645E-03    -182.508E-03    -3.25882E-03     367.177E-03     160.146E+06    -125.630E+06    -130.951E+06    -288.361E+06    -128.860E+06    -288.349E+06    -127.732E+06    -185.958E+03
             937     26.8201E-03     14.1494E-03     22.7840E-03     395.505E-03    -184.330E-03    -210.920E-03    -190.757E-03     375.342E-03    -184.330E-03     206.047E-03     518.673E-03     81.7242E+06     87.3453E+06     50.9020E+06    -6.05474E+06    -6.04627E+06     50.8936E+06     87.3453E+06    -291.418E+03
             938     26.0424E-03     13.3160E-03     22.3806E-03     398.246E-03    -184.070E-03    -213.643E-03    -191.696E-03     376.300E-03    -184.070E-03     220.652E-03     537.920E-03     72.2469E+06     70.6550E+06     42.5212E+06    -11.2439E+06    -11.2331E+06     42.5104E+06     70.6550E+06     466.607E+03
             939     25.4394E-03     12.4833E-03     22.1659E-03     384.723E-03    -183.773E-03    -200.563E-03    -187.916E-03     372.076E-03    -183.773E-03     169.779E-03     506.896E-03     69.7442E+06     62.9466E+06     35.4006E+06    -16.1298E+06    -16.0750E+06     35.3458E+06     62.9466E+06     1.35025E+06
             940     24.8210E-03     11.6564E-03     21.9137E-03     383.266E-03    -183.561E-03    -199.335E-03    -188.047E-03     371.979E-03    -183.561E-03     159.089E-03     506.112E-03     75.1466E+06     64.1280E+06     33.2897E+06    -21.2733E+06    -21.0659E+06     33.0824E+06     64.1280E+06     1.32337E+06
             941     24.2787E-03     10.8301E-03     21.7294E-03     376.389E-03    -183.334E-03    -193.225E-03    -185.764E-03     368.928E-03    -183.334E-03     129.394E-03     492.565E-03     81.2028E+06     64.7425E+06     30.7502E+06    -27.7145E+06    -27.3543E+06     30.3900E+06     64.7425E+06     1.13310E+06
             942     23.7645E-03     9.99930E-03     21.5584E-03     370.976E-03    -182.704E-03    -188.695E-03    -183.147E-03     365.427E-03    -182.704E-03     110.250E-03     482.352E-03     83.8580E+06     60.6249E+06     26.5772E+06    -34.8247E+06    -34.4048E+06     26.1572E+06     60.6249E+06     1.24785E+06
             943     23.3142E-03     9.17005E-03     21.4351E-03     365.984E-03    -182.360E-03    -184.577E-03    -181.014E-03     362.530E-03    -182.469E-03     86.2603E-03     466.289E-03     81.4386E+06     48.9094E+06     18.2661E+06    -43.3680E+06    -42.7046E+06     17.6028E+06     48.9094E+06     1.61660E+06
             944     22.9067E-03     8.33520E-03     21.3364E-03     363.943E-03    -182.105E-03    -182.616E-03    -180.331E-03     362.001E-03    -182.449E-03     64.0297E-03     450.343E-03     77.7801E+06     34.2639E+06     7.89520E+06    -53.2551E+06    -52.5448E+06     7.18492E+06     34.2639E+06     2.45409E+06
             945     22.5545E-03     7.50143E-03     21.2705E-03     364.288E-03    -181.734E-03    -182.205E-03    -180.832E-03     363.359E-03    -182.178E-03     43.8817E-03     435.509E-03     75.5594E+06     21.5956E+06    -2.48001E+06    -63.0656E+06    -62.4331E+06    -3.11253E+06     21.5956E+06     3.06924E+06
             946     22.2543E-03     6.67186E-03     21.2306E-03     363.617E-03    -181.191E-03    -181.974E-03    -180.837E-03     363.236E-03    -181.947E-03     27.7701E-03     419.813E-03     72.8055E+06     7.49927E+06    -13.6389E+06    -73.4997E+06    -72.8903E+06    -14.2482E+06     7.49927E+06     3.52363E+06
             947     21.9968E-03     5.83975E-03     21.2074E-03     362.330E-03    -180.798E-03    -181.876E-03    -180.674E-03     362.206E-03    -181.876E-03     15.5181E-03     405.758E-03     66.0902E+06    -12.8671E+06    -49.9257E+06    -84.9373E+06    -83.0182E+06    -51.8449E+06    -12.8671E+06     3.42714E+06
             948     21.7871E-03     5.00488E-03     21.2045E-03     361.965E-03    -180.728E-03    -181.869E-03    -180.702E-03     361.939E-03    -181.869E-03     6.48294E-03     394.623E-03     69.9493E+06    -36.1331E+06    -89.4416E+06    -114.255E+06    -93.3053E+06    -110.391E+06    -36.1331E+06     3.31889E+06
             949     21.6186E-03     4.17157E-03     21.2123E-03     362.136E-03    -180.455E-03    -181.788E-03    -180.451E-03     362.132E-03    -181.788E-03    -133.665E-06     384.583E-03     93.4995E+06    -57.4732E+06    -102.992E+06    -164.029E+06    -103.198E+06    -163.824E+06    -57.4732E+06     3.00517E+06
             950     21.4800E-03     3.33626E-03     21.2194E-03     362.556E-03    -180.791E-03    -181.821E-03    -180.779E-03     362.544E-03    -181.821E-03    -4.71948E-03     376.648E-03     115.708E+06    -78.3522E+06    -112.048E+06    -206.920E+06    -112.117E+06    -206.851E+06    -78.3522E+06     2.04265E+06
             951     21.3839E-03     2.50167E-03     21.2370E-03     363.038E-03    -181.137E-03    -182.036E-03    -181.359E-03     363.017E-03    -181.793E-03    -6.58602E-03     371.302E-03     127.178E+06    -98.8361E+06    -120.231E+06    -235.214E+06    -120.250E+06    -235.194E+06    -98.8361E+06     1.42680E+06
             952     21.3183E-03     1.66816E-03     21.2530E-03     362.956E-03    -181.053E-03    -182.008E-03    -181.358E-03     362.936E-03    -181.683E-03    -6.43648E-03     367.053E-03     136.229E+06    -117.631E+06    -127.046E+06    -258.209E+06    -127.072E+06    -258.183E+06    -117.631E+06     1.46237E+06
             953     21.2836E-03     832.825E-06     21.2673E-03     363.255E-03    -180.547E-03    -182.775E-03    -181.825E-03     363.244E-03    -181.486E-03    -4.25781E-03     364.725E-03     156.112E+06    -128.450E+06    -132.910E+06    -286.738E+06    -131.812E+06    -286.719E+06    -129.568E+06     1.12260E+06
             954     25.5885E-03     14.1423E-03     21.3252E-03     396.809E-03    -184.401E-03    -212.121E-03    -192.619E-03     377.306E-03    -184.401E-03     205.894E-03     519.239E-03     80.8266E+06     86.9363E+06     50.1113E+06    -5.53369E+06    -5.51220E+06     50.0898E+06     86.9363E+06     309.047E+03
             955     24.8028E-03     13.3161E-03     20.9251E-03     400.563E-03    -183.905E-03    -216.115E-03    -195.828E-03     380.276E-03    -183.905E-03     212.991E-03     538.050E-03     73.4353E+06     71.2533E+06     43.1173E+06    -11.8006E+06    -11.7965E+06     43.1132E+06     71.2533E+06     291.162E+03
             956     24.1888E-03     12.4902E-03     20.7145E-03     385.874E-03    -183.370E-03    -202.207E-03    -190.595E-03     374.262E-03    -183.370E-03     163.140E-03     505.453E-03     70.6677E+06     63.6058E+06     35.2940E+06    -16.3300E+06    -16.1448E+06     35.1088E+06     63.6058E+06    -74.3010E+03
             957     23.5496E-03     11.6631E-03     20.4586E-03     382.549E-03    -182.999E-03    -199.294E-03    -188.903E-03     372.159E-03    -182.999E-03     152.601E-03     502.551E-03     74.9634E+06     63.8953E+06     32.1092E+06    -21.2860E+06    -20.8959E+06     31.7191E+06     63.8953E+06     369.083E+03
             958     22.9898E-03     10.8365E-03     20.2756E-03     374.962E-03    -182.663E-03    -192.580E-03    -185.626E-03     368.008E-03    -182.663E-03     124.794E-03     488.061E-03     81.0677E+06     65.0780E+06     31.4124E+06    -27.1510E+06    -26.6434E+06     30.9048E+06     65.0780E+06     865.548E+03
             959     22.4649E-03     10.0082E-03     20.1124E-03     370.030E-03    -181.987E-03    -188.537E-03    -183.285E-03     364.778E-03    -181.987E-03     107.078E-03     477.703E-03     83.4349E+06     59.5523E+06     26.0325E+06    -35.3309E+06    -34.5122E+06     25.2138E+06     59.5523E+06     1.86739E+06
             960     21.9879E-03     9.17309E-03     19.9831E-03     365.650E-03    -181.616E-03    -184.937E-03    -181.806E-03     362.519E-03    -181.616E-03     81.8536E-03     462.146E-03     81.4249E+06     47.8552E+06     17.6888E+06    -44.3058E+06     -43.425E+06     16.8080E+06     47.8552E+06     3.46239E+06
             961     21.5711E-03     8.34430E-03     19.8919E-03     363.570E-03    -181.241E-03    -183.122E-03    -181.320E-03     361.945E-03    -181.418E-03     58.3119E-03     446.555E-03     77.7130E+06     33.9494E+06     8.07039E+06    -53.3789E+06    -52.3866E+06     7.07809E+06     33.9494E+06     4.23583E+06
             962     21.2004E-03     7.51292E-03     19.8246E-03     362.568E-03    -180.553E-03    -181.701E-03    -180.602E-03     361.890E-03    -180.974E-03     36.9951E-03     430.557E-03     75.1803E+06     20.8794E+06    -1.79639E+06    -63.0072E+06    -62.0174E+06    -2.78614E+06     20.8794E+06     4.25431E+06
             963     20.8835E-03     6.67914E-03     19.7866E-03     361.208E-03    -179.944E-03    -180.709E-03    -179.746E-03     360.982E-03    -180.682E-03     20.7120E-03     414.966E-03     71.3188E+06     6.94658E+06    -13.3122E+06    -72.2614E+06    -71.5201E+06    -14.0535E+06     6.94658E+06     3.94122E+06
             964     20.6153E-03     5.84417E-03     19.7695E-03     360.008E-03    -179.606E-03    -180.572E-03    -179.538E-03     359.940E-03    -180.572E-03     9.81238E-03     401.492E-03     64.4407E+06    -13.1614E+06    -48.6437E+06    -84.2406E+06    -81.9341E+06    -50.9502E+06    -13.1614E+06     4.90376E+06
             965     20.3934E-03     5.00960E-03     19.7685E-03     359.528E-03    -179.718E-03    -180.525E-03    -179.698E-03     359.508E-03    -180.525E-03     1.07237E-03     390.819E-03     68.6772E+06    -35.8367E+06    -87.2633E+06    -113.226E+06    -92.7964E+06    -107.693E+06    -35.8367E+06     4.76864E+06
             966     20.2073E-03     4.17511E-03     19.7713E-03     359.805E-03    -179.740E-03    -180.440E-03    -179.720E-03     359.784E-03    -180.440E-03    -4.98442E-03     381.513E-03     91.2817E+06    -57.0524E+06    -102.598E+06    -161.212E+06    -102.936E+06    -160.874E+06    -57.0524E+06     3.95175E+06
             967     20.0653E-03     3.34098E-03     19.7852E-03     360.022E-03    -179.788E-03    -180.423E-03    -179.755E-03     359.989E-03    -180.423E-03    -8.03206E-03     373.585E-03     112.414E+06    -78.7498E+06    -112.765E+06    -203.972E+06    -112.907E+06    -203.830E+06    -78.7498E+06     3.21906E+06
             968     19.9552E-03     2.50623E-03     19.7972E-03     360.554E-03    -180.032E-03    -180.636E-03    -180.328E-03     360.517E-03    -180.302E-03    -8.91990E-03     368.216E-03     124.353E+06    -99.7994E+06    -121.556E+06    -233.449E+06    -121.616E+06    -233.389E+06    -99.7994E+06     2.19214E+06
             969     19.8905E-03     1.67173E-03     19.8202E-03     360.434E-03    -179.830E-03    -180.599E-03    -180.573E-03     360.408E-03    -179.830E-03    -7.49953E-03     364.123E-03     133.796E+06    -117.972E+06    -128.229E+06    -256.500E+06    -128.265E+06    -256.464E+06    -117.972E+06     1.92539E+06
             970     19.8512E-03     837.360E-06     19.8335E-03     359.031E-03    -178.917E-03    -180.121E-03    -179.448E-03     359.017E-03    -179.576E-03    -5.32052E-03     360.364E-03     151.944E+06    -127.677E+06    -131.760E+06    -281.618E+06    -130.664E+06    -281.596E+06    -128.795E+06     1.45000E+06
             971     24.3901E-03     14.1484E-03     19.8671E-03     400.902E-03    -184.222E-03    -216.671E-03    -197.970E-03     382.202E-03    -184.222E-03     205.060E-03     522.285E-03     82.4903E+06     88.7846E+06     50.8037E+06    -5.61305E+06    -5.58545E+06     50.7761E+06     88.7846E+06     749.737E+03
             972     23.5961E-03     13.3264E-03     19.4726E-03     402.140E-03    -183.352E-03    -218.175E-03    -199.422E-03     383.386E-03    -183.352E-03     205.815E-03     536.484E-03     73.4252E+06     72.6380E+06     43.6384E+06    -10.4535E+06    -10.3983E+06     43.5831E+06     72.6380E+06    -487.876E+03
             973     22.9571E-03     12.5016E-03     19.2546E-03     386.456E-03    -182.560E-03    -203.486E-03    -192.731E-03     375.700E-03    -182.560E-03     157.406E-03     501.586E-03     69.4806E+06     63.0905E+06     35.2954E+06    -15.3090E+06    -15.0069E+06     34.9933E+06     63.0905E+06    -176.557E+03
             974     22.3065E-03     11.6777E-03     19.0056E-03     380.633E-03    -182.034E-03    -198.308E-03    -188.810E-03     371.135E-03    -182.034E-03     145.542E-03     494.959E-03     73.4151E+06     61.1529E+06     31.5436E+06    -21.9861E+06    -21.3252E+06     30.8826E+06     61.1529E+06      99.781E+03
             975     21.7284E-03     10.8457E-03     18.8280E-03     373.007E-03    -181.559E-03    -191.622E-03    -185.536E-03     366.922E-03    -181.559E-03     116.296E-03     479.966E-03     78.9446E+06     60.5584E+06     29.0040E+06    -29.0698E+06    -28.1349E+06     28.0691E+06     60.5584E+06     994.671E+03
             976     21.1811E-03     10.0146E-03     18.6641E-03     369.123E-03    -180.799E-03    -188.877E-03    -184.585E-03     364.830E-03    -180.799E-03     96.1323E-03     470.539E-03     82.6945E+06     56.9629E+06     24.5474E+06    -36.9132E+06    -35.8323E+06     23.4665E+06     56.9629E+06     2.56394E+06
             977     20.6935E-03     9.18769E-03     18.5420E-03     365.008E-03    -180.198E-03    -185.886E-03    -183.563E-03     362.685E-03    -180.198E-03     69.9998E-03     455.723E-03     81.6423E+06     47.2929E+06     17.1838E+06    -45.1010E+06    -43.9805E+06     16.0633E+06     47.2929E+06     3.84674E+06
             978     20.2505E-03     8.35662E-03     18.4459E-03     362.193E-03    -179.707E-03    -183.437E-03    -182.343E-03     361.099E-03    -179.707E-03     46.9182E-03     440.075E-03     78.4314E+06     34.4665E+06     8.87884E+06    -53.5221E+06    -52.3238E+06     7.68047E+06     34.4665E+06     4.77957E+06
             979     19.8696E-03     7.52630E-03     18.3890E-03     359.818E-03    -178.772E-03    -180.890E-03    -180.259E-03     359.432E-03    -179.017E-03     26.1006E-03     423.414E-03     74.9630E+06     21.6260E+06     7.87334E+03    -61.7565E+06    -60.4463E+06    -1.30229E+06     21.6260E+06     5.01086E+06
             980     19.5350E-03     6.69195E-03     18.3530E-03     357.795E-03    -178.079E-03    -179.259E-03    -178.691E-03     357.709E-03    -178.561E-03     9.76177E-03     407.995E-03     71.2483E+06     6.84587E+06    -12.7703E+06    -72.1055E+06    -70.9780E+06    -13.8977E+06     6.84587E+06     5.95956E+06
             981     19.2489E-03     5.85767E-03     18.3360E-03     356.578E-03    -177.957E-03    -178.644E-03    -178.333E-03     356.554E-03    -178.244E-03    -1.21721E-03     395.140E-03     64.2396E+06    -13.4490E+06    -47.4595E+06    -84.5149E+06    -82.2931E+06    -49.6814E+06    -13.4490E+06     6.38622E+06
             982     19.0081E-03     5.02227E-03     18.3326E-03     355.307E-03    -177.751E-03    -178.187E-03    -177.834E-03     355.259E-03    -178.055E-03    -8.45315E-03     384.132E-03     66.7346E+06    -35.3883E+06    -85.2259E+06    -110.783E+06    -92.0956E+06    -103.914E+06    -35.3883E+06     6.15027E+06
             983     18.8096E-03     4.18524E-03     18.3381E-03     355.047E-03    -177.541E-03    -178.039E-03    -177.463E-03     354.969E-03    -178.039E-03    -12.3859E-03     375.141E-03     88.8319E+06    -56.2223E+06    -101.865E+06    -157.656E+06    -102.609E+06    -156.911E+06    -56.2223E+06     5.47370E+06
             984     18.6531E-03     3.34854E-03     18.3501E-03     355.471E-03    -177.683E-03    -178.047E-03    -177.607E-03     355.380E-03    -178.032E-03    -13.5036E-03     368.065E-03     110.188E+06    -77.2488E+06    -112.262E+06    -200.424E+06    -112.530E+06    -200.155E+06    -77.2488E+06     4.70508E+06
             985     18.5385E-03     2.51140E-03     18.3676E-03     355.636E-03    -177.742E-03    -178.035E-03    -177.768E-03     355.557E-03    -177.930E-03    -12.5101E-03     362.583E-03     121.676E+06    -98.7842E+06    -120.975E+06    -229.841E+06    -121.105E+06    -229.710E+06    -98.7842E+06     3.45818E+06
             986     18.4599E-03     1.67405E-03     18.3839E-03     355.475E-03    -177.320E-03    -178.181E-03    -177.717E-03     355.428E-03    -177.736E-03    -9.57917E-03     358.839E-03     131.838E+06    -117.572E+06    -127.753E+06    -254.110E+06    -127.782E+06    -254.081E+06    -117.572E+06     1.75195E+06
             987     18.4242E-03     837.183E-06     18.4052E-03     355.260E-03    -176.680E-03    -178.562E-03    -178.209E-03     355.241E-03    -177.014E-03    -5.61683E-03     356.460E-03     147.143E+06    -128.879E+06    -132.232E+06    -277.660E+06    -131.999E+06    -277.650E+06    -129.122E+06     810.508E+03
             988     23.2200E-03     14.1563E-03     18.4056E-03     405.797E-03    -183.793E-03    -222.142E-03    -203.927E-03     387.582E-03    -183.793E-03     204.913E-03     524.822E-03     82.9577E+06     89.5046E+06     50.9505E+06    -5.45564E+06    -5.43800E+06     50.9328E+06     89.5046E+06    -186.662E+03
             989     22.4095E-03     13.3352E-03     18.0100E-03     403.557E-03    -182.618E-03    -220.136E-03    -202.269E-03     385.690E-03    -182.618E-03     201.628E-03     532.241E-03     72.8613E+06     71.5424E+06     42.7849E+06    -10.7771E+06    -10.6796E+06     42.6874E+06     71.5424E+06     56.3499E+03
             990     21.7584E-03     12.5150E-03     17.7989E-03     387.097E-03    -181.550E-03    -204.934E-03    -194.932E-03     377.095E-03    -181.550E-03     152.237E-03     496.084E-03     68.0726E+06     60.3982E+06     34.5109E+06    -16.1769E+06    -15.8338E+06     34.1678E+06     60.3982E+06     578.415E+03
             991     21.0933E-03     11.6881E-03     17.5589E-03     382.009E-03    -180.729E-03    -200.990E-03    -192.562E-03     373.581E-03    -180.729E-03     137.078E-03     488.994E-03     71.3185E+06     58.1854E+06     31.4935E+06    -22.1595E+06    -21.1410E+06     30.4749E+06     58.1854E+06     1.58878E+06
             992     20.5000E-03     10.8652E-03     17.3838E-03     374.298E-03    -179.896E-03    -194.684E-03    -189.877E-03     369.490E-03    -179.896E-03     103.515E-03     473.584E-03     77.8956E+06     57.9217E+06     28.5897E+06    -30.0890E+06    -28.7735E+06     27.2742E+06     57.9217E+06     2.35319E+06
             993     19.9353E-03     10.0402E-03     17.2224E-03     368.578E-03    -178.655E-03    -190.569E-03    -187.590E-03     365.599E-03    -178.655E-03     79.7534E-03     462.404E-03     81.5606E+06     54.6166E+06     23.3683E+06    -37.8560E+06    -36.5588E+06     22.0711E+06     54.6166E+06     3.01977E+06
             994     19.4208E-03     9.20977E-03     17.0981E-03     363.015E-03    -177.537E-03    -186.324E-03    -184.968E-03     361.658E-03    -177.537E-03     52.1349E-03     446.645E-03     81.5381E+06     45.8518E+06     17.2194E+06    -46.0938E+06    -44.6587E+06     15.7843E+06     45.8518E+06     3.45724E+06
             995     18.9642E-03     8.38273E-03     17.0109E-03     358.229E-03    -176.736E-03    -182.421E-03    -181.944E-03     357.752E-03    -176.736E-03     28.1507E-03     429.763E-03     78.1823E+06     33.5410E+06     9.00741E+06    -53.9496E+06    -52.6039E+06     7.66172E+06     33.5410E+06     3.87588E+06
             996     18.5569E-03     7.54888E-03     16.9521E-03     354.943E-03    -175.798E-03    -179.308E-03    -179.197E-03     354.833E-03    -175.798E-03     8.36652E-03     413.022E-03     75.3873E+06     20.5307E+06    -1.41612E+06    -63.3787E+06    -62.0448E+06    -2.74993E+06     20.5307E+06     5.84816E+06
             997     18.2064E-03     6.71571E-03     16.9226E-03     352.826E-03    -174.975E-03    -177.509E-03    -177.446E-03     352.763E-03    -174.975E-03    -5.45591E-03     398.160E-03     72.5685E+06     6.78338E+06    -12.0723E+06    -73.3199E+06    -71.9919E+06    -13.4002E+06     6.78338E+06     7.42513E+06
             998     17.8981E-03     5.87916E-03     16.9049E-03     350.624E-03    -174.431E-03    -176.083E-03    -175.944E-03     350.486E-03    -174.431E-03    -14.5930E-03     385.073E-03     64.6189E+06    -13.2131E+06    -43.0229E+06    -85.1810E+06    -82.1990E+06    -46.0049E+06    -13.2131E+06     8.42341E+06
             999     17.6442E-03     5.04037E-03     16.9090E-03     348.596E-03    -174.101E-03    -175.033E-03    -174.757E-03     348.379E-03    -174.160E-03    -19.9973E-03     374.228E-03     64.4337E+06    -36.4539E+06    -82.3724E+06    -109.936E+06    -93.0015E+06    -99.3068E+06    -36.4539E+06     8.27577E+06
            1000     17.4287E-03     4.20088E-03     16.9149E-03     347.659E-03    -173.805E-03    -174.370E-03    -173.838E-03     347.406E-03    -174.084E-03    -22.0593E-03     365.567E-03     84.2060E+06    -57.1579E+06    -101.901E+06    -153.359E+06    -103.210E+06    -152.050E+06    -57.1579E+06     7.07970E+06
            1001     17.2572E-03     3.36063E-03     16.9268E-03     347.642E-03    -173.771E-03    -174.096E-03    -173.555E-03     347.411E-03    -174.081E-03    -21.3113E-03     358.925E-03     105.869E+06    -77.0701E+06    -112.011E+06    -195.705E+06    -112.417E+06    -195.299E+06    -77.0701E+06     5.35613E+06
            1002     17.1297E-03     2.52112E-03     16.9432E-03     347.834E-03    -173.880E-03    -174.086E-03    -173.721E-03     347.660E-03    -174.071E-03    -18.6661E-03     354.063E-03     118.412E+06    -97.3627E+06    -119.629E+06    -225.126E+06    -119.764E+06    -224.992E+06    -97.3627E+06     3.53438E+06
            1003     17.0483E-03     1.68058E-03     16.9653E-03     347.753E-03    -173.654E-03    -174.136E-03    -173.548E-03     347.646E-03    -174.136E-03    -14.3246E-03     350.691E-03     129.152E+06    -115.861E+06    -126.608E+06    -249.970E+06    -126.664E+06    -249.914E+06    -115.861E+06     2.43126E+06
            1004     16.9993E-03     838.406E-06     16.9787E-03     348.452E-03    -173.439E-03    -175.029E-03    -174.483E-03     348.412E-03    -173.945E-03    -8.12990E-03     349.457E-03     142.965E+06    -129.310E+06    -133.063E+06    -274.098E+06    -132.874E+06    -274.045E+06    -129.553E+06     1.99916E+06
            1005     22.0744E-03     14.1639E-03     16.9312E-03     410.043E-03    -183.320E-03    -226.823E-03    -209.057E-03     392.276E-03    -183.320E-03     205.053E-03     526.194E-03     82.3404E+06     88.3179E+06     50.3607E+06    -5.73412E+06    -5.72186E+06     50.3485E+06     88.3179E+06    -399.234E+03
            1006     21.2665E-03     13.3502E-03     16.5540E-03     406.022E-03    -181.839E-03    -223.324E-03    -206.344E-03     389.041E-03    -181.839E-03     197.904E-03     528.695E-03     70.8146E+06     69.4062E+06     41.9677E+06    -10.3436E+06    -10.2327E+06     41.8568E+06     69.4062E+06     23.6761E+03
            1007     20.5895E-03     12.5265E-03     16.3405E-03     391.255E-03    -180.305E-03    -210.177E-03    -201.240E-03     382.318E-03    -180.305E-03     145.299E-03     493.496E-03     66.2961E+06     57.2962E+06     33.8426E+06    -16.5797E+06    -15.9423E+06     33.2051E+06     57.2962E+06     1.90326E+06
            1008     19.9125E-03     11.7104E-03     16.1051E-03     385.878E-03    -178.916E-03    -206.821E-03    -200.012E-03     379.068E-03    -178.916E-03     123.844E-03     485.965E-03     71.1668E+06     55.6387E+06     31.0713E+06    -23.8978E+06    -22.5532E+06     29.7268E+06     55.6387E+06     2.80707E+06
            1009     19.2969E-03     10.8929E-03     15.9285E-03     376.861E-03    -177.457E-03    -200.088E-03    -196.559E-03     373.332E-03    -177.457E-03     89.1581E-03     469.205E-03     77.6199E+06     57.0771E+06     28.7525E+06    -30.4022E+06    -28.5415E+06     26.8919E+06     57.0771E+06     3.65419E+06
            1010     18.7177E-03     10.0717E-03     15.7771E-03     369.114E-03    -175.398E-03    -194.285E-03    -192.332E-03     367.161E-03    -175.398E-03     64.1141E-03     455.761E-03     81.6602E+06     53.9484E+06     25.0282E+06    -38.1175E+06    -36.2823E+06     23.1930E+06     53.9484E+06     4.17353E+06
            1011     18.1856E-03     9.25008E-03     15.6573E-03     360.728E-03    -173.525E-03    -187.566E-03    -186.896E-03     360.058E-03    -173.525E-03     35.2515E-03     437.529E-03     80.8431E+06     44.7237E+06     18.4318E+06    -45.9880E+06    -44.0347E+06     16.4785E+06     44.7237E+06     4.27644E+06
            1012     17.7080E-03     8.42004E-03     15.5781E-03     353.964E-03    -172.281E-03    -182.539E-03    -182.398E-03     353.822E-03    -172.281E-03     9.23611E-03     418.887E-03     78.0947E+06     31.6565E+06     8.21950E+06    -55.4519E+06    -53.6532E+06     6.42088E+06     31.6565E+06     5.36815E+06
            1013     17.2834E-03     7.58782E-03     15.5287E-03     348.911E-03    -171.044E-03    -178.422E-03    -178.285E-03     348.775E-03    -171.044E-03    -11.1067E-03     400.776E-03     74.4317E+06     18.1274E+06    -2.60637E+06    -64.4542E+06    -63.2115E+06    -3.84910E+06     18.1274E+06      6.0659E+06
            1014     16.9070E-03     6.74985E-03     15.5012E-03     345.062E-03    -169.810E-03    -175.101E-03    -174.738E-03     344.700E-03    -169.810E-03    -24.5706E-03     384.906E-03     71.7409E+06     4.87084E+06    -13.2455E+06    -74.1748E+06    -72.7339E+06    -14.6864E+06     4.87084E+06     8.11566E+06
            1015     16.5848E-03     5.91055E-03     15.4958E-03     342.124E-03    -168.887E-03    -172.775E-03    -172.205E-03     341.554E-03    -168.887E-03    -32.4414E-03     371.625E-03     64.6768E+06    -13.5123E+06    -39.9027E+06    -86.0647E+06      -83.43E+06    -42.5375E+06    -13.5123E+06     9.82454E+06
            1016     16.3053E-03     5.06878E-03     15.4974E-03     339.385E-03    -168.363E-03    -171.003E-03    -170.346E-03     338.729E-03    -168.363E-03    -35.4389E-03     360.957E-03     62.5081E+06    -36.4662E+06    -77.8045E+06    -108.291E+06    -93.2894E+06    -92.8058E+06    -36.4662E+06     9.67415E+06
            1017     16.0701E-03     4.22557E-03     15.5046E-03     337.286E-03    -168.072E-03    -169.510E-03    -168.838E-03     336.654E-03    -168.112E-03    -34.9605E-03     352.494E-03     76.9356E+06    -58.1715E+06    -100.396E+06    -146.230E+06    -102.485E+06    -144.141E+06    -58.1715E+06     7.89245E+06
            1018     15.8851E-03     3.38054E-03     15.5213E-03     336.125E-03    -167.835E-03    -168.475E-03    -167.705E-03     335.613E-03    -168.094E-03    -31.4188E-03     345.787E-03     98.9701E+06    -77.7249E+06    -110.922E+06    -188.691E+06    -111.344E+06    -188.269E+06    -77.7249E+06     5.17782E+06
            1019     15.7394E-03     2.53436E-03     15.5340E-03     336.087E-03    -167.874E-03    -168.207E-03    -167.517E-03     335.730E-03    -168.207E-03    -26.1698E-03     341.349E-03     115.757E+06    -96.9128E+06    -119.277E+06    -222.051E+06    -119.412E+06    -221.917E+06    -96.9128E+06     3.57698E+06
            1020     15.6452E-03     1.68956E-03     15.5537E-03     336.596E-03    -168.067E-03    -168.489E-03    -168.138E-03     336.405E-03    -168.226E-03    -18.9218E-03     338.966E-03     126.294E+06    -114.184E+06    -125.301E+06    -245.573E+06    -125.389E+06    -245.485E+06    -114.184E+06     3.16655E+06
            1021     15.5924E-03     846.470E-06     15.5695E-03     336.494E-03    -167.701E-03    -168.816E-03    -167.900E-03     336.431E-03    -168.553E-03    -10.5375E-03     337.272E-03     139.340E+06    -125.732E+06    -130.239E+06    -267.262E+06    -129.312E+06    -267.183E+06    -126.738E+06     2.68931E+06
            1022     20.9666E-03     14.1714E-03     15.4523E-03     415.886E-03    -183.006E-03    -232.934E-03    -215.133E-03     398.086E-03    -183.006E-03     208.542E-03     529.155E-03     80.2950E+06     86.3514E+06     49.5474E+06    -5.16666E+06    -5.06662E+06     49.4474E+06     86.3514E+06    -518.256E+03
            1023     20.1515E-03     13.3546E-03     15.0910E-03     413.806E-03    -181.008E-03    -232.162E-03    -216.043E-03     397.688E-03    -181.008E-03     194.742E-03     532.350E-03     69.9757E+06     67.5393E+06     40.3434E+06    -10.9671E+06    -10.4565E+06     39.8329E+06     67.5393E+06     2.45888E+06
            1024     19.4547E-03     12.5481E-03     14.8671E-03     399.110E-03    -178.688E-03    -219.757E-03    -211.968E-03     391.321E-03    -178.688E-03     137.841E-03     497.207E-03     66.7349E+06     56.5330E+06     33.8768E+06    -17.5389E+06    -16.4393E+06     32.7772E+06     56.5330E+06     3.51007E+06
            1025     18.7641E-03     11.7418E-03     14.6363E-03     390.678E-03    -176.517E-03    -214.072E-03    -208.474E-03     385.080E-03    -176.517E-03     113.673E-03     486.638E-03     70.8975E+06     55.2418E+06     31.4402E+06    -23.7906E+06    -21.8422E+06     29.4918E+06     55.2418E+06     3.83744E+06
            1026     18.1347E-03     10.9288E-03     14.4717E-03     379.661E-03    -174.272E-03    -206.149E-03    -203.429E-03     376.941E-03    -174.272E-03     78.8920E-03     467.351E-03     77.6580E+06     55.3741E+06     28.7712E+06    -31.7901E+06    -29.3203E+06     26.3013E+06     55.3741E+06     4.53007E+06
            1027     17.5352E-03     10.1145E-03     14.3240E-03     370.222E-03    -171.366E-03    -199.164E-03    -197.875E-03     368.934E-03    -171.366E-03     51.6362E-03     452.082E-03     81.0310E+06     52.3269E+06     25.4940E+06    -38.6717E+06    -36.0949E+06     22.9173E+06     52.3269E+06     5.09597E+06
            1028     16.9921E-03     9.29309E-03     14.2256E-03     359.981E-03    -168.679E-03    -191.502E-03    -191.185E-03     359.664E-03    -168.679E-03     21.2770E-03     432.294E-03     81.4500E+06     44.2729E+06     19.2702E+06    -46.7326E+06    -44.2150E+06     16.7526E+06     44.2729E+06     6.02826E+06
            1029     16.4901E-03     8.46800E-03     14.1498E-03     350.934E-03    -166.611E-03    -185.183E-03    -185.034E-03     350.785E-03    -166.611E-03    -7.00002E-03     410.945E-03     77.3290E+06     31.4771E+06     9.28157E+06    -54.5047E+06    -52.5163E+06     7.29314E+06     31.4771E+06     6.21608E+06
            1030     16.0478E-03     7.63699E-03     14.1141E-03     343.464E-03    -164.739E-03    -179.336E-03    -178.847E-03     342.975E-03    -164.739E-03    -29.4970E-03     390.657E-03     73.3127E+06     17.2933E+06    -2.44212E+06    -63.8482E+06    -62.1132E+06    -4.17712E+06     17.2933E+06     8.08854E+06
            1031     15.6503E-03     6.79966E-03     14.0960E-03     336.557E-03    -163.101E-03    -173.500E-03    -172.514E-03     335.571E-03    -163.101E-03    -43.5008E-03     372.149E-03     71.4844E+06     3.66336E+06    -13.3070E+06    -74.7563E+06    -73.0309E+06    -15.0324E+06     3.66336E+06     9.83028E+06
            1032     15.3007E-03     5.95576E-03     14.0940E-03     331.089E-03    -161.675E-03    -168.830E-03    -167.508E-03     329.767E-03    -161.675E-03    -50.5309E-03     356.668E-03     64.2287E+06    -14.3162E+06    -36.4233E+06    -85.9835E+06    -83.3962E+06    -39.0105E+06    -14.3162E+06     10.3231E+06
            1033     14.9977E-03     5.10927E-03     14.1006E-03     326.784E-03    -160.648E-03    -165.511E-03    -164.114E-03     325.387E-03    -160.648E-03    -51.6180E-03     344.731E-03     60.1092E+06    -36.1609E+06    -74.1137E+06    -104.668E+06    -93.2895E+06    -85.4918E+06    -36.1609E+06     9.73006E+06
            1034     14.7422E-03     4.25903E-03     14.1135E-03     323.332E-03    -160.110E-03    -162.971E-03    -161.734E-03     322.095E-03    -160.110E-03    -48.2855E-03     335.544E-03     69.5412E+06    -58.1223E+06    -99.0607E+06    -137.421E+06    -101.552E+06    -134.930E+06    -58.1223E+06     7.87776E+06
            1035     14.5358E-03     3.40820E-03     14.1306E-03     321.153E-03    -159.814E-03    -161.307E-03    -160.232E-03     320.208E-03    -159.943E-03    -42.0806E-03     328.925E-03     91.8794E+06    -77.8586E+06    -108.812E+06    -180.801E+06    -109.419E+06    -180.195E+06    -77.8586E+06     5.66713E+06
            1036     14.3758E-03     2.55603E-03     14.1467E-03     320.306E-03    -159.755E-03    -160.446E-03    -159.594E-03     319.676E-03    -159.978E-03    -34.1341E-03     324.560E-03     112.582E+06    -95.5894E+06    -117.384E+06    -217.344E+06    -117.524E+06    -217.203E+06    -95.5894E+06     3.55879E+06
            1037     14.2604E-03     1.70309E-03     14.1584E-03     320.219E-03    -159.723E-03    -160.414E-03    -159.768E-03     319.894E-03    -160.045E-03    -24.0875E-03     322.071E-03     124.722E+06    -111.616E+06    -123.302E+06    -241.667E+06    -123.369E+06    -241.600E+06    -111.616E+06     2.55962E+06
            1038     14.2041E-03     851.019E-06     14.1786E-03     320.362E-03    -159.308E-03    -161.053E-03    -160.027E-03     320.245E-03    -160.217E-03    -13.6404E-03     321.004E-03     136.038E+06    -123.398E+06    -127.821E+06    -261.575E+06    -126.864E+06    -261.525E+06    -124.405E+06     1.89377E+06
            1039     19.8962E-03     14.1644E-03     13.9724E-03     425.040E-03    -182.739E-03    -242.160E-03    -225.252E-03     408.132E-03    -182.739E-03     207.173E-03     536.075E-03     78.5592E+06     84.8098E+06     48.1240E+06    -4.32476E+06    -3.98530E+06     47.7845E+06     84.8098E+06     1.92185E+06
            1040     19.0658E-03     13.3699E-03     13.5923E-03     422.281E-03    -180.085E-03    -241.491E-03    -226.769E-03     407.559E-03    -180.085E-03     188.892E-03     540.108E-03     71.0471E+06     67.0728E+06     39.7514E+06    -12.4189E+06    -11.2907E+06     38.6231E+06     67.0728E+06     2.83505E+06
            1041     18.3627E-03     12.5726E-03     13.3835E-03     405.861E-03    -176.999E-03    -228.152E-03    -220.939E-03     398.647E-03    -176.999E-03     134.469E-03     503.129E-03     67.5042E+06     56.3860E+06     33.8346E+06    -18.2214E+06    -16.2852E+06     31.8985E+06     56.3860E+06     3.30338E+06
            1042     17.6583E-03     11.7689E-03     13.1646E-03     396.696E-03    -174.054E-03    -222.407E-03    -217.114E-03     391.402E-03    -174.054E-03     111.917E-03     490.723E-03     70.3523E+06     53.4830E+06     31.0968E+06    -24.5832E+06    -22.2872E+06     28.8008E+06     53.4830E+06     4.72279E+06
            1043     17.0139E-03     10.9675E-03     13.0072E-03     384.714E-03    -171.001E-03    -214.251E-03    -211.808E-03     382.270E-03    -171.001E-03     75.3333E-03     470.851E-03     76.8860E+06     54.5242E+06     29.4990E+06    -31.4607E+06    -27.8569E+06     25.8952E+06     54.5242E+06     6.39925E+06
            1044     16.4012E-03     10.1546E-03     12.8796E-03     373.468E-03    -167.280E-03    -206.428E-03    -205.440E-03     372.480E-03    -167.280E-03     44.7615E-03     453.802E-03     82.1393E+06     52.1671E+06     27.5577E+06    -39.3609E+06    -35.5812E+06     23.7780E+06     52.1671E+06     6.43776E+06
            1045     15.8350E-03     9.34294E-03     12.7850E-03     361.755E-03    -163.614E-03    -198.133E-03    -197.955E-03     361.577E-03    -163.614E-03     11.0583E-03     432.347E-03     80.4420E+06     43.6335E+06     20.3062E+06    -45.8635E+06    -42.8200E+06     17.2627E+06     43.6335E+06     5.85790E+06
            1046     15.3195E-03     8.52257E-03     12.7299E-03     349.653E-03    -160.391E-03    -189.770E-03    -189.506E-03     349.389E-03    -160.391E-03    -18.9619E-03     407.978E-03     76.2077E+06     30.0616E+06     8.08900E+06    -54.6888E+06    -52.0603E+06     5.46052E+06     30.0616E+06     8.85926E+06
            1047     14.8520E-03     7.69316E-03     12.7042E-03     338.694E-03    -157.533E-03    -181.672E-03    -180.760E-03     337.781E-03    -157.533E-03    -42.1012E-03     384.385E-03     74.0478E+06     17.6151E+06    -1.48523E+06    -64.0915E+06    -61.9792E+06    -3.59752E+06     17.6151E+06     10.7018E+06
            1048     14.4367E-03     6.85605E-03     12.7048E-03     328.712E-03    -155.197E-03    -173.770E-03    -172.155E-03     327.097E-03    -155.197E-03    -56.3791E-03     362.990E-03     72.0515E+06     4.42237E+06    -11.5103E+06    -74.2488E+06    -71.9360E+06    -13.8231E+06     4.42237E+06     11.5501E+06
            1049     14.0610E-03     6.01074E-03     12.7116E-03     319.449E-03    -153.188E-03    -166.099E-03    -164.007E-03     317.356E-03    -153.188E-03    -63.2705E-03     344.190E-03     65.1524E+06    -13.6988E+06    -30.5392E+06    -85.4267E+06    -82.7528E+06    -33.2131E+06    -13.6988E+06     11.7560E+06
            1050     13.7330E-03     5.15798E-03     12.7276E-03     312.186E-03    -151.574E-03    -160.047E-03    -157.829E-03     309.968E-03    -151.574E-03    -64.2583E-03     328.961E-03     57.9404E+06    -35.0178E+06    -68.0094E+06    -99.6803E+06    -92.4397E+06      -75.25E+06    -35.0178E+06     8.93892E+06
            1051     13.4516E-03     4.30202E-03     12.7451E-03     306.853E-03    -150.536E-03    -155.842E-03    -153.863E-03     304.874E-03    -150.536E-03    -59.9592E-03     317.509E-03     65.6383E+06    -56.6700E+06    -98.4783E+06    -131.113E+06    -101.206E+06    -128.385E+06    -56.6700E+06     6.65202E+06
            1052     13.2209E-03     3.44227E-03     12.7650E-03     303.078E-03    -149.933E-03    -152.924E-03    -151.405E-03     301.558E-03    -149.933E-03    -51.9593E-03     309.742E-03     85.6076E+06    -76.7431E+06    -107.714E+06    -172.985E+06    -108.320E+06    -172.379E+06    -76.7431E+06     5.53958E+06
            1053     13.0414E-03     2.58240E-03     12.7831E-03     300.948E-03    -149.620E-03    -151.120E-03    -150.145E-03     299.972E-03    -149.620E-03    -41.2456E-03     304.648E-03     107.445E+06    -93.8019E+06    -114.033E+06    -209.749E+06    -114.201E+06    -209.580E+06    -93.8019E+06     3.15766E+06
            1054     12.9163E-03     1.72217E-03     12.8009E-03     299.630E-03    -149.292E-03    -150.226E-03    -149.494E-03     299.126E-03    -149.520E-03    -29.2733E-03     301.275E-03     124.283E+06    -108.994E+06    -120.410E+06    -238.518E+06    -120.433E+06    -238.495E+06    -108.994E+06     1.18964E+06
            1055     12.8425E-03     860.115E-06     12.8137E-03     299.294E-03    -148.928E-03    -150.347E-03    -149.938E-03     299.113E-03    -149.157E-03    -16.7588E-03     299.829E-03     135.309E+06    -120.542E+06    -125.564E+06    -258.270E+06    -125.587E+06    -258.247E+06    -120.542E+06     917.121E+03
            1056     18.8782E-03     14.1803E-03     12.4621E-03     434.025E-03    -182.416E-03    -251.430E-03    -235.319E-03     417.914E-03    -182.416E-03     203.728E-03     544.996E-03     79.7621E+06     84.4210E+06     45.3899E+06    -5.87849E+06    -5.56664E+06     45.0780E+06     84.4210E+06     1.52012E+06
            1057     18.0402E-03     13.3859E-03     12.0940E-03     427.408E-03    -179.261E-03    -247.258E-03    -232.303E-03     412.452E-03    -179.261E-03     192.760E-03     546.572E-03     70.9117E+06     67.4789E+06     40.2349E+06    -10.9982E+06    -9.44932E+06     38.6860E+06     67.4789E+06     3.86498E+06
            1058     17.3132E-03     12.5862E-03     11.8883E-03     412.268E-03    -175.769E-03    -235.699E-03    -228.123E-03     404.692E-03    -175.769E-03     139.270E-03     510.293E-03     65.8782E+06     54.3556E+06     33.3327E+06    -17.6810E+06    -15.1502E+06     30.8019E+06     54.3556E+06     4.68504E+06
            1059     16.6001E-03     11.7942E-03     11.6816E-03     404.087E-03    -172.239E-03    -231.453E-03    -226.012E-03     398.646E-03    -172.239E-03     115.033E-03     499.458E-03     69.3220E+06     51.7108E+06     30.0716E+06    -24.7104E+06    -20.7246E+06     26.0858E+06     51.7108E+06     7.31162E+06
            1060     15.9342E-03     10.9937E-03     11.5341E-03     391.732E-03    -168.373E-03    -223.529E-03    -221.093E-03     389.297E-03    -168.373E-03     75.8716E-03     479.984E-03     79.6560E+06     54.6095E+06     33.6155E+06    -33.0697E+06    -27.5642E+06     28.1100E+06     54.6095E+06     7.64650E+06
            1061     15.3086E-03     10.1954E-03     11.4196E-03     378.701E-03    -163.760E-03    -215.135E-03    -214.228E-03     377.793E-03    -163.760E-03     43.6143E-03     461.473E-03     81.7940E+06     51.7261E+06     31.1102E+06    -38.3497E+06    -32.9598E+06     25.7203E+06     51.7261E+06     6.44800E+06
            1062     14.7251E-03     9.38793E-03     11.3443E-03     364.388E-03    -159.072E-03    -205.220E-03    -205.047E-03     364.215E-03    -159.072E-03     9.43064E-03     437.400E-03     79.2920E+06     41.3148E+06     18.3644E+06    -46.8923E+06    -42.4757E+06     13.9479E+06     41.3148E+06     9.99920E+06
            1063     14.1909E-03     8.57230E-03     11.3091E-03     349.572E-03    -154.762E-03    -194.888E-03    -194.582E-03     349.265E-03    -154.762E-03    -21.6631E-03     410.732E-03     76.7830E+06     29.9352E+06     8.53167E+06    -55.2476E+06    -52.5744E+06     5.85846E+06     29.9352E+06     11.5790E+06
            1064     13.7048E-03     7.74694E-03     11.3051E-03     335.438E-03    -150.884E-03    -184.710E-03    -183.695E-03     334.423E-03    -150.884E-03    -44.6489E-03     384.483E-03     74.3913E+06     17.8696E+06    -210.468E+03    -63.8900E+06    -61.5649E+06    -2.53561E+06     17.8696E+06     11.5913E+06
            1065     13.2629E-03     6.90987E-03     11.3208E-03     322.469E-03    -147.587E-03    -175.067E-03    -173.275E-03     320.677E-03    -147.587E-03    -59.2384E-03     359.957E-03     73.8319E+06     7.56686E+06    -9.74082E+06    -73.3491E+06    -70.6263E+06    -12.4636E+06     7.56686E+06     12.8180E+06
            1066     12.8672E-03     6.06471E-03     11.3483E-03     310.190E-03    -144.687E-03    -165.609E-03    -163.259E-03     307.839E-03    -144.687E-03    -66.6078E-03     337.703E-03     68.4177E+06    -7.79262E+06    -22.6407E+06    -82.3427E+06    -79.9206E+06    -25.0628E+06    -7.79262E+06     11.6501E+06
            1067     12.5131E-03     5.21053E-03     11.3767E-03     299.402E-03    -142.252E-03    -156.989E-03    -154.446E-03     296.860E-03    -142.252E-03    -67.9345E-03     318.280E-03     58.3874E+06    -30.4257E+06    -59.1396E+06    -94.2325E+06    -89.6247E+06    -63.7475E+06    -30.4257E+06     8.55212E+06
            1068     12.2032E-03     4.34861E-03     11.4021E-03     290.887E-03    -140.455E-03    -150.218E-03    -147.850E-03     288.519E-03    -140.455E-03    -64.4454E-03     302.870E-03     63.5559E+06    -52.4667E+06    -94.6941E+06    -124.488E+06    -98.2975E+06    -120.884E+06    -52.4667E+06     5.38136E+06
            1069     11.9495E-03     3.48344E-03     11.4305E-03     284.384E-03    -139.148E-03    -145.004E-03    -143.106E-03     282.486E-03    -139.148E-03    -56.7609E-03     291.360E-03     82.4301E+06    -73.4051E+06    -105.810E+06    -166.491E+06    -106.069E+06    -166.232E+06    -73.4051E+06     3.18031E+06
            1070     11.7434E-03     2.61359E-03     11.4489E-03     279.872E-03    -138.297E-03    -141.342E-03    -140.084E-03     278.615E-03    -138.297E-03    -45.5275E-03     283.425E-03     103.608E+06    -92.2756E+06    -112.062E+06    -204.100E+06    -112.210E+06    -203.952E+06    -92.2756E+06     2.43942E+06
            1071     11.5975E-03     1.74281E-03     11.4658E-03     277.164E-03    -137.774E-03    -139.275E-03    -138.619E-03     276.508E-03    -137.774E-03    -32.1795E-03     278.697E-03     123.202E+06    -107.656E+06    -117.634E+06    -235.472E+06    -117.682E+06    -235.424E+06    -107.656E+06     1.19863E+06
            1072     11.5193E-03     872.907E-06     11.4862E-03     275.385E-03    -137.180E-03    -138.163E-03    -137.942E-03     275.165E-03    -137.180E-03    -17.5607E-03     275.811E-03     136.207E+06    -117.316E+06    -122.409E+06    -255.993E+06    -121.489E+06    -255.983E+06    -118.245E+06    -622.477E+03
            1073     17.9209E-03     14.1821E-03     10.9556E-03     437.208E-03    -182.348E-03    -254.717E-03    -237.519E-03     420.009E-03    -182.348E-03     210.223E-03     549.395E-03     77.7772E+06     81.1729E+06     42.0666E+06    -5.51147E+06    -4.86490E+06     41.4200E+06     81.1729E+06     836.187E+03
            1074     17.0649E-03     13.3826E-03     10.5885E-03     433.760E-03    -178.967E-03    -254.053E-03    -237.349E-03     417.055E-03    -178.967E-03     205.676E-03     556.555E-03     69.3733E+06     63.4252E+06     37.2303E+06    -12.6382E+06    -10.1277E+06     34.7198E+06     63.4252E+06     3.30958E+06
            1075     16.3229E-03     12.5953E-03     10.3824E-03     420.056E-03    -175.205E-03    -244.044E-03    -235.676E-03     411.687E-03    -175.205E-03     148.101E-03     522.876E-03     67.2690E+06     52.7742E+06     31.9939E+06    -20.0140E+06    -14.3400E+06     26.3199E+06     52.7742E+06     8.74381E+06
            1076     15.5900E-03     11.8042E-03     10.1838E-03     411.477E-03    -171.152E-03    -239.695E-03    -233.795E-03     405.576E-03    -171.152E-03     121.411E-03     513.499E-03     73.6986E+06     52.3687E+06     35.8997E+06    -27.0883E+06    -20.1646E+06     28.9759E+06     52.3687E+06     9.13179E+06
            1077     14.9116E-03     11.0182E-03     10.0476E-03     397.476E-03    -166.603E-03    -230.927E-03    -228.107E-03     394.656E-03    -166.603E-03     82.7109E-03     493.423E-03     78.7146E+06     52.7655E+06     38.4162E+06    -32.1108E+06    -23.8114E+06     30.1168E+06     52.7655E+06     7.28871E+06
            1078     14.2664E-03     10.2206E-03     9.95339E-03     382.229E-03    -161.513E-03    -220.965E-03    -219.747E-03     381.011E-03    -161.513E-03     51.6500E-03     473.523E-03     81.0073E+06     48.5226E+06     28.3746E+06    -40.5708E+06    -33.3177E+06     21.1216E+06     48.5226E+06     12.0005E+06
            1079     13.6628E-03     9.41994E-03     9.89626E-03     365.428E-03    -156.306E-03    -209.235E-03    -208.927E-03     365.120E-03    -156.306E-03     19.6998E-03     447.378E-03     80.0925E+06     42.0029E+06     19.0012E+06    -47.0685E+06    -43.1504E+06     15.0830E+06     42.0029E+06     13.2773E+06
            1080     13.1094E-03     8.60809E-03     9.88723E-03     348.686E-03    -151.287E-03    -197.398E-03    -197.226E-03     348.514E-03    -151.287E-03    -8.34969E-03     419.540E-03     76.9629E+06     31.8822E+06     11.8599E+06    -53.1036E+06    -50.5167E+06     9.27291E+06     31.8822E+06     12.0976E+06
            1081     12.5991E-03     7.78426E-03     9.90670E-03     333.413E-03    -146.665E-03    -186.513E-03    -185.974E-03     332.874E-03    -146.665E-03    -28.8365E-03     392.531E-03     75.0996E+06     20.8430E+06     2.09365E+06    -61.8356E+06    -59.4230E+06    -318.908E+03     20.8430E+06     12.0975E+06
            1082     12.1312E-03     6.95026E-03     9.94287E-03     318.835E-03    -142.517E-03    -176.117E-03    -175.052E-03     317.770E-03    -142.517E-03    -42.9287E-03     365.631E-03     74.5351E+06     11.9374E+06    -7.36648E+06     -70.329E+06    -68.2779E+06    -9.41757E+06     11.9374E+06     10.9210E+06
            1083     11.7074E-03     6.10480E-03     9.98970E-03     305.170E-03    -138.675E-03    -166.248E-03    -164.715E-03     303.636E-03    -138.675E-03    -51.7775E-03     340.288E-03     70.6233E+06    -401.179E+03    -16.9336E+06    -77.7550E+06    -76.1186E+06    -18.5700E+06    -401.179E+03     9.54211E+06
            1084     11.3286E-03     5.25073E-03     10.0383E-03     292.239E-03    -135.194E-03    -156.892E-03    -155.091E-03     290.438E-03    -135.194E-03    -55.6611E-03     317.293E-03     60.4753E+06    -22.3393E+06    -51.6785E+06    -88.5820E+06    -85.5016E+06    -54.7588E+06    -22.3393E+06     7.65224E+06
            1085     10.9938E-03     4.38883E-03     10.0798E-03     280.338E-03    -132.279E-03    -147.911E-03    -146.085E-03     278.511E-03    -132.279E-03    -55.1768E-03     296.895E-03     61.8163E+06    -47.5628E+06    -90.0842E+06    -117.697E+06    -95.3584E+06    -112.423E+06    -47.5628E+06     5.26200E+06
            1086     10.7108E-03     3.51844E-03     10.1164E-03     270.255E-03    -129.961E-03    -140.217E-03    -138.625E-03     268.663E-03    -129.961E-03    -50.6718E-03     279.976E-03     80.3695E+06    -70.3011E+06    -103.435E+06    -161.186E+06    -103.673E+06    -160.948E+06    -70.3011E+06     2.75959E+06
            1087     10.4812E-03     2.64403E-03     10.1422E-03     262.226E-03    -128.176E-03    -133.959E-03    -132.812E-03     261.080E-03    -128.176E-03    -42.2098E-03     267.157E-03     101.622E+06    -91.1500E+06    -111.751E+06    -201.243E+06    -111.845E+06    -201.149E+06    -91.1500E+06     1.77400E+06
            1088     10.3159E-03     1.76437E-03     10.1639E-03     256.517E-03    -126.897E-03    -129.470E-03    -128.831E-03     255.879E-03    -126.897E-03    -30.7366E-03     258.571E-03     118.867E+06    -107.621E+06    -117.340E+06    -230.951E+06    -117.395E+06    -230.895E+06    -107.621E+06     1.24440E+06
            1089     10.2195E-03     881.759E-06     10.1814E-03     253.087E-03    -125.685E-03    -127.356E-03    -127.120E-03     252.850E-03    -125.685E-03    -17.8301E-03     253.727E-03     134.698E+06    -117.818E+06    -121.617E+06    -254.370E+06    -120.703E+06    -254.355E+06    -118.747E+06    -292.036E+03
            1090     17.0234E-03     14.1650E-03     9.44189E-03     437.713E-03    -182.716E-03    -254.785E-03    -236.677E-03     419.605E-03    -182.716E-03     216.439E-03     552.070E-03     77.0077E+06     77.3779E+06     39.6941E+06    -7.78667E+06    -4.95245E+06     36.8599E+06     77.3779E+06     2.12847E+06
            1091     16.1628E-03     13.3784E-03     9.06953E-03     438.930E-03    -179.403E-03    -258.881E-03    -241.283E-03     421.331E-03    -179.403E-03     212.998E-03     569.651E-03     70.9982E+06     59.8820E+06     34.3849E+06    -17.0937E+06    -11.1289E+06     28.4202E+06     59.8820E+06      7.2912E+06
            1092     15.3965E-03     12.5897E-03     8.86300E-03     425.072E-03    -175.431E-03    -248.909E-03    -239.689E-03     415.852E-03    -175.431E-03     156.516E-03     538.082E-03     74.5915E+06     50.9462E+06     36.9530E+06    -27.7080E+06    -17.1242E+06     26.3693E+06     50.9462E+06     6.62663E+06
            1093     14.6500E-03     11.8099E-03     8.66886E-03     414.211E-03    -171.014E-03    -242.647E-03    -235.735E-03     407.298E-03    -171.014E-03     132.476E-03     528.407E-03     76.6596E+06     48.3370E+06     41.2480E+06    -31.5735E+06    -18.1150E+06     27.7895E+06     48.3370E+06     6.89243E+06
            1094     13.9498E-03     11.0191E-03     8.55425E-03     398.024E-03    -166.388E-03    -231.796E-03    -227.841E-03     394.068E-03    -166.388E-03     98.3571E-03     506.350E-03     79.5565E+06     48.5659E+06     34.8969E+06    -36.7456E+06    -26.1510E+06     24.3023E+06     48.5659E+06     14.0797E+06
            1095     13.2833E-03     10.2263E-03     8.47755E-03     380.402E-03    -161.510E-03    -219.240E-03    -216.853E-03     378.015E-03    -161.510E-03     73.0487E-03     484.356E-03     80.9579E+06     49.7700E+06     28.8921E+06    -39.5428E+06    -34.0104E+06     23.3597E+06     49.7700E+06     14.6985E+06
            1096     12.6579E-03     9.42282E-03     8.45174E-03     362.516E-03    -156.572E-03    -206.052E-03    -204.735E-03     361.199E-03    -156.572E-03     49.1686E-03     458.209E-03     78.6435E+06     43.8015E+06     22.9243E+06    -43.1599E+06    -40.0319E+06     19.7963E+06     43.8015E+06     13.0807E+06
            1097     12.0766E-03     8.60789E-03     8.47040E-03     346.597E-03    -151.913E-03    -194.646E-03    -193.953E-03     345.904E-03    -151.913E-03     28.4335E-03     431.883E-03     77.3107E+06     34.7148E+06     14.3766E+06    -50.7035E+06    -48.0844E+06     11.7576E+06     34.7148E+06     12.5856E+06
            1098     11.5353E-03     7.78421E-03     8.51293E-03     333.011E-03    -147.442E-03    -185.221E-03    -184.792E-03     332.582E-03    -147.442E-03     11.8406E-03     406.603E-03     75.3543E+06     26.2577E+06     6.31331E+06    -57.0262E+06    -55.1696E+06     4.45678E+06     26.2577E+06     10.5821E+06
            1099     11.0352E-03     6.95133E-03     8.57060E-03     320.160E-03    -142.943E-03    -176.784E-03    -176.406E-03     319.783E-03    -142.943E-03    -1.65785E-03     380.684E-03     74.0486E+06     17.2261E+06    -2.80146E+06    -64.7398E+06    -63.5990E+06    -3.94226E+06     17.2261E+06     7.98162E+06
            1100     10.5815E-03     6.11057E-03     8.63879E-03     307.131E-03    -138.467E-03    -168.178E-03    -167.732E-03     306.685E-03    -138.467E-03    -13.0905E-03     354.331E-03     71.4284E+06     5.38453E+06    -13.9366E+06    -73.6920E+06    -73.0219E+06    -14.6067E+06     5.38453E+06     5.99534E+06
            1101     10.1721E-03     5.26146E-03     8.70564E-03     293.861E-03    -134.071E-03    -159.419E-03    -158.850E-03     293.292E-03    -134.071E-03    -21.8778E-03     328.889E-03     62.8616E+06    -15.4265E+06    -48.5319E+06    -84.7156E+06    -82.0729E+06    -51.1746E+06    -15.4265E+06     6.04849E+06
            1102     9.80940E-03     4.40304E-03     8.76570E-03     280.303E-03    -130.004E-03    -150.154E-03    -149.495E-03     279.644E-03    -130.004E-03    -27.1371E-03     304.477E-03     63.2807E+06    -41.5989E+06    -86.9055E+06    -113.108E+06    -92.0970E+06    -107.916E+06    -41.5989E+06     5.95183E+06
            1103     9.49858E-03     3.53648E-03     8.81568E-03     267.025E-03    -126.479E-03    -140.794E-03    -140.126E-03     266.356E-03    -126.479E-03    -28.7600E-03     282.358E-03     79.1726E+06    -66.9248E+06    -102.598E+06    -156.903E+06    -103.172E+06    -156.329E+06    -66.9248E+06     4.91589E+06
            1104     9.24785E-03     2.66033E-03     8.85694E-03     255.565E-03    -123.477E-03    -132.155E-03    -131.606E-03     255.016E-03    -123.477E-03    -26.5733E-03     263.837E-03     98.9124E+06    -89.7482E+06    -113.076E+06    -197.924E+06    -113.275E+06    -197.725E+06    -89.7482E+06     3.20274E+06
            1105     9.06477E-03     1.77838E-03     8.88862E-03     246.418E-03    -121.067E-03    -125.167E-03    -124.830E-03     246.082E-03    -121.067E-03    -20.5330E-03     249.911E-03     112.985E+06    -108.923E+06    -120.606E+06    -227.149E+06    -120.686E+06    -227.069E+06    -108.923E+06     1.75367E+06
            1106     8.95601E-03     891.067E-06     8.91157E-03     240.277E-03    -118.884E-03    -121.381E-03    -121.246E-03     240.142E-03    -118.884E-03    -12.2174E-03     241.462E-03     129.253E+06    -121.274E+06    -124.831E+06    -252.246E+06    -124.841E+06    -252.236E+06    -121.274E+06     505.070E+03
            1107     16.2373E-03     14.1658E-03     7.93610E-03     440.252E-03    -183.547E-03    -256.692E-03    -237.760E-03     421.320E-03    -183.547E-03     221.876E-03     558.622E-03     84.1447E+06     78.1253E+06     42.7667E+06    -16.2778E+06    -5.89416E+06     32.3831E+06     78.1253E+06     6.13287E+06
            1108     15.3508E-03     13.3658E-03     7.54995E-03     438.971E-03    -180.382E-03    -258.096E-03    -239.024E-03     419.899E-03    -180.382E-03     222.719E-03     581.585E-03     80.9409E+06     61.3444E+06     40.7956E+06    -25.4813E+06    -12.2787E+06     28.2071E+06     60.7303E+06     3.51001E+06
            1109     14.5679E-03     12.5836E-03     7.34001E-03     422.847E-03    -176.683E-03    -245.760E-03    -234.634E-03     411.721E-03    -176.683E-03     170.602E-03     548.299E-03     81.3804E+06     47.5859E+06     43.6490E+06    -35.6376E+06    -12.4940E+06     21.3789E+06     46.7124E+06     6.56791E+06
            1110     13.7964E-03     11.7906E-03     7.16387E-03     409.702E-03    -172.684E-03    -236.736E-03    -227.795E-03     400.761E-03    -172.684E-03     149.681E-03     533.840E-03     84.1226E+06     46.3463E+06     39.7024E+06    -40.6836E+06    -22.7219E+06     22.0002E+06     46.0868E+06     14.0185E+06
            1111     13.0710E-03     10.9986E-03     7.06280E-03     390.761E-03    -168.914E-03    -222.148E-03    -216.001E-03     384.614E-03    -168.914E-03     120.917E-03     506.999E-03     79.3761E+06     50.0128E+06     33.4507E+06    -36.0957E+06    -29.1430E+06     26.4980E+06     50.0128E+06     12.3616E+06
            1112     12.3738E-03     10.1910E-03     7.01824E-03     371.861E-03    -165.216E-03    -207.517E-03    -202.665E-03     367.010E-03    -165.216E-03     103.765E-03     483.226E-03      75.813E+06     49.1474E+06     28.7573E+06    -34.7666E+06    -31.6992E+06     25.6900E+06     49.1474E+06     11.8555E+06
            1113     11.7112E-03     9.37428E-03     7.01967E-03     356.615E-03    -161.509E-03    -195.429E-03    -191.596E-03     352.782E-03    -161.509E-03     89.0412E-03     460.341E-03     77.9143E+06     46.2638E+06     25.4123E+06    -39.9199E+06    -37.1085E+06     22.6009E+06     46.2638E+06     12.7232E+06
            1114     11.0877E-03     8.55317E-03     7.05550E-03     345.287E-03    -158.208E-03    -187.106E-03    -184.136E-03     342.317E-03    -158.208E-03     75.5399E-03     438.868E-03     76.6961E+06     40.4423E+06     18.8233E+06    -44.7026E+06    -42.9160E+06     17.0367E+06     40.4423E+06     10.3450E+06
            1115     10.5057E-03     7.72672E-03     7.11819E-03     336.651E-03    -154.835E-03    -181.590E-03    -179.169E-03     334.231E-03    -154.835E-03     65.1339E-03     419.416E-03     75.1170E+06     32.1019E+06     11.2187E+06    -51.2051E+06    -50.1135E+06     10.1271E+06     32.1019E+06     7.80031E+06
            1116     9.96345E-03     6.89681E-03     7.19058E-03     328.558E-03    -151.001E-03    -177.220E-03    -175.301E-03     326.639E-03    -151.001E-03     54.6346E-03     398.624E-03     73.6793E+06     23.7865E+06     3.22993E+06    -57.9390E+06    -57.4733E+06     2.76421E+06     23.7865E+06     4.83394E+06
            1117     9.47004E-03     6.06259E-03     7.27507E-03     318.634E-03    -146.835E-03    -171.767E-03    -170.315E-03     317.182E-03    -146.835E-03     43.4472E-03     375.432E-03     69.4251E+06     10.3579E+06    -14.5589E+06    -67.2598E+06    -66.9828E+06    -14.8359E+06     10.3579E+06     3.49985E+06
            1118     9.02368E-03     5.22138E-03     7.35962E-03     307.513E-03    -142.365E-03    -165.111E-03    -164.052E-03     306.454E-03    -142.365E-03     32.2793E-03     351.380E-03     64.2605E+06    -10.8151E+06    -52.1637E+06    -82.3707E+06    -78.5137E+06    -56.0207E+06    -10.8151E+06     5.71015E+06
            1119     8.62875E-03     4.37318E-03     7.43845E-03     295.251E-03    -137.832E-03    -157.297E-03    -156.576E-03     294.530E-03    -137.832E-03     21.5534E-03     326.597E-03     68.8283E+06    -35.2589E+06    -85.7370E+06    -112.951E+06    -90.9104E+06    -107.777E+06    -35.2589E+06     8.21304E+06
            1120     8.29316E-03     3.51520E-03     7.51132E-03     281.746E-03    -133.533E-03    -148.359E-03    -147.902E-03     281.289E-03    -133.533E-03     12.3112E-03     302.365E-03     81.2796E+06    -61.3231E+06    -102.631E+06    -154.360E+06    -104.002E+06    -152.988E+06    -61.3231E+06     7.32754E+06
            1121     8.01842E-03     2.64835E-03     7.56844E-03     268.733E-03    -129.715E-03    -139.144E-03    -138.870E-03     268.459E-03    -129.715E-03     5.43461E-03     280.514E-03     96.4252E+06    -85.9592E+06    -114.799E+06    -193.112E+06    -115.179E+06    -192.733E+06    -85.9592E+06     4.71109E+06
            1122     7.81551E-03     1.77130E-03     7.61215E-03     257.879E-03    -126.616E-03    -131.208E-03    -131.070E-03     257.741E-03    -126.616E-03     1.68870E-03     263.211E-03     108.713E+06    -108.230E+06    -123.315E+06    -223.466E+06    -123.393E+06    -223.388E+06    -108.230E+06     1.89377E+06
            1123     7.69692E-03     887.493E-06     7.64558E-03     250.402E-03    -124.203E-03    -126.195E-03    -126.151E-03     250.357E-03    -124.203E-03     626.579E-06     252.168E-03     124.793E+06    -123.880E+06    -128.524E+06    -250.887E+06    -128.526E+06    -250.885E+06    -123.880E+06     162.957E+03
            1124     15.5304E-03     14.1433E-03     6.41576E-03     442.577E-03    -185.022E-03    -257.468E-03    -233.586E-03     418.695E-03    -185.022E-03     248.974E-03     579.007E-03     93.9235E+06     77.0815E+06     48.7379E+06    -26.8451E+06    -3.70282E+06     26.0362E+06     76.6409E+06     1.68411E+06
            1125     14.6588E-03     13.3547E-03     6.04415E-03     441.165E-03    -182.353E-03    -258.550E-03    -234.614E-03     417.229E-03    -182.353E-03     249.758E-03     593.046E-03     94.8278E+06     60.4445E+06     51.1865E+06    -38.2417E+06    -3.03603E+06     17.0355E+06     59.3898E+06     9.81122E+06
            1126     13.8355E-03     12.5473E-03     5.82969E-03     418.732E-03    -179.365E-03    -239.203E-03    -225.532E-03     405.061E-03    -179.365E-03     187.297E-03     541.359E-03     98.9482E+06     54.2571E+06     49.7479E+06    -46.7621E+06    -17.2737E+06     21.1331E+06     53.3835E+06     18.3025E+06
            1127     13.0452E-03     11.7493E-03     5.66835E-03     398.409E-03    -176.307E-03    -221.994E-03    -211.576E-03     387.991E-03    -176.307E-03     158.976E-03     512.619E-03     82.8214E+06     54.0932E+06     41.8943E+06    -33.7537E+06    -21.6880E+06     30.0880E+06     53.8338E+06     11.0880E+06
            1128     12.2828E-03     10.9351E-03     5.59372E-03     376.692E-03    -174.122E-03    -203.112E-03    -195.328E-03     368.909E-03    -174.122E-03     133.294E-03     483.486E-03     70.6113E+06     50.1469E+06     31.4875E+06    -27.8811E+06    -23.6640E+06     27.2704E+06     50.1469E+06     8.68907E+06
            1129     11.5463E-03     10.1101E-03     5.57695E-03     360.682E-03    -171.905E-03    -189.755E-03    -182.153E-03     353.776E-03    -172.601E-03     122.279E-03     462.307E-03     74.1720E+06     51.2634E+06     29.0258E+06    -31.3427E+06    -29.4084E+06     27.0915E+06     51.2634E+06     9.33272E+06
            1130     10.8353E-03     9.28142E-03     5.59101E-03     350.757E-03    -168.381E-03    -182.879E-03    -173.585E-03     344.296E-03    -171.215E-03     115.876E-03     444.880E-03     75.2765E+06     51.0081E+06     26.6894E+06    -33.3132E+06    -32.2937E+06     25.6700E+06     51.0081E+06     7.08658E+06
            1131     10.1606E-03     8.44795E-03     5.64530E-03     345.601E-03    -165.928E-03    -179.780E-03    -169.475E-03     339.424E-03    -170.056E-03     111.742E-03     430.807E-03     74.6004E+06     45.6837E+06     22.3567E+06    -37.7398E+06    -36.8316E+06     21.4485E+06     45.6837E+06     6.74735E+06
            1132     9.52030E-03     7.61559E-03     5.71304E-03     343.938E-03    -165.469E-03    -178.339E-03    -168.844E-03     337.731E-03    -168.758E-03     111.111E-03     420.257E-03     74.1821E+06     38.0834E+06     15.1865E+06    -44.7949E+06    -44.2873E+06     14.6789E+06     38.0834E+06     5.37721E+06
            1133     8.92460E-03     6.78431E-03     5.79841E-03     342.595E-03    -165.282E-03    -177.127E-03    -169.459E-03     336.645E-03    -167.000E-03     107.968E-03     408.301E-03     74.6922E+06     28.4190E+06     6.17689E+06    -54.8404E+06    -54.5120E+06     5.84845E+06     28.4190E+06     4.23667E+06
            1134     8.37380E-03     5.95225E-03     5.88992E-03     339.582E-03    -164.182E-03    -175.496E-03    -169.658E-03     334.164E-03    -164.601E-03     101.972E-03     394.295E-03     71.1563E+06     13.1561E+06    -20.3732E+06    -67.1673E+06    -66.5190E+06    -21.0215E+06     13.1561E+06     4.61099E+06
            1135     7.87686E-03     5.11968E-03     5.98613E-03     334.946E-03    -161.690E-03    -173.334E-03    -168.733E-03     330.345E-03    -161.690E-03     92.6743E-03     378.219E-03     69.8948E+06    -6.21443E+06    -60.2041E+06    -84.6024E+06    -78.9766E+06    -65.8299E+06    -6.21443E+06     6.71457E+06
            1136     7.43910E-03     4.28238E-03     6.08288E-03     328.114E-03    -158.388E-03    -169.543E-03    -165.977E-03     324.548E-03    -158.388E-03     79.9398E-03     359.816E-03     76.8129E+06    -26.7106E+06    -86.5651E+06    -112.780E+06    -90.9148E+06    -108.430E+06    -26.7106E+06     7.57542E+06
            1137     7.06602E-03     3.44084E-03     6.17164E-03     319.344E-03    -154.827E-03    -164.269E-03    -161.797E-03     316.872E-03    -154.827E-03     64.7043E-03     340.636E-03     88.7920E+06    -49.1394E+06    -99.8655E+06    -150.762E+06    -100.948E+06    -149.680E+06    -49.1394E+06     5.17147E+06
            1138     6.76305E-03     2.59024E-03     6.24736E-03     309.588E-03    -151.461E-03    -158.091E-03    -156.620E-03     308.117E-03    -151.461E-03     48.3796E-03     322.351E-03     101.214E+06    -74.9280E+06    -109.666E+06    -188.403E+06    -109.898E+06    -188.170E+06    -74.9280E+06     1.93026E+06
            1139     6.53743E-03     1.73268E-03     6.30363E-03     300.566E-03    -148.697E-03    -151.956E-03    -151.260E-03     299.870E-03    -148.697E-03     31.9007E-03     306.812E-03     113.380E+06    -100.305E+06    -119.001E+06    -221.656E+06    -119.023E+06    -221.634E+06    -100.305E+06    -334.152E+03
            1140     6.40827E-03     868.297E-06     6.34917E-03     294.410E-03    -146.398E-03    -148.071E-03    -147.207E-03     294.175E-03    -147.027E-03     17.8828E-03     296.481E-03     130.500E+06    -118.971E+06    -126.855E+06    -253.157E+06    -125.674E+06    -253.142E+06    -120.168E+06    -437.577E+03
            1141     14.9319E-03     14.1055E-03     4.89878E-03     452.452E-03    -187.835E-03    -264.557E-03    -230.195E-03     418.089E-03    -187.835E-03     302.527E-03     622.056E-03     110.296E+06     76.7247E+06     51.4374E+06    -43.5635E+06    -1.78246E+06     13.7797E+06     72.6014E+06     14.2914E+06
            1142     14.0346E-03     13.2892E-03     4.51276E-03     451.135E-03    -185.591E-03    -265.311E-03    -240.171E-03     425.995E-03    -185.591E-03     256.832E-03     581.029E-03     119.085E+06     63.0561E+06     52.0136E+06    -60.6880E+06    -23.1485E+06     15.4877E+06     62.0424E+06     15.4488E+06
            1143     13.2297E-03     12.5043E-03     4.32054E-03     413.231E-03    -182.969E-03    -229.877E-03    -217.901E-03     401.255E-03    -182.969E-03     172.562E-03     507.281E-03     98.5066E+06     62.3699E+06     54.1510E+06    -39.6112E+06    -17.6689E+06     32.7817E+06     61.7968E+06     6.04330E+06
            1144     12.4166E-03     11.6853E-03     4.19848E-03     381.503E-03    -178.515E-03    -203.044E-03    -191.485E-03     372.682E-03    -181.252E-03     141.514E-03     467.916E-03     68.1850E+06     52.6458E+06     36.3101E+06    -22.0984E+06    -14.9389E+06     29.1506E+06     52.6458E+06     7.19425E+06
            1145     11.6207E-03     10.8534E-03     4.15245E-03     359.224E-03    -171.316E-03    -188.459E-03    -171.491E-03     352.085E-03    -181.146E-03     122.923E-03     439.651E-03     69.3710E+06     54.6898E+06     33.8050E+06    -22.5675E+06    -19.6248E+06     30.8623E+06     54.6898E+06     8.90371E+06
            1146     10.8404E-03     10.0128E-03     4.15443E-03     348.338E-03    -164.945E-03    -183.745E-03    -159.346E-03     341.082E-03    -182.089E-03     121.267E-03     423.636E-03     71.8765E+06     57.0332E+06     33.0899E+06    -23.5517E+06    -23.1604E+06     32.6986E+06     57.0332E+06     4.38673E+06
            1147     10.0711E-03     9.16155E-03     4.18246E-03     344.587E-03    -161.172E-03    -183.688E-03    -153.352E-03     336.768E-03    -183.688E-03     124.706E-03     413.347E-03     73.7400E+06     52.5072E+06     27.8236E+06    -30.3118E+06    -30.1084E+06     27.6203E+06     52.5072E+06     3.13614E+06
            1148     9.33109E-03     8.31307E-03     4.23818E-03     347.134E-03    -161.488E-03    -185.570E-03    -153.047E-03     338.692E-03    -185.570E-03     129.759E-03     408.850E-03     74.6231E+06     46.3864E+06     21.4238E+06    -37.4952E+06    -37.3103E+06     21.2388E+06     46.3864E+06     2.91290E+06
            1149     8.61977E-03     7.46678E-03     4.30670E-03     353.336E-03    -165.640E-03    -187.433E-03    -156.554E-03     344.250E-03    -187.433E-03     135.995E-03     408.281E-03     77.3418E+06     41.7458E+06     15.5630E+06    -45.2500E+06    -44.9579E+06     15.2708E+06     41.7458E+06     4.06221E+06
            1150     7.94777E-03     6.62609E-03     4.38885E-03     360.387E-03    -171.164E-03    -189.167E-03    -161.941E-03     351.163E-03    -189.167E-03     138.711E-03     408.064E-03     79.5284E+06     34.9573E+06     5.22208E+06    -54.9589E+06    -54.5993E+06     4.86246E+06     34.9573E+06     4.56919E+06
            1151     7.32341E-03     5.79240E-03     4.48111E-03     367.319E-03    -176.615E-03    -190.861E-03    -168.295E-03     358.370E-03    -190.231E-03     138.335E-03     407.614E-03     77.1001E+06     20.2652E+06    -26.5813E+06    -66.0690E+06    -65.3236E+06    -27.3268E+06     20.2652E+06     3.40395E+06
            1152     6.75104E-03     4.96349E-03     4.57606E-03     372.918E-03    -180.608E-03    -192.403E-03    -174.272E-03     364.804E-03    -190.625E-03     133.052E-03     405.072E-03     76.6898E+06     1.97782E+06    -61.2571E+06    -82.6924E+06    -73.7493E+06    -70.2003E+06     1.97782E+06     486.254E+03
            1153     6.24422E-03     4.13938E-03     4.67502E-03     376.285E-03    -183.395E-03    -192.878E-03    -179.070E-03     369.543E-03    -190.462E-03     122.002E-03     400.453E-03     84.0306E+06    -17.2345E+06    -76.1287E+06    -111.617E+06    -79.0307E+06    -108.715E+06    -17.2345E+06    -2.95075E+06
            1154     5.80750E-03     3.31412E-03     4.76903E-03     377.535E-03    -185.160E-03    -192.214E-03    -182.690E-03     372.544E-03    -189.693E-03     105.173E-03     394.238E-03     102.969E+06    -36.7654E+06    -83.3828E+06    -153.048E+06    -84.3450E+06    -152.086E+06    -36.7654E+06    -4.92848E+06
            1155     5.45411E-03     2.49031E-03     4.85239E-03     376.851E-03    -186.063E-03    -190.666E-03    -184.990E-03     373.670E-03    -188.558E-03     83.5939E-03     387.025E-03     120.351E+06    -59.6540E+06    -91.3593E+06    -191.972E+06    -91.6512E+06    -191.680E+06    -59.6540E+06    -4.28731E+06
            1156     5.19468E-03     1.66295E-03     4.92131E-03     374.710E-03    -186.270E-03    -188.481E-03    -185.765E-03     373.109E-03    -187.385E-03     58.3049E-03     379.822E-03     136.157E+06    -83.4369E+06    -99.3476E+06    -226.528E+06    -99.4345E+06    -226.441E+06    -83.4369E+06    -2.12435E+06
            1157     5.03616E-03     832.513E-06     4.96687E-03     372.762E-03    -185.772E-03    -187.056E-03    -185.560E-03     372.209E-03    -186.715E-03     32.9735E-03     374.474E-03     153.797E+06    -100.466E+06    -106.361E+06    -257.021E+06    -105.180E+06    -257.004E+06    -101.663E+06    -321.986E+03
            1158     14.3978E-03     14.0107E-03     3.31612E-03     476.615E-03    -190.555E-03    -285.676E-03    -248.953E-03     439.892E-03    -190.555E-03     307.466E-03     634.614E-03     134.707E+06     80.1979E+06     41.5623E+06    -69.3266E+06    -24.1409E+06     10.4413E+06     66.1332E+06    -5.19962E+06
            1159     13.5852E-03     13.2582E-03     2.96251E-03     444.157E-03    -187.929E-03    -256.119E-03    -242.814E-03     430.853E-03    -187.929E-03     171.369E-03     520.131E-03     117.221E+06     76.3503E+06     47.2237E+06    -51.6855E+06    -12.0256E+06     18.5188E+06     65.3952E+06    -11.4734E+06
            1160     12.7716E-03     12.4546E-03     2.82819E-03     389.713E-03    -180.605E-03    -208.896E-03    -197.937E-03     384.147E-03    -185.998E-03     108.045E-03     445.228E-03     79.2595E+06     56.5866E+06     37.1283E+06    -29.6387E+06    -8.88384E+06     16.9465E+06     56.0135E+06    -1.30190E+06
            1161     11.9522E-03     11.6288E-03     2.76176E-03     357.643E-03    -166.602E-03    -191.079E-03    -166.445E-03     352.673E-03    -186.265E-03     99.9001E-03     410.158E-03     63.7255E+06     53.6745E+06     34.5210E+06    -17.3845E+06    -13.5125E+06     30.6489E+06     53.6745E+06     5.54705E+06
            1162     11.1167E-03     10.7727E-03     2.74429E-03     339.624E-03    -151.567E-03    -188.583E-03    -146.597E-03     334.654E-03    -188.583E-03     97.6766E-03     387.435E-03     63.7124E+06     56.0917E+06     37.1295E+06    -14.7273E+06    -14.0027E+06     36.4050E+06     56.0917E+06     2.51581E+06
            1163     10.2805E-03     9.90364E-03     2.75798E-03     335.130E-03    -143.258E-03    -192.211E-03    -137.438E-03     329.309E-03    -192.211E-03     104.236E-03     379.265E-03     67.2082E+06     53.9487E+06     34.9350E+06    -20.5215E+06    -20.1475E+06     34.5610E+06     53.9487E+06     4.09237E+06
            1164     9.45490E-03     9.03415E-03     2.78912E-03     339.655E-03    -143.165E-03    -196.710E-03    -136.525E-03     333.014E-03    -196.710E-03     111.792E-03     378.742E-03     68.6850E+06     47.0441E+06     29.5364E+06    -28.5240E+06    -28.2928E+06     29.3052E+06     47.0441E+06     3.26828E+06
            1165     8.64521E-03     8.16667E-03     2.83639E-03     350.039E-03    -148.301E-03    -201.824E-03    -141.043E-03     342.781E-03    -201.824E-03     118.380E-03     384.364E-03     68.0853E+06     36.9628E+06     21.1952E+06    -37.2615E+06    -37.1067E+06     21.0404E+06     36.9628E+06     1.75913E+06
            1166     7.85966E-03     7.30867E-03     2.89094E-03     363.982E-03    -156.666E-03    -207.197E-03    -148.877E-03     356.193E-03    -207.197E-03     125.181E-03     394.097E-03     68.8731E+06     30.4737E+06     14.8610E+06    -44.2958E+06    -44.1085E+06     15.1196E+06     30.0278E+06     174.818E+03
            1167     7.10349E-03     6.45947E-03     2.95549E-03     379.990E-03    -167.158E-03    -212.641E-03    -159.241E-03     372.072E-03    -212.641E-03     129.273E-03     405.833E-03     65.9153E+06     22.7227E+06     3.81243E+06    -49.5641E+06    -48.9573E+06     4.25313E+06     21.6752E+06    -1.31692E+06
            1168     6.38568E-03     5.62122E-03     3.02965E-03     396.980E-03    -179.275E-03    -217.799E-03    -171.528E-03     389.233E-03    -217.799E-03     131.107E-03     418.912E-03     60.3213E+06     8.63595E+06    -22.2469E+06    -57.1918E+06    -52.1518E+06    -26.6852E+06     8.03436E+06    -6.03087E+06
            1169     5.71424E-03     4.79491E-03     3.10827E-03     413.773E-03    -191.509E-03    -222.439E-03    -184.343E-03     406.608E-03    -222.439E-03     129.148E-03     431.470E-03     66.6225E+06    -8.03078E+06    -46.0445E+06    -80.2575E+06    -55.1278E+06    -71.1742E+06    -8.03078E+06    -12.2099E+06
            1170     5.10053E-03     3.97835E-03     3.19190E-03     429.600E-03    -203.255E-03    -226.384E-03    -197.136E-03     423.481E-03    -226.384E-03     121.950E-03     443.197E-03     88.0622E+06    -25.0611E+06    -55.2719E+06    -121.038E+06    -59.2026E+06    -117.107E+06    -25.0611E+06    -14.4285E+06
            1171     4.55829E-03     3.17348E-03     3.27215E-03     443.544E-03    -213.916E-03    -229.506E-03    -209.228E-03     438.856E-03    -229.506E-03     108.753E-03     453.147E-03     118.178E+06    -41.3022E+06    -62.4903E+06    -167.539E+06    -64.1101E+06    -165.919E+06    -41.3022E+06    -11.9922E+06
            1172     4.10199E-03     2.37339E-03     3.34565E-03     454.710E-03    -222.621E-03    -231.774E-03    -219.531E-03     451.620E-03    -231.774E-03     89.1933E-03     460.381E-03     146.540E+06    -54.9576E+06    -69.0278E+06    -207.511E+06    -69.5238E+06    -207.015E+06    -54.9576E+06    -7.52226E+06
            1173     3.75978E-03     1.57988E-03     3.41173E-03     462.471E-03    -228.889E-03    -233.376E-03    -227.285E-03     460.868E-03    -233.376E-03     64.0756E-03     465.190E-03     167.388E+06    -66.6024E+06    -74.2261E+06    -237.506E+06    -74.3305E+06    -237.402E+06    -66.6024E+06    -2.92095E+06
            1174     3.54229E-03     789.222E-06     3.45325E-03     467.358E-03    -232.707E-03    -234.645E-03    -232.733E-03     466.784E-03    -234.046E-03     37.3091E-03     468.403E-03     182.627E+06    -75.5130E+06    -78.6414E+06    -259.676E+06    -78.0172E+06    -259.655E+06    -76.1585E+06     332.814E+03
            1175     14.1516E-03     14.0536E-03     1.66325E-03     546.750E-03    -192.658E-03    -354.026E-03    -329.732E-03     522.455E-03    -192.658E-03     253.953E-03     636.579E-03     139.904E+06     94.7297E+06     51.6352E+06    -58.7978E+06    -7.67472E+06     11.0891E+06     84.1527E+06     418.053E+03
            1176     13.3641E-03     13.2842E-03     1.45974E-03     419.137E-03    -185.015E-03    -234.417E-03    -228.871E-03     416.792E-03    -188.217E-03     71.8887E-03     452.320E-03     98.6621E+06     88.5102E+06     44.6540E+06    -23.7101E+06     9.95122E+06     21.3747E+06     78.1282E+06    -1.46283E+06
            1177     12.5290E-03     12.4516E-03     1.39102E-03     356.663E-03    -165.632E-03    -191.246E-03    -168.144E-03     355.483E-03    -187.554E-03     46.9543E-03     382.958E-03     74.4951E+06     59.8451E+06     33.1478E+06    -24.2133E+06    -7.44005E+06     16.3745E+06     59.8451E+06     3.86537E+06
            1178     11.6595E-03     11.5798E-03     1.36032E-03     331.068E-03    -141.256E-03    -190.006E-03    -139.625E-03     329.437E-03    -190.006E-03     50.7569E-03     355.500E-03     60.1667E+06     52.3595E+06     35.8496E+06    -14.1273E+06    -9.03479E+06     30.7571E+06     52.3595E+06    -4.13346E+06
            1179     10.7862E-03     10.6998E-03     1.36254E-03     322.731E-03    -128.733E-03    -194.500E-03    -126.648E-03     320.646E-03    -194.500E-03     55.7689E-03     345.497E-03     55.8153E+06     44.9855E+06     34.9619E+06    -14.9184E+06    -13.6583E+06     33.7017E+06     44.9855E+06     2.02492E+06
            1180     9.91075E-03     9.81455E-03     1.37754E-03     326.556E-03    -126.733E-03    -200.131E-03    -124.163E-03     323.987E-03    -200.131E-03     62.0484E-03     347.139E-03     56.4275E+06     42.2628E+06     32.4227E+06    -18.3387E+06    -17.8203E+06     33.6724E+06     40.4947E+06     2.59542E+06
            1181     9.03841E-03     8.93065E-03     1.39149E-03     337.505E-03    -130.899E-03    -206.708E-03    -128.005E-03     334.610E-03    -206.708E-03     66.6953E-03     354.806E-03     52.6463E+06     35.6347E+06     24.7117E+06    -21.5010E+06    -21.2317E+06     29.4429E+06     30.6343E+06     3.05168E+06
            1182     8.18021E-03     8.05599E-03     1.42011E-03     353.646E-03    -139.395E-03    -214.321E-03    -136.333E-03     350.584E-03    -214.321E-03     70.4522E-03     368.578E-03     49.4222E+06     27.8738E+06     16.6339E+06    -25.6355E+06    -25.4662E+06     24.5665E+06     19.7718E+06     1.49406E+06
            1183     7.33345E-03     7.18841E-03     1.45129E-03     373.486E-03    -150.966E-03    -222.375E-03    -147.720E-03     370.240E-03    -222.375E-03     74.6580E-03     386.064E-03     46.8001E+06     19.6360E+06     6.29122E+06    -30.6282E+06    -30.1598E+06     18.0279E+06     7.43086E+06    -2.62810E+06
            1184     6.50593E-03     6.33374E-03     1.48690E-03     395.898E-03    -164.813E-03    -230.547E-03    -161.540E-03     392.625E-03    -230.547E-03     77.1533E-03     405.799E-03      42.556E+06     8.12543E+06    -8.26440E+06    -36.4549E+06    -34.9847E+06     7.15797E+06    -8.76710E+06    -6.13304E+06
            1185     5.70112E-03     5.49308E-03     1.52604E-03     420.260E-03    -181.094E-03    -238.782E-03    -177.910E-03     417.076E-03    -238.782E-03     78.6966E-03     428.304E-03     35.6998E+06    -11.4864E+06    -27.9825E+06    -49.4857E+06    -39.3776E+06    -23.5552E+06    -26.0219E+06    -10.7236E+06
            1186     4.92433E-03     4.66670E-03     1.57192E-03     445.943E-03    -198.822E-03    -246.910E-03    -195.871E-03     442.993E-03    -246.910E-03     78.3717E-03     452.359E-03     51.1546E+06    -31.2347E+06    -42.5364E+06    -85.9261E+06    -44.1359E+06    -77.7814E+06    -37.7799E+06    -14.0365E+06
            1187     4.18467E-03     3.85770E-03     1.62160E-03     471.795E-03    -217.030E-03    -254.534E-03    -214.482E-03     469.248E-03    -254.534E-03     75.1501E-03     476.673E-03     90.7309E+06    -43.0312E+06    -50.1699E+06    -137.083E+06    -49.9526E+06    -134.680E+06    -45.6518E+06    -11.6011E+06
            1188     3.48725E-03     3.06174E-03     1.66934E-03     496.368E-03    -234.800E-03    -261.153E-03    -232.799E-03     494.367E-03    -261.153E-03     68.3608E-03     499.692E-03     130.522E+06    -51.8670E+06    -55.9770E+06    -184.353E+06    -55.7427E+06    -183.501E+06    -52.9535E+06    -8.71971E+06
            1189     2.85496E-03     2.28297E-03     1.71431E-03     517.753E-03    -250.689E-03    -266.659E-03    -249.347E-03     516.410E-03    -266.659E-03     57.1794E-03     519.486E-03     166.982E+06    -56.7810E+06    -59.1442E+06    -224.926E+06    -59.3620E+06    -224.675E+06    -56.8136E+06    -5.45035E+06
            1190     2.31713E-03     1.51409E-03     1.75402E-03     534.329E-03    -263.240E-03    -270.986E-03    -262.538E-03     533.626E-03    -270.986E-03     41.5795E-03     535.080E-03     188.812E+06    -58.5737E+06    -62.5482E+06    -249.335E+06    -62.5923E+06    -249.291E+06    -58.5737E+06    -2.40860E+06
            1191     1.93473E-03     754.369E-06     1.78160E-03     545.378E-03    -270.890E-03    -274.468E-03    -271.128E-03     545.116E-03    -273.968E-03     24.8410E-03     545.865E-03     196.716E+06    -62.6781E+06    -66.6452E+06    -261.342E+06    -66.0273E+06    -261.315E+06    -63.3236E+06     863.698E+03
            1192     80.5573E-03     831.704E-06     80.5530E-03     369.561E-03    -184.304E-03    -185.268E-03    -185.263E-03     369.556E-03    -184.304E-03    -3.32994E-03     370.990E-03      169.08E+06    -129.082E+06    -132.510E+06    -299.843E+06    -131.579E+06    -299.826E+06    -130.029E+06     314.479E+03
            1193     80.5614E-03     1.66342E-03     80.5442E-03     369.777E-03    -184.742E-03    -185.067E-03    -184.919E-03     369.772E-03    -184.884E-03    -3.27832E-03     373.886E-03     154.136E+06    -117.477E+06    -128.154E+06    -276.561E+06    -128.175E+06    -276.540E+06    -117.477E+06     389.800E+03
            1194     80.5713E-03     2.49430E-03     80.5327E-03     369.520E-03    -184.488E-03    -185.156E-03    -184.569E-03     369.518E-03    -185.073E-03    -1.99459E-03     378.343E-03     140.887E+06    -99.3303E+06    -122.056E+06    -250.056E+06    -122.068E+06    -250.043E+06    -99.3303E+06    -96.2140E+03
            1195     80.5879E-03     3.32488E-03     80.5193E-03     368.804E-03    -184.086E-03    -185.071E-03    -184.083E-03     368.801E-03    -185.071E-03     979.815E-06     384.642E-03     125.418E+06    -78.8730E+06    -113.907E+06    -217.813E+06    -113.912E+06    -217.808E+06    -78.8730E+06     319.764E+03
            1196     80.6187E-03     4.15764E-03     80.5114E-03     368.323E-03    -183.430E-03    -185.001E-03    -183.404E-03     368.298E-03    -185.001E-03     6.61091E-03     392.383E-03     103.815E+06    -57.1862E+06    -104.687E+06    -175.554E+06    -104.695E+06    -175.546E+06    -57.1862E+06     585.938E+03
            1197     80.6650E-03     4.98979E-03     80.5105E-03     367.462E-03    -182.378E-03    -184.823E-03    -182.264E-03     367.348E-03    -184.823E-03     15.0020E-03     401.705E-03     79.7236E+06    -35.8360E+06    -95.0503E+06    -124.216E+06    -95.0684E+06    -124.198E+06    -35.8360E+06     247.620E+03
            1198     80.7290E-03     5.82260E-03     80.5188E-03     366.504E-03    -181.653E-03    -184.705E-03    -181.343E-03     366.194E-03    -184.705E-03     25.4648E-03     413.344E-03     68.4413E+06    -13.1848E+06    -60.4142E+06    -88.1663E+06    -84.5767E+06    -64.0038E+06    -13.1848E+06     492.315E+03
            1199     80.8167E-03     6.65514E-03     80.5422E-03     365.953E-03    -181.623E-03    -184.837E-03    -180.936E-03     365.266E-03    -184.837E-03     38.0902E-03     426.381E-03     72.7558E+06     8.40134E+06    -18.2027E+06    -73.7829E+06    -73.7674E+06    -18.2181E+06     8.40134E+06     688.715E+03
            1200     80.9344E-03     7.48723E-03     80.5873E-03     366.296E-03    -182.480E-03    -184.775E-03    -181.033E-03     364.849E-03    -184.775E-03     55.3783E-03     442.140E-03     78.5747E+06     24.2858E+06    -501.004E+03    -63.6904E+06    -63.6823E+06    -509.173E+03     24.2858E+06     234.759E+03
            1201     81.0862E-03     8.31990E-03     80.6583E-03     367.178E-03    -183.190E-03    -184.450E-03    -180.540E-03     364.528E-03    -184.450E-03     75.5271E-03     458.204E-03     82.0740E+06     37.7542E+06     9.40351E+06     -54.721E+06    -54.7078E+06     9.39029E+06     37.7542E+06    -211.961E+03
            1202     81.2703E-03     9.15033E-03     80.7535E-03     368.492E-03    -183.623E-03    -184.769E-03    -179.798E-03     364.106E-03    -184.208E-03     97.3691E-03     473.371E-03     85.7903E+06     50.9422E+06     18.7557E+06    -46.2812E+06    -46.2630E+06     18.7375E+06     50.9422E+06    -345.661E+03
            1203     81.5065E-03     9.98464E-03     80.8927E-03     371.289E-03    -184.228E-03    -187.210E-03    -180.664E-03     364.784E-03    -184.269E-03     119.447E-03     487.595E-03     87.1205E+06     61.4396E+06     27.1799E+06    -37.5990E+06    -37.5907E+06     27.1716E+06     61.4396E+06    -25.4257E+03
            1204     81.7761E-03     10.8146E-03     81.0578E-03     373.976E-03    -184.641E-03    -190.172E-03    -181.821E-03     365.626E-03    -184.641E-03     136.106E-03     494.681E-03     84.3619E+06     66.7924E+06     33.5834E+06    -29.1129E+06    -29.0990E+06     33.5695E+06     66.7924E+06     598.161E+03
            1205     82.0783E-03     11.6476E-03     81.2476E-03     378.890E-03    -184.633E-03    -194.921E-03    -182.860E-03     366.828E-03    -184.633E-03     163.458E-03     506.162E-03     77.8990E+06     66.8003E+06     38.1889E+06    -21.3383E+06    -21.3265E+06     38.1771E+06     66.8003E+06     391.838E+03
            1206     82.4429E-03     12.4828E-03     81.4924E-03     380.752E-03    -184.103E-03    -196.782E-03    -183.742E-03     367.712E-03    -184.103E-03     171.127E-03     506.415E-03     72.9462E+06     66.3952E+06     41.8273E+06    -15.6552E+06    -15.6487E+06     41.8209E+06     66.3952E+06     377.195E+03
            1207     82.7813E-03     13.3147E-03     81.7035E-03     395.361E-03    -183.963E-03    -211.056E-03    -189.531E-03     373.836E-03    -183.963E-03     218.284E-03     537.684E-03     75.8347E+06     74.0836E+06     48.6875E+06    -11.1854E+06    -11.1747E+06     48.6769E+06     74.0836E+06     739.894E+03
            1208     83.3080E-03     14.1472E-03     82.0980E-03     394.609E-03    -184.358E-03    -210.056E-03    -190.430E-03     374.983E-03    -184.358E-03     203.355E-03     518.276E-03     84.2346E+06     90.2795E+06     55.9980E+06    -5.54808E+06     -5.5435E+06     55.9934E+06     90.2795E+06     412.832E+03
            1209     82.0039E-03     831.344E-06     81.9997E-03     369.613E-03    -184.488E-03    -185.149E-03    -185.146E-03     369.610E-03    -184.488E-03    -2.19923E-03     371.043E-03     169.083E+06    -128.643E+06    -133.727E+06    -300.204E+06    -132.788E+06    -300.195E+06    -129.590E+06    -296.488E+03
            1210     82.0065E-03     1.66250E-03     81.9896E-03     369.467E-03    -184.579E-03    -184.938E-03    -184.611E-03     369.464E-03    -184.902E-03    -2.77421E-03     373.592E-03     154.486E+06    -117.788E+06    -128.589E+06    -277.297E+06    -128.598E+06    -277.288E+06    -117.788E+06     435.990E+03
            1211     82.0170E-03     2.49484E-03     81.9791E-03     369.024E-03    -184.214E-03    -184.954E-03    -184.212E-03     369.022E-03    -184.954E-03    -1.70741E-03     377.837E-03     140.731E+06    -98.6947E+06    -122.088E+06    -249.469E+06    -122.096E+06    -249.460E+06    -98.6947E+06     812.014E+03
            1212     82.0337E-03     3.32713E-03     81.9662E-03     368.520E-03    -183.992E-03    -184.919E-03    -183.988E-03     368.517E-03    -184.919E-03     1.50281E-03     384.341E-03     126.037E+06    -77.8371E+06    -113.590E+06    -217.705E+06    -113.595E+06    -217.700E+06    -77.8371E+06    -55.0733E+03
            1213     82.0628E-03     4.15768E-03     81.9574E-03     368.163E-03    -183.450E-03    -184.872E-03    -183.423E-03     368.136E-03    -184.872E-03     6.93268E-03     392.271E-03     104.515E+06    -57.2080E+06    -104.147E+06    -176.257E+06    -104.158E+06    -176.245E+06    -57.2080E+06     235.202E+03
            1214     82.1067E-03     4.99040E-03     81.9549E-03     367.643E-03    -182.628E-03    -184.737E-03    -182.528E-03     367.543E-03    -184.737E-03     14.1538E-03     401.920E-03     79.8391E+06    -35.2566E+06    -94.6682E+06    -123.486E+06    -94.7066E+06    -123.447E+06    -35.2566E+06     550.759E+03
            1215     82.1706E-03     5.82292E-03     81.9640E-03     366.829E-03    -181.956E-03    -184.683E-03    -181.666E-03     366.539E-03    -184.683E-03     24.4415E-03     413.694E-03     69.1631E+06    -12.3558E+06    -60.4998E+06    -87.8973E+06    -84.9425E+06    -63.4546E+06    -12.3558E+06     119.318E+03
            1216     82.2587E-03     6.65422E-03     81.9891E-03     366.215E-03    -181.951E-03    -184.856E-03    -181.276E-03     365.540E-03    -184.856E-03     37.7564E-03     426.916E-03     73.5282E+06     8.69104E+06    -18.3314E+06    -74.3817E+06    -74.3798E+06    -18.3333E+06     8.69104E+06    -66.3365E+03
            1217     82.3731E-03     7.48622E-03     82.0322E-03     366.000E-03    -182.326E-03    -184.797E-03    -180.901E-03     364.575E-03    -184.797E-03     54.9190E-03     442.113E-03     78.6597E+06     24.0326E+06    -478.794E+03    -63.9624E+06    -63.9606E+06    -480.536E+03     24.0326E+06     146.037E+03
            1218     82.5247E-03     8.31889E-03     82.1043E-03     366.558E-03    -182.688E-03    -184.464E-03    -180.141E-03     364.011E-03    -184.464E-03     74.0617E-03     457.542E-03     81.7467E+06     37.4702E+06     9.74389E+06    -54.5151E+06    -54.5097E+06     9.73843E+06     37.4702E+06     313.893E+03
            1219     82.7101E-03     9.15194E-03     82.2022E-03     369.048E-03    -183.544E-03    -185.430E-03    -180.373E-03     364.670E-03    -184.223E-03     97.1496E-03     473.480E-03     86.0317E+06     51.7127E+06     19.4223E+06    -45.7799E+06    -45.7586E+06     19.4011E+06     51.7127E+06     251.312E+03
            1220     82.9424E-03     9.98188E-03     82.3396E-03     372.352E-03    -184.329E-03    -188.073E-03    -181.359E-03     365.638E-03    -184.329E-03     121.524E-03     488.172E-03     87.9057E+06     62.2375E+06     27.6386E+06    -37.7028E+06    -37.6838E+06     27.6196E+06     62.2375E+06    -36.0061E+03
            1221     83.2122E-03     10.8148E-03     82.5065E-03     373.878E-03    -184.707E-03    -189.946E-03    -181.438E-03     365.370E-03    -184.707E-03     137.360E-03     494.806E-03     84.7616E+06     66.5365E+06     33.8160E+06    -29.7031E+06    -29.6998E+06     33.8128E+06     66.5365E+06    -325.921E+03
            1222     83.5047E-03     11.6484E-03     82.6882E-03     378.371E-03    -184.644E-03    -194.350E-03    -182.225E-03     366.246E-03    -184.644E-03     163.743E-03     505.876E-03     77.9235E+06     65.2329E+06     37.6466E+06    -22.7142E+06    -22.7124E+06     37.6448E+06     65.2329E+06    -192.778E+03
            1223     83.8717E-03     12.4815E-03     82.9377E-03     380.530E-03    -184.089E-03    -196.521E-03    -183.516E-03     367.525E-03    -184.089E-03     170.769E-03     505.972E-03     72.7323E+06     64.7441E+06     41.1627E+06    -16.8513E+06    -16.8455E+06     41.1568E+06     64.7441E+06     349.218E+03
            1224     84.2073E-03     13.3148E-03     83.1480E-03     395.117E-03    -183.945E-03    -210.752E-03    -189.266E-03     373.632E-03    -183.945E-03     217.815E-03     537.255E-03     75.5584E+06     73.3346E+06     48.8116E+06    -11.4373E+06    -11.4310E+06     48.8053E+06     73.3346E+06     525.284E+03
            1225     84.7335E-03     14.1475E-03     83.5441E-03     394.497E-03    -184.323E-03    -209.932E-03    -190.290E-03     374.855E-03    -184.323E-03     203.289E-03     518.118E-03     83.9550E+06     89.7543E+06     56.2842E+06    -5.61544E+06    -5.61480E+06     56.2836E+06     89.7543E+06     142.255E+03
            1226     83.4488E-03     832.012E-06     83.4446E-03     369.368E-03    -184.439E-03    -184.951E-03    -184.901E-03     369.366E-03    -184.486E-03    -2.06135E-03     370.786E-03     168.304E+06    -128.314E+06    -135.582E+06    -300.131E+06    -133.792E+06    -300.127E+06    -130.109E+06     599.609E+03
            1227     83.4532E-03     1.66381E-03     83.4367E-03     369.341E-03    -184.549E-03    -184.855E-03    -184.565E-03     369.337E-03    -184.834E-03    -2.99644E-03     373.487E-03     155.450E+06    -116.468E+06    -128.443E+06    -277.510E+06    -128.456E+06    -277.497E+06    -116.468E+06    -332.203E+03
            1228     83.4604E-03     2.49511E-03     83.4230E-03     368.791E-03    -184.112E-03    -184.839E-03    -184.109E-03     368.788E-03    -184.839E-03    -2.11316E-03     377.591E-03     141.228E+06    -99.2331E+06    -121.033E+06    -249.944E+06    -121.049E+06    -249.928E+06    -99.2331E+06    -18.2619E+03
            1229     83.4789E-03     3.32643E-03     83.4126E-03     368.301E-03    -183.925E-03    -184.800E-03    -183.924E-03     368.300E-03    -184.800E-03     707.125E-06     384.065E-03     125.613E+06    -78.0367E+06    -113.308E+06    -217.212E+06    -113.328E+06    -217.193E+06    -78.0367E+06     645.871E+03
            1230     83.5061E-03     4.15970E-03     83.4024E-03     368.426E-03    -183.743E-03    -184.795E-03    -183.720E-03     368.404E-03    -184.795E-03     5.97584E-03     392.471E-03     104.909E+06    -56.5529E+06    -104.689E+06    -176.209E+06    -104.714E+06    -176.184E+06    -56.5529E+06     248.827E+03
            1231     83.5515E-03     4.98996E-03     83.4024E-03     368.189E-03    -183.058E-03    -184.738E-03    -182.964E-03     368.095E-03    -184.738E-03     13.7342E-03     402.362E-03     79.2931E+06    -35.6329E+06    -94.9096E+06    -123.233E+06    -94.9475E+06    -123.195E+06    -35.6329E+06     203.754E+03
            1232     83.6113E-03     5.82074E-03     83.4084E-03     367.201E-03    -182.223E-03    -184.736E-03    -181.922E-03     366.901E-03    -184.736E-03     24.7362E-03     413.931E-03     68.5385E+06    -12.3922E+06    -60.0874E+06    -87.2186E+06    -84.4171E+06    -62.8889E+06    -12.3922E+06     206.736E+03
            1233     83.7008E-03     6.65471E-03     83.4358E-03     366.286E-03    -181.962E-03    -184.900E-03    -181.281E-03     365.605E-03    -184.900E-03     38.0475E-03     426.890E-03     73.5273E+06     8.88184E+06    -17.9992E+06    -74.1537E+06    -74.1465E+06    -18.0064E+06     8.88184E+06     284.181E+03
            1234     83.8146E-03     7.48646E-03     83.4796E-03     366.045E-03    -182.353E-03    -184.837E-03    -180.934E-03     364.626E-03    -184.837E-03     54.7671E-03     442.231E-03     78.8923E+06     23.5254E+06    -773.048E+03    -64.6567E+06    -64.6490E+06    -780.762E+03     23.5254E+06     257.584E+03
            1235     83.9631E-03     8.31793E-03     83.5500E-03     366.640E-03    -182.723E-03    -184.514E-03    -180.141E-03     364.057E-03    -184.514E-03     74.5429E-03     457.535E-03     81.5135E+06     36.3957E+06     9.43254E+06    -55.1738E+06    -55.1683E+06     9.42705E+06     36.3957E+06     56.7182E+03
            1236     84.1469E-03     9.15008E-03     83.6479E-03     368.807E-03    -183.507E-03    -185.139E-03    -179.947E-03     364.360E-03    -184.253E-03     97.8715E-03     473.083E-03     85.6192E+06     50.9363E+06     19.6602E+06    -45.9107E+06    -45.8945E+06     19.6439E+06     50.9363E+06     352.354E+03
            1237     84.3816E-03     9.98476E-03     83.7888E-03     371.467E-03    -184.310E-03    -187.161E-03    -180.382E-03     364.688E-03    -184.310E-03     121.914E-03     487.148E-03     87.7554E+06     62.2867E+06     28.3606E+06    -37.3656E+06    -37.3493E+06     28.3443E+06     62.2867E+06     281.869E+03
            1238     84.6452E-03     10.8159E-03     83.9513E-03     373.430E-03    -184.637E-03    -189.541E-03    -180.955E-03     364.844E-03    -184.637E-03     137.871E-03     494.300E-03     84.7216E+06     66.8231E+06     33.8538E+06    -29.4258E+06    -29.4211E+06     33.8491E+06     66.8231E+06    -209.455E+03
            1239     84.9356E-03     11.6479E-03     84.1332E-03     379.296E-03    -184.577E-03    -195.324E-03    -183.059E-03     367.032E-03    -184.577E-03     164.948E-03     506.772E-03     78.2634E+06     65.7441E+06     37.6907E+06    -22.6464E+06    -22.6431E+06     37.6874E+06     65.7441E+06    -77.1946E+03
            1240     85.2998E-03     12.4812E-03     84.3817E-03     381.213E-03    -184.073E-03    -197.288E-03    -184.210E-03     368.135E-03    -184.073E-03     171.421E-03     506.807E-03     73.0521E+06     65.1466E+06     41.4693E+06    -16.8063E+06    -16.8011E+06     41.4642E+06     65.1466E+06     139.708E+03
            1241     85.6332E-03     13.3143E-03     84.5918E-03     395.018E-03    -183.948E-03    -210.752E-03    -189.217E-03     373.482E-03    -183.948E-03     217.949E-03     537.301E-03     75.0380E+06     73.2788E+06     48.9649E+06    -10.9004E+06    -10.8965E+06     48.9609E+06     73.2788E+06     113.255E+03
            1242     86.1574E-03     14.1478E-03     84.9879E-03     394.266E-03    -184.317E-03    -209.806E-03    -190.103E-03     374.563E-03    -184.317E-03     203.464E-03     517.875E-03     83.3987E+06     89.3491E+06     56.5180E+06    -5.31494E+06    -5.31460E+06     56.5177E+06     89.3491E+06     66.5263E+03
            1243     84.8950E-03     831.310E-06     84.8910E-03     369.577E-03    -184.444E-03    -185.147E-03    -184.998E-03     369.575E-03    -184.590E-03    -2.42255E-03     370.993E-03     167.199E+06    -128.342E+06    -133.859E+06    -298.213E+06    -132.087E+06    -298.190E+06    -130.136E+06    -1.02477E+06
            1244     84.8980E-03     1.66299E-03     84.8817E-03     369.354E-03    -184.529E-03    -184.880E-03    -184.524E-03     369.349E-03    -184.880E-03    -3.39496E-03     373.507E-03     155.880E+06    -117.273E+06    -127.814E+06    -278.044E+06    -127.843E+06    -278.015E+06    -117.273E+06    -253.062E+03
            1245     84.9066E-03     2.49475E-03     84.8700E-03     368.867E-03    -184.173E-03    -184.858E-03    -184.170E-03     368.863E-03    -184.858E-03    -2.63923E-03     377.697E-03     141.450E+06    -99.6108E+06    -122.092E+06    -250.790E+06    -122.118E+06    -250.763E+06    -99.6108E+06     221.777E+03
            1246     84.9220E-03     3.32742E-03     84.8567E-03     368.430E-03    -183.999E-03    -184.834E-03    -183.996E-03     368.426E-03    -184.834E-03     757.805E-06     384.106E-03     125.162E+06    -78.6283E+06    -113.952E+06    -217.376E+06    -113.967E+06    -217.361E+06    -78.6283E+06     654.698E+03
            1247     84.9519E-03     4.15711E-03     84.8501E-03     368.298E-03    -183.591E-03    -184.817E-03    -183.568E-03     368.275E-03    -184.817E-03     6.25953E-03     392.300E-03     103.745E+06    -57.0983E+06    -104.808E+06    -175.406E+06    -104.832E+06    -175.382E+06    -57.0983E+06     528.164E+03
            1248     84.9935E-03     4.98992E-03     84.8469E-03     367.907E-03    -182.840E-03    -184.728E-03    -182.735E-03     367.802E-03    -184.728E-03     14.3692E-03     402.053E-03     79.1657E+06    -35.9129E+06    -95.2950E+06    -123.354E+06    -95.3749E+06    -123.274E+06    -35.9129E+06     349.806E+03
            1249     85.0552E-03     5.82307E-03     84.8556E-03     367.518E-03    -182.566E-03    -184.728E-03    -182.255E-03     367.207E-03    -184.728E-03     25.4195E-03     413.986E-03     69.1151E+06    -13.0729E+06    -59.8731E+06    -88.3463E+06    -85.5771E+06    -62.6423E+06    -13.0729E+06     565.282E+03
            1250     85.1411E-03     6.65291E-03     84.8808E-03     366.572E-03    -182.195E-03    -184.928E-03    -181.512E-03     365.889E-03    -184.928E-03     38.1040E-03     427.015E-03     74.1997E+06     8.05725E+06    -17.7694E+06    -75.5023E+06    -75.4916E+06    -17.7802E+06     8.05725E+06     359.325E+03
            1251     85.2549E-03     7.48541E-03     84.9257E-03     365.842E-03    -182.110E-03    -184.874E-03    -180.681E-03     364.414E-03    -184.874E-03     54.9300E-03     442.130E-03     79.0633E+06     23.8632E+06    -104.867E+03    -64.4089E+06    -64.3986E+06    -115.202E+03     23.8632E+06     75.2015E+03
            1252     85.4007E-03     8.31879E-03     84.9946E-03     366.762E-03    -182.885E-03    -184.532E-03    -180.246E-03     364.122E-03    -184.532E-03     75.3211E-03     457.615E-03     81.7254E+06     36.8796E+06     10.1598E+06     -54.848E+06    -54.8430E+06     10.1549E+06     36.8796E+06     250.341E+03
            1253     85.5858E-03     9.15072E-03     85.0952E-03     368.544E-03    -183.793E-03    -184.653E-03    -179.725E-03     364.087E-03    -184.265E-03     98.0708E-03     472.944E-03     85.5522E+06     50.2867E+06     19.4848E+06    -46.3933E+06    -46.3896E+06     19.4811E+06     50.2867E+06     82.6048E+03
            1254     85.8137E-03     9.98255E-03     85.2311E-03     370.271E-03    -184.277E-03    -186.086E-03    -179.389E-03     363.574E-03    -184.277E-03     120.924E-03     486.330E-03     87.0055E+06     61.7313E+06     28.1691E+06    -37.0497E+06    -37.0374E+06     28.1569E+06     61.7313E+06    -409.097E+03
            1255     86.0780E-03     10.8189E-03     85.3954E-03     372.602E-03    -184.546E-03    -188.907E-03    -180.364E-03     364.060E-03    -184.546E-03     137.344E-03     493.336E-03     83.9920E+06     66.5130E+06     33.6819E+06    -28.9300E+06    -28.9191E+06     33.6709E+06     66.5130E+06    -264.356E+03
            1256     86.3699E-03     11.6516E-03     85.5804E-03     379.371E-03    -184.470E-03    -195.559E-03    -183.273E-03     367.086E-03    -184.470E-03     165.126E-03     506.611E-03     77.8559E+06     65.2712E+06     37.7798E+06    -22.5630E+06    -22.5608E+06     37.7777E+06     65.2712E+06     31.3288E+03
            1257     86.7317E-03     12.4823E-03     85.8287E-03     381.934E-03    -184.002E-03    -198.060E-03    -185.004E-03     368.878E-03    -184.002E-03     171.466E-03     507.487E-03     72.9910E+06     65.1914E+06     41.7869E+06    -16.6303E+06    -16.6265E+06     41.7831E+06     65.1914E+06    -138.912E+03
            1258     87.0595E-03     13.3147E-03     86.0353E-03     395.488E-03    -183.940E-03    -211.244E-03    -189.817E-03     374.060E-03    -183.940E-03     217.503E-03     537.887E-03     75.5676E+06     74.0692E+06     49.3808E+06    -10.7529E+06    -10.7498E+06     49.3776E+06     74.0692E+06    -299.812E+03
            1259     87.5831E-03     14.1478E-03     86.4329E-03     394.588E-03    -184.342E-03    -210.119E-03    -190.471E-03     374.941E-03    -184.342E-03     203.341E-03     518.296E-03     83.9701E+06     89.8044E+06     56.6155E+06    -5.54538E+06    -5.54246E+06     56.6126E+06     89.8044E+06     43.4863E+03
            1260     86.3404E-03     831.359E-06     86.3364E-03     369.731E-03    -184.347E-03    -185.408E-03    -185.221E-03     369.728E-03    -184.531E-03    -2.55037E-03     371.150E-03     166.293E+06    -128.148E+06    -133.465E+06    -296.998E+06    -132.703E+06    -296.948E+06    -128.960E+06     64.1319E+03
            1261     86.3443E-03     1.66309E-03     86.3283E-03     369.404E-03    -184.500E-03    -184.937E-03    -184.496E-03     369.400E-03    -184.937E-03    -2.99922E-03     373.526E-03     156.018E+06    -117.590E+06    -129.113E+06    -278.938E+06    -129.136E+06    -278.915E+06    -117.590E+06     216.197E+03
            1262     86.3515E-03     2.49481E-03     86.3155E-03     369.154E-03    -184.355E-03    -184.945E-03    -184.352E-03     369.151E-03    -184.945E-03    -2.46154E-03     377.923E-03     142.583E+06    -98.4899E+06    -121.518E+06    -251.025E+06    -121.536E+06    -251.006E+06    -98.4899E+06     541.717E+03
            1263     86.3673E-03     3.32566E-03     86.3033E-03     368.345E-03    -183.880E-03    -184.905E-03    -183.876E-03     368.341E-03    -184.905E-03     791.405E-06     384.048E-03     125.500E+06    -78.0772E+06    -113.024E+06    -217.107E+06    -113.029E+06    -217.102E+06    -78.0772E+06     366.320E+03
            1264     86.3965E-03     4.15933E-03     86.2963E-03     367.715E-03    -183.183E-03    -184.806E-03    -183.160E-03     367.692E-03    -184.806E-03     6.40097E-03     391.747E-03     104.052E+06    -57.0805E+06    -104.250E+06    -175.673E+06    -104.263E+06    -175.660E+06    -57.0805E+06     679.419E+03
            1265     86.4356E-03     4.99092E-03     86.2914E-03     367.866E-03    -182.987E-03    -184.678E-03    -182.875E-03     367.753E-03    -184.678E-03     14.7641E-03     401.988E-03     80.3052E+06    -34.8095E+06    -94.4931E+06    -123.504E+06    -94.5744E+06    -123.423E+06    -34.8095E+06     862.247E+03
            1266     86.4994E-03     5.82141E-03     86.3032E-03     367.424E-03    -182.566E-03    -184.682E-03    -182.254E-03     367.112E-03    -184.682E-03     25.6061E-03     413.950E-03     68.7265E+06    -12.6539E+06    -59.5595E+06    -87.4437E+06    -84.8130E+06    -62.1902E+06    -12.6539E+06     558.508E+03
            1267     86.5842E-03     6.65409E-03     86.3281E-03     366.327E-03    -181.986E-03    -184.888E-03    -181.286E-03     365.627E-03    -184.888E-03     38.4487E-03     426.854E-03     73.6594E+06     8.59584E+06    -16.8238E+06    -74.2755E+06     -74.268E+06    -16.8313E+06     8.59584E+06     219.915E+03
            1268     86.6944E-03     7.48637E-03     86.3706E-03     366.207E-03    -182.430E-03    -184.844E-03    -180.967E-03     364.744E-03    -184.844E-03     55.7186E-03     442.361E-03     79.0929E+06     23.6825E+06     315.165E+03    -64.4597E+06    -64.4528E+06     308.320E+03     23.6825E+06     181.208E+03
            1269     86.8402E-03     8.31823E-03     86.4408E-03     366.869E-03    -183.009E-03    -184.514E-03    -180.350E-03     364.210E-03    -184.514E-03     75.6263E-03     457.725E-03     81.5334E+06     36.3370E+06     10.3673E+06    -55.0072E+06    -55.0050E+06     10.3651E+06     36.3370E+06     154.147E+03
            1270     87.0233E-03     9.15024E-03     86.5409E-03     368.082E-03    -183.593E-03    -184.401E-03    -179.325E-03     363.666E-03    -184.253E-03     97.6161E-03     472.654E-03     85.0753E+06     50.6621E+06     20.4800E+06    -45.3743E+06    -45.3714E+06     20.4772E+06     50.6621E+06    -216.485E+03
            1271     87.2474E-03     9.98507E-03     86.6741E-03     370.233E-03    -184.237E-03    -186.053E-03    -179.364E-03     363.571E-03    -184.264E-03     120.554E-03     486.471E-03     87.2329E+06     62.0478E+06     28.5071E+06    -36.9701E+06    -36.9576E+06     28.4947E+06     62.0478E+06    -459.493E+03
            1272     87.5094E-03     10.8170E-03     86.8383E-03     372.803E-03    -184.536E-03    -189.169E-03    -180.650E-03     364.284E-03    -184.536E-03     137.235E-03     493.403E-03     84.3879E+06     65.8242E+06     33.4409E+06    -29.9509E+06    -29.9402E+06     33.4302E+06     65.8242E+06    -311.542E+03
            1273     87.8014E-03     11.6500E-03     87.0250E-03     378.973E-03    -184.452E-03    -195.217E-03    -183.088E-03     366.844E-03    -184.452E-03     164.010E-03     505.916E-03     77.7525E+06     64.4812E+06     37.7207E+06    -23.0899E+06    -23.0846E+06     37.7154E+06     64.4812E+06    -400.530E+03
            1274     88.1639E-03     12.4843E-03     87.2755E-03     381.314E-03    -183.964E-03    -197.501E-03    -184.634E-03     368.447E-03    -183.964E-03     170.071E-03     506.881E-03     72.8400E+06     64.9920E+06     41.8645E+06    -16.6031E+06    -16.5863E+06     41.8476E+06     64.9920E+06    -801.226E+03
            1275     88.4908E-03     13.3148E-03     87.4833E-03     395.539E-03    -183.917E-03    -211.309E-03    -190.102E-03     374.331E-03    -183.917E-03     216.450E-03     538.276E-03     75.5454E+06     73.8165E+06     49.1431E+06    -10.9788E+06    -10.9654E+06     49.1297E+06     73.8165E+06    -659.794E+03
            1276     89.0055E-03     14.1471E-03     87.8740E-03     395.299E-03    -184.376E-03    -210.701E-03    -191.108E-03     375.705E-03    -184.376E-03     203.756E-03     519.140E-03     84.0290E+06     89.6567E+06     56.5753E+06    -5.74635E+06    -5.74036E+06     56.5693E+06     89.6567E+06     155.524E+03
            1277     87.7866E-03     831.528E-06     87.7827E-03     369.577E-03    -184.374E-03    -185.227E-03    -185.139E-03     369.574E-03    -184.459E-03    -2.50817E-03     371.000E-03     166.396E+06    -129.480E+06    -134.195E+06    -298.144E+06    -133.418E+06    -298.109E+06    -130.292E+06     1.11324E+06
            1278     87.7886E-03     1.66315E-03     87.7729E-03     369.668E-03    -184.646E-03    -185.067E-03    -184.780E-03     369.664E-03    -184.928E-03    -3.07047E-03     373.763E-03     155.087E+06    -116.521E+06    -128.188E+06    -277.023E+06    -128.196E+06    -277.016E+06    -116.521E+06     71.4227E+03
            1279     87.7981E-03     2.49455E-03     87.7626E-03     369.203E-03    -184.356E-03    -184.989E-03    -184.353E-03     369.200E-03    -184.989E-03    -2.21945E-03     377.986E-03     142.541E+06    -99.5141E+06    -121.294E+06    -251.573E+06    -121.302E+06    -251.565E+06    -99.5141E+06    -434.751E+03
            1280     87.8130E-03     3.32635E-03     87.7499E-03     368.370E-03    -183.869E-03    -184.925E-03    -183.868E-03     368.368E-03    -184.925E-03     529.972E-06     384.168E-03     125.353E+06    -79.3236E+06    -113.771E+06    -217.985E+06    -113.778E+06    -217.977E+06    -79.3236E+06     446.186E+03
            1281     87.8374E-03     4.15801E-03     87.7389E-03     367.980E-03    -183.403E-03    -184.840E-03    -183.381E-03     367.959E-03    -184.840E-03     5.81027E-03     392.046E-03     104.125E+06    -56.6992E+06    -104.136E+06    -175.480E+06    -104.145E+06    -175.471E+06    -56.6992E+06     435.487E+03
            1282     87.8809E-03     4.99061E-03     87.7391E-03     367.720E-03    -182.792E-03    -184.704E-03    -182.684E-03     367.612E-03    -184.704E-03     14.5056E-03     401.816E-03     79.4964E+06    -35.2353E+06    -93.7746E+06    -123.264E+06    -93.7827E+06    -123.256E+06    -35.2353E+06     98.4554E+03
            1283     87.9417E-03     5.82261E-03     87.7487E-03     366.712E-03    -181.859E-03    -184.649E-03    -181.551E-03     366.405E-03    -184.649E-03     25.3177E-03     413.324E-03     67.6796E+06    -12.4486E+06    -59.0017E+06    -86.4239E+06    -83.3238E+06    -62.1017E+06    -12.4486E+06     375.857E+03
            1284     88.0237E-03     6.65500E-03     87.7718E-03     365.990E-03    -181.682E-03    -184.802E-03    -180.978E-03     365.286E-03    -184.802E-03     38.5320E-03     426.478E-03     73.0412E+06     8.81103E+06    -16.5836E+06    -73.3551E+06    -73.3436E+06    -16.5950E+06     8.81103E+06     749.747E+03
            1285     88.1360E-03     7.48710E-03     87.8174E-03     366.373E-03    -182.624E-03    -184.763E-03    -181.133E-03     364.881E-03    -184.763E-03     56.2310E-03     442.275E-03     79.1015E+06     23.7204E+06     927.838E+03    -64.2706E+06    -64.2610E+06     918.293E+03     23.7204E+06     706.082E+03
            1286     88.2804E-03     8.31836E-03     87.8876E-03     366.856E-03    -183.052E-03    -184.447E-03    -180.355E-03     364.160E-03    -184.447E-03     76.1951E-03     457.802E-03     81.7827E+06     36.7455E+06     11.0794E+06    -54.7835E+06    -54.7786E+06     11.0745E+06     36.7455E+06     99.1004E+03
            1287     88.4590E-03     9.15166E-03     87.9843E-03     368.072E-03    -183.488E-03    -184.497E-03    -179.368E-03     363.652E-03    -184.197E-03     97.7009E-03     472.949E-03     85.4296E+06     50.6879E+06     20.7948E+06    -45.6549E+06    -45.6516E+06     20.7916E+06     50.6879E+06    -287.296E+03
            1288     88.6808E-03     9.98401E-03     88.1170E-03     370.866E-03    -184.221E-03    -186.711E-03    -180.050E-03     364.232E-03    -184.248E-03     120.456E-03     486.974E-03     87.5233E+06     61.4869E+06     28.5074E+06    -37.7327E+06    -37.7293E+06     28.5040E+06     61.4869E+06    -31.9847E+03
            1289     88.9437E-03     10.8180E-03     88.2834E-03     373.655E-03    -184.570E-03    -189.966E-03    -181.492E-03     365.181E-03    -184.570E-03     137.069E-03     494.261E-03     84.6221E+06     66.5202E+06     34.6142E+06    -29.4148E+06    -29.4115E+06     34.6108E+06     66.5202E+06    -164.012E+03
            1290     89.2330E-03     11.6499E-03     88.4693E-03     379.178E-03    -184.514E-03    -195.319E-03    -183.211E-03     367.069E-03    -184.514E-03     163.872E-03     506.234E-03     78.2249E+06     66.0813E+06     38.8143E+06    -22.1085E+06    -22.1002E+06     38.8061E+06     66.0813E+06    -649.535E+03
            1291     89.5921E-03     12.4807E-03     88.7185E-03     380.820E-03    -184.014E-03    -197.015E-03    -184.135E-03     367.940E-03    -184.014E-03     170.013E-03     506.528E-03     73.1237E+06     65.8155E+06     41.7180E+06    -16.3119E+06    -16.2933E+06     41.6993E+06     65.8155E+06    -932.025E+03
            1292     89.9193E-03     13.3157E-03     88.9279E-03     395.345E-03    -183.944E-03    -211.177E-03    -190.043E-03     374.211E-03    -183.944E-03     216.147E-03     538.066E-03     75.1954E+06     73.4834E+06     48.2266E+06    -11.0857E+06    -11.0722E+06     48.2131E+06     73.4834E+06    -680.257E+03
            1293     90.4377E-03     14.1467E-03     89.3244E-03     395.288E-03    -184.393E-03    -210.726E-03    -191.270E-03     375.832E-03    -184.393E-03     202.965E-03     518.974E-03     83.3309E+06     88.9028E+06     56.1910E+06    -5.71539E+06    -5.71123E+06     56.1869E+06     88.9028E+06     136.241E+03
            1294     89.2316E-03     832.199E-06     89.2278E-03     369.914E-03    -184.676E-03    -185.238E-03    -185.014E-03     369.909E-03    -184.895E-03    -2.98155E-03     371.318E-03     167.641E+06    -128.671E+06    -131.789E+06    -297.844E+06    -131.038E+06    -297.831E+06    -129.435E+06    -779.325E+03
            1295     89.2365E-03     1.66281E-03     89.2210E-03     369.458E-03    -184.422E-03    -185.112E-03    -184.556E-03     369.453E-03    -184.973E-03    -3.04755E-03     373.567E-03     153.443E+06    -117.783E+06    -127.379E+06    -275.701E+06    -127.388E+06    -275.693E+06    -117.783E+06    -399.696E+03
            1296     89.2424E-03     2.49429E-03     89.2076E-03     368.807E-03    -184.070E-03    -184.907E-03    -184.068E-03     368.804E-03    -184.907E-03    -1.75292E-03     377.626E-03     141.828E+06    -100.105E+06    -122.190E+06    -251.522E+06    -122.192E+06    -251.520E+06    -100.105E+06    -387.197E+03
            1297     89.2575E-03     3.32652E-03     89.1955E-03     368.661E-03    -184.147E-03    -184.858E-03    -184.145E-03     368.659E-03    -184.858E-03     1.30400E-03     384.410E-03     126.405E+06    -79.3130E+06    -113.721E+06    -219.129E+06    -113.725E+06    -219.126E+06    -79.3130E+06    -209.152E+03
            1298     89.2825E-03     4.15787E-03     89.1856E-03     368.642E-03    -183.912E-03    -184.873E-03    -183.885E-03     368.616E-03    -184.873E-03     6.67477E-03     392.772E-03     102.708E+06    -57.9998E+06    -104.363E+06    -174.941E+06    -104.371E+06    -174.933E+06    -57.9998E+06     62.9292E+03
            1299     89.3235E-03     4.98897E-03     89.1841E-03     367.480E-03    -182.439E-03    -184.768E-03    -182.336E-03     367.377E-03    -184.768E-03     14.4796E-03     401.646E-03     78.2928E+06    -36.1866E+06    -95.0894E+06    -122.495E+06    -95.0953E+06    -122.489E+06    -36.1866E+06     27.4266E+03
            1300     89.3817E-03     5.82283E-03     89.1918E-03     366.339E-03    -181.478E-03    -184.663E-03    -181.182E-03     366.043E-03    -184.663E-03     24.7046E-03     412.883E-03     68.1632E+06    -13.0227E+06    -60.3233E+06    -87.2366E+06    -84.7802E+06    -62.7798E+06    -13.0227E+06     151.860E+03
            1301     89.4656E-03     6.65520E-03     89.2177E-03     365.911E-03    -181.629E-03    -184.787E-03    -180.951E-03     365.232E-03    -184.787E-03     37.8517E-03     426.465E-03     73.3166E+06     7.98183E+06    -17.2873E+06    -74.4200E+06    -74.4080E+06    -17.2994E+06     7.98183E+06     597.847E+03
            1302     89.5755E-03     7.48745E-03     89.2620E-03     365.640E-03    -182.019E-03    -184.724E-03    -180.565E-03     364.186E-03    -184.724E-03     55.3719E-03     441.718E-03     78.9421E+06     23.6711E+06     1.62994E+06    -63.9457E+06    -63.9361E+06     1.62029E+06     23.6711E+06     650.572E+03
            1303     89.7199E-03     8.32092E-03     89.3332E-03     366.180E-03    -182.538E-03    -184.347E-03    -179.898E-03     363.541E-03    -184.347E-03     75.3369E-03     457.062E-03     82.1702E+06     37.2455E+06     11.6753E+06    -54.6521E+06    -54.6458E+06     11.6690E+06     37.2455E+06     311.069E+03
            1304     89.8951E-03     9.15225E-03     89.4279E-03     368.434E-03    -183.461E-03    -185.014E-03    -179.973E-03     364.044E-03    -184.110E-03     97.3782E-03     473.173E-03     86.2648E+06     51.0004E+06     20.9308E+06    -46.2657E+06    -46.2593E+06     20.9244E+06     51.0004E+06    -84.1143E+03
            1305     90.1175E-03     9.98570E-03     89.5625E-03     371.636E-03    -184.236E-03    -187.605E-03    -180.950E-03     364.982E-03    -184.236E-03     120.832E-03     487.603E-03     87.5857E+06     62.2218E+06     29.3063E+06    -37.0470E+06    -37.0423E+06     29.3015E+06     62.2218E+06    -321.156E+03
            1306     90.3789E-03     10.8157E-03     89.7294E-03     374.109E-03    -184.597E-03    -190.305E-03    -181.809E-03     365.613E-03    -184.597E-03     137.344E-03     494.887E-03     84.3621E+06     67.4325E+06     35.7076E+06    -28.1858E+06    -28.1823E+06     35.7041E+06     67.4325E+06    -431.921E+03
            1307     90.6650E-03     11.6482E-03     89.9137E-03     379.365E-03    -184.551E-03    -195.434E-03    -183.328E-03     367.259E-03    -184.551E-03     163.923E-03     506.771E-03     78.1307E+06     66.6128E+06     39.3270E+06    -21.4934E+06    -21.4889E+06     39.3224E+06     66.6128E+06    -386.617E+03
            1308     91.0231E-03     12.4833E-03     90.1630E-03     381.429E-03    -184.062E-03    -197.464E-03    -184.584E-03     368.548E-03    -184.062E-03     170.187E-03     506.929E-03     73.3713E+06     66.3400E+06     41.8653E+06    -16.1391E+06    -16.1363E+06     41.8626E+06     66.3400E+06    -247.231E+03
            1309     91.3497E-03     13.3125E-03     90.3745E-03     395.584E-03    -184.010E-03    -211.236E-03    -190.154E-03     374.502E-03    -184.010E-03     215.977E-03     538.149E-03     75.7718E+06     74.1115E+06     48.0715E+06    -11.2418E+06    -11.2402E+06     48.0699E+06     74.1115E+06    -275.089E+03
            1310     91.8668E-03     14.1458E-03     90.7712E-03     394.498E-03    -184.442E-03    -209.957E-03    -190.634E-03     375.175E-03    -184.442E-03     201.886E-03     518.385E-03     83.4197E+06     88.8826E+06     55.6591E+06    -5.95918E+06    -5.95795E+06     55.6578E+06     88.8826E+06    -93.4163E+03
            1311     90.6788E-03     829.842E-06     90.6750E-03     369.683E-03    -184.472E-03    -185.169E-03    -184.941E-03     369.679E-03    -184.695E-03    -1.97463E-03     371.078E-03     167.333E+06    -127.671E+06    -132.415E+06    -297.321E+06    -131.660E+06    -297.312E+06    -128.435E+06    -55.9529E+03
            1312     90.6806E-03     1.66329E-03     90.6654E-03     369.138E-03    -184.350E-03    -184.858E-03    -184.346E-03     369.134E-03    -184.858E-03    -2.80735E-03     373.218E-03     152.936E+06    -117.312E+06    -128.241E+06    -275.342E+06    -128.249E+06    -275.334E+06    -117.312E+06    -297.823E+03
            1313     90.6873E-03     2.49602E-03     90.6530E-03     368.909E-03    -184.230E-03    -184.839E-03    -184.227E-03     368.906E-03    -184.839E-03    -2.21187E-03     377.632E-03     142.486E+06    -98.4538E+06    -121.074E+06    -250.748E+06    -121.075E+06    -250.747E+06    -98.4538E+06    -162.894E+03
            1314     90.7020E-03     3.32718E-03     90.6410E-03     368.547E-03    -184.078E-03    -184.823E-03    -184.073E-03     368.543E-03    -184.823E-03     1.27081E-03     384.256E-03     127.532E+06    -78.2541E+06    -113.138E+06    -219.349E+06    -113.142E+06    -219.344E+06    -78.2541E+06     36.1388E+03
            1315     90.7288E-03     4.15815E-03     90.6335E-03     368.284E-03    -183.652E-03    -184.811E-03    -183.624E-03     368.256E-03    -184.811E-03     7.15197E-03     392.385E-03     102.488E+06    -57.7525E+06    -104.656E+06    -174.486E+06    -104.664E+06    -174.478E+06    -57.7525E+06     291.893E+03
            1316     90.7659E-03     4.99022E-03     90.6286E-03     367.902E-03    -182.895E-03    -184.723E-03    -182.788E-03     367.795E-03    -184.723E-03     14.7214E-03     402.091E-03     78.2658E+06    -35.7301E+06    -94.9289E+06    -122.076E+06    -94.9522E+06    -122.053E+06    -35.7301E+06    -36.7237E+03
            1317     90.8227E-03     5.82205E-03     90.6359E-03     366.913E-03    -182.027E-03    -184.687E-03    -181.721E-03     366.606E-03    -184.687E-03     25.1815E-03     413.632E-03     67.9857E+06    -13.5664E+06    -60.8960E+06    -87.6862E+06    -85.0336E+06    -63.5486E+06    -13.5664E+06    -34.2109E+03
            1318     90.9069E-03     6.65413E-03     90.6630E-03     365.891E-03    -181.569E-03    -184.842E-03    -180.894E-03     365.215E-03    -184.842E-03     37.8647E-03     426.599E-03     73.3906E+06     7.76984E+06    -17.5991E+06    -74.7166E+06    -74.7066E+06    -17.6091E+06     7.76984E+06     280.597E+03
            1319     91.0153E-03     7.48674E-03     90.7069E-03     365.390E-03    -181.741E-03    -184.760E-03    -180.341E-03     363.990E-03    -184.760E-03     54.3706E-03     441.541E-03     79.2698E+06     23.7773E+06     1.93359E+06    -64.1223E+06    -64.1182E+06     1.92952E+06     23.7773E+06     168.583E+03
            1320     91.1571E-03     8.31970E-03     90.7767E-03     365.980E-03    -182.232E-03    -184.359E-03    -179.679E-03     363.427E-03    -184.359E-03     74.0269E-03     456.639E-03     81.9582E+06     37.1524E+06     12.1710E+06    -54.3721E+06    -54.3696E+06     12.1685E+06     37.1524E+06     194.587E+03
            1321     91.3338E-03     9.15338E-03     90.8740E-03     368.495E-03    -183.306E-03    -185.142E-03    -180.001E-03     364.165E-03    -184.115E-03     96.6673E-03     472.834E-03     86.1584E+06     51.7602E+06     22.1512E+06    -45.2854E+06    -45.2797E+06     22.1455E+06     51.7602E+06    -102.645E+03
            1322     91.5546E-03     9.98383E-03     91.0086E-03     371.759E-03    -184.242E-03    -187.653E-03    -181.039E-03     365.146E-03    -184.242E-03     120.475E-03     487.820E-03     88.2935E+06     63.3420E+06     30.4567E+06    -36.6682E+06    -36.6619E+06     30.4504E+06     63.3420E+06    -527.382E+03
            1323     91.8151E-03     10.8172E-03     91.1756E-03     374.086E-03    -184.611E-03    -190.198E-03    -181.767E-03     365.654E-03    -184.611E-03     136.809E-03     494.965E-03     85.2756E+06     66.9739E+06     35.6065E+06    -29.5303E+06    -29.5251E+06     35.6012E+06     66.9739E+06    -565.142E+03
            1324     92.0998E-03     11.6500E-03     91.3600E-03     379.618E-03    -184.589E-03    -195.695E-03    -183.695E-03     367.618E-03    -184.589E-03     163.301E-03     507.050E-03     78.6139E+06     65.5636E+06     38.7729E+06    -22.9400E+06    -22.9326E+06     38.7655E+06     65.5636E+06    -494.654E+03
            1325     92.4532E-03     12.4793E-03     91.6071E-03     381.609E-03    -184.122E-03    -197.574E-03    -184.717E-03     368.752E-03    -184.122E-03     170.147E-03     507.234E-03     73.3437E+06     65.3990E+06     41.4224E+06    -16.9319E+06    -16.9256E+06     41.4161E+06     65.3990E+06    -105.896E+03
            1326     92.7852E-03     13.3126E-03     91.8252E-03     395.476E-03    -184.044E-03    -211.031E-03    -189.590E-03     374.035E-03    -184.044E-03     217.529E-03     537.910E-03     75.3467E+06     73.8262E+06     48.4109E+06    -10.9348E+06    -10.9265E+06     48.4027E+06     73.8262E+06     391.876E+03
            1327     93.2894E-03     14.1441E-03     92.2109E-03     394.341E-03    -184.426E-03    -209.763E-03    -190.020E-03     374.598E-03    -184.426E-03     204.031E-03     518.151E-03     83.2063E+06     89.2254E+06     56.2568E+06    -5.33943E+06    -5.33216E+06     56.2495E+06     89.2254E+06     164.493E+03
            1328     92.1247E-03     833.771E-06     92.1209E-03     368.905E-03    -183.986E-03    -184.913E-03    -184.904E-03     368.899E-03    -183.990E-03    -2.34643E-03     370.305E-03     166.764E+06    -128.105E+06    -133.877E+06    -297.674E+06    -132.677E+06    -297.671E+06    -129.309E+06     659.160E+03
            1329     92.1257E-03     1.66374E-03     92.1107E-03     369.383E-03    -184.609E-03    -184.836E-03    -184.771E-03     369.378E-03    -184.669E-03    -3.07193E-03     373.486E-03     153.059E+06    -115.994E+06    -128.060E+06    -274.657E+06    -128.063E+06    -274.655E+06    -115.994E+06     374.675E+03
            1330     92.1333E-03     2.49398E-03     92.0996E-03     369.139E-03    -184.470E-03    -184.852E-03    -184.467E-03     369.136E-03    -184.852E-03    -2.06371E-03     377.942E-03     142.334E+06    -98.6832E+06    -121.481E+06    -250.916E+06    -121.484E+06    -250.913E+06    -98.6832E+06     209.050E+03
            1331     92.1469E-03     3.32584E-03     92.0869E-03     368.391E-03    -183.916E-03    -184.855E-03    -183.913E-03     368.387E-03    -184.855E-03     942.648E-06     384.154E-03     126.930E+06    -78.3068E+06    -113.763E+06    -218.896E+06    -113.770E+06    -218.889E+06    -78.3068E+06     335.301E+03
            1332     92.1716E-03     4.15940E-03     92.0777E-03     367.941E-03    -183.312E-03    -184.802E-03    -183.290E-03     367.919E-03    -184.802E-03     6.18088E-03     392.006E-03     102.934E+06    -57.1002E+06    -104.527E+06    -174.518E+06    -104.533E+06    -174.512E+06    -57.1002E+06     235.898E+03
            1333     92.2100E-03     4.99099E-03     92.0748E-03     367.850E-03    -182.873E-03    -184.682E-03    -182.773E-03     367.749E-03    -184.682E-03     14.0569E-03     402.091E-03     78.1864E+06    -35.8718E+06    -94.5338E+06    -122.217E+06    -94.7800E+06    -121.971E+06    -35.8718E+06     310.514E+03
            1334     92.2662E-03     5.82207E-03     92.0824E-03     367.132E-03    -182.241E-03    -184.679E-03    -181.928E-03     366.819E-03    -184.679E-03     25.3701E-03     413.775E-03     68.3105E+06    -13.3790E+06    -60.7579E+06    -87.9568E+06    -85.3484E+06    -63.3663E+06    -13.3790E+06     227.009E+03
            1335     92.3472E-03     6.65444E-03     92.1071E-03     366.122E-03    -181.773E-03    -184.864E-03    -181.070E-03     365.420E-03    -184.864E-03     38.6283E-03     426.666E-03     73.9130E+06     8.28515E+06    -17.1342E+06    -74.7463E+06    -74.7348E+06    -17.1457E+06     8.28515E+06    -73.0138E+03
            1336     92.4553E-03     7.48665E-03     92.1517E-03     366.025E-03    -182.275E-03    -184.799E-03    -180.864E-03     364.614E-03    -184.799E-03     54.7597E-03     442.258E-03     79.7106E+06     23.7791E+06     2.20324E+06    -64.4962E+06    -64.4916E+06     2.19859E+06     23.7791E+06    -244.982E+03
            1337     92.5954E-03     8.31905E-03     92.2209E-03     366.655E-03    -182.805E-03    -184.449E-03    -180.253E-03     364.104E-03    -184.449E-03     74.0481E-03     457.436E-03     81.9004E+06     36.7585E+06     12.5050E+06    -54.5170E+06    -54.5061E+06     12.4941E+06     36.7585E+06    -533.710E+03
            1338     92.7728E-03     9.15066E-03     92.3204E-03     368.468E-03    -183.493E-03    -184.881E-03    -179.821E-03     364.112E-03    -184.198E-03     96.9071E-03     472.648E-03     85.8318E+06     51.2485E+06     22.4659E+06    -45.2599E+06    -45.2505E+06     22.4565E+06     51.2485E+06    -163.122E+03
            1339     92.9902E-03     9.98536E-03     92.4525E-03     371.447E-03    -184.285E-03    -187.263E-03    -180.683E-03     364.867E-03    -184.285E-03     120.149E-03     487.465E-03     88.4369E+06     62.9799E+06     30.7468E+06    -37.0485E+06    -37.0404E+06     30.7386E+06     62.9799E+06     268.694E+03
            1340     93.2505E-03     10.8151E-03     92.6212E-03     373.924E-03    -184.665E-03    -190.067E-03    -181.726E-03     365.583E-03    -184.665E-03     136.050E-03     494.806E-03     85.5629E+06     67.1433E+06     35.9020E+06    -29.6445E+06    -29.6355E+06     35.8930E+06     67.1433E+06     37.3688E+03
            1341     93.5339E-03     11.6466E-03     92.8059E-03     379.514E-03    -184.642E-03    -195.526E-03    -183.365E-03     367.353E-03    -184.642E-03     164.148E-03     506.653E-03     78.9098E+06     66.0437E+06     38.8936E+06    -22.8494E+06    -22.8385E+06     38.8828E+06     66.0437E+06    -76.2235E+03
            1342     93.8859E-03     12.4813E-03     93.0526E-03     381.289E-03    -184.132E-03    -197.322E-03    -184.188E-03     368.155E-03    -184.132E-03     171.795E-03     506.944E-03     73.3122E+06     65.4707E+06     41.6072E+06    -16.7988E+06    -16.7883E+06     41.5968E+06     65.4707E+06    -68.3954E+03
            1343     94.2077E-03     13.3127E-03     93.2623E-03     394.846E-03    -184.014E-03    -210.515E-03    -188.944E-03     373.275E-03    -184.014E-03     218.066E-03     537.257E-03     74.7213E+06     72.3713E+06     47.6491E+06    -11.5741E+06    -11.5586E+06     47.6336E+06     72.3713E+06     8.37341E+03
            1344     94.7210E-03     14.1498E-03     93.6582E-03     393.932E-03    -184.349E-03    -209.424E-03    -189.696E-03     374.205E-03    -184.349E-03     203.483E-03     517.487E-03     82.7348E+06     88.4886E+06     56.1120E+06    -5.45496E+06    -5.43881E+06     56.0959E+06     88.4886E+06    -274.935E+03
            1345     93.5681E-03     830.664E-06     93.5645E-03     369.175E-03    -184.177E-03    -185.050E-03    -184.893E-03     369.169E-03    -184.329E-03    -2.77070E-03     370.579E-03     167.927E+06    -128.263E+06    -133.035E+06    -298.516E+06    -131.835E+06    -298.514E+06    -129.466E+06     114.364E+03
            1346     93.5737E-03     1.66315E-03     93.5589E-03     369.389E-03    -184.514E-03    -184.910E-03    -184.676E-03     369.384E-03    -184.743E-03    -3.11265E-03     373.517E-03     153.509E+06    -116.338E+06    -127.485E+06    -275.007E+06    -127.491E+06    -275.002E+06    -116.338E+06     749.194E+03
            1347     93.5789E-03     2.49564E-03     93.5457E-03     369.268E-03    -184.523E-03    -184.911E-03    -184.519E-03     369.264E-03    -184.911E-03    -2.19095E-03     378.093E-03     142.642E+06    -98.2882E+06    -121.703E+06    -251.050E+06    -121.711E+06    -251.043E+06    -98.2882E+06     856.256E+03
            1348     93.5932E-03     3.32720E-03     93.5341E-03     368.790E-03    -184.168E-03    -184.954E-03    -184.166E-03     368.788E-03    -184.954E-03     449.597E-06     384.562E-03     127.212E+06    -77.9124E+06    -113.496E+06    -218.876E+06    -113.506E+06    -218.867E+06    -77.9124E+06     620.594E+03
            1349     93.6154E-03     4.15703E-03     93.5231E-03     368.115E-03    -183.350E-03    -184.908E-03    -183.330E-03     368.095E-03    -184.908E-03     5.67372E-03     392.223E-03     103.364E+06    -56.8822E+06    -104.405E+06    -174.721E+06    -104.415E+06    -174.712E+06    -56.8822E+06     473.515E+03
            1350     93.6535E-03     4.98967E-03     93.5205E-03     367.417E-03    -182.396E-03    -184.743E-03    -182.297E-03     367.319E-03    -184.743E-03     13.9094E-03     401.587E-03     78.9546E+06    -35.1875E+06    -94.7378E+06    -122.206E+06    -94.9790E+06    -121.965E+06    -35.1875E+06     504.087E+03
            1351     93.7085E-03     5.82318E-03     93.5274E-03     366.928E-03    -182.067E-03    -184.694E-03    -181.774E-03     366.635E-03    -184.694E-03     24.6270E-03     413.484E-03     68.4032E+06    -12.0824E+06    -60.0872E+06    -86.5996E+06    -84.4496E+06    -62.2373E+06    -12.0824E+06     199.369E+03
            1352     93.7898E-03     6.65496E-03     93.5534E-03     366.240E-03    -181.960E-03    -184.875E-03    -181.292E-03     365.571E-03    -184.875E-03     37.5741E-03     426.742E-03     74.0088E+06     8.80129E+06    -16.4983E+06    -74.2511E+06    -74.2421E+06    -16.5074E+06     8.80129E+06    -177.305E+03
            1353     93.8971E-03     7.48671E-03     93.5981E-03     366.161E-03    -182.453E-03    -184.806E-03    -181.018E-03     364.727E-03    -184.806E-03     55.0567E-03     442.376E-03     79.9204E+06     23.9378E+06     2.91881E+06    -64.3880E+06    -64.3834E+06     2.91419E+06     23.9378E+06    -319.099E+03
            1354     94.0349E-03     8.31832E-03     93.6663E-03     367.105E-03    -183.339E-03    -184.483E-03    -180.722E-03     364.489E-03    -184.483E-03     75.1041E-03     458.076E-03     82.4219E+06     36.5753E+06     12.4012E+06     -55.216E+06    -55.2053E+06     12.3905E+06     36.5753E+06    -474.638E+03
            1355     94.2067E-03     9.15066E-03     93.7612E-03     368.906E-03    -183.925E-03    -184.936E-03    -180.185E-03     364.496E-03    -184.268E-03     97.5896E-03     473.239E-03     85.9688E+06     50.4058E+06     21.8559E+06    -46.1934E+06    -46.1760E+06     21.8385E+06     50.4058E+06    -425.310E+03
            1356     94.4263E-03     9.98270E-03     93.8972E-03     371.177E-03    -184.339E-03    -186.944E-03    -180.277E-03     364.509E-03    -184.339E-03     120.847E-03     486.989E-03     87.7288E+06     62.1287E+06     30.1116E+06    -37.1016E+06    -37.0870E+06     30.0970E+06     62.1287E+06    -23.7927E+03
            1357     94.6904E-03     10.8156E-03     94.0707E-03     373.479E-03    -184.672E-03    -189.638E-03    -181.150E-03     364.991E-03    -184.672E-03     137.114E-03     494.280E-03     84.5981E+06     66.8644E+06     35.4964E+06    -28.9321E+06    -28.9260E+06     35.4902E+06     66.8644E+06     360.643E+03
            1358     94.9713E-03     11.6486E-03     94.2542E-03     378.997E-03    -184.601E-03    -194.997E-03    -182.792E-03     366.792E-03    -184.601E-03     164.402E-03     506.135E-03     78.3082E+06     66.1815E+06     39.5254E+06    -21.9552E+06    -21.9489E+06     39.5191E+06     66.1815E+06     590.869E+03
            1359     95.3221E-03     12.4824E-03     94.5012E-03     380.732E-03    -184.052E-03    -196.750E-03    -183.666E-03     367.647E-03    -184.052E-03     171.317E-03     505.947E-03     73.1821E+06     65.8876E+06     42.3540E+06    -16.1610E+06    -16.1527E+06     42.3457E+06     65.8876E+06     389.306E+03
            1360     95.6418E-03     13.3147E-03     94.7104E-03     394.737E-03    -183.957E-03    -210.477E-03    -189.137E-03     373.397E-03    -183.957E-03     217.089E-03     537.226E-03     74.8820E+06     73.2682E+06     48.2901E+06    -10.9073E+06    -10.8972E+06     48.2801E+06     73.2682E+06    -205.991E+03
            1361     96.1380E-03     14.1456E-03     95.0916E-03     394.259E-03    -184.330E-03    -209.939E-03    -190.432E-03     374.751E-03    -184.330E-03     202.711E-03     518.106E-03     83.1372E+06     88.9457E+06     56.1334E+06    -5.49333E+06    -5.48334E+06     56.1234E+06     88.9457E+06    -361.399E+03
            1362     95.0152E-03     831.783E-06     95.0116E-03     370.332E-03    -184.693E-03    -185.646E-03    -185.489E-03     370.328E-03    -184.845E-03    -2.57576E-03     371.745E-03     167.302E+06    -128.362E+06    -133.074E+06    -297.962E+06    -131.815E+06    -297.951E+06    -129.632E+06    -675.256E+03
            1363     95.0182E-03     1.66328E-03     95.0036E-03     369.994E-03    -184.783E-03    -185.225E-03    -184.788E-03     369.987E-03    -185.214E-03    -3.67649E-03     374.061E-03     154.466E+06    -117.493E+06    -127.747E+06    -276.735E+06    -127.761E+06    -276.722E+06    -117.493E+06    -60.8053E+03
            1364     95.0258E-03     2.49380E-03     94.9931E-03     369.415E-03    -184.299E-03    -185.219E-03    -184.294E-03     369.410E-03    -185.219E-03    -3.20353E-03     378.186E-03     143.804E+06    -97.9586E+06    -121.084E+06    -251.737E+06    -121.097E+06    -251.724E+06    -97.9586E+06     957.942E+03
            1365     95.0382E-03     3.32478E-03     94.9800E-03     368.483E-03    -183.751E-03    -185.116E-03    -183.747E-03     368.479E-03    -185.116E-03     445.680E-06     384.319E-03     128.312E+06    -76.8421E+06    -112.945E+06    -219.092E+06    -112.960E+06    -219.077E+06    -76.8421E+06     1.00985E+06
            1366     95.0603E-03     4.15805E-03     94.9693E-03     368.108E-03    -183.401E-03    -184.971E-03    -183.378E-03     368.085E-03    -184.971E-03     6.32363E-03     392.215E-03     103.521E+06    -56.1776E+06    -103.767E+06    -174.215E+06    -103.775E+06    -174.207E+06    -56.1776E+06     598.450E+03
            1367     95.0945E-03     4.99021E-03     94.9635E-03     367.867E-03    -182.812E-03    -184.813E-03    -182.713E-03     367.768E-03    -184.813E-03     14.0009E-03     402.016E-03     79.0199E+06    -34.1974E+06    -93.5228E+06    -121.384E+06    -93.6528E+06    -121.254E+06    -34.1974E+06     398.923E+03
            1368     95.1542E-03     5.82160E-03     94.9759E-03     366.948E-03    -182.017E-03    -184.765E-03    -181.733E-03     366.663E-03    -184.765E-03     24.2953E-03     413.562E-03     68.1176E+06    -11.7377E+06    -59.7829E+06    -86.0612E+06      -83.66E+06    -62.1841E+06    -11.7377E+06     453.612E+03
            1369     95.2325E-03     6.65336E-03     94.9998E-03     366.020E-03    -181.658E-03    -184.918E-03    -180.991E-03     365.353E-03    -184.918E-03     37.4507E-03     426.376E-03     74.0170E+06     9.07265E+06    -16.3966E+06    -73.9810E+06      -73.97E+06    -16.4077E+06     9.07265E+06     468.103E+03
            1370     95.3375E-03     7.48613E-03     95.0431E-03     366.114E-03    -182.319E-03    -184.836E-03    -180.860E-03     364.655E-03    -184.836E-03     55.4932E-03     441.904E-03     80.3606E+06     24.4873E+06     3.49194E+06    -64.2827E+06    -64.2710E+06     3.48032E+06     24.4873E+06     502.044E+03
            1371     95.4766E-03     8.31961E-03     95.1134E-03     367.102E-03    -183.231E-03    -184.489E-03    -180.601E-03     364.471E-03    -184.489E-03     75.3490E-03     457.737E-03     83.0244E+06     37.5346E+06     13.1892E+06    -54.9266E+06    -54.9214E+06     13.1839E+06     37.5346E+06     225.818E+03
            1372     95.6501E-03     9.14984E-03     95.2115E-03     368.940E-03    -183.867E-03    -184.922E-03    -180.065E-03     364.489E-03    -184.273E-03     97.9771E-03     473.171E-03     86.2653E+06     50.9157E+06     22.3962E+06    -45.9871E+06    -45.9774E+06     22.3865E+06     50.9157E+06    -337.777E+03
            1373     95.8596E-03     9.98304E-03     95.3384E-03     371.094E-03    -184.338E-03    -186.852E-03    -180.056E-03     364.298E-03    -184.338E-03     121.964E-03     486.899E-03     87.8283E+06     61.8901E+06     29.6286E+06    -37.4913E+06    -37.4797E+06     29.6170E+06     61.8901E+06    -588.842E+03
            1374     96.1241E-03     10.8159E-03     95.5137E-03     373.053E-03    -184.628E-03    -189.253E-03    -180.678E-03     364.478E-03    -184.628E-03     137.733E-03     493.974E-03     84.5064E+06     66.1620E+06     34.9450E+06    -29.4988E+06    -29.4941E+06     34.9404E+06     66.1620E+06    -367.505E+03
            1375     96.4028E-03     11.6480E-03     95.6965E-03     378.723E-03    -184.537E-03    -194.767E-03    -182.586E-03     366.541E-03    -184.537E-03     164.215E-03     506.155E-03     77.8654E+06     65.1799E+06     39.5527E+06    -22.2527E+06    -22.2497E+06     39.5497E+06     65.1799E+06     136.005E+03
            1376     96.7444E-03     12.4810E-03     95.9360E-03     380.804E-03    -184.000E-03    -196.729E-03    -183.663E-03     367.738E-03    -184.000E-03     171.231E-03     506.305E-03     72.8046E+06     65.5312E+06     42.5149E+06    -15.9957E+06    -15.9917E+06     42.5110E+06     65.5312E+06     341.692E+03
            1377     97.0675E-03     13.3151E-03     96.1500E-03     395.115E-03    -183.926E-03    -210.839E-03    -189.549E-03     373.824E-03    -183.926E-03     217.089E-03     537.775E-03     74.8872E+06     73.8396E+06     48.8963E+06    -10.3339E+06    -10.3312E+06     48.8936E+06     73.8396E+06     258.730E+03
            1378     97.5704E-03     14.1491E-03     96.5391E-03     394.800E-03    -184.346E-03    -210.604E-03    -191.136E-03     375.332E-03    -184.346E-03     202.871E-03     518.659E-03     83.2427E+06     89.2014E+06     56.6043E+06    -5.31154E+06    -5.31045E+06     56.6032E+06     89.2014E+06     242.349E+03
            1379     96.4621E-03     830.449E-06     96.4585E-03     371.353E-03    -184.869E-03    -186.449E-03    -186.345E-03     371.349E-03    -184.968E-03    -2.56621E-03     372.773E-03     167.042E+06    -127.248E+06    -132.401E+06    -296.794E+06    -131.153E+06    -296.773E+06    -128.518E+06    -117.624E+03
            1380     96.4662E-03     1.66058E-03     96.4519E-03     370.483E-03    -184.891E-03    -185.640E-03    -184.896E-03     370.478E-03    -185.629E-03    -3.13266E-03     374.599E-03     155.170E+06    -117.129E+06    -128.691E+06    -277.679E+06    -128.712E+06    -277.658E+06    -117.129E+06     159.422E+03
            1381     96.4693E-03     2.49290E-03     96.4371E-03     369.127E-03    -183.872E-03    -185.404E-03    -183.869E-03     369.124E-03    -185.404E-03    -2.18759E-03     377.960E-03     143.874E+06    -98.8896E+06    -121.654E+06    -252.638E+06    -121.664E+06    -252.628E+06    -98.8896E+06     405.791E+03
            1382     96.4796E-03     3.32665E-03     96.4222E-03     368.243E-03    -183.493E-03    -185.155E-03    -183.490E-03     368.240E-03    -185.155E-03     699.963E-06     384.064E-03     128.680E+06    -77.1610E+06    -112.618E+06    -219.566E+06    -112.632E+06    -219.553E+06    -77.1610E+06     706.730E+03
            1383     96.5013E-03     4.15840E-03     96.4116E-03     368.249E-03    -183.480E-03    -184.996E-03    -183.456E-03     368.225E-03    -184.996E-03     6.23240E-03     392.208E-03     103.478E+06    -56.2212E+06    -103.307E+06    -174.218E+06    -103.325E+06    -174.200E+06    -56.2212E+06     856.085E+03
            1384     96.5393E-03     4.98888E-03     96.4103E-03     368.070E-03    -182.968E-03    -184.847E-03    -182.864E-03     367.966E-03    -184.847E-03     14.3841E-03     402.156E-03     79.0186E+06    -34.8078E+06    -93.7719E+06    -121.936E+06    -93.9430E+06    -121.765E+06    -34.8078E+06     1.07913E+06
            1385     96.5926E-03     5.82084E-03     96.4171E-03     366.912E-03    -181.940E-03    -184.795E-03    -181.633E-03     366.605E-03    -184.795E-03     25.1672E-03     413.445E-03     68.7973E+06    -11.7232E+06    -59.9379E+06    -86.7201E+06    -84.4615E+06    -62.1965E+06    -11.7232E+06     1.23215E+06
            1386     96.6718E-03     6.65469E-03     96.4425E-03     366.263E-03    -181.829E-03    -184.960E-03    -181.145E-03     365.580E-03    -184.960E-03     38.0954E-03     426.486E-03     75.1524E+06     9.80146E+06    -15.9403E+06    -74.5274E+06    -74.4893E+06    -15.9784E+06     9.80146E+06     1.24443E+06
            1387     96.7773E-03     7.48668E-03     96.4872E-03     366.299E-03    -182.468E-03    -184.894E-03    -181.027E-03     364.858E-03    -184.894E-03     55.1865E-03     442.188E-03     80.8899E+06     25.0171E+06     3.88736E+06    -64.3382E+06    -64.3242E+06     3.87336E+06     25.0171E+06     793.497E+03
            1388     96.9177E-03     8.31706E-03     96.5602E-03     366.484E-03    -182.496E-03    -184.505E-03    -179.856E-03     363.844E-03    -184.505E-03     75.3210E-03     457.165E-03     83.1679E+06     37.5770E+06     13.5745E+06    -54.9404E+06    -54.9322E+06     13.5663E+06     37.5770E+06     315.627E+03
            1389     97.0838E-03     9.15138E-03     96.6515E-03     368.231E-03    -183.241E-03    -184.686E-03    -179.208E-03     363.745E-03    -184.233E-03     98.2691E-03     472.379E-03     86.6641E+06     51.6614E+06     23.2374E+06    -45.6281E+06    -45.6232E+06     23.2326E+06     51.6614E+06     211.490E+03
            1390     97.2936E-03     9.98531E-03     96.7799E-03     370.917E-03    -184.291E-03    -186.862E-03    -180.045E-03     364.101E-03    -184.291E-03     122.132E-03     486.743E-03     88.3678E+06     62.6992E+06     30.6989E+06    -37.2016E+06    -37.1972E+06     30.6946E+06     62.6992E+06     47.7946E+03
            1391     97.5531E-03     10.8161E-03     96.9516E-03     373.183E-03    -184.584E-03    -189.498E-03    -180.897E-03     364.582E-03    -184.584E-03     137.981E-03     494.055E-03     85.0553E+06     66.2802E+06     35.4727E+06    -29.8766E+06    -29.8628E+06     35.4589E+06     66.2802E+06    -567.556E+03
            1392     97.8277E-03     11.6502E-03     97.1315E-03     378.788E-03    -184.507E-03    -194.867E-03    -182.687E-03     366.607E-03    -184.507E-03     164.253E-03     506.209E-03     78.1526E+06     64.9585E+06     39.1505E+06    -22.8227E+06    -22.8053E+06     39.1332E+06     64.9585E+06    -807.773E+03
            1393     98.1777E-03     12.4846E-03     97.3807E-03     381.039E-03    -183.999E-03    -196.949E-03    -184.023E-03     368.112E-03    -183.999E-03     170.318E-03     506.984E-03     73.1153E+06     64.7639E+06     41.8883E+06    -17.0537E+06    -17.0462E+06     41.8809E+06     64.7639E+06    -283.070E+03
            1394     98.4976E-03     13.3144E-03     97.5936E-03     395.448E-03    -183.915E-03    -211.051E-03    -189.755E-03     374.151E-03    -183.915E-03     216.829E-03     537.998E-03     74.9709E+06     72.4984E+06     47.9469E+06    -11.6648E+06    -11.6637E+06     47.9458E+06     72.4984E+06     172.234E+03
            1395     98.9982E-03     14.1449E-03     97.9825E-03     394.424E-03    -184.352E-03    -210.184E-03    -190.641E-03     374.880E-03    -184.352E-03     202.859E-03     517.954E-03     82.9438E+06     88.3191E+06     56.4450E+06    -5.76536E+06    -5.76418E+06     56.4438E+06     88.3191E+06     173.458E+03
            1396     97.9125E-03     830.914E-06     97.9090E-03     370.463E-03    -184.671E-03    -185.801E-03    -185.580E-03     370.461E-03    -184.890E-03    -1.74405E-03     371.915E-03     169.720E+06    -128.134E+06    -132.589E+06    -300.005E+06    -132.626E+06    -299.967E+06    -128.134E+06     1.60916E+06
            1397     97.9121E-03     1.66281E-03     97.8980E-03     369.757E-03    -184.563E-03    -185.259E-03    -184.610E-03     369.755E-03    -185.210E-03    -2.10045E-03     373.955E-03     157.046E+06    -114.830E+06    -127.258E+06    -277.649E+06    -127.277E+06    -277.630E+06    -114.830E+06     1.34997E+06
            1398     97.9140E-03     2.49484E-03     97.8823E-03     369.297E-03    -184.286E-03    -185.186E-03    -184.334E-03     369.296E-03    -185.138E-03    -1.64901E-03     378.173E-03     144.519E+06    -98.0305E+06    -120.774E+06    -252.449E+06    -120.782E+06    -252.441E+06    -98.0305E+06     589.783E+03
            1399     97.9240E-03     3.32517E-03     97.8675E-03     368.880E-03    -184.132E-03    -185.088E-03    -184.129E-03     368.877E-03    -185.088E-03     1.04691E-03     384.641E-03     128.892E+06    -77.7677E+06    -112.511E+06    -220.199E+06    -112.517E+06    -220.193E+06    -77.7677E+06     448.003E+03
            1400     97.9457E-03     4.15662E-03     97.8574E-03     368.268E-03    -183.357E-03    -185.016E-03    -183.330E-03     368.241E-03    -185.016E-03     6.64296E-03     392.127E-03     104.157E+06    -56.5293E+06    -103.589E+06    -175.196E+06    -103.620E+06    -175.166E+06    -56.5293E+06     1.22956E+06
            1401     97.9815E-03     4.99046E-03     97.8544E-03     367.636E-03    -182.475E-03    -184.832E-03    -182.368E-03     367.529E-03    -184.832E-03     14.6708E-03     401.526E-03     80.0147E+06    -34.9739E+06    -94.3260E+06    -123.603E+06    -94.7935E+06    -123.135E+06    -34.9739E+06     1.87479E+06
            1402     98.0350E-03     5.82293E-03     97.8619E-03     367.195E-03    -182.212E-03    -184.783E-03    -181.910E-03     366.893E-03    -184.783E-03     25.0358E-03     413.760E-03     69.9836E+06    -11.2706E+06    -59.5418E+06    -87.9533E+06    -84.8942E+06    -62.6009E+06    -11.2706E+06     2.31644E+06
            1403     98.1119E-03     6.65334E-03     97.8860E-03     366.666E-03    -182.285E-03    -184.997E-03    -181.582E-03     365.964E-03    -184.997E-03     38.4904E-03     427.102E-03     75.9595E+06     10.4720E+06    -15.0453E+06    -74.6500E+06    -74.5794E+06    -15.1158E+06     10.4720E+06     1.75849E+06
            1404     98.2173E-03     7.48415E-03     97.9318E-03     366.196E-03    -182.355E-03    -184.925E-03    -180.893E-03     364.734E-03    -184.925E-03     55.6882E-03     442.232E-03     81.4215E+06     25.4925E+06     4.81346E+06    -64.2709E+06    -64.2617E+06     4.80427E+06     25.4925E+06     636.185E+03
            1405     98.3488E-03     8.31942E-03     97.9963E-03     366.177E-03    -182.096E-03    -184.496E-03    -179.478E-03     363.559E-03    -184.496E-03     74.9634E-03     457.065E-03     83.2479E+06     37.9647E+06     14.2941E+06    -54.5383E+06    -54.5318E+06     14.2876E+06     37.9647E+06     526.553E+03
            1406     98.5167E-03     9.15208E-03     98.0906E-03     367.696E-03    -182.986E-03    -184.436E-03    -178.783E-03     363.244E-03    -184.188E-03     97.7787E-03     471.870E-03     86.6248E+06     51.8237E+06     23.4950E+06    -45.4017E+06    -45.3952E+06     23.4884E+06     51.8237E+06     590.352E+03
            1407     98.7267E-03     9.98460E-03     98.2205E-03     370.429E-03    -184.249E-03    -186.655E-03    -179.892E-03     363.666E-03    -184.249E-03     121.596E-03     485.972E-03     88.2921E+06     62.9535E+06     31.1295E+06    -36.8310E+06    -36.8271E+06     31.1255E+06     62.9535E+06     212.250E+03
            1408     98.9838E-03     10.8186E-03     98.3908E-03     373.383E-03    -184.540E-03    -189.716E-03    -181.237E-03     364.904E-03    -184.540E-03     137.078E-03     493.920E-03     85.1528E+06     67.0741E+06     36.2014E+06    -29.2028E+06    -29.1840E+06     36.1826E+06     67.0741E+06    -11.0265E+03
            1409     99.2638E-03     11.6490E-03     98.5779E-03     379.259E-03    -184.483E-03    -195.289E-03    -183.258E-03     367.229E-03    -184.483E-03     163.350E-03     506.618E-03     78.7258E+06     65.5835E+06     38.8857E+06    -23.0115E+06    -22.9857E+06     38.8599E+06     65.5835E+06    -200.448E+03
            1410     99.6078E-03     12.4809E-03     98.8228E-03     381.477E-03    -183.986E-03    -197.265E-03    -184.405E-03     368.616E-03    -183.986E-03     170.043E-03     507.260E-03     73.4887E+06     64.9272E+06     41.3676E+06    -17.4481E+06    -17.4370E+06     41.3566E+06     64.9272E+06    -291.778E+03
            1411     99.9289E-03     13.3136E-03     99.0381E-03     395.248E-03    -183.889E-03    -210.650E-03    -189.360E-03     373.958E-03    -183.889E-03     216.635E-03     537.834E-03     75.1784E+06     72.6824E+06     47.7738E+06    -11.7804E+06    -11.7663E+06     47.7597E+06     72.6824E+06    -419.799E+03
            1412     100.428E-03     14.1493E-03     99.4262E-03     394.069E-03    -184.359E-03    -209.733E-03    -190.219E-03     374.555E-03    -184.359E-03     202.428E-03     517.599E-03     82.7279E+06     88.5438E+06     56.5490E+06    -5.34825E+06    -5.33478E+06     56.5355E+06     88.5438E+06    -184.654E+03
            1413     99.3575E-03     832.170E-06     99.3541E-03     369.038E-03    -184.290E-03    -184.784E-03    -184.424E-03     369.035E-03    -184.647E-03    -2.66454E-03     370.450E-03     171.359E+06    -129.749E+06    -132.503E+06    -302.434E+06    -132.550E+06    -302.383E+06    -129.753E+06     418.318E+03
            1414     99.3576E-03     1.66436E-03     99.3437E-03     369.306E-03    -184.499E-03    -184.846E-03    -184.679E-03     369.301E-03    -184.661E-03    -3.24319E-03     373.415E-03     157.581E+06    -116.920E+06    -127.304E+06    -279.346E+06    -127.313E+06    -279.336E+06    -116.920E+06     886.552E+03
            1415     99.3621E-03     2.49467E-03     99.3308E-03     369.375E-03    -184.606E-03    -184.932E-03    -184.652E-03     369.373E-03    -184.884E-03    -2.05030E-03     378.257E-03     144.552E+06    -98.1995E+06    -120.318E+06    -252.382E+06    -120.330E+06    -252.369E+06    -98.1995E+06     1.03310E+06
            1416     99.3728E-03     3.32641E-03     99.3172E-03     368.820E-03    -184.248E-03    -184.959E-03    -184.244E-03     368.816E-03    -184.959E-03     1.65270E-03     384.645E-03     129.398E+06    -77.2994E+06    -112.662E+06    -220.433E+06    -112.675E+06    -220.420E+06    -77.2994E+06     1.05363E+06
            1417     99.3920E-03     4.15824E-03     99.3049E-03     368.429E-03    -183.580E-03    -184.945E-03    -183.555E-03     368.404E-03    -184.945E-03     6.86592E-03     392.382E-03     106.148E+06    -56.0485E+06    -103.813E+06    -177.015E+06    -103.859E+06    -176.970E+06    -56.0485E+06     1.48486E+06
            1418     99.4237E-03     4.98978E-03     99.2984E-03     367.976E-03    -182.826E-03    -184.814E-03    -182.722E-03     367.872E-03    -184.814E-03     14.3527E-03     401.993E-03     81.4668E+06    -33.8950E+06    -93.3589E+06    -124.588E+06    -93.8593E+06    -124.088E+06    -33.8950E+06     2.22045E+06
            1419     99.4813E-03     5.82112E-03     99.3109E-03     367.181E-03    -182.224E-03    -184.801E-03    -181.920E-03     366.878E-03    -184.801E-03     25.0825E-03     414.020E-03     69.6669E+06    -10.8271E+06    -59.6217E+06    -87.6672E+06    -83.4925E+06    -63.7964E+06    -10.8271E+06     2.47716E+06
            1420     99.5560E-03     6.65364E-03     99.3334E-03     366.138E-03    -181.747E-03    -184.986E-03    -181.037E-03     365.427E-03    -184.986E-03     38.6499E-03     426.899E-03     75.0040E+06     10.7567E+06    -14.5306E+06    -73.1406E+06    -73.0322E+06    -14.6390E+06     10.7567E+06     2.33217E+06
            1421     99.6598E-03     7.48774E-03     99.3781E-03     365.814E-03    -182.028E-03    -184.866E-03    -180.537E-03     364.322E-03    -184.866E-03     56.1987E-03     441.692E-03     81.8914E+06     26.5033E+06     6.45872E+06    -63.5338E+06    -63.4759E+06     6.40081E+06     26.5033E+06     1.76055E+06
            1422     99.7886E-03     8.31765E-03     99.4413E-03     366.612E-03    -182.741E-03    -184.433E-03    -180.103E-03     363.974E-03    -184.433E-03     75.3790E-03     457.544E-03     84.1415E+06     39.1295E+06     15.0485E+06    -54.4093E+06    -54.3888E+06     15.0280E+06     39.1295E+06     1.02474E+06
            1423     99.9522E-03     9.15101E-03     99.5324E-03     368.044E-03    -183.553E-03    -184.439E-03    -179.434E-03     363.652E-03    -184.166E-03     97.2552E-03     472.734E-03     87.0404E+06     52.1758E+06     23.9306E+06    -45.4693E+06    -45.4635E+06     23.9248E+06     52.1758E+06     400.880E+03
            1424     100.159E-03     9.98639E-03     99.6600E-03     370.348E-03    -184.262E-03    -186.623E-03    -179.980E-03     363.705E-03    -184.262E-03     120.501E-03     485.736E-03     88.4581E+06     63.2920E+06     31.4187E+06    -36.6701E+06    -36.6596E+06     31.4082E+06     63.2920E+06     286.151E+03
            1425     100.420E-03     10.8161E-03     99.8358E-03     373.399E-03    -184.543E-03    -189.571E-03    -181.163E-03     364.991E-03    -184.543E-03     136.483E-03     493.543E-03     85.4762E+06     67.6500E+06     36.1694E+06    -29.0961E+06    -29.0804E+06     36.1537E+06     67.6500E+06     553.456E+03
            1426     100.696E-03     11.6495E-03     100.020E-03     379.316E-03    -184.449E-03    -195.248E-03    -183.177E-03     367.245E-03    -184.449E-03     163.584E-03     506.780E-03     79.0725E+06     66.7736E+06     39.1006E+06    -22.4145E+06    -22.4049E+06     39.0910E+06     66.7736E+06     530.952E+03
            1427     101.041E-03     12.4827E-03     100.267E-03     381.468E-03    -183.947E-03    -197.158E-03    -184.197E-03     368.507E-03    -183.947E-03     170.694E-03     507.463E-03     73.6572E+06     66.5741E+06     41.7540E+06    -16.2834E+06    -16.2778E+06     41.7484E+06     66.5741E+06     200.217E+03
            1428     101.359E-03     13.3135E-03     100.481E-03     395.491E-03    -183.902E-03    -210.792E-03    -189.460E-03     374.159E-03    -183.902E-03     217.069E-03     538.876E-03     75.6672E+06     74.3360E+06     48.9272E+06    -10.7612E+06    -10.7438E+06     48.9098E+06     74.3360E+06    -222.658E+03
            1429     101.850E-03     14.1455E-03     100.863E-03     394.558E-03    -184.423E-03    -210.157E-03    -190.675E-03     375.076E-03    -184.423E-03     202.372E-03     518.402E-03     83.2396E+06     88.7703E+06     56.5794E+06    -5.68582E+06    -5.66849E+06     56.5620E+06     88.7703E+06    -280.846E+03
            1430     100.801E-03     832.111E-06     100.797E-03     369.113E-03    -184.091E-03    -185.028E-03    -184.661E-03     369.108E-03    -184.453E-03    -3.00666E-03     370.492E-03     174.696E+06    -127.385E+06    -130.587E+06    -303.632E+06    -130.621E+06    -303.593E+06    -127.389E+06     65.0710E+03
            1431     100.804E-03     1.66276E-03     100.790E-03     369.136E-03    -184.369E-03    -184.832E-03    -184.501E-03     369.131E-03    -184.696E-03    -3.20512E-03     373.195E-03     158.934E+06    -116.579E+06    -127.011E+06    -280.376E+06    -127.021E+06    -280.366E+06    -116.579E+06     855.071E+03
            1432     100.807E-03     2.49532E-03     100.776E-03     369.011E-03    -184.377E-03    -184.812E-03    -184.375E-03     369.009E-03    -184.812E-03    -2.09321E-03     377.866E-03     144.378E+06    -98.2111E+06    -120.775E+06    -252.384E+06    -120.787E+06    -252.372E+06    -98.2111E+06     921.056E+03
            1433     100.817E-03     3.32687E-03     100.762E-03     368.802E-03    -184.316E-03    -184.869E-03    -184.314E-03     368.800E-03    -184.869E-03     561.591E-06     384.566E-03     130.773E+06    -76.9326E+06    -112.705E+06    -221.620E+06    -112.719E+06    -221.605E+06    -76.9326E+06     1.08719E+06
            1434     100.833E-03     4.15864E-03     100.748E-03     368.745E-03    -183.978E-03    -184.918E-03    -183.958E-03     368.725E-03    -184.918E-03     5.79649E-03     392.769E-03     107.892E+06    -55.4013E+06    -103.296E+06    -178.314E+06    -103.338E+06    -178.272E+06    -55.4013E+06     1.54981E+06
            1435     100.868E-03     4.98952E-03     100.745E-03     368.098E-03    -183.041E-03    -184.821E-03    -182.938E-03     367.995E-03    -184.821E-03     14.1579E-03     402.461E-03     82.6729E+06    -33.5334E+06    -92.8413E+06    -125.842E+06     -93.106E+06    -125.578E+06    -33.5334E+06     1.94434E+06
            1436     100.919E-03     5.82173E-03     100.751E-03     366.734E-03    -181.813E-03    -184.789E-03    -181.499E-03     366.419E-03    -184.789E-03     25.4869E-03     413.676E-03     69.7662E+06    -11.1411E+06    -60.3598E+06    -88.3993E+06    -83.3617E+06    -65.3974E+06    -11.1411E+06     2.42628E+06
            1437     100.993E-03     6.65476E-03     100.774E-03     365.885E-03    -181.464E-03    -184.940E-03    -180.773E-03     365.194E-03    -184.940E-03     38.3028E-03     426.597E-03     75.2356E+06     10.8187E+06    -14.7457E+06    -73.2576E+06    -73.0930E+06    -14.9103E+06     10.8187E+06     3.06348E+06
            1438     101.094E-03     7.48589E-03     100.816E-03     365.595E-03    -181.919E-03    -184.808E-03    -180.484E-03     364.160E-03    -184.808E-03     55.0372E-03     441.578E-03     82.2468E+06     27.0617E+06     7.58382E+06    -63.1568E+06    -63.0364E+06     7.46341E+06     27.0617E+06     2.86858E+06
            1439     101.224E-03     8.32151E-03     100.882E-03     366.399E-03    -182.661E-03    -184.377E-03    -180.023E-03     363.761E-03    -184.377E-03     75.2600E-03     457.081E-03     84.7692E+06     40.2218E+06     16.3563E+06    -53.9028E+06    -53.8553E+06     16.3088E+06     40.2218E+06     1.66374E+06
            1440     101.388E-03     9.15190E-03     100.974E-03     368.884E-03    -183.669E-03    -185.249E-03    -180.317E-03     364.438E-03    -184.156E-03     98.0421E-03     473.601E-03     88.1598E+06     53.6517E+06     24.9995E+06    -45.2511E+06    -45.2311E+06     24.9795E+06     53.6517E+06     832.486E+03
            1441     101.592E-03     9.98213E-03     101.101E-03     371.107E-03    -184.236E-03    -187.360E-03    -180.713E-03     364.459E-03    -184.236E-03     120.723E-03     486.935E-03     89.3982E+06     64.0451E+06     31.5780E+06    -37.0368E+06    -37.0144E+06     31.5556E+06     64.0451E+06     889.573E+03
            1442     101.852E-03     10.8166E-03     101.276E-03     373.192E-03    -184.520E-03    -189.148E-03    -180.650E-03     364.694E-03    -184.520E-03     137.073E-03     493.550E-03     85.8639E+06     68.6775E+06     36.5396E+06    -28.6163E+06    -28.5963E+06     36.5196E+06     68.6775E+06     925.790E+03
            1443     102.132E-03     11.6481E-03     101.466E-03     379.075E-03    -184.434E-03    -194.776E-03    -182.558E-03     366.857E-03    -184.434E-03     164.548E-03     506.534E-03     79.6434E+06     67.9291E+06     39.4197E+06    -22.0403E+06    -22.0287E+06     39.4082E+06     67.9291E+06     532.083E+03
            1444     102.471E-03     12.4815E-03     101.708E-03     381.196E-03    -183.954E-03    -196.794E-03    -183.918E-03     368.321E-03    -183.954E-03     169.950E-03     507.672E-03     74.4390E+06     67.3142E+06     41.7969E+06    -16.5268E+06    -16.5219E+06     41.7921E+06     67.3142E+06     128.843E+03
            1445     102.786E-03     13.3152E-03     101.920E-03     395.625E-03    -184.007E-03    -210.921E-03    -189.491E-03     374.195E-03    -184.007E-03     217.214E-03     539.565E-03     76.1085E+06     75.2639E+06     49.3288E+06    -10.4201E+06    -10.4068E+06     49.3155E+06     75.2639E+06     504.976E+03
            1446     103.284E-03     14.1479E-03     102.310E-03     394.945E-03    -184.436E-03    -210.463E-03    -190.728E-03     375.210E-03    -184.436E-03     203.733E-03     518.676E-03     83.7117E+06     89.5870E+06     56.9569E+06    -5.44964E+06    -5.43680E+06     56.9440E+06     89.5870E+06     454.892E+03
            1447     102.248E-03     830.923E-06     102.245E-03     369.417E-03    -184.284E-03    -185.120E-03    -184.990E-03     369.413E-03    -184.410E-03    -2.63543E-03     370.831E-03     177.731E+06    -126.103E+06    -130.970E+06    -306.192E+06    -130.677E+06    -306.163E+06    -126.425E+06     1.99056E+06
            1448     102.246E-03     1.66407E-03     102.233E-03     369.357E-03    -184.526E-03    -184.913E-03    -184.569E-03     369.352E-03    -184.864E-03    -3.37709E-03     373.462E-03     161.212E+06    -113.464E+06    -125.668E+06    -280.371E+06    -125.685E+06    -280.354E+06    -113.464E+06     1.33710E+06
            1449     102.250E-03     2.49538E-03     102.220E-03     369.138E-03    -184.403E-03    -184.903E-03    -184.399E-03     369.134E-03    -184.903E-03    -2.59639E-03     377.923E-03     147.225E+06    -95.7095E+06    -119.108E+06    -253.080E+06    -119.123E+06    -253.065E+06    -95.7095E+06     1.18783E+06
            1450     102.259E-03     3.32623E-03     102.204E-03     368.926E-03    -184.278E-03    -184.936E-03    -184.275E-03     368.923E-03    -184.936E-03     505.970E-06     384.523E-03     134.455E+06    -74.4945E+06    -110.575E+06    -223.106E+06    -110.598E+06    -223.083E+06    -74.4945E+06     1.33687E+06
            1451     102.275E-03     4.15692E-03     102.191E-03     368.537E-03    -183.719E-03    -184.932E-03    -183.696E-03     368.513E-03    -184.932E-03     6.22544E-03     392.529E-03     110.397E+06    -54.5532E+06    -101.702E+06    -180.092E+06    -101.771E+06    -180.023E+06    -54.5532E+06     1.98194E+06
            1452     102.307E-03     4.98951E-03     102.186E-03     367.886E-03    -182.794E-03    -184.815E-03    -182.694E-03     367.786E-03    -184.815E-03     14.1316E-03     402.177E-03     83.4865E+06    -34.2508E+06    -93.1673E+06    -127.511E+06    -93.6200E+06    -127.058E+06    -34.2508E+06     2.53035E+06
            1453     102.357E-03     5.82207E-03     102.192E-03     366.931E-03    -181.952E-03    -184.782E-03    -181.660E-03     366.639E-03    -184.782E-03     24.5692E-03     413.723E-03     70.1855E+06    -11.1460E+06    -61.7124E+06    -88.9927E+06    -83.8752E+06    -66.8299E+06    -11.1460E+06     2.94453E+06
            1454     102.432E-03     6.65463E-03     102.215E-03     366.003E-03    -181.570E-03    -184.898E-03    -180.896E-03     365.329E-03    -184.898E-03     37.7256E-03     426.603E-03     75.2086E+06     10.4932E+06    -15.9616E+06    -73.5634E+06    -73.3753E+06    -16.1497E+06     10.4932E+06     3.21918E+06
            1455     102.533E-03     7.48708E-03     102.260E-03     365.770E-03    -181.964E-03    -184.792E-03    -180.551E-03     364.358E-03    -184.792E-03     54.6809E-03     441.756E-03     82.1552E+06     26.4936E+06     8.05276E+06    -63.3057E+06    -63.1654E+06     7.91247E+06     26.4936E+06     3.14679E+06
            1456     102.659E-03     8.31780E-03     102.321E-03     366.474E-03    -182.453E-03    -184.433E-03    -179.843E-03     363.864E-03    -184.433E-03     74.8078E-03     456.904E-03     84.7754E+06     40.2870E+06     17.5347E+06    -53.5132E+06    -53.4129E+06     17.4344E+06     40.2870E+06     2.54858E+06
            1457     102.827E-03     9.15318E-03     102.419E-03     368.533E-03    -183.373E-03    -185.118E-03    -179.815E-03     364.059E-03    -184.202E-03     98.2345E-03     472.516E-03     88.5771E+06     54.3174E+06     25.4133E+06    -45.0686E+06    -45.0003E+06     25.3450E+06     54.3174E+06     2.08302E+06
            1458     103.030E-03     9.98580E-03     102.545E-03     371.133E-03    -184.160E-03    -187.551E-03    -180.893E-03     364.475E-03    -184.160E-03     120.900E-03     486.933E-03     90.5325E+06     65.6302E+06     32.4073E+06    -36.8142E+06    -36.7752E+06     32.3683E+06     65.6302E+06     1.56773E+06
            1459     103.285E-03     10.8141E-03     102.717E-03     373.826E-03    -184.448E-03    -189.770E-03    -181.260E-03     365.316E-03    -184.448E-03     137.298E-03     494.702E-03     87.0064E+06     69.3304E+06     36.6529E+06    -29.2827E+06    -29.2531E+06     36.6234E+06     69.3304E+06     1.34737E+06
            1460     103.562E-03     11.6492E-03     102.905E-03     379.058E-03    -184.448E-03    -194.454E-03    -182.280E-03     366.884E-03    -184.448E-03     164.267E-03     506.421E-03     80.5634E+06     68.4037E+06     39.7133E+06    -22.5671E+06    -22.5354E+06     39.6816E+06     68.4037E+06     1.30898E+06
            1461     103.902E-03     12.4832E-03     103.149E-03     380.984E-03    -183.977E-03    -196.352E-03    -183.445E-03     368.077E-03    -183.977E-03     170.142E-03     507.197E-03     75.8876E+06     68.8157E+06     43.0111E+06    -16.6079E+06    -16.5930E+06     42.9962E+06     68.8157E+06     389.067E+03
            1462     104.216E-03     13.3129E-03     103.362E-03     395.328E-03    -184.132E-03    -210.537E-03    -189.032E-03     373.822E-03    -184.132E-03     217.669E-03     539.586E-03     77.0923E+06       75.17E+06     48.2531E+06    -11.7695E+06    -11.7535E+06     48.2371E+06       75.17E+06    -144.244E+03
            1463     104.713E-03     14.1481E-03     103.753E-03     394.811E-03    -184.462E-03    -210.210E-03    -190.511E-03     375.112E-03    -184.462E-03     203.420E-03     518.580E-03     83.6868E+06     89.3033E+06     56.7361E+06       -5.73E+06    -5.71349E+06     56.7196E+06     89.3033E+06     295.429E+03
            1464     103.692E-03     832.588E-06     103.688E-03     369.439E-03    -184.325E-03    -185.107E-03    -185.104E-03     369.435E-03    -184.325E-03    -2.30522E-03     370.825E-03     179.850E+06    -126.328E+06    -129.935E+06    -307.944E+06    -128.748E+06    -307.879E+06    -127.581E+06    -210.709E+03
            1465     103.694E-03     1.66197E-03     103.681E-03     369.820E-03    -184.826E-03    -185.008E-03    -184.951E-03     369.815E-03    -184.879E-03    -2.97037E-03     373.932E-03     163.660E+06    -114.349E+06    -124.649E+06    -282.815E+06    -124.674E+06    -282.790E+06    -114.349E+06     1.60011E+06
            1466     103.694E-03     2.49351E-03     103.664E-03     369.329E-03    -184.398E-03    -184.981E-03    -184.416E-03     369.326E-03    -184.960E-03    -2.24044E-03     378.133E-03     148.242E+06    -95.8247E+06    -118.685E+06    -254.011E+06    -118.710E+06    -253.985E+06    -95.8247E+06     1.70182E+06
            1467     103.700E-03     3.32604E-03     103.646E-03     368.523E-03    -183.811E-03    -184.960E-03    -183.809E-03     368.521E-03    -184.960E-03     934.133E-06     384.172E-03     136.452E+06    -74.9181E+06    -110.899E+06    -225.561E+06    -110.965E+06    -225.496E+06    -74.9181E+06     2.39622E+06
            1468     103.716E-03     4.15882E-03     103.633E-03     368.233E-03    -183.365E-03    -184.904E-03    -183.342E-03     368.209E-03    -184.904E-03     6.29730E-03     392.202E-03     112.983E+06    -54.9327E+06    -102.411E+06    -183.270E+06    -102.570E+06    -183.111E+06    -54.9327E+06     3.37021E+06
            1469     103.745E-03     4.99037E-03     103.625E-03     367.969E-03    -182.815E-03    -184.793E-03    -182.712E-03     367.866E-03    -184.793E-03     14.2947E-03     402.074E-03     83.8805E+06    -34.3896E+06    -92.6549E+06    -128.494E+06    -93.3087E+06    -127.841E+06    -34.3896E+06     3.54114E+06
            1470     103.798E-03     5.82150E-03     103.634E-03     367.254E-03    -182.363E-03    -184.779E-03    -182.065E-03     366.956E-03    -184.779E-03     24.8869E-03     414.059E-03     69.8046E+06    -11.6540E+06    -61.9398E+06    -89.5017E+06    -83.3551E+06    -68.0864E+06    -11.6540E+06     3.90513E+06
            1471     103.869E-03     6.65335E-03     103.655E-03     366.314E-03    -181.850E-03    -184.873E-03    -181.185E-03     365.648E-03    -184.873E-03     37.5560E-03     426.705E-03     75.4644E+06     9.40969E+06    -16.3859E+06    -74.4992E+06    -74.1713E+06    -16.7137E+06     9.40969E+06     4.02156E+06
            1472     103.968E-03     7.48655E-03     103.698E-03     365.944E-03    -181.916E-03    -184.847E-03    -180.514E-03     364.542E-03    -184.847E-03     54.4251E-03     441.704E-03     82.9140E+06     25.5172E+06     8.64260E+06    -64.5070E+06    -64.3581E+06     8.49370E+06     25.5172E+06     3.18183E+06
            1473     104.097E-03     8.32045E-03     103.764E-03     366.567E-03    -182.543E-03    -184.572E-03    -179.917E-03     363.942E-03    -184.572E-03     75.0208E-03     457.240E-03     85.0825E+06     39.6686E+06     17.4106E+06    -54.2931E+06    -54.1835E+06     17.3010E+06     39.6686E+06     2.74499E+06
            1474     104.258E-03     9.15008E-03     103.856E-03     367.747E-03    -183.514E-03    -184.449E-03    -179.178E-03     363.261E-03    -184.299E-03     98.2467E-03     471.910E-03     88.3880E+06     54.2267E+06     25.5556E+06    -44.9039E+06    -44.7903E+06     25.4421E+06     54.2267E+06     2.79648E+06
            1475     104.468E-03     9.98502E-03     103.990E-03     370.328E-03    -184.121E-03    -186.979E-03    -180.283E-03     363.632E-03    -184.121E-03     121.067E-03     485.999E-03     90.5809E+06     65.8278E+06     32.1512E+06    -36.7513E+06    -36.6555E+06     32.0554E+06     65.8278E+06     2.46835E+06
            1476     104.720E-03     10.8175E-03     104.160E-03     374.444E-03    -184.311E-03    -190.470E-03    -181.971E-03     365.945E-03    -184.311E-03     137.414E-03     495.557E-03     87.6316E+06     70.4587E+06     36.7657E+06    -29.0114E+06    -28.9409E+06     36.6952E+06     70.4587E+06     2.04720E+06
            1477     104.995E-03     11.6460E-03     104.347E-03     379.393E-03    -184.375E-03    -194.629E-03    -182.500E-03     367.264E-03    -184.375E-03     163.958E-03     507.185E-03     80.9250E+06     70.0867E+06     40.7455E+06    -21.4003E+06    -21.3494E+06     40.6946E+06     70.0867E+06     1.76076E+06
            1478     105.329E-03     12.4816E-03     104.587E-03     380.602E-03    -183.967E-03    -195.759E-03    -182.670E-03     367.513E-03    -183.967E-03     171.264E-03     506.235E-03     76.5201E+06     70.4670E+06     44.5538E+06    -15.6381E+06    -15.5450E+06     44.4608E+06     70.4670E+06     1.91061E+06
            1479     105.652E-03     13.3169E-03     104.810E-03     395.777E-03    -184.221E-03    -210.835E-03    -189.405E-03     374.347E-03    -184.221E-03     218.059E-03     539.642E-03     78.2049E+06     76.8378E+06     50.1353E+06    -11.2142E+06    -11.1375E+06     50.0586E+06     76.8378E+06     885.084E+03
            1480     106.143E-03     14.1485E-03     105.196E-03     395.731E-03    -184.610E-03    -211.053E-03    -191.624E-03     376.302E-03    -184.610E-03     202.533E-03     519.641E-03     84.5667E+06     89.8094E+06     57.1262E+06     -6.1678E+06    -6.15660E+06     57.1150E+06     89.8094E+06    -110.497E+03
            1481     105.137E-03     830.761E-06     105.134E-03     369.840E-03    -184.386E-03    -185.434E-03    -185.232E-03     369.836E-03    -184.584E-03    -2.74948E-03     371.277E-03     182.527E+06    -123.336E+06    -128.542E+06    -308.402E+06    -127.699E+06    -308.315E+06    -124.267E+06    -410.284E+03
            1482     105.138E-03     1.66369E-03     105.125E-03     369.439E-03    -184.444E-03    -184.976E-03    -184.520E-03     369.435E-03    -184.896E-03    -2.87911E-03     373.641E-03     167.334E+06    -115.658E+06    -124.095E+06    -287.000E+06    -124.114E+06    -286.981E+06    -115.658E+06     840.391E+03
            1483     105.137E-03     2.49465E-03     105.108E-03     369.191E-03    -184.304E-03    -184.883E-03    -184.323E-03     369.189E-03    -184.862E-03    -1.90209E-03     378.143E-03     148.883E+06    -98.6058E+06    -118.564E+06    -256.246E+06    -118.647E+06    -256.163E+06    -98.6058E+06     2.77113E+06
            1484     105.142E-03     3.32601E-03     105.090E-03     368.730E-03    -183.985E-03    -184.965E-03    -183.983E-03     368.729E-03    -184.965E-03     723.473E-06     384.447E-03     137.420E+06    -76.4251E+06    -111.714E+06    -227.826E+06    -111.829E+06    -227.712E+06    -76.4251E+06     3.20179E+06
            1485     105.158E-03     4.15768E-03     105.075E-03     368.206E-03    -183.283E-03    -185.002E-03    -183.262E-03     368.185E-03    -185.002E-03     5.83877E-03     392.026E-03     115.074E+06    -55.0783E+06    -102.501E+06    -185.683E+06    -102.665E+06    -185.519E+06    -55.0783E+06     3.33512E+06
            1486     105.188E-03     4.98990E-03     105.069E-03     367.651E-03    -182.590E-03    -184.864E-03    -182.488E-03     367.548E-03    -184.864E-03     14.1588E-03     401.891E-03     85.3356E+06    -34.7851E+06    -92.0617E+06    -131.226E+06    -92.9574E+06    -130.330E+06    -34.7851E+06     4.36970E+06
            1487     105.238E-03     5.82258E-03     105.077E-03     366.984E-03    -182.343E-03    -184.784E-03    -182.040E-03     366.681E-03    -184.784E-03     25.0725E-03     413.976E-03     70.8519E+06    -12.5279E+06    -62.3381E+06    -92.2789E+06    -83.7610E+06    -70.8561E+06    -12.5279E+06     5.59042E+06
            1488     105.311E-03     6.65463E-03     105.100E-03     366.618E-03    -182.319E-03    -184.839E-03    -181.639E-03     365.939E-03    -184.839E-03     37.9758E-03     426.874E-03     76.5401E+06     10.0236E+06    -15.3347E+06    -74.7616E+06    -74.1479E+06    -15.9484E+06     10.0236E+06     5.40802E+06
            1489     105.410E-03     7.48498E-03     105.144E-03     366.420E-03    -182.203E-03    -184.859E-03    -180.769E-03     364.986E-03    -184.859E-03     55.0587E-03     442.204E-03     84.3837E+06     26.5780E+06     10.6872E+06    -64.5915E+06    -64.3907E+06     10.4864E+06     26.5780E+06     3.72785E+06
            1490     105.535E-03     8.31716E-03     105.207E-03     366.444E-03    -182.214E-03    -184.600E-03    -179.566E-03     363.796E-03    -184.600E-03     75.3644E-03     457.189E-03     86.0085E+06     39.8031E+06     17.6070E+06    -55.0720E+06    -54.9707E+06     17.5057E+06     39.8031E+06     2.61416E+06
            1491     105.698E-03     9.15252E-03     105.301E-03     367.937E-03    -183.327E-03    -185.085E-03    -179.590E-03     363.481E-03    -184.367E-03     98.0127E-03     472.225E-03     88.7497E+06     53.9807E+06     24.9098E+06    -45.6244E+06    -45.5298E+06     24.8152E+06     53.9807E+06     2.53961E+06
            1492     105.897E-03     9.98555E-03     105.425E-03     370.085E-03    -184.196E-03    -187.045E-03    -180.436E-03     363.476E-03    -184.196E-03     120.250E-03     486.342E-03     90.2809E+06     65.8583E+06     31.6791E+06    -36.5027E+06    -36.4067E+06     31.5831E+06     65.8583E+06     2.45618E+06
            1493     106.159E-03     10.8161E-03     105.607E-03     372.772E-03    -184.218E-03    -188.901E-03    -180.421E-03     364.292E-03    -184.218E-03     136.817E-03     494.163E-03     87.3255E+06     71.0376E+06     36.4542E+06    -28.2821E+06    -28.1944E+06     36.3666E+06     71.0376E+06     2.29545E+06
            1494     106.429E-03     11.6501E-03     105.790E-03     379.243E-03    -184.207E-03    -194.597E-03    -182.384E-03     367.030E-03    -184.207E-03     164.555E-03     506.767E-03     81.1550E+06     70.1944E+06     40.3460E+06    -21.6319E+06    -21.5215E+06     40.2355E+06     70.1944E+06     2.52196E+06
            1495     106.764E-03     12.4833E-03     106.032E-03     381.916E-03    -183.912E-03    -197.153E-03    -184.193E-03     368.956E-03    -183.912E-03     170.716E-03     507.493E-03     76.8593E+06     69.9597E+06     45.5404E+06    -16.1085E+06    -15.9667E+06     45.3987E+06     69.9597E+06     2.70386E+06
            1496     107.086E-03     13.3150E-03     106.255E-03     396.364E-03    -184.300E-03    -211.269E-03    -190.033E-03     375.128E-03    -184.300E-03     216.895E-03     539.902E-03     79.0323E+06     77.4167E+06     53.1163E+06    -10.8883E+06    -10.7857E+06     53.0137E+06     77.4167E+06     2.17756E+06
            1497     107.587E-03     14.1454E-03     106.653E-03     395.714E-03    -184.733E-03    -210.879E-03    -191.486E-03     376.320E-03    -184.733E-03     202.308E-03     519.351E-03     85.7492E+06     91.5482E+06     58.6717E+06    -5.62954E+06    -5.60115E+06     58.6433E+06     91.5482E+06     764.696E+03
            1498     106.585E-03     830.779E-06     106.582E-03     369.943E-03    -184.354E-03    -185.593E-03    -185.371E-03     369.940E-03    -184.573E-03    -2.23633E-03     371.485E-03     182.781E+06    -123.784E+06    -132.500E+06    -310.760E+06    -129.641E+06    -310.700E+06    -126.703E+06     1.27991E+06
            1499     106.582E-03     1.66149E-03     106.569E-03     369.238E-03    -184.359E-03    -184.932E-03    -184.354E-03     369.234E-03    -184.932E-03    -3.08339E-03     373.610E-03     168.959E+06    -115.659E+06    -126.786E+06    -289.848E+06    -126.808E+06    -289.826E+06    -115.659E+06     1.22081E+06
            1500     106.581E-03     2.49476E-03     106.551E-03     369.047E-03    -184.243E-03    -184.895E-03    -184.240E-03     369.044E-03    -184.895E-03    -2.14803E-03     378.019E-03     151.430E+06    -100.043E+06    -120.167E+06    -260.390E+06    -120.238E+06    -260.319E+06    -100.043E+06     2.36203E+06
            1501     106.585E-03     3.32604E-03     106.533E-03     368.910E-03    -184.137E-03    -185.006E-03    -184.135E-03     368.908E-03    -185.006E-03     632.925E-06     384.489E-03     138.081E+06    -77.8696E+06    -111.473E+06    -229.393E+06    -111.628E+06    -229.238E+06    -77.8696E+06     3.58113E+06
            1502     106.595E-03     4.15813E-03     106.514E-03     368.351E-03    -183.423E-03    -185.070E-03    -183.399E-03     368.327E-03    -185.070E-03     6.19881E-03     392.069E-03     116.087E+06    -55.6661E+06    -102.728E+06    -187.324E+06    -102.956E+06    -187.096E+06    -55.6661E+06     3.97868E+06
            1503     106.627E-03     4.99052E-03     106.511E-03     367.678E-03    -182.645E-03    -184.959E-03    -182.547E-03     367.580E-03    -184.959E-03     14.0634E-03     402.021E-03     88.8344E+06    -34.5647E+06    -92.8050E+06    -135.308E+06    -93.7181E+06    -134.395E+06    -34.5647E+06     4.81261E+06
            1504     106.676E-03     5.82214E-03     106.517E-03     366.848E-03    -182.250E-03    -184.818E-03    -181.964E-03     366.562E-03    -184.818E-03     24.3187E-03     413.989E-03     72.2718E+06    -12.1033E+06    -63.6433E+06    -93.7975E+06    -83.5980E+06    -73.8428E+06    -12.1033E+06     5.67948E+06
            1505     106.749E-03     6.65414E-03     106.542E-03     366.178E-03    -181.896E-03    -184.808E-03    -181.228E-03     365.509E-03    -184.808E-03     37.5457E-03     426.591E-03     76.2127E+06     11.3091E+06    -15.2034E+06    -73.1353E+06    -72.4721E+06    -15.8667E+06     11.3091E+06     5.69778E+06
            1506     106.844E-03     7.48708E-03     106.581E-03     366.531E-03    -182.108E-03    -184.813E-03    -180.656E-03     365.079E-03    -184.813E-03     55.3759E-03     442.194E-03     84.9165E+06     28.4458E+06     12.6141E+06    -63.2498E+06    -62.8874E+06     12.2517E+06     28.4458E+06     5.14906E+06
            1507     106.971E-03     8.31939E-03     106.647E-03     367.247E-03    -182.804E-03    -184.593E-03    -180.191E-03     364.628E-03    -184.588E-03     75.1526E-03     458.009E-03     86.9615E+06     41.1493E+06     19.0830E+06    -54.6604E+06    -54.4270E+06     18.8495E+06     41.1493E+06     3.93215E+06
            1508     107.132E-03     9.15094E-03     106.741E-03     368.358E-03    -183.702E-03    -185.034E-03    -179.907E-03     363.929E-03    -184.400E-03     97.6528E-03     472.601E-03     89.5447E+06     54.6319E+06     25.0293E+06    -45.9155E+06    -45.7867E+06     24.9004E+06     54.6319E+06     2.90805E+06
            1509     107.342E-03     9.98159E-03     106.877E-03     369.777E-03    -184.222E-03    -186.650E-03    -179.961E-03     363.127E-03    -184.261E-03     120.528E-03     486.197E-03     91.3138E+06     65.7814E+06     31.2130E+06    -37.7622E+06    -37.6689E+06     31.1197E+06     65.7814E+06     2.43861E+06
            1510     107.583E-03     10.8157E-03     107.038E-03     372.252E-03    -184.192E-03    -188.310E-03    -179.885E-03     363.827E-03    -184.192E-03     136.262E-03     493.852E-03     88.6151E+06     70.5369E+06     36.0046E+06    -30.1444E+06    -30.0393E+06     35.8995E+06     70.5369E+06     2.53262E+06
            1511     107.865E-03     11.6524E-03     107.234E-03     379.074E-03    -184.088E-03    -194.421E-03    -182.455E-03     367.109E-03    -184.088E-03     162.903E-03     506.023E-03     81.9862E+06     68.7239E+06     39.4687E+06    -23.8378E+06    -23.6990E+06     39.3299E+06     68.7239E+06     2.89356E+06
            1512     108.204E-03     12.4822E-03     107.481E-03     382.539E-03    -183.879E-03    -197.872E-03    -185.133E-03     369.800E-03    -183.879E-03     169.535E-03     508.269E-03     77.1828E+06     68.7074E+06     45.4905E+06    -17.4009E+06    -17.3130E+06     45.4026E+06     68.7074E+06     2.17173E+06
            1513     108.517E-03     13.3105E-03     107.697E-03     396.856E-03    -184.341E-03    -211.690E-03    -190.244E-03     375.409E-03    -184.341E-03     217.727E-03     540.725E-03     79.4541E+06     77.8646E+06     54.4093E+06    -10.6646E+06    -10.6016E+06     54.3463E+06     77.8646E+06     1.97597E+06
            1514     109.017E-03     14.1467E-03     108.095E-03     394.953E-03    -184.763E-03    -209.995E-03    -190.315E-03     375.274E-03    -184.763E-03     203.388E-03     518.284E-03     86.5098E+06     92.7149E+06     60.7881E+06    -5.08896E+06    -5.01924E+06     60.7184E+06     92.7149E+06     1.92032E+06
            1515     108.032E-03     831.684E-06     108.029E-03     369.261E-03    -184.130E-03    -185.176E-03    -185.153E-03     369.258E-03    -184.150E-03    -2.29836E-03     370.844E-03     184.258E+06    -126.141E+06    -134.561E+06    -314.454E+06    -131.666E+06    -314.430E+06    -129.060E+06     352.546E+03
            1516     108.028E-03     1.66367E-03     108.015E-03     369.655E-03    -184.666E-03    -185.118E-03    -184.993E-03     369.651E-03    -184.788E-03    -2.97692E-03     374.171E-03     171.879E+06    -114.991E+06    -126.608E+06    -292.306E+06    -126.643E+06    -292.271E+06    -114.991E+06     1.77573E+06
            1517     108.026E-03     2.49371E-03     107.997E-03     369.171E-03    -184.240E-03    -185.061E-03    -184.337E-03     369.169E-03    -184.962E-03    -2.28091E-03     378.240E-03     155.167E+06    -98.2065E+06    -120.453E+06    -263.179E+06    -120.487E+06    -263.144E+06    -98.2065E+06     2.08508E+06
            1518     108.029E-03     3.32652E-03     107.977E-03     368.680E-03    -183.837E-03    -185.010E-03    -183.834E-03     368.677E-03    -185.010E-03     608.588E-06     384.167E-03     140.646E+06    -79.1017E+06    -112.725E+06    -233.321E+06    -112.837E+06    -233.209E+06    -79.1017E+06     3.01877E+06
            1519     108.043E-03     4.15821E-03     107.963E-03     368.570E-03    -183.661E-03    -185.017E-03    -183.640E-03     368.549E-03    -185.017E-03     6.15169E-03     392.334E-03     117.843E+06    -57.0014E+06    -103.291E+06    -190.389E+06    -103.608E+06    -190.073E+06    -57.0014E+06     4.78297E+06
            1520     108.071E-03     4.98923E-03     107.956E-03     367.905E-03    -182.848E-03    -184.957E-03    -182.745E-03     367.801E-03    -184.957E-03     14.2570E-03     402.297E-03     91.9323E+06    -34.2361E+06    -93.4218E+06    -138.448E+06    -94.4302E+06    -137.440E+06    -34.2361E+06     5.50126E+06
            1521     108.124E-03     5.82121E-03     107.967E-03     366.860E-03    -182.121E-03    -184.825E-03    -181.817E-03     366.556E-03    -184.825E-03     25.1048E-03     413.885E-03     73.4877E+06    -11.8418E+06    -64.8817E+06    -94.9157E+06    -84.5221E+06    -75.2753E+06    -11.8418E+06     5.59971E+06
            1522     108.191E-03     6.65391E-03     107.986E-03     366.309E-03    -181.841E-03    -184.835E-03    -181.166E-03     365.634E-03    -184.835E-03     37.8330E-03     426.588E-03     77.2703E+06     10.0273E+06    -17.0031E+06    -75.4174E+06    -74.7338E+06    -17.6867E+06     10.0273E+06     5.98306E+06
            1523     108.288E-03     7.48663E-03     108.029E-03     366.785E-03    -182.145E-03    -184.900E-03    -180.744E-03     365.384E-03    -184.900E-03     54.5125E-03     442.197E-03     86.1982E+06     27.7952E+06     12.5995E+06    -64.9636E+06    -64.5062E+06     12.1421E+06     27.7952E+06     5.91823E+06
            1524     108.414E-03     8.31860E-03     108.095E-03     367.485E-03    -183.003E-03    -184.658E-03    -180.425E-03     364.901E-03    -184.653E-03     74.5510E-03     458.328E-03     88.2483E+06     42.0610E+06     20.6819E+06    -54.8544E+06    -54.4591E+06     20.2866E+06     42.0610E+06     5.38250E+06
            1525     108.578E-03     9.14793E-03     108.192E-03     367.592E-03    -183.573E-03    -184.373E-03    -179.145E-03     363.159E-03    -184.368E-03     97.5707E-03     472.482E-03     90.7963E+06     55.5373E+06     26.2624E+06    -46.2185E+06    -45.9417E+06     25.9856E+06     55.5373E+06     4.32221E+06
            1526     108.772E-03     9.98628E-03     108.312E-03     369.547E-03    -183.876E-03    -186.482E-03    -179.441E-03     362.811E-03    -184.181E-03     121.194E-03     485.632E-03     92.2040E+06     66.5044E+06     30.9274E+06    -38.1520E+06    -37.9398E+06     30.7152E+06     66.5044E+06     3.68352E+06
            1527     109.023E-03     10.8181E-03     108.485E-03     374.346E-03    -184.138E-03    -190.007E-03    -181.661E-03     365.999E-03    -184.138E-03     136.202E-03     495.407E-03     89.3091E+06     71.1480E+06     35.8551E+06    -30.3934E+06    -30.1809E+06     35.6425E+06     71.1480E+06     3.61744E+06
            1528     109.294E-03     11.6446E-03     108.672E-03     380.192E-03    -184.132E-03    -195.068E-03    -183.131E-03     368.255E-03    -184.132E-03     162.631E-03     507.237E-03     82.8182E+06     70.5207E+06     40.7789E+06    -23.0381E+06    -22.9086E+06     40.6494E+06     70.5207E+06     2.83330E+06
            1529     109.640E-03     12.4809E-03     108.928E-03     381.431E-03    -183.968E-03    -196.533E-03    -183.531E-03     368.429E-03    -183.968E-03     170.889E-03     506.671E-03     78.1994E+06     70.8856E+06     46.1636E+06    -16.6678E+06    -16.5737E+06     46.0695E+06     70.8856E+06     2.36868E+06
            1530     109.946E-03     13.3154E-03     109.137E-03     396.224E-03    -184.359E-03    -211.021E-03    -189.495E-03     374.697E-03    -184.359E-03     218.268E-03     540.006E-03     80.6522E+06     78.9356E+06     54.3347E+06    -11.1483E+06    -11.0723E+06     54.2588E+06     78.9356E+06     2.15520E+06
            1531     110.447E-03     14.1440E-03     109.538E-03     394.702E-03    -184.744E-03    -209.742E-03    -190.117E-03     375.077E-03    -184.744E-03     203.074E-03     518.182E-03     87.6045E+06     92.6273E+06     62.0513E+06    -6.11518E+06    -6.06046E+06     61.9965E+06     92.6273E+06     1.68075E+06
            1532     109.476E-03     832.303E-06     109.473E-03     369.015E-03    -184.127E-03    -184.919E-03    -184.917E-03     369.012E-03    -184.127E-03    -2.12506E-03     370.544E-03     186.928E+06    -125.632E+06    -132.005E+06    -315.647E+06    -131.460E+06    -315.627E+06    -126.197E+06     1.36129E+06
            1533     109.474E-03     1.66210E-03     109.462E-03     369.661E-03    -184.699E-03    -185.086E-03    -185.082E-03     369.657E-03    -184.699E-03    -2.88507E-03     374.164E-03     174.455E+06    -115.426E+06    -126.383E+06    -295.060E+06    -126.407E+06    -295.036E+06    -115.426E+06     1.35432E+06
            1534     109.471E-03     2.49418E-03     109.442E-03     369.515E-03    -184.551E-03    -185.089E-03    -184.731E-03     369.511E-03    -184.905E-03    -2.63172E-03     378.712E-03     158.942E+06    -97.8412E+06    -119.961E+06    -266.511E+06    -120.010E+06    -266.461E+06    -97.8412E+06     2.47033E+06
            1535     109.470E-03     3.32589E-03     109.420E-03     368.942E-03    -184.024E-03    -185.047E-03    -184.062E-03     368.940E-03    -185.006E-03     431.023E-06     384.518E-03     145.708E+06    -77.0515E+06    -112.692E+06    -237.103E+06    -112.793E+06    -237.002E+06    -77.0515E+06     3.35256E+06
            1536     109.484E-03     4.15788E-03     109.405E-03     368.280E-03    -183.411E-03    -185.007E-03    -183.388E-03     368.258E-03    -185.007E-03     6.16640E-03     392.108E-03     122.519E+06    -57.0749E+06    -103.613E+06    -195.610E+06    -103.905E+06    -195.317E+06    -57.0749E+06     4.67242E+06
            1537     109.512E-03     4.98992E-03     109.398E-03     367.677E-03    -182.692E-03    -184.900E-03    -182.587E-03     367.572E-03    -184.900E-03     14.3798E-03     402.037E-03     93.3124E+06    -35.2438E+06    -92.9760E+06    -141.240E+06    -94.1599E+06    -140.056E+06    -35.2438E+06     6.09023E+06
            1538     109.557E-03     5.82304E-03     109.402E-03     367.100E-03    -182.247E-03    -184.796E-03    -181.948E-03     366.800E-03    -184.796E-03     24.9827E-03     413.923E-03     75.0191E+06    -11.9783E+06    -65.7951E+06    -97.0843E+06    -84.9194E+06    -77.9600E+06    -11.9783E+06     7.26476E+06
            1539     109.628E-03     6.65483E-03     109.426E-03     366.990E-03    -182.305E-03    -184.857E-03    -181.621E-03     366.306E-03    -184.857E-03     38.0293E-03     427.001E-03     79.1313E+06     10.1235E+06    -17.7380E+06    -77.1223E+06    -75.8743E+06    -18.9860E+06     10.1235E+06     7.49316E+06
            1540     109.726E-03     7.48529E-03     109.470E-03     367.374E-03    -182.595E-03    -184.961E-03    -181.145E-03     365.924E-03    -184.961E-03     55.4729E-03     442.798E-03     87.7400E+06     27.2223E+06     12.5289E+06    -66.9021E+06    -66.3464E+06     11.9732E+06     27.2223E+06     6.56613E+06
            1541     109.853E-03     8.31675E-03     109.538E-03     366.726E-03    -182.262E-03    -184.665E-03    -179.644E-03     364.108E-03    -184.665E-03     75.0016E-03     457.912E-03     89.6800E+06     41.2554E+06     20.2997E+06    -57.0023E+06    -56.5566E+06     19.8540E+06     41.2554E+06     5.74426E+06
            1542     110.019E-03     9.15220E-03     109.638E-03     367.108E-03    -182.807E-03    -184.778E-03    -178.944E-03     362.820E-03    -184.353E-03     96.0959E-03     472.386E-03     92.2900E+06     55.9449E+06     27.1126E+06    -47.2440E+06    -46.8964E+06     26.7651E+06     55.9449E+06     4.93966E+06
            1543     110.210E-03     9.98329E-03     109.757E-03     370.213E-03    -183.948E-03    -187.161E-03    -180.280E-03     363.598E-03    -184.215E-03     120.111E-03     486.184E-03     93.1925E+06     67.7371E+06     31.6807E+06    -38.0506E+06    -37.7270E+06     31.3571E+06     67.7371E+06     4.65501E+06
            1544     110.456E-03     10.8151E-03     109.926E-03     374.380E-03    -184.182E-03    -190.032E-03    -181.462E-03     365.810E-03    -184.182E-03     137.921E-03     494.983E-03     90.1759E+06     72.2635E+06     36.4185E+06    -30.2995E+06    -30.0233E+06     36.1422E+06     72.2635E+06     4.22255E+06
            1545     110.736E-03     11.6474E-03     110.121E-03     380.506E-03    -184.177E-03    -195.361E-03    -183.194E-03     368.339E-03    -184.177E-03     164.449E-03     507.570E-03     84.7389E+06     72.4207E+06     42.5653E+06    -23.1733E+06    -23.0193E+06     42.4113E+06     72.4207E+06     3.11225E+06
            1546     111.067E-03     12.4794E-03     110.364E-03     381.731E-03    -184.056E-03    -196.796E-03    -183.684E-03     368.618E-03    -184.056E-03     171.730E-03     507.232E-03     79.9667E+06     73.2032E+06     46.7345E+06    -16.6121E+06    -16.4815E+06     46.6039E+06     73.2032E+06     2.83732E+06
            1547     111.378E-03     13.3133E-03     110.580E-03     395.169E-03    -184.407E-03    -209.983E-03    -188.375E-03     373.560E-03    -184.407E-03     218.395E-03     539.418E-03     81.8211E+06     79.9309E+06     53.5665E+06    -11.7987E+06    -11.6554E+06     53.4232E+06     79.9309E+06     2.94252E+06
            1548     111.880E-03     14.1484E-03     110.982E-03     394.380E-03    -184.693E-03    -209.422E-03    -189.824E-03     374.782E-03    -184.693E-03     202.566E-03     518.107E-03     89.4279E+06     94.3160E+06     63.8914E+06    -6.32401E+06    -6.25425E+06     63.8216E+06     94.3160E+06     1.74351E+06
            1549     110.921E-03     830.868E-06     110.918E-03     369.532E-03    -184.144E-03    -185.447E-03    -185.278E-03     369.528E-03    -184.310E-03    -2.43550E-03     370.995E-03     188.579E+06    -128.179E+06    -132.563E+06    -318.889E+06    -131.634E+06    -318.862E+06    -129.135E+06     1.68348E+06
            1550     110.919E-03     1.66409E-03     110.906E-03     369.312E-03    -184.480E-03    -184.867E-03    -184.530E-03     369.307E-03    -184.811E-03    -3.15166E-03     373.677E-03     176.155E+06    -115.741E+06    -127.857E+06    -297.556E+06    -127.894E+06    -297.518E+06    -115.741E+06     2.30816E+06
            1551     110.913E-03     2.49480E-03     110.885E-03     369.497E-03    -184.646E-03    -184.902E-03    -184.726E-03     369.493E-03    -184.817E-03    -2.26067E-03     378.668E-03     162.903E+06    -97.8009E+06    -121.330E+06    -271.062E+06    -121.419E+06    -270.973E+06    -97.8009E+06     3.24336E+06
            1552     110.915E-03     3.32516E-03     110.865E-03     369.232E-03    -184.427E-03    -184.959E-03    -184.466E-03     369.230E-03    -184.918E-03     1.01153E-03     384.939E-03     149.322E+06    -76.4862E+06    -112.943E+06    -240.468E+06    -113.106E+06    -240.306E+06    -76.4862E+06     4.46328E+06
            1553     110.926E-03     4.15747E-03     110.848E-03     368.200E-03    -183.457E-03    -184.994E-03    -183.436E-03     368.178E-03    -184.994E-03     6.02974E-03     392.166E-03     126.206E+06    -56.3588E+06    -103.953E+06    -199.039E+06    -104.221E+06    -198.772E+06    -56.3588E+06     4.86491E+06
            1554     110.953E-03     4.99089E-03     110.840E-03     367.666E-03    -182.708E-03    -184.912E-03    -182.611E-03     367.568E-03    -184.912E-03     13.9359E-03     401.855E-03     96.0507E+06    -36.2194E+06    -93.2993E+06    -145.926E+06    -94.5053E+06    -144.720E+06    -36.2194E+06     6.38427E+06
            1555     111.001E-03     5.82149E-03     110.848E-03     367.600E-03    -182.563E-03    -184.821E-03    -182.268E-03     367.304E-03    -184.821E-03     24.7042E-03     414.144E-03     76.7155E+06    -13.2975E+06    -67.7011E+06    -100.871E+06    -85.0456E+06    -83.5261E+06    -13.2975E+06     8.54017E+06
            1556     111.068E-03     6.65385E-03     110.869E-03     367.115E-03    -182.248E-03    -184.848E-03    -181.554E-03     366.421E-03    -184.848E-03     38.2930E-03     427.108E-03     79.7791E+06     10.5089E+06    -18.2903E+06    -77.1314E+06    -75.2585E+06    -20.1632E+06     10.5089E+06     9.26731E+06
            1557     111.168E-03     7.48636E-03     110.916E-03     366.828E-03    -181.941E-03    -184.893E-03    -180.465E-03     365.352E-03    -184.893E-03     55.8979E-03     442.157E-03     88.9856E+06     28.5383E+06     14.2108E+06    -66.6941E+06    -65.7847E+06     13.3013E+06     28.5383E+06     8.42400E+06
            1558     111.294E-03     8.31857E-03     110.983E-03     366.520E-03    -182.168E-03    -184.633E-03    -179.568E-03     363.919E-03    -184.633E-03     74.8439E-03     457.870E-03     91.1641E+06     42.3741E+06     21.2821E+06    -57.4449E+06    -56.8527E+06     20.6899E+06     42.3741E+06     6.66123E+06
            1559     111.457E-03     9.14878E-03     111.081E-03     367.813E-03    -183.376E-03    -185.043E-03    -179.677E-03     363.453E-03    -184.381E-03     96.8446E-03     473.022E-03     93.8077E+06     56.4526E+06     27.2756E+06    -48.3924E+06    -47.9905E+06     26.8737E+06     56.4526E+06     5.40727E+06
            1560     111.650E-03     9.98279E-03     111.203E-03     370.655E-03    -184.276E-03    -187.324E-03    -180.565E-03     363.896E-03    -184.276E-03     121.551E-03     486.545E-03     94.8377E+06     67.8497E+06     31.7799E+06    -39.7071E+06    -39.3098E+06     31.3826E+06     67.8497E+06     5.25725E+06
            1561     111.886E-03     10.8169E-03     111.362E-03     373.574E-03    -184.210E-03    -189.423E-03    -180.741E-03     364.892E-03    -184.210E-03     138.633E-03     494.396E-03     92.3033E+06     73.5438E+06     37.9503E+06    -31.2411E+06    -30.9006E+06     37.6098E+06     73.5438E+06     4.76393E+06
            1562     112.171E-03     11.6498E-03     111.564E-03     379.769E-03    -184.139E-03    -194.801E-03    -182.654E-03     367.622E-03    -184.139E-03     164.298E-03     506.775E-03     86.4526E+06     73.3752E+06     43.8210E+06    -23.9512E+06    -23.7245E+06     43.5943E+06     73.3752E+06     3.80778E+06
            1563     112.505E-03     12.4807E-03     111.811E-03     382.092E-03    -184.052E-03    -197.183E-03    -184.163E-03     369.071E-03    -184.052E-03     171.295E-03     508.195E-03     80.9567E+06     72.4902E+06     46.0649E+06    -18.3553E+06    -18.1866E+06     45.8962E+06     72.4902E+06     3.16301E+06
            1564     112.806E-03     13.3132E-03     112.018E-03     395.461E-03    -184.401E-03    -210.275E-03    -188.594E-03     373.780E-03    -184.401E-03     218.764E-03     540.077E-03     82.8590E+06     79.8811E+06     53.4331E+06    -12.9445E+06    -12.8223E+06     53.3109E+06     79.8811E+06     2.38897E+06
            1565     113.309E-03     14.1477E-03     112.422E-03     394.093E-03    -184.650E-03    -209.158E-03    -189.494E-03     374.429E-03    -184.650E-03     202.738E-03     517.782E-03      91.357E+06     96.5397E+06     66.4433E+06    -6.03394E+06    -5.96879E+06     66.3782E+06     96.5397E+06     1.60253E+06
            1566     112.369E-03     830.976E-06     112.366E-03     370.013E-03    -184.456E-03    -185.568E-03    -185.141E-03     370.009E-03    -184.879E-03    -3.01627E-03     371.483E-03     193.137E+06    -128.525E+06    -131.951E+06    -323.347E+06    -131.572E+06    -323.336E+06    -128.916E+06     262.173E+03
            1567     112.361E-03     1.66161E-03     112.349E-03     369.326E-03    -184.393E-03    -184.918E-03    -184.387E-03     369.320E-03    -184.918E-03    -3.45239E-03     373.722E-03     182.342E+06    -115.771E+06    -126.623E+06    -303.197E+06    -126.682E+06    -303.138E+06    -115.771E+06     2.77857E+06
            1568     112.354E-03     2.49492E-03     112.326E-03     368.922E-03    -184.144E-03    -184.808E-03    -184.140E-03     368.918E-03    -184.808E-03    -2.21219E-03     378.080E-03     167.833E+06    -97.6447E+06    -120.812E+06    -275.731E+06    -120.972E+06    -275.571E+06    -97.6447E+06     4.84150E+06
            1569     112.359E-03     3.32724E-03     112.310E-03     368.966E-03    -184.247E-03    -184.813E-03    -184.245E-03     368.964E-03    -184.813E-03     1.08842E-03     384.526E-03     151.524E+06    -77.5487E+06    -112.930E+06    -243.441E+06    -113.137E+06    -243.234E+06    -77.5487E+06     5.18123E+06
            1570     112.366E-03     4.15798E-03     112.289E-03     368.773E-03    -184.097E-03    -184.909E-03    -184.073E-03     368.749E-03    -184.909E-03     6.34835E-03     392.685E-03     129.075E+06    -56.4196E+06    -103.769E+06    -202.107E+06    -104.145E+06    -201.731E+06    -56.4196E+06     5.66929E+06
            1571     112.393E-03     4.98880E-03     112.282E-03     368.183E-03    -183.168E-03    -184.988E-03    -183.065E-03     368.080E-03    -184.988E-03     14.3656E-03     402.421E-03     101.661E+06    -36.4214E+06    -94.5418E+06    -152.675E+06    -96.0350E+06    -151.182E+06    -36.4214E+06     7.75590E+06
            1572     112.439E-03     5.82253E-03     112.288E-03     367.711E-03    -182.538E-03    -184.931E-03    -182.235E-03     367.408E-03    -184.931E-03     25.0467E-03     414.221E-03     78.7509E+06    -14.8291E+06    -70.8034E+06    -104.840E+06    -86.7853E+06    -88.8577E+06    -14.8291E+06     9.45046E+06
            1573     112.508E-03     6.65389E-03     112.311E-03     366.851E-03    -181.969E-03    -184.849E-03    -181.287E-03     366.169E-03    -184.849E-03     38.0438E-03     426.826E-03     80.6197E+06     8.94148E+06    -20.3522E+06    -79.1234E+06    -76.6983E+06    -22.7773E+06     8.94148E+06     10.3548E+06
            1574     112.603E-03     7.48598E-03     112.354E-03     366.116E-03    -181.077E-03    -184.814E-03    -179.640E-03     364.679E-03    -184.814E-03     55.0488E-03     441.296E-03     90.2305E+06     28.5965E+06     15.8556E+06    -67.2791E+06    -66.0666E+06     14.6432E+06     28.5965E+06     9.92556E+06
            1575     112.736E-03     8.31906E-03     112.429E-03     366.066E-03    -181.706E-03    -184.530E-03    -179.041E-03     363.401E-03    -184.530E-03     75.5351E-03     456.764E-03     92.7571E+06     43.4212E+06     23.2185E+06    -57.7076E+06    -56.7939E+06     22.3048E+06     43.4212E+06     8.49619E+06
            1576     112.899E-03     9.15088E-03     112.527E-03     368.081E-03    -183.467E-03    -185.315E-03    -179.975E-03     363.559E-03    -184.284E-03     98.7703E-03     472.877E-03     95.9870E+06     57.9125E+06     28.4133E+06    -49.2641E+06    -48.5907E+06     27.7400E+06     57.9125E+06     7.07869E+06
            1577     113.085E-03     9.98490E-03     112.644E-03     370.970E-03    -184.196E-03    -187.752E-03    -181.045E-03     364.264E-03    -184.196E-03     121.330E-03     487.078E-03     96.5239E+06     69.0931E+06     32.2238E+06    -40.4007E+06    -39.9127E+06     31.7358E+06     69.0931E+06     5.77568E+06
            1578     113.326E-03     10.8161E-03     112.809E-03     373.800E-03    -184.169E-03    -189.694E-03    -181.196E-03     365.302E-03    -184.169E-03     137.215E-03     495.058E-03       93.26E+06     73.7969E+06     38.1528E+06    -31.9968E+06    -31.5940E+06     37.7500E+06     73.7969E+06     5.20027E+06
            1579     113.602E-03     11.6461E-03     113.003E-03     379.412E-03    -184.146E-03    -194.373E-03    -182.174E-03     367.213E-03    -184.146E-03     164.393E-03     506.590E-03     87.1803E+06     73.2143E+06     44.0698E+06    -24.7842E+06    -24.4182E+06     43.7039E+06     73.2143E+06     4.95912E+06
            1580     113.942E-03     12.4829E-03     113.257E-03     381.102E-03    -184.029E-03    -196.180E-03    -183.192E-03     368.115E-03    -184.029E-03     170.645E-03     506.793E-03     82.1776E+06     72.5817E+06     46.9708E+06    -19.3474E+06    -19.0920E+06     46.7153E+06     72.5817E+06     4.01691E+06
            1581     114.237E-03     13.3153E-03     113.458E-03     395.710E-03    -184.356E-03    -210.587E-03    -189.000E-03     374.123E-03    -184.356E-03     218.176E-03     539.948E-03     84.8981E+06     81.3088E+06     56.2699E+06    -13.2833E+06    -13.1870E+06     56.1736E+06     81.3088E+06     2.05419E+06
            1582     114.740E-03     14.1461E-03     113.865E-03     394.544E-03    -184.616E-03    -209.682E-03    -189.900E-03     374.762E-03    -184.616E-03     203.820E-03     518.417E-03     93.3611E+06     97.7670E+06     68.3641E+06    -6.71077E+06    -6.69190E+06     68.3452E+06     97.7670E+06     503.119E+03
            1583     113.816E-03     831.361E-06     113.813E-03     369.295E-03    -184.375E-03    -184.832E-03    -184.572E-03     369.292E-03    -184.632E-03    -2.26533E-03     370.868E-03     197.887E+06    -126.801E+06    -132.087E+06    -327.250E+06    -132.140E+06    -327.197E+06    -126.801E+06     2.05555E+06
            1584     113.806E-03     1.66348E-03     113.794E-03     369.340E-03    -184.493E-03    -184.901E-03    -184.703E-03     369.337E-03    -184.687E-03    -2.53161E-03     373.910E-03     188.309E+06    -115.891E+06    -127.087E+06    -309.520E+06    -127.147E+06    -309.460E+06    -115.891E+06     2.88664E+06
            1585     113.801E-03     2.49404E-03     113.774E-03     369.084E-03    -184.183E-03    -184.953E-03    -184.364E-03     369.083E-03    -184.770E-03    -1.96630E-03     378.210E-03     172.358E+06    -99.7374E+06    -120.238E+06    -281.305E+06    -120.374E+06    -281.169E+06    -99.7374E+06     4.44699E+06
            1586     113.805E-03     3.32628E-03     113.756E-03     368.773E-03    -183.974E-03    -184.816E-03    -183.972E-03     368.770E-03    -184.816E-03     640.542E-06     384.224E-03     153.963E+06    -79.3569E+06    -113.125E+06    -247.173E+06    -113.441E+06    -246.857E+06    -79.3569E+06     6.13146E+06
            1587     113.815E-03     4.15877E-03     113.739E-03     368.746E-03    -184.060E-03    -184.873E-03    -184.038E-03     368.723E-03    -184.873E-03     6.19798E-03     392.563E-03     133.409E+06    -57.4313E+06    -104.849E+06    -207.745E+06    -105.492E+06    -207.102E+06    -57.4313E+06     7.78273E+06
            1588     113.838E-03     4.99021E-03     113.729E-03     368.608E-03    -183.559E-03    -185.006E-03    -183.452E-03     368.501E-03    -185.006E-03     14.4888E-03     402.927E-03     107.381E+06    -35.9985E+06    -94.6345E+06    -158.845E+06    -96.4526E+06    -157.027E+06    -35.9985E+06     9.37667E+06
            1589     113.884E-03     5.81998E-03     113.736E-03     367.512E-03    -182.340E-03    -184.966E-03    -182.028E-03     367.200E-03    -184.966E-03     25.4733E-03     414.250E-03     81.2806E+06    -15.2250E+06    -72.8805E+06    -108.156E+06    -87.1108E+06    -93.9252E+06    -15.2250E+06     10.8669E+06
            1590     113.952E-03     6.65346E-03     113.758E-03     366.246E-03    -181.372E-03    -184.788E-03    -180.650E-03     365.524E-03    -184.788E-03     38.9781E-03     425.934E-03     81.7854E+06     8.55748E+06    -21.8060E+06    -80.3323E+06    -76.8324E+06    -25.3058E+06     8.55748E+06     11.6687E+06
            1591     114.049E-03     7.48572E-03     113.803E-03     366.220E-03    -181.255E-03    -184.725E-03    -179.782E-03     364.746E-03    -184.725E-03     55.9138E-03     441.155E-03     91.1919E+06     28.1264E+06     16.1149E+06    -68.4168E+06    -66.9990E+06     14.6971E+06     28.1264E+06     10.7945E+06
            1592     114.171E-03     8.31939E-03     113.867E-03     366.067E-03    -181.829E-03    -184.451E-03    -179.195E-03     363.433E-03    -184.451E-03     75.1352E-03     456.437E-03     93.9922E+06     43.8308E+06     23.7027E+06    -58.5306E+06    -57.3370E+06     22.5091E+06     43.8308E+06     9.80069E+06
            1593     114.336E-03     9.15395E-03     113.969E-03     367.757E-03    -183.209E-03    -185.235E-03    -179.796E-03     363.319E-03    -184.209E-03     97.7983E-03     472.076E-03     97.6384E+06     59.6835E+06     30.1354E+06    -49.2233E+06    -48.1370E+06     29.0491E+06     59.6835E+06     9.17127E+06
            1594     114.528E-03     9.98294E-03     114.092E-03     370.753E-03    -184.143E-03    -187.632E-03    -181.000E-03     364.121E-03    -184.143E-03     120.598E-03     487.088E-03     98.7349E+06     71.0040E+06     34.5701E+06    -40.7405E+06    -39.9850E+06     33.8145E+06     71.0040E+06     7.32097E+06
            1595     114.756E-03     10.8161E-03     114.245E-03     373.858E-03    -184.132E-03    -189.915E-03    -181.267E-03     365.209E-03    -184.132E-03     138.381E-03     495.340E-03     94.9169E+06     74.6211E+06     38.8841E+06    -32.9544E+06    -32.4471E+06     38.3769E+06     74.6211E+06     5.90448E+06
            1596     115.034E-03     11.6496E-03     114.442E-03     379.762E-03    -184.131E-03    -194.828E-03    -182.506E-03     367.440E-03    -184.131E-03     165.516E-03     506.961E-03     88.2548E+06     72.9426E+06     43.6178E+06    -26.1997E+06    -25.7680E+06     43.1861E+06     72.9426E+06     5.45822E+06
            1597     115.370E-03     12.4807E-03     114.693E-03     380.677E-03    -184.004E-03    -195.929E-03    -182.942E-03     367.690E-03    -184.004E-03     170.605E-03     506.640E-03     83.2689E+06     73.9225E+06     49.4425E+06    -18.8322E+06    -18.5639E+06     49.1742E+06     73.9225E+06     4.06857E+06
            1598     115.670E-03     13.3166E-03     114.901E-03     394.664E-03    -184.327E-03    -209.760E-03    -188.191E-03     373.095E-03    -184.327E-03     217.903E-03     539.272E-03     85.8547E+06     84.1710E+06     59.6649E+06    -11.2605E+06    -11.1537E+06     59.5582E+06     84.1710E+06     2.54370E+06
            1599     116.172E-03     14.1500E-03     115.307E-03     394.280E-03    -184.564E-03    -209.531E-03    -189.831E-03     374.581E-03    -184.564E-03     203.260E-03     518.362E-03     94.5102E+06     100.670E+06     70.1616E+06    -5.26414E+06    -5.22897E+06     70.1264E+06     100.670E+06     950.844E+03
            1600     115.259E-03     832.503E-06     115.256E-03     368.520E-03    -183.934E-03    -184.515E-03    -184.511E-03     368.516E-03    -183.934E-03    -2.82893E-03     370.139E-03     200.887E+06    -129.753E+06    -135.271E+06    -333.317E+06    -134.161E+06    -333.260E+06    -130.919E+06     2.53885E+06
            1601     115.249E-03     1.66380E-03     115.237E-03     369.031E-03    -184.391E-03    -184.774E-03    -184.717E-03     369.026E-03    -184.443E-03    -3.17008E-03     373.712E-03     190.936E+06    -117.283E+06    -129.077E+06    -313.792E+06    -129.145E+06    -313.724E+06    -117.283E+06     3.36012E+06
            1602     115.245E-03     2.49520E-03     115.217E-03     369.135E-03    -184.390E-03    -184.812E-03    -184.571E-03     369.133E-03    -184.629E-03    -1.97263E-03     378.396E-03     176.873E+06    -100.881E+06    -122.676E+06    -287.531E+06    -122.814E+06    -287.393E+06    -100.881E+06     4.55804E+06
            1603     115.245E-03     3.32591E-03     115.197E-03     368.827E-03    -184.074E-03    -184.748E-03    -184.069E-03     368.823E-03    -184.748E-03     1.60746E-03     384.448E-03     159.170E+06    -80.0441E+06    -114.349E+06    -253.371E+06    -114.711E+06    -253.009E+06    -80.0441E+06     6.69871E+06
            1604     115.256E-03     4.15786E-03     115.181E-03     368.215E-03    -183.553E-03    -184.823E-03    -183.523E-03     368.185E-03    -184.823E-03     7.30368E-03     392.192E-03     138.650E+06    -58.2495E+06    -105.194E+06    -213.992E+06    -105.998E+06    -213.188E+06    -58.2495E+06     9.00774E+06
            1605     115.281E-03     4.98930E-03     115.173E-03     367.825E-03    -182.872E-03    -184.855E-03    -182.748E-03     367.702E-03    -184.855E-03     15.5507E-03     402.104E-03     111.786E+06    -36.5143E+06    -94.4215E+06    -164.414E+06    -96.3933E+06    -162.442E+06    -36.5143E+06     10.5331E+06
            1606     115.324E-03     5.82253E-03     115.177E-03     367.297E-03    -182.298E-03    -184.762E-03    -181.969E-03     366.968E-03    -184.762E-03     26.2976E-03     414.011E-03     84.8997E+06    -14.7825E+06    -74.1441E+06    -111.928E+06    -86.5659E+06    -99.5066E+06    -14.7825E+06     12.0773E+06
            1607     115.386E-03     6.65560E-03     115.194E-03     366.367E-03    -181.628E-03    -184.624E-03    -180.921E-03     365.660E-03    -184.624E-03     38.6793E-03     426.140E-03     83.5186E+06     9.01497E+06    -23.3113E+06    -81.6711E+06    -76.7854E+06    -28.1969E+06     9.01497E+06     12.7730E+06
            1608     115.483E-03     7.48954E-03     115.240E-03     366.663E-03    -181.775E-03    -184.655E-03    -180.334E-03     365.222E-03    -184.655E-03     55.2695E-03     441.287E-03     92.5668E+06     29.3096E+06     16.9668E+06    -68.7521E+06    -67.0379E+06     15.2526E+06     29.3096E+06     11.9310E+06
            1609     115.609E-03     8.31910E-03     115.309E-03     366.950E-03    -182.709E-03    -184.479E-03    -180.111E-03     364.351E-03    -184.479E-03     74.7533E-03     457.711E-03     95.1235E+06     44.7855E+06     23.3514E+06    -59.1166E+06    -57.5733E+06     21.8080E+06     44.7855E+06     11.1166E+06
            1610     115.771E-03     9.14877E-03     115.409E-03     367.167E-03    -183.357E-03    -184.487E-03    -179.093E-03     362.671E-03    -184.255E-03     98.1517E-03     471.935E-03     98.1866E+06     60.1338E+06     30.1630E+06    -49.5044E+06    -48.0663E+06     28.7249E+06     60.1338E+06     10.5828E+06
            1611     115.966E-03     9.98598E-03     115.535E-03     369.617E-03    -183.841E-03    -186.793E-03    -179.762E-03     362.861E-03    -184.116E-03     121.510E-03     485.664E-03     99.7756E+06     72.4560E+06     37.0188E+06    -40.1738E+06    -38.9823E+06     35.8273E+06     72.4560E+06      9.4485E+06
            1612     116.192E-03     10.8192E-03     115.687E-03     373.960E-03    -184.059E-03    -190.107E-03    -181.499E-03     365.353E-03    -184.059E-03     138.138E-03     495.227E-03     96.2334E+06     76.9775E+06     41.0267E+06    -32.0511E+06    -31.1528E+06     40.1284E+06     76.9775E+06     7.91179E+06
            1613     116.471E-03     11.6490E-03     115.887E-03     379.725E-03    -184.061E-03    -194.884E-03    -182.666E-03     367.507E-03    -184.061E-03     164.742E-03     507.027E-03     89.3732E+06     75.6238E+06     45.6359E+06    -24.8389E+06    -24.3099E+06     45.1069E+06     75.6238E+06     5.63183E+06
            1614     116.804E-03     12.4827E-03     116.135E-03     380.737E-03    -183.945E-03    -196.151E-03    -183.128E-03     367.714E-03    -183.945E-03     170.912E-03     507.364E-03     84.3063E+06     76.0799E+06     52.1031E+06    -17.6096E+06    -17.4314E+06     51.9249E+06     76.0799E+06     3.27710E+06
            1615     117.099E-03     13.3163E-03     116.340E-03     394.455E-03    -184.297E-03    -209.762E-03    -188.205E-03     372.899E-03    -184.297E-03     217.898E-03     539.637E-03     87.2297E+06     84.9071E+06     60.6470E+06    -11.8810E+06    -11.8012E+06     60.5672E+06     84.9071E+06     2.32317E+06
            1616     117.602E-03     14.1494E-03     116.748E-03     393.877E-03    -184.543E-03    -209.220E-03    -189.627E-03     374.284E-03    -184.543E-03     202.458E-03     518.159E-03     96.7080E+06     101.768E+06     71.5848E+06    -6.38909E+06    -6.35585E+06     71.5516E+06     101.768E+06     1.38714E+06
            1617     116.705E-03     831.593E-06     116.702E-03     368.748E-03    -184.108E-03    -184.614E-03    -184.487E-03     368.745E-03    -184.232E-03    -2.38404E-03     370.393E-03     205.220E+06    -130.929E+06    -136.461E+06    -338.858E+06    -135.306E+06    -338.847E+06    -132.096E+06     1.01457E+06
            1618     116.694E-03     1.66267E-03     116.682E-03     368.616E-03    -184.225E-03    -184.556E-03    -184.338E-03     368.611E-03    -184.439E-03    -2.94338E-03     373.364E-03     195.568E+06    -119.047E+06    -129.860E+06    -319.734E+06    -129.911E+06    -319.683E+06    -119.047E+06     2.77467E+06
            1619     116.686E-03     2.49498E-03     116.660E-03     368.362E-03    -184.052E-03    -184.440E-03    -184.049E-03     368.360E-03    -184.440E-03    -1.85179E-03     377.816E-03     182.365E+06    -100.934E+06    -123.583E+06    -293.447E+06    -123.739E+06    -293.291E+06    -100.934E+06     4.88244E+06
            1620     116.687E-03     3.32780E-03     116.639E-03     368.314E-03    -183.854E-03    -184.519E-03    -183.849E-03     368.308E-03    -184.519E-03     2.15241E-03     384.016E-03     166.646E+06    -79.6850E+06    -114.820E+06    -260.942E+06    -115.196E+06    -260.566E+06    -79.6850E+06     7.15072E+06
            1621     116.696E-03     4.15929E-03     116.621E-03     367.610E-03    -183.152E-03    -184.596E-03    -183.117E-03     367.575E-03    -184.596E-03     8.01307E-03     391.750E-03     144.252E+06    -59.0515E+06    -105.303E+06    -220.507E+06    -106.119E+06    -219.692E+06    -59.0515E+06     9.31751E+06
            1622     116.721E-03     4.99287E-03     116.614E-03     367.099E-03    -182.395E-03    -184.570E-03    -182.272E-03     366.976E-03    -184.570E-03     15.7646E-03     401.280E-03     115.324E+06    -37.9550E+06    -95.2812E+06    -169.763E+06    -97.3753E+06    -167.669E+06    -37.9550E+06     11.2086E+06
            1623     116.761E-03     5.82505E-03     116.615E-03     367.461E-03    -182.700E-03    -184.490E-03    -182.382E-03     367.143E-03    -184.490E-03     25.8414E-03     413.824E-03     88.3392E+06    -14.9086E+06    -76.7543E+06    -115.779E+06    -87.4922E+06    -105.041E+06    -14.9086E+06     12.6343E+06
            1624     116.828E-03     6.65524E-03     116.638E-03     367.385E-03    -182.754E-03    -184.507E-03    -182.078E-03     366.709E-03    -184.507E-03     37.9793E-03     427.234E-03     85.3256E+06     9.32391E+06    -26.0524E+06    -83.3831E+06    -77.4035E+06    -32.0320E+06     9.32391E+06     13.6507E+06
            1625     116.917E-03     7.48608E-03     116.677E-03     366.907E-03    -181.943E-03    -184.674E-03    -180.489E-03     365.454E-03    -184.674E-03     55.3134E-03     441.720E-03     93.8339E+06     29.7726E+06     16.9279E+06    -69.7940E+06    -67.4763E+06     14.6102E+06     29.7726E+06     13.8895E+06
            1626     117.051E-03     8.31967E-03     116.755E-03     366.281E-03    -181.971E-03    -184.454E-03    -179.264E-03     363.574E-03    -184.454E-03     76.1756E-03     456.981E-03     96.5122E+06     45.0986E+06     23.6265E+06    -60.2051E+06    -58.1234E+06     21.5447E+06     45.0986E+06     13.0075E+06
            1627     117.208E-03     9.15253E-03     116.850E-03     367.174E-03    -183.056E-03    -184.851E-03    -179.176E-03     362.650E-03    -184.207E-03     98.6632E-03     471.913E-03     99.6397E+06     60.6597E+06     30.3538E+06    -50.5879E+06    -48.8702E+06     28.6362E+06     60.6597E+06     11.6000E+06
            1628     117.397E-03     9.98647E-03     116.971E-03     370.058E-03    -183.820E-03    -187.273E-03    -180.242E-03     363.302E-03    -184.094E-03     121.531E-03     485.937E-03     101.392E+06     73.2299E+06     37.9961E+06    -41.0495E+06    -39.7085E+06     36.6550E+06     73.2299E+06     10.1863E+06
            1629     117.633E-03     10.8184E-03     117.135E-03     373.432E-03    -184.028E-03    -189.543E-03    -181.070E-03     364.959E-03    -184.028E-03     137.006E-03     494.837E-03     97.1454E+06     77.8748E+06     42.8127E+06    -31.9203E+06    -30.9397E+06     41.8322E+06     77.8748E+06     8.32472E+06
            1630     117.901E-03     11.6499E-03     117.324E-03     378.865E-03    -184.017E-03    -194.094E-03    -181.973E-03     366.744E-03    -184.017E-03     163.654E-03     506.717E-03     89.8697E+06     77.9498E+06     48.9887E+06    -22.7882E+06    -22.2572E+06     48.4577E+06     77.9498E+06     5.69009E+06
            1631     118.237E-03     12.4848E-03     117.576E-03     380.672E-03    -183.876E-03    -196.160E-03    -183.042E-03     367.554E-03    -183.876E-03     171.477E-03     506.940E-03     85.3777E+06     78.4495E+06     54.1734E+06    -16.4343E+06    -16.1401E+06     53.8792E+06     78.4495E+06     4.31989E+06
            1632     118.532E-03     13.3171E-03     117.781E-03     395.242E-03    -184.248E-03    -210.600E-03    -189.031E-03     373.674E-03    -184.248E-03     218.333E-03     540.231E-03     89.4411E+06     86.9050E+06     62.5065E+06    -12.1987E+06    -11.9511E+06     62.2589E+06     86.9050E+06     3.95600E+06
            1633     119.028E-03     14.1506E-03     118.184E-03     395.098E-03    -184.551E-03    -210.428E-03    -190.778E-03     375.447E-03    -184.551E-03     203.401E-03     519.452E-03     99.9069E+06     104.451E+06     75.3628E+06    -6.74701E+06    -6.63810E+06     75.2539E+06     104.451E+06     2.44016E+06
            1634     118.149E-03     831.481E-06     118.146E-03     368.489E-03    -184.003E-03    -184.517E-03    -184.243E-03     368.487E-03    -184.275E-03    -1.74760E-03     370.194E-03     207.557E+06    -131.184E+06    -137.565E+06    -341.857E+06    -136.234E+06    -341.850E+06    -132.523E+06     1.17477E+06
            1635     118.136E-03     1.66408E-03     118.124E-03     367.868E-03    -183.838E-03    -184.207E-03    -183.835E-03     367.865E-03    -184.207E-03    -2.51068E-03     372.710E-03     200.386E+06    -120.665E+06    -132.334E+06    -326.581E+06    -132.384E+06    -326.530E+06    -120.665E+06     2.69750E+06
            1636     118.128E-03     2.49599E-03     118.101E-03     367.907E-03    -183.843E-03    -184.174E-03    -183.870E-03     367.905E-03    -184.146E-03    -1.46913E-03     377.437E-03     187.574E+06    -101.854E+06    -124.383E+06    -299.574E+06    -124.533E+06    -299.424E+06    -101.854E+06     4.89767E+06
            1637     118.129E-03     3.32777E-03     118.082E-03     367.978E-03    -183.708E-03    -184.322E-03    -183.733E-03     367.975E-03    -184.293E-03     1.73882E-03     383.596E-03     172.549E+06    -81.5338E+06    -116.320E+06    -268.683E+06    -116.713E+06    -268.290E+06    -81.5338E+06     7.40694E+06
            1638     118.137E-03     4.16100E-03     118.063E-03     367.559E-03    -183.327E-03    -184.441E-03    -183.305E-03     367.536E-03    -184.441E-03     6.40480E-03     391.615E-03     149.615E+06    -60.6241E+06    -107.264E+06    -227.709E+06    -108.057E+06    -226.917E+06    -60.6241E+06     9.49715E+06
            1639     118.161E-03     4.99265E-03     118.055E-03     367.170E-03    -182.750E-03    -184.459E-03    -182.647E-03     367.066E-03    -184.459E-03     14.2196E-03     401.319E-03     119.379E+06    -38.7289E+06    -96.0592E+06    -175.235E+06    -97.9557E+06    -173.339E+06    -38.7289E+06     11.0975E+06
            1640     118.205E-03     5.82442E-03     118.061E-03     367.000E-03    -182.504E-03    -184.395E-03    -182.186E-03     366.682E-03    -184.395E-03     25.6190E-03     413.327E-03     91.9870E+06    -16.0226E+06    -78.2014E+06    -121.210E+06    -88.3002E+06    -111.111E+06    -16.0226E+06     13.2459E+06
            1641     118.268E-03     6.65709E-03     118.080E-03     367.010E-03    -182.534E-03    -184.385E-03    -181.808E-03     366.284E-03    -184.385E-03     39.2672E-03     426.719E-03     86.5614E+06     8.93205E+06    -29.4205E+06    -86.0827E+06    -78.5293E+06    -36.9739E+06     8.93205E+06     15.1810E+06
            1642     118.362E-03     7.48832E-03     118.125E-03     367.013E-03    -182.196E-03    -184.584E-03    -180.713E-03     365.530E-03    -184.584E-03     56.1410E-03     441.970E-03     94.8500E+06     29.7167E+06     15.4845E+06    -71.4132E+06    -68.4158E+06     12.4870E+06     29.7167E+06     15.8229E+06
            1643     118.483E-03     8.32075E-03     118.191E-03     366.112E-03    -181.936E-03    -184.398E-03    -179.310E-03     363.485E-03    -184.398E-03     75.0763E-03     456.832E-03     98.1733E+06     45.7348E+06     25.5345E+06    -60.8098E+06    -58.3378E+06     23.0625E+06     45.7348E+06     14.3480E+06
            1644     118.648E-03     9.15403E-03     118.294E-03     367.487E-03    -183.095E-03    -185.099E-03    -179.641E-03     363.101E-03    -184.168E-03     97.1816E-03     472.083E-03     100.709E+06     61.8337E+06     30.8655E+06    -50.6553E+06    -48.7327E+06     28.9429E+06     61.8337E+06     12.3016E+06
            1645     118.832E-03     9.98413E-03     118.411E-03     370.491E-03    -184.091E-03    -187.400E-03    -180.661E-03     363.752E-03    -184.091E-03     121.376E-03     486.631E-03     102.586E+06     74.1331E+06     38.8727E+06    -41.4270E+06    -39.9245E+06     37.3703E+06     74.1331E+06     10.7972E+06
            1646     119.065E-03     10.8186E-03     118.572E-03     372.103E-03    -184.007E-03    -188.503E-03    -179.913E-03     363.514E-03    -184.007E-03     137.625E-03     493.958E-03     98.9777E+06     79.0017E+06     46.1554E+06    -32.2088E+06    -31.3083E+06     45.2549E+06     79.0017E+06     8.15673E+06
            1647     119.332E-03     11.6522E-03     118.762E-03     378.320E-03    -183.967E-03    -193.853E-03    -181.551E-03     366.019E-03    -183.967E-03     164.772E-03     506.054E-03     91.7952E+06     77.9224E+06     50.7872E+06    -24.3428E+06     -23.857E+06     50.3014E+06     77.9224E+06     5.98858E+06
            1648     119.669E-03     12.4848E-03     119.016E-03     381.202E-03    -183.824E-03    -196.741E-03    -183.605E-03     368.065E-03    -183.824E-03     171.656E-03     507.220E-03     87.0376E+06     77.6047E+06     54.6458E+06    -18.5958E+06    -18.1241E+06     54.1741E+06     77.6047E+06     5.85087E+06
            1649     119.964E-03     13.3207E-03     119.223E-03     395.514E-03    -184.221E-03    -210.865E-03    -189.433E-03     374.082E-03    -184.221E-03     217.622E-03     540.375E-03     91.6211E+06     88.4627E+06     64.8061E+06    -12.6550E+06    -12.2720E+06     64.4231E+06     88.4627E+06     5.30322E+06
            1650     120.464E-03     14.1501E-03     119.630E-03     395.336E-03    -184.517E-03    -210.632E-03    -191.026E-03     375.731E-03    -184.517E-03     203.324E-03     519.407E-03     102.940E+06     107.461E+06     79.6756E+06    -6.48511E+06    -6.33321E+06     79.5237E+06     107.461E+06     3.24141E+06
            1651     119.592E-03     831.949E-06     119.589E-03     367.486E-03    -183.425E-03    -184.165E-03    -184.015E-03     367.484E-03    -183.573E-03    -2.17162E-03     369.237E-03     207.952E+06    -134.743E+06    -140.416E+06    -345.469E+06    -139.080E+06    -345.466E+06    -136.082E+06     621.756E+03
            1652     119.578E-03     1.66424E-03     119.566E-03     367.356E-03    -183.586E-03    -183.947E-03    -183.736E-03     367.352E-03    -183.793E-03    -2.72630E-03     372.204E-03     204.977E+06    -121.781E+06    -133.868E+06    -332.481E+06    -133.920E+06    -332.428E+06    -121.781E+06     2.67926E+06
            1653     119.570E-03     2.49677E-03     119.544E-03     367.797E-03    -183.838E-03    -184.022E-03    -183.961E-03     367.795E-03    -183.897E-03    -1.80967E-03     377.325E-03     193.290E+06    -103.706E+06    -126.664E+06    -307.357E+06    -126.861E+06    -307.160E+06    -103.706E+06     5.61915E+06
            1654     119.569E-03     3.32888E-03     119.523E-03     368.050E-03    -183.861E-03    -184.248E-03    -183.918E-03     368.046E-03    -184.187E-03     1.23565E-03     383.649E-03     176.311E+06    -83.4371E+06    -118.598E+06    -274.532E+06    -118.964E+06    -274.167E+06    -83.4371E+06     7.41791E+06
            1655     119.576E-03     4.15991E-03     119.504E-03     367.769E-03    -183.645E-03    -184.429E-03    -183.620E-03     367.744E-03    -184.429E-03     6.62963E-03     391.764E-03     154.614E+06    -61.7207E+06    -108.406E+06    -234.054E+06    -109.057E+06    -233.403E+06    -61.7207E+06     8.70608E+06
            1656     119.600E-03     4.99195E-03     119.495E-03     367.316E-03    -182.913E-03    -184.456E-03    -182.808E-03     367.212E-03    -184.456E-03     14.4140E-03     401.563E-03     124.852E+06    -40.3044E+06    -97.2783E+06    -182.823E+06    -99.1718E+06    -180.930E+06    -40.3044E+06     11.3716E+06
            1657     119.638E-03     5.82531E-03     119.496E-03     366.576E-03    -182.157E-03    -184.371E-03    -181.849E-03     366.268E-03    -184.371E-03     25.2278E-03     413.112E-03     96.0209E+06    -17.8428E+06    -80.8039E+06    -127.754E+06    -89.8628E+06    -118.695E+06    -17.8428E+06     14.2012E+06
            1658     119.705E-03     6.65773E-03     119.520E-03     365.989E-03    -181.744E-03    -184.288E-03    -181.063E-03     365.308E-03    -184.288E-03     38.0155E-03     425.738E-03     87.3206E+06     7.43050E+06    -33.7078E+06    -89.3062E+06    -79.6504E+06    -43.3636E+06     7.43050E+06     16.0625E+06
            1659     119.796E-03     7.49085E-03     119.561E-03     366.737E-03    -182.125E-03    -184.458E-03    -180.702E-03     365.314E-03    -184.458E-03     54.8695E-03     441.507E-03     95.3361E+06     29.2928E+06     13.7013E+06     -72.823E+06    -69.3382E+06     10.2165E+06     29.2928E+06     16.9288E+06
            1660     119.923E-03     8.31995E-03     119.634E-03     366.962E-03    -182.892E-03    -184.359E-03    -180.295E-03     364.365E-03    -184.359E-03     74.7381E-03     457.956E-03     100.481E+06     45.4994E+06     27.7803E+06    -62.5326E+06    -59.7110E+06     24.9586E+06     45.4994E+06     15.6542E+06
            1661     120.081E-03     9.15005E-03     119.732E-03     367.350E-03    -183.607E-03    -184.448E-03    -179.374E-03     362.829E-03    -184.161E-03     98.4327E-03     472.357E-03     102.287E+06     60.7555E+06     31.8592E+06    -52.6863E+06    -50.5157E+06     29.6886E+06     60.7555E+06     13.3154E+06
            1662     120.274E-03     9.98696E-03     119.859E-03     369.099E-03    -184.013E-03    -186.169E-03    -179.310E-03     362.245E-03    -184.018E-03     122.244E-03     485.329E-03     103.731E+06     74.1497E+06     40.1529E+06    -42.2912E+06    -40.7320E+06     38.5938E+06     74.1497E+06     11.1091E+06
            1663     120.495E-03     10.8203E-03     120.008E-03     371.796E-03    -183.916E-03    -188.513E-03    -179.865E-03     363.148E-03    -183.916E-03     138.033E-03     493.577E-03     101.364E+06     80.5321E+06     49.7856E+06    -32.6281E+06    -31.5906E+06     48.7481E+06     80.5321E+06     9.12736E+06
            1664     120.764E-03     11.6546E-03     120.201E-03     379.178E-03    -183.931E-03    -194.785E-03    -182.480E-03     366.872E-03    -183.931E-03     165.191E-03     506.474E-03     94.4472E+06     78.4437E+06     52.4664E+06    -26.2623E+06    -25.3706E+06     51.5747E+06     78.4437E+06     8.13283E+06
            1665     121.105E-03     12.4873E-03     120.459E-03     381.895E-03    -183.829E-03    -197.378E-03    -184.481E-03     368.998E-03    -183.829E-03     170.259E-03     508.040E-03     88.8932E+06     77.8432E+06     55.1675E+06    -20.1857E+06    -19.5103E+06     54.4921E+06     77.8432E+06     6.80282E+06
            1666     121.395E-03     13.3163E-03     120.662E-03     395.536E-03    -184.237E-03    -210.833E-03    -189.408E-03     374.110E-03    -184.237E-03     217.077E-03     540.588E-03     93.2023E+06     88.8735E+06     66.7124E+06    -13.3798E+06    -12.9985E+06     66.3311E+06     88.8735E+06     5.40247E+06
            1667     121.900E-03     14.1516E-03     121.075E-03     394.294E-03    -184.457E-03    -209.566E-03    -189.888E-03     374.617E-03    -184.457E-03     202.938E-03     518.430E-03     105.605E+06     109.450E+06     84.2574E+06    -6.44558E+06    -6.26971E+06     84.0816E+06     109.450E+06     3.38626E+06
            1668     121.035E-03     832.938E-06     121.033E-03     367.013E-03    -183.065E-03    -184.053E-03    -184.049E-03     367.009E-03    -183.065E-03    -2.66173E-03     368.818E-03     210.214E+06    -136.959E+06    -142.354E+06    -349.805E+06    -141.827E+06    -349.789E+06    -137.502E+06     1.36344E+06
            1669     121.022E-03     1.66493E-03     121.011E-03     367.349E-03    -183.628E-03    -183.893E-03    -183.889E-03     367.344E-03    -183.628E-03    -2.95611E-03     372.112E-03     207.990E+06    -124.487E+06    -136.917E+06    -338.373E+06    -136.969E+06    -338.321E+06    -124.487E+06     2.90683E+06
            1670     121.013E-03     2.49620E-03     120.987E-03     367.755E-03    -183.833E-03    -184.027E-03    -184.026E-03     367.753E-03    -183.833E-03    -1.63471E-03     377.230E-03     196.257E+06    -107.609E+06    -130.273E+06    -314.123E+06    -130.422E+06    -313.974E+06    -107.609E+06     4.74371E+06
            1671     121.012E-03     3.32798E-03     120.966E-03     367.896E-03    -183.748E-03    -184.265E-03    -183.848E-03     367.893E-03    -184.162E-03     1.21024E-03     383.731E-03     179.395E+06    -85.8570E+06    -120.478E+06    -279.902E+06    -120.776E+06    -279.604E+06    -85.8570E+06     6.50233E+06
            1672     121.017E-03     4.16111E-03     120.946E-03     367.513E-03    -183.366E-03    -184.396E-03    -183.337E-03     367.485E-03    -184.396E-03     7.02733E-03     391.575E-03     158.890E+06    -64.0172E+06    -110.515E+06    -240.730E+06    -111.160E+06    -240.085E+06    -64.0172E+06     8.75035E+06
            1673     121.044E-03     4.99325E-03     120.941E-03     367.522E-03    -183.012E-03    -184.399E-03    -182.901E-03     367.411E-03    -184.399E-03     14.9587E-03     401.641E-03     129.935E+06    -43.0133E+06     -99.977E+06    -191.138E+06    -101.712E+06    -189.403E+06    -43.0133E+06     11.3405E+06
            1674     121.081E-03     5.82412E-03     120.941E-03     367.039E-03    -182.591E-03    -184.342E-03    -182.286E-03     366.734E-03    -184.342E-03     25.1957E-03     413.687E-03     99.4201E+06    -20.3345E+06    -83.7256E+06    -134.129E+06    -91.0035E+06    -126.851E+06    -20.3345E+06     14.0047E+06
            1675     121.144E-03     6.65654E-03     120.961E-03     365.886E-03    -181.766E-03    -184.302E-03    -181.093E-03     365.212E-03    -184.302E-03     37.7820E-03     425.735E-03     87.7503E+06     4.66589E+06    -38.7771E+06    -93.1779E+06    -80.7895E+06    -51.1654E+06     4.66589E+06     17.0805E+06
            1676     121.235E-03     7.48906E-03     121.003E-03     365.983E-03    -181.422E-03    -184.442E-03    -179.971E-03     364.532E-03    -184.442E-03     55.2372E-03     440.445E-03     95.7368E+06     27.1876E+06     11.2181E+06    -75.3093E+06    -71.0736E+06     6.98232E+06     27.1876E+06     18.4336E+06
            1677     121.364E-03     8.32259E-03     121.078E-03     366.179E-03    -182.110E-03    -184.261E-03    -179.453E-03     363.522E-03    -184.261E-03     75.5438E-03     456.780E-03     102.486E+06     43.6888E+06     28.4744E+06    -65.4427E+06    -62.1317E+06     25.1635E+06     43.6888E+06     17.3065E+06
            1678     121.517E-03     9.15458E-03     121.172E-03     366.863E-03    -183.330E-03    -184.168E-03    -178.901E-03     362.289E-03    -184.022E-03     98.9691E-03     471.679E-03     105.390E+06     60.2094E+06     35.5628E+06    -55.2080E+06    -52.6757E+06     33.0304E+06     60.2094E+06     14.8553E+06
            1679     121.705E-03     9.98732E-03     121.294E-03     368.879E-03    -183.880E-03    -185.949E-03    -179.116E-03     362.050E-03    -183.884E-03     122.022E-03     484.832E-03     107.195E+06     74.7587E+06     43.8333E+06    -44.4326E+06    -42.8911E+06     42.2917E+06     74.7587E+06     11.4470E+06
            1680     121.932E-03     10.8246E-03     121.450E-03     373.018E-03    -183.832E-03    -189.662E-03    -181.148E-03     364.504E-03    -183.832E-03     137.282E-03     494.308E-03     104.332E+06     79.8516E+06     49.4367E+06    -36.2957E+06    -35.1459E+06     48.2869E+06     79.8516E+06     9.85159E+06
            1681     122.201E-03     11.6531E-03     121.644E-03     380.264E-03    -183.946E-03    -195.716E-03    -183.661E-03     368.209E-03    -183.946E-03     163.814E-03     507.343E-03     98.1195E+06     78.8967E+06     54.6406E+06    -29.0065E+06     -27.933E+06     53.5671E+06     78.8967E+06     9.20996E+06
            1682     122.539E-03     12.4833E-03     121.902E-03     381.436E-03    -183.865E-03    -196.904E-03    -184.055E-03     368.587E-03    -183.865E-03     169.969E-03     507.424E-03     91.6276E+06     78.6487E+06     57.5252E+06    -21.6443E+06    -20.9848E+06     56.8657E+06     78.6487E+06     6.85152E+06
            1683     122.832E-03     13.3194E-03     122.107E-03     394.877E-03    -184.239E-03    -210.245E-03    -188.759E-03     373.391E-03    -184.239E-03     217.444E-03     540.280E-03     95.3111E+06     89.1209E+06     68.6464E+06    -14.7242E+06    -14.4224E+06     68.3446E+06     89.1209E+06     4.42036E+06
            1684     123.326E-03     14.1510E-03     122.512E-03     393.902E-03    -184.407E-03    -209.105E-03    -189.406E-03     374.203E-03    -184.407E-03     203.211E-03     518.552E-03     108.665E+06     111.565E+06     88.5867E+06    -6.72203E+06    -6.58059E+06     88.4453E+06     111.565E+06     2.84635E+06
            1685     122.480E-03     831.839E-06     122.477E-03     367.184E-03    -183.113E-03    -184.227E-03    -184.224E-03     367.181E-03    -183.113E-03    -2.25143E-03     368.960E-03     209.180E+06    -143.937E+06    -148.377E+06    -355.283E+06    -147.860E+06    -355.257E+06    -144.480E+06     2.22473E+06
            1686     122.462E-03     1.66386E-03     122.451E-03     367.377E-03    -183.660E-03    -183.866E-03    -183.829E-03     367.373E-03    -183.693E-03    -2.84724E-03     372.103E-03     205.724E+06    -130.986E+06    -143.305E+06    -342.540E+06    -143.352E+06    -342.493E+06    -130.986E+06     2.73522E+06
            1687     122.452E-03     2.49671E-03     122.427E-03     367.407E-03    -183.592E-03    -183.903E-03    -183.690E-03     367.406E-03    -183.804E-03    -1.41564E-03     376.862E-03     194.910E+06    -112.561E+06    -135.287E+06    -317.763E+06    -135.344E+06    -317.705E+06    -112.561E+06     2.94901E+06
            1688     122.451E-03     3.32873E-03     122.405E-03     367.475E-03    -183.457E-03    -184.144E-03    -183.525E-03     367.471E-03    -184.073E-03     1.71601E-03     383.416E-03     180.353E+06    -91.2873E+06    -125.610E+06    -286.200E+06    -125.765E+06    -286.045E+06    -91.2873E+06     4.50385E+06
            1689     122.455E-03     4.16054E-03     122.384E-03     367.457E-03    -183.338E-03    -184.334E-03    -183.308E-03     367.426E-03    -184.334E-03     7.40746E-03     391.490E-03     160.970E+06    -69.1260E+06    -114.935E+06    -247.825E+06    -115.407E+06    -247.353E+06    -69.1260E+06     7.10554E+06
            1690     122.479E-03     4.99307E-03     122.377E-03     367.165E-03    -182.843E-03    -184.332E-03    -182.726E-03     367.048E-03    -184.332E-03     15.4119E-03     401.117E-03     133.022E+06    -46.8561E+06    -102.455E+06    -198.161E+06    -103.589E+06    -197.027E+06    -46.8561E+06     9.56841E+06
            1691     122.517E-03     5.82542E-03     122.379E-03     366.492E-03    -182.391E-03    -184.232E-03    -182.061E-03     366.161E-03    -184.232E-03     26.1700E-03     413.119E-03     101.951E+06    -24.8025E+06    -87.3273E+06    -141.652E+06    -92.7927E+06    -136.187E+06    -24.8025E+06     12.9166E+06
            1692     122.577E-03     6.65725E-03     122.396E-03     365.975E-03    -182.071E-03    -184.216E-03    -181.327E-03     365.232E-03    -184.216E-03     39.6843E-03     425.948E-03     87.4326E+06     303.325E+03    -45.4560E+06    -98.2342E+06    -82.2498E+06    -61.4405E+06     303.325E+03     17.7455E+06
            1693     122.670E-03     7.49003E-03     122.441E-03     365.911E-03    -181.374E-03    -184.357E-03    -179.882E-03     364.419E-03    -184.357E-03     56.2793E-03     440.313E-03     95.3439E+06     23.6810E+06     7.26356E+06    -78.2356E+06    -72.5470E+06     1.57499E+06     23.6810E+06     20.8838E+06
            1694     122.796E-03     8.32226E-03     122.514E-03     365.405E-03    -181.275E-03    -184.137E-03    -178.638E-03     362.768E-03    -184.137E-03     75.1344E-03     455.650E-03     104.879E+06     42.7488E+06     31.0578E+06    -67.3384E+06    -63.2950E+06     27.0144E+06     42.7488E+06     19.3844E+06
            1695     122.954E-03     9.15581E-03     122.613E-03     366.743E-03    -182.788E-03    -184.492E-03    -179.000E-03     362.365E-03    -183.902E-03     97.0089E-03     471.236E-03     108.682E+06     61.2708E+06     40.1719E+06    -56.3224E+06    -53.6017E+06     37.4512E+06     61.2708E+06     15.8989E+06
            1696     123.143E-03     9.99113E-03     122.737E-03     370.367E-03    -183.866E-03    -187.165E-03    -180.653E-03     363.855E-03    -183.866E-03     119.409E-03     486.109E-03     111.222E+06     75.7596E+06     47.7131E+06    -46.7404E+06    -44.9223E+06     45.8951E+06     75.7596E+06     12.8955E+06
            1697     123.372E-03     10.8210E-03     122.897E-03     373.684E-03    -183.893E-03    -190.102E-03    -181.737E-03     365.320E-03    -183.893E-03     136.164E-03     494.924E-03     106.499E+06     80.6950E+06     49.3318E+06    -37.8847E+06    -36.5025E+06     47.9496E+06     80.6950E+06     10.8756E+06
            1698     123.645E-03     11.6523E-03     123.094E-03     379.381E-03    -183.979E-03    -194.735E-03    -182.660E-03     367.306E-03    -183.979E-03     163.629E-03     506.306E-03     99.7101E+06     79.9838E+06     55.9028E+06    -29.3161E+06    -28.2505E+06     54.8372E+06     79.9838E+06     9.27319E+06
            1699     123.977E-03     12.4860E-03     123.347E-03     380.667E-03    -183.843E-03    -196.096E-03    -183.025E-03     367.597E-03    -183.843E-03     171.245E-03     506.351E-03     93.8134E+06     80.3204E+06     61.9616E+06    -21.2835E+06    -20.7156E+06     61.3936E+06     80.3204E+06     6.68596E+06
            1700     124.267E-03     13.3191E-03     123.551E-03     394.284E-03    -184.196E-03    -209.815E-03    -188.137E-03     372.606E-03    -184.196E-03     218.581E-03     539.793E-03     96.9345E+06     91.6444E+06     71.2232E+06    -13.8623E+06    -13.5806E+06     70.9415E+06     91.6444E+06     4.33256E+06
            1701     124.762E-03     14.1538E-03     123.957E-03     394.043E-03    -184.312E-03    -209.213E-03    -189.430E-03     374.259E-03    -184.312E-03     203.888E-03     518.993E-03     112.137E+06     114.417E+06     92.0754E+06    -7.20301E+06    -7.07990E+06     91.9523E+06     114.417E+06     2.64412E+06
            1702     123.922E-03     832.603E-06     123.919E-03     367.020E-03    -183.231E-03    -183.917E-03    -183.916E-03     367.019E-03    -183.231E-03    -1.29360E-03     368.662E-03     206.238E+06    -150.733E+06    -155.380E+06    -359.244E+06    -154.280E+06    -359.228E+06    -151.850E+06     248.355E+03
            1703     123.907E-03     1.66446E-03     123.896E-03     367.129E-03    -183.569E-03    -183.701E-03    -183.665E-03     367.127E-03    -183.603E-03    -1.92874E-03     371.846E-03     201.648E+06    -136.901E+06    -148.411E+06    -344.006E+06    -148.424E+06    -343.993E+06    -136.901E+06     816.854E+03
            1704     123.893E-03     2.49582E-03     123.868E-03     366.984E-03    -183.367E-03    -183.672E-03    -183.373E-03     366.983E-03    -183.665E-03    -1.29244E-03     376.477E-03     190.576E+06    -118.833E+06    -140.652E+06    -319.306E+06    -140.678E+06    -319.280E+06    -118.833E+06     795.849E+03
            1705     123.887E-03     3.32934E-03     123.842E-03     366.982E-03    -183.218E-03    -183.888E-03    -183.213E-03     366.977E-03    -183.888E-03     2.06440E-03     382.840E-03     177.455E+06    -98.6100E+06    -131.384E+06    -290.047E+06    -131.432E+06    -290.000E+06    -98.6100E+06     1.37080E+06
            1706     123.895E-03     4.16209E-03     123.825E-03     366.987E-03    -183.138E-03    -184.190E-03    -183.101E-03     366.950E-03    -184.190E-03     8.26543E-03     391.034E-03     159.773E+06    -76.1280E+06    -119.807E+06    -253.005E+06    -119.915E+06    -252.897E+06    -76.1280E+06     3.14176E+06
            1707     123.918E-03     4.99317E-03     123.818E-03     366.341E-03    -182.450E-03    -184.184E-03    -182.323E-03     366.214E-03    -184.184E-03     16.1564E-03     400.275E-03     133.277E+06    -54.4038E+06    -108.040E+06    -205.702E+06    -108.621E+06    -205.120E+06    -54.4038E+06     6.16796E+06
            1708     123.956E-03     5.82683E-03     123.819E-03     365.755E-03    -182.042E-03    -184.022E-03    -181.706E-03     365.419E-03    -184.022E-03     26.4450E-03     412.142E-03     102.746E+06    -31.7875E+06    -93.7598E+06    -149.422E+06    -97.0021E+06    -146.180E+06    -31.7875E+06     10.3017E+06
            1709     124.019E-03     6.66010E-03     123.841E-03     365.735E-03    -182.082E-03    -184.020E-03    -181.343E-03     364.996E-03    -184.020E-03     39.5735E-03     425.760E-03     85.5197E+06    -6.99731E+06    -57.4593E+06    -104.289E+06    -85.7874E+06    -75.9608E+06    -6.99731E+06     16.1898E+06
            1710     124.109E-03     7.49132E-03     123.883E-03     366.183E-03    -181.829E-03    -184.186E-03    -180.363E-03     364.717E-03    -184.186E-03     55.8669E-03     440.628E-03     93.6146E+06     18.6093E+06    -1.00600E+06    -81.7087E+06    -75.0416E+06    -6.96403E+06     17.9002E+06     21.5978E+06
            1711     124.235E-03     8.32375E-03     123.956E-03     366.205E-03    -182.157E-03    -184.057E-03    -179.582E-03     363.630E-03    -184.057E-03     74.3594E-03     456.399E-03     107.462E+06     41.0456E+06     34.9175E+06    -69.2999E+06    -64.6741E+06     31.0008E+06     40.3365E+06     21.3894E+06
            1712     124.391E-03     9.15606E-03     124.054E-03     367.665E-03    -183.355E-03    -184.928E-03    -180.044E-03     363.370E-03    -183.944E-03     96.2171E-03     472.090E-03     112.091E+06     59.9537E+06     43.8868E+06    -59.0651E+06    -55.9338E+06     40.7555E+06     59.9537E+06     17.5996E+06
            1713     124.588E-03     9.98569E-03     124.188E-03     370.901E-03    -183.997E-03    -187.586E-03    -181.060E-03     364.375E-03    -183.997E-03     119.562E-03     486.745E-03     115.168E+06     76.7594E+06     51.1965E+06    -49.0267E+06    -46.9003E+06     49.0701E+06     76.7594E+06     14.3474E+06
            1714     124.814E-03     10.8193E-03     124.344E-03     372.920E-03    -184.002E-03    -189.264E-03    -180.742E-03     364.398E-03    -184.002E-03     137.193E-03     494.637E-03     109.666E+06     83.1710E+06     52.6970E+06    -38.3921E+06    -36.9852E+06     51.2901E+06     83.1710E+06     11.1704E+06
            1715     125.081E-03     11.6527E-03     124.537E-03     378.407E-03    -183.977E-03    -193.612E-03    -181.300E-03     366.096E-03    -183.977E-03     164.916E-03     505.148E-03     101.264E+06     82.8018E+06     57.3793E+06    -28.4844E+06    -27.5911E+06     56.4860E+06     82.8018E+06     8.34702E+06
            1716     125.414E-03     12.4872E-03     124.791E-03     380.221E-03    -183.777E-03    -195.555E-03    -182.364E-03     367.030E-03    -183.777E-03     171.796E-03     505.519E-03     96.6031E+06     84.0380E+06     65.7016E+06    -20.3969E+06    -19.8357E+06     65.1403E+06     84.0380E+06     6.67177E+06
            1717     125.703E-03     13.3224E-03     124.995E-03     393.954E-03    -184.125E-03    -209.596E-03    -187.856E-03     372.214E-03    -184.125E-03     218.715E-03     539.146E-03     99.7507E+06     94.1277E+06     73.5676E+06    -14.2927E+06    -13.9576E+06     73.2325E+06     94.1277E+06     4.90293E+06
            1718     126.196E-03     14.1566E-03     125.400E-03     393.626E-03    -184.151E-03    -208.905E-03    -189.067E-03     373.788E-03    -184.151E-03     203.930E-03     518.527E-03     114.962E+06     116.856E+06     94.9947E+06    -7.45581E+06    -7.33314E+06     94.8721E+06     116.856E+06     2.75646E+06
            1719     125.364E-03     832.354E-06     125.361E-03     366.579E-03    -182.994E-03    -183.728E-03    -183.595E-03     366.578E-03    -183.126E-03    -1.24011E-03     368.064E-03     202.514E+06    -153.327E+06    -158.368E+06    -358.309E+06    -157.259E+06    -358.301E+06    -154.444E+06    -1.21626E+06
            1720     125.348E-03     1.66475E-03     125.337E-03     366.250E-03    -183.129E-03    -183.342E-03    -183.165E-03     366.249E-03    -183.306E-03    -1.43333E-03     370.819E-03     194.906E+06    -143.164E+06    -152.382E+06    -342.469E+06    -152.433E+06    -342.419E+06    -143.164E+06    -1.70210E+06
            1721     125.335E-03     2.49768E-03     125.310E-03     366.628E-03    -183.219E-03    -183.560E-03    -183.429E-03     366.627E-03    -183.350E-03    -628.695E-06     376.027E-03     182.992E+06    -126.154E+06    -144.572E+06    -317.580E+06    -144.663E+06    -317.490E+06    -126.154E+06    -2.91739E+06
            1722     125.330E-03     3.32935E-03     125.286E-03     366.876E-03    -183.154E-03    -183.845E-03    -183.350E-03     366.869E-03    -183.642E-03     2.81495E-03     382.691E-03     172.917E+06    -105.631E+06    -134.878E+06    -291.198E+06    -134.962E+06    -291.115E+06    -105.631E+06    -2.85756E+06
            1723     125.337E-03     4.16187E-03     125.268E-03     366.252E-03    -182.666E-03    -183.986E-03    -182.630E-03     366.216E-03    -183.986E-03     8.33199E-03     390.358E-03     156.231E+06    -84.4936E+06    -124.792E+06    -256.731E+06    -124.883E+06    -256.640E+06    -84.4936E+06    -1.42471E+06
            1724     125.359E-03     4.99617E-03     125.259E-03     365.754E-03    -182.307E-03    -184.004E-03    -182.183E-03     365.629E-03    -184.004E-03     15.8456E-03     399.680E-03     131.880E+06    -62.3223E+06    -112.851E+06    -211.610E+06    -112.989E+06    -211.471E+06    -62.3223E+06     798.931E+03
            1725     125.398E-03     5.82760E-03     125.263E-03     365.740E-03    -182.408E-03    -183.840E-03    -182.078E-03     365.411E-03    -183.840E-03     26.2183E-03     412.115E-03     103.655E+06    -40.3218E+06    -99.8245E+06    -159.088E+06    -101.222E+06    -157.691E+06    -40.3218E+06     5.62203E+06
            1726     125.460E-03     6.65914E-03     125.284E-03     365.700E-03    -182.193E-03    -183.869E-03    -181.484E-03     364.992E-03    -183.869E-03     38.7866E-03     425.566E-03     84.2152E+06    -16.4666E+06    -70.8294E+06    -113.101E+06    -90.4092E+06    -93.5207E+06    -16.4666E+06     13.6667E+06
            1727     125.552E-03     7.49291E-03     125.329E-03     366.390E-03    -182.081E-03    -184.079E-03    -180.667E-03     364.976E-03    -184.079E-03     54.8450E-03     440.327E-03     91.7016E+06     11.6509E+06    -13.4877E+06    -87.3449E+06    -80.0412E+06    -18.1510E+06     9.01045E+06     20.6766E+06
            1728     125.680E-03     8.32323E-03     125.405E-03     367.144E-03    -183.036E-03    -184.166E-03    -180.599E-03     364.586E-03    -184.045E-03     74.1743E-03     457.112E-03     109.915E+06     38.0091E+06     32.5038E+06    -74.5395E+06    -70.0600E+06     32.5679E+06     33.4655E+06     21.7377E+06
            1729     125.837E-03     9.15240E-03     125.503E-03     368.062E-03    -183.990E-03    -184.748E-03    -180.327E-03     363.677E-03    -184.025E-03     97.2076E-03     472.731E-03     115.390E+06     58.4551E+06     45.9543E+06    -62.5062E+06    -59.3591E+06     44.7103E+06     56.5520E+06     18.2566E+06
            1730     126.030E-03     9.98770E-03     125.633E-03     369.933E-03    -184.070E-03    -186.535E-03    -179.765E-03     363.163E-03    -184.070E-03     121.501E-03     485.926E-03     117.906E+06     76.4930E+06     54.4251E+06    -50.8478E+06    -48.6033E+06     52.1807E+06     76.4930E+06     15.1303E+06
            1731     126.254E-03     10.8214E-03     125.789E-03     372.060E-03    -184.004E-03    -188.486E-03    -179.822E-03     363.396E-03    -184.004E-03     138.200E-03     494.076E-03     115.364E+06     86.4661E+06     59.1295E+06    -40.0353E+06    -38.7295E+06     57.8237E+06     86.4661E+06     10.9643E+06
            1732     126.518E-03     11.6546E-03     125.980E-03     378.153E-03    -183.930E-03    -193.677E-03    -181.244E-03     365.720E-03    -183.930E-03     165.567E-03     505.158E-03     106.056E+06     85.8517E+06     60.2609E+06    -30.5809E+06    -30.0409E+06     59.7210E+06     85.8517E+06     6.81575E+06
            1733     126.852E-03     12.4887E-03     126.236E-03     379.809E-03    -183.717E-03    -195.662E-03    -182.374E-03     366.521E-03    -183.717E-03     172.274E-03     504.931E-03     99.9461E+06     85.2208E+06     65.5156E+06    -23.0865E+06    -22.6943E+06     65.1234E+06     85.2208E+06     5.69610E+06
            1734     127.138E-03     13.3233E-03     126.438E-03     393.262E-03    -184.063E-03    -209.432E-03    -187.636E-03     371.466E-03    -184.063E-03     218.633E-03     538.474E-03     103.160E+06     95.9343E+06     76.3734E+06    -15.6034E+06    -15.3044E+06     76.0744E+06     95.9343E+06     4.68282E+06
            1735     127.600E-03     14.1580E-03     126.813E-03     391.576E-03    -183.969E-03    -207.354E-03    -187.286E-03     371.508E-03    -183.969E-03     204.932E-03     517.169E-03     117.712E+06     118.470E+06     98.0626E+06    -8.08987E+06    -7.96904E+06     97.9418E+06     118.470E+06     2.53028E+06
            1736     126.806E-03     832.235E-06     126.804E-03     366.132E-03    -182.508E-03    -183.783E-03    -183.586E-03     366.131E-03    -182.704E-03    -1.37675E-03     367.547E-03     192.696E+06    -157.484E+06    -162.746E+06    -352.750E+06    -161.402E+06    -352.666E+06    -158.912E+06    -1.90039E+06
            1737     126.789E-03     1.66578E-03     126.778E-03     365.517E-03    -182.706E-03    -183.057E-03    -182.704E-03     365.515E-03    -183.057E-03    -1.82134E-03     369.868E-03     182.732E+06    -149.285E+06    -156.511E+06    -335.502E+06    -156.725E+06    -335.288E+06    -149.285E+06    -5.40475E+06
            1738     126.780E-03     2.49840E-03     126.755E-03     365.909E-03    -182.891E-03    -183.252E-03    -183.094E-03     365.908E-03    -183.049E-03    -424.240E-06     375.104E-03     171.964E+06    -134.541E+06    -149.295E+06    -313.332E+06    -149.656E+06    -312.970E+06    -134.541E+06    -7.21185E+06
            1739     126.772E-03     3.33082E-03     126.729E-03     366.534E-03    -183.127E-03    -183.541E-03    -183.322E-03     366.526E-03    -183.337E-03     3.34511E-03     382.240E-03     163.524E+06    -114.655E+06    -140.296E+06    -289.382E+06    -140.819E+06    -288.860E+06    -114.655E+06    -8.03867E+06
            1740     126.779E-03     4.16325E-03     126.711E-03     366.293E-03    -182.946E-03    -183.749E-03    -182.907E-03     366.255E-03    -183.749E-03     8.67536E-03     390.268E-03     149.573E+06    -93.2243E+06    -129.059E+06    -257.313E+06    -129.621E+06    -256.751E+06    -93.2243E+06    -7.70256E+06
            1741     126.800E-03     4.99491E-03     126.702E-03     365.806E-03    -182.626E-03    -183.865E-03    -182.500E-03     365.680E-03    -183.865E-03     15.9869E-03     399.699E-03     127.922E+06    -72.1597E+06    -118.175E+06    -216.390E+06    -118.587E+06    -215.978E+06    -72.1597E+06    -5.42376E+06
            1742     126.844E-03     5.82817E-03     126.710E-03     365.671E-03    -182.600E-03    -183.733E-03    -182.272E-03     365.344E-03    -183.733E-03     26.1613E-03     412.049E-03     104.395E+06    -50.4992E+06    -106.604E+06    -170.295E+06    -107.066E+06    -169.834E+06    -50.4992E+06    -720.268E+03
            1743     126.903E-03     6.66074E-03     126.728E-03     365.942E-03    -182.575E-03    -183.778E-03    -181.867E-03     365.235E-03    -183.778E-03     38.7615E-03     425.649E-03     83.2284E+06    -27.1417E+06    -84.6940E+06    -122.010E+06    -93.9285E+06    -112.775E+06    -27.1417E+06     7.60622E+06
            1744     126.995E-03     7.49102E-03     126.774E-03     366.620E-03    -182.375E-03    -184.049E-03    -180.933E-03     365.177E-03    -184.049E-03     55.3551E-03     440.345E-03     84.9669E+06     2.22302E+06    -27.3433E+06    -88.5272E+06    -80.7579E+06    -33.1812E+06     291.679E+03     16.9038E+06
            1745     127.126E-03     8.32302E-03     126.853E-03     366.886E-03    -182.764E-03    -184.192E-03    -180.216E-03     364.218E-03    -184.071E-03     75.6660E-03     456.706E-03     105.598E+06     34.5837E+06     28.3050E+06    -73.9962E+06    -69.3231E+06     29.4672E+06     28.7483E+06     21.7948E+06
            1746     127.284E-03     9.15459E-03     126.954E-03     367.580E-03    -183.682E-03    -184.449E-03    -179.644E-03     363.122E-03    -184.029E-03     98.0939E-03     472.286E-03     117.707E+06     57.7976E+06     49.4701E+06    -63.7548E+06    -60.2051E+06     49.8245E+06     53.8936E+06     19.6931E+06
            1747     127.469E-03     9.98815E-03     127.077E-03     369.483E-03    -184.021E-03    -185.990E-03    -179.236E-03     362.728E-03    -184.021E-03     121.249E-03     485.344E-03     120.941E+06     76.0615E+06     58.6241E+06    -52.3105E+06    -50.2780E+06     56.5915E+06     76.0615E+06     14.7151E+06
            1748     127.695E-03     10.8232E-03     127.236E-03     371.585E-03    -183.943E-03    -188.121E-03    -179.490E-03     362.954E-03    -183.943E-03     137.842E-03     493.368E-03     119.950E+06     89.8407E+06     64.5719E+06    -40.6925E+06    -39.4983E+06     63.3777E+06     89.8407E+06     10.8313E+06
            1749     127.956E-03     11.6559E-03     127.424E-03     377.579E-03    -183.865E-03    -193.491E-03    -181.120E-03     365.208E-03    -183.865E-03     165.050E-03     504.814E-03     110.951E+06     90.1757E+06     65.2249E+06    -31.0861E+06    -30.4971E+06     64.6359E+06     90.1757E+06     7.27120E+06
            1750     128.266E-03     12.4915E-03     127.657E-03     379.347E-03    -183.648E-03    -195.573E-03    -182.190E-03     365.965E-03    -183.648E-03     172.875E-03     504.391E-03     101.158E+06     87.3349E+06     64.7150E+06    -23.1857E+06    -22.8168E+06     64.3461E+06     87.3349E+06     5.47811E+06
            1751     128.553E-03     13.3245E-03     127.861E-03     391.689E-03    -183.833E-03    -208.081E-03    -185.980E-03     369.589E-03    -183.833E-03     219.570E-03     536.764E-03     105.512E+06     97.2058E+06     78.8245E+06    -16.2161E+06    -15.9307E+06     78.5392E+06     97.2058E+06     4.13321E+06
            1752     129.033E-03     14.1630E-03     128.254E-03     388.803E-03    -183.640E-03    -205.134E-03    -184.707E-03     368.376E-03    -183.640E-03     206.278E-03     514.823E-03     120.716E+06     120.964E+06     102.059E+06    -8.04241E+06    -7.93824E+06     101.955E+06     120.964E+06     1.65522E+06
            1753     128.247E-03     833.104E-06     128.245E-03     365.651E-03    -182.348E-03    -183.410E-03    -183.341E-03     365.649E-03    -182.415E-03    -1.59106E-03     367.006E-03     182.386E+06    -157.236E+06    -161.496E+06    -341.702E+06    -159.759E+06    -341.483E+06    -159.192E+06    -4.84987E+06
            1754     128.231E-03     1.66503E-03     128.220E-03     365.349E-03    -182.680E-03    -182.877E-03    -182.678E-03     365.347E-03    -182.877E-03    -1.68659E-03     369.551E-03     171.857E+06    -148.898E+06    -156.718E+06    -324.491E+06    -156.574E+06    -324.106E+06    -149.426E+06    -7.69793E+06
            1755     128.219E-03     2.49857E-03     128.194E-03     365.350E-03    -182.701E-03    -182.888E-03    -182.700E-03     365.349E-03    -182.888E-03     81.2028E-06     374.325E-03     161.741E+06    -136.715E+06    -150.912E+06    -305.038E+06    -151.726E+06    -304.225E+06    -136.715E+06    -10.7834E+06
            1756     128.218E-03     3.33190E-03     128.175E-03     365.933E-03    -182.949E-03    -183.084E-03    -182.941E-03     365.925E-03    -183.084E-03     3.58731E-03     381.324E-03     152.905E+06    -120.222E+06    -143.118E+06    -283.191E+06    -144.315E+06    -281.994E+06    -120.222E+06    -12.7321E+06
            1757     128.224E-03     4.16408E-03     128.156E-03     366.252E-03    -183.164E-03    -183.479E-03    -183.120E-03     366.208E-03    -183.479E-03     9.19895E-03     389.993E-03     140.976E+06    -100.945E+06    -134.326E+06    -255.457E+06    -135.847E+06    -253.936E+06    -100.945E+06    -13.1024E+06
            1758     128.245E-03     4.99629E-03     128.148E-03     366.101E-03    -183.104E-03    -183.692E-03    -182.959E-03     365.956E-03    -183.692E-03     17.2403E-03     399.954E-03     122.813E+06    -81.0800E+06    -123.709E+06    -219.331E+06    -125.587E+06    -217.454E+06    -81.0800E+06    -12.4734E+06
            1759     128.288E-03     5.82767E-03     128.156E-03     365.999E-03    -182.916E-03    -183.657E-03    -182.558E-03     365.642E-03    -183.657E-03     27.4077E-03     412.222E-03     104.297E+06    -59.7454E+06    -110.763E+06    -179.262E+06    -112.514E+06    -177.511E+06    -59.7454E+06    -9.62156E+06
            1760     128.351E-03     6.65923E-03     128.178E-03     365.967E-03    -182.674E-03    -183.714E-03    -181.928E-03     365.222E-03    -183.714E-03     39.8129E-03     425.553E-03     83.1868E+06    -37.2059E+06    -94.2691E+06    -131.661E+06    -97.7352E+06    -128.195E+06    -37.2059E+06    -4.35974E+06
            1761     128.441E-03     7.49214E-03     128.223E-03     366.297E-03    -182.318E-03    -183.975E-03    -180.803E-03     364.782E-03    -183.975E-03     56.6946E-03     440.064E-03     73.8335E+06    -11.0876E+06    -47.4893E+06    -91.3711E+06    -82.1075E+06    -56.7529E+06    -11.0876E+06     6.50903E+06
            1762     128.571E-03     8.32326E-03     128.301E-03     366.186E-03    -182.374E-03    -184.012E-03    -179.671E-03     363.483E-03    -184.012E-03     76.2193E-03     456.120E-03     93.0715E+06     26.8108E+06     11.9136E+06    -72.1275E+06    -67.9911E+06     15.6838E+06     18.9041E+06     18.9943E+06
            1763     128.726E-03     9.15620E-03     128.400E-03     367.074E-03    -183.323E-03    -184.224E-03    -179.161E-03     362.642E-03    -183.955E-03     97.6905E-03     471.616E-03     116.395E+06     59.8367E+06     48.5717E+06    -61.5392E+06    -57.3783E+06     55.3306E+06     48.9169E+06     21.7777E+06
            1764     128.919E-03     9.99051E-03     128.531E-03     369.277E-03    -183.894E-03    -185.827E-03    -179.137E-03     362.588E-03    -183.894E-03     120.655E-03     485.081E-03     122.816E+06     78.2337E+06     64.1075E+06    -50.7251E+06    -48.4785E+06      64.874E+06     75.2205E+06     15.7402E+06
            1765     129.122E-03     10.8237E-03     128.668E-03     371.268E-03    -183.840E-03    -188.146E-03    -179.467E-03     362.588E-03    -183.840E-03     138.135E-03     493.027E-03     121.363E+06     91.5430E+06     67.2138E+06    -39.9551E+06    -38.8967E+06     66.1554E+06     91.5430E+06     10.5273E+06
            1766     129.373E-03     11.6572E-03     128.846E-03     377.177E-03    -183.813E-03    -193.205E-03    -180.753E-03     364.725E-03    -183.813E-03     165.583E-03     504.347E-03     115.247E+06     94.4891E+06     69.5780E+06    -31.0658E+06    -30.1415E+06     68.6537E+06     94.4891E+06     9.14161E+06
            1767     129.684E-03     12.4936E-03     129.080E-03     377.957E-03    -183.449E-03    -194.024E-03    -180.513E-03     364.446E-03    -183.449E-03     173.347E-03     503.078E-03     105.662E+06     91.5568E+06     68.5232E+06    -23.6699E+06    -23.0333E+06     67.8866E+06     91.5568E+06     6.63106E+06
            1768     129.994E-03     13.3286E-03     129.308E-03     389.255E-03    -183.370E-03    -205.689E-03    -183.311E-03     366.877E-03    -183.370E-03     220.184E-03     533.599E-03     108.474E+06     100.833E+06     82.2972E+06    -15.5759E+06    -15.3738E+06     82.0950E+06     100.833E+06     3.25443E+06
            1769     130.460E-03     14.1682E-03     129.689E-03     386.802E-03    -183.152E-03    -203.407E-03    -182.637E-03     366.033E-03    -183.152E-03     207.782E-03     511.810E-03     123.974E+06     125.248E+06     105.763E+06    -7.24465E+06    -7.19050E+06     105.709E+06     125.248E+06     1.44485E+06
            1770     129.689E-03     832.943E-06     129.687E-03     364.270E-03    -181.829E-03    -182.550E-03    -182.137E-03     364.269E-03    -182.242E-03    -729.906E-06     365.591E-03     165.489E+06    -158.843E+06    -162.330E+06    -326.023E+06    -162.129E+06    -325.696E+06    -159.372E+06    -5.79761E+06
            1771     129.669E-03     1.66682E-03     129.659E-03     364.587E-03    -182.269E-03    -182.502E-03    -182.469E-03     364.587E-03    -182.301E-03    -167.848E-06     368.626E-03     157.639E+06    -149.300E+06    -157.250E+06    -310.723E+06    -157.473E+06    -309.971E+06    -149.828E+06    -10.0052E+06
            1772     129.656E-03     2.49935E-03     129.632E-03     365.211E-03    -182.478E-03    -182.984E-03    -182.907E-03     365.209E-03    -182.553E-03     1.68958E-03     373.959E-03     152.703E+06    -133.438E+06    -148.977E+06    -293.199E+06    -150.266E+06    -291.910E+06    -133.438E+06    -13.3717E+06
            1773     129.652E-03     3.33222E-03     129.609E-03     365.829E-03    -182.794E-03    -183.177E-03    -183.067E-03     365.817E-03    -182.891E-03     4.78091E-03     381.009E-03     148.297E+06    -116.490E+06    -141.134E+06    -275.476E+06    -142.958E+06    -273.652E+06    -116.490E+06    -15.3915E+06
            1774     129.666E-03     4.16496E-03     129.599E-03     365.972E-03    -183.015E-03    -183.314E-03    -183.023E-03     365.924E-03    -183.258E-03     9.78070E-03     389.625E-03     136.404E+06    -100.267E+06    -131.904E+06    -249.619E+06    -134.653E+06    -246.870E+06    -100.267E+06    -17.3723E+06
            1775     129.692E-03     4.99690E-03     129.596E-03     365.816E-03    -183.064E-03    -183.487E-03    -182.908E-03     365.660E-03    -183.487E-03     17.8418E-03     399.591E-03     119.524E+06    -82.9347E+06    -121.041E+06    -216.734E+06    -125.019E+06    -212.756E+06    -82.9347E+06    -18.7839E+06
            1776     129.736E-03     5.82881E-03     129.605E-03     365.748E-03    -182.964E-03    -183.516E-03    -182.570E-03     365.354E-03    -183.516E-03     28.7727E-03     411.912E-03     104.398E+06    -64.8827E+06    -109.397E+06    -183.916E+06    -114.669E+06    -178.643E+06    -64.8827E+06    -18.4870E+06
            1777     129.793E-03     6.66064E-03     129.622E-03     365.697E-03    -182.644E-03    -183.557E-03    -181.831E-03     364.883E-03    -183.557E-03     41.6345E-03     425.263E-03     85.1497E+06    -45.3516E+06    -96.4285E+06    -142.776E+06    -103.230E+06    -135.975E+06    -45.3516E+06    -15.3645E+06
            1778     129.876E-03     7.49282E-03     129.659E-03     366.140E-03    -182.301E-03    -183.812E-03    -180.705E-03     364.544E-03    -183.812E-03     58.2651E-03     439.777E-03     68.6878E+06    -24.2240E+06    -69.0840E+06    -102.483E+06    -90.0832E+06    -81.4843E+06    -24.2240E+06    -6.28161E+06
            1779     130.002E-03     8.32469E-03     129.735E-03     366.242E-03    -182.477E-03    -183.861E-03    -179.715E-03     363.480E-03    -183.861E-03     77.1140E-03     455.931E-03     79.5661E+06     10.8425E+06    -15.5293E+06    -77.0179E+06    -74.4811E+06    -9.16756E+06     1.94391E+06     7.37777E+06
            1780     130.149E-03     9.15623E-03     129.826E-03     367.006E-03    -183.329E-03    -184.048E-03    -179.077E-03     362.492E-03    -183.786E-03     98.5425E-03     471.245E-03     107.098E+06     53.7627E+06     34.0912E+06    -61.6246E+06    -58.9849E+06     51.1231E+06     34.0912E+06     16.5812E+06
            1781     130.330E-03     9.99146E-03     129.946E-03     368.835E-03    -183.700E-03    -185.593E-03    -178.899E-03     362.141E-03    -183.700E-03     120.714E-03     484.675E-03     122.381E+06     79.3174E+06     63.1777E+06    -50.0411E+06    -47.6035E+06     73.2982E+06     66.7593E+06     17.1134E+06
            1782     130.562E-03     10.8261E-03     130.112E-03     370.772E-03    -183.679E-03    -187.949E-03    -179.357E-03     362.180E-03    -183.679E-03     137.355E-03     492.476E-03     123.934E+06     91.0546E+06     71.2352E+06    -41.2549E+06    -39.6953E+06     71.4609E+06     89.2694E+06     13.0474E+06
            1783     130.814E-03     11.6585E-03     130.293E-03     375.660E-03    -183.700E-03    -192.005E-03    -179.545E-03     363.200E-03    -183.700E-03     165.142E-03     502.944E-03     118.656E+06     96.9520E+06     70.4843E+06    -32.6094E+06    -31.5457E+06     69.4205E+06     96.9520E+06     9.82869E+06
            1784     131.121E-03     12.4981E-03     130.524E-03     375.007E-03    -183.210E-03    -191.478E-03    -177.880E-03     361.409E-03    -183.210E-03     173.044E-03     500.544E-03     111.018E+06     97.8931E+06     74.9563E+06     -22.735E+06    -22.0534E+06     74.2747E+06     97.8931E+06     7.09634E+06
            1785     131.412E-03     13.3349E-03     130.734E-03     386.241E-03    -182.802E-03    -203.304E-03    -180.392E-03     363.329E-03    -182.802E-03     221.411E-03     529.800E-03     112.677E+06     106.749E+06     87.1544E+06    -14.3691E+06    -14.1100E+06     86.8953E+06     106.749E+06     3.11296E+06
            1786     131.888E-03     14.1786E-03     131.124E-03     384.080E-03    -182.545E-03    -201.270E-03    -179.724E-03     362.534E-03    -182.545E-03     211.070E-03     507.915E-03     127.457E+06     129.766E+06     106.897E+06    -7.51529E+06    -7.40667E+06     106.788E+06     129.766E+06     1.80583E+06
            1787     131.122E-03     835.094E-06     131.119E-03     362.262E-03    -180.623E-03    -181.638E-03    -181.228E-03     362.262E-03    -181.034E-03     225.321E-06     363.569E-03     144.129E+06    -161.317E+06    -165.696E+06    -307.566E+06    -165.149E+06    -307.095E+06    -162.336E+06    -6.74358E+06
            1788     131.103E-03     1.66868E-03     131.092E-03     363.533E-03    -181.456E-03    -182.185E-03    -182.177E-03     363.533E-03    -181.464E-03     441.205E-06     367.358E-03     138.432E+06    -149.856E+06    -159.273E+06    -292.662E+06    -160.469E+06    -291.466E+06    -149.856E+06    -12.1665E+06
            1789     131.090E-03     2.50199E-03     131.067E-03     364.716E-03    -182.011E-03    -182.859E-03    -182.856E-03     364.713E-03    -182.011E-03     2.24997E-03     373.174E-03     138.447E+06    -135.006E+06    -152.087E+06    -281.085E+06    -154.181E+06    -278.991E+06    -135.006E+06    -15.9662E+06
            1790     131.092E-03     3.33368E-03     131.049E-03     365.163E-03    -182.403E-03    -182.893E-03    -182.802E-03     365.143E-03    -182.474E-03     6.08896E-03     380.244E-03     137.622E+06    -116.309E+06    -141.283E+06    -264.639E+06    -144.570E+06    -261.352E+06    -116.309E+06    -19.1990E+06
            1791     131.104E-03     4.16558E-03     131.038E-03     365.139E-03    -182.596E-03    -182.838E-03    -182.577E-03     365.064E-03    -182.782E-03     12.1174E-03     388.794E-03     128.688E+06    -98.8588E+06    -128.856E+06    -239.851E+06    -134.056E+06    -234.651E+06    -98.8588E+06    -22.6427E+06
            1792     131.128E-03     4.99773E-03     131.033E-03     365.031E-03    -182.695E-03    -183.060E-03    -182.563E-03     364.830E-03    -182.991E-03     20.3322E-03     398.795E-03     116.857E+06    -82.0162E+06    -116.089E+06    -212.057E+06    -123.114E+06    -205.032E+06    -82.0162E+06    -24.5556E+06
            1793     131.168E-03     5.83058E-03     131.038E-03     365.143E-03    -182.685E-03    -183.189E-03    -182.378E-03     364.707E-03    -183.060E-03     30.3782E-03     411.198E-03     104.940E+06    -65.0512E+06    -104.035E+06    -183.764E+06    -112.907E+06    -174.891E+06    -65.0512E+06    -24.6999E+06
            1794     131.234E-03     6.66310E-03     131.065E-03     365.589E-03    -182.716E-03    -183.238E-03    -181.940E-03     364.753E-03    -183.178E-03     42.2892E-03     424.970E-03     89.8842E+06    -47.3088E+06    -91.6815E+06    -150.193E+06    -102.440E+06    -139.434E+06    -47.3088E+06    -22.3249E+06
            1795     131.317E-03     7.49557E-03     131.103E-03     366.102E-03    -182.528E-03    -183.553E-03    -180.914E-03     364.488E-03    -183.553E-03     58.5984E-03     439.622E-03     73.9350E+06    -28.5012E+06    -73.3076E+06    -113.440E+06    -90.9062E+06    -95.8414E+06    -28.5012E+06    -17.0270E+06
            1796     131.443E-03     8.32684E-03     131.179E-03     365.963E-03    -182.334E-03    -183.645E-03    -179.531E-03     363.160E-03    -183.645E-03     77.6443E-03     455.139E-03     70.2941E+06    -5.18859E+06    -33.1487E+06    -83.3291E+06    -78.3596E+06    -35.1253E+06    -8.18153E+06    -7.02675E+06
            1797     131.585E-03     9.16062E-03     131.266E-03     367.088E-03    -182.933E-03    -184.171E-03    -179.014E-03     362.488E-03    -183.489E-03     99.4897E-03     470.396E-03     93.9914E+06     37.8260E+06     12.5987E+06    -65.9090E+06    -64.8728E+06     32.8608E+06     16.5278E+06     6.22418E+06
            1798     131.771E-03     9.99485E-03     131.391E-03     368.888E-03    -183.454E-03    -185.635E-03    -178.851E-03     362.104E-03    -183.454E-03     121.550E-03     484.435E-03     116.816E+06     72.5705E+06     47.3430E+06    -54.1096E+06    -52.5133E+06     70.9743E+06     47.3430E+06     13.7645E+06
            1799     131.994E-03     10.8269E-03     131.550E-03     369.905E-03    -183.399E-03    -186.891E-03    -178.155E-03     361.169E-03    -183.399E-03     138.180E-03     491.320E-03     123.294E+06     85.5356E+06     71.5850E+06    -43.8645E+06    -42.1656E+06     76.8083E+06     78.6133E+06     14.1960E+06
            1800     132.239E-03     11.6633E-03     131.724E-03     373.135E-03    -183.288E-03    -189.978E-03    -177.331E-03     360.488E-03    -183.288E-03     165.692E-03     500.711E-03     121.773E+06     97.5047E+06     75.9185E+06    -33.2150E+06    -32.1965E+06     74.9000E+06     97.5047E+06     10.0129E+06
            1801     132.547E-03     12.5041E-03     131.955E-03     371.557E-03    -182.805E-03    -188.938E-03    -175.089E-03     357.708E-03    -182.805E-03     173.691E-03     497.600E-03     116.973E+06     103.787E+06     78.8067E+06    -23.6052E+06    -23.1923E+06     78.3938E+06     103.787E+06     5.69458E+06
            1802     132.836E-03     13.3438E-03     132.165E-03     382.752E-03    -182.167E-03    -200.414E-03    -176.905E-03     359.242E-03    -182.167E-03     222.937E-03     525.785E-03     119.162E+06     113.136E+06     91.5204E+06    -15.3456E+06    -14.9311E+06     91.1059E+06     113.136E+06     4.18100E+06
            1803     133.311E-03     14.1909E-03     132.553E-03     378.261E-03    -179.684E-03    -198.594E-03    -174.258E-03     355.901E-03    -181.660E-03     213.836E-03     501.703E-03     131.348E+06     134.854E+06     108.223E+06    -7.74244E+06    -7.46048E+06     107.941E+06     134.854E+06     3.47237E+06
            1804     132.553E-03     835.219E-06     132.551E-03     361.625E-03    -180.100E-03    -181.495E-03    -181.495E-03     361.624E-03    -180.100E-03    -31.4690E-06     362.965E-03     137.391E+06    -146.242E+06    -150.076E+06    -285.509E+06    -149.541E+06    -285.025E+06    -147.261E+06    -7.43914E+06
            1805     132.535E-03     1.66941E-03     132.524E-03     362.510E-03    -180.887E-03    -181.613E-03    -181.466E-03     362.509E-03    -181.034E-03     929.826E-06     366.387E-03     132.608E+06    -137.338E+06    -146.144E+06    -274.025E+06    -147.308E+06    -272.861E+06    -137.338E+06    -11.7686E+06
            1806     132.526E-03     2.50195E-03     132.502E-03     362.946E-03    -181.125E-03    -181.866E-03    -181.532E-03     362.936E-03    -181.449E-03     3.78239E-03     371.316E-03     133.255E+06    -123.571E+06    -140.073E+06    -264.253E+06    -142.576E+06    -261.749E+06    -123.571E+06    -17.0794E+06
            1807     132.529E-03     3.33587E-03     132.487E-03     363.103E-03    -181.424E-03    -181.816E-03    -181.517E-03     363.063E-03    -181.683E-03     8.62527E-03     377.947E-03     129.969E+06    -110.427E+06    -131.533E+06    -249.571E+06    -136.236E+06    -244.869E+06    -110.427E+06    -22.7367E+06
            1808     132.541E-03     4.16973E-03     132.476E-03     363.552E-03    -181.769E-03    -182.132E-03    -181.913E-03     363.439E-03    -181.875E-03     15.2037E-03     387.118E-03     121.454E+06    -95.7091E+06    -121.250E+06    -227.791E+06    -128.746E+06    -220.294E+06    -95.7091E+06    -26.9877E+06
            1809     132.572E-03     5.00264E-03     132.478E-03     364.157E-03    -182.100E-03    -182.806E-03    -182.525E-03     363.901E-03    -182.124E-03     23.2506E-03     397.982E-03     113.353E+06    -80.3182E+06    -111.087E+06    -205.815E+06    -120.898E+06    -196.005E+06    -80.3182E+06    -28.7265E+06
            1810     132.614E-03     5.83408E-03     132.486E-03     364.864E-03    -182.272E-03    -183.106E-03    -182.586E-03     364.344E-03    -182.272E-03     33.2099E-03     410.481E-03     102.909E+06    -65.4393E+06    -100.693E+06    -181.270E+06    -112.868E+06    -169.096E+06    -65.4393E+06    -28.4556E+06
            1811     132.675E-03     6.66520E-03     132.507E-03     365.672E-03    -182.507E-03    -183.095E-03    -182.078E-03     364.729E-03    -182.581E-03     44.9725E-03     424.114E-03     91.5060E+06    -50.2968E+06    -88.6330E+06    -154.667E+06    -104.490E+06    -138.810E+06    -50.2968E+06    -27.4895E+06
            1812     132.758E-03     7.49718E-03     132.547E-03     365.835E-03    -182.356E-03    -183.165E-03    -180.738E-03     364.111E-03    -183.059E-03     60.5657E-03     438.681E-03     79.3295E+06    -33.8853E+06    -71.9975E+06    -124.922E+06    -95.2808E+06    -101.639E+06    -33.8853E+06    -24.6189E+06
            1813     132.874E-03     8.33059E-03     132.613E-03     365.312E-03    -182.176E-03    -183.396E-03    -179.448E-03     362.377E-03    -183.189E-03     79.3855E-03     453.783E-03     70.4884E+06    -16.3881E+06    -41.9731E+06    -95.2863E+06    -84.6032E+06    -52.6562E+06    -16.3881E+06    -17.8070E+06
            1814     133.019E-03     9.16453E-03     132.703E-03     366.375E-03    -182.668E-03    -184.061E-03    -178.878E-03     361.576E-03    -183.052E-03     101.505E-03     468.806E-03     83.1159E+06     18.2713E+06    -3.85464E+06    -73.4190E+06    -71.2136E+06     8.76059E+06     3.45064E+06    -6.06771E+06
            1815     133.217E-03     9.99684E-03     132.842E-03     367.828E-03    -182.946E-03    -184.851E-03    -177.696E-03     360.674E-03    -182.946E-03     124.475E-03     482.568E-03     104.745E+06     58.3838E+06     27.8206E+06    -57.8212E+06    -57.1840E+06     57.7466E+06     27.8206E+06     4.78428E+06
            1816     133.439E-03     10.8322E-03     132.998E-03     368.182E-03    -182.767E-03    -185.286E-03    -175.923E-03     358.818E-03    -182.767E-03     142.495E-03     488.832E-03     115.261E+06      77.575E+06     59.6618E+06    -44.6850E+06    -43.8866E+06     76.0138E+06     60.4246E+06     9.15996E+06
            1817     133.682E-03     11.6698E-03     133.172E-03     370.661E-03    -182.591E-03    -188.028E-03    -174.645E-03     357.278E-03    -182.591E-03     169.773E-03     498.017E-03     119.291E+06     91.5212E+06     79.7194E+06    -32.9013E+06    -32.1952E+06     80.4212E+06     90.1134E+06     8.50951E+06
            1818     133.983E-03     12.5124E-03     133.398E-03     368.970E-03    -182.058E-03    -186.844E-03    -172.317E-03     354.443E-03    -182.058E-03     177.022E-03     494.903E-03     119.757E+06     105.670E+06     83.2516E+06    -23.4983E+06    -23.0444E+06     82.7976E+06     105.670E+06     6.13475E+06
            1819     134.271E-03     13.3558E-03     133.605E-03     378.848E-03    -181.271E-03    -197.515E-03    -172.615E-03     353.948E-03    -181.271E-03     227.454E-03     521.965E-03     123.503E+06     118.823E+06     92.6926E+06    -15.6291E+06    -15.1909E+06     92.2543E+06     118.823E+06     5.70433E+06
            1820     134.732E-03     14.2048E-03     133.981E-03     368.919E-03    -173.648E-03    -195.868E-03    -165.241E-03     345.034E-03    -180.390E-03     218.054E-03     492.850E-03     136.386E+06     141.076E+06     110.651E+06    -7.93803E+06    -7.62266E+06     110.335E+06     141.076E+06     5.24563E+06
            1821     133.995E-03     834.103E-06     133.992E-03     359.987E-03    -179.458E-03    -180.513E-03    -180.339E-03     359.980E-03    -179.625E-03     2.42704E-03     361.339E-03     129.477E+06    -133.293E+06    -137.682E+06    -264.906E+06    -136.650E+06    -264.564E+06    -134.668E+06    -5.94949E+06
            1822     133.974E-03     1.66919E-03     133.964E-03     359.813E-03    -179.688E-03    -180.133E-03    -179.734E-03     359.799E-03    -180.073E-03     4.48124E-03     363.767E-03     125.187E+06    -126.098E+06    -132.819E+06    -254.489E+06    -133.945E+06    -253.362E+06    -126.098E+06    -11.0451E+06
            1823     133.969E-03     2.50639E-03     133.945E-03     360.031E-03    -179.797E-03    -180.329E-03    -179.905E-03     360.003E-03    -180.193E-03     7.36093E-03     368.294E-03     124.605E+06    -113.489E+06    -126.480E+06    -244.026E+06    -129.043E+06    -241.463E+06    -113.489E+06    -16.7417E+06
            1824     133.973E-03     3.34122E-03     133.932E-03     360.705E-03    -180.159E-03    -180.729E-03    -180.476E-03     360.639E-03    -180.346E-03     11.6603E-03     375.324E-03     121.613E+06    -100.957E+06    -119.455E+06    -230.691E+06    -124.405E+06    -225.741E+06    -100.957E+06    -22.5294E+06
            1825     133.992E-03     4.17436E-03     133.927E-03     361.755E-03    -180.629E-03    -181.475E-03    -181.302E-03     361.592E-03    -180.639E-03     18.2821E-03     385.008E-03     114.810E+06    -88.9949E+06    -111.760E+06    -213.407E+06    -119.443E+06    -205.724E+06    -88.9949E+06    -26.6848E+06
            1826     134.023E-03     5.00627E-03     133.929E-03     362.726E-03    -181.011E-03    -182.331E-03    -181.987E-03     362.382E-03    -181.011E-03     26.8088E-03     395.896E-03     108.687E+06    -75.7492E+06    -103.881E+06    -195.680E+06    -114.314E+06    -185.247E+06    -75.7492E+06    -28.9488E+06
            1827     134.065E-03     5.83901E-03     133.938E-03     363.455E-03    -181.265E-03    -182.621E-03    -181.943E-03     362.777E-03    -181.265E-03     37.7834E-03     407.994E-03     101.598E+06    -61.7440E+06    -94.2982E+06    -175.579E+06    -107.686E+06    -162.191E+06    -61.7440E+06    -29.9110E+06
            1828     134.132E-03     6.67133E-03     133.966E-03     364.554E-03    -181.618E-03    -182.672E-03    -181.454E-03     363.337E-03    -181.618E-03     50.9928E-03     421.669E-03     91.2412E+06    -48.5845E+06    -83.1532E+06    -152.000E+06    -101.193E+06    -133.960E+06    -48.5845E+06    -29.6040E+06
            1829     134.210E-03     7.50386E-03     134.000E-03     365.220E-03    -181.810E-03    -182.854E-03    -180.476E-03     363.132E-03    -182.100E-03     66.7954E-03     436.727E-03     81.7686E+06    -34.4321E+06    -67.7252E+06    -127.568E+06    -93.8142E+06    -101.479E+06    -34.4321E+06    -28.7961E+06
            1830     134.325E-03     8.33664E-03     134.066E-03     364.860E-03    -182.026E-03    -183.226E-03    -179.442E-03     361.366E-03    -182.316E-03     86.4066E-03     451.805E-03     74.7604E+06    -18.4383E+06    -42.4898E+06    -102.000E+06    -83.2302E+06    -61.2600E+06    -18.4383E+06    -25.5064E+06
            1831     134.474E-03     9.16887E-03     134.161E-03     364.945E-03    -182.168E-03    -183.531E-03    -177.964E-03     359.379E-03    -182.168E-03     109.107E-03     466.661E-03     76.4099E+06     3.19570E+06    -9.52225E+06    -78.4983E+06    -71.7546E+06    -11.9908E+06    -1.07947E+06    -17.7354E+06
            1832     134.663E-03     10.0058E-03     134.291E-03     365.656E-03    -181.946E-03    -183.782E-03    -175.647E-03     357.521E-03    -181.946E-03     132.129E-03     478.890E-03     93.3081E+06     41.6614E+06     16.7373E+06    -60.6958E+06    -59.2403E+06     40.0434E+06     16.8999E+06    -6.74600E+06
            1833     134.887E-03     10.8433E-03     134.450E-03     365.587E-03    -181.648E-03    -183.694E-03    -173.249E-03     355.141E-03    -181.648E-03     149.769E-03     484.072E-03     106.745E+06     71.0471E+06     40.6086E+06    -46.7566E+06    -46.5134E+06     70.8040E+06     40.6086E+06     504.783E+03
            1834     135.121E-03     11.6834E-03     134.615E-03     367.685E-03    -181.262E-03    -186.157E-03    -171.349E-03     352.877E-03    -181.262E-03     177.412E-03     493.179E-03     112.144E+06     82.3936E+06     68.7786E+06    -35.3933E+06    -35.2078E+06     78.5452E+06     72.4414E+06     2.94338E+06
            1835     135.422E-03     12.5301E-03     134.841E-03     365.677E-03    -180.522E-03    -184.786E-03    -168.462E-03     349.379E-03    -180.548E-03     186.151E-03     490.110E-03     116.406E+06     96.9535E+06     81.8481E+06    -26.0069E+06    -25.6259E+06     81.4670E+06     96.9535E+06     5.83784E+06
            1836     135.697E-03     13.3740E-03     135.037E-03     372.087E-03    -179.412E-03    -192.562E-03    -164.475E-03     344.025E-03    -179.438E-03     237.741E-03     514.700E-03     124.502E+06     116.801E+06     91.4861E+06    -18.3508E+06    -17.7832E+06     90.9184E+06     116.801E+06     7.24796E+06
            1837     136.145E-03     14.2398E-03     135.398E-03     358.089E-03    -167.566E-03    -190.868E-03    -153.371E-03     331.101E-03    -178.075E-03     227.073E-03     481.499E-03     142.393E+06     145.758E+06     113.428E+06    -10.0049E+06    -9.65582E+06     113.079E+06     145.758E+06     5.30736E+06
            1838     135.427E-03     838.133E-06     135.424E-03     354.454E-03    -176.989E-03    -177.478E-03    -177.301E-03     354.445E-03    -177.156E-03     4.34171E-03     355.743E-03     122.875E+06    -120.919E+06    -125.745E+06    -246.129E+06    -124.812E+06    -245.688E+06    -122.293E+06    -6.02894E+06
            1839     135.412E-03     1.67630E-03     135.401E-03     354.844E-03    -177.205E-03    -177.764E-03    -177.500E-03     354.819E-03    -177.444E-03     6.93063E-03     358.769E-03     117.889E+06    -114.305E+06    -118.942E+06    -234.419E+06    -120.349E+06    -233.013E+06    -114.305E+06    -12.0939E+06
            1840     135.414E-03     2.51133E-03     135.391E-03     355.663E-03    -177.618E-03    -178.281E-03    -178.141E-03     355.595E-03    -177.690E-03     11.3275E-03     364.013E-03     116.816E+06    -102.747E+06    -112.424E+06    -224.038E+06    -115.483E+06    -220.979E+06    -102.747E+06    -17.8956E+06
            1841     135.422E-03     3.34627E-03     135.381E-03     357.112E-03    -178.034E-03    -179.267E-03    -179.109E-03     356.954E-03    -178.034E-03     17.3941E-03     371.538E-03     117.626E+06    -87.7959E+06    -105.316E+06    -213.124E+06    -110.150E+06    -208.290E+06    -87.7959E+06    -22.1035E+06
            1842     135.440E-03     4.18114E-03     135.376E-03     358.674E-03    -178.547E-03    -180.139E-03    -179.819E-03     358.353E-03    -178.547E-03     25.3838E-03     380.890E-03     113.791E+06    -74.8732E+06    -98.1259E+06    -198.451E+06    -105.046E+06    -191.531E+06    -74.8732E+06    -25.1173E+06
            1843     135.472E-03     5.01590E-03     135.379E-03     359.761E-03    -179.100E-03    -180.679E-03    -180.084E-03     359.166E-03    -179.100E-03     35.0324E-03     391.199E-03     108.012E+06    -63.5203E+06    -90.1201E+06    -182.324E+06    -99.5200E+06    -172.924E+06    -63.5203E+06    -27.7102E+06
            1844     135.517E-03     5.84937E-03     135.391E-03     360.608E-03    -179.506E-03    -181.151E-03    -180.107E-03     359.564E-03    -179.506E-03     46.7117E-03     403.166E-03     102.246E+06    -51.8127E+06    -81.5141E+06    -165.589E+06    -93.7368E+06    -153.366E+06    -51.8127E+06    -29.3553E+06
            1845     135.585E-03     6.68311E-03     135.420E-03     361.416E-03    -179.816E-03    -181.403E-03    -179.686E-03     359.700E-03    -179.816E-03     60.2191E-03     416.611E-03     92.3277E+06    -39.8577E+06    -71.0088E+06    -143.695E+06    -87.1645E+06    -127.539E+06    -39.8577E+06    -29.8598E+06
            1846     135.664E-03     7.51724E-03     135.456E-03     362.287E-03    -180.155E-03    -181.952E-03    -179.163E-03     359.498E-03    -180.155E-03     76.8285E-03     431.816E-03     82.1446E+06    -26.8763E+06    -57.5603E+06    -119.928E+06    -80.8627E+06    -96.6260E+06    -26.8763E+06    -29.4041E+06
            1847     135.776E-03     8.35066E-03     135.519E-03     362.209E-03    -180.338E-03    -182.090E-03    -177.622E-03     357.740E-03    -180.338E-03     97.3313E-03     446.821E-03     75.9603E+06    -13.4681E+06    -39.2688E+06    -98.8858E+06    -75.5155E+06    -62.6391E+06    -13.4681E+06    -28.0514E+06
            1848     135.921E-03     9.18751E-03     135.611E-03     361.924E-03    -180.147E-03    -181.991E-03    -174.994E-03     354.927E-03    -180.147E-03     121.564E-03     460.785E-03     75.3959E+06     324.978E+03    -11.6937E+06    -79.8621E+06    -68.5870E+06    -22.9688E+06     324.978E+03    -23.6883E+06
            1849     136.110E-03     10.0239E-03     135.740E-03     362.460E-03    -179.868E-03    -182.708E-03    -172.591E-03     352.343E-03    -179.868E-03     146.320E-03     472.322E-03     85.8639E+06     28.4925E+06     12.8568E+06    -63.3149E+06    -59.4718E+06     23.3474E+06     14.1588E+06    -15.8654E+06
            1850     136.326E-03     10.8652E-03     135.893E-03     362.094E-03    -179.408E-03    -182.641E-03    -169.805E-03     349.258E-03    -179.408E-03     164.686E-03     477.085E-03     100.596E+06     62.8025E+06     26.3439E+06    -50.3760E+06    -49.4922E+06     61.9186E+06     26.3439E+06    -8.03757E+06
            1851     136.556E-03     11.7097E-03     136.053E-03     363.343E-03    -178.483E-03    -184.519E-03    -166.576E-03     345.399E-03    -178.483E-03     193.376E-03     485.202E-03     105.272E+06     74.3361E+06     47.4901E+06    -40.3541E+06    -40.1906E+06     72.9289E+06     48.7339E+06    -2.81876E+06
            1852     136.854E-03     12.5605E-03     136.276E-03     359.090E-03    -176.762E-03    -181.995E-03    -161.173E-03     338.989E-03    -177.483E-03     203.877E-03     480.183E-03     106.352E+06     81.4916E+06     68.3848E+06    -30.7179E+06    -30.5678E+06     71.7121E+06     78.0143E+06     1.67747E+06
            1853     137.118E-03     13.4165E-03     136.460E-03     362.714E-03    -175.475E-03    -187.196E-03    -154.038E-03     330.278E-03    -176.197E-03     252.337E-03     502.941E-03     120.239E+06     109.369E+06     89.6758E+06    -19.4686E+06    -19.1066E+06     89.3137E+06     109.369E+06     5.13087E+06
            1854     137.518E-03     14.2944E-03     136.774E-03     349.217E-03    -163.952E-03    -185.384E-03    -144.554E-03     318.820E-03    -174.384E-03     237.213E-03     471.909E-03     143.269E+06     147.740E+06     116.668E+06    -8.37550E+06    -7.95193E+06     116.245E+06     147.740E+06     5.64731E+06
            1855     136.846E-03     840.770E-06     136.844E-03     346.574E-03    -172.670E-03    -173.894E-03    -173.870E-03     346.550E-03    -172.670E-03     6.07944E-03     347.761E-03     127.331E+06    -95.3465E+06    -100.974E+06    -225.365E+06    -98.2543E+06    -224.876E+06    -98.5550E+06    -6.67693E+06
            1856     136.842E-03     1.67962E-03     136.832E-03     347.344E-03    -173.535E-03    -173.954E-03    -173.886E-03     347.276E-03    -173.535E-03     10.7093E-03     351.088E-03     119.677E+06    -93.1816E+06    -96.8386E+06    -214.631E+06    -97.7613E+06    -213.189E+06    -93.7010E+06    -12.3203E+06
            1857     136.846E-03     2.52018E-03     136.822E-03     348.275E-03    -173.866E-03    -174.648E-03    -174.468E-03     348.095E-03    -173.866E-03     18.2616E-03     356.227E-03     116.026E+06    -85.4118E+06    -93.2119E+06    -205.087E+06    -96.1623E+06    -202.136E+06    -85.4118E+06    -17.6281E+06
            1858     136.860E-03     3.35956E-03     136.819E-03     350.187E-03    -174.280E-03    -176.080E-03    -175.709E-03     349.816E-03    -174.280E-03     27.1095E-03     363.703E-03     116.332E+06    -74.7197E+06    -88.5167E+06    -197.282E+06    -93.1039E+06    -192.695E+06    -74.7197E+06    -21.6649E+06
            1859     136.883E-03     4.19672E-03     136.819E-03     352.273E-03    -174.880E-03    -177.332E-03    -176.686E-03     351.626E-03    -174.880E-03     36.1711E-03     372.904E-03     112.682E+06    -63.7055E+06    -82.7459E+06    -184.653E+06    -89.0460E+06    -178.353E+06    -63.7055E+06    -24.3266E+06
            1860     136.917E-03     5.03304E-03     136.825E-03     353.791E-03    -175.519E-03    -178.027E-03    -176.947E-03     352.711E-03    -175.519E-03     46.9565E-03     383.092E-03     105.898E+06    -53.8606E+06    -76.9013E+06    -169.347E+06    -85.1904E+06    -161.058E+06    -53.8606E+06    -26.2737E+06
            1861     136.964E-03     5.86988E-03     136.838E-03     354.830E-03    -176.020E-03    -178.578E-03    -176.826E-03     353.079E-03    -176.020E-03     60.0457E-03     394.776E-03     99.5237E+06    -43.8527E+06    -70.4217E+06    -153.926E+06    -81.3301E+06    -143.017E+06    -43.8527E+06    -27.8619E+06
            1862     137.031E-03     6.70479E-03     136.867E-03     355.456E-03    -176.348E-03    -179.019E-03    -176.265E-03     352.702E-03    -176.348E-03     75.3850E-03     407.582E-03     90.8621E+06    -33.2013E+06    -63.3212E+06    -135.228E+06    -77.5454E+06    -121.004E+06    -33.2013E+06    -28.3424E+06
            1863     137.111E-03     7.54172E-03     136.903E-03     355.997E-03    -176.529E-03    -179.543E-03    -175.226E-03     351.680E-03    -176.529E-03     94.3815E-03     422.082E-03     80.5564E+06    -21.1392E+06    -53.3434E+06    -112.733E+06    -73.2197E+06    -92.8565E+06    -21.1392E+06    -27.1361E+06
            1864     137.221E-03     8.37897E-03     136.965E-03     356.328E-03    -176.580E-03    -179.767E-03    -173.314E-03     349.874E-03    -176.580E-03     115.634E-03     436.794E-03     74.1556E+06    -6.84442E+06    -34.9641E+06    -90.8156E+06    -68.0304E+06    -57.7492E+06    -6.84442E+06    -26.2702E+06
            1865     137.353E-03     9.21809E-03     137.043E-03     356.600E-03    -176.392E-03    -180.052E-03    -170.423E-03     346.971E-03    -176.392E-03     140.978E-03     449.830E-03     74.1973E+06     6.05089E+06    -11.7497E+06    -75.0762E+06    -61.8270E+06    -24.9990E+06     6.05089E+06    -24.9880E+06
            1866     137.541E-03     10.0629E-03     137.172E-03     356.974E-03    -175.940E-03    -180.982E-03    -167.366E-03     343.358E-03    -175.940E-03     167.893E-03     460.428E-03     81.1647E+06     26.4282E+06     11.4861E+06    -61.0059E+06    -54.5762E+06     14.1540E+06     17.3306E+06    -20.0527E+06
            1867     137.754E-03     10.9084E-03     137.321E-03     356.710E-03    -175.292E-03    -181.440E-03    -164.310E-03     339.580E-03    -175.292E-03     188.090E-03     465.298E-03     92.1679E+06     53.6373E+06     25.3248E+06    -48.6648E+06    -46.7557E+06     51.7282E+06     25.3248E+06    -12.7560E+06
            1868     137.988E-03     11.7584E-03     137.486E-03     357.120E-03    -174.092E-03    -182.840E-03    -159.462E-03     333.741E-03    -174.092E-03     217.936E-03     472.955E-03     94.1486E+06     66.7035E+06     33.9176E+06    -38.4739E+06    -37.9345E+06     66.1641E+06     33.9176E+06    -6.98832E+06
            1869     138.263E-03     12.6195E-03     137.686E-03     351.871E-03    -171.988E-03    -179.684E-03    -153.272E-03     326.156E-03    -172.684E-03     227.270E-03     467.491E-03     92.8486E+06     71.6832E+06     52.2978E+06    -28.4989E+06    -28.0421E+06     65.4123E+06     58.1120E+06    -4.61095E+06
            1870     138.506E-03     13.4859E-03     137.848E-03     357.249E-03    -170.633E-03    -186.930E-03    -149.655E-03     320.671E-03    -171.329E-03     268.008E-03     494.923E-03     108.623E+06     97.6983E+06     81.4940E+06    -18.0397E+06    -17.5197E+06     80.9740E+06     97.6983E+06     552.163E+03
            1871     138.892E-03     14.3663E-03     138.147E-03     348.325E-03    -164.878E-03    -183.859E-03    -147.174E-03     316.476E-03    -169.715E-03     241.512E-03     473.594E-03     141.755E+06     145.078E+06     115.573E+06    -8.97525E+06    -8.55948E+06     115.157E+06     145.078E+06     6.17950E+06
            1872     138.259E-03     845.530E-06     138.256E-03     333.756E-03    -166.149E-03    -167.635E-03    -167.571E-03     333.692E-03    -166.149E-03     10.4158E-03     334.831E-03     123.424E+06    -79.5395E+06    -84.1945E+06    -205.190E+06    -81.0026E+06    -204.737E+06    -83.1847E+06    -6.72327E+06
            1873     138.256E-03     1.69177E-03     138.246E-03     334.802E-03    -167.126E-03    -167.767E-03    -167.587E-03     334.623E-03    -167.126E-03     18.1892E-03     338.072E-03     116.189E+06    -77.9900E+06    -81.4064E+06    -195.828E+06    -82.0352E+06    -194.585E+06    -78.6035E+06    -11.2782E+06
            1874     138.260E-03     2.53610E-03     138.237E-03     336.521E-03    -167.584E-03    -169.033E-03    -168.624E-03     336.112E-03    -167.584E-03     27.6673E-03     343.401E-03     111.341E+06    -73.7061E+06    -78.6003E+06    -187.389E+06    -80.9848E+06    -184.910E+06    -73.8003E+06    -15.9508E+06
            1875     138.283E-03     3.37924E-03     138.242E-03     338.502E-03    -168.156E-03    -170.416E-03    -169.635E-03     337.721E-03    -168.156E-03     38.7096E-03     350.553E-03     110.980E+06    -64.7960E+06    -74.4195E+06    -180.230E+06    -78.4078E+06    -176.241E+06    -64.7960E+06    -19.9083E+06
            1876     138.311E-03     4.22158E-03     138.247E-03     340.792E-03    -168.810E-03    -172.028E-03    -170.708E-03     339.472E-03    -168.810E-03     50.6327E-03     359.424E-03     110.784E+06    -53.9350E+06    -69.3146E+06    -171.576E+06     -75.064E+06    -165.827E+06    -53.9350E+06    -23.3017E+06
            1877     138.349E-03     5.06262E-03     138.257E-03     342.929E-03    -169.440E-03    -173.388E-03    -171.280E-03     340.822E-03    -169.440E-03     64.3305E-03     369.602E-03     106.591E+06    -42.7416E+06    -63.2430E+06    -158.052E+06    -70.7011E+06    -150.594E+06    -42.7416E+06    -25.3304E+06
            1878     138.396E-03     5.90232E-03     138.270E-03     344.242E-03    -169.965E-03    -174.128E-03    -170.915E-03     341.029E-03    -169.965E-03     79.7805E-03     380.841E-03     101.464E+06    -31.2758E+06    -57.2923E+06    -143.167E+06    -66.4069E+06    -134.053E+06    -31.2758E+06    -26.2101E+06
            1879     138.463E-03     6.74475E-03     138.299E-03     345.195E-03    -170.320E-03    -174.837E-03    -170.090E-03     340.448E-03    -170.320E-03     97.3698E-03     392.940E-03     95.0646E+06    -19.5512E+06    -51.0307E+06    -126.282E+06    -61.6974E+06    -115.615E+06    -19.5512E+06    -25.8148E+06
            1880     138.544E-03     7.58633E-03     138.336E-03     345.752E-03    -170.447E-03    -175.357E-03    -168.358E-03     338.753E-03    -170.447E-03     118.384E-03     406.230E-03     83.3852E+06    -7.90132E+06    -42.0864E+06    -102.862E+06    -56.5846E+06    -88.3636E+06    -7.90132E+06    -24.7418E+06
            1881     138.650E-03     8.43082E-03     138.393E-03     346.695E-03    -170.387E-03    -176.372E-03    -166.276E-03     336.600E-03    -170.387E-03     142.330E-03     420.319E-03     71.2449E+06     4.46401E+06    -27.8348E+06    -76.9588E+06    -51.9534E+06    -52.8402E+06     4.46401E+06    -23.0570E+06
            1882     138.787E-03     9.27589E-03     138.477E-03     348.465E-03    -170.059E-03    -178.297E-03    -164.091E-03     334.259E-03    -170.059E-03     169.033E-03     434.165E-03     70.2470E+06     17.7856E+06    -8.11919E+06    -61.2781E+06    -48.1402E+06    -21.2571E+06     17.7856E+06    -21.9946E+06
            1883     138.954E-03     10.1246E-03     138.585E-03     349.469E-03    -169.451E-03    -179.840E-03    -160.686E-03     330.315E-03    -169.451E-03     196.318E-03     444.576E-03     74.7865E+06     31.3864E+06     13.4919E+06    -50.6160E+06    -43.7101E+06     11.2310E+06     26.7415E+06    -19.3181E+06
            1884     139.165E-03     10.9799E-03     138.731E-03     348.810E-03    -168.728E-03    -180.053E-03    -156.716E-03     325.473E-03    -168.728E-03     216.269E-03     448.791E-03     82.1033E+06     48.4713E+06     33.4593E+06    -39.9731E+06    -37.5030E+06     43.3412E+06     36.1193E+06    -13.5132E+06
            1885     139.384E-03     11.8393E-03     138.880E-03     350.340E-03    -167.548E-03    -182.680E-03    -153.071E-03     320.731E-03    -167.548E-03     242.979E-03     458.315E-03     86.4781E+06     62.7155E+06     38.7790E+06    -32.5660E+06    -31.6394E+06     61.7889E+06     38.7790E+06    -9.15103E+06
            1886     139.645E-03     12.7119E-03     139.065E-03     348.992E-03    -166.189E-03    -182.670E-03    -152.229E-03     318.551E-03    -166.189E-03     246.499E-03     458.696E-03     89.4483E+06     69.8140E+06     47.2195E+06    -28.0129E+06    -27.3896E+06     62.8254E+06     53.5847E+06    -6.06042E+06
            1887     139.928E-03     13.5729E-03     139.268E-03     361.188E-03    -165.285E-03    -195.908E-03    -158.157E-03     323.437E-03    -165.285E-03     277.571E-03     496.912E-03     103.867E+06     86.0091E+06     71.6978E+06    -24.1282E+06    -23.4721E+06     71.0417E+06     86.0091E+06    -2.00998E+06
            1888     140.291E-03     14.4434E-03     139.545E-03     363.529E-03    -164.754E-03    -198.797E-03    -168.784E-03     333.665E-03    -164.902E-03     237.211E-03     492.893E-03     141.873E+06     139.041E+06     110.918E+06    -14.5280E+06    -14.1184E+06     110.509E+06     139.041E+06     2.21405E+06
            1889     139.645E-03     854.707E-06     139.642E-03     314.229E-03    -156.772E-03    -157.536E-03    -157.330E-03     314.110E-03    -156.858E-03     13.9863E-03     315.175E-03     119.846E+06    -63.7877E+06    -68.4936E+06    -185.876E+06    -67.9680E+06    -185.393E+06    -64.7958E+06    -6.78950E+06
            1890     139.647E-03     1.70800E-03     139.636E-03     315.982E-03    -157.404E-03    -158.632E-03    -158.254E-03     315.604E-03    -157.404E-03     25.4598E-03     318.765E-03     116.112E+06    -60.5668E+06    -63.1109E+06    -177.924E+06    -63.9154E+06    -176.454E+06    -61.2322E+06    -12.2280E+06
            1891     139.660E-03     2.55940E-03     139.637E-03     318.451E-03    -158.067E-03    -160.428E-03    -159.584E-03     317.608E-03    -158.067E-03     38.8515E-03     324.439E-03     115.053E+06    -53.8575E+06    -57.2841E+06    -170.573E+06    -60.0091E+06    -167.754E+06    -53.9516E+06    -17.3542E+06
            1892     139.675E-03     3.40999E-03     139.634E-03     320.589E-03    -158.770E-03    -161.839E-03    -160.273E-03     319.023E-03    -158.770E-03     53.4316E-03     331.039E-03     118.507E+06    -44.2412E+06    -51.6920E+06    -166.269E+06    -55.6675E+06    -162.294E+06    -44.2412E+06    -20.8893E+06
            1893     139.708E-03     4.26071E-03     139.643E-03     322.875E-03    -159.417E-03    -163.465E-03    -160.861E-03     320.271E-03    -159.417E-03     69.4257E-03     338.950E-03     120.070E+06    -33.2268E+06    -46.6841E+06    -159.409E+06    -51.5396E+06    -154.553E+06    -33.2268E+06    -22.5279E+06
            1894     139.745E-03     5.10954E-03     139.652E-03     325.398E-03    -160.005E-03    -165.386E-03    -161.401E-03     321.412E-03    -160.005E-03     86.4678E-03     348.602E-03     115.587E+06    -23.2928E+06    -43.2328E+06    -147.497E+06    -48.8515E+06    -141.878E+06    -23.2928E+06     -23.169E+06
            1895     139.792E-03     5.95916E-03     139.665E-03     327.751E-03    -160.497E-03    -167.256E-03    -161.423E-03     321.917E-03    -160.497E-03     105.107E-03     359.694E-03     107.458E+06    -14.7132E+06    -40.1395E+06    -132.543E+06    -46.7358E+06    -125.947E+06    -14.7132E+06    -23.4387E+06
            1896     139.858E-03     6.80632E-03     139.693E-03     329.613E-03    -160.865E-03    -168.842E-03    -160.615E-03     321.386E-03    -160.865E-03     125.170E-03     371.703E-03     100.025E+06    -5.56483E+06    -34.9995E+06    -116.953E+06    -43.1921E+06    -108.760E+06    -5.56483E+06    -24.1804E+06
            1897     139.939E-03     7.65705E-03     139.729E-03     331.409E-03    -161.034E-03    -170.487E-03    -159.077E-03     320.000E-03    -161.034E-03     147.728E-03     384.700E-03     87.2744E+06     4.55901E+06    -28.3758E+06    -94.2172E+06    -38.6710E+06    -83.9220E+06     4.55901E+06    -23.0652E+06
            1898     140.045E-03     8.50915E-03     139.786E-03     334.031E-03    -160.938E-03    -173.007E-03    -157.534E-03     318.558E-03    -160.938E-03     172.839E-03     398.625E-03     71.2031E+06     16.3085E+06    -21.8772E+06    -65.3935E+06    -35.3319E+06    -51.9388E+06     16.3085E+06    -18.6579E+06
            1899     140.185E-03     9.36489E-03     139.872E-03     337.518E-03    -160.686E-03    -176.558E-03    -156.103E-03     317.063E-03    -160.686E-03     199.609E-03     413.395E-03     66.0201E+06     30.6707E+06    -7.13869E+06    -44.6300E+06    -33.9697E+06    -17.7990E+06     30.6707E+06    -13.8140E+06
            1900     140.350E-03     10.2214E-03     139.977E-03     340.387E-03    -160.322E-03    -180.048E-03    -154.104E-03     314.444E-03    -160.322E-03     225.560E-03     426.168E-03     71.9062E+06     42.6652E+06     15.1381E+06    -37.6586E+06    -34.4455E+06     11.9250E+06     42.6652E+06    -10.7891E+06
            1901     140.565E-03     11.0820E-03     140.128E-03     342.214E-03    -159.822E-03    -182.627E-03    -153.063E-03     312.649E-03    -159.822E-03     241.698E-03     434.002E-03     86.3434E+06     55.0399E+06     40.4355E+06    -37.2069E+06    -35.7672E+06     41.0687E+06     52.9670E+06    -8.28520E+06
            1902     140.798E-03     11.9475E-03     140.290E-03     349.104E-03    -159.165E-03    -189.754E-03    -156.215E-03     315.565E-03    -159.165E-03     260.119E-03     450.495E-03     95.2843E+06     64.5723E+06     53.6864E+06    -35.3481E+06    -34.7971E+06     61.3438E+06     56.3639E+06    -6.02515E+06
            1903     141.025E-03     12.8129E-03     140.442E-03     354.855E-03    -158.890E-03    -195.691E-03    -164.474E-03     323.638E-03    -158.890E-03     253.433E-03     461.561E-03     94.5632E+06     71.2657E+06     52.2654E+06    -30.8315E+06    -30.4412E+06     58.0105E+06     65.1302E+06    -4.21764E+06
            1904     141.323E-03     13.6621E-03     140.661E-03     376.355E-03    -159.490E-03    -216.692E-03    -182.379E-03     342.041E-03    -159.490E-03     275.098E-03     511.707E-03     102.313E+06     86.0912E+06     69.4311E+06    -23.1250E+06    -22.7659E+06     69.0719E+06     86.0912E+06    -2.41075E+06
            1905     141.734E-03     14.5029E-03     140.990E-03     392.992E-03    -161.227E-03    -231.579E-03    -206.134E-03     367.546E-03    -161.227E-03     228.534E-03     524.122E-03     135.342E+06     133.256E+06     109.637E+06    -11.9836E+06    -11.6464E+06     109.300E+06     133.256E+06    -2.50078E+06
            1906     140.992E-03     864.893E-06     140.989E-03     289.254E-03    -143.995E-03    -145.272E-03    -144.959E-03     289.028E-03    -144.081E-03     18.2458E-03     290.066E-03     121.488E+06    -41.8713E+06    -48.2650E+06    -166.353E+06    -45.2309E+06    -165.808E+06    -45.4511E+06    -7.14319E+06
            1907     140.994E-03     1.72938E-03     140.984E-03     290.699E-03    -144.773E-03    -145.951E-03    -145.229E-03     289.977E-03    -144.773E-03     33.8310E-03     292.964E-03     114.009E+06    -42.5878E+06    -45.7282E+06    -158.117E+06    -45.1936E+06    -156.506E+06    -44.7334E+06    -12.8074E+06
            1908     141.007E-03     2.59321E-03     140.983E-03     293.203E-03    -145.339E-03    -147.872E-03    -146.311E-03     291.641E-03    -145.339E-03     51.0391E-03     297.974E-03     111.436E+06    -40.5389E+06    -44.7161E+06    -153.997E+06    -46.2183E+06    -150.921E+06    -42.1133E+06    -17.9644E+06
            1909     141.030E-03     3.45563E-03     140.988E-03     295.832E-03    -145.908E-03    -149.904E-03    -147.107E-03     293.035E-03    -145.908E-03     68.9160E-03     304.237E-03     115.631E+06    -36.5957E+06    -41.9163E+06    -154.784E+06    -46.0710E+06    -150.629E+06    -36.5957E+06    -21.1732E+06
            1910     141.062E-03     4.31665E-03     140.996E-03     298.275E-03    -146.446E-03    -151.841E-03    -147.300E-03     293.734E-03    -146.446E-03     88.4356E-03     311.411E-03     116.606E+06    -29.5290E+06    -39.1065E+06    -150.586E+06    -43.7810E+06    -145.911E+06    -29.5290E+06    -22.0899E+06
            1911     141.112E-03     5.17865E-03     141.016E-03     301.235E-03    -146.908E-03    -154.384E-03    -147.548E-03     294.398E-03    -146.908E-03     109.088E-03     320.206E-03     112.755E+06    -20.5614E+06    -35.2702E+06    -139.871E+06    -40.1486E+06    -134.993E+06    -20.5614E+06    -21.8075E+06
            1912     141.170E-03     6.03765E-03     141.041E-03     304.916E-03    -147.330E-03    -157.623E-03    -147.839E-03     295.132E-03    -147.330E-03     131.284E-03     330.915E-03     104.848E+06    -11.1720E+06    -32.2050E+06    -124.851E+06    -37.1665E+06    -119.890E+06    -11.1720E+06    -20.8097E+06
            1913     141.245E-03     6.89876E-03     141.076E-03     309.034E-03    -147.768E-03    -161.366E-03    -148.051E-03     295.719E-03    -147.768E-03     154.345E-03     343.407E-03     95.6349E+06    -1.44901E+06    -31.9505E+06    -108.070E+06    -37.3586E+06    -102.662E+06    -1.44901E+06    -18.6567E+06
            1914     141.339E-03     7.75804E-03     141.126E-03     314.189E-03    -148.146E-03    -166.243E-03    -148.707E-03     296.653E-03    -148.146E-03     178.692E-03     358.549E-03     85.4841E+06     8.61231E+06    -34.6428E+06    -88.3458E+06    -40.4570E+06    -82.5316E+06     8.61231E+06    -15.6987E+06
            1915     141.454E-03     8.61881E-03     141.192E-03     320.262E-03    -148.393E-03    -171.826E-03    -149.536E-03     297.972E-03    -148.393E-03     203.486E-03     375.075E-03     76.4601E+06     21.1783E+06    -31.9280E+06    -65.2753E+06    -43.0658E+06    -54.1375E+06     21.1783E+06    -10.4960E+06
            1916     141.593E-03     9.47873E-03     141.275E-03     326.649E-03    -148.711E-03    -177.784E-03    -150.538E-03     299.403E-03    -148.711E-03     227.271E-03     392.598E-03     75.1963E+06     37.3280E+06    -14.7533E+06    -48.2094E+06    -43.7784E+06    -19.1843E+06     37.3280E+06    -4.03006E+06
            1917     141.744E-03     10.3444E-03     141.366E-03     333.833E-03    -149.067E-03    -184.900E-03    -153.700E-03     302.633E-03    -149.067E-03     246.462E-03     411.058E-03     86.1494E+06     55.0342E+06     15.2345E+06    -42.8063E+06    -42.5438E+06     14.9719E+06     55.0342E+06    -507.802E+03
            1918     141.917E-03     11.2092E-03     141.474E-03     342.504E-03    -149.505E-03    -193.161E-03    -161.158E-03     310.502E-03    -149.505E-03     253.808E-03     427.876E-03     99.1673E+06     67.4948E+06     48.0947E+06    -39.2348E+06    -39.0254E+06     47.8854E+06     67.4948E+06    -965.173E+03
            1919     142.203E-03     12.0581E-03     141.691E-03     356.993E-03    -150.466E-03    -206.448E-03    -173.585E-03     324.129E-03    -150.466E-03     263.849E-03     454.929E-03     99.4451E+06     70.8819E+06     62.8672E+06    -32.2214E+06    -32.0769E+06     62.7226E+06     70.8819E+06    -3.14825E+06
            1920     142.459E-03     12.9080E-03     141.873E-03     371.922E-03    -152.292E-03    -219.685E-03    -191.348E-03     343.584E-03    -152.292E-03     250.360E-03     477.766E-03     90.8447E+06     74.9437E+06     56.9869E+06    -23.0009E+06    -22.6522E+06     56.6382E+06     74.9437E+06    -4.78926E+06
            1921     142.745E-03     13.7280E-03     142.083E-03     403.241E-03    -155.057E-03    -248.304E-03    -218.754E-03     373.692E-03    -155.057E-03     269.534E-03     537.762E-03     94.7480E+06     88.6524E+06     68.8149E+06    -14.0732E+06    -13.5761E+06     68.3178E+06     88.6524E+06    -4.01760E+06
            1922     143.219E-03     14.5275E-03     142.480E-03     425.409E-03    -159.009E-03    -266.313E-03    -244.191E-03     403.286E-03    -159.009E-03     227.176E-03     555.184E-03     128.353E+06     133.500E+06     107.835E+06    -5.43995E+06    -4.95985E+06     107.355E+06     133.500E+06    -1.82762E+06
            1923     142.312E-03     878.978E-06     142.309E-03     257.462E-03    -127.850E-03    -129.612E-03    -129.234E-03     257.084E-03    -127.850E-03     22.1898E-03     258.069E-03     109.057E+06    -36.2801E+06    -41.4570E+06    -147.780E+06    -37.6328E+06    -147.300E+06    -40.5849E+06    -5.96898E+06
            1924     142.318E-03     1.75788E-03     142.307E-03     258.725E-03    -128.729E-03    -129.994E-03    -128.824E-03     257.554E-03    -128.729E-03     41.0712E-03     260.393E-03     98.0280E+06    -40.1129E+06    -43.2575E+06    -139.646E+06    -41.8777E+06    -138.156E+06    -42.9834E+06    -11.6645E+06
            1925     142.333E-03     2.63629E-03     142.308E-03     260.954E-03    -129.103E-03    -131.848E-03    -129.324E-03     258.430E-03    -129.103E-03     61.3068E-03     264.430E-03     97.8299E+06    -40.5795E+06    -43.8650E+06    -139.996E+06    -43.8597E+06    -137.491E+06    -43.0895E+06    -15.2080E+06
            1926     142.361E-03     3.51322E-03     142.318E-03     263.772E-03    -129.450E-03    -134.299E-03    -129.813E-03     259.285E-03    -129.450E-03     82.5205E-03     269.942E-03     101.041E+06    -40.3872E+06    -43.6169E+06    -142.988E+06    -45.9208E+06    -139.749E+06    -41.3228E+06    -17.5451E+06
            1927     142.392E-03     4.38987E-03     142.325E-03     267.194E-03    -129.832E-03    -137.373E-03    -130.150E-03     259.971E-03    -129.832E-03     105.429E-03     276.761E-03     100.949E+06    -39.2142E+06    -45.3066E+06    -143.016E+06    -48.9426E+06    -139.380E+06    -39.2142E+06    -17.8724E+06
            1928     142.435E-03     5.26518E-03     142.338E-03     271.509E-03    -130.207E-03    -141.304E-03    -130.545E-03     260.750E-03    -130.207E-03     129.823E-03     285.419E-03     94.0141E+06    -34.5515E+06    -50.3246E+06    -134.794E+06    -53.6047E+06    -131.514E+06    -34.5515E+06    -15.6579E+06
            1929     142.491E-03     6.14201E-03     142.358E-03     277.569E-03    -130.724E-03    -146.847E-03    -131.980E-03     262.703E-03    -130.724E-03     154.563E-03     296.874E-03     88.4012E+06    -23.9153E+06    -56.5247E+06    -121.295E+06    -59.2977E+06    -118.522E+06    -23.9153E+06    -12.0290E+06
            1930     142.558E-03     7.01543E-03     142.385E-03     285.785E-03    -131.465E-03    -154.313E-03    -135.046E-03     266.518E-03    -131.465E-03     178.939E-03     311.555E-03     86.4753E+06    -9.03954E+06    -61.6082E+06    -104.617E+06    -63.5780E+06    -102.647E+06    -9.03954E+06    -7.61967E+06
            1931     142.642E-03     7.88732E-03     142.424E-03     295.969E-03    -132.391E-03    -163.779E-03    -139.831E-03     272.021E-03    -132.391E-03     203.496E-03     331.101E-03     85.4361E+06     7.08627E+06    -60.5095E+06    -86.9590E+06    -65.2178E+06    -82.2507E+06     7.08627E+06    -3.52657E+06
            1932     142.753E-03     8.75485E-03     142.484E-03     307.293E-03    -133.581E-03    -174.108E-03    -145.989E-03     279.174E-03    -133.581E-03     225.471E-03     353.540E-03     85.0486E+06     22.5846E+06    -47.0674E+06    -71.8946E+06    -64.9863E+06    -53.9756E+06     22.5846E+06    -619.785E+03
            1933     142.919E-03     9.61966E-03     142.595E-03     320.167E-03    -135.184E-03    -185.208E-03    -154.012E-03     288.971E-03    -135.184E-03     243.192E-03     378.391E-03     88.0794E+06     40.1338E+06    -18.9629E+06    -60.1705E+06    -60.0996E+06    -19.0338E+06     40.1338E+06     1.18436E+06
            1934     143.144E-03     10.4753E-03     142.761E-03     335.290E-03    -137.103E-03    -198.356E-03    -165.978E-03     302.911E-03    -137.103E-03     254.677E-03     406.376E-03     98.7208E+06     60.5287E+06     22.3335E+06    -50.3099E+06    -50.0358E+06     22.0595E+06     60.5287E+06     625.010E+03
            1935     143.341E-03     11.3241E-03     142.893E-03     351.552E-03    -139.461E-03    -212.127E-03    -181.566E-03     320.991E-03    -139.461E-03     254.858E-03     432.857E-03     104.172E+06     72.7591E+06     57.7889E+06    -37.6310E+06    -37.1664E+06     57.3244E+06     72.7591E+06    -3.34177E+06
            1936     143.593E-03     12.1575E-03     143.077E-03     374.393E-03    -142.746E-03    -231.678E-03    -202.012E-03     344.727E-03    -142.746E-03     261.177E-03     469.636E-03     96.1039E+06     73.8388E+06     64.9848E+06    -26.2883E+06    -25.8560E+06     64.5524E+06     73.8388E+06    -5.72255E+06
            1937     143.917E-03     12.9752E-03     143.331E-03     398.454E-03    -147.006E-03    -251.699E-03    -226.960E-03     373.715E-03    -147.006E-03     246.129E-03     501.963E-03     87.5723E+06     75.8313E+06     55.9515E+06    -19.6872E+06    -19.3927E+06     55.6570E+06     75.8313E+06    -4.67223E+06
            1938     144.234E-03     13.7678E-03     143.575E-03     433.098E-03    -152.022E-03    -281.185E-03    -255.064E-03     406.977E-03    -152.022E-03     266.257E-03     563.760E-03     97.1991E+06     88.6077E+06     69.0662E+06    -16.4295E+06    -16.0918E+06     68.7285E+06     88.6077E+06    -4.22351E+06
            1939     144.715E-03     14.5443E-03     143.982E-03     449.157E-03    -157.781E-03    -291.299E-03    -270.838E-03     428.696E-03    -157.781E-03     229.550E-03     575.782E-03     134.849E+06     134.916E+06     104.499E+06    -12.0240E+06    -11.3778E+06     103.853E+06     134.916E+06    -4.11851E+06
            1940     143.584E-03     896.320E-06     143.581E-03     220.466E-03    -109.693E-03    -110.774E-03    -110.178E-03     219.941E-03    -109.765E-03     24.4363E-03     220.826E-03     80.0598E+06    -50.6350E+06    -53.7349E+06    -132.194E+06    -52.0578E+06    -131.517E+06    -52.9885E+06    -4.99162E+06
            1941     143.587E-03     1.79133E-03     143.576E-03     221.696E-03    -110.110E-03    -111.588E-03    -109.965E-03     220.073E-03    -110.110E-03     44.8165E-03     222.758E-03     72.2027E+06    -52.2586E+06    -55.1039E+06    -125.825E+06    -53.8900E+06    -124.342E+06    -54.9556E+06    -9.70629E+06
            1942     143.604E-03     2.68612E-03     143.578E-03     223.140E-03    -110.174E-03    -112.967E-03    -109.391E-03     219.564E-03    -110.174E-03     67.4748E-03     225.364E-03     74.8227E+06    -56.0616E+06    -59.0413E+06    -132.313E+06    -57.7172E+06    -130.806E+06    -58.8931E+06    -10.4633E+06
            1943     143.634E-03     3.58229E-03     143.589E-03     225.941E-03    -110.181E-03    -115.790E-03    -109.280E-03     219.430E-03    -110.181E-03     91.8935E-03     229.786E-03     73.7588E+06    -62.1174E+06    -66.2604E+06    -137.769E+06    -66.2417E+06    -135.974E+06    -63.9308E+06    -7.73587E+06
            1944     143.668E-03     4.47669E-03     143.598E-03     231.169E-03    -110.377E-03    -120.829E-03    -110.444E-03     220.784E-03    -110.377E-03     117.688E-03     237.067E-03     75.7693E+06    -60.9174E+06    -75.6480E+06    -141.261E+06     -77.458E+06    -139.451E+06    -60.9174E+06    -3.23435E+06
            1945     143.716E-03     5.37085E-03     143.616E-03     239.043E-03    -110.911E-03    -128.007E-03    -113.083E-03     224.119E-03    -110.911E-03     143.887E-03     247.943E-03     76.2524E+06    -49.7401E+06    -84.3407E+06    -134.956E+06    -87.4240E+06    -131.872E+06    -49.7401E+06     830.215E+03
            1946     143.783E-03     6.26139E-03     143.646E-03     249.773E-03    -111.993E-03    -137.736E-03    -118.011E-03     230.048E-03    -111.993E-03     169.596E-03     263.067E-03     79.5667E+06    -32.3403E+06    -89.4020E+06    -121.526E+06    -92.1950E+06    -118.733E+06    -32.3403E+06     2.73985E+06
            1947     143.874E-03     7.14713E-03     143.696E-03     263.541E-03    -113.535E-03    -150.087E-03    -125.805E-03     239.259E-03    -113.535E-03     194.042E-03     282.683E-03     85.4038E+06    -12.4936E+06    -87.6777E+06    -105.042E+06    -90.7875E+06    -101.932E+06    -12.4936E+06     2.77964E+06
            1948     143.993E-03     8.02510E-03     143.769E-03     280.278E-03    -115.564E-03    -165.067E-03    -136.741E-03     251.952E-03    -115.564E-03     217.220E-03     308.391E-03     89.1823E+06     5.89534E+06    -74.2602E+06    -90.0750E+06    -84.3684E+06    -79.9668E+06     5.89534E+06     1.79356E+06
            1949     144.128E-03     8.89560E-03     143.853E-03     299.517E-03    -118.262E-03    -181.724E-03    -150.862E-03     268.656E-03    -118.262E-03     235.761E-03     339.116E-03     88.8501E+06     24.1359E+06    -47.7266E+06    -74.6463E+06    -72.9368E+06    -49.4362E+06     24.1359E+06     560.050E+03
            1950     144.273E-03     9.75283E-03     143.943E-03     321.690E-03    -121.736E-03    -199.997E-03    -168.022E-03     289.715E-03    -121.736E-03     250.229E-03     374.408E-03     90.1191E+06     42.5603E+06    -12.1775E+06    -60.4749E+06    -60.2342E+06    -12.4182E+06     42.5603E+06    -746.734E+03
            1951     144.495E-03     10.5947E-03     144.106E-03     345.248E-03    -125.982E-03    -219.438E-03    -188.088E-03     313.899E-03    -125.982E-03     258.328E-03     411.879E-03     102.840E+06     62.3477E+06     34.9552E+06    -49.3842E+06    -48.9803E+06     34.7426E+06     62.1563E+06     -3.6851E+06
            1952     144.758E-03     11.4225E-03     144.306E-03     369.391E-03    -130.955E-03    -238.634E-03    -210.529E-03     341.286E-03    -130.955E-03     254.609E-03     447.345E-03     110.940E+06     73.3364E+06     66.8978E+06    -40.5169E+06    -39.7531E+06     67.1312E+06     72.3393E+06    -8.50615E+06
            1953     145.031E-03     12.2345E-03     144.514E-03     399.837E-03    -136.632E-03    -263.118E-03    -236.788E-03     373.507E-03    -136.632E-03     258.440E-03     491.468E-03      99.481E+06     68.6804E+06     61.0811E+06    -34.2879E+06    -33.3025E+06     60.9014E+06     67.8746E+06    -9.42531E+06
            1954     145.397E-03     13.0220E-03     144.813E-03     426.422E-03    -143.027E-03    -283.316E-03    -261.388E-03     404.493E-03    -143.027E-03     243.440E-03     525.749E-03     90.4385E+06     69.7281E+06     53.0204E+06    -27.6226E+06    -26.7676E+06     52.1654E+06     69.7281E+06    -7.61808E+06
            1955     145.731E-03     13.7897E-03     145.077E-03     455.638E-03    -150.078E-03    -305.528E-03    -281.209E-03     431.320E-03    -150.078E-03     265.428E-03     581.307E-03     98.1127E+06     87.9098E+06     69.9919E+06    -17.5472E+06    -16.6877E+06     69.1324E+06     87.9098E+06    -6.67563E+06
            1956     146.259E-03     14.5482E-03     145.533E-03     462.664E-03    -157.199E-03    -305.443E-03    -285.681E-03     442.903E-03    -157.199E-03     231.983E-03     585.984E-03     128.510E+06     133.785E+06     99.3032E+06    -7.54670E+06    -6.49170E+06     98.2482E+06     133.785E+06    -3.50000E+06
            1957     144.796E-03     913.212E-06     144.793E-03     181.519E-03    -90.4342E-03    -91.0826E-03    -90.2544E-03     180.866E-03    -90.6092E-03     24.7184E-03     181.716E-03     50.2131E+06    -68.1119E+06    -76.1131E+06    -120.740E+06    -69.5356E+06    -119.316E+06    -76.1131E+06    -6.02668E+06
            1958     144.792E-03     1.82671E-03     144.781E-03     181.435E-03    -90.1838E-03    -91.2551E-03    -89.0844E-03     179.368E-03    -90.2869E-03     45.5761E-03     181.978E-03     41.4795E+06    -78.1757E+06    -86.5498E+06    -122.066E+06    -79.2783E+06    -120.963E+06    -86.5498E+06    -2.82037E+06
            1959     144.809E-03     2.74152E-03     144.783E-03     182.887E-03    -89.9566E-03    -92.9125E-03    -88.2769E-03     178.251E-03    -89.9566E-03     69.3844E-03     183.945E-03     48.8534E+06    -89.7865E+06    -95.6728E+06    -141.114E+06    -95.2078E+06    -135.693E+06    -95.6728E+06     4.63437E+06
            1960     144.839E-03     3.65686E-03     144.793E-03     187.136E-03    -89.8384E-03    -97.2803E-03    -88.9015E-03     178.757E-03    -89.8384E-03     94.9681E-03     188.992E-03     54.5638E+06    -93.1140E+06    -104.647E+06    -151.995E+06    -111.667E+06    -142.511E+06    -95.5772E+06     11.6350E+06
            1961     144.881E-03     4.57172E-03     144.808E-03     195.317E-03    -90.2970E-03    -105.112E-03    -92.1439E-03     182.349E-03    -90.2970E-03     121.298E-03     198.475E-03     63.1890E+06    -80.8411E+06    -111.393E+06    -152.543E+06    -120.267E+06    -143.669E+06    -80.8411E+06     13.7242E+06
            1962     144.943E-03     5.48095E-03     144.839E-03     208.162E-03    -91.4261E-03    -116.709E-03    -98.6694E-03     190.122E-03    -91.4261E-03     148.248E-03     213.608E-03     73.3834E+06    -57.1637E+06    -109.474E+06    -140.403E+06    -118.292E+06    -131.585E+06    -57.1637E+06     12.5004E+06
            1963     145.027E-03     6.38356E-03     144.886E-03     225.031E-03    -93.3183E-03    -131.609E-03    -108.579E-03     202.001E-03    -93.3183E-03     175.019E-03     234.370E-03     81.4763E+06    -33.1068E+06    -101.772E+06    -122.767E+06    -109.510E+06    -115.029E+06    -33.1068E+06     8.98394E+06
            1964     145.132E-03     7.27702E-03     144.950E-03     245.641E-03    -96.1318E-03    -149.640E-03    -122.381E-03     218.382E-03    -96.1318E-03     200.222E-03     260.697E-03     85.8234E+06    -12.6646E+06    -88.2482E+06    -105.951E+06    -98.3174E+06    -95.8815E+06    -12.6646E+06     4.76291E+06
            1965     145.267E-03     8.15838E-03     145.038E-03     270.143E-03    -99.7437E-03    -170.622E-03    -140.312E-03     239.834E-03    -99.7437E-03     223.044E-03     293.691E-03     84.9984E+06     4.68861E+06    -67.9025E+06    -88.6678E+06    -85.9334E+06    -70.6369E+06     4.68861E+06    -1.04680E+06
            1966     145.443E-03     9.02266E-03     145.163E-03     298.247E-03    -104.257E-03    -193.973E-03    -162.266E-03     266.541E-03    -104.257E-03     241.586E-03     333.199E-03     84.8719E+06     21.3253E+06    -41.2866E+06    -74.5006E+06    -73.0514E+06    -42.7359E+06     21.3253E+06    -5.47755E+06
            1967     145.659E-03     9.87061E-03     145.324E-03     329.132E-03    -109.900E-03    -219.224E-03    -187.437E-03     297.345E-03    -109.900E-03     256.097E-03     377.622E-03     89.2460E+06     39.4818E+06    -5.25871E+06    -62.2073E+06    -61.0915E+06    -6.37452E+06     39.4818E+06    -5.99150E+06
            1968     145.871E-03     10.7008E-03     145.478E-03     360.740E-03    -116.481E-03    -244.435E-03    -214.436E-03     330.742E-03    -116.481E-03     262.171E-03     423.223E-03     108.247E+06     65.3601E+06     43.8160E+06    -50.9936E+06    -50.4387E+06     47.8316E+06     60.7896E+06    -7.01167E+06
            1969     146.191E-03     11.5028E-03     145.738E-03     393.983E-03    -123.974E-03    -269.994E-03    -243.689E-03     367.678E-03    -123.974E-03     258.329E-03     468.098E-03     114.217E+06     74.7585E+06     67.9207E+06    -42.6100E+06    -41.9292E+06     72.6162E+06     69.3821E+06    -8.01034E+06
            1970     146.513E-03     12.2827E-03     145.997E-03     428.336E-03    -132.052E-03    -295.920E-03    -271.332E-03     403.748E-03    -132.052E-03     262.234E-03     515.892E-03     100.082E+06     67.4600E+06     59.6591E+06    -36.2231E+06    -35.0984E+06     61.5972E+06     64.3972E+06    -9.79682E+06
            1971     146.912E-03     13.0455E-03     146.332E-03     450.043E-03    -140.443E-03    -309.188E-03    -288.047E-03     428.902E-03    -140.443E-03     248.656E-03     545.160E-03     94.1868E+06     69.9136E+06     56.8587E+06    -30.0786E+06    -27.4763E+06     56.5134E+06     67.6566E+06    -14.1477E+06
            1972     147.303E-03     13.7972E-03     146.656E-03     470.669E-03    -148.924E-03    -321.625E-03    -297.454E-03     446.498E-03    -148.924E-03     270.225E-03     592.241E-03     96.5715E+06     80.7951E+06     63.4334E+06    -23.2568E+06    -20.3728E+06     60.5494E+06     80.7951E+06    -14.9322E+06
            1973     147.832E-03     14.5503E-03     147.114E-03     471.953E-03    -156.802E-03    -315.118E-03    -295.332E-03     452.167E-03    -156.802E-03     236.369E-03     593.030E-03     125.574E+06     124.580E+06     84.9468E+06    -15.4844E+06    -13.0871E+06     82.5496E+06     124.580E+06    -9.62307E+06
            1974     145.981E-03     930.573E-06     145.978E-03     141.063E-03    -70.1386E-03    -70.9272E-03    -70.0150E-03     140.254E-03    -70.2417E-03     24.0293E-03     141.137E-03     42.2300E+06    -94.3271E+06    -109.426E+06    -140.682E+06    -111.813E+06    -123.723E+06    -108.900E+06     8.61546E+06
            1975     145.986E-03     1.86447E-03     145.974E-03     141.027E-03    -69.8685E-03    -71.1640E-03    -68.5232E-03     138.490E-03    -69.9716E-03     44.4878E-03     141.202E-03     42.5094E+06    -109.429E+06    -132.150E+06    -158.196E+06    -133.708E+06    -133.917E+06    -132.150E+06     17.3097E+06
            1976     146.001E-03     2.79906E-03     145.975E-03     144.557E-03    -69.8378E-03    -74.7270E-03    -69.1517E-03     138.981E-03    -69.8378E-03     67.8044E-03     144.970E-03     50.5904E+06    -119.310E+06    -134.238E+06    -175.211E+06    -147.021E+06    -150.319E+06    -131.419E+06     23.4265E+06
            1977     146.033E-03     3.73178E-03     145.986E-03     152.370E-03    -70.2979E-03    -82.1181E-03    -72.3885E-03     142.640E-03    -70.2979E-03     92.7461E-03     153.256E-03     59.2008E+06    -109.872E+06    -124.409E+06    -174.595E+06    -146.500E+06    -150.918E+06    -111.458E+06     25.3351E+06
            1978     146.082E-03     4.65979E-03     146.008E-03     164.825E-03    -71.5581E-03    -93.3147E-03    -78.7442E-03     150.255E-03    -71.5581E-03     118.684E-03     166.769E-03     67.6232E+06    -85.5333E+06    -119.389E+06    -161.988E+06    -139.073E+06    -142.304E+06    -85.5333E+06     21.0078E+06
            1979     146.158E-03     5.58231E-03     146.051E-03     182.195E-03    -73.6637E-03    -108.501E-03    -88.8154E-03     162.509E-03    -73.6637E-03     145.866E-03     186.200E-03     71.8396E+06    -60.7683E+06    -113.173E+06    -142.093E+06    -128.829E+06    -126.437E+06    -60.7683E+06     13.4970E+06
            1980     146.249E-03     6.49429E-03     146.105E-03     204.809E-03    -76.6463E-03    -128.134E-03    -103.567E-03     180.242E-03    -76.6463E-03     174.014E-03     212.290E-03     74.7215E+06    -38.8929E+06    -100.470E+06    -121.671E+06    -116.105E+06    -106.036E+06    -38.8929E+06     5.71723E+06
            1981     146.391E-03     7.39137E-03     146.204E-03     232.586E-03    -80.8451E-03    -151.818E-03    -123.256E-03     204.024E-03    -80.8451E-03     201.607E-03     245.517E-03     76.6501E+06    -18.6536E+06    -81.5038E+06    -103.647E+06    -100.279E+06    -84.8722E+06    -18.6536E+06    -2.88938E+06
            1982     146.552E-03     8.27138E-03     146.319E-03     264.914E-03    -86.1754E-03    -178.736E-03    -147.460E-03     233.639E-03    -86.1754E-03     227.082E-03     285.686E-03     77.5614E+06     970.432E+03    -56.4120E+06    -86.6466E+06    -83.3938E+06    -59.6648E+06     970.432E+03    -8.62403E+06
            1983     146.744E-03     9.13191E-03     146.459E-03     301.520E-03    -92.5613E-03    -208.776E-03    -176.403E-03     269.147E-03    -92.5613E-03     248.606E-03     333.270E-03     79.5945E+06     18.2859E+06    -32.4598E+06    -73.0370E+06    -69.1453E+06    -36.3516E+06     18.2859E+06    -11.3189E+06
            1984     147.018E-03     9.96515E-03     146.679E-03     340.629E-03    -100.295E-03    -240.440E-03    -208.744E-03     308.933E-03    -100.295E-03     263.628E-03     385.403E-03     84.3855E+06     36.9823E+06     688.415E+03    -58.6505E+06    -55.5290E+06    -2.43309E+06     36.9823E+06    -11.9593E+06
            1985     147.307E-03     10.7776E-03     146.912E-03     380.337E-03    -109.127E-03    -271.392E-03    -242.102E-03     351.047E-03    -109.127E-03     269.561E-03     438.466E-03     100.784E+06     63.4402E+06     45.2680E+06    -44.7314E+06    -43.1170E+06     48.8485E+06     58.2453E+06    -8.74383E+06
            1986     147.667E-03     11.5594E-03     147.214E-03     419.141E-03    -118.778E-03    -300.224E-03    -274.173E-03     393.090E-03    -118.778E-03     268.360E-03     488.928E-03     108.498E+06     80.3430E+06     68.2735E+06    -33.5299E+06    -32.8521E+06     78.2038E+06     69.7350E+06    -7.11533E+06
            1987     148.063E-03     12.3181E-03     147.550E-03     451.429E-03    -128.920E-03    -322.134E-03    -297.422E-03     426.717E-03    -128.920E-03     272.042E-03     534.877E-03      96.695E+06     79.2632E+06     63.0235E+06    -24.0418E+06    -22.8117E+06     69.4634E+06     71.5931E+06    -9.87810E+06
            1988     148.494E-03     13.0655E-03     147.918E-03     467.333E-03    -138.859E-03    -328.173E-03    -306.535E-03     445.695E-03    -138.859E-03     257.984E-03     558.859E-03     89.6098E+06     79.2772E+06     60.9396E+06    -17.7292E+06    -15.4762E+06     60.9436E+06     77.0202E+06    -10.6956E+06
            1989     148.898E-03     13.8081E-03     148.257E-03     482.370E-03    -148.117E-03    -334.156E-03    -310.276E-03     458.491E-03    -148.117E-03     273.510E-03     601.191E-03     92.9631E+06      89.684E+06     62.7234E+06    -12.5110E+06    -10.2333E+06     60.4457E+06      89.684E+06    -10.3600E+06
            1990     149.391E-03     14.5563E-03     148.681E-03     479.235E-03    -156.450E-03    -322.682E-03    -303.621E-03     460.174E-03    -156.450E-03     235.299E-03     598.705E-03     120.638E+06     129.077E+06     73.6498E+06    -6.77134E+06    -3.45980E+06     70.3382E+06     129.077E+06    -7.07107E+06
            1991     147.101E-03     952.380E-06     147.098E-03     100.460E-03    -49.4552E-03    -51.0144E-03    -50.0301E-03     99.4760E-03    -49.4552E-03     22.4083E-03     100.557E-03     63.8650E+06    -141.297E+06    -179.402E+06    -212.391E+06    -190.890E+06    -158.738E+06    -183.463E+06     27.0040E+06
            1992     147.102E-03     1.90293E-03     147.090E-03     104.872E-03    -50.4081E-03    -54.4973E-03    -51.4913E-03     101.866E-03    -50.4081E-03     42.0722E-03     105.132E-03     65.3553E+06    -134.222E+06    -168.579E+06    -209.200E+06    -187.036E+06    -156.385E+06    -168.579E+06     34.1251E+06
            1993     147.118E-03     2.85183E-03     147.090E-03     112.867E-03    -51.5862E-03    -61.3188E-03    -55.0256E-03     106.573E-03    -51.5862E-03     64.1825E-03     113.398E-03     61.6925E+06    -134.560E+06    -153.892E+06    -203.206E+06    -180.062E+06    -160.524E+06    -151.072E+06     31.2352E+06
            1994     147.159E-03     3.79702E-03     147.110E-03     124.939E-03    -53.3014E-03    -71.7056E-03    -61.1690E-03     114.403E-03    -53.3014E-03     88.1377E-03     125.962E-03     58.3369E+06    -124.304E+06    -136.957E+06    -187.871E+06    -168.827E+06    -153.158E+06    -127.147E+06     24.1941E+06
            1995     147.219E-03     4.73553E-03     147.143E-03     141.636E-03    -55.7665E-03    -85.8040E-03    -70.4416E-03     126.273E-03    -55.7665E-03     113.954E-03     143.721E-03     56.7494E+06    -99.2500E+06    -122.966E+06    -162.676E+06    -151.504E+06    -134.137E+06    -99.2500E+06     14.6675E+06
            1996     147.310E-03     5.66409E-03     147.201E-03     163.461E-03    -59.1226E-03    -104.125E-03    -83.7835E-03     143.119E-03    -59.1226E-03     141.771E-03     167.575E-03     58.8035E+06    -70.6623E+06    -108.818E+06    -137.836E+06    -129.636E+06    -117.017E+06    -70.6623E+06     4.40206E+06
            1997     147.430E-03     6.58047E-03     147.283E-03     190.797E-03    -63.4896E-03    -127.329E-03    -102.287E-03     165.755E-03    -63.4896E-03     171.327E-03     198.086E-03     61.8024E+06    -43.5876E+06    -88.9506E+06    -113.784E+06    -107.506E+06    -95.2291E+06    -43.5876E+06    -3.87199E+06
            1998     147.594E-03     7.48045E-03     147.404E-03     223.948E-03    -69.0039E-03    -155.093E-03    -126.238E-03     195.094E-03    -69.0039E-03     201.007E-03     236.130E-03     66.5670E+06    -19.7566E+06    -66.4295E+06    -95.5752E+06    -90.2788E+06    -71.7259E+06    -19.7566E+06    -10.9219E+06
            1999     147.802E-03     8.35972E-03     147.566E-03     262.966E-03    -75.7697E-03    -187.264E-03    -155.748E-03     231.451E-03    -75.7697E-03     229.660E-03     282.273E-03     73.9341E+06    -260.076E+03    -43.4913E+06    -85.3259E+06    -77.5182E+06     -51.299E+06    -260.076E+03    -16.0325E+06
            2000     148.089E-03     9.21284E-03     147.802E-03     306.846E-03    -83.7984E-03    -223.100E-03    -190.484E-03     274.230E-03    -83.7984E-03     254.481E-03     335.888E-03     80.0163E+06     17.2153E+06    -20.1311E+06    -73.9159E+06    -64.5026E+06    -29.5444E+06     17.2153E+06    -20.0112E+06
            2001     148.372E-03     10.0408E-03     148.031E-03     353.292E-03    -93.2172E-03    -260.145E-03    -228.245E-03     321.393E-03    -93.2172E-03     272.065E-03     394.340E-03     83.6373E+06     34.3334E+06     6.39784E+06    -59.0756E+06    -50.2166E+06    -2.46118E+06     34.3334E+06    -21.5112E+06
            2002     148.749E-03     10.8340E-03     148.354E-03     399.487E-03    -103.871E-03    -295.710E-03    -265.635E-03     369.412E-03    -103.871E-03     282.513E-03     453.344E-03     90.3998E+06     54.3330E+06     41.5586E+06    -41.3186E+06    -36.7268E+06     37.7826E+06     53.5172E+06    -15.4098E+06
            2003     149.158E-03     11.6004E-03     148.706E-03     438.602E-03    -115.149E-03    -323.447E-03    -296.121E-03     411.277E-03    -115.149E-03     283.029E-03     504.575E-03     105.524E+06     83.5678E+06     70.7667E+06    -27.5174E+06    -25.9306E+06     81.1032E+06     71.6445E+06    -9.46553E+06
            2004     149.581E-03     12.3480E-03     149.070E-03     466.161E-03    -126.465E-03    -339.556E-03    -314.289E-03     440.894E-03    -126.465E-03     280.795E-03     546.827E-03     99.8615E+06     87.0547E+06     65.1658E+06    -21.7089E+06    -20.0958E+06     74.6603E+06     75.9471E+06    -10.8013E+06
            2005     150.020E-03     13.0899E-03     149.448E-03     478.916E-03    -137.332E-03    -341.449E-03    -320.111E-03     457.578E-03    -137.332E-03     260.194E-03     567.347E-03     89.8455E+06     80.9937E+06     59.1482E+06    -17.5610E+06    -15.4087E+06     56.9959E+06     80.9937E+06    -10.5963E+06
            2006     150.443E-03     13.8249E-03     149.807E-03     490.421E-03    -147.275E-03    -343.051E-03    -320.252E-03     467.622E-03    -147.275E-03     270.392E-03     604.982E-03     95.5505E+06     95.6073E+06     61.4571E+06    -11.3901E+06    -10.0570E+06     60.1240E+06     95.6073E+06    -7.55634E+06
            2007     150.955E-03     14.5589E-03     150.251E-03     483.760E-03    -156.118E-03    -327.545E-03    -309.380E-03     465.595E-03    -156.118E-03     231.911E-03     599.647E-03     126.071E+06     134.530E+06     64.1405E+06    -9.95924E+06    -7.06872E+06     61.2500E+06     134.530E+06    -4.92393E+06
            2008     148.177E-03     970.683E-06     148.174E-03     66.7889E-03    -32.3050E-03    -34.4895E-03    -33.4839E-03     65.7833E-03    -32.3050E-03     18.7108E-03     67.0103E-03     130.274E+06    -185.642E+06    -303.858E+06    -322.765E+06    -308.769E+06    -193.475E+06    -310.021E+06     9.89171E+06
            2009     148.179E-03     1.93652E-03     148.166E-03     75.6299E-03    -34.2282E-03    -41.4403E-03    -38.2344E-03     72.4239E-03    -34.2282E-03     37.3197E-03     76.2680E-03     114.384E+06     -158.92E+06    -255.572E+06    -279.222E+06    -265.517E+06    -171.049E+06    -257.148E+06     12.4479E+06
            2010     148.202E-03     2.89537E-03     148.174E-03     88.8030E-03    -36.8589E-03    -51.9709E-03    -45.2312E-03     82.0633E-03    -36.8589E-03     59.6256E-03     89.9486E-03     79.3469E+06    -149.258E+06    -205.177E+06    -232.636E+06    -219.787E+06    -162.107E+06    -205.177E+06     9.66646E+06
            2011     148.253E-03     3.84770E-03     148.203E-03     105.564E-03    -40.0712E-03    -65.4470E-03    -54.3711E-03     94.4876E-03    -40.0712E-03     83.9440E-03     107.334E-03     49.5112E+06    -135.298E+06    -161.685E+06    -188.985E+06    -179.654E+06    -148.302E+06    -158.012E+06     3.03046E+06
            2012     148.333E-03     4.79110E-03     148.256E-03     126.242E-03    -43.9706E-03    -82.2122E-03    -66.4460E-03     110.475E-03    -43.9706E-03     110.151E-03     129.181E-03     40.8948E+06    -109.427E+06    -124.819E+06    -154.674E+06    -147.860E+06    -124.592E+06    -116.469E+06    -4.65077E+06
            2013     148.439E-03     5.72434E-03     148.328E-03     152.029E-03    -48.6414E-03    -103.397E-03    -82.7735E-03     131.406E-03    -48.6414E-03     139.161E-03     157.021E-03     48.1664E+06    -80.8564E+06    -98.9383E+06    -134.371E+06    -125.028E+06    -107.045E+06    -82.0918E+06    -11.0248E+06
            2014     148.597E-03     6.64125E-03     148.448E-03     183.598E-03    -54.2708E-03    -129.334E-03    -104.149E-03     158.413E-03    -54.2708E-03     170.248E-03     191.549E-03     60.2162E+06    -51.8027E+06    -75.8643E+06    -118.278E+06    -109.128E+06    -85.0138E+06    -51.8027E+06    -16.4952E+06
            2015     148.803E-03     7.54016E-03     148.612E-03     221.041E-03    -61.0716E-03    -160.047E-03    -131.252E-03     192.245E-03    -61.0716E-03     201.377E-03     233.266E-03     73.2022E+06    -24.3669E+06    -49.3853E+06    -104.635E+06    -92.8035E+06    -61.2168E+06    -24.3669E+06    -22.4903E+06
            2016     149.080E-03     8.41553E-03     148.842E-03     264.877E-03    -69.0866E-03    -195.852E-03    -164.644E-03     233.669E-03    -69.0866E-03     231.401E-03     283.225E-03     79.8735E+06    -2.12751E+06    -27.8867E+06    -90.4971E+06    -73.6149E+06    -44.7690E+06    -2.12751E+06    -27.1925E+06
            2017     149.362E-03     9.26481E-03     149.074E-03     313.020E-03    -78.4515E-03    -234.589E-03    -202.458E-03     280.888E-03    -78.4515E-03     257.141E-03     339.287E-03     82.1629E+06     17.5363E+06    -7.73381E+06    -73.9502E+06    -57.7381E+06    -23.9459E+06     17.5363E+06    -27.6405E+06
            2018     149.753E-03     10.0810E-03     149.413E-03     363.425E-03    -89.1402E-03    -274.147E-03    -242.406E-03     331.684E-03    -89.1402E-03     277.050E-03     399.952E-03     85.6634E+06     34.0819E+06     10.5455E+06    -60.8227E+06    -49.1788E+06    -1.09831E+06     34.0819E+06    -26.0394E+06
            2019     150.183E-03     10.8693E-03     149.789E-03     411.001E-03    -100.841E-03    -310.081E-03    -279.851E-03     380.771E-03    -100.841E-03     288.697E-03     459.313E-03     93.3938E+06     49.2100E+06     32.6035E+06    -51.1059E+06    -43.8089E+06     25.3066E+06     49.2100E+06    -22.9066E+06
            2020     150.639E-03     11.6310E-03     150.190E-03     447.341E-03    -112.957E-03    -334.370E-03    -306.925E-03     419.897E-03    -112.957E-03     287.391E-03     507.578E-03     113.278E+06     78.2212E+06     59.9468E+06    -42.9019E+06    -39.7765E+06     69.3888E+06     65.6538E+06    -16.2576E+06
            2021     151.100E-03     12.3745E-03     150.592E-03     473.586E-03    -124.702E-03    -348.627E-03    -323.472E-03     448.432E-03    -124.702E-03     283.088E-03     548.148E-03     117.304E+06     87.1753E+06     67.7047E+06    -38.5870E+06    -36.5940E+06     81.5091E+06     71.3779E+06    -13.8704E+06
            2022     151.595E-03     13.1014E-03     151.027E-03     486.365E-03    -136.006E-03    -350.047E-03    -328.673E-03     464.991E-03    -136.006E-03     263.194E-03     569.821E-03     108.237E+06     81.9537E+06     60.3378E+06    -35.2424E+06    -31.1518E+06     59.4772E+06     78.7237E+06    -18.7612E+06
            2023     152.024E-03     13.8265E-03     151.394E-03     494.720E-03    -146.542E-03    -347.972E-03    -325.378E-03     472.125E-03    -146.542E-03     270.983E-03     601.246E-03     110.146E+06     93.6047E+06     50.0295E+06    -30.1549E+06    -23.4850E+06     43.3596E+06     93.6047E+06    -18.8519E+06
            2024     152.565E-03     14.5648E-03     151.868E-03     488.218E-03    -155.776E-03    -332.341E-03    -314.326E-03     470.204E-03    -155.776E-03     233.169E-03     596.562E-03     137.256E+06     136.372E+06      52.095E+06    -19.3225E+06    -10.0337E+06     42.8062E+06     136.372E+06    -9.21623E+06
            2025     149.227E-03     978.565E-06     149.224E-03     48.8116E-03    -23.4769E-03    -25.3318E-03    -24.5747E-03     48.0545E-03    -23.4769E-03     13.8650E-03     49.0702E-03     160.975E+06    -182.172E+06    -337.536E+06    -348.007E+06    -342.443E+06    -185.152E+06    -340.120E+06    -18.4451E+06
            2026     149.238E-03     1.95410E-03     149.225E-03     57.3992E-03    -25.1973E-03    -32.2057E-03    -29.5566E-03     54.7501E-03    -25.1973E-03     29.6054E-03     58.1746E-03     162.568E+06    -154.434E+06    -308.345E+06    -323.857E+06    -315.016E+06    -161.699E+06    -309.921E+06    -28.9497E+06
            2027     149.276E-03     2.92339E-03     149.248E-03     71.8590E-03    -27.9835E-03    -43.9214E-03    -37.7775E-03     65.7151E-03    -27.9835E-03     51.5377E-03     73.3734E-03     139.206E+06    -139.622E+06    -268.405E+06    -286.809E+06    -274.859E+06    -151.572E+06    -268.405E+06    -36.5688E+06
            2028     149.340E-03     3.88145E-03     149.289E-03     91.7868E-03    -31.7166E-03    -60.0850E-03    -49.2701E-03     80.9719E-03    -31.7166E-03     77.9985E-03     94.1185E-03     119.070E+06    -118.224E+06    -224.581E+06    -246.761E+06    -229.252E+06    -135.732E+06    -224.581E+06    -43.6043E+06
            2029     149.431E-03     4.82870E-03     149.353E-03     116.896E-03    -36.4439E-03    -80.4371E-03    -64.5316E-03     100.991E-03    -36.4439E-03     107.413E-03     120.566E-03     103.132E+06    -93.8214E+06    -171.417E+06    -207.447E+06    -183.290E+06    -117.979E+06    -171.417E+06    -45.7128E+06
            2030     149.573E-03     5.76020E-03     149.462E-03     147.225E-03    -42.2419E-03    -105.112E-03    -84.3155E-03     126.428E-03    -42.2419E-03     138.778E-03     153.039E-03     84.3666E+06    -76.4622E+06    -115.320E+06    -170.637E+06    -143.304E+06    -106.540E+06    -112.575E+06    -40.4626E+06
            2031     149.765E-03     6.67635E-03     149.616E-03     183.021E-03    -49.0731E-03    -133.975E-03    -108.952E-03     157.998E-03    -49.0731E-03     170.910E-03     191.772E-03     76.1705E+06    -52.4558E+06    -69.6039E+06    -135.524E+06    -111.348E+06    -81.8665E+06    -64.3689E+06    -34.5637E+06
            2032     150.023E-03     7.56993E-03     149.832E-03     224.461E-03    -57.0618E-03    -167.364E-03    -139.174E-03     196.271E-03    -57.0618E-03     202.351E-03     236.857E-03     80.4679E+06    -25.9843E+06    -35.1458E+06    -110.543E+06    -89.5699E+06    -52.1705E+06    -29.9330E+06    -34.4667E+06
            2033     150.294E-03     8.43987E-03     150.057E-03     271.118E-03    -66.3342E-03    -204.952E-03    -174.804E-03     240.970E-03    -66.3342E-03     231.664E-03     288.525E-03     90.6027E+06    -6.05864E+06    -16.3181E+06    -101.251E+06    -78.6873E+06    -38.2058E+06    -6.73446E+06    -37.1251E+06
            2034     150.690E-03     9.27816E-03     150.404E-03     320.948E-03    -76.8580E-03    -244.092E-03    -213.545E-03     290.401E-03    -76.8580E-03     255.150E-03     344.872E-03     99.1193E+06     12.4664E+06    -5.26943E+06    -94.0164E+06    -72.7949E+06    -26.4909E+06     12.4664E+06    -37.0537E+06
            2035     151.112E-03     10.0912E-03     150.775E-03     370.953E-03    -88.4591E-03    -282.149E-03    -252.408E-03     341.212E-03    -88.4591E-03     271.857E-03     402.783E-03     105.484E+06     32.8638E+06     11.3560E+06    -81.4578E+06    -66.6067E+06    -3.49513E+06     32.8638E+06    -33.3623E+06
            2036     151.599E-03     10.8720E-03     151.208E-03     413.057E-03    -100.791E-03    -312.273E-03    -284.432E-03     385.215E-03    -100.791E-03     278.221E-03     454.139E-03     110.368E+06     49.1769E+06     30.4433E+06    -69.2632E+06    -56.9725E+06     18.1526E+06     49.1769E+06    -31.8738E+06
            2037     152.107E-03     11.6313E-03     151.662E-03     445.054E-03    -113.125E-03    -331.908E-03    -306.674E-03     419.821E-03    -113.125E-03     275.150E-03     496.070E-03     109.788E+06     69.8848E+06     47.7422E+06    -48.9010E+06    -39.9383E+06     45.6525E+06     63.0118E+06    -25.9777E+06
            2038     152.647E-03     12.3734E-03     152.144E-03     468.713E-03    -124.836E-03    -343.467E-03    -319.994E-03     445.240E-03    -124.836E-03     272.041E-03     532.968E-03     100.649E+06     87.9842E+06     66.0030E+06    -21.4465E+06    -18.7280E+06     73.3876E+06     77.8812E+06    -12.4233E+06
            2039     153.178E-03     13.1078E-03     152.616E-03     481.338E-03    -136.101E-03    -344.994E-03    -324.346E-03     460.689E-03    -136.101E-03     257.491E-03     558.339E-03     99.5631E+06     99.8760E+06     73.0846E+06     -9.7237E+06    -6.08444E+06     72.6754E+06     96.6459E+06    -4.99259E+06
            2040     153.624E-03     13.8404E-03     152.999E-03     490.563E-03    -146.596E-03    -343.858E-03    -323.179E-03     469.884E-03    -146.596E-03     258.658E-03     589.133E-03     111.509E+06     115.585E+06     57.1665E+06    -11.3913E+06    -3.75591E+06     49.5311E+06     115.585E+06    -4.74449E+06
            2041     154.132E-03     14.5731E-03     153.441E-03     485.696E-03    -155.773E-03    -329.859E-03    -313.719E-03     469.557E-03    -155.773E-03     221.887E-03     585.357E-03     144.934E+06     148.161E+06     43.2267E+06    -16.4613E+06    -5.41444E+06     32.1798E+06     148.161E+06    -5.31124E+06
            2042     150.269E-03     978.108E-06     150.266E-03     49.1591E-03    -23.9240E-03    -25.2310E-03    -24.8374E-03     48.8224E-03    -23.9809E-03     8.36596E-03     49.4319E-03     123.932E+06    -138.468E+06    -254.821E+06    -268.588E+06    -261.975E+06    -144.073E+06    -255.829E+06    -25.3289E+06
            2043     150.286E-03     1.95412E-03     150.273E-03     55.2735E-03    -25.2628E-03    -30.0002E-03    -28.6706E-03     53.9440E-03    -25.2628E-03     19.1497E-03     56.1111E-03     147.069E+06    -115.065E+06    -247.025E+06    -273.282E+06    -260.034E+06    -128.312E+06    -247.025E+06    -43.0661E+06
            2044     150.332E-03     2.92513E-03     150.304E-03     66.3110E-03    -27.4461E-03    -38.9027E-03    -35.2981E-03     62.7065E-03    -27.4461E-03     36.3063E-03     68.0747E-03     165.978E+06    -95.8322E+06    -234.893E+06    -278.551E+06    -253.557E+06    -120.826E+06    -234.893E+06    -61.3535E+06
            2045     150.410E-03     3.89006E-03     150.360E-03     84.1208E-03    -30.6058E-03    -53.5416E-03    -46.0197E-03     76.5989E-03    -30.6058E-03     61.1792E-03     86.9525E-03     182.674E+06    -71.3658E+06    -217.192E+06    -274.464E+06    -237.234E+06    -108.597E+06    -217.192E+06    -77.3565E+06
            2046     150.530E-03     4.84026E-03     150.452E-03     110.123E-03    -35.0838E-03    -75.0195E-03    -62.3427E-03     97.4457E-03    -35.0838E-03     92.8177E-03     114.284E-03     179.350E+06    -58.8383E+06    -188.927E+06    -261.560E+06    -213.878E+06    -106.521E+06    -188.927E+06    -85.0779E+06
            2047     150.704E-03     5.77431E-03     150.594E-03     143.884E-03    -41.0396E-03    -102.891E-03    -84.7341E-03     125.727E-03    -41.0396E-03     128.522E-03     149.898E-03     161.704E+06    -53.0413E+06    -147.850E+06    -238.307E+06    -182.287E+06    -109.061E+06    -147.850E+06    -84.2527E+06
            2048     150.937E-03     6.68354E-03     150.789E-03     184.405E-03    -48.4184E-03    -136.036E-03    -113.193E-03     161.563E-03    -48.4184E-03     164.694E-03     193.055E-03     144.630E+06    -35.5344E+06    -108.183E+06    -200.459E+06    -145.979E+06    -90.0143E+06    -108.183E+06    -77.1247E+06
            2049     151.202E-03     7.57097E-03     151.012E-03     230.987E-03    -57.3469E-03    -173.652E-03    -147.743E-03     205.078E-03    -57.3469E-03     197.805E-03     243.113E-03     124.756E+06    -17.7666E+06    -65.0942E+06    -156.806E+06    -113.800E+06    -60.7726E+06    -65.0942E+06    -64.1399E+06
            2050     151.559E-03     8.42840E-03     151.324E-03     280.692E-03    -67.8478E-03    -213.042E-03    -186.041E-03     253.692E-03    -67.8478E-03     223.899E-03     297.255E-03     113.633E+06    -438.480E+03    -24.7829E+06    -123.486E+06    -89.0987E+06    -44.9834E+06    -14.6250E+06    -50.7329E+06
            2051     151.974E-03     9.25959E-03     151.691E-03     330.918E-03    -79.5022E-03    -251.358E-03    -225.045E-03     304.606E-03    -79.5022E-03     241.013E-03     352.556E-03     111.540E+06     24.6690E+06    -6.30932E+06    -96.2999E+06    -69.8054E+06    -32.8038E+06     24.6690E+06    -39.6028E+06
            2052     152.466E-03     10.0547E-03     152.134E-03     376.186E-03    -91.9023E-03    -283.938E-03    -259.010E-03     351.258E-03    -91.9023E-03     250.970E-03     403.386E-03     107.708E+06     48.4067E+06     9.56744E+06    -70.0171E+06    -51.0795E+06    -9.37014E+06     48.4067E+06    -31.7018E+06
            2053     152.992E-03     10.8302E-03     152.608E-03     410.057E-03    -104.555E-03    -305.411E-03    -282.403E-03     387.048E-03    -104.555E-03     251.779E-03     443.854E-03     104.589E+06     66.2288E+06     38.0625E+06    -48.0205E+06    -33.4949E+06     23.5369E+06     66.2288E+06    -27.8919E+06
            2054     153.570E-03     11.5917E-03     153.132E-03     434.069E-03    -116.771E-03    -317.278E-03    -296.205E-03     412.997E-03    -116.771E-03     247.627E-03     475.560E-03     100.668E+06     76.0100E+06     48.2408E+06    -35.0793E+06    -22.8818E+06     36.0432E+06     76.0100E+06    -27.2867E+06
            2055     154.163E-03     12.3387E-03     153.669E-03     449.819E-03    -128.074E-03    -321.653E-03    -301.854E-03     430.020E-03    -128.074E-03     243.661E-03     503.008E-03     102.598E+06     84.4421E+06     53.3923E+06    -29.9297E+06    -19.4272E+06     42.8897E+06     84.4421E+06    -23.6439E+06
            2056     154.706E-03     13.0857E-03     154.151E-03     460.911E-03    -138.494E-03    -322.292E-03    -304.156E-03     442.774E-03    -138.494E-03     235.314E-03     528.255E-03     110.416E+06     101.864E+06     59.2810E+06    -22.4602E+06    -14.7058E+06     51.5265E+06     101.864E+06    -11.7271E+06
            2057     155.215E-03     13.8205E-03     154.599E-03     473.281E-03    -147.861E-03    -325.317E-03    -306.387E-03     454.351E-03    -147.861E-03     242.554E-03     564.413E-03     114.669E+06     120.827E+06     53.5234E+06    -11.1470E+06    -6.51708E+06     48.8935E+06     120.827E+06     2.68282E+06
            2058     155.690E-03     14.5558E-03     155.008E-03     473.539E-03    -156.182E-03    -317.246E-03    -301.493E-03     457.785E-03    -156.182E-03     217.825E-03     568.805E-03     155.138E+06     162.006E+06     56.5135E+06    -16.0442E+06    -439.410E+03     40.9087E+06     162.006E+06     7.55943E+06
            2059     151.325E-03     969.712E-06     151.322E-03     67.8006E-03    -33.2870E-03    -34.5089E-03    -34.1332E-03     67.7379E-03    -33.5999E-03     1.12922E-03     68.1091E-03     85.4450E+06    -94.3118E+06    -171.424E+06    -185.924E+06    -179.272E+06    -99.4898E+06    -172.898E+06    -19.7653E+06
            2060     151.342E-03     1.93675E-03     151.329E-03     72.5260E-03    -34.6789E-03    -37.8489E-03    -37.5620E-03     72.2392E-03    -34.6789E-03     4.51377E-03     73.5295E-03     109.640E+06    -70.7009E+06    -161.998E+06    -191.402E+06    -175.941E+06    -86.1617E+06    -161.998E+06    -38.8592E+06
            2061     151.396E-03     2.90032E-03     151.369E-03     80.2493E-03    -36.7087E-03    -43.5652E-03    -42.6619E-03     79.3459E-03    -36.7087E-03     12.4956E-03     82.5407E-03     132.486E+06    -47.9821E+06    -143.095E+06    -198.632E+06    -168.867E+06    -77.7472E+06    -143.095E+06    -58.8820E+06
            2062     151.484E-03     3.85700E-03     151.434E-03     92.5533E-03    -39.5033E-03    -53.0676E-03    -50.6238E-03     90.1095E-03    -39.5033E-03     27.8517E-03     96.4682E-03     153.304E+06    -31.6533E+06    -129.412E+06    -207.862E+06    -166.260E+06    -73.2554E+06    -129.412E+06    -74.7596E+06
            2063     151.628E-03     4.80662E-03     151.552E-03     112.169E-03    -43.4322E-03    -68.7305E-03    -63.4940E-03     106.932E-03    -43.4322E-03     52.1441E-03     117.654E-03     167.728E+06    -26.2932E+06    -124.668E+06    -219.572E+06    -166.844E+06    -79.0214E+06    -124.668E+06    -85.8439E+06
            2064     151.826E-03     5.73730E-03     151.718E-03     141.051E-03    -48.7554E-03    -92.2988E-03    -83.0765E-03     131.828E-03    -48.7554E-03     84.3994E-03     147.998E-03     181.440E+06    -22.1862E+06    -120.367E+06    -231.050E+06    -164.164E+06    -89.0722E+06    -120.367E+06    -96.8893E+06
            2065     152.092E-03     6.64922E-03     151.947E-03     180.418E-03    -55.6887E-03    -124.720E-03    -111.178E-03     166.877E-03    -55.6887E-03     120.881E-03     189.204E-03     189.536E+06    -10.2752E+06    -108.782E+06    -228.063E+06    -152.564E+06    -85.7746E+06    -108.782E+06    -103.025E+06
            2066     152.389E-03     7.53177E-03     152.202E-03     228.622E-03    -64.6479E-03    -163.957E-03    -147.207E-03     211.871E-03    -64.6479E-03     154.930E-03     240.047E-03     179.052E+06    -2.72361E+06    -83.8453E+06    -207.219E+06    -133.139E+06    -76.8043E+06    -83.8453E+06    -97.5191E+06
            2067     152.811E-03     8.37812E-03     152.581E-03     280.643E-03    -75.6741E-03    -205.034E-03    -187.186E-03     262.795E-03    -75.6741E-03     179.390E-03     295.077E-03     161.856E+06     4.71061E+06    -49.5350E+06    -177.131E+06    -109.489E+06    -70.4119E+06    -42.0541E+06    -84.2739E+06
            2068     153.282E-03     9.18806E-03     153.007E-03     330.151E-03    -88.0192E-03    -242.094E-03    -224.653E-03     312.709E-03    -88.0192E-03     193.985E-03     347.860E-03     152.257E+06     22.3572E+06    -26.3763E+06    -145.997E+06    -84.8015E+06    -62.7422E+06    -2.47277E+06    -71.0379E+06
            2069     153.805E-03     9.97487E-03     153.481E-03     369.805E-03    -100.800E-03    -268.821E-03    -252.235E-03     353.219E-03    -100.800E-03     200.616E-03     391.259E-03     143.130E+06     41.5287E+06    -3.99170E+06    -115.179E+06    -64.7378E+06    -38.3672E+06     25.4633E+06    -61.3510E+06
            2070     154.376E-03     10.7447E-03     154.002E-03     396.878E-03    -113.377E-03    -283.296E-03    -267.891E-03     381.472E-03    -113.377E-03     200.283E-03     422.704E-03     137.240E+06     60.4346E+06     25.3525E+06    -89.4176E+06    -51.3736E+06    -6.22506E+06     53.9682E+06    -51.6838E+06
            2071     155.005E-03     11.4947E-03     154.579E-03     411.794E-03    -125.205E-03    -286.657E-03    -272.145E-03     397.282E-03    -125.205E-03     198.031E-03     443.587E-03     140.539E+06     89.5471E+06     40.7623E+06    -67.6616E+06    -44.1202E+06     17.2210E+06     89.5471E+06    -38.8453E+06
            2072     155.597E-03     12.2548E-03     155.113E-03     420.143E-03    -135.467E-03    -284.887E-03    -270.267E-03     405.523E-03    -135.467E-03     200.416E-03     461.541E-03     143.773E+06     110.510E+06     36.9728E+06    -49.5043E+06    -38.5659E+06     26.0345E+06     110.510E+06    -27.5110E+06
            2073     156.184E-03     13.0136E-03     155.641E-03     426.617E-03    -143.910E-03    -282.672E-03    -267.105E-03     411.050E-03    -143.910E-03     207.717E-03     482.947E-03     135.623E+06     110.881E+06     34.3480E+06    -40.5669E+06    -33.8009E+06     27.5821E+06     110.881E+06    -19.6794E+06
            2074     156.712E-03     13.7851E-03     156.104E-03     438.453E-03    -150.909E-03    -287.455E-03    -267.993E-03     418.991E-03    -150.909E-03     233.690E-03     527.181E-03     119.055E+06     100.190E+06     32.6305E+06    -37.1722E+06    -26.9754E+06     22.4337E+06     100.190E+06    -15.7241E+06
            2075     157.245E-03     14.5572E-03     156.570E-03     447.771E-03    -157.326E-03    -290.324E-03    -272.586E-03     430.034E-03    -157.326E-03     223.535E-03     554.612E-03     158.139E+06     148.222E+06     47.3877E+06    -33.6444E+06    -12.8611E+06     26.6043E+06     148.222E+06    -2.17816E+06
            2076     152.408E-03     951.287E-06     152.405E-03     107.671E-03    -53.2723E-03    -54.4218E-03    -53.9328E-03     107.514E-03    -53.6048E-03    -8.80798E-03     107.948E-03     46.5835E+06    -50.3255E+06    -86.3608E+06    -102.091E+06    -89.8447E+06    -61.0982E+06    -87.8344E+06    -15.8746E+06
            2077     152.431E-03     1.90012E-03     152.419E-03     112.541E-03    -54.7510E-03    -57.8202E-03    -57.3986E-03     112.119E-03    -54.7510E-03    -14.8064E-03     113.375E-03     71.7540E+06    -26.5183E+06    -75.7969E+06    -108.131E+06    -89.3958E+06    -45.2538E+06    -75.7969E+06    -32.5088E+06
            2078     152.486E-03     2.84341E-03     152.460E-03     120.846E-03    -57.2017E-03    -63.6804E-03    -62.8579E-03     120.023E-03    -57.2017E-03    -19.7708E-03     123.002E-03     92.1495E+06    -12.4278E+06    -64.9578E+06    -118.097E+06    -90.6330E+06    -39.8913E+06    -64.9578E+06    -46.0487E+06
            2079     152.589E-03     3.78048E-03     152.542E-03     131.542E-03    -60.6468E-03    -70.8919E-03    -69.4972E-03     130.147E-03    -60.6468E-03    -21.8535E-03     135.818E-03     107.464E+06    -6.13899E+06    -56.2965E+06    -128.477E+06    -93.1883E+06    -41.4273E+06    -56.2965E+06    -54.7538E+06
            2080     152.736E-03     4.70546E-03     152.664E-03     144.406E-03    -65.0892E-03    -79.2567E-03    -77.1353E-03     142.285E-03    -65.0892E-03    -17.1426E-03     150.850E-03     121.522E+06    -1.86547E+06    -49.0408E+06    -138.278E+06    -94.4238E+06    -45.7199E+06    -49.0408E+06    -63.0700E+06
            2081     152.957E-03     5.62098E-03     152.854E-03     162.286E-03    -70.4886E-03    -91.6878E-03    -88.6868E-03     159.285E-03    -70.4886E-03    -3.31092E-03     170.765E-03     140.861E+06     6.52875E+06    -40.7950E+06    -150.304E+06    -93.7150E+06    -50.0607E+06    -40.7950E+06    -74.8172E+06
            2082     153.217E-03     6.51930E-03     153.078E-03     188.996E-03    -77.2642E-03    -111.680E-03    -107.417E-03     184.733E-03    -77.2642E-03     15.6149E-03     199.842E-03     156.743E+06     9.64029E+06    -38.0059E+06    -164.069E+06    -95.9332E+06    -58.4957E+06    -38.0059E+06    -84.7657E+06
            2083     153.589E-03     7.38959E-03     153.411E-03     224.202E-03    -86.0962E-03    -138.003E-03    -132.436E-03     218.634E-03    -86.0962E-03     33.4884E-03     237.288E-03     164.078E+06     8.17648E+06    -39.0320E+06    -173.043E+06    -100.041E+06    -64.8256E+06    -39.0320E+06    -88.7633E+06
            2084     154.028E-03     8.22559E-03     153.808E-03     262.769E-03    -96.9402E-03    -165.587E-03    -159.349E-03     256.531E-03    -96.9402E-03     47.4610E-03     277.336E-03     165.448E+06     3.77921E+06    -34.9134E+06    -176.225E+06    -102.193E+06    -70.2532E+06    -34.9134E+06    -88.2717E+06
            2085     154.552E-03     9.02968E-03     154.288E-03     297.563E-03    -108.937E-03    -188.598E-03    -182.285E-03     291.250E-03    -108.937E-03     57.9972E-03     314.245E-03     170.550E+06     5.63156E+06    -19.7130E+06    -175.053E+06    -98.9368E+06    -70.4847E+06    -19.7130E+06    -88.7862E+06
            2086     155.106E-03     9.81157E-03     154.796E-03     324.147E-03    -120.924E-03    -203.266E-03    -197.407E-03     318.288E-03    -120.924E-03     66.5915E-03     343.045E-03     174.005E+06     19.3966E+06    -3.21287E+06    -164.529E+06    -90.4175E+06    -60.8790E+06     2.95071E+06    -86.1400E+06
            2087     155.736E-03     10.5696E-03     155.377E-03     340.119E-03    -131.219E-03    -208.872E-03    -202.476E-03     334.744E-03    -132.240E-03     76.7709E-03     361.647E-03     170.050E+06     41.5570E+06     12.2272E+06    -141.199E+06    -80.4864E+06    -42.0189E+06     35.0906E+06    -76.0166E+06
            2088     156.365E-03     11.3355E-03     155.954E-03     347.444E-03    -137.632E-03    -209.878E-03    -200.005E-03     341.905E-03    -141.967E-03     92.3593E-03     374.487E-03     168.817E+06     74.7735E+06     22.2545E+06    -112.629E+06    -65.6152E+06    -24.7594E+06     74.7735E+06    -59.2056E+06
            2089     156.985E-03     12.1074E-03     156.518E-03     352.607E-03    -142.068E-03    -210.695E-03    -196.315E-03     345.427E-03    -149.268E-03     118.471E-03     388.486E-03     159.025E+06     102.165E+06     20.1009E+06    -75.9395E+06    -48.1623E+06    -7.67639E+06     102.165E+06    -37.1266E+06
            2090     157.575E-03     12.9008E-03     157.046E-03     360.280E-03    -150.511E-03    -209.872E-03    -196.115E-03     350.410E-03    -154.399E-03     145.991E-03     413.198E-03     141.976E+06     116.478E+06     25.9389E+06    -42.7888E+06    -30.3942E+06     13.5443E+06     116.478E+06    -22.2874E+06
            2091     158.130E-03     13.7094E-03     157.534E-03     370.821E-03    -157.955E-03    -212.906E-03    -198.026E-03     355.941E-03    -157.955E-03     181.820E-03     458.716E-03     136.619E+06     120.427E+06     29.2194E+06    -35.4163E+06    -21.5510E+06     15.3541E+06     120.427E+06    -13.4682E+06
            2092     158.695E-03     14.5153E-03     158.029E-03     385.977E-03    -160.785E-03    -225.318E-03    -205.275E-03     365.934E-03    -160.785E-03     213.483E-03     508.287E-03     164.844E+06     149.129E+06     33.2584E+06    -38.0651E+06    -18.5597E+06     13.7531E+06     149.129E+06    -8.35139E+06
            2093     153.551E-03     921.132E-06     153.548E-03     173.355E-03    -85.8502E-03    -87.5171E-03    -86.9324E-03     172.847E-03    -85.9266E-03    -21.5023E-03     173.847E-03     41.2041E+06     7.26697E+06    -3.28167E+06    -37.1812E+06    -3.25611E+06    -27.1802E+06    -2.75962E+06    -14.8071E+06
            2094     153.580E-03     1.84064E-03     153.569E-03     180.712E-03    -88.1361E-03    -92.5751E-03    -91.0284E-03     179.166E-03    -88.1361E-03    -39.6596E-03     181.407E-03     47.5722E+06     16.0055E+06    -2.01688E+06    -37.1796E+06    -8.78353E+06    -14.4909E+06     83.4345E+03    -21.0912E+06
            2095     153.648E-03     2.75201E-03     153.624E-03     193.010E-03    -91.7634E-03    -101.251E-03    -97.9394E-03     189.698E-03    -91.7634E-03    -60.7337E-03     194.529E-03     60.9617E+06     23.9144E+06    -526.353E+03    -45.0577E+06    -16.4170E+06    -13.9472E+06     8.69448E+06    -25.8617E+06
            2096     153.754E-03     3.64841E-03     153.711E-03     208.826E-03    -96.9865E-03    -111.775E-03    -105.912E-03     202.964E-03    -96.9865E-03    -84.1242E-03     211.852E-03     72.6602E+06     32.2068E+06     1.77598E+06    -49.9418E+06    -19.3068E+06    -17.1215E+06     20.4693E+06    -29.6371E+06
            2097     153.917E-03     4.53343E-03     153.851E-03     226.634E-03    -103.626E-03    -122.924E-03    -113.153E-03     216.863E-03    -103.626E-03    -111.187E-03     231.704E-03     86.4794E+06     39.7884E+06     6.64285E+06    -56.1839E+06    -22.7807E+06    -18.4250E+06     31.4531E+06    -34.5355E+06
            2098     154.130E-03     5.40325E-03     154.035E-03     243.962E-03    -111.286E-03    -132.524E-03    -117.286E-03     228.724E-03    -111.286E-03    -138.498E-03     251.612E-03     101.582E+06     46.6909E+06     6.95889E+06    -64.5899E+06    -29.7227E+06    -18.8338E+06     37.6164E+06    -39.0855E+06
            2099     154.380E-03     6.26353E-03     154.252E-03     260.116E-03    -120.280E-03    -139.722E-03    -118.148E-03     238.543E-03    -120.280E-03    -161.226E-03     271.348E-03     113.533E+06     47.8555E+06     2.63237E+06    -75.6585E+06    -39.1073E+06    -24.0437E+06     37.9803E+06    -42.7812E+06
            2100     154.771E-03     7.07820E-03     154.610E-03     274.258E-03    -128.422E-03    -145.844E-03    -116.216E-03     246.944E-03    -130.736E-03    -175.977E-03     290.434E-03     120.827E+06     46.7513E+06    -2.90471E+06    -84.0699E+06    -45.0418E+06    -32.4671E+06     37.2857E+06    -43.0033E+06
            2101     155.216E-03     7.87688E-03     155.016E-03     282.856E-03    -128.364E-03    -154.403E-03    -110.888E-03     252.760E-03    -141.785E-03    -176.972E-03     304.622E-03     124.822E+06     48.8868E+06     2.16448E+06    -85.3235E+06    -43.2567E+06    -34.4638E+06     43.4482E+06    -44.4139E+06
            2102     155.729E-03     8.65460E-03     155.488E-03     284.084E-03    -120.033E-03    -164.165E-03    -102.852E-03     255.216E-03    -152.478E-03    -163.237E-03     313.424E-03     131.819E+06     55.5616E+06     7.99415E+06    -83.6920E+06    -41.8363E+06    -33.3470E+06     55.0470E+06    -44.0953E+06
            2103     156.296E-03     9.42599E-03     156.012E-03     278.369E-03    -107.872E-03    -170.610E-03    -92.2120E-03     254.091E-03    -161.991E-03    -135.769E-03     316.954E-03     140.706E+06     69.6232E+06     12.2254E+06    -81.8229E+06    -38.7596E+06    -30.4574E+06     69.2427E+06    -44.3683E+06
            2104     156.936E-03     10.1896E-03     156.605E-03     266.837E-03    -93.8339E-03    -172.976E-03    -79.6452E-03     249.384E-03    -169.711E-03    -98.5024E-03     315.791E-03     143.264E+06     80.6408E+06     12.8828E+06    -76.1032E+06    -37.3109E+06    -25.9095E+06     80.6408E+06    -39.4334E+06
            2105     157.568E-03     10.9779E-03     157.186E-03     254.487E-03    -79.9024E-03    -174.560E-03    -69.0388E-03     243.623E-03    -174.560E-03    -57.3101E-03     315.477E-03     147.729E+06     90.1366E+06     17.8544E+06    -73.7153E+06    -36.2181E+06    -19.6427E+06     90.1366E+06    -39.0720E+06
            2106     158.197E-03     11.8036E-03     157.756E-03     246.342E-03    -69.9430E-03    -176.385E-03    -62.6562E-03     239.055E-03    -176.385E-03    -16.0406E-03     318.957E-03     155.276E+06     92.7551E+06     17.3029E+06    -83.7033E+06    -38.4491E+06    -27.9513E+06     92.7551E+06    -32.5517E+06
            2107     158.803E-03     12.6603E-03     158.298E-03     250.288E-03    -73.8341E-03    -176.576E-03    -68.6442E-03     244.915E-03    -176.392E-03     20.7658E-03     335.904E-03     155.256E+06     112.936E+06     31.2821E+06    -62.9756E+06    -28.7334E+06    -2.96017E+06     112.936E+06    -27.7523E+06
            2108     159.417E-03     13.5060E-03     158.844E-03     258.459E-03    -82.7539E-03    -175.960E-03    -74.8128E-03     250.050E-03    -175.493E-03     37.0407E-03     365.674E-03     170.408E+06     135.410E+06     35.7521E+06    -58.0577E+06    -16.0003E+06    -6.30525E+06     135.410E+06    -5.98663E+06
            2109     159.960E-03     14.4011E-03     159.311E-03     243.184E-03    -62.3696E-03    -181.110E-03    -54.8313E-03     227.128E-03    -172.592E-03     82.5260E-03     363.233E-03     168.307E+06     143.522E+06     42.6171E+06    -45.9397E+06    -215.304E+03    -3.10731E+06     143.522E+06     3.42857E+06


