********************************************************************************
Field Output Report, written Mon Apr 21 02:08:57 2025

Source 1
---------

   ODB: F:/Abaqus_calc/Vel_20/odb/Correct/1020_2a_40_rd_2000_cal_10_v_20_f_050.odb
   Step: Step-1
   Frame: Increment  12093339: Step Time =   0.9298

Loc 1 : Nodal values from source 1

Output sorted by column "Nodal Label".

Field Output reported at nodes for region: DIE_2A_40_D0_36-1.Region_1
   Computation algorithm: EXTRAPOLATE_COMPUTE_AVERAGE
   Averaged at nodes
   Averaging regions: ODB_REGIONS

      Node Label  COORD.Magnitude     COORD.COOR1     COORD.COOR2
                          @Loc 1          @Loc 1          @Loc 1
------------------------------------------------------------------
               1     314.300E-03     19.3251E-03     313.706E-03


Field Output reported at nodes for region: DIE_2A_40_D0_36-1.Region_2
   Computation algorithm: EXTRAPOLATE_COMPUTE_AVERAGE
   Averaged at nodes
   Averaging regions: ODB_REGIONS

      Node Label  COORD.Magnitude     COORD.COOR1     COORD.COOR2
                          @Loc 1          @Loc 1          @Loc 1
------------------------------------------------------------------
               1     314.300E-03     19.3251E-03     313.706E-03


Field Output reported at nodes for part: WIRE_1-1
   Computation algorithm: EXTRAPOLATE_COMPUTE_AVERAGE
   Averaged at nodes
   Averaging regions: ODB_REGIONS

      Node Label  COORD.Magnitude     COORD.COOR1     COORD.COOR2    PE.Max. Prin    PE.Mid. Prin    PE.Min. Prin         PE.PE11         PE.PE22         PE.PE33         PE.PE12            PEEQ         S.Mises     S.Max. Prin     S.Mid. Prin     S.Min. Prin           S.S11           S.S22           S.S33           S.S12
                          @Loc 1          @Loc 1          @Loc 1          @Loc 1          @Loc 1          @Loc 1          @Loc 1          @Loc 1          @Loc 1          @Loc 1          @Loc 1          @Loc 1          @Loc 1          @Loc 1          @Loc 1          @Loc 1          @Loc 1          @Loc 1          @Loc 1
----------------------------------------------------------------------------------------------------------------------------------------------------------------------------------------------------------------------------------------------------------------------------------------------------------------------------------
               1     95.4663E-03     13.9074E-03     94.4479E-03     527.656E-03    -260.461E-03    -267.154E-03    -260.220E-03     520.722E-03    -260.461E-03     147.826E-03     621.331E-03     39.5118E+06     41.7363E+06     16.3143E+06    -3.30426E+06    -687.242E+03     13.6973E+06     41.7363E+06     247.849E+03
               2     92.1132E-03     2.60401E-06     92.1132E-03     519.762E-03    -258.108E-03    -261.830E-03    -261.828E-03     519.761E-03    -258.108E-03    -2.21606E-03     520.349E-03     10.0549E+06    -66.4391E+06    -73.7019E+06    -77.8798E+06    -72.7138E+06    -73.6701E+06    -71.6370E+06     180.164E+03
               3     10.1229E-06    -10.1229E-06     29.8023E-09     734.797E-03    -361.529E-03    -373.314E-03    -361.451E-03     734.720E-03    -373.314E-03     18.4439E-03     734.799E-03     19.1074E+06     30.9325E+06     13.8773E+06     10.2832E+06     11.5764E+06     29.6393E+06     13.8773E+06     5.00301E+06
               4     13.3970E-03     13.3970E-03     29.8023E-09         1.01077    -273.488E-03    -732.974E-03    -695.574E-03     973.365E-03    -273.488E-03     505.247E-03         1.12093     127.090E+06     17.8463E+06    -58.5256E+06    -128.863E+06    -53.0149E+06    -58.0020E+06    -58.5256E+06    -73.3123E+06
               5     186.967E-03     14.1309E-03     186.432E-03     128.702E-03     113.042E-03    -241.727E-03     128.459E-03     113.285E-03    -241.727E-03     3.87266E-03     251.293E-03     235.926E+06     158.896E+06     107.744E+06    -98.4094E+06    -53.2531E+06     113.740E+06     107.744E+06    -97.8769E+06
               6     178.969E-03     6.78344E-06     178.969E-03     317.076E-03    -155.413E-03    -161.602E-03    -160.873E-03     316.347E-03    -155.413E-03    -37.3180E-03     321.005E-03     19.7475E+06    -32.7549E+06    -33.1071E+06    -52.6761E+06    -36.8080E+06    -48.6231E+06    -33.1071E+06    -8.01962E+06
               7     95.1200E-03     13.1158E-03     94.2114E-03     544.515E-03    -259.591E-03    -285.034E-03    -265.730E-03     525.211E-03    -259.591E-03     236.311E-03     687.783E-03     40.0070E+06     40.1305E+06     18.3575E+06    -5.39940E+06    -1.96123E+06     14.9193E+06     40.1305E+06     91.2984E+03
               8     94.5091E-03     12.3433E-03     93.6996E-03     545.131E-03    -259.070E-03    -286.217E-03    -264.375E-03     523.289E-03    -259.070E-03     259.571E-03     708.536E-03     39.8663E+06     35.4038E+06     17.4747E+06    -9.99534E+06    -4.97850E+06     12.4578E+06     35.4038E+06     26.3416E+03
               9     94.1346E-03     11.5706E-03     93.4208E-03     531.282E-03    -259.241E-03    -271.379E-03    -256.987E-03     516.890E-03    -259.241E-03     212.307E-03     675.047E-03     37.8902E+06     31.4984E+06     15.9500E+06    -11.5466E+06    -7.16073E+06     11.5641E+06     31.4984E+06     277.202E+03
              10     93.6747E-03     10.8027E-03     93.0498E-03     528.491E-03    -259.170E-03    -268.937E-03    -254.987E-03     514.541E-03    -259.170E-03     208.085E-03     673.566E-03     36.0189E+06     29.1813E+06     13.6349E+06    -11.6682E+06    -9.41225E+06     11.3789E+06     29.1813E+06     427.778E+03
              11     93.3129E-03     10.0374E-03     92.7715E-03     522.231E-03    -259.334E-03    -262.979E-03    -252.355E-03     511.607E-03    -259.334E-03     181.383E-03     658.983E-03     35.7375E+06     27.6451E+06     8.53734E+06    -13.1898E+06    -12.2168E+06     7.56433E+06     27.6451E+06     701.240E+03
              12     93.0296E-03     9.26181E-03     92.5674E-03     520.621E-03    -259.535E-03    -260.691E-03    -251.799E-03     511.729E-03    -259.535E-03     165.337E-03     653.375E-03     36.4990E+06     26.4941E+06     7.54128E+06    -15.3469E+06    -15.0004E+06     7.19481E+06     26.4941E+06     1.64694E+06
              13     92.7852E-03     8.48730E-03     92.3963E-03     517.658E-03    -258.325E-03    -259.326E-03    -251.890E-03     511.034E-03    -259.137E-03     142.354E-03     640.085E-03     36.5992E+06     23.3909E+06     3.81458E+06    -18.6954E+06    -18.5323E+06     3.65147E+06     23.3909E+06     1.60664E+06
              14     92.5145E-03     7.71821E-03     92.1919E-03     513.812E-03    -255.606E-03    -258.614E-03    -250.913E-03     509.119E-03    -258.614E-03     119.243E-03     624.304E-03     37.0598E+06     20.1954E+06    -1.65596E+06    -22.5900E+06    -22.4871E+06    -1.75885E+06     20.1954E+06     1.01968E+06
              15     92.3328E-03     6.94421E-03     92.0713E-03     511.956E-03    -253.970E-03    -259.128E-03    -251.107E-03     509.092E-03    -259.128E-03     92.1701E-03     607.743E-03     37.2917E+06     14.9579E+06    -5.66601E+06    -28.0691E+06    -27.8361E+06    -5.89898E+06     14.9579E+06     1.65747E+06
              16     92.2180E-03     6.17070E-03     92.0113E-03     512.255E-03    -253.995E-03    -259.886E-03    -252.514E-03     510.773E-03    -259.886E-03     66.4675E-03     589.287E-03     35.2041E+06     7.09786E+06    -11.2164E+06    -33.4555E+06    -33.2714E+06    -11.4005E+06     7.09786E+06     1.57165E+06
              17     92.1397E-03     5.39882E-03     91.9814E-03     514.145E-03    -254.770E-03    -260.039E-03    -254.028E-03     513.403E-03    -260.039E-03     46.7689E-03     573.642E-03     33.3361E+06     281.988E+03    -18.9601E+06    -38.0947E+06    -38.0614E+06    -18.9934E+06     281.988E+03     778.035E+03
              18     92.0936E-03     4.62828E-03     91.9772E-03     516.417E-03    -255.763E-03    -259.937E-03    -255.449E-03     516.103E-03    -259.937E-03     30.3253E-03     560.638E-03     31.9441E+06    -7.21604E+06    -25.5775E+06    -43.9796E+06    -43.8828E+06    -25.6743E+06    -7.21604E+06     1.14077E+06
              19     92.0675E-03     3.85578E-03     91.9868E-03     517.857E-03    -257.565E-03    -260.006E-03    -257.456E-03     517.748E-03    -260.006E-03     17.4641E-03     549.766E-03     28.7613E+06    -16.8059E+06    -32.4730E+06    -49.9256E+06    -49.6751E+06    -32.7235E+06    -16.8059E+06     1.93290E+06
              20     92.0687E-03     3.08530E-03     92.0170E-03     518.484E-03    -259.087E-03    -260.067E-03    -259.178E-03     518.460E-03    -259.952E-03     7.59681E-03     540.900E-03     22.8602E+06    -29.8617E+06    -42.7062E+06    -56.1723E+06    -55.7161E+06    -43.1624E+06    -29.8617E+06     2.37150E+06
              21     92.0779E-03     2.31470E-03     92.0488E-03     518.543E-03    -259.098E-03    -259.786E-03    -259.210E-03     518.541E-03    -259.671E-03     987.467E-06     531.461E-03     14.9698E+06    -46.1148E+06    -53.7048E+06    -63.2605E+06    -62.7427E+06    -54.2227E+06    -46.1148E+06     2.13089E+06
              22     92.0945E-03     1.54245E-03     92.0816E-03     518.428E-03    -259.009E-03    -259.559E-03    -259.007E-03     518.426E-03    -259.559E-03    -2.13094E-03     524.189E-03     7.67931E+06    -60.0324E+06    -62.9545E+06    -68.5718E+06    -67.9256E+06    -63.6006E+06    -60.0324E+06     1.34613E+06
              23     92.1069E-03     770.718E-06     92.1036E-03     519.159E-03    -258.625E-03    -260.721E-03    -260.485E-03     519.157E-03    -258.860E-03    -2.44666E-03     521.125E-03     7.32218E+06    -66.0732E+06    -70.0089E+06    -74.1905E+06    -71.1884E+06    -70.4121E+06    -68.6722E+06     589.126E+03
              24     90.4274E-03     450.103E-09     90.4274E-03     519.299E-03    -258.528E-03    -261.030E-03    -261.028E-03     519.297E-03    -258.528E-03    -2.45266E-03     519.900E-03     11.7134E+06     -64.214E+06    -72.4729E+06    -77.5710E+06    -70.4434E+06    -72.4864E+06    -71.3281E+06     43.1412E+03
              25     88.7476E-03     192.953E-09     88.7476E-03     518.806E-03    -259.102E-03    -259.742E-03    -259.587E-03     518.804E-03    -259.255E-03    -1.85702E-03     519.357E-03     11.6498E+06    -62.3921E+06    -70.2979E+06    -75.7530E+06    -68.6525E+06    -70.2843E+06    -69.5062E+06     467.709E+03
              26     87.0616E-03    -313.111E-09     87.0616E-03     519.062E-03    -259.158E-03    -259.984E-03    -259.829E-03     519.060E-03    -259.311E-03    -2.00528E-03     519.674E-03     9.34217E+06    -62.7993E+06    -70.4360E+06    -73.0922E+06    -69.6203E+06    -69.8618E+06    -66.8455E+06     1.49740E+06
              27     85.3809E-03     1.41314E-06     85.3809E-03     518.339E-03    -258.467E-03    -259.881E-03    -259.879E-03     518.337E-03    -258.467E-03    -2.24350E-03     518.919E-03     8.08517E+06    -64.1863E+06    -68.6367E+06    -72.7957E+06    -66.7278E+06    -69.8599E+06    -69.0309E+06    -918.606E+03
              28     83.7003E-03    -252.692E-09     83.7003E-03     518.586E-03    -258.861E-03    -259.687E-03    -259.686E-03     518.586E-03    -258.861E-03    -998.435E-06     519.146E-03     8.25705E+06    -61.9115E+06    -66.1219E+06    -70.9300E+06    -65.5844E+06    -67.2571E+06    -66.1219E+06    -90.0817E+03
              29     82.0180E-03     320.941E-09     82.0180E-03     520.904E-03    -260.173E-03    -260.762E-03    -260.761E-03     520.904E-03    -260.173E-03    -1.51400E-03     521.504E-03     8.88993E+06    -62.8199E+06    -66.9500E+06    -72.4481E+06    -68.0184E+06    -67.9677E+06    -66.2318E+06     6.36725E+03
              30     80.3291E-03     662.408E-09     80.3291E-03     520.987E-03    -259.216E-03    -261.806E-03    -261.801E-03     520.982E-03    -259.216E-03    -3.67853E-03     521.571E-03     10.4560E+06     -60.437E+06    -66.6602E+06    -71.3043E+06    -65.3575E+06    -67.1019E+06    -65.9421E+06     312.451E+03
              31     78.6453E-03     2.73054E-06     78.6453E-03     518.802E-03    -257.971E-03    -260.854E-03    -260.849E-03     518.798E-03    -257.971E-03    -2.23258E-03     519.384E-03     9.49197E+06    -57.4868E+06    -63.0078E+06    -67.0789E+06    -60.6697E+06    -63.8960E+06    -63.0078E+06     536.147E+03
              32     76.9651E-03    -1.39477E-06     76.9651E-03     518.584E-03    -258.659E-03    -260.039E-03    -260.037E-03     518.582E-03    -258.659E-03    -1.27160E-03     519.191E-03     6.72275E+06    -61.3702E+06    -64.1928E+06    -68.1265E+06    -63.8028E+06    -65.6421E+06    -64.2447E+06    -730.710E+03
              33     75.2823E-03     2.23801E-06     75.2823E-03     519.957E-03    -259.266E-03    -260.728E-03    -260.726E-03     519.954E-03    -259.266E-03    -2.33926E-03     520.517E-03     5.44793E+06    -58.2111E+06    -63.0523E+06    -64.0192E+06    -61.0602E+06    -63.1527E+06    -61.0696E+06      891.81E+03
              34     73.5985E-03    -994.913E-09     73.5985E-03     520.169E-03    -259.568E-03    -260.681E-03    -260.680E-03     520.167E-03    -259.568E-03    -2.00873E-03     520.728E-03     3.98905E+06    -56.1421E+06    -59.2808E+06    -60.6304E+06    -58.3876E+06    -59.9849E+06    -57.6808E+06    -21.8397E+03
              35     71.9095E-03     1.38134E-06     71.9095E-03     518.239E-03    -258.807E-03    -259.557E-03    -259.555E-03     518.237E-03    -258.807E-03    -2.31550E-03     518.811E-03     3.17922E+06    -54.2242E+06    -56.8118E+06    -57.7729E+06    -55.8695E+06    -57.1764E+06    -55.7629E+06     480.067E+03
              36     70.2390E-03    -684.157E-09     70.2390E-03     518.094E-03    -258.311E-03    -259.779E-03    -259.778E-03     518.093E-03    -258.311E-03    -2.01960E-03     518.624E-03     2.80614E+06    -57.5400E+06    -59.5279E+06    -60.7027E+06    -59.1280E+06    -60.5982E+06    -58.0445E+06     361.700E+03
              37     68.5517E-03     2.24756E-06     68.5517E-03     521.247E-03    -259.394E-03    -261.761E-03    -261.759E-03     521.245E-03    -259.394E-03    -2.35772E-03     521.839E-03     3.18333E+06    -56.2550E+06    -57.9345E+06    -59.9260E+06    -56.2857E+06    -59.8954E+06    -57.9345E+06     266.042E+03
              38     66.8591E-03     75.6342E-09     66.8591E-03     521.928E-03    -259.272E-03    -262.857E-03    -262.855E-03     521.926E-03    -259.272E-03    -2.44543E-03     522.567E-03     5.07195E+06    -49.8538E+06    -52.7962E+06    -55.7065E+06    -52.2646E+06    -55.0630E+06    -51.0288E+06     860.951E+03
              39     65.1740E-03     3.27637E-06     65.1740E-03     519.897E-03    -258.740E-03    -261.427E-03    -261.426E-03     519.897E-03    -258.740E-03    -1.22903E-03     520.470E-03     7.65527E+06    -49.5686E+06    -55.5109E+06    -58.0954E+06    -52.6683E+06    -56.7631E+06    -53.7435E+06    -994.526E+03
              40     63.4998E-03    -2.64041E-06     63.4998E-03     518.532E-03    -258.928E-03    -259.539E-03    -259.442E-03     518.529E-03    -259.023E-03    -2.26586E-03     519.094E-03     11.5381E+06    -48.0327E+06    -53.3020E+06    -60.4779E+06    -53.8796E+06    -55.7254E+06    -52.2076E+06     1.15388E+06
              41     61.8127E-03     2.60735E-06     61.8127E-03     519.314E-03    -259.539E-03    -259.657E-03    -259.535E-03     519.311E-03    -259.657E-03    -1.17116E-03     519.849E-03     15.4451E+06    -42.3901E+06    -50.9588E+06    -59.1524E+06    -49.1250E+06     -53.512E+06    -49.8643E+06    -620.918E+03
              42     60.1249E-03    -2.71234E-06     60.1249E-03     520.631E-03    -259.802E-03    -260.818E-03    -259.797E-03     520.627E-03    -260.818E-03    -1.57315E-03     521.179E-03     15.7765E+06    -44.5517E+06    -52.8212E+06    -61.5290E+06    -51.3298E+06    -55.5462E+06    -52.0259E+06    -378.353E+03
              43     58.4482E-03     1.19598E-06     58.4482E-03     520.148E-03    -258.091E-03    -261.978E-03    -260.980E-03     520.142E-03    -259.083E-03    -4.09463E-03     520.713E-03     12.5450E+06    -43.6740E+06    -48.5839E+06    -57.3114E+06    -49.4019E+06    -52.3788E+06    -47.7887E+06     1.43257E+06
              44     56.7556E-03     3.47105E-06     56.7556E-03     518.930E-03    -257.447E-03    -261.271E-03    -261.270E-03     518.928E-03    -257.447E-03    -1.60055E-03     519.450E-03     7.12274E+06    -43.3742E+06    -48.2538E+06    -51.4716E+06    -45.2904E+06    -50.3204E+06    -47.4889E+06    -1.14861E+06
              45     55.0782E-03    -2.14522E-06     55.0782E-03     519.206E-03    -258.804E-03    -260.371E-03    -259.733E-03     519.206E-03    -259.441E-03    -234.778E-06     519.834E-03     3.31984E+06    -49.5617E+06    -50.7015E+06    -53.2829E+06    -50.9550E+06    -52.6546E+06    -49.9366E+06     467.980E+03
              46     53.3876E-03     1.11912E-06     53.3876E-03     520.234E-03    -259.280E-03    -260.916E-03    -260.276E-03     520.232E-03    -259.918E-03    -1.75784E-03     520.889E-03     2.69722E+06    -46.9485E+06    -47.6444E+06    -49.9241E+06    -47.3948E+06    -49.7988E+06    -47.3235E+06     184.231E+03
              47     51.7003E-03     456.414E-09     51.7003E-03     519.176E-03    -258.853E-03    -260.237E-03    -260.235E-03     519.174E-03    -258.853E-03    -2.73481E-03     519.710E-03     2.59109E+06    -47.0166E+06    -47.6765E+06    -49.8721E+06    -47.4775E+06    -49.7321E+06    -47.3555E+06     486.066E+03
              48     50.0294E-03     249.590E-09     50.0294E-03     519.075E-03    -259.020E-03    -259.954E-03    -259.952E-03     519.073E-03    -259.020E-03    -2.64525E-03     519.569E-03     2.85805E+06    -45.7819E+06    -46.6768E+06    -48.9685E+06    -46.1571E+06    -48.5933E+06    -46.6768E+06     829.941E+03
              49     48.3478E-03     662.050E-09     48.3478E-03     520.831E-03    -259.972E-03    -260.797E-03    -260.796E-03     520.830E-03    -259.972E-03    -1.54817E-03     521.414E-03     3.94153E+06    -43.0902E+06    -44.0191E+06    -47.3856E+06    -43.9670E+06    -46.8818E+06    -43.6461E+06     57.3521E+03
              50     46.6521E-03    -205.696E-09     46.6521E-03     520.320E-03    -258.955E-03    -261.362E-03    -261.356E-03     520.314E-03    -258.955E-03    -3.06380E-03     520.879E-03     4.04579E+06    -41.1931E+06    -42.5997E+06    -45.6074E+06    -42.4562E+06    -44.7173E+06    -42.2267E+06     229.549E+03
              51     44.9787E-03     3.71072E-06     44.9787E-03     520.095E-03    -258.196E-03    -261.923E-03    -261.916E-03     520.088E-03    -258.196E-03    -1.65161E-03     520.640E-03     4.95605E+06    -38.4920E+06    -42.0933E+06    -44.1443E+06    -39.9439E+06    -42.6923E+06    -42.0933E+06    -722.555E+03
              52     43.2851E-03    -1.12979E-06     43.2851E-03     522.193E-03    -259.659E-03    -262.543E-03    -262.538E-03     522.188E-03    -259.659E-03    -1.29237E-03     522.799E-03     6.01555E+06    -39.5683E+06    -42.5881E+06    -46.2731E+06    -41.6745E+06    -44.6189E+06    -42.1360E+06    -432.431E+03
              53     41.5865E-03     3.23310E-06     41.5865E-03     521.255E-03    -259.772E-03    -261.610E-03    -261.606E-03     521.251E-03    -259.772E-03    -2.12708E-03     521.823E-03     4.32950E+06    -41.6700E+06    -43.3034E+06    -46.4745E+06    -43.1868E+06    -45.4097E+06    -42.8513E+06     607.142E+03
              54     39.9075E-03    -2.42727E-06     39.9075E-03     518.956E-03    -259.170E-03    -260.065E-03    -259.718E-03     518.953E-03    -259.514E-03    -1.55823E-03     519.500E-03     5.20733E+06    -40.9251E+06    -43.2322E+06    -46.8311E+06    -43.8941E+06    -44.9878E+06    -42.1064E+06     776.163E+03
              55     38.2275E-03     1.99541E-06     38.2275E-03     519.192E-03    -259.467E-03    -259.841E-03    -259.465E-03     519.189E-03    -259.841E-03    -1.98297E-03     519.733E-03     8.02018E+06    -36.2345E+06    -40.3396E+06    -45.3821E+06    -40.1807E+06    -42.5617E+06    -39.2138E+06    -893.522E+03
              56     36.5475E-03    -2.16890E-06     36.5475E-03     520.246E-03    -259.790E-03    -260.391E-03    -260.359E-03     520.244E-03    -259.820E-03    -1.85128E-03     520.812E-03     7.48774E+06    -38.3226E+06    -42.1263E+06    -46.8399E+06    -40.5287E+06    -44.6337E+06    -42.1263E+06    -659.415E+03
              57     34.8642E-03     2.99499E-06     34.8642E-03     520.670E-03    -258.930E-03    -261.701E-03    -261.698E-03     520.666E-03    -258.930E-03    -3.04570E-03     521.226E-03     5.72016E+06    -41.7301E+06    -44.5046E+06    -48.2002E+06    -43.1846E+06    -46.7457E+06    -44.5046E+06     489.122E+03
              58     33.1799E-03     525.313E-09     33.1799E-03     519.200E-03    -257.446E-03    -261.754E-03    -261.751E-03     519.196E-03    -257.446E-03    -3.25869E-03     519.747E-03     7.89662E+06    -41.4947E+06    -47.2388E+06    -50.4900E+06    -46.6049E+06    -49.1738E+06    -43.4448E+06    -73.4271E+03
              59     31.4872E-03     2.81750E-06     31.4872E-03     517.906E-03    -256.222E-03    -261.623E-03    -258.324E-03     517.900E-03    -259.515E-03     136.578E-06     518.448E-03     12.5757E+06    -38.2700E+06    -49.0739E+06    -51.9686E+06    -43.3711E+06    -49.6537E+06    -46.2876E+06    -561.297E+03
              60     29.8133E-03    -8.00308E-06     29.8133E-03     518.795E-03    -257.046E-03    -261.920E-03    -257.032E-03     518.781E-03    -261.920E-03    -1.79002E-03     519.386E-03     13.6840E+06    -36.7323E+06    -47.6224E+06    -51.8046E+06    -42.9375E+06    -48.4719E+06    -44.7500E+06     31.9539E+03
              61     28.1322E-03     5.65997E-06     28.1322E-03     518.737E-03    -256.847E-03    -262.143E-03    -260.552E-03     518.726E-03    -258.427E-03    -4.25941E-03     519.321E-03     12.8901E+06    -38.4404E+06    -47.2302E+06    -53.2186E+06    -44.6873E+06    -50.8519E+06      -43.35E+06    -136.315E+03
              62     26.4513E-03     102.258E-09     26.4513E-03     517.616E-03    -256.600E-03    -261.059E-03    -260.316E-03     517.616E-03    -257.343E-03    -266.738E-06     518.143E-03     12.1270E+06    -40.3526E+06    -48.3540E+06    -54.2615E+06    -45.3077E+06    -52.3982E+06    -45.2622E+06    -127.287E+03
              63     24.7680E-03    -1.37368E-06     24.7680E-03     516.440E-03    -257.617E-03    -258.801E-03    -258.052E-03     516.435E-03    -258.360E-03    -3.00921E-03     516.963E-03     13.1724E+06    -38.7859E+06    -47.3135E+06    -53.9281E+06    -43.6511E+06    -52.1547E+06    -44.2217E+06     -43.122E+03
              64     23.0961E-03     2.06300E-06     23.0961E-03     514.950E-03    -257.171E-03    -257.810E-03    -257.805E-03     514.945E-03    -257.171E-03    -3.32266E-03     515.452E-03     15.1209E+06    -38.1377E+06    -47.3991E+06    -55.5181E+06    -44.5303E+06    -52.9511E+06    -43.5735E+06     710.302E+03
              65     21.4104E-03    -1.60975E-06     21.4104E-03     513.140E-03    -255.816E-03    -257.398E-03    -257.390E-03     513.132E-03    -255.816E-03    -3.74606E-03     513.652E-03     17.8231E+06    -36.2234E+06    -46.8250E+06    -56.7636E+06    -42.8401E+06    -53.9724E+06    -42.9995E+06    -146.298E+03
              66     19.7335E-03     3.77049E-06     19.7335E-03     508.368E-03    -253.246E-03    -255.197E-03    -255.189E-03     508.360E-03    -253.246E-03    -4.13803E-03     508.905E-03     20.0559E+06    -29.2066E+06    -41.1253E+06    -52.3290E+06    -37.2024E+06    -49.4758E+06    -35.9827E+06     425.625E+03
              67     18.0815E-03    -2.79960E-06     18.0815E-03     498.780E-03    -248.536E-03    -250.331E-03    -250.306E-03     498.755E-03    -248.536E-03    -6.84822E-03     499.242E-03     22.6815E+06    -17.3506E+06    -32.0306E+06    -43.3490E+06    -25.1557E+06    -40.6864E+06     -26.888E+06     688.271E+03
              68     16.4346E-03     4.55281E-06     16.4346E-03     485.147E-03    -241.328E-03    -243.834E-03    -243.808E-03     485.122E-03    -241.328E-03    -7.01011E-03     485.503E-03     24.2955E+06    -10.3275E+06    -26.9205E+06    -38.1770E+06    -20.2788E+06    -35.2813E+06    -19.8649E+06     699.266E+03
              69     14.8130E-03    -2.46480E-06     14.8130E-03     467.365E-03    -232.941E-03    -234.446E-03    -234.184E-03     467.330E-03    -233.167E-03    -7.85968E-03     467.614E-03     23.3061E+06    -3.85133E+06    -20.8776E+06    -30.2470E+06    -13.5139E+06    -27.6399E+06    -13.8221E+06     2.18417E+06
              70     13.2327E-03     1.95006E-06     13.2327E-03     445.011E-03    -221.390E-03    -223.647E-03    -223.368E-03     444.958E-03    -221.616E-03    -11.6923E-03     445.172E-03     21.9402E+06    -848.934E+03    -15.3477E+06    -25.6178E+06    -11.5126E+06    -19.4822E+06    -10.8197E+06     1.21914E+06
              71     11.6825E-03     1.44702E-06     11.6825E-03     419.165E-03    -208.295E-03    -210.853E-03    -210.785E-03     419.098E-03    -208.295E-03    -12.5599E-03     419.369E-03     24.9227E+06     12.9557E+06    -3.23534E+06    -15.3797E+06     2.25205E+06    -9.20410E+06     1.29268E+06     3.05470E+06
              72     10.1888E-03    -768.636E-09     10.1888E-03     393.351E-03    -195.708E-03    -197.654E-03    -197.587E-03     393.284E-03    -195.708E-03    -12.2186E-03     393.726E-03     26.3467E+06     24.8028E+06     8.16100E+06    -5.13958E+06     11.9232E+06     2.76118E+06     13.1398E+06     626.836E+03
              73     8.72188E-03     3.25754E-06     8.72188E-03     382.292E-03    -190.376E-03    -191.973E-03    -191.956E-03     382.274E-03    -190.376E-03    -4.77433E-03     382.990E-03     27.5384E+06     37.7994E+06     16.9638E+06     8.19985E+06     24.9820E+06     16.0384E+06     21.9427E+06    -29.4305E+03
              74     7.25926E-03    -3.10727E-06     7.25926E-03     407.951E-03    -202.998E-03    -205.045E-03    -203.128E-03     407.903E-03    -204.866E-03     7.57022E-03     408.914E-03     33.6946E+06     42.5809E+06     23.5676E+06     7.09047E+06     23.8622E+06     22.6526E+06     26.7242E+06    -116.239E+03
              75     5.72547E-03     569.595E-09     5.72547E-03     484.767E-03    -240.311E-03    -244.402E-03    -242.358E-03     484.592E-03    -242.180E-03     22.2345E-03     485.609E-03     24.9454E+06     33.1006E+06     22.6684E+06     6.52250E+06     11.6786E+06     25.3626E+06     25.2504E+06     2.92147E+06
              76     4.01363E-03     2.86884E-06     4.01363E-03     595.148E-03    -294.953E-03    -300.173E-03    -299.927E-03     594.903E-03    -294.953E-03     29.5717E-03     595.594E-03     14.8196E+06     41.4076E+06     30.8210E+06     25.2536E+06     35.5063E+06     36.7224E+06     25.2536E+06     2.88394E+06
              77     2.08951E-03     1.89161E-06     2.08951E-03     694.059E-03    -342.631E-03    -351.521E-03    -345.472E-03     693.902E-03    -348.524E-03     24.4429E-03     694.177E-03     16.7940E+06     35.6177E+06     23.7792E+06     16.9893E+06     22.7555E+06     34.8444E+06     18.7863E+06     1.86604E+06
              78     683.553E-06     683.553E-06     29.8023E-09     729.678E-03    -360.712E-03    -368.919E-03    -360.568E-03     729.534E-03    -368.919E-03     24.3328E-03     729.617E-03     18.4970E+06     35.5305E+06     18.0645E+06     16.2577E+06     17.2183E+06     34.5699E+06     18.0645E+06     854.884E+03
              79     1.37244E-03     1.37244E-03     29.8023E-09     714.614E-03    -352.393E-03    -362.300E-03    -352.089E-03     714.309E-03    -362.300E-03     35.5625E-03     714.552E-03     21.6939E+06     38.9068E+06     19.0668E+06     15.9379E+06     18.1404E+06     36.7043E+06     19.0668E+06     3.13997E+06
              80     2.07786E-03     2.07786E-03     29.8023E-09     691.455E-03    -334.829E-03    -356.237E-03    -334.331E-03     690.957E-03    -356.237E-03     44.9243E-03     691.671E-03     29.2783E+06     43.2167E+06     16.8610E+06     11.7714E+06     17.2055E+06     37.7826E+06     16.8610E+06    -2.22838E+06
              81     2.79427E-03     2.79427E-03     29.8023E-09     662.599E-03    -313.280E-03    -348.179E-03    -312.546E-03     661.865E-03    -348.179E-03     53.2000E-03     663.347E-03     31.0502E+06     45.1453E+06     17.6124E+06     11.6075E+06     18.3980E+06     38.3547E+06     17.6124E+06    -553.048E+03
              82     3.52951E-03     3.52951E-03     29.8023E-09     629.486E-03    -289.947E-03    -339.122E-03    -288.989E-03     628.528E-03    -339.122E-03     59.2145E-03     631.207E-03     28.9635E+06     42.9024E+06     18.3939E+06     10.9479E+06     17.3680E+06     36.4823E+06     18.3939E+06     120.239E+03
              83     4.28434E-03     4.28434E-03     29.8023E-09     594.070E-03    -265.547E-03    -328.819E-03    -264.473E-03     592.996E-03    -328.819E-03     60.7019E-03     596.927E-03     28.7097E+06     43.4370E+06     18.6702E+06     11.9697E+06     17.8086E+06     37.5981E+06     18.6702E+06    -465.622E+03
              84     5.06051E-03     5.06051E-03     29.8023E-09     560.053E-03    -242.129E-03    -317.610E-03    -241.010E-03     558.933E-03    -317.610E-03     59.8792E-03     563.838E-03     27.3048E+06     42.9300E+06     19.6088E+06     12.8984E+06     17.4565E+06     38.3719E+06     19.6088E+06     1.00771E+06
              85     5.85441E-03     5.85441E-03     29.8023E-09     528.721E-03    -221.959E-03    -306.256E-03    -220.858E-03     527.620E-03    -306.256E-03     57.4450E-03     533.798E-03     22.1427E+06     39.6561E+06     22.6768E+06     14.7713E+06     18.4058E+06     36.0216E+06     22.6768E+06    -968.779E+03
              86     6.66405E-03     6.66405E-03     29.8023E-09     500.086E-03    -204.321E-03    -295.260E-03    -203.308E-03     499.073E-03    -295.260E-03     53.3808E-03     506.531E-03     17.1130E+06     34.8436E+06     26.2767E+06     15.3882E+06     18.5932E+06     31.6386E+06     26.2767E+06     582.398E+03
              87     7.48739E-03     7.48739E-03     29.8023E-09     475.553E-03    -190.010E-03    -284.904E-03    -189.113E-03     474.656E-03    -284.904E-03     48.8085E-03     484.239E-03     15.1078E+06     32.4083E+06     29.6275E+06     16.2284E+06     18.8137E+06     29.6140E+06     29.8365E+06    -751.810E+03
              88     8.32265E-03     8.32265E-03     29.8023E-09     457.025E-03    -180.973E-03    -275.303E-03    -180.089E-03     456.142E-03    -275.303E-03     47.4277E-03     468.142E-03     15.3171E+06     34.0337E+06     27.8565E+06     17.4598E+06     20.3940E+06     24.9223E+06     34.0337E+06     868.092E+03
              89     9.15634E-03     9.15634E-03     29.8023E-09     445.062E-03    -178.033E-03    -266.923E-03    -177.231E-03     444.260E-03    -266.923E-03     44.5260E-03     458.496E-03     23.2777E+06     39.3151E+06     23.0419E+06     12.6590E+06     19.0506E+06     16.6503E+06     39.3151E+06     1.61947E+06
              90     10.0026E-03     10.0026E-03     29.8023E-09     443.154E-03    -184.171E-03    -259.858E-03    -183.663E-03     442.646E-03    -259.858E-03     35.1846E-03     459.246E-03     50.0046E+06     41.7341E+06     19.0444E+06    -14.9999E+06     15.1185E+06    -11.0740E+06     41.7341E+06     9.55303E+06
              91     10.8357E-03     10.8357E-03     29.8023E-09     464.075E-03    -209.838E-03    -254.938E-03    -209.592E-03     463.830E-03    -254.938E-03     24.9562E-03     481.971E-03     73.5124E+06     30.5220E+06     13.3967E+06    -49.6472E+06     9.90683E+06    -46.1573E+06     30.5220E+06    -1.94350E+06
              92     11.6442E-03     11.6442E-03     29.8023E-09     518.438E-03    -240.877E-03    -279.025E-03    -266.865E-03     518.200E-03    -252.800E-03     26.9599E-03     542.284E-03     89.7222E+06     34.4322E+06    -615.175E+03    -65.3476E+06     2.23368E+06    -37.8897E+06     4.12541E+06     21.0722E+06
              93     12.3668E-03     12.3668E-03     29.8023E-09     623.473E-03    -256.459E-03    -369.760E-03    -368.701E-03     622.414E-03    -256.459E-03     61.7121E-03     656.457E-03     120.380E+06     88.8682E+06    -1.50103E+06    -45.9043E+06    -2.48203E+06     45.4459E+06    -1.50103E+06     3.77652E+06
              94     13.0291E-03     13.0291E-03     29.8023E-09     851.574E-03    -267.069E-03    -583.889E-03    -564.295E-03     831.980E-03    -267.069E-03     297.453E-03     925.117E-03     132.773E+06     73.0249E+06    -25.2234E+06    -76.0434E+06    -28.2650E+06     25.2465E+06    -25.2234E+06    -62.1316E+06
              95     14.0970E-03     13.7218E-03     3.23099E-03     843.652E-03    -270.691E-03    -570.691E-03    -524.014E-03     796.975E-03    -270.691E-03     492.573E-03         1.02711     158.550E+06     69.1560E+06    -53.5399E+06    -107.030E+06     6.59537E+06    -44.4695E+06    -53.5399E+06    -81.9749E+06
              96     14.5888E-03     13.7871E-03     4.76959E-03     630.312E-03    -268.048E-03    -363.028E-03    -316.629E-03     583.913E-03    -268.048E-03     418.459E-03     895.714E-03     125.762E+06     77.8444E+06    -21.8436E+06    -60.3826E+06     29.5831E+06    -12.1213E+06    -21.8436E+06    -27.9572E+06
              97     15.2175E-03     13.8240E-03     6.36156E-03     578.830E-03    -266.516E-03    -314.143E-03    -288.114E-03     552.801E-03    -266.516E-03     293.496E-03     777.257E-03     45.5457E+06     26.5019E+06    -483.142E+03    -25.4816E+06     -831.88E+03     6.63309E+06    -5.26410E+06     11.4655E+06
              98     16.0394E-03     13.8483E-03     8.09226E-03     574.582E-03    -264.353E-03    -312.507E-03    -300.101E-03     562.176E-03    -264.353E-03     206.900E-03     682.631E-03     47.4513E+06     13.9592E+06    -4.43411E+06    -38.0824E+06     3.04201E+06     6.48308E+06    -38.0824E+06    -2.92544E+06
              99     16.9643E-03     13.8446E-03     9.80379E-03     582.493E-03    -263.564E-03    -320.244E-03    -311.136E-03     573.384E-03    -263.564E-03     180.331E-03     673.063E-03     36.8705E+06     6.50874E+06    -1.52746E+06    -33.6863E+06    -803.178E+03     2.49293E+06    -30.3948E+06     610.627E+03
             100     18.0787E-03     13.8648E-03     11.6021E-03     588.429E-03    -262.398E-03    -325.685E-03    -317.080E-03     579.825E-03    -262.398E-03     176.535E-03     676.960E-03     23.1553E+06     6.13224E+06    -2.39595E+06    -20.0765E+06    -3.05021E+06     3.49498E+06    -16.7849E+06    -557.950E+03
             101     19.2714E-03     13.8649E-03     13.3848E-03     585.661E-03    -261.641E-03    -323.327E-03    -314.465E-03     576.799E-03    -261.641E-03     178.596E-03     675.731E-03     26.0004E+06     13.2659E+06     2.59701E+06    -16.3274E+06    -1.40900E+06     9.14579E+06    -8.20128E+06     2.20645E+06
             102     20.5595E-03     13.8749E-03     15.1717E-03     575.262E-03    -261.599E-03    -312.915E-03    -303.265E-03     565.612E-03    -261.599E-03     184.024E-03     668.138E-03     15.0900E+06     17.8556E+06     6.69160E+06     1.29816E+06     2.24541E+06     14.1756E+06     9.42431E+06     1.03530E+06
             103     21.8653E-03     13.8799E-03     16.8950E-03     561.777E-03    -261.434E-03    -299.577E-03    -289.573E-03     551.774E-03    -261.434E-03     184.566E-03     657.128E-03     22.6454E+06     21.8878E+06     7.39940E+06    -3.32574E+06    -2.31405E+06     14.8190E+06     13.4566E+06    -361.417E+03
             104     23.2195E-03     13.8853E-03     18.6103E-03     551.572E-03    -261.369E-03    -289.591E-03    -280.095E-03     542.075E-03    -261.369E-03     177.727E-03     648.036E-03     23.3679E+06     26.6525E+06     19.7143E+06     1.09944E+06     1.56219E+06     19.2516E+06     26.6525E+06     749.973E+03
             105     24.6040E-03     13.8926E-03     20.3064E-03     541.619E-03    -261.379E-03    -279.723E-03    -270.815E-03     532.711E-03    -261.379E-03     170.134E-03     637.556E-03     28.4244E+06     27.3105E+06     21.3998E+06    -3.39665E+06    -2.62345E+06     20.6266E+06     27.3105E+06    -793.742E+03
             106     26.0128E-03     13.8953E-03     21.9906E-03     534.346E-03    -261.365E-03    -272.595E-03    -264.371E-03     526.122E-03    -261.365E-03     162.043E-03     629.496E-03     30.3619E+06     31.6510E+06     22.9044E+06    -2.12120E+06     1.14223E+06     19.6409E+06     31.6510E+06     1.64364E+06
             107     27.4473E-03     13.8979E-03     23.6686E-03     531.793E-03    -261.181E-03    -270.342E-03    -262.704E-03     524.154E-03    -261.181E-03     155.797E-03     627.038E-03     32.3567E+06     33.6554E+06     21.7789E+06    -2.89221E+06     1.22849E+06     17.6582E+06     33.6554E+06    -98.1958E+03
             108     28.9210E-03     13.8999E-03     25.3617E-03     531.595E-03    -260.904E-03    -270.281E-03    -262.805E-03     524.119E-03    -260.904E-03     154.128E-03     625.539E-03     35.4262E+06     32.7557E+06     17.8931E+06    -7.68060E+06    -4.69890E+06     14.9114E+06     32.7557E+06    -537.403E+03
             109     30.4095E-03     13.9037E-03     27.0448E-03     532.596E-03    -260.762E-03    -271.224E-03    -263.996E-03     525.368E-03    -260.762E-03     151.731E-03     625.892E-03     31.3383E+06     35.1844E+06     19.7881E+06    -819.066E+03     2.81154E+06     16.1575E+06     35.1844E+06    -369.760E+03
             110     31.9288E-03     13.8995E-03     28.7446E-03     532.611E-03    -260.859E-03    -271.230E-03    -264.147E-03     525.528E-03    -260.859E-03     150.243E-03     626.265E-03     32.1454E+06     33.4416E+06     17.3584E+06    -3.53412E+06      -1.583E+03     13.8259E+06     33.4416E+06    -394.104E+03
             111     33.4569E-03     13.9043E-03     30.4308E-03     529.278E-03    -260.913E-03    -268.317E-03    -261.167E-03     522.128E-03    -260.913E-03     150.354E-03     623.336E-03     30.9233E+06     29.4487E+06     14.8573E+06    -6.06298E+06    -1.40273E+06     10.1971E+06     29.4487E+06    -1.12950E+06
             112     34.9941E-03     13.9030E-03     32.1137E-03     528.776E-03    -260.783E-03    -267.904E-03    -260.762E-03     521.634E-03    -260.783E-03     150.187E-03     623.130E-03     31.0406E+06     27.7223E+06     13.4869E+06    -7.86317E+06    -3.33633E+06     8.96005E+06     27.7223E+06    -1.17093E+06
             113     36.5557E-03     13.9067E-03     33.8072E-03     530.735E-03    -260.698E-03    -269.587E-03    -262.526E-03     523.674E-03    -260.698E-03     149.674E-03     624.594E-03     27.6376E+06     29.5268E+06     14.0745E+06    -2.03487E+06     1.53489E+06     10.5047E+06     29.5268E+06     999.673E+03
             114     38.1084E-03     13.9024E-03     35.4820E-03     530.012E-03    -260.750E-03    -268.980E-03    -262.053E-03     523.085E-03    -260.750E-03     148.144E-03     624.084E-03     28.4618E+06     27.9630E+06     10.3041E+06    -4.73117E+06    -1.93959E+06     7.51256E+06     27.9630E+06    -184.324E+03
             115     39.6794E-03     13.9068E-03     37.1626E-03     529.711E-03    -260.763E-03    -268.816E-03    -261.870E-03     522.766E-03    -260.763E-03     148.292E-03     624.048E-03     26.0681E+06     25.7133E+06     10.0598E+06    -4.29399E+06    -181.255E+03     5.94708E+06     25.7133E+06     287.215E+03
             116     41.2753E-03     13.9023E-03     38.8636E-03     530.142E-03    -260.775E-03    -269.190E-03    -262.148E-03     523.100E-03    -260.775E-03     149.390E-03     624.239E-03     24.9299E+06     24.7244E+06     10.1432E+06    -3.94263E+06      54.302E+03     6.14630E+06     24.7244E+06     53.2942E+03
             117     42.8627E-03     13.9069E-03     40.5439E-03     528.401E-03    -260.741E-03    -267.699E-03    -260.646E-03     521.348E-03    -260.741E-03     149.201E-03     622.413E-03     24.6513E+06     23.9565E+06     9.96318E+06    -4.43729E+06    -1.13536E+06     6.66124E+06     23.9565E+06    -313.435E+03
             118     44.4647E-03     13.9049E-03     42.2346E-03     528.469E-03    -260.631E-03    -267.784E-03    -260.709E-03     521.394E-03    -260.631E-03     149.445E-03     622.592E-03     24.3483E+06     22.9816E+06     10.4856E+06    -4.89837E+06    -1.49595E+06     7.08317E+06     22.9816E+06    -6.70625E+03
             119     46.0763E-03     13.9069E-03     43.9275E-03     530.353E-03    -260.596E-03    -269.377E-03    -262.312E-03     523.288E-03    -260.596E-03     149.666E-03     624.583E-03     24.9272E+06     25.8769E+06     11.8397E+06    -2.47385E+06     868.505E+03     8.49739E+06     25.8769E+06     619.752E+03
             120     47.6793E-03     13.9051E-03     45.6066E-03     529.157E-03    -260.620E-03    -268.404E-03    -261.540E-03     522.293E-03    -260.620E-03     147.335E-03     623.650E-03     23.4950E+06     24.7958E+06     11.4043E+06    -1.91246E+06     1.02479E+06     8.46705E+06     24.7958E+06    -351.288E+03
             121     49.2987E-03     13.9070E-03     47.2965E-03     528.609E-03    -260.630E-03    -268.043E-03    -260.953E-03     521.519E-03    -260.630E-03     149.599E-03     623.555E-03     24.2298E+06     22.8148E+06     9.24134E+06    -4.81106E+06    -2.31554E+06     6.74581E+06     22.8148E+06    -806.355E+03
             122     50.9205E-03     13.9059E-03     48.9850E-03     529.527E-03    -260.564E-03    -268.990E-03    -261.780E-03     522.317E-03    -260.564E-03     151.045E-03     623.604E-03     24.8184E+06     25.1890E+06     8.74223E+06    -3.29996E+06     -306.39E+03     5.74866E+06     25.1890E+06    -154.414E+03
             123     52.5516E-03     13.9088E-03     50.6776E-03     529.545E-03    -260.469E-03    -269.011E-03    -262.007E-03     522.541E-03    -260.469E-03     148.914E-03     623.384E-03     24.8195E+06     25.5009E+06     8.71409E+06    -2.91345E+06    -1.10067E+06     6.90131E+06     25.5009E+06     380.623E+03
             124     54.1856E-03     13.9061E-03     52.3708E-03     529.780E-03    -260.492E-03    -268.980E-03    -262.067E-03     522.867E-03    -260.492E-03     147.969E-03     624.253E-03     24.6377E+06     25.5104E+06     9.52484E+06    -2.69745E+06    -944.325E+03     7.77171E+06     25.5104E+06     400.043E+03
             125     55.8160E-03     13.9073E-03     54.0557E-03     529.423E-03    -260.571E-03    -268.642E-03    -261.646E-03     522.427E-03    -260.571E-03     148.767E-03     623.670E-03     26.2186E+06     26.9115E+06     9.73000E+06    -3.08876E+06    -955.157E+03     7.59640E+06     26.9115E+06     14.4373E+03
             126     57.4469E-03     13.9048E-03     55.7387E-03     529.592E-03    -260.529E-03    -268.788E-03    -261.589E-03     522.392E-03    -260.529E-03     150.941E-03     623.940E-03     26.6819E+06     26.8798E+06     11.0573E+06    -3.51266E+06    -1.31413E+06     8.85882E+06     26.8798E+06     379.735E+03
             127     59.0875E-03     13.9085E-03     57.4273E-03     530.038E-03    -260.506E-03    -269.134E-03    -262.101E-03     523.005E-03    -260.506E-03     149.272E-03     624.411E-03     26.9880E+06     27.5272E+06     12.6374E+06    -3.42092E+06     43.0842E+03     9.17343E+06     27.5272E+06    -563.166E+03
             128     60.7246E-03     13.9050E-03     59.1112E-03     529.400E-03    -260.572E-03    -268.677E-03    -261.753E-03     522.477E-03    -260.572E-03     148.016E-03     623.837E-03     28.5733E+06     28.4305E+06     12.0014E+06    -4.43323E+06    -471.829E+03     8.03998E+06     28.4305E+06     143.626E+03
             129     62.3713E-03     13.9067E-03     60.8011E-03     529.475E-03    -260.644E-03    -268.778E-03    -261.650E-03     522.348E-03    -260.644E-03     150.176E-03     623.640E-03     29.2622E+06     27.9429E+06     11.1161E+06    -5.71984E+06    -1.79284E+06     7.18911E+06     27.9429E+06    -12.4563E+03
             130     64.0141E-03     13.9063E-03     62.4854E-03     529.447E-03    -260.588E-03    -268.788E-03    -261.717E-03     522.377E-03    -260.588E-03     149.567E-03     623.309E-03     28.5847E+06     27.6431E+06     11.2487E+06    -5.23053E+06    -1.24107E+06     7.25921E+06     27.6431E+06    -15.9113E+03
             131     65.6603E-03     13.9084E-03     64.1704E-03     529.063E-03    -260.503E-03    -268.491E-03    -261.558E-03     522.129E-03    -260.503E-03     148.077E-03     623.402E-03     29.3436E+06     29.5264E+06     11.7815E+06    -4.09359E+06    -294.948E+03     7.98283E+06     29.5264E+06     268.383E+03
             132     67.3111E-03     13.9059E-03     65.8590E-03     529.656E-03    -260.492E-03    -269.049E-03    -261.978E-03     522.585E-03    -260.492E-03     149.628E-03     624.168E-03     31.0517E+06     30.4287E+06     12.0381E+06    -5.13639E+06    -1.31741E+06     8.21912E+06     30.4287E+06     544.401E+03
             133     68.9652E-03     13.9081E-03     67.5482E-03     529.453E-03    -260.519E-03    -268.863E-03    -261.864E-03     522.454E-03    -260.519E-03     148.833E-03     624.005E-03     30.9187E+06     30.2027E+06     12.4204E+06    -5.29535E+06    -1.12705E+06     8.25210E+06     30.2027E+06     252.335E+03
             134     70.6162E-03     13.9052E-03     69.2336E-03     528.570E-03    -260.536E-03    -268.151E-03    -261.134E-03     521.553E-03    -260.536E-03     148.874E-03     623.032E-03     31.2575E+06     30.9073E+06     13.2584E+06    -4.94482E+06    -999.556E+03     9.31311E+06     30.9073E+06     65.6445E+03
             135     72.2714E-03     13.9097E-03     70.9202E-03     529.216E-03    -260.474E-03    -268.741E-03    -261.711E-03     522.186E-03    -260.474E-03     149.125E-03     623.490E-03     31.3395E+06     31.5511E+06     14.1784E+06    -4.43638E+06    -251.662E+03     9.99369E+06     31.5511E+06    -148.908E+03
             136     73.9287E-03     13.9043E-03     72.6094E-03     529.925E-03    -260.419E-03    -269.213E-03    -262.233E-03     522.945E-03    -260.419E-03     148.714E-03     623.927E-03     32.0920E+06     34.2007E+06     14.1189E+06    -2.78580E+06     1.59857E+06     9.73457E+06     34.2007E+06    -225.941E+03
             137     75.5819E-03     13.9090E-03     74.2911E-03     529.104E-03    -260.326E-03    -268.502E-03    -261.481E-03     522.083E-03    -260.326E-03     149.007E-03     622.727E-03     33.0346E+06     32.9389E+06     12.7351E+06    -5.17558E+06    -2.33580E+06     9.89532E+06     32.9389E+06     168.036E+03
             138     77.2377E-03     13.9055E-03     75.9757E-03     528.718E-03    -260.303E-03    -268.292E-03    -261.335E-03     521.761E-03    -260.303E-03     148.277E-03     622.364E-03     32.3771E+06     33.5099E+06     15.0861E+06    -3.80476E+06    -716.640E+03     11.9980E+06     33.5099E+06     620.709E+03
             139     78.8957E-03     13.9090E-03     77.6599E-03     528.818E-03    -260.323E-03    -268.374E-03    -261.413E-03     521.858E-03    -260.323E-03     148.325E-03     622.863E-03      33.013E+06     33.5729E+06     15.5763E+06    -4.50397E+06    -1.22755E+06     12.2998E+06     33.5729E+06     185.232E+03
             140     80.5486E-03     13.9053E-03     79.3393E-03     529.460E-03    -260.338E-03    -268.778E-03    -261.963E-03     522.644E-03    -260.338E-03     146.872E-03     623.583E-03     34.6495E+06     34.7800E+06     15.5444E+06    -5.20784E+06    -2.13508E+06     12.4717E+06     34.7800E+06     101.388E+03
             141     82.2093E-03     13.9046E-03     81.0249E-03     529.092E-03    -260.428E-03    -268.452E-03    -261.571E-03     522.211E-03    -260.428E-03     147.495E-03     622.798E-03     36.7105E+06     38.4472E+06     16.4086E+06    -3.82723E+06     53.9024E+03     12.5275E+06     38.4472E+06    -287.032E+03
             142     83.8629E-03     13.9058E-03     82.7019E-03     527.748E-03    -260.380E-03    -267.471E-03    -260.414E-03     520.692E-03    -260.380E-03     149.154E-03     621.193E-03     37.6053E+06     36.7854E+06     14.5444E+06    -6.50514E+06    -2.58563E+06     10.6249E+06     36.7854E+06    -91.9385E+03
             143     85.5212E-03     13.9056E-03     84.3832E-03     528.836E-03    -260.300E-03    -268.378E-03    -261.476E-03     521.934E-03    -260.300E-03     147.703E-03     622.436E-03     36.5061E+06     37.6718E+06     14.9251E+06    -4.14831E+06    -451.333E+03     11.2281E+06     37.6718E+06     653.764E+03
             144     87.1818E-03     13.9012E-03     86.0664E-03     529.502E-03    -260.341E-03    -268.854E-03    -261.986E-03     522.634E-03    -260.341E-03     147.455E-03     623.065E-03     35.9446E+06     37.2102E+06     15.1046E+06    -3.93594E+06    -544.532E+03     11.7132E+06     37.2102E+06     253.703E+03
             145     88.8354E-03     13.9078E-03     87.7399E-03     528.492E-03    -260.335E-03    -268.057E-03    -261.141E-03     521.576E-03    -260.335E-03     147.794E-03     622.081E-03     36.8724E+06     36.8409E+06     15.1974E+06    -5.55951E+06    -2.02529E+06     11.6632E+06     36.8409E+06    -371.923E+03
             146     90.4898E-03     13.9040E-03     89.4153E-03     528.656E-03    -260.346E-03    -268.149E-03    -261.336E-03     521.843E-03    -260.346E-03     146.723E-03     622.560E-03     39.9485E+06     40.6576E+06     15.9745E+06    -5.35824E+06    -1.84992E+06     12.4661E+06     40.6576E+06    -318.968E+03
             147     92.1509E-03     13.9048E-03     91.0958E-03     528.781E-03    -260.422E-03    -268.111E-03    -261.339E-03     522.010E-03    -260.422E-03     146.292E-03     622.736E-03     37.8917E+06     40.8194E+06     16.9897E+06    -2.75290E+06      25.599E+03     14.2112E+06     40.8194E+06     552.150E+03
             148     93.8138E-03     13.9028E-03     92.7779E-03     527.576E-03    -260.489E-03    -266.997E-03    -260.122E-03     520.700E-03    -260.489E-03     147.180E-03     621.309E-03     38.0825E+06     39.7882E+06     16.8297E+06    -3.96913E+06    -1.59206E+06     14.4526E+06     39.7882E+06     -1.9935E+03
             149     97.1265E-03     13.9024E-03     96.1264E-03     529.302E-03    -260.403E-03    -268.631E-03    -261.648E-03     522.319E-03    -260.403E-03     148.641E-03     622.427E-03     39.2753E+06     41.4696E+06     16.8535E+06    -3.24594E+06    -641.929E+03     14.2495E+06     41.4696E+06     275.387E+03
             150     98.7845E-03     13.9059E-03     97.8009E-03     529.334E-03    -260.446E-03    -268.582E-03    -261.598E-03     522.350E-03    -260.446E-03     148.643E-03     622.585E-03     41.3147E+06     43.1263E+06     17.5906E+06    -4.07766E+06    -1.65259E+06     15.1655E+06     43.1263E+06    -120.371E+03
             151     100.440E-03     13.9028E-03     99.4727E-03     528.238E-03    -260.492E-03    -267.709E-03    -260.743E-03     521.272E-03    -260.492E-03     148.268E-03     622.161E-03     42.4327E+06     44.8633E+06     19.2226E+06    -3.58133E+06    -838.366E+03     16.4796E+06     44.8633E+06     630.296E+03
             152     102.106E-03     13.9069E-03     101.155E-03     527.959E-03    -260.498E-03    -267.451E-03    -260.454E-03     520.962E-03    -260.498E-03     148.545E-03     621.722E-03     41.3734E+06     43.5042E+06     20.3282E+06    -4.03835E+06    -1.66431E+06     17.9542E+06     43.5042E+06     543.984E+03
             153     103.769E-03     13.9014E-03     102.833E-03     527.994E-03    -260.484E-03    -267.433E-03    -260.398E-03     520.959E-03    -260.484E-03     148.947E-03     621.694E-03     41.2057E+06     45.1694E+06     21.7153E+06    -2.21794E+06    -164.762E+03     19.6621E+06     45.1694E+06    -135.383E+03
             154     105.438E-03     13.9071E-03     104.516E-03     529.276E-03    -260.421E-03    -268.578E-03    -261.457E-03     522.155E-03    -260.421E-03     150.079E-03     623.394E-03     44.1124E+06     46.6406E+06     21.4467E+06    -4.11022E+06    -2.23844E+06     19.5749E+06     46.6406E+06    -252.107E+03
             155     107.111E-03     13.9030E-03     106.205E-03     530.517E-03    -260.372E-03    -269.582E-03    -262.648E-03     523.582E-03    -260.372E-03     148.306E-03     624.627E-03     43.7290E+06     48.0944E+06     22.4182E+06    -2.26971E+06     193.723E+03     19.9548E+06     48.0944E+06     669.274E+03
             156     108.785E-03     13.9064E-03     107.892E-03     529.541E-03    -260.433E-03    -268.723E-03    -261.788E-03     522.605E-03    -260.433E-03     148.138E-03     623.091E-03     46.2270E+06     47.8941E+06     23.2184E+06    -5.42899E+06    -2.85777E+06     20.6472E+06     47.8941E+06    -133.136E+03
             157     110.457E-03     13.9017E-03     109.578E-03     529.070E-03    -260.500E-03    -268.304E-03    -261.156E-03     521.922E-03    -260.500E-03     150.313E-03     622.581E-03     48.8925E+06     50.0610E+06     22.4129E+06    -6.38353E+06    -3.70840E+06     19.7377E+06     50.0610E+06     35.8705E+03
             158     112.144E-03     13.9050E-03     111.278E-03     529.174E-03    -260.511E-03    -268.354E-03    -261.306E-03     522.126E-03    -260.511E-03     149.282E-03     623.398E-03     46.8929E+06     51.6629E+06     23.3644E+06    -2.45089E+06     406.029E+03     20.5075E+06     51.6629E+06     319.103E+03
             159     113.822E-03     13.9015E-03     112.970E-03     528.191E-03    -260.532E-03    -267.501E-03    -260.442E-03     521.132E-03    -260.532E-03     149.219E-03     622.605E-03     46.7760E+06     52.5573E+06     25.7588E+06    -1.38233E+06     1.18951E+06     23.1870E+06     52.5573E+06     85.7477E+03
             160     115.499E-03     13.9072E-03     114.658E-03     527.989E-03    -260.499E-03    -267.422E-03    -260.106E-03     520.673E-03    -260.499E-03     151.850E-03     621.945E-03     50.2577E+06     52.5147E+06     25.2560E+06    -5.47415E+06    -3.46816E+06     23.2500E+06     52.5147E+06     341.570E+03
             161     117.182E-03     13.9047E-03     116.354E-03     529.280E-03    -260.436E-03    -268.471E-03    -261.293E-03     522.102E-03    -260.436E-03     150.621E-03     623.689E-03     52.0674E+06     53.9804E+06     25.3115E+06    -6.11810E+06    -4.11518E+06     23.3086E+06     53.9804E+06     431.114E+03
             162     118.872E-03     13.9078E-03     118.055E-03     529.940E-03    -260.422E-03    -268.904E-03    -261.837E-03     522.873E-03    -260.422E-03     149.590E-03     624.878E-03     52.1965E+06     57.0177E+06     27.5388E+06    -3.23231E+06    -629.333E+03     24.9358E+06     57.0177E+06    -394.545E+03
             163     120.557E-03     13.9050E-03     119.752E-03     529.402E-03    -260.278E-03    -268.737E-03    -261.255E-03     521.920E-03    -260.278E-03     153.811E-03     624.351E-03     53.8726E+06     56.8903E+06     28.8011E+06    -5.10332E+06    -2.18014E+06     25.8780E+06     56.8903E+06     575.179E+03
             164     122.243E-03     13.9083E-03     121.450E-03     529.425E-03    -260.044E-03    -268.975E-03    -261.434E-03     521.884E-03    -260.044E-03     154.439E-03     624.248E-03     54.7703E+06     58.1868E+06     28.2699E+06    -4.78735E+06    -1.62505E+06     25.1076E+06     58.1868E+06     441.560E+03
             165     123.916E-03     13.9042E-03     123.134E-03     529.620E-03    -259.915E-03    -269.101E-03    -261.809E-03     522.329E-03    -259.915E-03     151.926E-03     624.290E-03     57.4621E+06     61.1539E+06     29.4471E+06    -4.97191E+06    -2.06977E+06     26.5450E+06     61.1539E+06     153.163E+03
             166     125.589E-03     13.9080E-03     124.817E-03     529.154E-03    -259.849E-03    -268.859E-03    -261.580E-03     521.875E-03    -259.849E-03     151.727E-03     624.123E-03     60.0066E+06     64.0131E+06     30.0048E+06    -4.98491E+06    -2.29660E+06     27.3165E+06     64.0131E+06     302.133E+03
             167     127.275E-03     13.9037E-03     126.513E-03     528.780E-03    -259.831E-03    -268.528E-03    -261.215E-03     521.467E-03    -259.831E-03     152.020E-03     624.289E-03     61.0092E+06     65.8025E+06     30.0171E+06    -4.45919E+06    -1.74365E+06     27.3015E+06     65.8025E+06     291.469E+03
             168     128.957E-03     13.9062E-03     128.205E-03     527.884E-03    -259.787E-03    -267.656E-03    -260.268E-03     520.496E-03    -259.787E-03     152.608E-03     623.427E-03     62.8835E+06     67.1540E+06     31.4867E+06    -5.36672E+06    -2.72752E+06     28.8475E+06     67.1540E+06      4.2975E+03
             169     130.642E-03     13.9043E-03     129.900E-03     527.097E-03    -259.650E-03    -267.138E-03    -259.446E-03     519.405E-03    -259.650E-03     155.556E-03     622.880E-03     64.5064E+06     68.8496E+06     30.8325E+06    -5.60307E+06    -2.80620E+06     28.0356E+06     68.8496E+06     235.342E+03
             170     132.315E-03     13.9111E-03     131.582E-03     526.884E-03    -259.538E-03    -267.181E-03    -259.614E-03     519.317E-03    -259.538E-03     154.259E-03     622.852E-03     66.9109E+06     72.8385E+06     31.7878E+06    -4.26844E+06    -1.01444E+06     28.5338E+06     72.8385E+06    -299.074E+03
             171     133.990E-03     13.9056E-03     133.266E-03     528.320E-03    -259.504E-03    -268.520E-03    -261.153E-03     520.953E-03    -259.504E-03     152.520E-03     624.221E-03     70.5385E+06     75.7113E+06     32.5082E+06    -5.58562E+06    -2.22537E+06     29.1480E+06     75.7113E+06     157.688E+03
             172     135.670E-03     13.9079E-03     134.955E-03     527.874E-03    -259.545E-03    -268.032E-03    -260.698E-03     520.540E-03    -259.545E-03     152.086E-03     623.370E-03     71.0740E+06     77.1332E+06     33.6321E+06    -4.78571E+06    -2.32214E+06     31.1685E+06     77.1332E+06     1.41215E+06
             173     137.334E-03     13.9066E-03     136.628E-03     526.348E-03    -259.585E-03    -266.623E-03    -259.019E-03     518.743E-03    -259.585E-03     154.504E-03     621.884E-03     73.4978E+06     79.5728E+06     35.7533E+06    -5.11587E+06    -3.41515E+06     34.0526E+06     79.5728E+06    -12.7963E+03
             174     138.992E-03     13.9105E-03     138.294E-03     527.599E-03    -259.536E-03    -267.766E-03    -260.087E-03     519.920E-03    -259.536E-03     155.501E-03     623.231E-03     74.3219E+06     82.2067E+06     36.9291E+06    -3.31680E+06    -1.65413E+06     35.2664E+06     82.2067E+06     136.412E+03
             175     140.659E-03     13.9084E-03     139.970E-03     526.531E-03    -259.532E-03    -266.996E-03    -259.428E-03     518.963E-03    -259.532E-03     154.224E-03     621.916E-03      76.258E+06     84.5137E+06     39.7422E+06    -3.14763E+06    -1.45874E+06     38.0534E+06     84.5137E+06     432.656E+03
             176     142.314E-03     13.9152E-03     141.632E-03     525.005E-03    -259.509E-03    -265.836E-03    -258.132E-03     517.300E-03    -259.509E-03     155.347E-03     620.927E-03     77.8889E+06     85.3970E+06     43.7074E+06    -4.41167E+06    -2.73331E+06     42.0291E+06     85.3970E+06    -166.458E+03
             177     143.977E-03     13.9131E-03     143.303E-03     527.131E-03    -259.453E-03    -267.699E-03    -260.198E-03     519.630E-03    -259.453E-03     153.688E-03     622.794E-03     78.2872E+06     87.2555E+06     46.3507E+06    -2.91970E+06    -1.27603E+06     44.7070E+06     87.2555E+06    -180.654E+03
             178     145.653E-03     13.9148E-03     144.987E-03     526.945E-03    -259.482E-03    -267.578E-03    -260.012E-03     519.379E-03    -259.482E-03     154.308E-03     621.488E-03     81.8054E+06     89.6571E+06     46.4105E+06    -4.58073E+06    -3.58864E+06     45.4184E+06     89.6571E+06     1.54874E+06
             179     147.315E-03     13.9174E-03     146.656E-03     523.042E-03    -259.246E-03    -264.402E-03    -256.475E-03     515.115E-03    -259.246E-03     157.200E-03     617.594E-03     82.5745E+06     90.0091E+06     51.0185E+06    -4.38649E+06    -3.50903E+06     50.1410E+06     90.0091E+06     1.47181E+06
             180     148.970E-03     13.9266E-03     148.317E-03     521.816E-03    -258.665E-03    -263.832E-03    -255.888E-03     513.872E-03    -258.665E-03     157.190E-03     616.469E-03     84.5452E+06     94.6815E+06     57.3690E+06    -1.89470E+06    -1.30158E+06     56.7759E+06     94.6815E+06     3.11861E+06
             181     150.633E-03     13.9280E-03     149.987E-03     521.125E-03    -257.491E-03    -263.870E-03    -255.786E-03     513.041E-03    -257.491E-03     158.463E-03     616.542E-03     89.0762E+06     98.7702E+06     63.4824E+06    -2.04586E+06    -1.86875E+06     63.3053E+06     98.7702E+06     1.20264E+06
             182     152.274E-03     13.9411E-03     151.635E-03     517.041E-03    -256.135E-03    -261.638E-03    -253.169E-03     508.572E-03    -256.135E-03     161.529E-03     612.423E-03     91.7058E+06     99.2361E+06     67.6659E+06    -3.96925E+06    -3.67106E+06     67.3677E+06     99.2361E+06    -41.8993E+03
             183     153.928E-03     13.9524E-03     153.294E-03     511.699E-03    -255.091E-03    -257.656E-03    -248.641E-03     502.685E-03    -255.091E-03     165.502E-03     605.668E-03     91.5280E+06     105.822E+06     68.8083E+06     1.58438E+06     2.19065E+06     68.2020E+06     105.822E+06     1.55413E+06
             184     155.569E-03     13.9753E-03     154.940E-03     506.824E-03    -252.693E-03    -253.893E-03    -243.209E-03     497.118E-03    -253.672E-03     170.625E-03     600.660E-03     99.5036E+06     107.237E+06     70.0088E+06    -5.46501E+06    -4.93569E+06     69.4795E+06     107.237E+06     1.97994E+06
             185     157.184E-03     13.9943E-03     156.560E-03     497.310E-03    -244.430E-03    -252.407E-03    -233.498E-03     486.377E-03    -252.407E-03     178.489E-03     590.625E-03     101.234E+06     111.894E+06     74.1538E+06    -2.74619E+06    -2.03374E+06     73.4413E+06     111.894E+06     2.79604E+06
             186     158.775E-03     14.0481E-03     158.152E-03     478.864E-03    -228.920E-03    -249.768E-03    -215.466E-03     465.409E-03    -249.768E-03     192.801E-03     571.748E-03     107.376E+06     115.362E+06     82.1470E+06    -4.35325E+06    -3.67150E+06     81.4653E+06     115.362E+06     2.99574E+06
             187     160.336E-03     14.1150E-03     159.714E-03     459.653E-03    -214.715E-03    -244.891E-03    -197.996E-03     442.935E-03    -244.891E-03     209.291E-03     552.474E-03     109.725E+06     120.747E+06     87.1183E+06    -1.54634E+06    -329.981E+03     85.9020E+06     120.747E+06     4.83889E+06
             188     161.926E-03     14.2157E-03     161.300E-03     446.732E-03    -208.598E-03    -238.712E-03    -189.206E-03     427.340E-03    -238.712E-03     222.005E-03     541.540E-03     124.158E+06     123.010E+06     90.2423E+06    -13.6392E+06    -12.4734E+06     89.0764E+06     123.010E+06     5.90423E+06
             189     163.411E-03     14.3150E-03     162.783E-03     449.936E-03    -217.777E-03    -232.665E-03    -200.704E-03     431.763E-03    -231.565E-03     216.849E-03     552.629E-03     123.530E+06     130.559E+06     97.7904E+06    -5.42148E+06    -4.61279E+06     96.9818E+06     130.559E+06     4.78343E+06
             190     164.992E-03     14.3890E-03     164.364E-03     482.197E-03    -225.780E-03    -256.471E-03    -243.349E-03     469.075E-03    -225.780E-03     193.007E-03     595.461E-03     135.396E+06     154.704E+06     100.693E+06      638.83E+03     1.84774E+06     99.4840E+06     154.704E+06     376.075E+03
             191     166.665E-03     14.4015E-03     166.042E-03     533.505E-03    -222.528E-03    -310.703E-03    -301.519E-03     524.321E-03    -222.528E-03     174.434E-03     651.715E-03     161.477E+06     176.068E+06     101.814E+06    -8.85239E+06    -6.99398E+06     99.9559E+06     176.068E+06     3.17688E+06
             192     168.409E-03     14.4068E-03     167.792E-03     572.543E-03    -220.948E-03    -351.323E-03    -343.599E-03     564.820E-03    -220.948E-03     168.093E-03     688.712E-03     165.431E+06     170.381E+06     82.0065E+06    -20.4659E+06    -12.7747E+06     74.3153E+06     170.381E+06    -9.15923E+06
             193     170.210E-03     14.4011E-03     169.599E-03     591.559E-03    -220.389E-03    -371.200E-03    -364.022E-03     584.381E-03    -220.389E-03     165.618E-03     705.206E-03     155.856E+06     169.529E+06     84.2290E+06    -10.3515E+06     6.81704E+06     67.0605E+06     169.529E+06      449.42E+03
             194     172.000E-03     14.4063E-03     171.395E-03     601.695E-03    -220.456E-03    -381.536E-03    -374.547E-03     594.706E-03    -220.456E-03     165.195E-03     716.435E-03     164.600E+06     157.980E+06     89.5139E+06    -28.7396E+06    -11.9614E+06     72.7356E+06     157.980E+06    -2.76162E+06
             195     173.805E-03     14.3996E-03     173.207E-03     607.683E-03    -220.434E-03    -387.726E-03    -380.811E-03     600.768E-03    -220.434E-03     165.356E-03     721.288E-03     160.179E+06     158.283E+06     97.4157E+06    -22.9893E+06    -1.14544E+06     75.5719E+06     158.283E+06    -133.848E+03
             196     175.576E-03     14.4059E-03     174.984E-03     610.664E-03    -220.268E-03    -390.647E-03    -383.980E-03     603.997E-03    -220.268E-03     162.840E-03     720.714E-03     156.240E+06     143.829E+06     84.5101E+06    -32.9559E+06    -8.82685E+06     60.3811E+06     143.829E+06    -2.93208E+06
             197     177.409E-03     14.3982E-03     176.824E-03     609.517E-03    -220.293E-03    -389.367E-03    -382.363E-03     602.514E-03    -220.293E-03     166.541E-03     717.781E-03     159.926E+06     142.368E+06     86.3530E+06    -37.9148E+06     6.17758E+06     42.2606E+06     142.368E+06    -1.77786E+06
             198     179.152E-03     14.4085E-03     178.572E-03     599.796E-03    -220.688E-03    -379.002E-03    -371.986E-03     592.779E-03    -220.688E-03     165.064E-03     701.624E-03     184.592E+06     154.260E+06     71.7580E+06    -57.0810E+06    -12.8554E+06     27.5324E+06     154.260E+06    -2.73436E+06
             199     180.938E-03     14.4053E-03     180.363E-03     583.726E-03    -221.096E-03    -362.177E-03    -354.384E-03     575.933E-03    -221.096E-03     170.225E-03     678.833E-03     225.938E+06     189.399E+06     86.9432E+06    -69.5660E+06     5.73282E+06     11.6444E+06     189.399E+06     996.656E+03
             200     182.730E-03     14.4162E-03     182.161E-03     553.405E-03    -221.507E-03    -331.609E-03    -322.676E-03     544.472E-03    -221.507E-03     176.914E-03     665.638E-03     227.035E+06     179.395E+06     74.8133E+06    -80.9954E+06    -7.78305E+06     1.60101E+06     179.395E+06     4.08799E+06
             201     184.531E-03     14.4084E-03     183.968E-03     480.397E-03    -213.600E-03    -266.930E-03    -240.228E-03     463.617E-03    -223.521E-03     208.297E-03     635.047E-03     229.772E+06     178.127E+06     76.9011E+06    -84.6187E+06    -6.78013E+06    -937.447E+03     178.127E+06     6.39179E+06
             202     186.069E-03     14.4316E-03     185.509E-03     279.469E-03    -46.1559E-03    -233.461E-03    -26.0326E-03     259.345E-03    -233.461E-03     125.082E-03     430.158E-03     228.256E+06     205.272E+06     136.696E+06    -48.6970E+06     45.5392E+06     68.0361E+06     179.696E+06    -21.3023E+06
             203     186.554E-03     12.9561E-03     186.104E-03     179.186E-03     69.1700E-03    -248.624E-03     85.0104E-03     163.346E-03    -248.624E-03    -53.3746E-03     338.688E-03     236.028E+06     68.7706E+06     25.6275E+06    -185.746E+06    -52.4159E+06    -64.5596E+06     25.6275E+06    -8.02808E+06
             204     185.908E-03     12.0904E-03     185.514E-03     225.807E-03     33.4306E-03    -259.659E-03     42.4707E-03     216.767E-03    -259.659E-03    -73.3226E-03     405.275E-03     235.594E+06     102.958E+06     72.9160E+06    -146.175E+06    -14.4145E+06    -41.2777E+06     85.3910E+06    -2.52110E+06
             205     185.160E-03     11.1959E-03     184.821E-03     222.138E-03     45.3337E-03    -267.568E-03     52.2200E-03     215.252E-03    -267.568E-03    -61.9224E-03     382.657E-03     235.148E+06     163.725E+06     86.3508E+06    -95.3149E+06    -14.1270E+06     5.16296E+06     163.725E+06    -18.0656E+06
             206     184.476E-03     10.3101E-03     184.188E-03     233.225E-03     40.9734E-03    -273.976E-03     59.0999E-03     215.099E-03    -273.976E-03    -111.313E-03     386.029E-03     208.382E+06     138.219E+06     51.9050E+06    -97.1073E+06    -18.4562E+06    -26.7461E+06     138.219E+06    -7.83382E+06
             207     183.738E-03     9.49096E-03     183.493E-03     260.172E-03     17.5943E-03    -277.817E-03     50.8876E-03     226.879E-03    -277.817E-03    -166.366E-03     394.564E-03     171.159E+06     129.561E+06     44.2762E+06    -60.2721E+06    -17.2668E+06     1.27087E+06     129.561E+06    -26.4198E+06
             208     183.018E-03     8.71521E-03     182.811E-03     294.989E-03    -17.3474E-03    -277.443E-03     36.8171E-03     240.825E-03    -277.443E-03    -236.095E-03     403.950E-03     158.703E+06     102.773E+06     19.6764E+06    -73.6345E+06    -31.6112E+06    -22.3470E+06     102.773E+06    -22.6182E+06
             209     182.356E-03     7.96892E-03     182.182E-03     332.756E-03    -59.4627E-03    -272.956E-03     18.1540E-03     255.140E-03    -272.956E-03    -312.411E-03     416.756E-03     145.823E+06     96.3328E+06     29.5708E+06    -67.0772E+06    -25.6176E+06    -11.8889E+06     96.3328E+06    -41.1631E+06
             210     181.731E-03     7.25707E-03     181.586E-03     368.697E-03    -103.531E-03    -265.537E-03    -4.02567E-03     269.192E-03    -265.537E-03    -385.127E-03     430.000E-03     134.132E+06     68.7451E+06     4.79185E+06    -81.8262E+06    -42.0282E+06    -35.0061E+06     68.7451E+06    -37.2538E+06
             211     181.144E-03     6.60349E-03     181.024E-03     398.885E-03    -144.003E-03    -254.845E-03    -30.2462E-03     285.128E-03    -254.845E-03    -441.837E-03     441.094E-03     122.668E+06     50.5160E+06     10.5645E+06    -86.7562E+06    -43.3922E+06    -32.7994E+06     50.5160E+06    -44.3441E+06
             212     180.699E-03     5.89656E-03     180.603E-03     419.956E-03    -179.261E-03    -240.421E-03    -62.4712E-03     303.166E-03    -240.421E-03    -474.519E-03     447.579E-03     125.058E+06     24.5881E+06    -962.457E+03    -109.387E+06    -68.2656E+06    -42.0837E+06     24.5881E+06    -46.0388E+06
             213     180.184E-03     5.28521E-03     180.107E-03     431.701E-03    -204.611E-03    -226.937E-03    -105.266E-03     328.272E-03    -222.853E-03    -469.518E-03     450.403E-03     108.145E+06     12.0792E+06     9.68593E+06    -97.2393E+06    -51.5767E+06    -35.9766E+06     12.0792E+06    -42.0292E+06
             214     179.836E-03     4.62796E-03     179.777E-03     426.350E-03    -206.425E-03    -219.565E-03    -145.625E-03     352.409E-03    -206.425E-03    -408.285E-03     439.019E-03     99.0417E+06     9.51154E+06    -177.155E+03    -93.8278E+06    -50.1218E+06    -34.5709E+06     199.279E+03    -39.5277E+06
             215     179.595E-03     3.92419E-03     179.553E-03     400.954E-03    -193.061E-03    -208.266E-03    -162.044E-03     354.732E-03    -193.061E-03    -320.901E-03     409.705E-03     92.3260E+06     5.87758E+06    -10.5986E+06     -93.542E+06    -66.0736E+06    -28.7548E+06    -3.43469E+06    -38.6972E+06
             216     179.377E-03     3.16633E-03     179.349E-03     375.532E-03    -181.830E-03    -194.324E-03    -164.583E-03     345.791E-03    -181.830E-03    -252.450E-03     381.938E-03     78.9893E+06     14.0490E+06    -7.00305E+06    -73.2872E+06    -50.3871E+06    -16.0151E+06     160.899E+03    -31.8147E+06
             217     179.141E-03     2.40896E-03     179.124E-03     356.290E-03    -172.836E-03    -183.652E-03    -165.647E-03     338.285E-03    -172.836E-03    -191.450E-03     360.963E-03     73.5318E+06     9.94005E+06    -14.6209E+06    -72.6585E+06    -42.9549E+06    -19.7636E+06    -14.6209E+06    -31.2786E+06
             218     179.019E-03     1.61937E-03     179.012E-03     337.616E-03    -165.539E-03    -172.090E-03    -163.850E-03     329.376E-03    -165.539E-03    -125.151E-03     342.013E-03     62.1379E+06     7.58998E+06    -24.0551E+06    -63.6847E+06    -34.8844E+06    -21.2103E+06    -24.0551E+06    -28.0436E+06
             219     178.939E-03     816.070E-06     178.937E-03     322.979E-03    -158.839E-03    -164.013E-03    -161.442E-03     320.408E-03    -158.839E-03    -65.2063E-03     327.120E-03     45.0478E+06    -5.29777E+06    -26.4460E+06    -55.8665E+06    -41.7749E+06    -19.3894E+06    -26.4460E+06    -18.5745E+06
             220     177.587E-03    -1.74369E-06     177.587E-03     249.967E-03    -123.012E-03    -126.955E-03    -125.628E-03     249.488E-03    -123.861E-03    -26.5596E-03     252.273E-03     50.0916E+06    -44.0415E+06    -82.6300E+06    -95.8100E+06    -81.9269E+06    -57.9246E+06    -82.6300E+06    -18.6155E+06
             221     176.390E-03    -80.0269E-09     176.390E-03     146.120E-03    -72.6374E-03    -73.5163E-03    -72.5231E-03     146.006E-03    -73.5163E-03    -8.05810E-03     146.531E-03     78.3889E+06    -118.282E+06    -191.850E+06    -200.693E+06    -194.214E+06    -124.761E+06    -191.850E+06    -19.2139E+06
             222     175.266E-03    -110.847E-09     175.266E-03     91.9721E-03    -45.8467E-03    -46.1308E-03    -45.7938E-03     91.9192E-03    -46.1308E-03     3.27352E-03     92.0771E-03     112.557E+06    -198.031E+06    -306.046E+06    -314.455E+06    -309.418E+06    -200.106E+06    -309.008E+06    -15.1079E+06
             223     174.195E-03    -684.308E-09     174.195E-03     73.0868E-03    -36.1901E-03    -36.9015E-03    -36.4117E-03     72.8510E-03    -36.4442E-03     9.70259E-03     73.1618E-03     151.160E+06    -248.050E+06    -394.615E+06    -403.387E+06    -398.779E+06    -249.698E+06    -397.576E+06    -13.3372E+06
             224     173.119E-03     1.36467E-06     173.119E-03     84.7683E-03    -41.7955E-03    -42.9781E-03    -42.5554E-03     84.3455E-03    -41.7955E-03     14.6727E-03     84.8580E-03     119.059E+06    -258.720E+06    -371.065E+06    -383.404E+06    -374.261E+06    -261.336E+06    -377.592E+06     6.69215E+06
             225     172.028E-03    -137.202E-09     172.028E-03     125.060E-03    -62.1482E-03    -62.9184E-03    -62.4245E-03     124.566E-03    -62.1482E-03     19.1590E-03     125.123E-03     75.0058E+06    -173.262E+06    -217.743E+06    -253.678E+06    -218.500E+06    -201.912E+06    -224.271E+06     24.9610E+06
             226     170.867E-03     806.824E-09     170.867E-03     185.539E-03    -92.7236E-03    -92.8135E-03    -92.4040E-03     185.130E-03    -92.7236E-03     20.8599E-03     185.575E-03     44.9319E+06    -98.6503E+06    -109.828E+06    -147.869E+06    -115.782E+06    -136.075E+06    -104.490E+06     11.4357E+06
             227     169.624E-03     99.1184E-09     169.624E-03     249.076E-03    -123.860E-03    -125.210E-03    -124.946E-03     248.812E-03    -123.860E-03     19.6543E-03     249.151E-03     61.2850E+06    -71.4779E+06    -87.6445E+06    -139.033E+06    -80.0411E+06    -135.808E+06    -82.3064E+06    -9.35758E+06
             228     168.299E-03     2.64794E-06     168.299E-03     305.589E-03    -151.866E-03    -153.719E-03    -152.959E-03     305.377E-03    -152.414E-03     19.7166E-03     305.729E-03     100.778E+06    -58.2765E+06    -71.9162E+06    -164.912E+06    -61.6423E+06    -164.358E+06    -69.1050E+06    -4.56730E+06
             229     166.913E-03    -3.03507E-06     166.913E-03     356.264E-03    -177.238E-03    -179.044E-03    -178.328E-03     356.096E-03    -177.786E-03     18.7183E-03     356.480E-03     124.897E+06    -57.1386E+06    -65.2597E+06    -185.894E+06    -60.2111E+06    -185.633E+06    -62.4485E+06    -3.53780E+06
             230     165.443E-03     5.47504E-06     165.443E-03     401.030E-03    -198.163E-03    -202.904E-03    -202.796E-03     400.923E-03    -198.163E-03     15.9976E-03     401.340E-03     134.008E+06    -68.4604E+06    -80.6586E+06    -208.130E+06    -75.5980E+06    -207.880E+06    -73.7703E+06    -4.15735E+06
             231     163.919E-03     573.233E-09     163.919E-03     435.684E-03    -216.055E-03    -219.639E-03    -219.467E-03     435.612E-03    -216.155E-03     13.6531E-03     436.075E-03     130.767E+06    -82.3681E+06    -97.5085E+06    -220.046E+06    -89.3103E+06    -219.992E+06    -90.6202E+06    -1.80818E+06
             232     162.348E-03    -602.052E-09     162.348E-03     461.161E-03    -230.339E-03    -230.811E-03    -230.673E-03     461.123E-03    -230.438E-03     9.93239E-03     461.619E-03     127.534E+06    -97.0150E+06    -116.842E+06    -233.217E+06    -108.665E+06    -233.141E+06    -105.267E+06    -921.268E+03
             233     160.743E-03     1.33893E-06     160.743E-03     479.519E-03    -238.784E-03    -240.791E-03    -240.772E-03     479.501E-03    -238.784E-03     7.26708E-03     480.029E-03     125.973E+06    -107.518E+06    -136.117E+06    -245.303E+06    -119.169E+06    -245.227E+06    -124.542E+06    -961.538E+03
             234     159.109E-03     839.087E-09     159.109E-03     488.636E-03    -243.237E-03    -245.529E-03    -245.520E-03     488.627E-03    -243.237E-03     4.33367E-03     489.221E-03     127.744E+06    -122.680E+06    -155.437E+06    -263.610E+06    -138.470E+06    -263.552E+06    -139.705E+06    -2.44360E+06
             235     157.488E-03     9.76615E-09     157.488E-03     494.039E-03    -246.467E-03    -247.669E-03    -247.666E-03     494.036E-03    -246.467E-03     2.76536E-03     494.687E-03     134.480E+06    -138.001E+06    -168.067E+06    -284.896E+06    -154.095E+06    -284.534E+06    -152.334E+06    -5.80530E+06
             236     155.845E-03     765.968E-09     155.845E-03     500.976E-03    -250.010E-03    -250.913E-03    -250.910E-03     500.974E-03    -250.010E-03     1.44532E-03     501.609E-03     144.364E+06    -146.819E+06    -172.584E+06    -302.321E+06    -158.647E+06    -301.924E+06    -161.153E+06    -3.83223E+06
             237     154.195E-03    -199.894E-09     154.195E-03     505.932E-03    -252.488E-03    -253.371E-03    -253.370E-03     505.931E-03    -252.488E-03     634.501E-06     506.534E-03     143.630E+06    -158.677E+06    -175.983E+06    -310.074E+06    -170.147E+06    -310.036E+06    -164.552E+06     1.50153E+06
             238     152.525E-03     993.923E-09     152.525E-03     508.346E-03    -253.415E-03    -254.834E-03    -254.832E-03     508.345E-03    -253.415E-03     26.5904E-06     508.941E-03     152.594E+06    -154.228E+06    -161.694E+06    -310.369E+06    -155.828E+06    -310.361E+06    -160.103E+06    -850.148E+03
             239     150.876E-03     174.788E-09     150.876E-03     510.557E-03    -254.404E-03    -256.069E-03    -255.297E-03     510.555E-03    -255.174E-03     76.6980E-06     511.210E-03     169.584E+06    -146.718E+06    -150.120E+06    -317.977E+06    -148.343E+06    -317.943E+06    -148.529E+06    -2.34922E+06
             240     149.206E-03    -1.15472E-06     149.206E-03     513.087E-03    -255.926E-03    -256.996E-03    -256.222E-03     513.083E-03    -256.697E-03    -824.274E-06     513.769E-03     172.953E+06    -143.832E+06    -146.147E+06    -317.928E+06    -144.492E+06    -317.771E+06    -145.643E+06     1.70703E+06
             241     147.540E-03     1.99430E-06     147.540E-03     513.728E-03    -255.533E-03    -258.044E-03    -258.041E-03     513.725E-03    -255.533E-03    -2.03811E-03     514.375E-03     168.418E+06    -134.243E+06    -136.036E+06    -303.550E+06    -136.167E+06    -303.419E+06    -134.243E+06     3.33923E+06
             242     145.878E-03     1.44105E-06     145.878E-03     514.216E-03    -255.778E-03    -258.579E-03    -258.579E-03     514.216E-03    -255.778E-03    -768.167E-06     514.870E-03     165.673E+06    -124.830E+06    -129.415E+06    -292.737E+06    -126.120E+06    -292.737E+06    -128.125E+06    -65.1819E+03
             243     144.200E-03    -320.653E-09     144.200E-03     516.002E-03    -257.596E-03    -258.583E-03    -258.185E-03     516.001E-03    -257.993E-03    -1.69234E-03     516.660E-03     151.844E+06    -124.632E+06    -129.716E+06    -278.949E+06    -126.627E+06    -278.744E+06    -127.926E+06     3.69803E+06
             244     142.531E-03    -16.0974E-09     142.531E-03     516.780E-03    -257.862E-03    -259.029E-03    -258.628E-03     516.777E-03    -258.260E-03    -2.82685E-03     517.448E-03     132.037E+06    -124.813E+06    -128.300E+06    -258.559E+06    -126.842E+06    -258.320E+06    -126.510E+06     2.43730E+06
             245     140.864E-03     1.42430E-06     140.864E-03     516.790E-03    -256.550E-03    -260.196E-03    -260.192E-03     516.786E-03    -256.550E-03    -3.34688E-03     517.434E-03     113.017E+06    -120.771E+06    -123.458E+06    -235.106E+06    -122.067E+06    -234.800E+06    -122.468E+06     2.40526E+06
             246     139.191E-03     3.14753E-06     139.191E-03     517.855E-03    -256.776E-03    -261.022E-03    -259.650E-03     517.852E-03    -258.145E-03     281.375E-06     518.492E-03     102.927E+06    -121.811E+06    -123.537E+06    -225.590E+06    -123.270E+06     -225.12E+06    -122.547E+06     704.681E+03
             247     137.502E-03    -5.01499E-06     137.502E-03     518.740E-03    -258.339E-03    -260.288E-03    -258.329E-03     518.729E-03    -260.288E-03    -1.89910E-03     519.362E-03     100.023E+06    -120.652E+06    -121.472E+06    -221.081E+06    -121.367E+06    -220.450E+06    -121.389E+06     1.58475E+06
             248     135.825E-03     4.67152E-06     135.825E-03     517.887E-03    -257.431E-03    -260.163E-03    -259.574E-03     517.879E-03    -258.011E-03    -3.13647E-03     518.477E-03     91.9871E+06    -115.203E+06    -115.340E+06    -207.258E+06    -115.867E+06    -206.677E+06    -115.257E+06     2.25419E+06
             249     134.147E-03    -1.34067E-06     134.147E-03     518.462E-03    -256.617E-03    -261.509E-03    -258.769E-03     518.462E-03    -259.357E-03    -324.463E-06     519.114E-03     80.0886E+06    -121.017E+06    -122.148E+06    -201.660E+06    -121.302E+06    -201.374E+06    -122.148E+06     -84.638E+03
             250     132.463E-03    -2.90173E-06     132.463E-03     518.353E-03    -257.496E-03    -260.532E-03    -257.786E-03     518.347E-03    -260.236E-03    -3.80654E-03     519.008E-03     69.9225E+06    -115.401E+06    -117.779E+06    -186.481E+06    -116.930E+06    -186.253E+06    -116.478E+06     3.97657E+06
             251     130.783E-03     3.85447E-06     130.783E-03     516.678E-03    -257.993E-03    -258.469E-03    -258.463E-03     516.672E-03    -257.993E-03    -2.03487E-03     517.323E-03     56.5770E+06    -112.408E+06    -113.873E+06    -169.696E+06    -113.806E+06    -169.599E+06    -112.572E+06     1.13458E+06
             252     129.111E-03    -3.71531E-06     129.111E-03     517.672E-03    -258.179E-03    -259.398E-03    -258.358E-03     517.670E-03    -259.217E-03    -485.787E-06     518.303E-03     48.0550E+06    -112.947E+06    -114.464E+06    -161.729E+06    -114.475E+06    -161.554E+06    -113.111E+06     1.39268E+06
             253     127.438E-03     2.30912E-06     127.438E-03     519.259E-03    -257.774E-03    -261.390E-03    -260.348E-03     519.255E-03    -258.812E-03    -3.48768E-03     519.848E-03     42.6587E+06    -108.140E+06    -112.134E+06    -152.636E+06    -109.695E+06    -152.434E+06    -110.781E+06     992.082E+03
             254     125.759E-03     2.20178E-06     125.759E-03     518.953E-03    -257.863E-03    -260.929E-03    -260.926E-03     518.950E-03    -257.863E-03    -2.28188E-03     519.577E-03     37.7107E+06    -103.047E+06    -106.809E+06    -142.483E+06    -103.978E+06    -141.552E+06    -106.809E+06     2.99824E+06
             255     124.080E-03    -1.29116E-06     124.080E-03     518.695E-03    -258.964E-03    -259.703E-03    -259.449E-03     518.693E-03    -259.216E-03    -2.28527E-03     519.340E-03     25.2648E+06    -102.529E+06    -104.419E+06    -128.684E+06    -105.587E+06    -126.395E+06    -103.650E+06     945.928E+03
             256     122.397E-03     1.18207E-06     122.397E-03     519.098E-03    -259.072E-03    -260.069E-03    -259.814E-03     519.094E-03    -259.324E-03    -2.92351E-03     519.688E-03     19.8382E+06    -102.190E+06    -108.036E+06    -124.076E+06    -104.926E+06    -122.110E+06    -107.267E+06    -220.431E+03
             257     120.715E-03     231.362E-09     120.715E-03     518.109E-03    -258.297E-03    -259.602E-03    -259.599E-03     518.106E-03    -258.297E-03    -3.01904E-03     518.664E-03     16.4927E+06    -94.5721E+06    -102.182E+06    -113.474E+06    -100.088E+06    -110.491E+06    -99.6494E+06     3.74676E+06
             258     119.036E-03     955.292E-09     119.036E-03     517.605E-03    -258.085E-03    -259.246E-03    -258.641E-03     517.601E-03    -258.686E-03    -942.942E-06     518.180E-03     8.94125E+06    -92.0575E+06    -98.8681E+06    -101.718E+06    -97.4536E+06    -98.8542E+06    -96.3355E+06    -289.399E+03
             259     117.358E-03    -2.19598E-06     117.358E-03     519.431E-03    -258.633E-03    -260.738E-03    -260.130E-03     519.425E-03    -259.234E-03    -1.82624E-03     519.996E-03     8.65358E+06    -95.5143E+06    -100.950E+06    -104.631E+06    -99.4482E+06    -101.856E+06    -99.7924E+06     459.180E+03
             260     115.667E-03     4.69809E-06     115.667E-03     519.708E-03    -258.513E-03    -261.265E-03    -261.258E-03     519.702E-03    -258.513E-03    -2.43029E-03     520.267E-03     7.56484E+06    -93.1602E+06    -97.2729E+06    -101.380E+06    -96.7365E+06    -98.5340E+06    -96.5425E+06     1.25450E+06
             261     113.986E-03    -2.79552E-06     113.986E-03     518.425E-03    -258.534E-03    -260.049E-03    -259.777E-03     518.420E-03    -258.802E-03    -1.97658E-03     518.984E-03     6.95369E+06    -89.3918E+06    -93.1433E+06    -96.8724E+06    -92.1911E+06    -94.4423E+06    -92.7741E+06     1.11023E+06
             262     112.307E-03     2.50128E-06     112.307E-03     517.963E-03    -257.965E-03    -260.045E-03    -259.773E-03     517.959E-03    -258.233E-03    -2.95703E-03     518.492E-03     7.52984E+06    -86.6544E+06    -90.7873E+06    -94.8369E+06    -90.1755E+06    -92.1127E+06    -89.9904E+06     -2.8165E+03
             263     110.628E-03     339.561E-09     110.628E-03     518.319E-03    -257.405E-03    -260.869E-03    -259.216E-03     518.319E-03    -259.057E-03    -1.30253E-03     518.892E-03     6.18862E+06    -86.7444E+06    -91.4596E+06    -93.6256E+06    -90.2151E+06    -91.5343E+06    -90.0804E+06    -1.20659E+06
             264     108.951E-03    -2.72480E-06     108.951E-03     519.112E-03    -258.765E-03    -260.511E-03    -258.854E-03     519.108E-03    -260.418E-03    -3.16390E-03     519.685E-03     4.70987E+06    -85.5018E+06    -87.5362E+06    -90.8424E+06    -88.2802E+06    -89.4432E+06    -86.1569E+06     974.909E+03
             265     107.264E-03     2.89867E-06     107.264E-03     519.512E-03    -258.444E-03    -261.182E-03    -261.178E-03     519.509E-03    -258.444E-03    -2.82542E-03     520.055E-03     3.32895E+06    -82.9361E+06    -84.2422E+06    -86.6809E+06    -83.1688E+06    -85.8979E+06    -84.7925E+06     305.544E+03
             266     105.580E-03     1.35186E-06     105.580E-03     519.535E-03    -257.905E-03    -261.564E-03    -261.564E-03     519.535E-03    -257.905E-03    -1.22755E-03     520.135E-03     3.09725E+06    -86.9121E+06    -87.6587E+06    -90.2152E+06    -87.2919E+06    -89.2851E+06    -88.2090E+06     462.179E+03
             267     103.894E-03     196.297E-09     103.894E-03     519.111E-03    -258.822E-03    -260.266E-03    -260.265E-03     519.110E-03    -258.822E-03    -1.72876E-03     519.705E-03     2.51734E+06    -80.9925E+06    -81.4202E+06    -83.6216E+06    -81.6675E+06    -83.2786E+06    -81.0883E+06     798.860E+03
             268     102.213E-03     397.256E-09     102.213E-03     519.164E-03    -258.903E-03    -260.284E-03    -260.283E-03     519.163E-03    -258.903E-03    -1.79985E-03     519.752E-03     2.61023E+06    -79.7623E+06    -81.3074E+06    -82.7702E+06    -80.5230E+06    -82.3414E+06    -80.9755E+06    -776.792E+03
             269     100.534E-03     1.07796E-06     100.534E-03     519.466E-03    -258.001E-03    -261.585E-03    -261.580E-03     519.461E-03    -258.001E-03    -3.38584E-03     520.084E-03     7.38338E+06    -79.6941E+06    -83.5684E+06    -88.2056E+06    -82.6181E+06    -85.2816E+06    -83.5684E+06     2.11093E+06
             270     98.8464E-03     3.03441E-06     98.8464E-03     518.688E-03    -257.597E-03    -261.163E-03    -261.158E-03     518.684E-03    -257.597E-03    -2.30156E-03     519.266E-03     9.38190E+06    -69.7268E+06    -73.7509E+06    -80.4146E+06    -74.0058E+06    -76.1355E+06    -73.7509E+06     736.302E+03
             271     97.1669E-03    -1.60603E-06     97.1669E-03     519.678E-03    -259.399E-03    -260.483E-03    -260.331E-03     519.677E-03    -259.550E-03    -759.265E-06     520.325E-03     6.19620E+06    -69.1762E+06    -72.5661E+06    -75.9038E+06    -71.2102E+06    -73.8262E+06    -72.6097E+06    -1.50476E+06
             272     95.4799E-03     714.022E-09     95.4799E-03     520.721E-03    -260.205E-03    -260.928E-03    -260.776E-03     520.720E-03    -260.355E-03    -2.29392E-03     521.407E-03     5.81942E+06    -73.4975E+06    -78.4815E+06    -79.8138E+06    -77.8416E+06    -78.3831E+06    -75.5680E+06     252.861E+03
             273     93.7945E-03     79.8132E-09     93.7945E-03     519.829E-03    -258.820E-03    -261.101E-03    -261.099E-03     519.827E-03    -258.820E-03    -2.48858E-03     520.377E-03     8.28364E+06    -70.0671E+06    -75.9492E+06    -79.5107E+06    -74.1594E+06    -76.1026E+06    -75.2650E+06    -40.8651E+03
             274     93.4680E-03     13.1168E-03     92.5430E-03     544.399E-03    -259.630E-03    -284.804E-03    -265.769E-03     525.364E-03    -259.630E-03     234.749E-03     687.313E-03     38.5045E+06     36.9389E+06     18.2839E+06    -6.59294E+06    -3.29081E+06     14.9817E+06     36.9389E+06    -17.2396E+03
             275     92.8513E-03     12.3402E-03     92.0276E-03     544.843E-03    -259.102E-03    -285.884E-03    -264.472E-03     523.430E-03    -259.102E-03     256.768E-03     708.454E-03     38.9797E+06     32.8044E+06     17.8588E+06    -11.0397E+06    -5.85983E+06     12.6789E+06     32.8044E+06    -348.709E+03
             276     92.4688E-03     11.5708E-03     91.7420E-03     531.189E-03    -259.287E-03    -271.304E-03    -257.134E-03     517.019E-03    -259.287E-03     210.548E-03     675.160E-03     37.0353E+06     29.7808E+06     15.6034E+06    -12.2101E+06    -8.00513E+06     11.3984E+06     29.7808E+06    -838.537E+03
             277     92.0030E-03     10.8030E-03     91.3665E-03     528.394E-03    -259.216E-03    -269.018E-03    -255.056E-03     514.433E-03    -259.216E-03     208.234E-03     673.367E-03     33.9600E+06     26.0767E+06     12.3291E+06    -12.4506E+06    -10.6636E+06     10.5421E+06     26.0767E+06    -143.936E+03
             278     91.6403E-03     10.0386E-03     91.0888E-03     522.429E-03    -259.338E-03    -263.270E-03    -252.451E-03     511.610E-03    -259.338E-03     183.094E-03     658.960E-03     33.6569E+06     23.5685E+06     7.10175E+06    -14.7820E+06    -13.9819E+06     6.30165E+06     23.5685E+06     630.869E+03
             279     91.3457E-03     9.26359E-03     90.8747E-03     520.684E-03    -259.164E-03    -260.935E-03    -251.470E-03     511.572E-03    -259.517E-03     167.334E-03     652.953E-03     34.9877E+06     22.7466E+06     5.60879E+06    -17.2136E+06    -16.9055E+06     5.30064E+06     22.7466E+06     664.419E+03
             280     91.1027E-03     8.48539E-03     90.7066E-03     517.305E-03    -258.037E-03    -259.260E-03    -251.405E-03     510.541E-03    -259.128E-03     143.799E-03     640.049E-03     35.7324E+06     20.8528E+06     3.76024E+06    -20.0725E+06    -19.8113E+06     3.49906E+06     20.8528E+06     1.27038E+06
             281     90.8528E-03     7.71572E-03     90.5246E-03     514.366E-03    -255.888E-03    -258.637E-03    -251.227E-03     509.705E-03    -258.637E-03     118.679E-03     625.235E-03     36.7362E+06     17.1952E+06    -1.64021E+06    -25.0117E+06    -24.8354E+06    -1.81649E+06     17.1952E+06     1.59191E+06
             282     90.6677E-03     6.94759E-03     90.4011E-03     512.604E-03    -254.284E-03    -259.118E-03    -251.514E-03     509.834E-03    -259.118E-03     90.9378E-03     608.394E-03     37.0261E+06     13.6218E+06    -5.88344E+06    -29.0489E+06    -28.9733E+06    -5.95906E+06     13.6218E+06      789.45E+03
             283     90.5489E-03     6.17247E-03     90.3383E-03     512.048E-03    -253.910E-03    -259.850E-03    -252.413E-03     510.551E-03    -259.850E-03     66.7983E-03     589.258E-03     35.1548E+06     7.85569E+06    -10.7724E+06    -32.6516E+06    -32.6168E+06    -10.8072E+06     7.85569E+06     632.757E+03
             284     90.4694E-03     5.39992E-03     90.3081E-03     513.737E-03    -254.491E-03    -260.057E-03    -253.734E-03     512.981E-03    -260.057E-03     47.2185E-03     573.486E-03     32.6599E+06     222.389E+03    -18.0933E+06    -37.3658E+06    -37.2992E+06    -18.1599E+06     222.389E+03     1.10800E+06
             285     90.4157E-03     4.62642E-03     90.2972E-03     516.656E-03    -256.006E-03    -259.968E-03    -255.698E-03     516.348E-03    -259.968E-03     29.6705E-03     560.817E-03     30.0682E+06    -8.18554E+06    -25.0145E+06    -42.7788E+06    -42.7236E+06    -25.0697E+06    -8.18554E+06     596.587E+03
             286     90.3878E-03     3.85564E-03     90.3055E-03     518.268E-03    -257.926E-03    -259.998E-03    -257.833E-03     518.175E-03    -259.998E-03     15.9040E-03     549.899E-03     27.9002E+06    -18.0137E+06    -33.5994E+06    -50.1468E+06    -49.9842E+06    -33.7621E+06    -18.0137E+06     1.04537E+06
             287     90.3756E-03     3.08406E-03     90.3230E-03     518.432E-03    -258.942E-03    -260.065E-03    -259.037E-03     518.413E-03    -259.950E-03     6.52760E-03     540.423E-03     23.1535E+06    -28.8837E+06    -42.4622E+06    -55.4948E+06    -55.1997E+06    -42.7572E+06    -28.8837E+06     1.47467E+06
             288     90.3889E-03     2.31440E-03     90.3592E-03     518.496E-03    -259.032E-03    -259.813E-03    -259.169E-03     518.495E-03    -259.674E-03     889.282E-06     531.353E-03     15.1637E+06    -42.9843E+06    -51.0252E+06    -60.2983E+06    -59.9610E+06    -51.3626E+06    -42.9843E+06     1.28020E+06
             289     90.4080E-03     1.54286E-03     90.3948E-03     518.450E-03    -259.107E-03    -259.532E-03    -259.164E-03     518.448E-03    -259.473E-03    -1.74399E-03     524.320E-03     8.80907E+06    -56.7783E+06    -60.4080E+06    -66.6088E+06    -66.0827E+06    -60.9341E+06    -56.7783E+06     1.61854E+06
             290     90.4211E-03     771.178E-06     90.4178E-03     518.882E-03    -258.818E-03    -260.277E-03    -260.102E-03     518.880E-03    -258.991E-03    -2.50865E-03     520.817E-03     9.06819E+06    -63.3691E+06    -68.4700E+06    -73.5022E+06    -69.5981E+06    -68.8171E+06    -66.9262E+06     838.328E+03
             291     91.7966E-03     13.1180E-03     90.8545E-03     544.964E-03    -259.546E-03    -285.395E-03    -266.555E-03     526.124E-03    -259.546E-03     233.595E-03     687.983E-03     37.7789E+06     37.6975E+06     18.4041E+06    -4.94841E+06    -1.85084E+06     15.3065E+06     37.6975E+06     749.494E+03
             292     91.1894E-03     12.3461E-03     90.3498E-03     544.947E-03    -258.979E-03    -286.091E-03    -264.746E-03     523.602E-03    -258.979E-03     256.705E-03     708.127E-03     37.9067E+06     32.8710E+06     20.0218E+06    -9.03954E+06    -4.19101E+06     15.1733E+06     32.8710E+06     435.118E+03
             293     90.8050E-03     11.5733E-03     90.0644E-03     530.565E-03    -259.210E-03    -270.799E-03    -256.707E-03     516.473E-03    -259.210E-03     209.946E-03     673.828E-03     35.5979E+06     28.7268E+06     15.0790E+06    -10.9811E+06    -7.22318E+06     11.3211E+06     28.7268E+06     601.390E+03
             294     90.3555E-03     10.8011E-03     89.7076E-03     527.602E-03    -259.227E-03    -268.224E-03    -254.392E-03     513.771E-03    -259.227E-03     207.164E-03     672.273E-03     32.8344E+06     25.2649E+06     9.93539E+06    -11.9380E+06    -10.5672E+06     8.56468E+06     25.2649E+06     1.20850E+06
             295     89.9760E-03     10.0359E-03     89.4146E-03     521.790E-03    -259.448E-03    -262.865E-03    -252.114E-03     511.039E-03    -259.448E-03     182.384E-03     658.244E-03     33.0943E+06     23.9193E+06     8.03973E+06    -13.7683E+06    -12.8272E+06     7.09857E+06     23.9193E+06     720.230E+03
             296     89.6755E-03     9.26151E-03     89.1960E-03     519.737E-03    -259.124E-03    -260.526E-03    -251.041E-03     510.752E-03    -259.624E-03     166.029E-03     652.273E-03     34.7705E+06     23.1868E+06     4.65419E+06    -16.7015E+06    -16.4401E+06     4.39283E+06     23.1868E+06     95.1553E+03
             297     89.4229E-03     8.48543E-03     89.0194E-03     517.240E-03    -258.253E-03    -259.135E-03    -251.561E-03     510.548E-03    -259.135E-03     143.024E-03     640.313E-03     36.4870E+06     21.0786E+06     1.77064E+06    -20.8753E+06    -20.6974E+06     1.59281E+06     21.0786E+06     742.078E+03
             298     89.1899E-03     7.71726E-03     88.8554E-03     514.792E-03    -256.248E-03    -258.671E-03    -251.632E-03     510.176E-03    -258.671E-03     118.207E-03     625.457E-03     36.3139E+06     17.7102E+06     11.2734E+03    -23.9331E+06    -23.7994E+06    -122.430E+03     17.7102E+06     1.29888E+06
             299     89.0049E-03     6.94466E-03     88.7336E-03     512.521E-03    -253.942E-03    -259.183E-03    -251.122E-03     509.701E-03    -259.183E-03     91.9735E-03     608.045E-03     34.9708E+06     12.8168E+06    -4.71906E+06    -27.4132E+06    -27.3367E+06    -4.79560E+06     12.8168E+06     905.480E+03
             300     88.8742E-03     6.17006E-03     88.6598E-03     512.047E-03    -253.773E-03    -259.910E-03    -252.189E-03     510.463E-03    -259.910E-03     68.7637E-03     589.241E-03     33.9695E+06     6.83478E+06    -11.4091E+06    -32.3170E+06    -32.2507E+06    -11.4754E+06     6.83478E+06     702.772E+03
             301     88.7913E-03     5.39815E-03     88.6271E-03     514.572E-03    -255.211E-03    -260.114E-03    -254.417E-03     513.777E-03    -260.114E-03     48.4104E-03     574.309E-03     32.9303E+06     149.350E+03    -17.8890E+06    -37.8022E+06    -37.7554E+06    -17.9358E+06     149.350E+03     720.616E+03
             302     88.7417E-03     4.62821E-03     88.6209E-03     517.572E-03    -256.925E-03    -259.958E-03    -256.606E-03     517.253E-03    -259.958E-03     30.2167E-03     561.654E-03     30.9928E+06    -7.25016E+06    -23.7215E+06    -42.9000E+06    -42.6998E+06    -23.9216E+06    -7.25016E+06     1.17733E+06
             303     88.7179E-03     3.85800E-03     88.6340E-03     518.491E-03    -258.289E-03    -259.899E-03    -258.192E-03     518.394E-03    -259.899E-03     16.2571E-03     550.117E-03     26.2779E+06    -17.6725E+06    -31.7943E+06    -47.8853E+06    -47.6376E+06    -32.0420E+06    -17.6725E+06     763.700E+03
             304     88.7120E-03     3.08691E-03     88.6583E-03     517.865E-03    -258.690E-03    -259.858E-03    -258.669E-03     517.844E-03    -259.858E-03     6.42593E-03     539.922E-03     20.6589E+06    -30.7364E+06    -43.0063E+06    -54.5083E+06    -54.4157E+06    -43.0989E+06    -30.7364E+06    -161.521E+03
             305     88.7137E-03     2.31268E-03     88.6836E-03     518.061E-03    -258.847E-03    -259.692E-03    -258.869E-03     518.059E-03    -259.668E-03     219.720E-06     531.019E-03     15.8690E+06    -42.8033E+06    -51.5631E+06    -60.9678E+06    -60.7139E+06    -51.8170E+06    -42.8033E+06     117.617E+03
             306     88.7270E-03     1.54251E-03     88.7136E-03     518.653E-03    -259.293E-03    -259.561E-03    -259.350E-03     518.651E-03    -259.502E-03    -2.03373E-03     524.663E-03     8.52303E+06    -54.7879E+06    -59.0140E+06    -64.4802E+06    -64.2050E+06    -59.2892E+06    -54.7879E+06     393.400E+03
             307     88.7390E-03     772.066E-06     88.7357E-03     518.806E-03    -259.274E-03    -259.642E-03    -259.551E-03     518.804E-03    -259.364E-03    -2.11492E-03     520.798E-03     7.73446E+06    -61.6058E+06    -66.5104E+06    -70.4289E+06    -66.8402E+06    -66.5420E+06    -65.1628E+06     338.958E+03
             308     90.1346E-03     13.1210E-03     89.1744E-03     545.133E-03    -259.447E-03    -285.771E-03    -266.671E-03     526.033E-03    -259.447E-03     235.116E-03     688.106E-03     38.7052E+06     38.5701E+06     18.0235E+06    -5.45501E+06    -1.96972E+06     14.5383E+06     38.5701E+06     298.164E+03
             309     89.5150E-03     12.3449E-03     88.6596E-03     545.344E-03    -258.848E-03    -286.600E-03    -264.918E-03     523.662E-03    -258.848E-03     258.833E-03     708.198E-03     36.7113E+06     32.5469E+06     19.0115E+06    -8.31041E+06    -4.38930E+06     15.0904E+06     32.5469E+06     1.18735E+06
             310     89.1231E-03     11.5763E-03     88.3681E-03     530.986E-03    -259.052E-03    -271.235E-03    -256.976E-03     516.726E-03    -259.052E-03     211.320E-03     674.232E-03     34.4217E+06     28.6772E+06     13.9371E+06    -9.96971E+06    -7.10153E+06     11.0689E+06     28.6772E+06     1.36743E+06
             311     88.7012E-03     10.8033E-03     88.0409E-03     528.164E-03    -259.134E-03    -268.591E-03    -254.743E-03     514.316E-03    -259.134E-03     207.329E-03     673.214E-03     32.5988E+06     26.8007E+06     9.38856E+06    -10.3060E+06    -8.94793E+06     8.03045E+06     26.8007E+06     1.48038E+06
             312     88.3311E-03     10.0357E-03     87.7592E-03     521.454E-03    -259.491E-03    -262.653E-03    -252.026E-03     510.827E-03    -259.491E-03     181.275E-03     658.100E-03     33.2587E+06     25.1335E+06     8.78737E+06    -12.5524E+06    -11.5539E+06     7.78884E+06     25.1335E+06     1.47136E+06
             313     88.0130E-03     9.26123E-03     87.5244E-03     519.278E-03    -259.469E-03    -260.208E-03    -251.028E-03     510.279E-03    -259.649E-03     166.199E-03     651.911E-03     35.0041E+06     25.4315E+06     6.05985E+06    -14.5964E+06    -14.2269E+06     5.69042E+06     25.4315E+06     1.32002E+06
             314     87.7352E-03     8.48954E-03     87.3235E-03     517.038E-03    -258.030E-03    -259.078E-03    -251.242E-03     510.249E-03    -259.078E-03     143.952E-03     640.142E-03     36.7559E+06     24.5200E+06     2.95051E+06    -17.8488E+06    -17.7807E+06     2.88245E+06     24.5200E+06     983.711E+03
             315     87.5169E-03     7.71412E-03     87.1762E-03     514.372E-03    -255.649E-03    -258.725E-03    -251.001E-03     509.723E-03    -258.725E-03     118.559E-03     625.029E-03     36.4501E+06     19.9013E+06    -461.613E+03    -22.0371E+06    -21.9778E+06    -520.951E+03     19.9013E+06     445.536E+03
             316     87.3342E-03     6.94338E-03     87.0577E-03     513.108E-03    -254.513E-03    -259.295E-03    -251.702E-03     510.297E-03    -259.295E-03     91.7457E-03     608.607E-03     34.5940E+06     13.6966E+06    -4.93910E+06    -26.0839E+06    -25.9877E+06    -5.03522E+06     13.6966E+06     833.434E+03
             317     87.2001E-03     6.17006E-03     86.9815E-03     512.966E-03    -254.667E-03    -259.941E-03    -253.148E-03     511.447E-03    -259.941E-03     67.3077E-03     589.983E-03     33.1090E+06     7.24069E+06    -10.8821E+06    -30.8105E+06    -30.6397E+06    -11.0529E+06     7.24069E+06     1.30687E+06
             318     87.1100E-03     5.39869E-03     86.9425E-03     514.710E-03    -255.370E-03    -260.107E-03    -254.622E-03     513.963E-03    -260.107E-03     46.9936E-03     574.160E-03     32.0640E+06    -82.1534E+03    -17.5476E+06    -36.8620E+06    -36.7297E+06    -17.6799E+06    -82.1534E+03     971.158E+03
             319     87.0587E-03     4.62751E-03     86.9356E-03     517.137E-03    -256.467E-03    -259.964E-03    -256.151E-03     516.821E-03    -259.964E-03     30.3672E-03     561.142E-03     30.6873E+06    -7.44697E+06    -23.1484E+06    -42.6303E+06    -42.2080E+06    -23.5708E+06    -7.44697E+06     352.029E+03
             320     87.0386E-03     3.85588E-03     86.9532E-03     518.413E-03    -258.079E-03    -259.965E-03    -257.970E-03     518.304E-03    -259.965E-03     17.4562E-03     550.170E-03     27.0170E+06    -16.9095E+06    -31.1954E+06    -47.9334E+06    -47.4527E+06    -31.6760E+06    -16.9095E+06     55.3793E+03
             321     87.0300E-03     3.08425E-03     86.9754E-03     518.452E-03    -259.252E-03    -260.031E-03    -259.403E-03     518.428E-03    -259.857E-03     7.12462E-03     541.008E-03     21.0388E+06    -29.6817E+06    -41.1481E+06    -53.9041E+06    -53.8073E+06    -41.2449E+06    -29.6817E+06     296.336E+03
             322     87.0334E-03     2.31540E-03     87.0026E-03     518.124E-03    -259.037E-03    -259.687E-03    -259.210E-03     518.122E-03    -259.512E-03     119.647E-06     531.284E-03     13.4109E+06    -43.8610E+06    -51.1723E+06    -59.2832E+06    -59.0881E+06    -51.3674E+06    -43.8610E+06    -414.246E+03
             323     87.0419E-03     1.54253E-03     87.0282E-03     518.013E-03    -258.847E-03    -259.362E-03    -258.844E-03     518.010E-03    -259.362E-03    -2.82895E-03     523.751E-03     7.14787E+06    -55.2258E+06    -59.0553E+06    -63.3842E+06    -63.1223E+06    -59.3172E+06    -55.2258E+06    -1.00818E+06
             324     87.0572E-03     770.535E-06     87.0538E-03     518.619E-03    -259.067E-03    -259.697E-03    -259.400E-03     518.616E-03    -259.360E-03    -2.72964E-03     520.552E-03     7.16519E+06    -61.2491E+06    -66.3105E+06    -69.2160E+06    -67.3902E+06    -66.1132E+06    -63.2722E+06     403.165E+03
             325     88.4644E-03     13.1186E-03     87.4863E-03     545.117E-03    -259.389E-03    -285.886E-03    -266.694E-03     525.926E-03    -259.389E-03     235.893E-03     687.914E-03     37.3460E+06     35.8320E+06     17.2310E+06    -6.65474E+06    -2.73651E+06     13.3128E+06     35.8320E+06     -86.402E+03
             326     87.8449E-03     12.3466E-03     86.9729E-03     545.184E-03    -258.756E-03    -286.631E-03    -264.992E-03     523.546E-03    -258.756E-03     258.364E-03     708.233E-03     36.4668E+06     32.2909E+06     17.1295E+06    -9.01049E+06    -4.68571E+06     12.8047E+06     32.2909E+06     472.581E+03
             327     87.4560E-03     11.5760E-03     86.6865E-03     530.787E-03    -258.947E-03    -271.200E-03    -256.898E-03     516.485E-03    -258.947E-03     211.478E-03     674.129E-03     34.1613E+06     29.7627E+06     13.5208E+06    -9.33356E+06    -6.58967E+06     10.7769E+06     29.7627E+06     1.07937E+06
             328     87.0207E-03     10.8057E-03     86.3472E-03     528.001E-03    -259.089E-03    -268.594E-03    -254.581E-03     513.987E-03    -259.089E-03     208.483E-03     673.152E-03     32.9738E+06     28.0390E+06     9.87851E+06    -9.80828E+06    -8.83275E+06     8.90297E+06     28.0390E+06     840.097E+03
             329     86.6672E-03     10.0359E-03     86.0842E-03     521.847E-03    -259.555E-03    -262.775E-03    -251.955E-03     511.027E-03    -259.555E-03     182.975E-03     658.550E-03     33.6396E+06     25.8719E+06     8.77539E+06    -12.5223E+06    -11.8606E+06     8.11364E+06     25.8719E+06     960.743E+03
             330     86.3466E-03     9.26075E-03     85.8486E-03     520.079E-03    -259.658E-03    -260.438E-03    -251.172E-03     510.844E-03    -259.689E-03     168.437E-03     652.312E-03     34.4855E+06     24.8995E+06     6.95334E+06    -14.5628E+06    -14.2626E+06     6.65318E+06     24.8995E+06     1.47464E+06
             331     86.0616E-03     8.48750E-03     85.6420E-03     516.558E-03    -257.605E-03    -259.077E-03    -250.870E-03     509.803E-03    -259.057E-03     143.345E-03     639.670E-03     35.4470E+06     24.0509E+06     3.47313E+06    -16.7738E+06    -16.7113E+06     3.41065E+06     24.0509E+06     885.424E+03
             332     85.8483E-03     7.71387E-03     85.5010E-03     514.141E-03    -255.379E-03    -258.763E-03    -250.840E-03     509.602E-03    -258.763E-03     117.234E-03     624.944E-03     36.1238E+06     20.9732E+06    -224.372E+03    -20.6362E+06    -20.5103E+06    -350.276E+03     20.9732E+06     688.900E+03
             333     85.6559E-03     6.94251E-03     85.3741E-03     514.200E-03    -255.645E-03    -259.327E-03    -252.855E-03     511.411E-03    -259.327E-03     91.4227E-03     609.778E-03     35.8052E+06     14.7862E+06    -5.33273E+06    -26.4593E+06    -26.3375E+06    -5.45453E+06     14.7862E+06     857.526E+03
             334     85.5231E-03     6.17237E-03     85.3000E-03     513.610E-03    -255.567E-03    -259.834E-03    -254.072E-03     512.115E-03    -259.834E-03     66.9301E-03     590.887E-03     34.2697E+06     8.01022E+06    -10.9177E+06    -31.3965E+06    -31.2651E+06    -11.0491E+06     8.01022E+06     1.03256E+06
             335     85.4352E-03     5.40095E-03     85.2644E-03     513.991E-03    -254.888E-03    -259.935E-03    -254.149E-03     513.251E-03    -259.935E-03     46.6163E-03     573.566E-03     31.3572E+06     984.727E+03    -15.3415E+06    -34.9712E+06    -34.8387E+06    -15.4740E+06     984.727E+03     981.517E+03
             336     85.3833E-03     4.62782E-03     85.2578E-03     516.188E-03    -255.662E-03    -259.863E-03    -255.364E-03     515.889E-03    -259.863E-03     29.4363E-03     560.154E-03     30.0516E+06    -6.92137E+06    -22.3703E+06    -41.4595E+06    -40.9552E+06    -22.8746E+06    -6.92137E+06     488.047E+03
             337     85.3580E-03     3.85549E-03     85.2709E-03     518.208E-03    -257.844E-03    -259.956E-03    -257.749E-03     518.112E-03    -259.956E-03     16.1409E-03     549.851E-03     27.0014E+06    -17.5503E+06    -32.2543E+06    -48.6707E+06    -48.1331E+06    -32.7919E+06    -17.5503E+06     744.264E+03
             338     85.3465E-03     3.08585E-03     85.2907E-03     518.574E-03    -259.272E-03    -260.021E-03    -259.429E-03     518.557E-03    -259.846E-03     6.32905E-03     541.063E-03     20.6151E+06    -30.3109E+06    -40.4090E+06    -53.9468E+06    -53.8456E+06    -40.5102E+06    -30.3109E+06     525.737E+03
             339     85.3506E-03     2.31446E-03     85.3193E-03     518.397E-03    -259.176E-03    -259.696E-03    -259.429E-03     518.396E-03    -259.441E-03     249.762E-06     531.674E-03     13.7927E+06    -43.1345E+06    -49.8024E+06    -58.9035E+06    -58.6629E+06    -50.0430E+06    -43.1345E+06     39.1151E+03
             340     85.3639E-03     1.54424E-03     85.3500E-03     517.807E-03    -258.802E-03    -259.208E-03    -258.881E-03     517.804E-03    -259.128E-03    -2.49324E-03     523.621E-03     7.77661E+06    -55.4207E+06    -59.6348E+06    -64.3652E+06    -63.5555E+06    -59.7387E+06    -56.1264E+06      35.606E+03
             341     85.3746E-03     772.063E-06     85.3711E-03     517.893E-03    -258.537E-03    -259.467E-03    -259.241E-03     517.891E-03    -258.760E-03    -2.62501E-03     519.734E-03     6.69127E+06    -62.7165E+06    -66.5838E+06    -70.0742E+06    -66.4191E+06    -67.1109E+06    -65.8445E+06    -548.657E+03
             342     86.8088E-03     13.1206E-03     85.8115E-03     545.395E-03    -259.354E-03    -286.182E-03    -267.077E-03     526.290E-03    -259.354E-03     235.352E-03     688.210E-03     36.7314E+06     35.7649E+06     16.6227E+06    -6.02421E+06    -2.06555E+06     12.6641E+06     35.7649E+06     414.453E+03
             343     86.1697E-03     12.3496E-03     85.2802E-03     544.456E-03    -258.691E-03    -286.041E-03    -264.383E-03     522.798E-03    -258.691E-03     258.518E-03     707.516E-03     37.0513E+06     32.7155E+06     17.1639E+06    -9.32950E+06    -4.57783E+06     12.4122E+06     32.7155E+06     267.906E+03
             344     85.7931E-03     11.5774E-03     85.0083E-03     529.890E-03    -258.965E-03    -270.455E-03    -255.959E-03     515.394E-03    -258.965E-03     212.660E-03     673.358E-03     34.5436E+06     29.9774E+06     13.5103E+06    -9.56305E+06    -6.64437E+06     10.5916E+06     29.9774E+06     339.336E+03
             345     85.3573E-03     10.8046E-03     84.6707E-03     527.538E-03    -259.153E-03    -268.336E-03    -254.236E-03     513.438E-03    -259.153E-03     208.914E-03     672.829E-03     32.4803E+06     27.8379E+06     10.3574E+06    -9.54466E+06    -8.75584E+06     9.56861E+06     27.8379E+06     484.986E+03
             346     84.9993E-03     10.0323E-03     84.4052E-03     522.237E-03    -259.606E-03    -263.075E-03    -252.399E-03     511.560E-03    -259.606E-03     181.811E-03     659.193E-03     33.3294E+06     26.8774E+06     8.41440E+06    -11.5377E+06    -11.1342E+06     8.01095E+06     26.8774E+06    -82.9477E+03
             347     84.6748E-03     9.26004E-03     84.1669E-03     520.279E-03    -259.456E-03    -260.728E-03    -251.449E-03     511.252E-03    -259.708E-03     166.580E-03     652.923E-03     34.1154E+06     25.2784E+06     5.79074E+06    -14.0974E+06    -14.0108E+06     5.70413E+06     25.2784E+06    -107.126E+03
             348     84.3925E-03     8.48980E-03     83.9644E-03     516.452E-03    -257.591E-03    -259.053E-03    -250.968E-03     509.809E-03    -259.032E-03     142.199E-03     639.527E-03     34.7001E+06     22.5196E+06     2.81145E+06    -17.4782E+06    -17.4143E+06     2.74754E+06     22.5196E+06     356.224E+03
             349     84.1761E-03     7.71453E-03     83.8218E-03     514.577E-03    -255.984E-03    -258.676E-03    -251.459E-03     510.052E-03    -258.676E-03     117.181E-03     625.146E-03     34.7420E+06     18.7551E+06    -1.05358E+06    -21.3009E+06    -21.1532E+06    -1.20130E+06     18.7551E+06     1.34924E+06
             350     83.9778E-03     6.94568E-03     83.6900E-03     514.012E-03    -255.527E-03    -259.197E-03    -252.755E-03     511.239E-03    -259.197E-03     91.0336E-03     609.455E-03     34.4159E+06     13.8273E+06    -4.14059E+06    -25.7394E+06    -25.5636E+06    -4.31640E+06     13.8273E+06     1.80402E+06
             351     83.8435E-03     6.17172E-03     83.6160E-03     512.829E-03    -254.810E-03    -259.758E-03    -253.335E-03     511.355E-03    -259.758E-03     66.5027E-03     590.239E-03     34.0083E+06     8.32732E+06    -9.53433E+06    -30.7014E+06    -30.6305E+06    -9.60518E+06     8.32732E+06     993.566E+03
             352     83.7600E-03     5.40064E-03     83.5857E-03     513.886E-03    -254.835E-03    -259.896E-03    -254.069E-03     513.120E-03    -259.896E-03     47.6085E-03     573.793E-03     32.2813E+06     1.26351E+06    -15.7343E+06    -35.8563E+06    -35.7789E+06    -15.8117E+06     1.26351E+06     911.163E+03
             353     83.7090E-03     4.62890E-03     83.5810E-03     516.417E-03    -256.026E-03    -259.780E-03    -255.697E-03     516.087E-03    -259.780E-03     30.9289E-03     560.444E-03     29.5993E+06    -7.91996E+06    -23.1986E+06    -42.0078E+06    -41.6950E+06    -23.5113E+06    -7.91996E+06     1.88009E+06
             354     83.6783E-03     3.85739E-03     83.5894E-03     517.807E-03    -257.582E-03    -259.876E-03    -257.474E-03     517.700E-03    -259.876E-03     17.1142E-03     549.332E-03     25.3003E+06    -18.1543E+06    -30.7792E+06    -47.1790E+06    -46.9062E+06    -31.0521E+06    -18.1543E+06     1.55006E+06
             355     83.6695E-03     3.08479E-03     83.6126E-03     517.793E-03    -258.431E-03    -259.926E-03    -258.410E-03     517.772E-03    -259.926E-03     7.15027E-03     539.927E-03     20.0049E+06    -30.0462E+06    -38.9864E+06    -52.8370E+06    -52.6196E+06    -39.2038E+06    -30.0462E+06     592.700E+03
             356     83.6685E-03     2.31416E-03     83.6365E-03     518.316E-03    -258.832E-03    -259.799E-03    -258.911E-03     518.313E-03    -259.718E-03     1.39911E-03     531.368E-03     13.8474E+06    -43.3662E+06    -49.9739E+06    -59.1828E+06    -58.8125E+06    -50.3442E+06    -43.3662E+06     441.212E+03
             357     83.6825E-03     1.54290E-03     83.6683E-03     518.731E-03    -259.273E-03    -259.626E-03    -259.395E-03     518.731E-03    -259.503E-03    -973.000E-06     524.782E-03     7.81427E+06    -55.2917E+06    -59.4362E+06    -64.2639E+06    -63.5263E+06    -59.4680E+06    -55.9974E+06     167.576E+03
             358     83.6951E-03     771.965E-06     83.6915E-03     518.668E-03    -259.132E-03    -259.606E-03    -259.586E-03     518.668E-03    -259.152E-03    -1.14780E-03     520.674E-03     6.76722E+06    -61.4039E+06    -65.1367E+06    -68.9548E+06    -65.7141E+06    -65.5665E+06    -64.2148E+06    -22.7733E+03
             359     85.1432E-03     13.1187E-03     84.1265E-03     544.597E-03    -259.357E-03    -285.690E-03    -266.279E-03     525.186E-03    -259.357E-03     236.756E-03     687.592E-03     36.9630E+06     35.7911E+06     16.7611E+06    -6.29078E+06    -1.94908E+06     12.4194E+06     35.7911E+06     417.247E+03
             360     84.5100E-03     12.3498E-03     83.6028E-03     544.183E-03    -258.731E-03    -286.024E-03    -263.915E-03     522.073E-03    -258.731E-03     261.151E-03     707.271E-03     36.6750E+06     32.6294E+06     17.4868E+06    -9.03001E+06    -4.02253E+06     12.4793E+06     32.6294E+06     27.4731E+03
             361     84.1270E-03     11.5735E-03     83.3271E-03     530.473E-03    -258.997E-03    -270.976E-03    -256.456E-03     515.953E-03    -258.997E-03     213.159E-03     674.456E-03     34.4091E+06     30.1537E+06     13.4881E+06    -9.26357E+06    -6.10927E+06     10.3338E+06     30.1537E+06    -53.1527E+03
             362     83.6922E-03     10.8015E-03     82.9922E-03     528.646E-03    -259.134E-03    -269.156E-03    -255.237E-03     514.728E-03    -259.134E-03     207.871E-03     674.452E-03     32.0306E+06     26.8552E+06     10.5150E+06    -9.82615E+06    -8.90198E+06     9.59079E+06     26.8552E+06    -100.116E+03
             363     83.3291E-03     10.0355E-03     82.7226E-03     522.580E-03    -259.511E-03    -263.497E-03    -253.013E-03     512.096E-03    -259.511E-03     180.279E-03     659.795E-03     31.6143E+06     24.4041E+06     8.11045E+06    -11.8543E+06    -11.5218E+06     7.77791E+06     24.4041E+06    -320.938E+03
             364     83.0079E-03     9.26351E-03     82.4894E-03     519.670E-03    -259.225E-03    -260.523E-03    -251.302E-03     510.803E-03    -259.579E-03     165.104E-03     652.671E-03     33.2066E+06     23.6739E+06     5.50864E+06    -14.6017E+06    -14.5379E+06     5.44487E+06     23.6739E+06    -462.427E+03
             365     82.7255E-03     8.48914E-03     82.2887E-03     516.886E-03    -257.954E-03    -258.912E-03    -251.292E-03     510.225E-03    -258.912E-03     142.487E-03     639.380E-03     35.1615E+06     21.7954E+06     1.84573E+06    -18.6143E+06    -18.5360E+06     1.76736E+06     21.7954E+06     498.133E+03
             366     82.4995E-03     7.71671E-03     82.1378E-03     514.711E-03    -256.166E-03    -258.541E-03    -251.604E-03     510.149E-03    -258.541E-03     117.677E-03     624.679E-03     35.0861E+06     17.2616E+06    -2.28747E+06    -23.0294E+06    -22.9311E+06    -2.38569E+06     17.2616E+06     1.25681E+06
             367     82.3036E-03     6.94625E-03     82.0099E-03     512.942E-03    -254.472E-03    -259.120E-03    -251.628E-03     510.098E-03    -259.120E-03     92.2434E-03     608.197E-03     32.7692E+06     11.6305E+06    -3.92793E+06    -25.9227E+06    -25.8397E+06    -4.01094E+06     11.6305E+06     1.17545E+06
             368     82.1694E-03     6.17261E-03     81.9372E-03     512.356E-03    -254.077E-03    -259.828E-03    -252.528E-03     510.808E-03    -259.828E-03     67.9543E-03     589.549E-03     31.2044E+06     5.72366E+06    -8.52181E+06    -29.7279E+06    -29.6030E+06    -8.64671E+06     5.72366E+06     1.54616E+06
             369     82.0829E-03     5.39935E-03     81.9052E-03     514.419E-03    -255.156E-03    -260.015E-03    -254.367E-03     513.630E-03    -260.015E-03     48.3811E-03     574.139E-03     30.9619E+06    -73.7740E+03    -16.1221E+06    -35.3283E+06    -35.1812E+06    -16.2691E+06    -73.7740E+03     1.65442E+06
             370     82.0265E-03     4.62797E-03     81.8958E-03     516.866E-03    -256.313E-03    -259.850E-03    -255.974E-03     516.528E-03    -259.850E-03     31.2810E-03     560.909E-03     29.5006E+06    -5.84315E+06    -22.6300E+06    -39.8032E+06    -39.7018E+06    -22.7314E+06    -5.84315E+06     1.28070E+06
             371     82.0019E-03     3.85606E-03     81.9112E-03     517.549E-03    -257.185E-03    -259.939E-03    -257.075E-03     517.438E-03    -259.939E-03     17.5817E-03     549.175E-03     25.5117E+06    -16.2085E+06    -29.1398E+06    -45.4825E+06    -45.3833E+06    -29.2389E+06    -16.2085E+06     1.04264E+06
             372     81.9888E-03     3.08468E-03     81.9308E-03     517.494E-03    -257.950E-03    -260.120E-03    -257.925E-03     517.470E-03    -260.120E-03     7.58164E-03     539.795E-03     19.3996E+06    -29.4259E+06    -38.6086E+06    -51.6170E+06    -51.3565E+06    -38.8691E+06    -29.4259E+06     919.655E+03
             373     81.9897E-03     2.31182E-03     81.9571E-03     518.267E-03    -258.657E-03    -260.122E-03    -258.655E-03     518.265E-03    -260.122E-03     1.45454E-03     531.494E-03     12.6330E+06    -42.6849E+06    -49.3548E+06    -57.2012E+06    -56.7764E+06    -49.7796E+06    -42.6849E+06     577.994E+03
             374     81.9970E-03     1.54039E-03     81.9826E-03     519.622E-03    -259.575E-03    -260.342E-03    -259.616E-03     519.621E-03    -260.300E-03    -1.23166E-03     525.764E-03     7.63388E+06    -53.9159E+06    -57.7852E+06    -62.6547E+06    -62.0938E+06    -58.0408E+06    -54.2212E+06     486.664E+03
             375     82.0111E-03     770.335E-06     82.0075E-03     520.708E-03    -260.118E-03    -260.681E-03    -260.454E-03     520.707E-03    -260.344E-03    -1.85911E-03     522.832E-03     7.41117E+06    -60.4226E+06    -63.9958E+06    -68.6304E+06    -66.0867E+06    -64.5283E+06    -62.4339E+06     293.185E+03
             376     83.4915E-03     13.1188E-03     82.4544E-03     544.109E-03    -259.436E-03    -285.091E-03    -265.810E-03     524.828E-03    -259.436E-03     236.432E-03     686.777E-03     37.2438E+06     35.9666E+06     17.0593E+06    -6.60421E+06    -2.34972E+06     12.8048E+06     35.9666E+06    -423.887E+03
             377     82.8474E-03     12.3444E-03     81.9226E-03     544.208E-03    -258.775E-03    -285.886E-03    -264.185E-03     522.506E-03    -258.775E-03     258.480E-03     706.986E-03     35.5267E+06     32.2498E+06     16.8431E+06    -8.20531E+06    -3.80416E+06     12.4419E+06     32.2498E+06     109.008E+03
             378     82.4593E-03     11.5752E-03     81.6429E-03     530.986E-03    -258.960E-03    -271.376E-03    -257.206E-03     516.817E-03    -258.960E-03     210.688E-03     674.797E-03     32.6841E+06     27.5020E+06     11.5967E+06    -9.92402E+06    -7.27266E+06     8.94534E+06     27.5020E+06     236.567E+03
             379     82.0255E-03     10.8057E-03     81.3107E-03     528.866E-03    -259.087E-03    -269.404E-03    -255.582E-03     515.044E-03    -259.087E-03     207.391E-03     674.734E-03     30.7285E+06     24.5316E+06     9.35623E+06    -10.5893E+06    -9.70026E+06     8.46719E+06     24.5316E+06    -440.658E+03
             380     81.6558E-03     10.0357E-03     81.0367E-03     522.202E-03    -259.486E-03    -263.171E-03    -252.457E-03     511.488E-03    -259.486E-03     182.156E-03     659.721E-03     30.7492E+06     22.8183E+06     9.10380E+06    -12.1663E+06    -11.6881E+06     8.62561E+06     22.8183E+06     182.079E+03
             381     81.3420E-03     9.26166E-03     80.8130E-03     520.287E-03    -259.439E-03    -260.713E-03    -251.538E-03     511.213E-03    -259.540E-03     167.023E-03     653.206E-03     31.9467E+06     21.0557E+06     6.07749E+06    -15.4867E+06    -15.3142E+06     5.90490E+06     21.0557E+06     818.846E+03
             382     81.0519E-03     8.49167E-03     80.6058E-03     517.063E-03    -257.835E-03    -259.282E-03    -251.451E-03     510.289E-03    -258.891E-03     143.799E-03     639.610E-03     34.0800E+06     19.8838E+06     1.38294E+06    -19.2266E+06    -19.1407E+06     1.29705E+06     19.8838E+06     687.767E+03
             383     80.8299E-03     7.71705E-03     80.4606E-03     513.818E-03    -255.357E-03    -258.559E-03    -250.696E-03     509.158E-03    -258.559E-03     118.717E-03     623.943E-03     34.7558E+06     17.4151E+06    -2.09063E+06    -22.4178E+06    -22.3665E+06    -2.14191E+06     17.4151E+06     440.645E+03
             384     80.6343E-03     6.94411E-03     80.3347E-03     512.564E-03    -253.967E-03    -259.173E-03    -251.101E-03     509.699E-03    -259.173E-03     92.5408E-03     607.757E-03     32.8560E+06     11.7573E+06    -4.88310E+06    -25.9461E+06    -25.9237E+06    -4.90556E+06     11.7573E+06     638.007E+03
             385     80.4946E-03     6.16929E-03     80.2578E-03     512.621E-03    -254.276E-03    -259.899E-03    -252.720E-03     511.065E-03    -259.899E-03     68.1265E-03     589.766E-03     30.8409E+06     5.02223E+06    -8.70412E+06    -30.1221E+06    -30.0438E+06    -8.78238E+06     5.02223E+06     907.996E+03
             386     80.4027E-03     5.39900E-03     80.2212E-03     514.486E-03    -255.268E-03    -260.087E-03    -254.485E-03     513.704E-03    -260.087E-03     48.1391E-03     574.087E-03     29.3049E+06    -1.01992E+06    -14.6204E+06    -34.2544E+06    -34.1668E+06    -14.7081E+06    -1.01992E+06     963.384E+03
             387     80.3431E-03     4.62807E-03     80.2097E-03     516.745E-03    -256.148E-03    -259.941E-03    -255.821E-03     516.418E-03    -259.941E-03     30.7149E-03     560.800E-03     28.3629E+06    -6.98396E+06    -22.2347E+06    -39.4900E+06    -39.4382E+06    -22.2864E+06    -6.98396E+06     712.181E+03
             388     80.3218E-03     3.85597E-03     80.2292E-03     517.854E-03    -257.357E-03    -260.043E-03    -257.253E-03     517.751E-03    -260.043E-03     16.9708E-03     549.534E-03     25.5888E+06    -15.7521E+06    -29.2864E+06    -45.2415E+06    -45.1296E+06    -29.3983E+06    -15.7521E+06     988.100E+03
             389     80.3081E-03     3.08320E-03     80.2489E-03     517.882E-03    -258.297E-03    -260.174E-03    -258.274E-03     517.860E-03    -260.174E-03     7.05752E-03     540.289E-03     20.0509E+06    -28.6482E+06    -37.7220E+06    -51.5972E+06    -51.1881E+06    -38.1312E+06    -28.6482E+06     1.55407E+06
             390     80.3054E-03     2.31285E-03     80.2720E-03     518.612E-03    -258.989E-03    -260.152E-03    -259.033E-03     518.610E-03    -260.107E-03     385.561E-06     532.013E-03     13.3823E+06    -42.1351E+06    -47.9479E+06    -57.3767E+06    -56.8717E+06    -48.4530E+06    -42.1351E+06     1.46964E+06
             391     80.3116E-03     1.54113E-03     80.2968E-03     519.564E-03    -259.597E-03    -260.272E-03    -259.638E-03     519.560E-03    -260.226E-03    -3.16987E-03     525.637E-03     7.11752E+06    -52.7664E+06    -56.3019E+06    -60.8860E+06    -60.3441E+06    -56.5386E+06    -53.0717E+06     973.368E+03
             392     80.3210E-03     769.721E-06     80.3173E-03     520.481E-03    -259.477E-03    -261.112E-03    -260.766E-03     520.475E-03    -259.817E-03    -4.03270E-03     522.447E-03     7.47143E+06    -58.9709E+06    -63.2394E+06    -66.9592E+06    -63.6279E+06    -63.5128E+06    -62.0287E+06     444.052E+03
             393     81.8303E-03     13.1176E-03     80.7721E-03     545.402E-03    -259.425E-03    -285.926E-03    -266.895E-03     526.371E-03    -259.425E-03     234.997E-03     688.264E-03     36.5294E+06     36.0410E+06     16.7725E+06    -5.68135E+06    -1.97975E+06     13.0709E+06     36.0410E+06    -104.469E+03
             394     81.1904E-03     12.3536E-03     80.2451E-03     544.854E-03    -258.700E-03    -286.229E-03    -264.695E-03     523.320E-03    -258.700E-03     257.838E-03     707.569E-03     34.9933E+06     30.6980E+06     15.3029E+06    -9.03579E+06    -5.49516E+06     11.7622E+06     30.6980E+06     141.423E+03
             395     80.7969E-03     11.5774E-03     79.9631E-03     530.545E-03    -258.889E-03    -270.990E-03    -256.591E-03     516.146E-03    -258.889E-03     212.104E-03     673.498E-03     31.9695E+06     27.0248E+06     11.6813E+06    -9.48429E+06    -7.05038E+06     9.24741E+06     27.0248E+06    -188.345E+03
             396     80.3508E-03     10.8045E-03     79.6211E-03     527.404E-03    -259.070E-03    -268.541E-03    -254.598E-03     513.461E-03    -259.070E-03     207.722E-03     673.233E-03     29.6594E+06     23.7177E+06     8.92836E+06    -10.1476E+06    -8.96105E+06     7.74184E+06     23.7177E+06     40.9621E+03
             397     79.9966E-03     10.0336E-03     79.3649E-03     521.107E-03    -259.511E-03    -262.666E-03    -252.004E-03     510.445E-03    -259.511E-03     181.556E-03     658.709E-03     30.3771E+06     21.8663E+06     7.64412E+06    -12.6584E+06    -11.9814E+06     6.96714E+06     21.8663E+06     684.438E+03
             398     79.6643E-03     9.26108E-03     79.1241E-03     520.040E-03    -259.409E-03    -260.753E-03    -251.387E-03     510.882E-03    -259.617E-03     167.743E-03     652.814E-03     31.4469E+06     21.1865E+06     5.92362E+06    -14.7326E+06    -14.5253E+06     5.71633E+06     21.1865E+06     1.14201E+06
             399     79.3877E-03     8.49010E-03     78.9324E-03     516.726E-03    -257.588E-03    -259.380E-03    -251.124E-03     509.872E-03    -258.989E-03     144.632E-03     640.151E-03     32.2814E+06     19.4903E+06     2.58622E+06    -17.5830E+06    -17.5017E+06     2.50492E+06     19.4903E+06     855.712E+03
             400     79.1604E-03     7.71427E-03     78.7836E-03     514.002E-03    -255.284E-03    -258.662E-03    -250.563E-03     509.281E-03    -258.662E-03     119.429E-03     624.519E-03     33.2004E+06     16.7959E+06    -1.78031E+06    -21.3519E+06    -21.3083E+06    -1.82386E+06     16.7959E+06     510.680E+03
             401     78.9666E-03     6.94519E-03     78.6605E-03     513.483E-03    -254.734E-03    -259.238E-03    -251.868E-03     510.617E-03    -259.238E-03     92.6374E-03     608.540E-03     32.2064E+06     11.6404E+06    -5.21429E+06    -25.3747E+06    -25.3364E+06    -5.25257E+06     11.6404E+06     717.386E+03
             402     78.8229E-03     6.17228E-03     78.5809E-03     513.080E-03    -254.866E-03    -259.875E-03    -253.308E-03     511.522E-03    -259.875E-03     68.2546E-03     589.973E-03     31.0529E+06     6.44852E+06    -8.61481E+06    -29.2031E+06    -29.1730E+06    -8.64497E+06     6.44852E+06     424.515E+03
             403     78.7257E-03     5.39852E-03     78.5404E-03     514.231E-03    -255.109E-03    -260.074E-03    -254.345E-03     513.467E-03    -260.074E-03     47.2897E-03     573.845E-03      29.925E+06    -253.837E+03    -15.3286E+06    -34.4524E+06    -34.4132E+06    -15.3679E+06    -253.837E+03     602.327E+03
             404     78.6670E-03     4.62628E-03     78.5309E-03     516.616E-03    -256.074E-03    -259.966E-03    -255.775E-03     516.317E-03    -259.966E-03     29.3312E-03     560.841E-03     27.1351E+06    -8.45044E+06    -21.9539E+06    -39.4165E+06    -39.3137E+06    -22.0566E+06    -8.45044E+06     960.509E+03
             405     78.6411E-03     3.85491E-03     78.5466E-03     518.291E-03    -257.764E-03    -260.037E-03    -257.671E-03     518.198E-03    -260.037E-03     15.8771E-03     549.982E-03     24.1390E+06    -16.8330E+06    -29.0310E+06    -44.5294E+06    -44.4228E+06    -29.1376E+06    -16.8330E+06     696.521E+03
             406     78.6316E-03     3.08501E-03     78.5711E-03     518.537E-03    -259.004E-03    -260.177E-03    -259.128E-03     518.520E-03    -260.035E-03     6.35580E-03     540.778E-03     20.2952E+06    -26.9355E+06    -37.2520E+06    -50.1876E+06    -49.8579E+06    -37.5817E+06    -26.9355E+06     1.11358E+06
             407     78.6236E-03     2.31293E-03     78.5896E-03     518.766E-03    -259.309E-03    -259.946E-03    -259.494E-03     518.764E-03    -259.758E-03    -80.7986E-06     531.755E-03     14.0471E+06    -38.7467E+06    -45.7125E+06    -54.7632E+06    -54.3446E+06    -46.1311E+06    -38.7467E+06     1.49765E+06
             408     78.6316E-03     1.54375E-03     78.6164E-03     518.728E-03    -259.306E-03    -259.605E-03    -259.411E-03     518.724E-03    -259.496E-03    -3.26547E-03     524.411E-03     7.70457E+06    -51.1100E+06    -55.0426E+06    -59.8345E+06    -59.4100E+06    -55.2917E+06    -51.2853E+06     855.305E+03
             409     78.6395E-03     772.403E-06     78.6357E-03     518.656E-03    -258.585E-03    -260.204E-03    -260.084E-03     518.651E-03    -258.700E-03    -2.97239E-03     520.484E-03     7.11394E+06    -57.3985E+06    -61.1860E+06    -64.8358E+06    -61.3220E+06    -61.7639E+06    -60.3344E+06     552.328E+03
             410     80.1762E-03     13.1224E-03     79.0951E-03     545.208E-03    -259.336E-03    -285.921E-03    -266.693E-03     525.980E-03    -259.336E-03     235.723E-03     688.531E-03     34.6037E+06     33.5744E+06     16.2502E+06    -5.93559E+06    -2.65359E+06     12.9682E+06     33.5744E+06         303.125
             411     79.5265E-03     12.3466E-03     78.5623E-03     544.845E-03    -258.655E-03    -286.593E-03    -264.656E-03     522.907E-03    -258.655E-03     260.384E-03     708.208E-03     33.1199E+06     29.7287E+06     16.0592E+06    -7.73434E+06    -3.92964E+06     12.2545E+06     29.7287E+06    -88.0301E+03
             412     79.1375E-03     11.5782E-03     78.2859E-03     530.624E-03    -258.854E-03    -271.328E-03    -256.774E-03     516.070E-03    -258.854E-03     213.420E-03     673.854E-03     31.3809E+06     26.4774E+06     12.7985E+06    -9.15238E+06    -6.32840E+06     9.97451E+06     26.4774E+06      36.241E+03
             413     78.6866E-03     10.8040E-03     77.9414E-03     527.092E-03    -259.013E-03    -268.116E-03    -254.172E-03     513.148E-03    -259.013E-03     207.660E-03     672.650E-03     30.4746E+06     24.5189E+06     8.87129E+06    -10.0209E+06    -8.60729E+06     7.45766E+06     24.5189E+06     410.043E+03
             414     78.3255E-03     10.0358E-03     77.6799E-03     520.681E-03    -259.512E-03    -262.340E-03    -251.688E-03     510.029E-03    -259.512E-03     181.378E-03     658.077E-03     30.4688E+06     23.1383E+06     6.78777E+06    -11.5414E+06    -10.6814E+06     5.92776E+06     23.1383E+06     844.798E+03
             415     78.0010E-03     9.26139E-03     77.4493E-03     519.133E-03    -259.416E-03    -260.342E-03    -250.823E-03     509.915E-03    -259.717E-03     168.212E-03     651.983E-03     30.8558E+06     21.3309E+06     5.09147E+06    -14.0981E+06    -13.8624E+06     4.85569E+06     21.3309E+06     832.261E+03
             416     77.7131E-03     8.48691E-03     77.2483E-03     516.900E-03    -258.169E-03    -259.138E-03    -251.345E-03     510.075E-03    -259.138E-03     144.133E-03     640.158E-03     31.5490E+06     19.4289E+06     1.98437E+06    -16.8617E+06    -16.8108E+06     1.93344E+06     19.4289E+06     809.362E+03
             417     77.4899E-03     7.71585E-03     77.1048E-03     515.075E-03    -256.234E-03    -258.773E-03    -251.617E-03     510.458E-03    -258.773E-03     118.439E-03     625.501E-03     32.1798E+06     17.1836E+06    -1.17377E+06    -19.8634E+06    -19.8139E+06    -1.22327E+06     17.1836E+06     830.904E+03
             418     77.2889E-03     6.94289E-03     76.9764E-03     514.224E-03    -255.445E-03    -259.252E-03    -252.587E-03     511.366E-03    -259.252E-03     92.4533E-03     609.348E-03     31.0106E+06     11.4701E+06    -4.50931E+06    -24.1868E+06    -24.1392E+06    -4.55694E+06     11.4701E+06     701.714E+03
             419     77.1497E-03     6.17002E-03     76.9026E-03     513.338E-03    -255.147E-03    -259.794E-03    -253.630E-03     511.821E-03    -259.794E-03     67.3305E-03     590.249E-03     29.4294E+06     5.00373E+06    -9.34250E+06    -28.7775E+06    -28.7227E+06    -9.39730E+06     5.00373E+06     880.914E+03
             420     77.0512E-03     5.39970E-03     76.8617E-03     514.182E-03    -255.066E-03    -259.977E-03    -254.321E-03     513.437E-03    -259.977E-03     46.7280E-03     573.984E-03     28.5187E+06     236.750E+03    -15.7059E+06    -32.5314E+06    -32.4852E+06    -15.7520E+06     236.750E+03     866.494E+03
             421     76.9865E-03     4.62897E-03     76.8472E-03     516.681E-03    -256.147E-03    -259.884E-03    -255.852E-03     516.387E-03    -259.884E-03     29.1296E-03     560.906E-03     27.7965E+06    -5.56997E+06    -21.7819E+06    -37.4530E+06    -37.3568E+06    -21.8781E+06    -5.56997E+06     1.04405E+06
             422     76.9649E-03     3.85676E-03     76.8682E-03     518.328E-03    -257.939E-03    -259.924E-03    -257.845E-03     518.234E-03    -259.924E-03     16.1481E-03     549.941E-03     24.7030E+06    -14.6254E+06    -27.4612E+06    -42.8448E+06    -42.6252E+06    -27.6808E+06    -14.6254E+06     1.34165E+06
             423     76.9483E-03     3.08510E-03     76.8864E-03     518.593E-03    -259.233E-03    -259.965E-03    -259.355E-03     518.572E-03    -259.823E-03     6.76813E-03     540.636E-03     19.1315E+06    -25.9048E+06    -35.9914E+06    -47.8449E+06    -47.6615E+06    -36.1747E+06    -25.9048E+06     870.712E+03
             424     76.9445E-03     2.31625E-03     76.9096E-03     518.333E-03    -259.087E-03    -259.655E-03    -259.227E-03     518.331E-03    -259.513E-03     412.697E-06     530.985E-03     13.6069E+06    -38.3345E+06    -46.1713E+06    -54.0055E+06    -53.8711E+06    -46.3058E+06    -38.3345E+06     613.300E+03
             425     76.9489E-03     1.54270E-03     76.9335E-03     517.992E-03    -258.840E-03    -259.331E-03    -258.901E-03     517.990E-03    -259.268E-03    -2.21713E-03     523.449E-03     8.07678E+06    -49.2864E+06    -53.9071E+06    -58.4218E+06    -58.0823E+06    -54.0713E+06    -49.4618E+06     845.051E+03
             426     76.9595E-03     771.347E-06     76.9557E-03     518.292E-03    -258.773E-03    -259.672E-03    -259.524E-03     518.290E-03    -258.919E-03    -1.88912E-03     520.090E-03     5.90872E+06    -57.6563E+06    -60.4719E+06    -63.8215E+06    -61.4105E+06    -61.2703E+06    -59.2689E+06     97.3851E+03
             427     78.5149E-03     13.1176E-03     77.4114E-03     544.520E-03    -259.309E-03    -285.262E-03    -266.127E-03     525.385E-03    -259.309E-03     235.469E-03     687.596E-03     33.0006E+06     32.5092E+06     16.1489E+06    -5.11977E+06    -2.04554E+06     13.0747E+06     32.5092E+06     340.429E+03
             428     77.8692E-03     12.3508E-03     76.8834E-03     544.256E-03    -258.632E-03    -285.846E-03    -264.066E-03     522.476E-03    -258.632E-03     259.400E-03     707.348E-03     32.2383E+06     28.8546E+06     16.1349E+06    -7.42790E+06    -3.94605E+06     12.6531E+06     28.8546E+06     244.995E+03
             429     77.4613E-03     11.5747E-03     76.5917E-03     530.083E-03    -258.883E-03    -270.773E-03    -256.402E-03     515.711E-03    -258.883E-03     212.050E-03     673.823E-03     30.5556E+06     25.4181E+06     12.4632E+06    -9.06040E+06    -6.14178E+06     9.54453E+06     25.4181E+06     170.542E+03
             430     77.0241E-03     10.8058E-03     76.2624E-03     526.926E-03    -259.055E-03    -267.537E-03    -253.501E-03     512.890E-03    -259.055E-03     208.582E-03     672.589E-03     29.8464E+06     23.6840E+06     8.78171E+06    -9.88913E+06    -8.40267E+06     7.29524E+06     23.6840E+06     483.669E+03
             431     76.6545E-03     10.0330E-03     75.9951E-03     521.399E-03    -259.651E-03    -262.502E-03    -251.586E-03     510.484E-03    -259.651E-03     183.622E-03     658.824E-03     30.2519E+06     21.9496E+06     7.34097E+06    -12.3123E+06    -11.3049E+06     6.33359E+06     21.9496E+06     255.466E+03
             432     76.3378E-03     9.25933E-03     75.7741E-03     520.137E-03    -259.780E-03    -260.914E-03    -251.707E-03     511.022E-03    -259.873E-03     167.417E-03     653.063E-03     30.5111E+06     20.7594E+06     5.31651E+06    -14.3330E+06    -13.8811E+06     4.86465E+06     20.7594E+06     450.383E+03
             433     76.0415E-03     8.48781E-03     75.5663E-03     517.248E-03    -258.317E-03    -259.239E-03    -251.709E-03     510.572E-03    -259.172E-03     142.622E-03     639.905E-03     31.4064E+06     19.5301E+06     1.81880E+06    -16.6360E+06    -16.5591E+06     1.74187E+06     19.5301E+06     600.750E+03
             434     75.8147E-03     7.71362E-03     75.4213E-03     515.280E-03    -256.580E-03    -258.726E-03    -252.085E-03     510.784E-03    -258.726E-03     116.880E-03     625.731E-03     31.3143E+06     15.7494E+06    -1.93246E+06    -20.2670E+06    -20.2299E+06    -1.96961E+06     15.7494E+06     394.170E+03
             435     75.6146E-03     6.94590E-03     75.2949E-03     514.162E-03    -255.548E-03    -259.163E-03    -252.765E-03     511.379E-03    -259.163E-03     91.3085E-03     609.361E-03     29.7126E+06     10.4943E+06    -4.86504E+06    -23.6440E+06    -23.6001E+06    -4.90901E+06     10.4943E+06     729.106E+03
             436     75.4727E-03     6.17330E-03     75.2198E-03     512.917E-03    -254.711E-03    -259.765E-03    -253.201E-03     511.407E-03    -259.765E-03     67.2053E-03     589.947E-03     28.6608E+06     6.08209E+06    -9.29460E+06    -26.9271E+06    -26.8487E+06    -9.37306E+06     6.08209E+06     1.08114E+06
             437     75.3768E-03     5.40077E-03     75.1830E-03     514.127E-03    -254.934E-03    -259.981E-03    -254.155E-03     513.347E-03    -259.981E-03     48.0228E-03     574.114E-03     27.8472E+06     633.011E+03    -15.0394E+06    -31.5151E+06    -31.4280E+06    -15.1265E+06     633.011E+03     1.15628E+06
             438     75.3091E-03     4.62699E-03     75.1669E-03     517.024E-03    -256.491E-03    -259.864E-03    -256.162E-03     516.695E-03    -259.864E-03     30.8473E-03     561.104E-03     26.3660E+06    -7.00878E+06    -21.8525E+06    -37.3574E+06    -37.2648E+06    -21.9452E+06    -7.00878E+06     1.05977E+06
             439     75.2877E-03     3.85620E-03     75.1888E-03     518.547E-03    -258.283E-03    -259.872E-03    -258.178E-03     518.442E-03    -259.872E-03     17.0823E-03     549.987E-03     23.7968E+06    -15.5866E+06    -27.6676E+06    -42.8206E+06    -42.6252E+06    -27.8630E+06    -15.5866E+06     1.40471E+06
             440     75.2676E-03     3.08633E-03     75.2043E-03     517.895E-03    -258.643E-03    -259.809E-03    -258.620E-03     517.872E-03    -259.809E-03     7.35366E-03     539.764E-03     19.4424E+06    -26.2402E+06    -34.8603E+06    -48.4486E+06    -48.2404E+06    -35.0685E+06    -26.2402E+06     1.47798E+06
             441     75.2629E-03     2.31364E-03     75.2274E-03     517.810E-03    -258.414E-03    -259.672E-03    -258.412E-03     517.808E-03    -259.672E-03     1.67991E-03     530.454E-03     12.4643E+06    -38.8661E+06    -44.8448E+06    -53.1503E+06    -53.0077E+06    -44.9874E+06    -38.8661E+06     911.771E+03
             442     75.2697E-03     1.54355E-03     75.2538E-03     518.448E-03    -258.902E-03    -259.680E-03    -258.901E-03     518.447E-03    -259.680E-03    -471.747E-06     523.968E-03     6.44236E+06    -49.7626E+06    -53.1902E+06    -57.0165E+06    -56.8222E+06    -53.3268E+06    -49.8202E+06     571.673E+03
             443     75.2750E-03     771.127E-06     75.2710E-03     519.373E-03    -259.249E-03    -260.225E-03    -259.978E-03     519.371E-03    -259.494E-03    -1.65114E-03     521.140E-03     5.01677E+06    -56.2827E+06    -59.9900E+06    -61.6697E+06    -60.0674E+06    -60.1054E+06    -57.7696E+06     733.239E+03
             444     76.8560E-03     13.1221E-03     75.7275E-03     545.085E-03    -259.323E-03    -285.726E-03    -266.526E-03     525.885E-03    -259.323E-03     235.992E-03     687.861E-03     32.2750E+06     31.5133E+06     15.7295E+06    -5.08317E+06    -2.16531E+06     12.8117E+06     31.5133E+06     410.134E+03
             445     76.2070E-03     12.3490E-03     75.1998E-03     544.673E-03    -258.636E-03    -285.956E-03    -264.047E-03     522.764E-03    -258.636E-03     260.368E-03     707.342E-03     31.9108E+06     28.4336E+06     15.4217E+06    -7.37345E+06    -3.73603E+06     11.7843E+06     28.4336E+06     373.613E+03
             446     75.8004E-03     11.5794E-03     74.9108E-03     529.324E-03    -258.938E-03    -269.666E-03    -255.137E-03     514.796E-03    -258.938E-03     212.920E-03     672.813E-03     30.7839E+06     25.9908E+06     12.1214E+06    -8.77917E+06    -5.62741E+06     8.96965E+06     25.9908E+06     512.140E+03
             447     75.3567E-03     10.8010E-03     74.5786E-03     527.093E-03    -259.169E-03    -267.407E-03    -253.384E-03     513.070E-03    -259.169E-03     208.307E-03     672.647E-03     29.0929E+06     22.8280E+06     9.73040E+06    -9.95927E+06    -8.65049E+06     8.42162E+06     22.8280E+06     717.340E+03
             448     74.9920E-03     10.0316E-03     74.3180E-03     522.977E-03    -259.717E-03    -263.652E-03    -252.910E-03     512.235E-03    -259.717E-03     182.490E-03     659.781E-03     28.8183E+06     20.5716E+06     8.02302E+06    -12.1497E+06    -11.2341E+06     7.10740E+06     20.5716E+06     650.384E+03
             449     74.6606E-03     9.26185E-03     74.0839E-03     520.977E-03    -259.811E-03    -261.415E-03    -252.588E-03     512.171E-03    -259.832E-03     164.614E-03     653.757E-03     29.7374E+06     20.1747E+06     5.85893E+06    -13.9825E+06    -13.3147E+06     5.19116E+06     20.1747E+06    -7.76881E+03
             450     74.3779E-03     8.48894E-03     73.8919E-03     516.855E-03    -258.026E-03    -259.067E-03    -251.577E-03     510.338E-03    -258.999E-03     141.149E-03     639.829E-03     30.5595E+06     18.8552E+06     2.15284E+06    -16.3177E+06    -16.1065E+06     1.94159E+06     18.8552E+06     54.7713E+03
             451     74.1384E-03     7.71723E-03     73.7356E-03     514.116E-03    -255.615E-03    -258.587E-03    -251.051E-03     509.551E-03    -258.587E-03     117.492E-03     624.636E-03     30.6405E+06     15.3499E+06    -2.85447E+06    -19.7677E+06    -19.7075E+06    -2.91460E+06     15.3499E+06     449.024E+03
             452     73.9451E-03     6.94572E-03     73.6182E-03     513.199E-03    -254.644E-03    -259.185E-03    -251.777E-03     510.332E-03    -259.185E-03     92.8946E-03     608.763E-03     29.2414E+06     10.6510E+06    -5.29500E+06    -22.8151E+06    -22.7583E+06    -5.35183E+06     10.6510E+06     701.485E+03
             453     73.7988E-03     6.16934E-03     73.5404E-03     513.027E-03    -254.675E-03    -259.884E-03    -253.045E-03     511.397E-03    -259.884E-03     69.7287E-03     590.322E-03     28.2773E+06     5.64087E+06    -9.75163E+06    -26.9118E+06    -26.8396E+06    -9.82381E+06     5.64087E+06     950.027E+03
             454     73.6975E-03     5.39838E-03     73.4995E-03     514.600E-03    -255.204E-03    -260.077E-03    -254.406E-03     513.802E-03    -260.077E-03     48.5140E-03     574.457E-03     27.5830E+06     14.0845E+03    -15.3886E+06    -31.8022E+06    -31.5961E+06    -15.5947E+06     14.0845E+03     1.56358E+06
             455     73.6277E-03     4.62799E-03     73.4821E-03     517.070E-03    -256.412E-03    -259.979E-03    -256.074E-03     516.733E-03    -259.979E-03     31.4376E-03     561.043E-03     25.4657E+06    -6.99578E+06    -20.5802E+06    -36.3181E+06    -36.0574E+06    -20.8409E+06    -6.99578E+06     1.90933E+06
             456     73.6030E-03     3.85686E-03     73.5019E-03     518.413E-03    -258.061E-03    -260.034E-03    -257.940E-03     518.292E-03    -260.034E-03     18.4116E-03     550.066E-03     21.8631E+06    -16.9736E+06    -27.0123E+06    -41.7958E+06    -41.6602E+06    -27.1479E+06    -16.9736E+06     1.30664E+06
             457     73.5907E-03     3.08488E-03     73.5260E-03     518.066E-03    -258.665E-03    -260.051E-03    -258.637E-03     518.038E-03    -260.051E-03     8.16511E-03     540.172E-03     17.1341E+06    -27.3650E+06    -34.5800E+06    -46.6789E+06    -46.5417E+06    -34.7172E+06    -27.3650E+06     505.967E+03
             458     73.5842E-03     2.31289E-03     73.5478E-03     518.463E-03    -258.813E-03    -259.949E-03    -258.810E-03     518.460E-03    -259.949E-03     1.22008E-03     531.127E-03     11.9011E+06    -37.5790E+06    -43.8208E+06    -51.2088E+06    -51.0402E+06    -43.9895E+06    -37.5790E+06     211.865E+03
             459     73.5862E-03     1.53991E-03     73.5701E-03     519.281E-03    -259.416E-03    -259.884E-03    -259.412E-03     519.277E-03    -259.884E-03    -1.91542E-03     524.904E-03     6.54104E+06    -48.0958E+06    -51.2321E+06    -55.5404E+06    -55.2634E+06    -51.4513E+06    -48.1535E+06     729.296E+03
             460     73.5911E-03     770.581E-06     73.5871E-03     519.830E-03    -259.609E-03    -260.293E-03    -260.161E-03     519.826E-03    -259.736E-03    -2.25964E-03     521.672E-03     3.95754E+06    -54.3890E+06    -56.5947E+06    -58.7979E+06    -57.4749E+06    -57.0907E+06    -55.2161E+06     515.271E+03
             461     75.1994E-03     13.1189E-03     74.0463E-03     545.356E-03    -259.395E-03    -286.114E-03    -266.816E-03     526.058E-03    -259.395E-03     236.755E-03     687.837E-03     32.6861E+06     31.4736E+06     14.9320E+06    -5.64152E+06    -2.27974E+06     11.5703E+06     31.4736E+06     41.4859E+03
             462     74.5424E-03     12.3504E-03     73.5121E-03     544.111E-03    -258.734E-03    -285.491E-03    -263.666E-03     522.286E-03    -258.734E-03     259.402E-03     706.931E-03     32.3670E+06     28.1407E+06     15.5317E+06    -8.08872E+06    -3.75147E+06     11.1945E+06     28.1407E+06     510.757E+03
             463     74.1442E-03     11.5734E-03     73.2353E-03     529.683E-03    -258.972E-03    -269.710E-03    -255.303E-03     515.276E-03    -258.972E-03     212.007E-03     672.878E-03     30.4038E+06     25.5002E+06     12.9538E+06    -8.78252E+06    -5.84049E+06     10.0117E+06     25.5002E+06     1.05918E+06
             464     73.6936E-03     10.8026E-03     72.8975E-03     528.846E-03    -259.151E-03    -268.959E-03    -255.106E-03     514.993E-03    -259.151E-03     207.324E-03     673.376E-03     28.2996E+06     23.1495E+06     10.7848E+06    -8.90067E+06    -7.91217E+06     9.79627E+06     23.1495E+06     1.00983E+06
             465     73.3212E-03     10.0361E-03     72.6311E-03     523.275E-03    -259.588E-03    -264.026E-03    -253.416E-03     512.666E-03    -259.588E-03     181.525E-03     659.809E-03     28.3621E+06     21.5544E+06     8.31849E+06    -10.7423E+06    -9.95718E+06     7.53340E+06     21.5544E+06     1.13219E+06
             466     72.9935E-03     9.26322E-03     72.4034E-03     520.449E-03    -259.646E-03    -260.921E-03    -251.918E-03     511.481E-03    -259.680E-03     166.010E-03     653.279E-03     28.4863E+06     19.0584E+06     5.26761E+06    -13.5917E+06    -13.0669E+06     4.74279E+06     19.0584E+06     480.789E+03
             467     72.7048E-03     8.49142E-03     72.2072E-03     516.421E-03    -257.728E-03    -258.956E-03    -251.009E-03     509.702E-03    -258.956E-03     143.238E-03     639.634E-03     29.6606E+06     17.4092E+06     1.98039E+06    -16.6904E+06    -16.4756E+06     1.76564E+06     17.4092E+06     171.647E+03
             468     72.4736E-03     7.71656E-03     72.0616E-03     513.253E-03    -254.873E-03    -258.607E-03    -250.150E-03     508.529E-03    -258.607E-03     119.377E-03     623.879E-03     30.3419E+06     16.2710E+06    -1.95464E+06    -18.5885E+06    -18.5114E+06    -2.03173E+06     16.2710E+06     659.003E+03
             469     72.2747E-03     6.94200E-03     71.9405E-03     513.000E-03    -254.308E-03    -259.254E-03    -251.424E-03     510.115E-03    -259.254E-03     92.9366E-03     608.487E-03     29.1075E+06     10.7289E+06    -6.18537E+06    -22.6189E+06    -22.5282E+06    -6.27604E+06     10.7289E+06     971.039E+03
             470     72.1211E-03     6.16934E-03     71.8568E-03     513.264E-03    -254.732E-03    -259.979E-03    -253.155E-03     511.687E-03    -259.979E-03     68.6104E-03     590.731E-03     27.5245E+06     4.03274E+06    -10.3703E+06    -27.5248E+06    -27.3897E+06    -10.5054E+06     4.03274E+06     1.34648E+06
             471     72.0151E-03     5.39930E-03     71.8124E-03     514.470E-03    -254.986E-03    -260.194E-03    -254.195E-03     513.680E-03    -260.194E-03     48.4255E-03     574.563E-03     26.6192E+06    -704.331E+03    -15.0707E+06    -31.2966E+06    -31.0484E+06    -15.3189E+06    -704.331E+03     1.22754E+06
             472     71.9464E-03     4.62639E-03     71.7975E-03     516.914E-03    -256.109E-03    -260.164E-03    -255.762E-03     516.566E-03    -260.164E-03     31.8570E-03     561.054E-03     25.6618E+06    -5.33281E+06    -20.4225E+06    -34.9242E+06    -34.6802E+06    -20.6664E+06    -5.33281E+06     1.25503E+06
             473     71.9201E-03     3.85278E-03     71.8169E-03     518.507E-03    -257.943E-03    -260.278E-03    -257.825E-03     518.388E-03    -260.278E-03     17.9241E-03     550.305E-03     22.3084E+06    -14.0963E+06    -24.9740E+06    -39.4581E+06    -39.3307E+06    -25.1014E+06    -14.0963E+06     1.23510E+06
             474     71.9045E-03     3.08242E-03     71.8383E-03     519.067E-03    -259.379E-03    -260.314E-03    -259.431E-03     519.043E-03    -260.238E-03     7.11129E-03     541.423E-03     16.7515E+06    -26.1299E+06    -32.7287E+06    -44.9268E+06    -44.6580E+06    -32.9976E+06    -26.1299E+06     863.554E+03
             475     71.9022E-03     2.31328E-03     71.8650E-03     519.564E-03    -259.666E-03    -260.213E-03    -259.982E-03     519.562E-03    -259.895E-03     355.267E-06     532.545E-03     10.7016E+06    -38.0147E+06    -43.3356E+06    -50.2067E+06    -49.9599E+06    -43.5823E+06    -38.0147E+06     171.696E+03
             476     71.9030E-03     1.54460E-03     71.8864E-03     519.126E-03    -259.399E-03    -259.801E-03    -259.754E-03     519.121E-03    -259.441E-03    -3.44502E-03     524.889E-03     5.91668E+06    -47.3193E+06    -50.0886E+06    -54.0692E+06    -53.7793E+06    -50.3785E+06    -47.3193E+06    -306.576E+03
             477     71.9116E-03     771.543E-06     71.9075E-03     518.425E-03    -259.002E-03    -259.522E-03    -259.489E-03     518.420E-03    -259.030E-03    -3.57449E-03     520.273E-03     3.60694E+06    -52.6234E+06    -54.6382E+06    -56.6518E+06    -55.4316E+06    -55.0890E+06    -53.3928E+06     133.045E+03
             478     73.5410E-03     13.1224E-03     72.3608E-03     545.162E-03    -259.475E-03    -285.801E-03    -266.618E-03     525.979E-03    -259.475E-03     235.892E-03     687.935E-03     32.6804E+06     31.5534E+06     15.6720E+06    -5.26157E+06    -981.611E+03     11.3920E+06     31.5534E+06     290.968E+03
             479     72.8891E-03     12.3485E-03     71.8355E-03     544.031E-03    -258.786E-03    -285.398E-03    -263.745E-03     522.378E-03    -258.786E-03     258.215E-03     707.053E-03     33.1083E+06     27.2806E+06     16.4446E+06    -9.40050E+06    -4.52152E+06     11.5656E+06     27.2806E+06     317.183E+03
             480     72.4848E-03     11.5763E-03     71.5544E-03     530.957E-03    -258.929E-03    -271.336E-03    -257.072E-03     516.693E-03    -258.929E-03     211.360E-03     673.827E-03     30.9146E+06     25.2751E+06     14.2020E+06    -9.36029E+06    -5.82409E+06     10.6658E+06     25.2751E+06     873.674E+03
             481     72.0186E-03     10.8052E-03     71.2034E-03     528.860E-03    -259.070E-03    -269.574E-03    -255.694E-03     514.981E-03    -259.070E-03     207.774E-03     673.374E-03     28.1614E+06     22.6856E+06     10.0289E+06    -9.00386E+06    -7.55428E+06     8.57929E+06     22.6856E+06     1.31462E+06
             482     71.6533E-03     10.0354E-03     70.9471E-03     522.000E-03    -259.561E-03    -263.103E-03    -252.310E-03     511.207E-03    -259.561E-03     182.814E-03     659.141E-03     27.9456E+06     20.1580E+06     7.41107E+06    -11.3158E+06    -10.3601E+06     6.45540E+06     20.1580E+06     830.276E+03
             483     71.3173E-03     9.26151E-03     70.7133E-03     519.495E-03    -259.135E-03    -260.509E-03    -250.722E-03     510.320E-03    -259.747E-03     167.739E-03     652.199E-03     28.2072E+06     19.3058E+06     5.75603E+06    -12.7711E+06    -12.4454E+06     5.43038E+06     19.3058E+06     884.413E+03
             484     71.0247E-03     8.48809E-03     70.5157E-03     516.212E-03    -257.335E-03    -259.137E-03    -250.545E-03     509.421E-03    -259.137E-03     143.830E-03     639.482E-03     28.9361E+06     18.1298E+06     1.81505E+06    -15.1419E+06    -14.9641E+06     1.63724E+06     18.1298E+06     984.112E+03
             485     70.7974E-03     7.71422E-03     70.3759E-03     514.214E-03    -255.754E-03    -258.751E-03    -251.059E-03     509.519E-03    -258.751E-03     119.222E-03     625.243E-03     29.8680E+06     15.4861E+06    -2.24134E+06    -18.9330E+06    -18.7834E+06    -2.39094E+06     15.4861E+06     870.649E+03
             486     70.5900E-03     6.94494E-03     70.2475E-03     513.781E-03    -255.069E-03    -259.277E-03    -252.201E-03     510.913E-03    -259.277E-03     92.6620E-03     609.041E-03     28.7750E+06     10.0329E+06    -6.60002E+06    -23.0826E+06    -22.9517E+06    -6.73095E+06     10.0329E+06     1.07772E+06
             487     70.4405E-03     6.17070E-03     70.1697E-03     512.937E-03    -254.431E-03    -259.966E-03    -252.885E-03     511.392E-03    -259.966E-03     67.9910E-03     590.165E-03     27.7724E+06     4.93313E+06    -9.77597E+06    -26.9760E+06    -26.8041E+06    -9.94793E+06     4.93313E+06     1.46847E+06
             488     70.3335E-03     5.39600E-03     70.1262E-03     514.175E-03    -254.723E-03    -260.233E-03    -253.949E-03     513.401E-03    -260.233E-03     47.6936E-03     574.219E-03     26.8645E+06    -269.324E+03    -14.1778E+06    -31.1197E+06    -30.9070E+06    -14.3904E+06    -269.324E+03     1.10571E+06
             489     70.2612E-03     4.62467E-03     70.1088E-03     517.243E-03    -256.433E-03    -260.178E-03    -256.123E-03     516.934E-03    -260.178E-03     29.7024E-03     561.372E-03     24.8401E+06    -6.97210E+06    -20.0497E+06    -35.5152E+06    -35.3404E+06    -20.2245E+06    -6.97210E+06     730.810E+03
             490     70.2323E-03     3.85536E-03     70.1264E-03     518.897E-03    -258.319E-03    -260.237E-03    -258.228E-03     518.806E-03    -260.237E-03     15.7672E-03     550.555E-03     22.1679E+06    -14.8188E+06    -25.2469E+06    -40.2092E+06    -40.1246E+06    -25.3315E+06    -14.8188E+06     740.173E+03
             491     70.2173E-03     3.08420E-03     70.1495E-03     519.046E-03    -259.547E-03    -260.247E-03    -259.605E-03     519.028E-03    -260.172E-03     6.20642E-03     541.387E-03     18.0711E+06    -24.3004E+06    -31.4693E+06    -44.8313E+06    -44.6320E+06    -31.6686E+06    -24.3004E+06     1.03617E+06
             492     70.2143E-03     2.31387E-03     70.1762E-03     519.284E-03    -259.637E-03    -260.159E-03    -259.953E-03     519.283E-03    -259.841E-03     465.883E-06     532.472E-03     12.0267E+06    -34.7495E+06    -39.7462E+06    -48.4240E+06    -48.1315E+06    -40.0386E+06    -34.7495E+06     920.363E+03
             493     70.2213E-03     1.54247E-03     70.2044E-03     518.953E-03    -259.318E-03    -259.814E-03    -259.685E-03     518.951E-03    -259.445E-03    -2.06280E-03     524.836E-03     5.86722E+06    -46.4216E+06    -49.2822E+06    -53.1137E+06    -52.7298E+06    -49.6661E+06    -46.4216E+06    -166.267E+03
             494     70.2298E-03     773.157E-06     70.2256E-03     518.320E-03    -258.789E-03    -259.650E-03    -259.649E-03     518.318E-03    -258.789E-03    -2.35035E-03     520.234E-03     3.03403E+06    -54.9840E+06    -56.6227E+06    -58.3739E+06    -57.3308E+06    -57.4136E+06    -55.2363E+06    -299.065E+03
             495     71.8863E-03     13.1200E-03     70.6788E-03     544.758E-03    -259.514E-03    -285.449E-03    -266.305E-03     525.614E-03    -259.514E-03     235.750E-03     688.009E-03     31.8085E+06     29.9096E+06     16.2565E+06    -5.86098E+06    -1.49478E+06     11.8903E+06     29.9096E+06     166.463E+03
             496     71.2331E-03     12.3487E-03     70.1545E-03     545.032E-03    -258.789E-03    -286.512E-03    -264.767E-03     523.288E-03    -258.789E-03     259.381E-03     708.105E-03      32.334E+06     26.4689E+06     17.2144E+06    -9.14356E+06    -3.62965E+06     11.7004E+06     26.4689E+06     715.887E+03
             497     70.8099E-03     11.5774E-03     69.8570E-03     531.742E-03    -258.922E-03    -272.376E-03    -257.844E-03     517.210E-03    -258.922E-03     213.571E-03     674.710E-03     30.7590E+06     23.6395E+06     13.7808E+06    -10.6212E+06    -6.23571E+06     9.39529E+06     23.6395E+06     889.459E+03
             498     70.3541E-03     10.8055E-03     69.5193E-03     528.156E-03    -259.087E-03    -269.124E-03    -255.076E-03     514.108E-03    -259.087E-03     208.844E-03     673.178E-03     27.8440E+06     21.1376E+06     9.18998E+06    -10.1897E+06    -8.39750E+06     7.39778E+06     21.1376E+06     595.937E+03
             499     69.9826E-03     10.0336E-03     69.2596E-03     521.340E-03    -259.640E-03    -262.730E-03    -251.970E-03     510.580E-03    -259.640E-03     182.389E-03     658.865E-03     27.0921E+06     19.7570E+06     6.97574E+06    -10.6809E+06    -9.69495E+06     5.98974E+06     19.7570E+06     518.761E+03
             500     69.6475E-03     9.26166E-03     69.0289E-03     518.995E-03    -258.977E-03    -260.446E-03    -250.551E-03     509.982E-03    -259.859E-03     166.175E-03     652.074E-03     28.0161E+06     19.5574E+06     5.26668E+06    -12.3090E+06    -11.8343E+06     4.79195E+06     19.5574E+06     946.999E+03
             501     69.3508E-03     8.48767E-03     68.8294E-03     516.386E-03    -257.515E-03    -259.257E-03    -250.828E-03     509.699E-03    -259.257E-03     142.787E-03     639.579E-03     28.4030E+06     18.2136E+06     2.40003E+06    -14.5090E+06    -14.2712E+06     2.16232E+06     18.2136E+06     1.28692E+06
             502     69.1074E-03     7.71452E-03     68.6754E-03     514.891E-03    -256.251E-03    -258.856E-03    -251.611E-03     510.252E-03    -258.856E-03     118.609E-03     625.695E-03     29.0474E+06     15.2193E+06    -1.66304E+06    -18.2727E+06    -18.0515E+06    -1.88421E+06     15.2193E+06     1.24325E+06
             503     68.9082E-03     6.94332E-03     68.5575E-03     513.895E-03    -255.098E-03    -259.316E-03    -252.240E-03     511.037E-03    -259.316E-03     92.6028E-03     609.364E-03     29.1080E+06     11.0033E+06    -6.22528E+06    -22.4890E+06    -22.2957E+06    -6.41862E+06     11.0033E+06     1.04720E+06
             504     68.7549E-03     6.16908E-03     68.4776E-03     513.371E-03    -254.936E-03    -259.932E-03    -253.381E-03     511.816E-03    -259.932E-03     68.1601E-03     590.606E-03     27.6656E+06     6.17897E+06    -9.57573E+06    -25.6873E+06    -25.5331E+06    -9.72994E+06     6.17897E+06     1.06419E+06
             505     68.6468E-03     5.39928E-03     68.4342E-03     514.873E-03    -255.575E-03    -260.113E-03    -254.824E-03     514.122E-03    -260.113E-03     46.9276E-03     574.530E-03     26.2115E+06     1.06748E+06    -13.3781E+06    -29.1277E+06    -28.9368E+06    -13.5690E+06     1.06748E+06     1.14001E+06
             506     68.5712E-03     4.62822E-03     68.4148E-03     517.132E-03    -256.533E-03    -259.948E-03    -256.242E-03     516.841E-03    -259.948E-03     28.9631E-03     560.928E-03     24.8246E+06    -5.80301E+06    -18.7706E+06    -34.3283E+06    -34.1615E+06    -18.9373E+06    -5.80301E+06     903.482E+03
             507     68.5422E-03     3.85527E-03     68.4337E-03     518.404E-03    -258.035E-03    -259.977E-03    -257.946E-03     518.314E-03    -259.977E-03     15.5656E-03     549.901E-03     21.8813E+06    -14.2714E+06    -25.1655E+06    -39.3716E+06    -39.2810E+06    -25.2560E+06    -14.2714E+06     611.445E+03
             508     68.5284E-03     3.08482E-03     68.4589E-03     518.277E-03    -259.074E-03    -260.001E-03    -259.057E-03     518.260E-03    -260.001E-03     6.27482E-03     540.422E-03     16.9389E+06    -24.3516E+06    -31.6894E+06    -43.6089E+06    -43.5685E+06    -31.7298E+06    -24.3516E+06     300.829E+03
             509     68.5274E-03     2.31294E-03     68.4883E-03     518.313E-03    -259.066E-03    -259.858E-03    -259.063E-03     518.311E-03    -259.858E-03     28.5173E-06     531.302E-03     11.9043E+06    -34.4441E+06    -39.8191E+06    -47.9355E+06    -47.8193E+06    -39.9354E+06    -34.4441E+06     459.913E+03
             510     68.5330E-03     1.54197E-03     68.5156E-03     518.871E-03    -259.137E-03    -259.978E-03    -259.144E-03     518.868E-03    -259.969E-03    -2.61171E-03     524.932E-03     7.94817E+06    -43.9860E+06    -47.5106E+06    -52.7979E+06    -51.9272E+06    -48.2873E+06    -44.0800E+06     1.36946E+06
             511     68.5443E-03     769.230E-06     68.5400E-03     520.247E-03    -259.353E-03    -260.973E-03    -260.544E-03     520.245E-03    -259.780E-03    -2.44300E-03     522.345E-03     4.71258E+06    -52.8054E+06    -54.2415E+06    -57.9225E+06    -55.3425E+06    -55.8878E+06    -53.7391E+06     1.07842E+06
             512     70.2287E-03     13.1191E-03     68.9924E-03     544.921E-03    -259.556E-03    -285.711E-03    -266.683E-03     525.893E-03    -259.556E-03     235.280E-03     688.259E-03     31.2529E+06     29.2360E+06     14.7385E+06    -6.18682E+06    -2.06293E+06     10.6147E+06     29.2360E+06    -121.235E+03
             513     69.5699E-03     12.3483E-03     68.4652E-03     545.380E-03    -258.793E-03    -286.995E-03    -265.359E-03     523.744E-03    -258.793E-03     259.023E-03     708.264E-03     31.0042E+06     25.2566E+06     15.2162E+06    -9.21409E+06    -4.14663E+06     10.1487E+06     25.2566E+06     771.155E+03
             514     69.1467E-03     11.5767E-03     68.1707E-03     531.089E-03    -258.951E-03    -271.552E-03    -257.209E-03     516.746E-03    -258.951E-03     212.076E-03     674.263E-03     28.1323E+06     22.2037E+06     12.8467E+06    -9.16320E+06    -5.28311E+06     8.96659E+06     22.2037E+06     815.366E+03
             515     68.6811E-03     10.8032E-03     67.8262E-03     527.091E-03    -259.106E-03    -267.906E-03    -254.104E-03     513.289E-03    -259.106E-03     206.787E-03     672.798E-03     25.8320E+06     20.7771E+06     10.0803E+06    -8.36699E+06    -6.90282E+06     8.61618E+06     20.7771E+06     117.680E+03
             516     68.3119E-03     10.0355E-03     67.5707E-03     520.832E-03    -259.687E-03    -262.392E-03    -251.649E-03     510.088E-03    -259.687E-03     182.165E-03     658.690E-03     26.6481E+06     20.1796E+06     7.20593E+06    -10.0601E+06    -9.24194E+06     6.38776E+06     20.1796E+06     426.751E+03
             517     67.9720E-03     9.26063E-03     67.3382E-03     519.633E-03    -259.608E-03    -260.571E-03    -251.172E-03     510.543E-03    -259.917E-03     167.006E-03     652.672E-03     27.4729E+06     19.7594E+06     4.41167E+06    -11.6655E+06    -11.2201E+06     3.96627E+06     19.7594E+06     967.342E+03
             518     67.6780E-03     8.48821E-03     67.1436E-03     516.989E-03    -258.014E-03    -259.297E-03    -251.226E-03     510.200E-03    -259.297E-03     144.011E-03     639.886E-03     28.3977E+06     17.7837E+06     2.92545E+06    -14.7450E+06    -14.4956E+06     2.67605E+06     17.7837E+06     1.61154E+06
             519     67.4312E-03     7.71501E-03     66.9884E-03     515.032E-03    -256.170E-03    -258.912E-03    -251.497E-03     510.359E-03    -258.912E-03     118.916E-03     625.462E-03     28.9514E+06     15.3526E+06    -244.408E+03    -17.8748E+06    -17.6335E+06    -485.703E+03     15.3526E+06     1.69599E+06
             520     67.2325E-03     6.94294E-03     66.8730E-03     514.576E-03    -255.814E-03    -259.307E-03    -253.026E-03     511.788E-03    -259.307E-03     91.4804E-03     609.934E-03     27.9823E+06     11.7372E+06    -5.85857E+06    -20.4666E+06    -20.2786E+06    -6.04656E+06     11.7372E+06     1.22414E+06
             521     67.0749E-03     6.16962E-03     66.7906E-03     513.930E-03    -255.721E-03    -259.839E-03    -254.230E-03     512.440E-03    -259.839E-03     66.7672E-03     591.036E-03     26.9349E+06     7.17081E+06    -9.39029E+06    -23.8697E+06    -23.7024E+06    -9.55753E+06     7.17081E+06     651.207E+03
             522     66.9575E-03     5.39928E-03     66.7394E-03     514.592E-03    -255.475E-03    -259.963E-03    -254.742E-03     513.859E-03    -259.963E-03     46.5202E-03     574.226E-03     26.6436E+06     2.47840E+06    -13.1262E+06    -28.2589E+06    -28.0353E+06    -13.3498E+06     2.47840E+06     850.766E+03
             523     66.8907E-03     4.62805E-03     66.7304E-03     516.700E-03    -256.321E-03    -259.779E-03    -256.010E-03     516.389E-03    -259.779E-03     30.1654E-03     560.665E-03     24.8953E+06    -3.50021E+06    -17.6329E+06    -32.2167E+06    -32.0260E+06    -17.8236E+06    -3.50021E+06     1.20581E+06
             524     66.8561E-03     3.85754E-03     66.7447E-03     518.050E-03    -257.833E-03    -259.790E-03    -257.730E-03     517.948E-03    -259.790E-03     16.4542E-03     549.595E-03     21.2695E+06    -12.4220E+06    -23.8611E+06    -36.9319E+06    -36.8547E+06    -23.9383E+06    -12.4220E+06     729.806E+03
             525     66.8487E-03     3.08554E-03     66.7774E-03     517.782E-03    -258.567E-03    -259.837E-03    -258.550E-03     517.765E-03    -259.837E-03     6.25229E-03     539.904E-03     16.1829E+06    -24.2611E+06    -31.9295E+06    -42.7525E+06    -42.7269E+06    -31.9551E+06    -24.2611E+06     351.736E+03
             526     66.8432E-03     2.31385E-03     66.8032E-03     517.679E-03    -258.380E-03    -259.761E-03    -258.377E-03     517.677E-03    -259.761E-03     3.62413E-06     530.572E-03     10.3856E+06    -36.1849E+06    -40.5466E+06    -47.8413E+06    -47.6818E+06    -40.7061E+06    -36.1849E+06     708.914E+03
             527     66.8517E-03     1.54127E-03     66.8339E-03     518.716E-03    -258.857E-03    -260.059E-03    -258.854E-03     518.714E-03    -260.059E-03    -2.59809E-03     524.672E-03     7.89361E+06    -44.3961E+06    -46.6683E+06    -52.9011E+06    -50.9278E+06    -48.1884E+06    -44.8493E+06     622.489E+03
             528     66.8543E-03     770.533E-06     66.8498E-03     520.786E-03    -259.338E-03    -261.629E-03    -261.129E-03     520.784E-03    -259.836E-03    -2.45686E-03     522.849E-03     6.61992E+06    -48.3259E+06    -50.2503E+06    -55.5331E+06    -51.9843E+06    -52.7585E+06    -49.3666E+06     600.667E+03
             529     68.5676E-03     13.1189E-03     67.3009E-03     545.454E-03    -259.519E-03    -286.160E-03    -267.234E-03     526.528E-03    -259.519E-03     234.828E-03     688.544E-03     31.2967E+06     29.3280E+06     14.1975E+06    -6.14918E+06    -2.15546E+06     10.2038E+06     29.3280E+06     133.115E+03
             530     67.9079E-03     12.3497E-03     66.7755E-03     545.221E-03    -258.730E-03    -286.849E-03    -265.375E-03     523.746E-03    -258.730E-03     257.994E-03     707.922E-03     30.0666E+06     25.7499E+06     14.3571E+06    -8.02882E+06    -3.93580E+06     10.2641E+06     25.7499E+06    -285.579E+03
             531     67.4815E-03     11.5778E-03     66.4808E-03     530.304E-03    -258.903E-03    -270.830E-03    -256.584E-03     516.058E-03    -258.903E-03     211.136E-03     673.739E-03     26.7824E+06     21.5729E+06     11.1964E+06    -8.64492E+06    -5.39826E+06     7.94974E+06     21.5729E+06    -348.688E+03
             532     67.0171E-03     10.8087E-03     66.1398E-03     526.244E-03    -259.095E-03    -267.131E-03    -253.304E-03     512.417E-03    -259.095E-03     206.806E-03     672.448E-03     25.3308E+06     20.2324E+06     9.51112E+06    -8.31408E+06    -6.62670E+06     7.82374E+06     20.2324E+06     433.054E+03
             533     66.6424E-03     10.0322E-03     65.8830E-03     520.751E-03    -259.721E-03    -262.210E-03    -251.394E-03     509.935E-03    -259.721E-03     182.726E-03     658.409E-03     25.4262E+06     19.5521E+06     7.50009E+06    -9.27184E+06    -8.46169E+06     6.68994E+06     19.5521E+06     1.05773E+06
             534     66.2984E-03     9.26005E-03     65.6485E-03     520.082E-03    -259.844E-03    -260.702E-03    -251.411E-03     510.920E-03    -259.973E-03     167.771E-03     652.520E-03     27.1920E+06     19.2638E+06     4.43365E+06    -11.8377E+06    -11.6214E+06     4.21736E+06     19.2638E+06     961.529E+03
             535     66.0040E-03     8.48675E-03     65.4561E-03     517.653E-03    -258.581E-03    -259.348E-03    -251.799E-03     510.870E-03    -259.348E-03     143.944E-03     640.408E-03     29.1774E+06     18.7651E+06     2.67302E+06    -14.5977E+06    -14.4416E+06     2.51690E+06     18.7651E+06     1.08899E+06
             536     65.7533E-03     7.71409E-03     65.2993E-03     515.756E-03    -256.924E-03    -258.874E-03    -252.330E-03     511.162E-03    -258.874E-03     118.043E-03     625.805E-03     27.8082E+06     14.9506E+06    -303.237E+03    -16.8371E+06    -16.6740E+06    -466.339E+03     14.9506E+06     1.20648E+06
             537     65.5493E-03     6.94479E-03     65.1803E-03     514.864E-03    -256.265E-03    -259.171E-03    -253.477E-03     512.077E-03    -259.171E-03     91.5970E-03     609.844E-03     26.1998E+06     10.4390E+06     -4.5484E+06    -19.6706E+06    -19.5670E+06    -4.65194E+06     10.4390E+06     999.128E+03
             538     65.3975E-03     6.17251E-03     65.1055E-03     513.568E-03    -255.547E-03    -259.728E-03    -254.039E-03     512.060E-03    -259.728E-03     67.0987E-03     590.907E-03     26.5167E+06     6.83442E+06    -8.32460E+06    -23.7436E+06    -23.5018E+06    -8.56642E+06     6.83442E+06     1.00701E+06
             539     65.2875E-03     5.40113E-03     65.0637E-03     514.076E-03    -255.050E-03    -259.887E-03    -254.311E-03     513.337E-03    -259.887E-03     46.7709E-03     573.947E-03     26.3083E+06     1.85525E+06    -13.3844E+06    -28.4760E+06    -28.1718E+06    -13.6886E+06     1.85525E+06     1.05126E+06
             540     65.2109E-03     4.62850E-03     65.0464E-03     516.194E-03    -255.827E-03    -259.737E-03    -255.510E-03     515.877E-03    -259.737E-03     30.3373E-03     560.287E-03     24.4115E+06    -4.66545E+06    -17.6426E+06    -32.7384E+06    -32.5394E+06    -17.8416E+06    -4.66545E+06     1.23560E+06
             541     65.1757E-03     3.85643E-03     65.0615E-03     517.552E-03    -257.340E-03    -259.834E-03    -257.230E-03     517.442E-03    -259.834E-03     17.6533E-03     549.285E-03     20.7400E+06    -12.9418E+06    -23.1716E+06    -36.7593E+06    -36.6283E+06    -23.3027E+06    -12.9418E+06     1.23216E+06
             542     65.1649E-03     3.08543E-03     65.0918E-03     517.994E-03    -258.550E-03    -259.970E-03    -258.523E-03     517.968E-03    -259.970E-03     7.67057E-03     540.196E-03     16.4798E+06    -22.6797E+06    -31.5593E+06    -41.6546E+06    -41.5646E+06    -31.6493E+06    -22.6797E+06     881.229E+03
             543     65.1679E-03     2.31351E-03     65.1268E-03     518.267E-03    -258.795E-03    -259.821E-03    -258.793E-03     518.265E-03    -259.821E-03     492.170E-06     531.092E-03     12.3574E+06    -32.7151E+06    -39.4268E+06    -46.7695E+06    -46.5724E+06    -39.6238E+06    -32.7151E+06     646.846E+03
             544     65.1700E-03     1.54183E-03     65.1518E-03     518.829E-03    -259.236E-03    -259.768E-03    -259.254E-03     518.827E-03    -259.749E-03    -2.23979E-03     524.475E-03     8.06551E+06    -42.1681E+06    -45.5860E+06    -51.1048E+06    -49.4470E+06    -46.5406E+06    -42.8712E+06     1.28556E+03
             545     65.1742E-03     770.869E-06     65.1696E-03     519.643E-03    -259.207E-03    -260.642E-03    -260.569E-03     519.641E-03    -259.278E-03    -1.86524E-03     521.529E-03     6.86995E+06    -48.0207E+06    -51.6949E+06    -55.6155E+06    -51.4119E+06    -53.1079E+06    -50.8112E+06    -791.031E+03
             546     66.9099E-03     13.1210E-03     65.6108E-03     545.924E-03    -259.492E-03    -286.472E-03    -267.257E-03     526.709E-03    -259.492E-03     236.597E-03     689.028E-03     30.7728E+06     29.1051E+06     14.1131E+06    -5.65952E+06    -1.69137E+06     10.1449E+06     29.1051E+06     587.139E+03
             547     66.2464E-03     12.3509E-03     65.0849E-03     545.325E-03    -258.733E-03    -286.697E-03    -264.884E-03     523.513E-03    -258.733E-03     259.951E-03     708.401E-03     30.0221E+06     25.6557E+06     15.0536E+06    -7.89946E+06    -3.14304E+06     10.2972E+06     25.6557E+06    -431.099E+03
             548     65.8186E-03     11.5777E-03     64.7923E-03     530.015E-03    -258.959E-03    -270.428E-03    -255.954E-03     515.541E-03    -258.959E-03     212.695E-03     673.747E-03     27.9550E+06     22.1901E+06     11.4458E+06    -9.38601E+06    -5.63345E+06     7.69329E+06     22.1901E+06    -806.329E+03
             549     65.3589E-03     10.8011E-03     64.4603E-03     527.420E-03    -259.160E-03    -267.909E-03    -253.894E-03     513.404E-03    -259.160E-03     208.391E-03     673.190E-03     26.2763E+06     20.3273E+06     8.92555E+06    -9.43600E+06    -7.64944E+06     7.13899E+06     20.3273E+06     223.176E+03
             550     64.9829E-03     10.0355E-03     64.2033E-03     522.070E-03    -259.715E-03    -263.085E-03    -252.341E-03     511.325E-03    -259.715E-03     182.366E-03     659.144E-03     25.9619E+06     19.2000E+06     7.33862E+06    -10.2039E+06    -9.30402E+06     6.43873E+06     19.2000E+06     826.208E+03
             551     64.6389E-03     9.26068E-03     63.9721E-03     520.477E-03    -259.813E-03    -261.025E-03    -251.912E-03     511.467E-03    -259.916E-03     166.515E-03     652.647E-03     26.4855E+06     18.4246E+06     4.78122E+06    -11.8650E+06    -11.6581E+06     4.57428E+06     18.4246E+06     1.10600E+06
             552     64.3315E-03     8.48719E-03     63.7692E-03     518.086E-03    -258.686E-03    -259.493E-03    -252.343E-03     511.461E-03    -259.212E-03     142.246E-03     640.417E-03     27.6672E+06     17.4274E+06     2.07232E+06    -14.3396E+06    -14.2909E+06     2.02360E+06     17.4274E+06     609.718E+03
             553     64.0832E-03     7.71838E-03     63.6166E-03     515.574E-03    -256.771E-03    -258.680E-03    -252.284E-03     511.088E-03    -258.680E-03     116.811E-03     625.260E-03     27.2799E+06     14.1108E+06    -841.968E+03    -17.2104E+06    -17.1694E+06    -882.993E+03     14.1108E+06     393.014E+03
             554     63.8793E-03     6.94556E-03     63.5006E-03     513.667E-03    -255.063E-03    -259.054E-03    -252.250E-03     510.854E-03    -259.054E-03     91.9044E-03     608.715E-03     25.9720E+06     9.17042E+06    -3.59018E+06    -20.6110E+06    -20.5229E+06    -3.67830E+06     9.17042E+06     874.128E+03
             555     63.7229E-03     6.16988E-03     63.4235E-03     512.977E-03    -254.680E-03    -259.751E-03    -253.125E-03     511.422E-03    -259.751E-03     68.2109E-03     590.237E-03     24.9969E+06     4.34102E+06    -8.36414E+06    -24.3698E+06    -24.1432E+06    -8.59074E+06     4.34102E+06     1.11006E+06
             556     63.6109E-03     5.39947E-03     63.3814E-03     514.641E-03    -255.340E-03    -259.980E-03    -254.551E-03     513.852E-03    -259.980E-03     48.3301E-03     574.304E-03     24.3695E+06     526.442E+03    -13.3289E+06    -27.5624E+06    -27.3080E+06    -13.5833E+06     526.442E+03     961.917E+03
             557     63.5376E-03     4.62880E-03     63.3688E-03     516.496E-03    -255.960E-03    -259.835E-03    -255.632E-03     516.168E-03    -259.835E-03     30.7476E-03     560.617E-03     23.8963E+06    -4.40308E+06    -17.0799E+06    -31.8833E+06    -31.6851E+06    -17.2782E+06    -4.40308E+06     429.864E+03
             558     63.5002E-03     3.85581E-03     63.3830E-03     517.452E-03    -257.051E-03    -259.962E-03    -256.947E-03     517.348E-03    -259.962E-03     16.9368E-03     549.196E-03     21.7394E+06    -11.6624E+06    -23.2283E+06    -36.6757E+06    -36.4818E+06    -23.4222E+06    -11.6624E+06     702.602E+03
             559     63.4850E-03     3.08299E-03     63.4101E-03     518.075E-03    -258.372E-03    -260.136E-03    -258.350E-03     518.053E-03    -260.136E-03     6.95079E-03     540.052E-03     16.8428E+06    -21.3645E+06    -30.7759E+06    -40.7440E+06    -40.6404E+06    -30.8795E+06    -21.3645E+06     943.183E+03
             560     63.4858E-03     2.31348E-03     63.4436E-03     519.098E-03    -259.239E-03    -260.153E-03    -259.482E-03     519.096E-03    -259.908E-03     832.011E-06     531.809E-03     11.2618E+06     -32.126E+06    -38.3879E+06    -44.9795E+06    -44.9203E+06    -38.4471E+06     -32.126E+06     232.346E+03
             561     63.4904E-03     1.54340E-03     63.4716E-03     519.191E-03    -259.498E-03    -259.873E-03    -259.856E-03     519.190E-03    -259.513E-03    -1.67373E-03     524.787E-03     7.35520E+06    -41.0088E+06    -45.0897E+06    -49.3515E+06    -48.7089E+06    -45.3884E+06    -41.3526E+06     134.492E+03
             562     63.4905E-03     772.154E-06     63.4858E-03     518.676E-03    -259.151E-03    -259.572E-03    -259.522E-03     518.673E-03    -259.198E-03    -2.32293E-03     520.461E-03     8.75030E+06    -46.5499E+06    -50.4578E+06    -56.1489E+06    -52.2433E+06    -51.9320E+06    -48.9812E+06     770.101E+03
             563     65.2568E-03     13.1184E-03     63.9246E-03     545.271E-03    -259.531E-03    -285.932E-03    -266.560E-03     525.899E-03    -259.531E-03     236.824E-03     688.207E-03     30.0309E+06     28.3486E+06     14.3400E+06    -5.57751E+06    -990.162E+03     9.75262E+06     28.3486E+06     79.7464E+03
             564     64.5869E-03     12.3459E-03     63.3959E-03     544.283E-03    -258.830E-03    -285.654E-03    -263.752E-03     522.382E-03    -258.830E-03     259.677E-03     707.504E-03     30.8441E+06     24.8072E+06     15.4355E+06    -9.43466E+06    -3.39672E+06     9.39751E+06     24.8072E+06     215.085E+03
             565     64.1693E-03     11.5740E-03     63.1169E-03     530.216E-03    -259.094E-03    -270.365E-03    -255.929E-03     515.781E-03    -259.094E-03     212.307E-03     674.342E-03     28.3717E+06     21.8937E+06     12.2012E+06    -9.89358E+06    -5.64926E+06     7.95685E+06     21.8937E+06     280.967E+03
             566     63.7006E-03     10.8050E-03     62.7775E-03     529.251E-03    -259.266E-03    -269.298E-03    -255.153E-03     515.106E-03    -259.266E-03     209.731E-03     674.678E-03     26.1422E+06     21.1450E+06     9.11166E+06    -8.70817E+06    -7.18013E+06     7.58363E+06     21.1450E+06     12.0766E+03
             567     63.3240E-03     10.0328E-03     62.5241E-03     523.995E-03    -259.688E-03    -264.708E-03    -253.952E-03     513.240E-03    -259.688E-03     182.863E-03     660.777E-03     26.7383E+06     20.4262E+06     6.80450E+06    -10.0817E+06    -9.27480E+06     5.99765E+06     20.4262E+06     521.935E+03
             568     62.9735E-03     9.26251E-03     62.2886E-03     521.615E-03    -259.737E-03    -262.073E-03    -253.091E-03     512.633E-03    -259.737E-03     166.514E-03     653.842E-03     26.1276E+06     18.0950E+06     5.10706E+06    -11.5848E+06    -11.3757E+06     4.89793E+06     18.0950E+06     1.06541E+06
             569     62.6658E-03     8.49225E-03     62.0877E-03     517.206E-03    -257.802E-03    -259.451E-03    -251.605E-03     510.513E-03    -258.955E-03     142.937E-03     639.504E-03     26.0420E+06     15.9592E+06     2.82642E+06    -13.8215E+06    -13.7772E+06     2.78206E+06     15.9592E+06     806.056E+03
             570     62.4138E-03     7.71715E-03     61.9348E-03     514.363E-03    -255.601E-03    -258.547E-03    -250.978E-03     509.739E-03    -258.547E-03     118.386E-03     624.392E-03     26.3669E+06     13.2687E+06    -1.59041E+06    -17.1228E+06    -17.0665E+06    -1.64671E+06     13.2687E+06     637.212E+03
             571     62.2079E-03     6.94521E-03     61.8190E-03     513.574E-03    -254.925E-03    -259.057E-03    -252.068E-03     510.717E-03    -259.057E-03     92.4256E-03     608.760E-03     25.9749E+06     9.55078E+06    -4.40129E+06    -20.3169E+06    -20.2047E+06    -4.51345E+06     9.55078E+06     703.458E+03
             572     62.0499E-03     6.17058E-03     61.7423E-03     512.784E-03    -254.436E-03    -259.775E-03    -252.930E-03     511.277E-03    -259.775E-03     67.0037E-03     589.717E-03     25.1665E+06     5.71079E+06    -7.92058E+06    -23.2199E+06    -23.0604E+06    -8.08005E+06     5.71079E+06     649.981E+03
             573     61.9262E-03     5.39819E-03     61.6905E-03     514.106E-03    -254.711E-03    -260.072E-03    -253.968E-03     513.362E-03    -260.072E-03     46.8736E-03     573.795E-03     23.9217E+06     687.098E+03    -12.6460E+06    -26.8983E+06    -26.6730E+06    -12.8713E+06     687.098E+03     408.312E+03
             574     61.8529E-03     4.62650E-03     61.6796E-03     516.885E-03    -256.315E-03    -259.970E-03    -255.993E-03     516.563E-03    -259.970E-03     30.7350E-03     561.311E-03     23.0633E+06    -4.48865E+06    -16.4365E+06    -31.0721E+06    -30.8310E+06    -16.6776E+06    -4.48865E+06     74.9195E+03
             575     61.8137E-03     3.85693E-03     61.6933E-03     518.445E-03    -257.919E-03    -260.006E-03    -257.810E-03     518.337E-03    -260.006E-03     17.1284E-03     550.204E-03     21.1142E+06    -11.3571E+06    -23.3756E+06    -35.7084E+06    -35.5441E+06    -23.5400E+06    -11.3571E+06     47.4681E+03
             576     61.8019E-03     3.08581E-03     61.7248E-03     518.157E-03    -258.514E-03    -260.007E-03    -258.494E-03     518.137E-03    -260.007E-03     6.74369E-03     539.881E-03     16.5513E+06    -21.4397E+06    -29.7452E+06    -40.3264E+06    -40.2282E+06    -29.8434E+06    -21.4397E+06     496.073E+03
             577     61.7969E-03     2.31235E-03     61.7536E-03     518.659E-03    -258.820E-03    -260.045E-03    -259.062E-03     518.657E-03    -259.800E-03     654.294E-06     531.120E-03     10.1062E+06    -32.6455E+06    -36.7384E+06    -44.0694E+06    -44.0097E+06    -36.7981E+06    -32.6455E+06     508.049E+03
             578     61.8021E-03     1.54246E-03     61.7829E-03     519.123E-03    -259.211E-03    -259.989E-03    -259.550E-03     519.121E-03    -259.649E-03    -1.82268E-03     524.792E-03     5.77417E+06    -42.5512E+06    -46.0013E+06    -49.1206E+06    -48.3861E+06    -45.9426E+06    -43.3444E+06    -22.0319E+03
             579     61.8090E-03     771.525E-06     61.8042E-03     519.175E-03    -259.440E-03    -259.750E-03    -259.533E-03     519.172E-03    -259.654E-03    -1.59301E-03     521.035E-03     10.1306E+06    -44.7478E+06    -50.6392E+06    -55.8453E+06    -50.1119E+06    -51.8422E+06    -49.2781E+06    -403.531E+03
             580     63.6101E-03     13.1212E-03     62.2421E-03     545.056E-03    -259.615E-03    -285.656E-03    -266.324E-03     525.723E-03    -259.615E-03     236.875E-03     687.695E-03     29.9251E+06     27.0306E+06     14.7916E+06    -6.37784E+06    -1.63240E+06     10.0462E+06     27.0306E+06     174.955E+03
             581     62.9419E-03     12.3469E-03     61.7191E-03     543.775E-03    -258.913E-03    -285.031E-03    -263.326E-03     522.071E-03    -258.913E-03     258.246E-03     706.684E-03     31.2477E+06     24.4123E+06     16.0643E+06    -9.83698E+06    -3.28586E+06     9.51322E+06     24.4123E+06     392.769E+03
             582     62.5122E-03     11.5747E-03     61.4313E-03     530.826E-03    -259.137E-03    -270.769E-03    -256.561E-03     516.618E-03    -259.137E-03     210.811E-03     674.412E-03     27.4331E+06     21.1950E+06     11.8827E+06    -9.52082E+06    -4.83928E+06     7.20120E+06     21.1950E+06     105.511E+03
             583     62.0375E-03     10.7997E-03     61.0903E-03     529.622E-03    -259.246E-03    -269.740E-03    -255.956E-03     515.839E-03    -259.246E-03     207.053E-03     674.587E-03     23.8219E+06     19.3323E+06     8.29578E+06    -7.84001E+06    -6.63249E+06     7.08826E+06     19.3323E+06     505.754E+03
             584     61.6523E-03     10.0342E-03     60.8302E-03     523.605E-03    -259.588E-03    -264.394E-03    -253.788E-03     512.999E-03    -259.588E-03     181.540E-03     660.363E-03     24.8656E+06     18.4053E+06     5.91225E+06    -9.85894E+06    -9.45085E+06     5.50416E+06     18.4053E+06     738.913E+03
             585     61.2985E-03     9.26413E-03     60.5944E-03     521.151E-03    -259.536E-03    -261.615E-03    -252.422E-03     512.055E-03    -259.633E-03     167.442E-03     653.709E-03     26.0712E+06     17.6879E+06     5.39311E+06    -11.8709E+06    -11.7338E+06     5.25607E+06     17.6879E+06     189.305E+03
             586     60.9977E-03     8.49002E-03     60.4039E-03     516.561E-03    -257.580E-03    -259.166E-03    -250.982E-03     509.748E-03    -258.952E-03     144.148E-03     639.317E-03     26.3213E+06     16.4866E+06     3.48131E+06    -13.6447E+06    -13.5787E+06     3.41533E+06     16.4866E+06     344.717E+03
             587     60.7399E-03     7.71704E-03     60.2477E-03     514.098E-03    -255.398E-03    -258.608E-03    -250.724E-03     509.424E-03    -258.608E-03     118.862E-03     624.218E-03     25.6596E+06     13.6040E+06    -1.43843E+06    -15.9556E+06    -15.8972E+06    -1.49679E+06     13.6040E+06     681.795E+03
             588     60.5281E-03     6.94409E-03     60.1284E-03     513.761E-03    -255.027E-03    -259.139E-03    -252.160E-03     510.894E-03    -259.139E-03     92.7728E-03     608.770E-03     25.4217E+06     10.0605E+06    -4.57930E+06    -19.2254E+06    -19.1569E+06    -4.64773E+06     10.0605E+06     451.162E+03
             589     60.3654E-03     6.17174E-03     60.0491E-03     513.113E-03    -254.790E-03    -259.829E-03    -253.226E-03     511.549E-03    -259.829E-03     68.2982E-03     590.579E-03     25.7251E+06     6.94428E+06    -7.59678E+06    -22.7181E+06    -22.5964E+06    -7.71850E+06     6.94428E+06     320.110E+03
             590     60.2501E-03     5.40002E-03     60.0076E-03     514.179E-03    -254.807E-03    -260.073E-03    -254.041E-03     513.414E-03    -260.073E-03     47.4845E-03     574.279E-03     24.4850E+06     1.96260E+06    -11.7579E+06    -26.2748E+06    -26.0111E+06    -12.0215E+06     1.96260E+06     442.839E+03
             591     60.1673E-03     4.62634E-03     59.9892E-03     516.665E-03    -256.049E-03    -259.952E-03    -255.735E-03     516.350E-03    -259.952E-03     30.1624E-03     560.905E-03     21.8265E+06    -5.71435E+06    -16.4249E+06    -30.8046E+06    -30.5441E+06    -16.6854E+06    -5.71435E+06     228.770E+03
             592     60.1277E-03     3.85498E-03     60.0040E-03     518.589E-03    -258.137E-03    -259.998E-03    -258.036E-03     518.488E-03    -259.998E-03     16.7146E-03     550.295E-03     18.6861E+06    -13.4409E+06    -23.1231E+06    -34.9108E+06    -34.7832E+06    -23.2507E+06    -13.4409E+06    -62.2609E+03
             593     60.1152E-03     3.08416E-03     60.0360E-03     518.508E-03    -259.239E-03    -259.920E-03    -259.217E-03     518.487E-03    -259.920E-03     7.15338E-03     540.604E-03     15.0687E+06    -21.5677E+06    -29.6238E+06    -38.7717E+06    -38.6976E+06    -29.6979E+06    -21.5677E+06     157.252E+03
             594     60.1113E-03     2.31507E-03     60.0667E-03     518.073E-03    -258.755E-03    -259.742E-03    -258.752E-03     518.071E-03    -259.742E-03     910.149E-06     530.886E-03     10.7945E+06    -31.3695E+06    -36.8828E+06    -43.6443E+06    -43.3777E+06    -37.1494E+06    -31.3695E+06     734.159E+03
             595     60.1170E-03     1.54165E-03     60.0972E-03     518.693E-03    -258.907E-03    -259.889E-03    -258.905E-03     518.691E-03    -259.889E-03    -2.17742E-03     524.408E-03     6.47657E+06    -40.3486E+06    -44.7098E+06    -47.6581E+06    -46.9503E+06    -44.6244E+06    -41.1418E+06     876.201E+03
             596     60.1211E-03     770.159E-06     60.1162E-03     520.015E-03    -259.629E-03    -260.451E-03    -259.625E-03     520.011E-03    -260.451E-03    -2.21919E-03     521.921E-03     10.1457E+06    -44.4345E+06    -50.5516E+06    -55.3782E+06    -49.7930E+06    -51.6064E+06    -48.9649E+06     224.830E+03
             597     61.9528E-03     13.1164E-03     60.5484E-03     545.198E-03    -259.673E-03    -285.646E-03    -266.465E-03     526.016E-03    -259.673E-03     236.314E-03     688.334E-03     30.7612E+06     27.0468E+06     14.4205E+06    -7.32354E+06    -2.40974E+06     9.50667E+06     27.0468E+06    -24.2726E+03
             598     61.2887E-03     12.3469E-03     60.0322E-03     544.812E-03    -258.932E-03    -286.043E-03    -264.522E-03     523.291E-03    -258.932E-03     257.583E-03     708.018E-03     30.6062E+06     24.3139E+06     15.9261E+06    -9.29948E+06    -2.70843E+06     9.33501E+06     24.3139E+06    -189.866E+03
             599     60.8501E-03     11.5752E-03     59.7390E-03     531.722E-03    -259.035E-03    -272.022E-03    -257.822E-03     517.522E-03    -259.035E-03     211.022E-03     674.826E-03     25.7661E+06     20.6386E+06     11.7318E+06    -8.26508E+06    -4.28457E+06     7.75128E+06     20.6386E+06     544.443E+03
             600     60.3670E-03     10.8093E-03     59.3913E-03     529.053E-03    -259.112E-03    -269.711E-03    -255.883E-03     515.225E-03    -259.112E-03     207.349E-03     673.847E-03     22.4875E+06     18.2170E+06     7.75495E+06    -7.43250E+06    -6.89085E+06     7.21330E+06     18.2170E+06     940.137E+03
             601     59.9841E-03     10.0372E-03     59.1383E-03     522.139E-03    -259.532E-03    -263.224E-03    -252.433E-03     511.349E-03    -259.532E-03     182.787E-03     659.287E-03     23.5335E+06     17.5963E+06     5.75953E+06    -9.14934E+06    -8.88668E+06     5.49687E+06     17.5963E+06     456.792E+03
             602     59.6242E-03     9.26080E-03     58.9006E-03     520.122E-03    -259.595E-03    -260.679E-03    -251.444E-03     510.984E-03    -259.692E-03     167.445E-03     652.889E-03     24.8469E+06     17.1961E+06     4.85242E+06    -11.1017E+06    -10.9757E+06     4.72638E+06     17.1961E+06     310.743E+03
             603     59.3218E-03     8.48977E-03     58.7111E-03     516.845E-03    -258.189E-03    -259.194E-03    -251.654E-03     510.196E-03    -259.081E-03     142.477E-03     639.791E-03     25.8122E+06     16.2542E+06     2.81355E+06    -13.4424E+06    -13.3549E+06     2.72606E+06     16.2542E+06     33.1986E+03
             604     59.0666E-03     7.71748E-03     58.5603E-03     514.239E-03    -255.806E-03    -258.665E-03    -251.183E-03     509.616E-03    -258.665E-03     118.368E-03     624.470E-03     26.5793E+06     13.9864E+06    -1.15728E+06    -16.6293E+06    -16.6033E+06    -1.18330E+06     13.9864E+06     80.8974E+03
             605     58.8557E-03     6.94567E-03     58.4444E-03     513.077E-03    -254.432E-03    -259.183E-03    -251.574E-03     510.219E-03    -259.183E-03     92.4214E-03     608.127E-03     25.3013E+06     9.75547E+06    -3.84366E+06    -19.3448E+06    -19.3266E+06    -3.86187E+06     9.75547E+06     283.535E+03
             606     58.6935E-03     6.16767E-03     58.3685E-03     512.976E-03    -254.584E-03    -259.919E-03    -253.029E-03     511.421E-03    -259.919E-03     68.2370E-03     590.554E-03     23.4068E+06     4.46120E+06    -7.71696E+06     -22.479E+06    -22.4443E+06    -7.75168E+06     4.46120E+06    -39.8582E+03
             607     58.5738E-03     5.39740E-03     58.3245E-03     515.224E-03    -255.664E-03    -260.109E-03    -254.867E-03     514.427E-03    -260.109E-03     48.5842E-03     575.393E-03     22.7685E+06    -210.072E+03    -12.3406E+06    -26.4362E+06    -26.2856E+06    -12.4912E+06    -210.072E+03     144.893E+03
             608     58.4954E-03     4.62842E-03     58.3120E-03     517.379E-03    -256.672E-03    -259.898E-03    -256.347E-03     517.054E-03    -259.898E-03     30.5692E-03     561.505E-03     21.3708E+06    -4.93292E+06    -15.4073E+06    -29.4838E+06    -29.2443E+06    -15.6468E+06    -4.93292E+06     412.008E+03
             609     58.4521E-03     3.85641E-03     58.3247E-03     518.194E-03    -257.908E-03    -259.942E-03    -257.813E-03     518.098E-03    -259.942E-03     16.1248E-03     549.762E-03     18.1797E+06    -12.8933E+06    -22.6846E+06    -33.7654E+06    -33.6325E+06    -22.8174E+06    -12.8933E+06     373.740E+03
             610     58.4342E-03     3.08565E-03     58.3527E-03     518.045E-03    -258.928E-03    -259.921E-03    -258.910E-03     518.027E-03    -259.921E-03     6.24425E-03     540.299E-03     14.1747E+06    -22.5387E+06    -30.5017E+06    -38.7325E+06    -38.5984E+06    -30.6358E+06    -22.5387E+06     724.033E+03
             611     58.4357E-03     2.31252E-03     58.3900E-03     518.192E-03    -258.979E-03    -259.752E-03    -258.977E-03     518.190E-03    -259.752E-03     534.414E-06     531.263E-03     9.76392E+06    -31.8171E+06    -37.0433E+06    -42.9363E+06    -42.5619E+06    -37.4177E+06    -31.8171E+06     739.713E+03
             612     58.4390E-03     1.54218E-03     58.4186E-03     518.709E-03    -259.114E-03    -259.755E-03    -259.112E-03     518.707E-03    -259.755E-03    -2.04232E-03     524.403E-03     6.19830E+06    -39.3933E+06    -43.0537E+06    -46.3672E+06    -45.8448E+06    -43.5761E+06    -39.3933E+06     765.083E+03
             613     58.4405E-03     771.489E-06     58.4354E-03     519.556E-03    -258.698E-03    -260.897E-03    -260.141E-03     519.552E-03    -259.449E-03    -3.46894E-03     521.378E-03     8.68756E+06    -42.9267E+06    -46.8506E+06    -52.3780E+06    -48.1648E+06    -49.0065E+06    -44.9841E+06     1.16119E+06
             614     60.3116E-03     13.1194E-03     58.8674E-03     545.179E-03    -259.608E-03    -285.683E-03    -266.770E-03     526.266E-03    -259.608E-03     234.428E-03     688.372E-03     29.0658E+06     26.7065E+06     14.4307E+06    -5.84373E+06    -1.03859E+06     9.62553E+06     26.7065E+06    -351.168E+03
             615     59.6315E-03     12.3473E-03     58.3391E-03     545.018E-03    -258.863E-03    -286.437E-03    -265.025E-03     523.606E-03    -258.863E-03     257.288E-03     708.024E-03     28.5570E+06     23.4027E+06     14.3538E+06    -8.13686E+06    -2.54216E+06     8.75906E+06     23.4027E+06     137.326E+03
             616     59.1918E-03     11.5790E-03     58.0483E-03     531.213E-03    -258.990E-03    -271.856E-03    -257.372E-03     516.729E-03    -258.990E-03     212.903E-03     674.429E-03     25.2470E+06     20.4103E+06     10.4743E+06    -8.07761E+06    -4.99054E+06     7.38719E+06     20.4103E+06     1.23136E+06
             617     58.7058E-03     10.8021E-03     57.7034E-03     528.264E-03    -259.129E-03    -269.240E-03    -255.026E-03     514.050E-03    -259.129E-03     210.043E-03     673.323E-03     22.7732E+06     18.1485E+06     7.91740E+06    -7.87281E+06    -7.29568E+06     7.34027E+06     18.1485E+06     705.149E+03
             618     58.3228E-03     10.0330E-03     57.4533E-03     522.454E-03    -259.622E-03    -263.783E-03    -252.880E-03     511.551E-03    -259.622E-03     183.829E-03     659.751E-03     23.6014E+06     18.3314E+06     5.97674E+06    -8.69553E+06    -8.35009E+06     5.63130E+06     18.3314E+06     347.098E+03
             619     57.9613E-03     9.26315E-03     57.2163E-03     520.441E-03    -259.641E-03    -261.269E-03    -252.029E-03     511.348E-03    -259.789E-03     167.167E-03     653.456E-03     24.3290E+06     17.6798E+06     4.01094E+06    -10.1789E+06    -10.0098E+06     3.84184E+06     17.6798E+06     354.301E+03
             620     57.6506E-03     8.49081E-03     57.0219E-03     516.760E-03    -258.111E-03    -259.260E-03    -251.584E-03     510.119E-03    -259.146E-03     142.368E-03     639.757E-03     25.1157E+06     15.4391E+06     2.56406E+06    -13.2871E+06    -13.0624E+06     2.33937E+06     15.4391E+06     589.226E+03
             621     57.3945E-03     7.71737E-03     56.8733E-03     514.305E-03    -255.785E-03    -258.669E-03    -251.156E-03     509.676E-03    -258.669E-03     118.490E-03     624.855E-03     25.9067E+06     13.5014E+06     534.990E+03    -16.2221E+06    -16.0648E+06     377.709E+03     13.5014E+06     447.344E+03
             622     57.1766E-03     6.94358E-03     56.7535E-03     513.311E-03    -254.667E-03    -259.149E-03    -251.828E-03     510.472E-03    -259.149E-03     92.0061E-03     608.607E-03     24.3550E+06     8.91195E+06    -3.49795E+06    -19.1416E+06    -19.1021E+06    -3.53745E+06     8.91195E+06     98.2946E+03
             623     57.0131E-03     6.17090E-03     56.6782E-03     513.024E-03    -254.649E-03    -259.927E-03    -253.141E-03     511.515E-03    -259.927E-03     67.2666E-03     589.997E-03     22.1804E+06     2.81188E+06    -8.35258E+06    -22.7271E+06    -22.7004E+06    -8.37934E+06     2.81188E+06     359.290E+03
             624     56.8836E-03     5.39703E-03     56.6270E-03     514.846E-03    -255.323E-03    -260.161E-03    -254.542E-03     514.065E-03    -260.161E-03     48.1099E-03     574.634E-03     21.0839E+06    -1.82413E+06    -12.2039E+06    -26.0799E+06    -26.0356E+06    -12.2483E+06    -1.82413E+06     133.815E+03
             625     56.8033E-03     4.62635E-03     56.6145E-03     517.539E-03    -256.886E-03    -259.966E-03    -256.550E-03     517.203E-03    -259.966E-03     31.3545E-03     561.795E-03     20.7557E+06    -6.04439E+06    -16.4060E+06    -29.9253E+06    -29.8134E+06     -16.518E+06    -6.04439E+06     310.559E+03
             626     56.7621E-03     3.85753E-03     56.6309E-03     518.724E-03    -258.414E-03    -259.993E-03    -258.301E-03     518.610E-03    -259.993E-03     17.6733E-03     550.415E-03     19.0185E+06    -12.3712E+06    -23.3016E+06    -34.2752E+06    -34.1596E+06    -23.4172E+06    -12.3712E+06     781.051E+03
             627     56.7455E-03     3.08482E-03     56.6616E-03     518.169E-03    -258.931E-03    -259.917E-03    -258.909E-03     518.147E-03    -259.917E-03     6.60784E-03     540.204E-03     15.1348E+06    -21.0821E+06    -29.7160E+06     -38.415E+06    -38.2393E+06    -29.8917E+06    -21.0821E+06     720.809E+03
             628     56.7444E-03     2.31435E-03     56.6972E-03     518.387E-03    -259.116E-03    -259.663E-03    -259.115E-03     518.386E-03    -259.663E-03     208.224E-06     531.185E-03     10.6009E+06    -30.4523E+06    -35.7093E+06    -42.5165E+06    -42.1072E+06    -36.1186E+06    -30.4523E+06     706.143E+03
             629     56.7486E-03     1.54311E-03     56.7277E-03     518.692E-03    -259.267E-03    -259.542E-03    -259.338E-03     518.690E-03    -259.469E-03    -2.16446E-03     524.358E-03     6.38355E+06    -38.9699E+06    -41.5194E+06    -46.1101E+06    -44.6738E+06    -42.6994E+06    -39.2263E+06     113.909E+03
             630     56.7524E-03     771.150E-06     56.7472E-03     518.744E-03    -258.310E-03    -260.392E-03    -260.293E-03     518.741E-03    -258.406E-03    -2.26553E-03     520.507E-03     5.78027E+06    -43.1756E+06    -46.0361E+06    -49.6234E+06    -45.3742E+06    -47.9716E+06    -45.4892E+06    -889.626E+03
             631     58.6637E-03     13.1182E-03     57.1782E-03     545.758E-03    -259.575E-03    -286.081E-03    -266.940E-03     526.617E-03    -259.575E-03     235.999E-03     688.710E-03     27.7138E+06     25.6909E+06     13.4689E+06    -5.23809E+06    -1.27314E+06     9.50395E+06     25.6909E+06     29.0564E+03
             632     57.9844E-03     12.3493E-03     56.6541E-03     545.065E-03    -258.848E-03    -286.275E-03    -264.477E-03     523.267E-03    -258.848E-03     259.857E-03     707.619E-03     28.3934E+06     22.6501E+06     12.4754E+06    -8.75948E+06    -4.08374E+06     7.79970E+06     22.6501E+06     509.954E+03
             633     57.5347E-03     11.5747E-03     56.3584E-03     530.975E-03    -259.015E-03    -271.276E-03    -256.792E-03     516.491E-03    -259.015E-03     213.060E-03     674.377E-03     26.0663E+06     20.7966E+06     9.94364E+06    -8.71625E+06    -5.58365E+06     6.81103E+06     20.7966E+06     275.858E+03
             634     57.0550E-03     10.8050E-03     56.0226E-03     528.403E-03    -259.181E-03    -269.070E-03    -255.212E-03     514.544E-03    -259.181E-03     207.444E-03     673.782E-03     23.0557E+06     18.6913E+06     8.53469E+06    -7.55234E+06    -6.62123E+06     7.60358E+06     18.6913E+06      66.687E+03
             635     56.6532E-03     10.0343E-03     55.7575E-03     522.329E-03    -259.641E-03    -263.642E-03    -253.030E-03     511.716E-03    -259.641E-03     181.378E-03     659.248E-03     23.0815E+06     17.4660E+06     6.48888E+06    -8.92168E+06    -8.37538E+06     5.94258E+06     17.4660E+06    -249.513E+03
             636     56.2955E-03     9.26180E-03     55.5284E-03     519.808E-03    -259.294E-03    -260.968E-03    -251.474E-03     510.851E-03    -259.830E-03     165.891E-03     652.766E-03     24.1487E+06     16.6940E+06     3.75090E+06    -11.0191E+06    -10.5313E+06     3.26305E+06     16.6940E+06     172.563E+03
             637     55.9854E-03     8.48743E-03     55.3383E-03     516.721E-03    -257.699E-03    -259.251E-03    -250.984E-03     510.005E-03    -259.251E-03     143.154E-03     639.803E-03     24.5682E+06     14.7005E+06     2.49454E+06    -13.3885E+06    -13.0516E+06     2.15764E+06     14.7005E+06     876.091E+03
             638     55.7230E-03     7.71558E-03     55.1862E-03     514.941E-03    -255.921E-03    -258.769E-03    -251.274E-03     510.294E-03    -258.769E-03     118.631E-03     625.421E-03     24.1128E+06     12.4206E+06     1.60201E+06    -15.1212E+06    -14.8212E+06     1.30200E+06     12.4206E+06     974.422E+03
             639     55.5092E-03     6.94597E-03     55.0729E-03     513.983E-03    -255.186E-03    -259.176E-03    -252.332E-03     511.129E-03    -259.176E-03     92.6014E-03     609.327E-03     23.1976E+06     8.05417E+06    -3.45868E+06    -18.5906E+06    -18.4225E+06    -3.62682E+06     8.05417E+06     818.760E+03
             640     55.3395E-03     6.16943E-03     54.9945E-03     513.533E-03    -255.222E-03    -259.911E-03    -253.641E-03     511.952E-03    -259.911E-03     68.8135E-03     590.678E-03     22.7341E+06     3.79647E+06    -8.20883E+06    -22.4173E+06    -22.3634E+06    -8.26270E+06     3.79647E+06     722.004E+03
             641     55.2142E-03     5.39886E-03     54.9496E-03     514.497E-03    -255.159E-03    -260.132E-03    -254.372E-03     513.710E-03    -260.132E-03     48.1512E-03     574.210E-03     22.3776E+06    -157.788E+03    -12.1043E+06    -25.9448E+06    -25.8929E+06    -12.1561E+06    -157.788E+03     675.042E+03
             642     55.1282E-03     4.62625E-03     54.9338E-03     516.670E-03    -256.043E-03    -260.013E-03    -255.725E-03     516.352E-03    -260.013E-03     30.2965E-03     560.737E-03     21.2629E+06    -5.62712E+06    -17.0945E+06    -30.1316E+06    -29.9841E+06     -17.242E+06    -5.62712E+06     749.901E+03
             643     55.0820E-03     3.85372E-03     54.9470E-03     518.651E-03    -258.179E-03    -260.088E-03    -258.076E-03     518.549E-03    -260.088E-03     16.8315E-03     550.532E-03     18.8323E+06    -12.3991E+06    -22.3984E+06    -34.1104E+06    -33.8865E+06    -22.6224E+06    -12.3991E+06     319.938E+03
             644     55.0657E-03     3.08559E-03     54.9792E-03     518.824E-03    -259.522E-03    -260.090E-03    -259.573E-03     518.802E-03    -260.016E-03     7.27992E-03     541.278E-03     15.5116E+06    -20.1812E+06    -28.9039E+06    -38.0736E+06    -37.9317E+06    -29.0458E+06    -20.1812E+06    -173.690E+03
             645     55.0639E-03     2.31401E-03     55.0153E-03     518.639E-03    -259.395E-03    -259.753E-03    -259.466E-03     518.636E-03    -259.679E-03     1.34776E-03     531.753E-03     11.3315E+06    -29.4677E+06    -34.5090E+06    -42.2355E+06    -41.7995E+06    -34.9450E+06    -29.4677E+06     68.7561E+03
             646     55.0656E-03     1.54265E-03     55.0440E-03     518.586E-03    -259.125E-03    -259.534E-03    -259.197E-03     518.585E-03    -259.460E-03    -1.54754E-03     524.302E-03     7.51438E+06    -39.0730E+06    -40.7061E+06    -47.2268E+06    -45.6742E+06    -42.0024E+06    -39.3293E+06    -48.2649E+03
             647     55.0727E-03     772.302E-06     55.0673E-03     518.900E-03    -258.962E-03    -259.982E-03    -259.499E-03     518.899E-03    -259.444E-03    -1.33848E-03     520.746E-03     4.71874E+06    -46.3296E+06    -47.5079E+06    -51.5075E+06    -49.1815E+06    -49.3901E+06    -46.7734E+06     111.994E+03
             648     57.0188E-03     13.1195E-03     55.4889E-03     545.403E-03    -259.627E-03    -285.745E-03    -266.558E-03     526.217E-03    -259.627E-03     236.586E-03     688.578E-03     27.6675E+06     25.8667E+06     11.8375E+06    -5.38977E+06    -2.17362E+06     8.62139E+06     25.8667E+06     155.187E+03
             649     56.3375E-03     12.3448E-03     54.9683E-03     545.163E-03    -258.908E-03    -286.446E-03    -264.763E-03     523.480E-03    -258.908E-03     259.074E-03     708.208E-03     28.4040E+06     23.9948E+06     12.3750E+06    -7.91270E+06    -3.30432E+06     7.76659E+06     23.9948E+06     273.083E+03
             650     55.8864E-03     11.5770E-03     54.6742E-03     531.631E-03    -259.008E-03    -271.960E-03    -257.640E-03     517.310E-03    -259.008E-03     212.051E-03     675.234E-03     25.8722E+06     21.4042E+06     10.5609E+06    -7.87296E+06    -4.87391E+06     7.56188E+06     21.4042E+06    -146.202E+03
             651     55.3965E-03     10.8053E-03     54.3325E-03     528.722E-03    -259.148E-03    -269.352E-03    -255.535E-03     514.905E-03    -259.148E-03     207.329E-03     674.518E-03     23.0918E+06     19.0828E+06     7.87896E+06    -7.08031E+06    -6.18813E+06     6.98678E+06     19.0828E+06    -483.457E+03
             652     55.0047E-03     10.0367E-03     54.0812E-03     521.633E-03    -259.640E-03    -262.994E-03    -252.278E-03     510.917E-03    -259.640E-03     182.093E-03     658.738E-03     23.1995E+06     17.2454E+06     6.64882E+06    -8.81895E+06    -8.03280E+06     5.86268E+06     17.2454E+06     144.431E+03
             653     54.6353E-03     9.26125E-03     53.8447E-03     519.508E-03    -259.465E-03    -260.520E-03    -251.154E-03     510.531E-03    -259.854E-03     165.933E-03     651.946E-03     23.4454E+06     15.1363E+06     4.79557E+06    -11.4441E+06    -10.8053E+06     4.15678E+06     15.1363E+06     393.467E+03
             654     54.3209E-03     8.48820E-03     53.6536E-03     516.721E-03    -257.688E-03    -259.394E-03    -251.157E-03     510.076E-03    -259.280E-03     142.423E-03     639.640E-03     23.7373E+06     13.9869E+06     1.98920E+06    -13.3194E+06    -12.9779E+06     1.64767E+06     13.9869E+06     456.426E+03
             655     54.0463E-03     7.71499E-03     53.4928E-03     514.412E-03    -255.626E-03    -258.873E-03    -251.022E-03     509.808E-03    -258.873E-03     118.057E-03     624.700E-03     24.0101E+06     11.7526E+06    -322.256E+03    -15.8293E+06    -15.5691E+06    -582.426E+03     11.7526E+06     685.834E+03
             656     53.8325E-03     6.94184E-03     53.3830E-03     514.088E-03    -255.416E-03    -259.299E-03    -252.554E-03     511.225E-03    -259.299E-03     92.8235E-03     609.348E-03     23.3951E+06     8.38013E+06    -3.31841E+06    -18.4808E+06    -18.2298E+06    -3.56946E+06     8.38013E+06     1.07450E+06
             657     53.6583E-03     6.16952E-03     53.3025E-03     513.936E-03    -255.688E-03    -259.940E-03    -254.092E-03     512.339E-03    -259.940E-03     69.1381E-03     591.527E-03     22.9108E+06     5.47981E+06    -7.09856E+06    -20.9174E+06    -20.7906E+06    -7.22537E+06     5.47981E+06     1.02897E+06
             658     53.5310E-03     5.39824E-03     53.2581E-03     514.992E-03    -255.676E-03    -260.131E-03    -254.883E-03     514.199E-03    -260.131E-03     48.4456E-03     574.927E-03     22.8182E+06     1.60963E+06    -11.8707E+06    -24.7108E+06    -24.6307E+06    -11.9509E+06     1.60963E+06     787.651E+03
             659     53.4456E-03     4.62750E-03     53.2449E-03     516.874E-03    -256.250E-03    -259.991E-03    -255.931E-03     516.555E-03    -259.991E-03     30.1583E-03     560.773E-03     21.9093E+06    -3.82829E+06    -16.8405E+06    -29.1144E+06    -28.9317E+06    -17.0231E+06    -3.82829E+06      811.89E+03
             660     53.3942E-03     3.85632E-03     53.2547E-03     517.920E-03    -257.403E-03    -260.043E-03    -257.313E-03     517.830E-03    -260.043E-03     15.5319E-03     549.631E-03     19.2118E+06    -11.1591E+06    -20.4003E+06    -33.0347E+06    -32.5663E+06    -20.8687E+06    -11.1591E+06     997.513E+03
             661     53.3739E-03     3.08234E-03     53.2848E-03     518.376E-03    -258.886E-03    -260.140E-03    -258.943E-03     518.360E-03    -260.067E-03     6.24234E-03     540.975E-03     14.7820E+06    -21.2536E+06    -27.4801E+06    -38.0065E+06    -37.4470E+06    -28.0397E+06    -21.2536E+06     211.634E+03
             662     53.3704E-03     2.31327E-03     53.3203E-03     518.785E-03    -259.406E-03    -259.917E-03    -259.478E-03     518.783E-03    -259.843E-03     667.446E-06     532.280E-03     9.99057E+06    -31.3902E+06    -35.2869E+06    -42.6043E+06    -42.1188E+06    -35.7725E+06    -31.3902E+06    -512.197E+03
             663     53.3790E-03     1.54238E-03     53.3567E-03     518.901E-03    -259.291E-03    -259.755E-03    -259.290E-03     518.899E-03    -259.755E-03    -1.86668E-03     524.891E-03     6.01016E+06    -40.0786E+06    -41.3071E+06    -46.5751E+06    -45.8522E+06    -42.0301E+06    -40.0786E+06     343.806E+03
             664     53.3819E-03     769.512E-06     53.3763E-03     519.633E-03    -259.303E-03    -260.387E-03    -259.800E-03     519.632E-03    -259.888E-03    -1.96525E-03     521.574E-03     3.36091E+06    -45.6920E+06    -46.4527E+06    -49.3664E+06    -47.6390E+06    -47.9926E+06    -45.8795E+06     589.895E+03
             665     55.3812E-03     13.1160E-03     53.8056E-03     545.403E-03    -259.614E-03    -285.779E-03    -266.904E-03     526.529E-03    -259.614E-03     234.489E-03     688.652E-03     26.2141E+06     25.1879E+06     11.3355E+06    -4.47249E+06    -1.86057E+06     8.72362E+06     25.1879E+06     180.629E+03
             666     54.6984E-03     12.3492E-03     53.2861E-03     545.165E-03    -258.832E-03    -286.526E-03    -265.145E-03     523.785E-03    -258.832E-03     257.323E-03     708.230E-03     26.1216E+06     22.3359E+06     12.4449E+06    -6.80248E+06    -3.08891E+06     8.73137E+06     22.3359E+06    -117.773E+03
             667     54.2404E-03     11.5764E-03     52.9906E-03     530.629E-03    -258.973E-03    -271.207E-03    -256.841E-03     516.263E-03    -258.973E-03     212.004E-03     673.587E-03     23.6384E+06     20.0956E+06     10.0876E+06    -6.34864E+06    -3.84965E+06     7.58863E+06     20.0956E+06    -249.962E+03
             668     53.7412E-03     10.8058E-03     52.6436E-03     527.233E-03    -259.191E-03    -267.981E-03    -253.946E-03     513.199E-03    -259.191E-03     208.520E-03     672.933E-03     21.8067E+06     17.5053E+06     6.98999E+06    -6.86930E+06    -6.07433E+06     6.19503E+06     17.5053E+06     294.124E+03
             669     53.3429E-03     10.0331E-03     52.3909E-03     521.777E-03    -259.751E-03    -263.007E-03    -252.073E-03     510.843E-03    -259.751E-03     183.935E-03     659.657E-03     23.0876E+06     16.4680E+06     6.01338E+06    -9.19642E+06    -8.32557E+06     5.14253E+06     16.4680E+06     531.229E+03
             670     52.9712E-03     9.26112E-03     52.1554E-03     520.750E-03    -259.952E-03    -261.361E-03    -252.121E-03     511.510E-03    -259.952E-03     168.602E-03     653.494E-03     23.6953E+06     16.1220E+06     5.51028E+06    -10.5907E+06    -9.91535E+06     4.83490E+06     16.1220E+06     629.583E+03
             671     52.6466E-03     8.48936E-03     51.9577E-03     517.240E-03    -258.068E-03    -259.577E-03    -251.597E-03     510.498E-03    -259.305E-03     143.433E-03     640.247E-03     24.4776E+06     15.1173E+06     2.29052E+06    -12.9180E+06    -12.5179E+06     1.89037E+06     15.1173E+06     502.393E+03
             672     52.3812E-03     7.71551E-03     51.8098E-03     514.670E-03    -255.883E-03    -258.878E-03    -251.304E-03     510.091E-03    -258.878E-03     117.793E-03     625.048E-03     25.0302E+06     12.9083E+06    -947.642E+03    -15.8704E+06    -15.6447E+06    -1.17330E+06     12.9083E+06     410.688E+03
             673     52.1501E-03     6.94297E-03     51.6858E-03     514.350E-03    -255.653E-03    -259.276E-03    -252.880E-03     511.576E-03    -259.276E-03     91.1027E-03     609.585E-03     23.7287E+06     9.42431E+06    -3.65286E+06    -17.8227E+06    -17.6321E+06    -3.84341E+06     9.42431E+06     786.603E+03
             674     51.9780E-03     6.16834E-03     51.6107E-03     513.858E-03    -255.569E-03    -259.871E-03    -254.094E-03     512.384E-03    -259.871E-03     66.4722E-03     591.352E-03     22.6140E+06     5.08765E+06    -7.15995E+06    -20.7431E+06    -20.5757E+06    -7.32741E+06     5.08765E+06     1.15071E+06
             675     51.8461E-03     5.39758E-03     51.5644E-03     514.745E-03    -255.493E-03    -260.087E-03    -254.747E-03     513.998E-03    -260.087E-03     46.9709E-03     574.761E-03     21.8770E+06     1.03345E+06    -10.9540E+06    -24.0352E+06    -23.9034E+06    -11.0858E+06     1.03345E+06     1.18303E+06
             676     51.7566E-03     4.62708E-03     51.5493E-03     516.755E-03    -256.198E-03    -259.961E-03    -255.885E-03     516.442E-03    -259.961E-03     30.1372E-03     560.744E-03     20.7163E+06    -4.31101E+06    -16.4442E+06    -28.1993E+06    -27.8545E+06    -16.7890E+06    -4.31101E+06     1.26262E+06
             677     51.7088E-03     3.85601E-03     51.5649E-03     517.955E-03    -257.505E-03    -259.999E-03    -257.401E-03     517.851E-03    -259.999E-03     16.9772E-03     549.474E-03     18.7369E+06    -11.6738E+06    -20.1895E+06    -32.9645E+06    -32.3340E+06    -20.8200E+06    -11.6738E+06     1.22980E+06
             678     51.6820E-03     3.08560E-03     51.5898E-03     518.041E-03    -258.453E-03    -260.041E-03    -258.430E-03     518.018E-03    -260.041E-03     7.05172E-03     540.181E-03     15.1757E+06    -20.5781E+06    -25.5407E+06    -37.5092E+06    -36.4967E+06    -26.5533E+06    -20.5781E+06     1.12499E+06
             679     51.6755E-03     2.31272E-03     51.6238E-03     518.642E-03    -259.062E-03    -259.941E-03    -259.060E-03     518.640E-03    -259.941E-03     253.439E-06     531.911E-03     9.93617E+06    -30.7430E+06    -34.4152E+06    -41.8937E+06    -41.0059E+06    -35.3031E+06    -30.7430E+06     692.562E+03
             680     51.6824E-03     1.54138E-03     51.6594E-03     519.477E-03    -259.575E-03    -260.134E-03    -259.850E-03     519.475E-03    -259.857E-03    -2.61796E-03     525.699E-03     4.75673E+06    -38.7760E+06    -40.7942E+06    -44.1728E+06    -43.6534E+06    -41.3136E+06    -38.7760E+06     273.223E+03
             681     51.6866E-03     772.309E-06     51.6809E-03     519.509E-03    -259.247E-03    -260.319E-03    -260.213E-03     519.506E-03    -259.350E-03    -2.86914E-03     521.497E-03     2.62483E+06    -44.6683E+06    -45.4302E+06    -47.5862E+06    -46.0909E+06    -46.7560E+06    -44.8378E+06     422.132E+03
             682     53.7500E-03     13.1217E-03     52.1237E-03     545.956E-03    -259.513E-03    -286.382E-03    -267.270E-03     526.844E-03    -259.513E-03     235.635E-03     689.016E-03     24.7853E+06     23.9991E+06     11.4134E+06    -3.89173E+06    -1.65491E+06     9.17655E+06     23.9991E+06    -270.267E+03
             683     53.0453E-03     12.3483E-03     51.5880E-03     545.033E-03    -258.737E-03    -286.321E-03    -264.631E-03     523.343E-03    -258.737E-03     258.963E-03     707.766E-03     24.2618E+06     19.9489E+06     11.6378E+06    -6.89831E+06    -3.37683E+06      8.1163E+06     19.9489E+06    -468.764E+03
             684     52.5876E-03     11.5780E-03     51.2972E-03     529.673E-03    -258.975E-03    -270.063E-03    -255.530E-03     515.140E-03    -258.975E-03     212.876E-03     672.726E-03     21.9760E+06     16.3469E+06     8.55375E+06    -7.82942E+06    -5.31716E+06     6.04149E+06     16.3469E+06     154.864E+03
             685     52.0883E-03     10.8010E-03     50.9561E-03     527.083E-03    -259.275E-03    -267.589E-03    -253.477E-03     512.971E-03    -259.275E-03     208.851E-03     672.225E-03     20.4144E+06     15.2762E+06     7.40994E+06    -7.25779E+06    -6.43795E+06     6.59010E+06     15.2762E+06     327.643E+03
             686     51.6853E-03     10.0310E-03     50.7026E-03     522.140E-03    -259.849E-03    -263.043E-03    -252.281E-03     511.378E-03    -259.849E-03     182.531E-03     659.551E-03     21.9067E+06     15.7926E+06     6.34942E+06    -8.74677E+06    -7.89091E+06     5.49357E+06     15.7926E+06     356.901E+03
             687     51.3047E-03     9.25869E-03     50.4624E-03     520.231E-03    -259.510E-03    -261.231E-03    -251.601E-03     511.154E-03    -260.062E-03     167.018E-03     653.298E-03     23.7186E+06     15.8999E+06     4.46361E+06    -10.9644E+06    -10.0703E+06     3.56950E+06     15.8999E+06     151.218E+03
             688     50.9824E-03     8.48628E-03     50.2712E-03     517.612E-03    -258.307E-03    -259.598E-03    -251.688E-03     510.835E-03    -259.441E-03     143.946E-03     640.757E-03     24.5096E+06     14.9953E+06     2.38235E+06    -12.9921E+06    -12.3455E+06     1.73579E+06     14.9953E+06     174.724E+03
             689     50.7089E-03     7.71509E-03     50.1186E-03     516.519E-03    -257.544E-03    -258.910E-03    -252.861E-03     511.837E-03    -258.910E-03     119.316E-03     627.022E-03     24.3717E+06     12.7187E+06    -402.165E+03    -15.2160E+06    -15.0038E+06    -614.299E+03     12.7187E+06     698.758E+03
             690     50.4797E-03     6.94701E-03     49.9994E-03     514.995E-03    -256.423E-03    -259.136E-03    -253.626E-03     512.199E-03    -259.136E-03     91.5660E-03     610.340E-03     23.6241E+06     8.43555E+06    -3.81653E+06    -18.5045E+06    -18.4016E+06    -3.91943E+06     8.43555E+06     801.301E+03
             691     50.3064E-03     6.17134E-03     49.9264E-03     513.331E-03    -255.311E-03    -259.707E-03    -253.828E-03     511.848E-03    -259.707E-03     66.6198E-03     590.917E-03     22.3885E+06     4.26582E+06    -7.04619E+06    -21.1028E+06    -21.0037E+06    -7.14532E+06     4.26582E+06     841.580E+03
             692     50.1715E-03     5.40058E-03     49.8800E-03     513.886E-03    -254.904E-03    -259.942E-03    -254.164E-03     513.146E-03    -259.942E-03     46.6315E-03     574.140E-03     21.0707E+06    -305.789E+03    -11.4693E+06    -24.4010E+06    -24.0883E+06    -11.7820E+06    -305.789E+03     1.56551E+06
             693     50.0846E-03     4.62722E-03     49.8704E-03     515.943E-03    -255.492E-03    -259.865E-03    -255.190E-03     515.640E-03    -259.865E-03     29.6748E-03     560.045E-03     19.9666E+06    -5.03600E+06    -15.1785E+06    -27.9731E+06    -27.4233E+06    -15.7282E+06    -5.03600E+06     1.57424E+06
             694     50.0289E-03     3.85444E-03     49.8802E-03     518.064E-03    -257.588E-03    -259.988E-03    -257.485E-03     517.961E-03    -259.988E-03     16.8565E-03     549.480E-03     18.0409E+06    -11.8095E+06    -19.6718E+06    -32.4313E+06    -31.6058E+06    -20.4972E+06    -11.8095E+06     1.19999E+06
             695     49.9988E-03     3.08295E-03     49.9036E-03     518.479E-03    -258.972E-03    -260.077E-03    -258.997E-03     518.456E-03    -260.030E-03     6.70465E-03     540.550E-03     15.0753E+06    -20.2682E+06    -25.5185E+06    -37.2106E+06    -36.1576E+06    -26.5716E+06    -20.2682E+06     1.43449E+06
             696     49.9951E-03     2.31279E-03     49.9416E-03     518.738E-03    -259.284E-03    -259.913E-03    -259.329E-03     518.736E-03    -259.866E-03    -190.788E-06     531.779E-03     10.8854E+06    -28.1628E+06    -31.5043E+06    -40.2469E+06    -39.0090E+06    -32.7422E+06    -28.1628E+06     1.50857E+06
             697     49.9951E-03     1.54246E-03     49.9713E-03     519.210E-03    -259.417E-03    -260.009E-03    -259.691E-03     519.206E-03    -259.732E-03    -3.05291E-03     525.157E-03     6.02448E+06    -36.6950E+06    -39.0558E+06    -43.4800E+06    -42.4329E+06    -40.1029E+06    -36.6950E+06     771.607E+03
             698     50.0065E-03     771.226E-06     50.0005E-03     519.190E-03    -259.172E-03    -260.109E-03    -259.913E-03     519.187E-03    -259.365E-03    -3.09603E-03     521.102E-03     3.17042E+06    -43.3167E+06    -44.5028E+06    -46.8922E+06    -45.1439E+06    -45.8037E+06    -43.7642E+06     454.168E+03
             699     52.1084E-03     13.1177E-03     50.4302E-03     545.281E-03    -259.547E-03    -285.919E-03    -266.568E-03     525.931E-03    -259.547E-03     236.864E-03     687.934E-03     24.8024E+06     24.1128E+06     10.5612E+06    -3.66334E+06    -1.60848E+06     8.50630E+06     24.1128E+06     178.265E+03
             700     51.4024E-03     12.3482E-03     49.8971E-03     544.152E-03    -258.852E-03    -285.392E-03    -263.471E-03     522.231E-03    -258.852E-03     259.927E-03     707.044E-03     25.0618E+06     21.1620E+06     12.2899E+06    -6.34891E+06    -3.01888E+06     8.95981E+06     21.1620E+06     133.618E+03
             701     50.9475E-03     11.5727E-03     49.6157E-03     530.452E-03    -259.099E-03    -270.461E-03    -255.958E-03     515.949E-03    -259.099E-03     212.912E-03     674.253E-03     23.3100E+06     18.1013E+06     9.80458E+06    -7.42652E+06    -4.57574E+06     6.95380E+06     18.1013E+06     180.188E+03
             702     50.4451E-03     10.8027E-03     49.2748E-03     528.712E-03    -259.323E-03    -268.997E-03    -254.939E-03     514.654E-03    -259.323E-03     208.929E-03     673.743E-03     21.2645E+06     16.1496E+06     7.35965E+06    -7.38353E+06    -6.12602E+06     6.10214E+06     16.1496E+06     499.406E+03
             703     50.0298E-03     10.0341E-03     49.0132E-03     522.178E-03    -259.858E-03    -263.174E-03    -252.434E-03     511.438E-03    -259.858E-03     182.362E-03     659.100E-03     21.8508E+06     15.6549E+06     6.53763E+06    -8.96641E+06    -8.00091E+06     5.57214E+06     15.6549E+06     608.524E+03
             704     49.6529E-03     9.26019E-03     48.7817E-03     520.009E-03    -259.510E-03    -260.945E-03    -251.432E-03     511.049E-03    -260.063E-03     165.861E-03     652.968E-03     22.8717E+06     15.0450E+06     4.38093E+06    -10.9423E+06    -9.91386E+06     3.35251E+06     15.0450E+06     370.120E+03
             705     49.3207E-03     8.48566E-03     48.5853E-03     517.932E-03    -258.416E-03    -259.684E-03    -252.115E-03     511.313E-03    -259.365E-03     142.302E-03     640.582E-03     22.7693E+06     13.3535E+06     2.04823E+06    -12.7002E+06    -11.9218E+06     1.26979E+06     13.3535E+06     493.617E+03
             706     49.0321E-03     7.71409E-03     48.4214E-03     515.973E-03    -257.046E-03    -258.902E-03    -252.467E-03     511.395E-03    -258.902E-03     117.945E-03     626.155E-03     22.6174E+06     10.5132E+06    -726.230E+03    -15.3707E+06    -15.1677E+06    -929.253E+03     10.5132E+06     775.367E+03
             707     48.8073E-03     6.94431E-03     48.3107E-03     514.539E-03    -255.989E-03    -259.223E-03    -253.119E-03     511.670E-03    -259.223E-03     93.0634E-03     610.131E-03     22.4640E+06     7.74149E+06    -3.13867E+06    -17.8327E+06    -17.7248E+06    -3.24652E+06     7.74149E+06      787.51E+03
             708     48.6319E-03     6.17064E-03     48.2388E-03     513.609E-03    -255.573E-03    -259.806E-03    -253.957E-03     511.993E-03    -259.806E-03     69.5339E-03     591.611E-03     21.8787E+06     4.30362E+06    -7.35858E+06    -20.6768E+06    -20.5659E+06    -7.46951E+06     4.30362E+06     799.880E+03
             709     48.4971E-03     5.39826E-03     48.1958E-03     514.509E-03    -255.367E-03    -260.018E-03    -254.574E-03     513.716E-03    -260.018E-03     48.3515E-03     574.766E-03     21.0782E+06     359.922E+03    -11.2522E+06    -23.9032E+06    -23.5178E+06    -11.6376E+06     359.922E+03     884.633E+03
             710     48.4076E-03     4.62773E-03     48.1859E-03     516.696E-03    -256.246E-03    -259.831E-03    -255.927E-03     516.376E-03    -259.831E-03     30.3687E-03     560.750E-03     19.9187E+06    -4.77233E+06    -14.2267E+06    -27.6422E+06    -27.0561E+06    -14.8128E+06    -4.77233E+06     897.647E+03
             711     48.3492E-03     3.85605E-03     48.1952E-03     517.888E-03    -257.618E-03    -259.879E-03    -257.522E-03     517.792E-03    -259.879E-03     16.1022E-03     549.382E-03     18.2538E+06    -11.3623E+06    -19.7090E+06    -32.2489E+06    -31.4439E+06    -20.5139E+06    -11.3623E+06     1.21720E+06
             712     48.3171E-03     3.08539E-03     48.2185E-03     517.971E-03    -258.669E-03    -259.978E-03    -258.699E-03     517.953E-03    -259.931E-03     6.18068E-03     540.027E-03     14.6663E+06    -18.7191E+06    -24.8981E+06    -35.3947E+06    -34.4282E+06    -25.8646E+06    -18.7191E+06     1.21050E+06
             713     48.3105E-03     2.31472E-03     48.2550E-03     518.447E-03    -259.048E-03    -259.846E-03    -259.093E-03     518.445E-03    -259.799E-03     820.636E-06     531.321E-03     10.4063E+06    -27.6255E+06    -30.6505E+06    -39.1802E+06    -37.8879E+06    -31.9428E+06    -27.6255E+06     1.00622E+06
             714     48.3159E-03     1.54263E-03     48.2913E-03     518.846E-03    -259.065E-03    -259.898E-03    -259.063E-03     518.844E-03    -259.898E-03    -1.90631E-03     524.580E-03     6.48225E+06    -34.9282E+06    -36.2858E+06    -41.9308E+06    -40.3728E+06    -37.7339E+06    -35.0381E+06     992.255E+03
             715     48.3270E-03     770.649E-06     48.3208E-03     519.927E-03    -259.563E-03    -260.450E-03    -259.973E-03     519.925E-03    -260.037E-03    -2.25562E-03     521.806E-03     4.20693E+06    -40.3769E+06    -41.3188E+06    -44.9181E+06     -42.502E+06    -43.3470E+06    -40.7648E+06     541.611E+03
             716     50.4737E-03     13.1213E-03     48.7384E-03     544.801E-03    -259.671E-03    -285.403E-03    -266.097E-03     525.494E-03    -259.671E-03     237.016E-03     687.804E-03     25.3222E+06     24.3639E+06     11.3102E+06    -3.84980E+06    -1.16868E+06     8.62910E+06     24.3639E+06     116.001E+03
             717     49.7750E-03     12.3443E-03     48.2200E-03     544.255E-03    -258.980E-03    -285.487E-03    -263.750E-03     522.517E-03    -258.980E-03     258.865E-03     707.236E-03     26.1095E+06     21.8031E+06     12.9777E+06    -6.71650E+06    -2.80985E+06     9.07108E+06     21.8031E+06     303.960E+03
             718     49.3034E-03     11.5735E-03     47.9258E-03     531.379E-03    -259.155E-03    -271.447E-03    -257.204E-03     517.136E-03    -259.155E-03     211.366E-03     675.056E-03     24.9610E+06     19.7513E+06     10.5745E+06    -7.73756E+06    -4.19900E+06     7.03594E+06     19.7513E+06     653.548E+03
             719     48.7964E-03     10.8027E-03     47.5857E-03     528.705E-03    -259.313E-03    -268.996E-03    -255.191E-03     514.900E-03    -259.313E-03     207.192E-03     674.459E-03     23.2583E+06     18.1293E+06     7.75654E+06    -7.71745E+06    -5.95991E+06     5.99900E+06     18.1293E+06     766.855E+03
             720     48.3780E-03     10.0317E-03     47.3265E-03     521.933E-03    -259.822E-03    -262.902E-03    -252.257E-03     511.288E-03    -259.822E-03     181.482E-03     659.178E-03     22.5463E+06     16.5716E+06     6.43508E+06    -8.83960E+06    -7.44548E+06     5.04096E+06     16.5716E+06     545.162E+03
             721     47.9932E-03     9.25817E-03     47.0918E-03     520.823E-03    -259.966E-03    -261.118E-03    -252.122E-03     511.828E-03    -259.966E-03     166.435E-03     653.064E-03     22.2332E+06     14.9730E+06     4.40600E+06    -10.2968E+06    -9.29166E+06     3.40085E+06     14.9730E+06     745.318E+03
             722     47.6512E-03     8.49070E-03     46.8886E-03     517.823E-03    -258.280E-03    -259.651E-03    -251.981E-03     511.073E-03    -259.200E-03     143.651E-03     640.150E-03     22.8123E+06     12.6507E+06     2.41060E+06    -13.1417E+06    -12.4297E+06     1.69855E+06     12.6507E+06     889.786E+03
             723     47.3675E-03     7.71752E-03     46.7346E-03     514.489E-03    -255.614E-03    -258.872E-03    -250.971E-03     509.847E-03    -258.872E-03     118.539E-03     624.572E-03     22.3700E+06     10.8139E+06     19.3310E+03    -14.3192E+06    -14.0078E+06    -292.024E+03     10.8139E+06     681.263E+03
             724     47.1287E-03     6.94213E-03     46.6146E-03     513.672E-03    -254.776E-03    -259.395E-03    -251.905E-03     510.801E-03    -259.395E-03     92.7915E-03     609.005E-03     21.5764E+06     7.81248E+06    -3.73795E+06    -16.6311E+06    -16.3551E+06    -4.01389E+06     7.81248E+06      850.86E+03
             725     46.9465E-03     6.16704E-03     46.5397E-03     513.970E-03    -255.462E-03    -260.030E-03    -253.900E-03     512.408E-03    -260.030E-03     68.3181E-03     591.783E-03     20.9801E+06     4.27938E+06    -7.38028E+06    -19.6676E+06    -19.4335E+06    -7.61430E+06     4.27938E+06     927.896E+03
             726     46.8160E-03     5.39785E-03     46.5038E-03     515.726E-03    -256.157E-03    -260.212E-03    -255.375E-03     514.944E-03    -260.212E-03     48.2982E-03     575.845E-03     20.8601E+06     896.172E+03    -10.4597E+06    -23.0142E+06    -22.5048E+06    -10.9691E+06     896.172E+03     900.387E+03
             727     46.7175E-03     4.62727E-03     46.4878E-03     517.568E-03    -256.864E-03    -259.936E-03    -256.521E-03     517.226E-03    -259.936E-03     31.5886E-03     561.625E-03     20.3770E+06    -3.71029E+06    -13.5810E+06    -27.1249E+06    -26.3516E+06    -14.3544E+06    -3.71029E+06     873.346E+03
             728     46.6627E-03     3.85743E-03     46.5030E-03     518.001E-03    -257.723E-03    -259.925E-03    -257.607E-03     517.885E-03    -259.925E-03     18.0533E-03     549.608E-03     17.8465E+06    -9.37325E+06    -18.7326E+06    -29.9384E+06    -29.2593E+06    -19.4117E+06    -9.37325E+06     531.865E+03
             729     46.6306E-03     3.08460E-03     46.5284E-03     517.787E-03    -258.420E-03    -260.023E-03    -258.392E-03     517.759E-03    -260.023E-03     8.37492E-03     539.891E-03     14.5519E+06    -17.1474E+06    -24.6327E+06    -33.8619E+06    -33.0209E+06    -25.4736E+06    -17.1474E+06     674.516E+03
             730     46.6207E-03     2.31181E-03     46.5633E-03     518.496E-03    -258.870E-03    -259.955E-03    -258.865E-03     518.492E-03    -259.955E-03     1.36076E-03     531.533E-03     10.3201E+06    -26.1942E+06    -30.5624E+06    -37.8690E+06    -36.9680E+06    -31.4634E+06    -26.1942E+06     257.759E+03
             731     46.6220E-03     1.54059E-03     46.5966E-03     519.356E-03    -259.322E-03    -260.144E-03    -259.479E-03     519.352E-03    -259.983E-03    -2.80333E-03     525.349E-03     6.86737E+06    -33.8200E+06    -35.5863E+06    -41.2883E+06    -39.5844E+06    -36.9663E+06    -34.1439E+06    -140.530E+03
             732     46.6327E-03     770.083E-06     46.6264E-03     520.045E-03    -259.246E-03    -260.893E-03    -260.606E-03     520.039E-03    -259.528E-03    -3.52004E-03     522.042E-03     4.93455E+06    -39.1598E+06    -40.1870E+06    -44.4250E+06    -41.5108E+06    -42.2604E+06    -40.0005E+06     124.823E+03
             733     48.8448E-03     13.1134E-03     47.0516E-03     544.857E-03    -259.721E-03    -285.387E-03    -266.351E-03     525.822E-03    -259.721E-03     235.428E-03     688.343E-03     24.5964E+06     22.6279E+06     11.6521E+06    -4.74947E+06    -1.96302E+06     8.86561E+06     22.6279E+06    -194.917E+03
             734     48.1384E-03     12.3467E-03     46.5282E-03     545.295E-03    -258.981E-03    -286.653E-03    -265.176E-03     523.817E-03    -258.981E-03     257.769E-03     708.453E-03     25.3955E+06     20.6625E+06     12.1726E+06    -7.27718E+06    -2.91902E+06     7.81444E+06     20.6625E+06     444.152E+03
             735     47.6595E-03     11.5763E-03     46.2322E-03     531.097E-03    -259.108E-03    -271.498E-03    -257.238E-03     516.838E-03    -259.108E-03     211.360E-03     674.776E-03     24.1229E+06     18.0292E+06     10.0041E+06    -8.81336E+06    -4.80311E+06     5.99389E+06     18.0292E+06     297.921E+03
             736     47.1493E-03     10.8045E-03     45.8946E-03     528.033E-03    -259.295E-03    -268.621E-03    -254.728E-03     514.141E-03    -259.295E-03     207.650E-03     673.845E-03     22.0887E+06     17.0039E+06     7.89611E+06    -7.78822E+06    -5.59266E+06     5.70055E+06     17.0039E+06     302.740E+03
             737     46.7326E-03     10.0343E-03     45.6426E-03     522.726E-03    -259.798E-03    -263.697E-03    -252.939E-03     511.968E-03    -259.798E-03     182.613E-03     659.809E-03     22.2948E+06     16.3753E+06     6.27725E+06    -8.88245E+06    -7.32394E+06     4.71874E+06     16.3753E+06     318.791E+03
             738     46.3386E-03     9.26435E-03     45.4030E-03     520.630E-03    -259.603E-03    -261.309E-03    -251.856E-03     511.500E-03    -259.926E-03     167.615E-03     652.602E-03     23.3103E+06     14.9200E+06     5.36692E+06    -11.3118E+06    -10.2147E+06     4.26975E+06     14.9200E+06     649.177E+03
             739     45.9950E-03     8.48665E-03     45.2052E-03     516.525E-03    -257.552E-03    -259.418E-03    -250.872E-03     509.712E-03    -259.285E-03     144.080E-03     639.071E-03     23.7836E+06     14.2181E+06     3.33903E+06    -12.1225E+06    -11.1812E+06     2.39781E+06     14.2181E+06     825.558E+03
             740     45.7080E-03     7.71254E-03     45.0526E-03     514.676E-03    -255.909E-03    -258.985E-03    -251.236E-03     510.004E-03    -258.985E-03     118.949E-03     625.057E-03     23.4143E+06     12.2689E+06    -254.635E+03    -13.7752E+06    -13.1159E+06    -913.937E+03     12.2689E+06     839.661E+03
             741     45.4684E-03     6.94324E-03     44.9351E-03     514.211E-03    -255.318E-03    -259.453E-03    -252.491E-03     511.383E-03    -259.453E-03     91.9657E-03     609.462E-03     22.3551E+06     8.26700E+06    -4.35418E+06    -16.8908E+06    -16.4019E+06    -4.84316E+06     8.26700E+06     915.357E+03
             742     45.2830E-03     6.16759E-03     44.8610E-03     513.605E-03    -254.990E-03    -260.095E-03    -253.492E-03     512.107E-03    -260.095E-03     66.9788E-03     590.840E-03     21.4065E+06     4.18322E+06    -7.22213E+06    -19.8746E+06    -19.3666E+06    -7.73012E+06     4.18322E+06     1.17293E+06
             743     45.1408E-03     5.39601E-03     44.8171E-03     515.280E-03    -255.588E-03    -260.312E-03    -254.820E-03     514.512E-03    -260.312E-03     47.8133E-03     575.368E-03     21.1282E+06     412.946E+03    -8.97859E+06    -23.4731E+06    -22.5350E+06    -9.91670E+06     412.946E+03     852.699E+03
             744     45.0463E-03     4.62570E-03     44.8082E-03     517.490E-03    -256.597E-03    -260.144E-03    -256.259E-03     517.152E-03    -260.144E-03     31.4207E-03     561.970E-03     19.9786E+06    -3.12911E+06    -12.4611E+06    -25.9912E+06    -25.1142E+06    -13.3382E+06    -3.12911E+06    -104.450E+03
             745     44.9890E-03     3.85299E-03     44.8237E-03     518.982E-03    -258.207E-03    -260.158E-03    -258.095E-03     518.869E-03    -260.158E-03     17.3229E-03     550.607E-03     17.8367E+06    -8.94322E+06    -18.2025E+06    -29.4780E+06    -28.9002E+06    -18.7803E+06    -8.94322E+06    -43.6295E+03
             746     44.9553E-03     3.08332E-03     44.8494E-03     518.826E-03    -259.169E-03    -260.132E-03    -259.147E-03     518.804E-03    -260.132E-03     6.96982E-03     541.098E-03     14.6142E+06    -16.7054E+06    -24.3109E+06    -33.5267E+06    -32.9427E+06    -24.8949E+06    -16.7054E+06    -102.945E+03
             747     44.9402E-03     2.31354E-03     44.8806E-03     518.569E-03    -259.100E-03    -259.994E-03    -259.097E-03     518.566E-03    -259.994E-03     852.660E-06     531.860E-03     10.1254E+06    -25.1181E+06    -30.7530E+06    -36.8038E+06    -36.2711E+06    -31.2857E+06    -25.1181E+06    -145.596E+03
             748     44.9453E-03     1.54315E-03     44.9188E-03     519.282E-03    -259.360E-03    -260.140E-03    -259.516E-03     519.278E-03    -259.979E-03    -1.87828E-03     525.253E-03     6.85331E+06    -33.9516E+06    -36.3947E+06    -41.5685E+06    -40.2182E+06    -37.5310E+06    -34.1656E+06    -231.631E+03
             749     44.9509E-03     772.764E-06     44.9442E-03     519.942E-03    -258.924E-03    -261.146E-03    -260.943E-03     519.935E-03    -259.121E-03    -1.98829E-03     521.921E-03     5.41111E+06    -38.4553E+06    -40.6180E+06    -44.3776E+06    -41.2342E+06    -41.7468E+06    -40.4700E+06    -621.003E+03
             750     47.2248E-03     13.1194E-03     45.3659E-03     545.314E-03    -259.659E-03    -285.693E-03    -266.819E-03     526.439E-03    -259.659E-03     234.117E-03     688.342E-03     24.4079E+06     23.5647E+06     12.1072E+06    -3.74951E+06    -592.708E+03     8.95037E+06     23.5647E+06     504.953E+03
             751     46.5082E-03     12.3463E-03     44.8395E-03     544.812E-03    -258.920E-03    -286.052E-03    -264.576E-03     523.336E-03    -258.920E-03     257.794E-03     707.849E-03     25.8848E+06     20.7489E+06     12.2950E+06    -7.84552E+06    -2.69032E+06     7.13980E+06     20.7489E+06     538.333E+03
             752     46.0349E-03     11.5760E-03     44.5557E-03     530.140E-03    -259.113E-03    -270.506E-03    -256.083E-03     515.717E-03    -259.113E-03     212.268E-03     673.957E-03     23.9573E+06     17.8068E+06     10.8348E+06    -8.65469E+06    -3.96066E+06     6.14076E+06     17.8068E+06    -14.5578E+03
             753     45.5177E-03     10.8016E-03     44.2175E-03     528.140E-03    -259.317E-03    -268.832E-03    -254.644E-03     513.952E-03    -259.317E-03     209.937E-03     673.138E-03     20.7751E+06     15.3292E+06     7.55920E+06    -7.89602E+06    -5.79527E+06     5.45844E+06     15.3292E+06     445.537E+03
             754     45.0876E-03     10.0316E-03     43.9575E-03     523.155E-03    -259.887E-03    -264.210E-03    -253.183E-03     512.129E-03    -259.887E-03     184.974E-03     659.981E-03     20.9248E+06     14.5585E+06     5.62912E+06      -9.147E+06    -7.67868E+06     4.16080E+06     14.5585E+06     444.268E+03
             755     44.6897E-03     9.25865E-03     43.7201E-03     520.545E-03    -259.739E-03    -261.294E-03    -251.815E-03     511.389E-03    -260.062E-03     167.762E-03     653.684E-03     22.6591E+06     14.7850E+06     5.61719E+06    -10.6872E+06    -9.27298E+06     4.20298E+06     14.7850E+06     428.026E+03
             756     44.3470E-03     8.48848E-03     43.5270E-03     517.043E-03    -258.181E-03    -259.438E-03    -251.499E-03     510.339E-03    -259.416E-03     143.030E-03     639.908E-03     24.3097E+06     14.5868E+06     3.20345E+06    -12.4668E+06    -11.1914E+06     1.92808E+06     14.5868E+06     750.451E+03
             757     44.0491E-03     7.71504E-03     43.3682E-03     515.308E-03    -256.498E-03    -259.054E-03    -251.928E-03     510.738E-03    -259.054E-03     117.724E-03     625.447E-03     24.1510E+06     12.4900E+06    -380.638E+03    -14.5956E+06    -13.6313E+06    -1.34492E+06     12.4900E+06     621.807E+03
             758     43.7989E-03     6.94285E-03     43.2451E-03     514.323E-03    -255.492E-03    -259.444E-03    -252.718E-03     511.549E-03    -259.444E-03     91.2322E-03     609.628E-03     23.2634E+06      9.2018E+06    -3.65398E+06    -17.1174E+06    -16.3575E+06    -4.41390E+06      9.2018E+06     610.873E+03
             759     43.6107E-03     6.16876E-03     43.1723E-03     513.313E-03    -254.813E-03    -260.092E-03    -253.296E-03     511.796E-03    -260.092E-03     67.4655E-03     590.738E-03     22.9976E+06     6.06762E+06    -5.93973E+06    -19.9172E+06    -19.0923E+06    -6.76467E+06     6.06762E+06     648.514E+03
             760     43.4603E-03     5.39637E-03     43.1240E-03     514.599E-03    -254.950E-03    -260.371E-03    -254.188E-03     513.837E-03    -260.371E-03     47.3099E-03     574.930E-03     21.9302E+06     1.98125E+06    -7.97148E+06    -22.9492E+06    -21.8280E+06    -9.09263E+06     1.98125E+06    -16.2092E+03
             761     43.3588E-03     4.62382E-03     43.1116E-03     517.414E-03    -256.496E-03    -260.269E-03    -256.190E-03     517.108E-03    -260.269E-03     29.8603E-03     562.061E-03     19.8478E+06    -3.02668E+06    -11.9752E+06    -25.6842E+06    -24.9772E+06    -12.6823E+06    -3.02668E+06    -218.607E+03
             762     43.2937E-03     3.85564E-03     43.1217E-03     519.269E-03    -258.481E-03    -260.273E-03    -258.379E-03     519.167E-03    -260.273E-03     16.6471E-03     551.025E-03     17.1250E+06    -9.92287E+06    -18.4118E+06    -29.5255E+06    -29.1867E+06    -18.7506E+06    -9.92287E+06    -370.346E+03
             763     43.2580E-03     3.08524E-03     43.1478E-03     519.000E-03    -259.300E-03    -260.193E-03    -259.278E-03     518.977E-03    -260.193E-03     7.13257E-03     541.273E-03     13.5879E+06    -17.7180E+06    -24.8696E+06    -33.3354E+06    -32.9988E+06    -25.2062E+06    -17.7180E+06    -438.416E+03
             764     43.2474E-03     2.31283E-03     43.1855E-03     518.502E-03    -258.938E-03    -260.079E-03    -258.935E-03     518.500E-03    -260.079E-03     1.95593E-03     531.751E-03     9.01451E+06    -26.2560E+06    -30.6419E+06    -36.5779E+06    -36.1011E+06    -31.1187E+06    -26.2560E+06    -21.6749E+03
             765     43.2507E-03     1.54001E-03     43.2233E-03     519.166E-03    -259.063E-03    -260.324E-03    -259.062E-03     519.164E-03    -260.324E-03    -481.071E-06     525.129E-03     5.80195E+06    -34.6521E+06    -36.7532E+06    -41.1034E+06    -39.8078E+06    -37.4555E+06    -35.2454E+06     17.9728E+03
             766     43.2597E-03     768.281E-06     43.2529E-03     521.029E-03    -259.583E-03    -261.568E-03    -261.021E-03     521.024E-03    -260.126E-03    -1.31820E-03     523.022E-03     5.52768E+06    -38.8831E+06    -41.1343E+06    -44.9693E+06    -41.6940E+06    -42.5325E+06    -40.7603E+06    -236.451E+03
             767     45.6038E-03     13.1171E-03     43.6766E-03     545.579E-03    -259.638E-03    -285.822E-03    -266.583E-03     526.340E-03    -259.638E-03     236.460E-03     688.713E-03     26.3600E+06     24.6653E+06     13.0351E+06    -4.95601E+06    -494.623E+03     8.57373E+06     24.6653E+06     192.686E+03
             768     44.8890E-03     12.3484E-03     43.1571E-03     544.383E-03    -258.944E-03    -285.499E-03    -263.637E-03     522.521E-03    -258.944E-03     259.898E-03     707.620E-03     27.2057E+06     20.8018E+06     12.9626E+06    -9.19294E+06    -2.80304E+06     6.57275E+06     20.8018E+06     9.58725E+03
             769     44.3953E-03     11.5737E-03     42.8601E-03     530.570E-03    -259.178E-03    -270.773E-03    -256.338E-03     516.135E-03    -259.178E-03     212.599E-03     674.073E-03     24.6626E+06     17.6980E+06     10.8798E+06    -9.39302E+06    -4.35971E+06     5.84648E+06     17.6980E+06     49.0934E+03
             770     43.8716E-03     10.8030E-03     42.5208E-03     528.475E-03    -259.340E-03    -268.962E-03    -255.034E-03     514.546E-03    -259.340E-03     208.056E-03     673.445E-03     21.6528E+06     16.1479E+06     8.06191E+06    -8.06172E+06    -5.74738E+06     5.74757E+06     16.1479E+06     288.494E+03
             771     43.4320E-03     10.0307E-03     42.2578E-03     522.162E-03    -259.935E-03    -263.223E-03    -252.531E-03     511.469E-03    -259.935E-03     181.958E-03     659.076E-03     20.6332E+06     14.7690E+06     5.26528E+06    -8.48925E+06    -7.18691E+06     3.96295E+06     14.7690E+06     936.179E+03
             772     43.0262E-03     9.25920E-03     42.0181E-03     520.298E-03    -260.153E-03    -260.684E-03    -251.714E-03     511.328E-03    -260.153E-03     166.100E-03     653.221E-03     21.9800E+06     15.2391E+06     4.85542E+06    -9.56807E+06    -8.49448E+06     3.78183E+06     15.2391E+06     403.955E+03
             773     42.6763E-03     8.48617E-03     41.8240E-03     518.158E-03    -259.112E-03    -259.513E-03    -252.401E-03     511.415E-03    -259.482E-03     143.673E-03     641.225E-03     24.2574E+06     14.5176E+06     2.84988E+06    -12.8253E+06    -11.0745E+06     1.09911E+06     14.5176E+06     -145.93E+03
             774     42.3717E-03     7.71674E-03     41.6631E-03     515.631E-03    -256.718E-03    -259.061E-03    -252.063E-03     510.976E-03    -259.061E-03     118.895E-03     626.145E-03     25.0027E+06     12.4359E+06     823.910E+03    -15.4419E+06    -13.8591E+06    -758.812E+03     12.4359E+06     255.789E+03
             775     42.1263E-03     6.94435E-03     41.5500E-03     514.157E-03    -255.185E-03    -259.439E-03    -252.354E-03     511.326E-03    -259.439E-03     92.0834E-03     609.578E-03     24.1989E+06     9.99590E+06    -1.20369E+06    -17.2429E+06    -15.9005E+06    -2.54607E+06     9.99590E+06    -120.503E+03
             776     41.9309E-03     6.16816E-03     41.4748E-03     513.631E-03    -255.046E-03    -260.103E-03    -253.521E-03     512.107E-03    -260.103E-03     67.5858E-03     591.407E-03     22.6783E+06     6.33408E+06    -5.13437E+06    -19.5645E+06    -18.3639E+06    -6.33495E+06     6.33408E+06    -943.054E+03
             777     41.7834E-03     5.39700E-03     41.4333E-03     514.880E-03    -255.213E-03    -260.354E-03    -254.452E-03     514.120E-03    -260.354E-03     47.3432E-03     575.202E-03     21.5688E+06     2.80434E+06    -8.67474E+06    -21.9417E+06    -21.1475E+06    -9.46898E+06     2.80434E+06    -513.363E+03
             778     41.6777E-03     4.62627E-03     41.4201E-03     517.011E-03    -256.107E-03    -260.249E-03    -255.800E-03     516.704E-03    -260.249E-03     29.8156E-03     561.220E-03     20.0098E+06    -2.48848E+06    -13.0170E+06    -25.4530E+06    -24.8009E+06    -13.6692E+06    -2.48848E+06     146.086E+03
             779     41.6119E-03     3.85308E-03     41.4331E-03     518.384E-03    -257.643E-03    -260.334E-03    -257.540E-03     518.282E-03    -260.334E-03     17.0490E-03     550.119E-03     16.4944E+06    -9.59963E+06    -18.4430E+06    -28.5103E+06    -28.2710E+06    -18.6824E+06    -9.59963E+06     378.650E+03
             780     41.5719E-03     3.08177E-03     41.4575E-03     518.938E-03    -259.181E-03    -260.406E-03    -259.156E-03     518.913E-03    -260.406E-03     7.58957E-03     541.392E-03     12.2503E+06    -18.0629E+06    -25.0245E+06    -32.1797E+06    -31.9674E+06    -25.2367E+06    -18.0629E+06     230.956E+03
             781     41.5621E-03     2.31185E-03     41.4978E-03     519.453E-03    -259.567E-03    -260.408E-03    -259.707E-03     519.451E-03    -260.265E-03     1.00380E-03     532.993E-03     8.39234E+06    -26.7398E+06    -31.1522E+06    -36.3139E+06    -35.9678E+06    -31.4983E+06    -26.7398E+06     151.777E+03
             782     41.5619E-03     1.54173E-03     41.5333E-03     519.701E-03    -259.486E-03    -260.415E-03    -259.678E-03     519.699E-03    -260.222E-03    -1.93713E-03     525.821E-03     5.98676E+06    -33.4602E+06    -36.1070E+06    -40.1701E+06    -38.8805E+06    -36.8033E+06    -34.0535E+06     346.382E+03
             783     41.5653E-03     771.145E-06     41.5581E-03     520.529E-03    -259.689E-03    -261.006E-03    -260.655E-03     520.526E-03    -260.036E-03    -2.39706E-03     522.495E-03     4.82716E+06    -39.0600E+06    -40.8672E+06    -44.4336E+06    -41.6733E+06    -42.4436E+06    -40.2440E+06     423.054E+03
             784     43.9933E-03     13.1180E-03     41.9920E-03     544.581E-03    -259.739E-03    -284.939E-03    -265.597E-03     525.239E-03    -259.739E-03     236.811E-03     687.824E-03     25.1806E+06     21.7262E+06     11.2424E+06    -6.62286E+06    -2.25821E+06     6.87779E+06     21.7262E+06    -556.143E+03
             785     43.2621E-03     12.3416E-03     41.4644E-03     545.003E-03    -259.066E-03    -286.220E-03    -264.348E-03     523.131E-03    -259.066E-03     259.835E-03     708.458E-03     25.8876E+06     19.5018E+06     12.6100E+06    -8.87697E+06    -3.28980E+06     7.02278E+06     19.5018E+06    -631.494E+03
             786     42.7669E-03     11.5734E-03     41.1711E-03     531.762E-03    -259.240E-03    -272.148E-03    -257.821E-03     517.435E-03    -259.240E-03     212.103E-03     675.213E-03     24.0873E+06     17.6550E+06     11.5095E+06    -8.67000E+06    -4.24502E+06     7.08453E+06     17.6550E+06    -24.5089E+03
             787     42.2303E-03     10.8022E-03     40.8254E-03     529.134E-03    -259.363E-03    -269.632E-03    -255.764E-03     515.265E-03    -259.363E-03     207.783E-03     674.816E-03     22.6225E+06     16.6669E+06     8.43704E+06    -8.64589E+06    -5.57009E+06     5.36123E+06     16.6669E+06    -207.364E+03
             788     41.7925E-03     10.0339E-03     40.5701E-03     522.529E-03    -259.862E-03    -263.590E-03    -252.985E-03     511.924E-03    -259.862E-03     181.304E-03     659.996E-03     22.6282E+06     16.1423E+06     5.96724E+06    -9.42998E+06    -7.54995E+06     4.08721E+06     16.1423E+06     87.0108E+03
             789     41.3831E-03     9.25908E-03     40.3340E-03     519.979E-03    -259.655E-03    -260.880E-03    -251.615E-03     511.095E-03    -260.035E-03     165.273E-03     652.281E-03     23.2689E+06     16.2465E+06     4.44677E+06    -9.92305E+06    -8.86346E+06     3.38718E+06     16.2465E+06     324.312E+03
             790     41.0205E-03     8.48770E-03     40.1328E-03     516.575E-03    -257.631E-03    -259.471E-03    -251.024E-03     509.958E-03    -259.462E-03     141.994E-03     639.699E-03     25.2397E+06     15.8723E+06     3.80984E+06    -12.2051E+06    -10.3316E+06     1.93627E+06     15.8723E+06     139.559E+03
             791     40.7189E-03     7.71359E-03     39.9816E-03     514.509E-03    -255.556E-03    -259.099E-03    -250.943E-03     509.895E-03    -259.099E-03     118.345E-03     625.294E-03     25.6810E+06     12.8300E+06     2.77761E+06    -15.6427E+06    -13.0381E+06     172.933E+03     12.8300E+06    -445.061E+03
             792     40.4666E-03     6.94182E-03     39.8668E-03     514.486E-03    -255.487E-03    -259.492E-03    -252.535E-03     511.533E-03    -259.492E-03     94.2059E-03     609.871E-03     23.7762E+06     8.80284E+06    -524.741E+03    -17.8588E+06    -15.4528E+06    -2.93073E+06     8.80284E+06    -795.170E+03
             793     40.2705E-03     6.16871E-03     39.7953E-03     514.566E-03    -255.911E-03    -260.145E-03    -254.298E-03     512.953E-03    -260.145E-03     69.4529E-03     592.001E-03     21.6701E+06     5.04574E+06    -4.96357E+06    -19.5424E+06    -18.3024E+06    -6.20364E+06     5.04574E+06    -749.402E+03
             794     40.1154E-03     5.39752E-03     39.7507E-03     515.329E-03    -255.634E-03    -260.330E-03    -254.846E-03     514.541E-03    -260.330E-03     48.2827E-03     575.199E-03     20.4669E+06     937.579E+03    -9.43303E+06    -22.5318E+06    -21.8954E+06    -10.0694E+06     937.579E+03    -827.293E+03
             795     40.0078E-03     4.62528E-03     39.7395E-03     516.902E-03    -256.093E-03    -260.201E-03    -255.776E-03     516.585E-03    -260.201E-03     30.1387E-03     561.120E-03     19.3519E+06    -3.70684E+06    -14.5800E+06    -26.0017E+06    -25.4283E+06    -15.1533E+06    -3.70684E+06    -276.591E+03
             796     39.9377E-03     3.85412E-03     39.7513E-03     518.467E-03    -257.748E-03    -260.286E-03    -257.656E-03     518.375E-03    -260.286E-03     15.8220E-03     550.191E-03     17.0124E+06    -9.29109E+06    -19.4062E+06    -28.9104E+06    -28.6351E+06    -19.6815E+06    -9.29109E+06     225.654E+03
             797     39.8940E-03     3.08256E-03     39.7748E-03     518.979E-03    -259.281E-03    -260.330E-03    -259.265E-03     518.963E-03    -260.330E-03     5.66704E-03     541.406E-03     13.2674E+06    -16.9762E+06    -24.7763E+06    -32.2788E+06    -32.1796E+06    -24.8755E+06    -16.9762E+06     644.571E+03
             798     39.8750E-03     2.31212E-03     39.8080E-03     519.594E-03    -259.879E-03    -260.278E-03    -260.033E-03     519.593E-03    -260.123E-03    -362.527E-06     533.198E-03     9.31070E+06    -25.3995E+06    -30.9752E+06    -36.1187E+06    -35.8837E+06    -31.2102E+06    -25.3995E+06     589.025E+03
             799     39.8774E-03     1.54236E-03     39.8476E-03     519.703E-03    -259.781E-03    -260.113E-03    -260.112E-03     519.702E-03    -259.781E-03    -1.79510E-03     525.861E-03     6.63419E+06    -32.0213E+06    -34.9499E+06    -39.4536E+06    -38.2614E+06    -35.9621E+06    -32.2014E+06     176.448E+03
             800     39.8815E-03     771.484E-06     39.8740E-03     519.165E-03    -259.386E-03    -260.011E-03    -259.837E-03     519.163E-03    -259.558E-03    -1.51751E-03     521.091E-03     5.45928E+06    -37.8307E+06    -39.5615E+06    -43.8824E+06    -41.3765E+06    -41.2968E+06    -38.6015E+06     382.013E+03
             801     42.3839E-03     13.1139E-03     40.3041E-03     545.106E-03    -259.847E-03    -285.401E-03    -266.269E-03     525.974E-03    -259.847E-03     235.909E-03     687.944E-03     24.9964E+06     23.1936E+06     11.1410E+06    -4.94996E+06    -1.55191E+06     7.74297E+06     23.1936E+06    -125.778E+03
             802     41.6447E-03     12.3467E-03     39.7724E-03     545.601E-03    -259.124E-03    -286.667E-03    -265.060E-03     523.994E-03    -259.124E-03     258.531E-03     708.391E-03     25.4696E+06     20.9795E+06     12.3631E+06    -7.16683E+06    -2.33017E+06     7.52644E+06     20.9795E+06     65.8305E+03
             803     41.1426E-03     11.5737E-03     39.4811E-03     531.690E-03    -259.254E-03    -271.953E-03    -257.706E-03     517.444E-03    -259.254E-03     211.444E-03     674.897E-03     24.3889E+06     18.4603E+06     10.7776E+06    -8.53076E+06    -4.08575E+06     6.33260E+06     18.4603E+06     196.895E+03
             804     40.6066E-03     10.8014E-03     39.1437E-03     528.991E-03    -259.382E-03    -269.487E-03    -255.629E-03     515.134E-03    -259.382E-03     207.672E-03     674.654E-03     24.0294E+06     17.4848E+06      8.7986E+06    -9.26820E+06    -6.49573E+06     6.02613E+06     17.4848E+06    -297.467E+03
             805     40.1579E-03     10.0306E-03     38.8850E-03     523.039E-03    -259.879E-03    -263.968E-03    -253.277E-03     512.348E-03    -259.879E-03     182.151E-03     660.710E-03     25.0564E+06     17.5637E+06     7.52427E+06    -10.7193E+06    -7.57647E+06     4.38146E+06     17.5637E+06    -1.30504E+06
             806     39.7491E-03     9.26343E-03     38.6546E-03     520.329E-03    -259.549E-03    -261.258E-03    -251.675E-03     511.239E-03    -260.042E-03     167.234E-03     653.112E-03     25.7619E+06     16.1481E+06     5.55305E+06    -12.4241E+06    -9.89437E+06     3.02331E+06     16.1481E+06    -562.752E+03
             807     39.3815E-03     8.48824E-03     38.4558E-03     516.186E-03    -257.210E-03    -259.449E-03    -250.398E-03     509.375E-03    -259.449E-03     143.934E-03     639.071E-03     26.4936E+06     14.2908E+06     5.25608E+06    -14.7481E+06    -11.8372E+06     2.34518E+06     14.2908E+06    -576.656E+03
             808     39.0701E-03     7.71347E-03     38.3012E-03     514.444E-03    -255.395E-03    -259.125E-03    -250.820E-03     509.868E-03    -259.125E-03     117.538E-03     624.553E-03     25.5480E+06     11.8682E+06     3.35326E+06    -16.6435E+06    -12.8339E+06    -456.282E+03     11.8682E+06    -1.02392E+06
             809     38.8086E-03     6.94015E-03     38.1830E-03     514.251E-03    -255.188E-03    -259.493E-03    -252.416E-03     511.479E-03    -259.493E-03     91.1606E-03     609.234E-03     23.2701E+06     7.57803E+06    -725.388E+03    -18.5642E+06    -15.9881E+06    -3.30148E+06     7.57803E+06    -576.695E+03
             810     38.5995E-03     6.16547E-03     38.1039E-03     514.034E-03    -255.301E-03    -260.101E-03    -253.786E-03     512.519E-03    -260.101E-03     67.1843E-03     591.220E-03     21.0285E+06     3.96934E+06    -5.22082E+06    -19.9245E+06    -18.6301E+06    -6.51527E+06     3.96934E+06    -629.900E+03
             811     38.4505E-03     5.39593E-03     38.0700E-03     515.344E-03    -255.658E-03    -260.345E-03    -254.909E-03     514.594E-03    -260.345E-03     47.0944E-03     575.130E-03     19.8669E+06     415.398E+03    -10.0276E+06    -22.4598E+06    -21.7236E+06    -10.7638E+06     415.398E+03    -506.339E+03
             812     38.3361E-03     4.62541E-03     38.0560E-03     517.441E-03    -256.636E-03    -260.239E-03    -256.319E-03     517.125E-03    -260.239E-03     30.3473E-03     561.657E-03     19.3175E+06    -3.94995E+06    -14.6167E+06    -26.1959E+06    -25.7354E+06    -15.0772E+06    -3.94995E+06    -620.798E+03
             813     38.2627E-03     3.85506E-03     38.0680E-03     519.003E-03    -258.360E-03    -260.277E-03    -258.255E-03     518.898E-03    -260.277E-03     17.0451E-03     550.684E-03     17.4363E+06    -9.08231E+06    -19.7182E+06    -29.1875E+06    -28.8081E+06    -20.0976E+06    -9.08231E+06    -798.144E+03
             814     38.2142E-03     3.08511E-03     38.0895E-03     518.919E-03    -259.353E-03    -260.232E-03    -259.330E-03     518.896E-03    -260.232E-03     7.34254E-03     541.126E-03     14.2546E+06    -16.2982E+06    -24.9807E+06    -32.7377E+06    -32.4941E+06    -25.2243E+06    -16.2982E+06    -467.607E+03
             815     38.1978E-03     2.31326E-03     38.1277E-03     519.101E-03    -259.605E-03    -259.993E-03    -259.633E-03     519.097E-03    -259.962E-03     835.476E-06     532.405E-03     9.99092E+06    -25.0145E+06    -30.3035E+06    -36.4341E+06    -36.2069E+06    -30.5307E+06    -25.0145E+06    -23.5145E+03
             816     38.1945E-03     1.54204E-03     38.1634E-03     519.367E-03    -259.626E-03    -259.886E-03    -259.782E-03     519.365E-03    -259.728E-03    -2.13648E-03     525.449E-03     6.59733E+06    -33.2847E+06    -35.1051E+06    -40.4879E+06    -38.8354E+06    -36.4692E+06    -33.5731E+06     236.632E+03
             817     38.1982E-03     771.601E-06     38.1904E-03     519.204E-03    -259.470E-03    -259.885E-03    -259.593E-03     519.201E-03    -259.759E-03    -2.25156E-03     521.159E-03     6.84324E+06    -36.6268E+06    -38.9678E+06    -44.1646E+06    -40.1290E+06    -41.2253E+06    -38.4049E+06    -188.190E+03
             818     40.7783E-03     13.1173E-03     38.6109E-03     546.253E-03    -259.846E-03    -286.463E-03    -267.292E-03     527.081E-03    -259.846E-03     236.339E-03     689.291E-03     25.7597E+06     24.6293E+06     11.4306E+06    -4.57096E+06    -772.516E+03     7.63215E+06     24.6293E+06     236.147E+03
             819     40.0368E-03     12.3444E-03     38.0863E-03     546.003E-03    -259.096E-03    -287.071E-03    -265.316E-03     524.248E-03    -259.096E-03     259.722E-03     708.738E-03     26.7796E+06     22.4829E+06     11.9469E+06    -7.51964E+06    -3.23261E+06     7.65988E+06     22.4829E+06     310.092E+03
             820     39.5188E-03     11.5732E-03     37.7862E-03     531.464E-03    -259.225E-03    -271.577E-03    -257.264E-03     517.151E-03    -259.225E-03     211.929E-03     674.411E-03     25.8446E+06     20.7058E+06     10.6118E+06    -8.43425E+06    -4.83858E+06     7.01614E+06     20.7058E+06    -405.854E+03
             821     38.9809E-03     10.8029E-03     37.4540E-03     528.214E-03    -259.365E-03    -268.662E-03    -254.778E-03     514.330E-03    -259.365E-03     207.725E-03     673.691E-03     25.3230E+06     19.8421E+06     9.45380E+06    -8.73086E+06    -5.35105E+06     6.07399E+06     19.8421E+06    -1.09861E+06
             822     38.5280E-03     10.0345E-03     37.1983E-03     522.222E-03    -259.933E-03    -263.286E-03    -252.423E-03     511.360E-03    -259.933E-03     183.411E-03     659.661E-03     26.8945E+06     18.2036E+06     8.65195E+06    -11.7509E+06    -7.71622E+06     4.61727E+06     18.2036E+06    -1.17000E+06
             823     38.1036E-03     9.25665E-03     36.9621E-03     520.476E-03    -260.040E-03    -261.083E-03    -251.838E-03     511.343E-03    -260.153E-03     167.532E-03     653.636E-03     27.8049E+06     16.4052E+06     8.09689E+06    -14.1701E+06    -9.73823E+06     3.66498E+06     16.4052E+06    -1.49967E+06
             824     37.7375E-03     8.48529E-03     36.7712E-03     517.680E-03    -258.638E-03    -259.575E-03    -251.973E-03     510.925E-03    -259.485E-03     143.649E-03     640.525E-03     27.5276E+06     14.1141E+06     6.25519E+06    -16.2651E+06    -11.2939E+06     1.28394E+06     14.1141E+06    -1.31527E+06
             825     37.4161E-03     7.71427E-03     36.6123E-03     515.742E-03    -256.810E-03    -259.064E-03    -252.236E-03     511.168E-03    -259.064E-03     117.712E-03     625.564E-03     26.4041E+06     11.4412E+06     2.85727E+06    -18.0635E+06    -14.2841E+06    -922.145E+03     11.4412E+06    -756.221E+03
             826     37.1561E-03     6.94714E-03     36.5008E-03     514.212E-03    -255.295E-03    -259.355E-03    -252.574E-03     511.491E-03    -259.355E-03     90.2517E-03     609.388E-03     24.0722E+06     8.77497E+06    -748.999E+03    -18.5131E+06    -16.0915E+06    -3.17061E+06     8.77497E+06    -733.089E+03
             827     36.9474E-03     6.16998E-03     36.4286E-03     512.919E-03    -254.330E-03    -259.943E-03    -252.870E-03     511.459E-03    -259.943E-03     65.9886E-03     589.867E-03     21.8739E+06     4.79521E+06    -4.89793E+06    -20.2278E+06    -18.8404E+06    -6.28533E+06     4.79521E+06    -856.449E+03
             828     36.7830E-03     5.39631E-03     36.3850E-03     514.799E-03    -255.182E-03    -260.266E-03    -254.467E-03     514.083E-03    -260.266E-03     45.8203E-03     574.236E-03     20.5166E+06     589.116E+03    -10.0371E+06    -22.9378E+06    -22.2108E+06    -10.7640E+06     589.116E+03    -951.056E+03
             829     36.6696E-03     4.62505E-03     36.3768E-03     517.550E-03    -256.764E-03    -260.184E-03    -256.474E-03     517.259E-03    -260.184E-03     29.1303E-03     561.531E-03     19.0854E+06    -3.71442E+06    -14.5620E+06     -25.621E+06    -25.0287E+06    -15.1543E+06    -3.71442E+06    -1.14847E+06
             830     36.5846E-03     3.85369E-03     36.3811E-03     518.582E-03    -257.962E-03    -260.246E-03    -257.865E-03     518.485E-03    -260.246E-03     16.0967E-03     550.063E-03     17.0359E+06    -10.1918E+06    -19.6908E+06    -29.7593E+06    -29.2342E+06    -20.2159E+06    -10.1918E+06    -1.40232E+06
             831     36.5386E-03     3.08234E-03     36.4084E-03     518.545E-03    -258.946E-03    -260.305E-03    -258.925E-03     518.523E-03    -260.305E-03     7.38086E-03     540.671E-03     13.5516E+06    -17.6029E+06    -25.9566E+06    -33.2322E+06    -32.8683E+06    -26.3205E+06    -17.6029E+06    -1.19262E+06
             832     36.5101E-03     2.31213E-03     36.4368E-03     519.022E-03    -259.428E-03    -260.093E-03    -259.442E-03     519.018E-03    -260.074E-03     1.92826E-03     532.265E-03     9.08148E+06    -25.6766E+06    -31.1110E+06    -35.9989E+06    -35.6888E+06    -31.4211E+06    -25.6766E+06    -679.023E+03
             833     36.5088E-03     1.54236E-03     36.4762E-03     519.575E-03    -259.650E-03    -260.010E-03    -259.667E-03     519.574E-03    -259.992E-03    -1.80078E-03     525.564E-03     6.47871E+06    -33.7833E+06    -35.7040E+06    -40.7126E+06    -39.2046E+06    -37.0766E+06    -33.9187E+06    -29.3336E+03
             834     36.5141E-03     770.827E-06     36.5059E-03     519.985E-03    -259.774E-03    -260.253E-03    -260.057E-03     519.982E-03    -259.968E-03    -2.26573E-03     521.947E-03     6.77739E+06    -38.0815E+06    -40.1188E+06    -45.4386E+06    -40.9385E+06    -42.5816E+06    -40.1188E+06    -153.881E+03
             835     39.1818E-03     13.1144E-03     36.9218E-03     546.004E-03    -259.822E-03    -286.263E-03    -267.037E-03     526.778E-03    -259.822E-03     236.293E-03     689.121E-03     26.9021E+06     25.2523E+06     10.7466E+06    -5.17862E+06    -1.76358E+06     7.33156E+06     25.2523E+06     316.722E+03
             836     38.4344E-03     12.3446E-03     36.3980E-03     545.892E-03    -259.082E-03    -287.050E-03    -265.256E-03     524.098E-03    -259.082E-03     259.709E-03     708.626E-03     27.1650E+06     23.8942E+06     12.3628E+06    -6.53929E+06    -3.02844E+06     8.85196E+06     23.8942E+06    -258.999E+03
             837     37.9188E-03     11.5748E-03     36.1090E-03     530.983E-03    -259.228E-03    -271.233E-03    -256.896E-03     516.646E-03    -259.228E-03     211.900E-03     674.044E-03     26.4734E+06     22.3933E+06     12.1813E+06    -7.56045E+06    -3.33792E+06     7.95876E+06     22.3933E+06    -1.47631E+06
             838     37.3687E-03     10.8032E-03     35.7731E-03     527.664E-03    -259.416E-03    -268.136E-03    -254.173E-03     513.701E-03    -259.416E-03     208.099E-03     673.378E-03     26.8359E+06     19.6093E+06     9.73755E+06    -10.4754E+06    -6.25243E+06     5.51462E+06     19.6093E+06    -1.97609E+06
             839     36.9066E-03     10.0283E-03     35.5180E-03     522.122E-03    -260.005E-03    -263.177E-03    -252.388E-03     511.332E-03    -260.005E-03     182.764E-03     659.554E-03     27.3904E+06     16.7281E+06     8.79748E+06    -13.4522E+06    -8.24099E+06     3.58632E+06     16.7281E+06    -1.81879E+06
             840     36.4748E-03     9.26047E-03     35.2797E-03     520.899E-03    -260.165E-03    -261.408E-03    -252.457E-03     511.948E-03    -260.165E-03     165.949E-03     653.446E-03     28.2061E+06     16.1849E+06     9.02080E+06    -14.6802E+06    -8.95753E+06     3.29812E+06     16.1849E+06    -1.77761E+06
             841     36.0959E-03     8.48874E-03     35.0835E-03     518.313E-03    -259.156E-03    -259.832E-03    -252.854E-03     511.670E-03    -259.491E-03     142.714E-03     641.021E-03     28.9099E+06     14.8477E+06     6.40226E+06    -17.0812E+06    -12.5260E+06     1.84700E+06     14.8477E+06    -1.36947E+06
             842     35.7717E-03     7.71665E-03     34.9295E-03     515.794E-03    -257.040E-03    -259.037E-03    -252.368E-03     511.122E-03    -259.037E-03     119.173E-03     625.749E-03     27.3904E+06     12.7029E+06     2.26069E+06    -18.2382E+06    -15.0775E+06    -900.033E+03     12.7029E+06    -1.36890E+06
             843     35.4947E-03     6.94279E-03     34.8091E-03     514.505E-03    -255.820E-03    -259.290E-03    -252.973E-03     511.657E-03    -259.290E-03     92.3604E-03     609.640E-03     25.1811E+06     9.72361E+06    -1.82673E+06    -19.1570E+06    -16.8360E+06    -4.14776E+06     9.72361E+06    -1.43847E+06
             844     35.2867E-03     6.16914E-03     34.7432E-03     513.788E-03    -255.469E-03    -259.846E-03    -253.954E-03     512.273E-03    -259.846E-03     67.3414E-03     590.652E-03     23.3564E+06     6.08823E+06    -4.99164E+06    -20.6966E+06    -19.1972E+06    -6.49103E+06     6.08823E+06    -1.02179E+06
             845     35.1139E-03     5.39799E-03     34.6965E-03     514.727E-03    -255.364E-03    -260.072E-03    -254.629E-03     513.991E-03    -260.072E-03     46.3982E-03     574.001E-03     21.8091E+06     1.77111E+06    -9.65937E+06    -23.2489E+06    -22.3701E+06    -10.5382E+06     1.77111E+06    -1.25721E+06
             846     34.9899E-03     4.62733E-03     34.6826E-03     516.862E-03    -256.423E-03    -259.911E-03    -256.145E-03     516.584E-03    -259.911E-03     28.2076E-03     560.827E-03     19.7388E+06    -4.32065E+06    -14.7530E+06    -26.9781E+06    -26.2127E+06    -15.5184E+06    -4.32065E+06    -1.32699E+06
             847     34.9087E-03     3.85676E-03     34.6950E-03     518.176E-03    -257.877E-03    -259.941E-03    -257.797E-03     518.095E-03    -259.941E-03     14.6856E-03     549.641E-03     16.1193E+06    -11.5529E+06    -20.1125E+06    -30.0753E+06    -29.5161E+06    -20.6718E+06    -11.5529E+06    -1.16880E+06
             848     34.8587E-03     3.08425E-03     34.7220E-03     518.111E-03    -258.798E-03    -259.983E-03    -258.783E-03     518.097E-03    -259.983E-03     5.03847E-03     540.251E-03     12.7464E+06    -18.9300E+06    -27.0422E+06    -33.6116E+06    -33.1884E+06    -27.4654E+06    -18.9300E+06    -1.29787E+06
             849     34.8281E-03     2.31202E-03     34.7513E-03     518.145E-03    -258.729E-03    -259.846E-03    -258.726E-03     518.141E-03    -259.846E-03    -966.451E-06     531.249E-03     9.68559E+06    -26.1634E+06    -32.6672E+06    -37.2728E+06    -36.7925E+06    -33.1475E+06    -26.1634E+06    -965.747E+03
             850     34.8253E-03     1.54024E-03     34.7912E-03     519.080E-03    -259.141E-03    -260.016E-03    -259.136E-03     519.075E-03    -260.016E-03    -3.32589E-03     525.006E-03     6.65283E+06    -33.8306E+06    -37.0755E+06    -41.2577E+06    -39.8089E+06    -38.4972E+06    -33.8577E+06    -491.828E+03
             851     34.8304E-03     770.469E-06     34.8219E-03     520.307E-03    -259.377E-03    -260.991E-03    -260.758E-03     520.303E-03    -259.606E-03    -3.33314E-03     522.301E-03     5.51520E+06    -39.6099E+06    -41.5647E+06    -45.6976E+06    -42.0228E+06    -43.8250E+06    -41.0243E+06     46.1676E+03
             852     37.6053E-03     13.1162E-03     35.2437E-03     546.318E-03    -259.810E-03    -286.420E-03    -267.346E-03     527.243E-03    -259.810E-03     235.562E-03     688.896E-03     28.3418E+06     27.0603E+06     12.0902E+06    -4.78563E+06    -2.07390E+06     9.37845E+06     27.0603E+06    -14.9234E+03
             853     36.8464E-03     12.3461E-03     34.7165E-03     544.904E-03    -259.071E-03    -285.802E-03    -264.218E-03     523.321E-03    -259.071E-03     258.196E-03     707.242E-03     28.2751E+06     23.9972E+06     13.2456E+06    -7.39125E+06    -3.03619E+06     8.89050E+06     23.9972E+06    -934.508E+03
             854     36.3187E-03     11.5741E-03     34.4252E-03     529.800E-03    -259.249E-03    -269.877E-03    -255.491E-03     515.413E-03    -259.249E-03     211.833E-03     672.821E-03     27.4180E+06     20.2715E+06     11.8471E+06    -10.1245E+06    -5.02330E+06     6.74589E+06     20.2715E+06    -2.02756E+06
             855     35.7579E-03     10.8001E-03     34.0879E-03     528.532E-03    -259.456E-03    -268.791E-03    -254.823E-03     514.564E-03    -259.456E-03     208.152E-03     673.695E-03     26.5560E+06     17.7986E+06     10.1647E+06    -11.3933E+06    -6.38940E+06     5.16090E+06     17.7986E+06    -1.79401E+06
             856     35.2853E-03     10.0325E-03     33.8290E-03     522.984E-03    -259.997E-03    -263.813E-03    -253.225E-03     512.396E-03    -259.997E-03     181.267E-03     659.938E-03     28.5739E+06     17.2931E+06     10.1102E+06    -13.9648E+06    -8.05295E+06     4.19831E+06     17.2931E+06    -1.90415E+06
             857     34.8424E-03     9.25846E-03     33.5898E-03     520.671E-03    -259.943E-03    -261.276E-03    -252.046E-03     511.650E-03    -260.152E-03     166.699E-03     652.831E-03     30.6235E+06     16.7818E+06     9.56484E+06    -16.5737E+06    -10.6640E+06     3.65512E+06     16.7818E+06    -2.46681E+06
             858     34.4526E-03     8.48596E-03     33.3912E-03     518.328E-03    -259.053E-03    -259.770E-03    -252.530E-03     511.555E-03    -259.520E-03     143.931E-03     640.817E-03     28.9798E+06      15.368E+06     5.76607E+06    -16.9661E+06    -12.3542E+06     1.15408E+06      15.368E+06    -2.47782E+06
             859     34.1181E-03     7.71342E-03     33.2347E-03     516.070E-03    -257.316E-03    -259.044E-03    -252.766E-03     511.520E-03    -259.044E-03     117.509E-03     626.150E-03     26.9177E+06     13.0033E+06     1.83547E+06    -17.6857E+06    -14.6783E+06    -1.17197E+06     13.0033E+06    -2.24828E+06
             860     33.8403E-03     6.94462E-03     33.1201E-03     514.522E-03    -256.031E-03    -259.226E-03    -253.327E-03     511.818E-03    -259.226E-03     90.0269E-03     609.291E-03     25.3195E+06     9.24433E+06    -2.99178E+06    -19.7215E+06    -17.5799E+06    -5.13338E+06     9.24433E+06    -2.38785E+06
             861     33.6154E-03     6.16943E-03     33.0444E-03     514.063E-03    -255.849E-03    -259.721E-03    -254.400E-03     512.614E-03    -259.721E-03     65.9710E-03     591.134E-03     23.5961E+06     5.48294E+06    -7.16544E+06    -21.6444E+06    -20.2214E+06    -8.58840E+06     5.48294E+06    -1.97870E+06
             862     33.4483E-03     5.40021E-03     33.0095E-03     514.983E-03    -255.768E-03    -259.919E-03    -255.028E-03     514.243E-03    -259.919E-03     46.8517E-03     574.768E-03     22.2867E+06     1.87819E+06    -10.3403E+06    -23.7225E+06    -22.6840E+06    -11.3788E+06     1.87819E+06    -1.53115E+06
             863     33.3186E-03     4.62836E-03     32.9956E-03     516.696E-03    -256.471E-03    -259.740E-03    -256.176E-03     516.401E-03    -259.740E-03     28.8377E-03     560.524E-03     20.6574E+06    -3.00956E+06    -15.3148E+06    -26.7732E+06    -26.0547E+06    -16.0334E+06    -3.00956E+06    -1.22994E+06
             864     33.2351E-03     3.85587E-03     33.0106E-03     518.078E-03    -258.126E-03    -259.699E-03    -258.045E-03     517.997E-03    -259.699E-03     15.1295E-03     549.477E-03     18.0588E+06    -9.80860E+06    -20.8960E+06    -30.6294E+06    -30.1087E+06    -21.4168E+06    -9.80860E+06    -916.713E+03
             865     33.1762E-03     3.08695E-03     33.0322E-03     517.936E-03    -259.085E-03    -259.605E-03    -259.066E-03     517.917E-03    -259.605E-03     5.93974E-03     540.086E-03     13.9690E+06    -18.1259E+06    -27.3157E+06    -34.1924E+06    -33.8918E+06    -27.6163E+06    -18.1259E+06    -953.979E+03
             866     33.1515E-03     2.31658E-03     33.0705E-03     517.632E-03    -258.615E-03    -259.533E-03    -258.834E-03     517.628E-03    -259.309E-03    -770.727E-06     530.632E-03     9.72039E+06    -27.4084E+06    -34.1072E+06    -38.5215E+06    -38.1421E+06    -34.4865E+06    -27.4084E+06    -1.08512E+06
             867     33.1396E-03     1.54334E-03     33.1036E-03     517.757E-03    -258.466E-03    -259.476E-03    -258.683E-03     517.751E-03    -259.252E-03    -4.15301E-03     523.501E-03     7.21010E+06    -35.0238E+06    -38.5325E+06    -43.0800E+06    -41.0842E+06    -40.2370E+06    -35.3149E+06    -1.23951E+06
             868     33.1405E-03     771.005E-06     33.1315E-03     518.592E-03    -258.106E-03    -260.564E-03    -260.254E-03     518.585E-03    -258.409E-03    -4.23547E-03     520.437E-03     7.28548E+06    -39.7598E+06    -43.4634E+06    -47.9085E+06    -44.2732E+06    -45.8324E+06    -41.0260E+06    -629.315E+03
             869     36.0289E-03     13.1169E-03     33.5563E-03     546.425E-03    -259.793E-03    -286.467E-03    -267.049E-03     527.007E-03    -259.793E-03     237.587E-03     689.348E-03     28.2219E+06     26.5251E+06     14.4678E+06    -5.22377E+06    -940.034E+03     10.1841E+06     26.5251E+06    -573.951E+03
             870     35.2725E-03     12.3476E-03     33.0406E-03     544.959E-03    -259.063E-03    -285.941E-03    -263.989E-03     523.006E-03    -259.063E-03     260.275E-03     707.714E-03     28.6890E+06     22.4509E+06     14.6498E+06    -9.15215E+06    -3.58960E+06     9.08721E+06     22.4509E+06    -1.92510E+06
             871     34.7345E-03     11.5723E-03     32.7500E-03     530.695E-03    -259.242E-03    -270.957E-03    -256.540E-03     516.277E-03    -259.242E-03     212.423E-03     673.367E-03     27.3879E+06     19.3319E+06     11.4068E+06    -10.6231E+06    -5.70783E+06     6.49154E+06     19.3319E+06    -1.40468E+06
             872     34.1501E-03     10.8012E-03     32.3970E-03     528.993E-03    -259.425E-03    -269.364E-03    -255.477E-03     515.105E-03    -259.425E-03     207.738E-03     673.688E-03     27.6971E+06     17.9421E+06     10.2246E+06    -12.1399E+06    -7.39266E+06     5.47734E+06     17.9421E+06    -1.54225E+06
             873     33.6687E-03     10.0317E-03     32.1395E-03     522.947E-03    -259.892E-03    -263.808E-03    -253.256E-03     512.395E-03    -259.892E-03     180.950E-03     659.888E-03     30.6475E+06     18.3185E+06     11.7519E+06    -14.8240E+06    -8.10318E+06     5.03106E+06     18.3185E+06    -2.40386E+06
             874     33.2248E-03     9.26059E-03     31.9082E-03     520.900E-03    -259.812E-03    -261.555E-03    -252.475E-03     512.029E-03    -260.021E-03     165.293E-03     653.335E-03     31.7534E+06     17.2836E+06     9.98614E+06    -17.2874E+06    -10.5212E+06     3.21988E+06     17.2836E+06    -2.73080E+06
             875     32.8188E-03     8.48648E-03     31.7025E-03     517.916E-03    -258.442E-03    -259.769E-03    -252.490E-03     511.472E-03    -259.278E-03     140.233E-03     640.163E-03     30.0953E+06     15.3688E+06     6.66086E+06    -17.9607E+06    -12.7951E+06     1.49532E+06     15.3688E+06    -3.22092E+06
             876     32.4779E-03     7.71708E-03     31.5477E-03     515.340E-03    -256.668E-03    -258.735E-03    -252.345E-03     511.017E-03    -258.735E-03     114.634E-03     625.217E-03     26.8182E+06     12.0223E+06     1.32743E+06    -18.3309E+06    -14.8748E+06    -2.12869E+06     12.0223E+06    -3.44389E+06
             877     32.1933E-03     6.94674E-03     31.4349E-03     514.218E-03    -255.912E-03    -258.969E-03    -253.224E-03     511.530E-03    -258.969E-03     89.8595E-03     609.159E-03     24.4863E+06     7.98725E+06    -4.19303E+06    -19.9897E+06    -17.8266E+06    -6.35613E+06     7.98725E+06    -3.04717E+06
             878     31.9646E-03     6.17158E-03     31.3631E-03     513.417E-03    -255.475E-03    -259.511E-03    -254.040E-03     511.983E-03    -259.511E-03     65.3981E-03     590.530E-03     23.4427E+06     4.35098E+06    -8.56956E+06    -22.3936E+06    -20.9390E+06    -10.0242E+06     4.35098E+06    -3.10523E+06
             879     31.7826E-03     5.39904E-03     31.3207E-03     514.193E-03    -255.188E-03    -259.746E-03    -254.493E-03     513.498E-03    -259.746E-03     45.3062E-03     574.062E-03     22.2025E+06     526.373E+03    -12.9277E+06    -24.8930E+06    -23.9636E+06    -13.8571E+06     526.373E+03    -2.36923E+06
             880     31.6540E-03     4.62882E-03     31.3138E-03     516.392E-03    -256.244E-03    -259.596E-03    -255.947E-03     516.095E-03    -259.596E-03     29.3226E-03     560.167E-03     20.8594E+06    -3.70730E+06    -17.0988E+06    -27.6842E+06    -26.9859E+06    -17.7971E+06    -3.70730E+06    -1.86031E+06
             881     31.5568E-03     3.85897E-03     31.3199E-03     517.773E-03    -257.963E-03    -259.581E-03    -257.866E-03     517.676E-03    -259.581E-03     15.9849E-03     549.114E-03     18.9010E+06    -9.67620E+06    -22.2367E+06    -31.4066E+06    -30.9994E+06    -22.6439E+06    -9.67620E+06    -1.46997E+06
             882     31.4980E-03     3.08587E-03     31.3465E-03     517.510E-03    -258.820E-03    -259.463E-03    -258.803E-03     517.493E-03    -259.463E-03     6.37675E-03     539.537E-03     14.8364E+06    -18.3526E+06    -28.5088E+06    -35.3701E+06    -35.2243E+06    -28.6545E+06    -18.3526E+06    -405.035E+03
             883     31.4635E-03     2.31375E-03     31.3784E-03     517.545E-03    -258.729E-03    -259.342E-03    -258.951E-03     517.543E-03    -259.119E-03     806.600E-06     530.476E-03     9.40423E+06    -27.7026E+06    -34.8150E+06    -38.3310E+06    -38.2134E+06    -34.9326E+06    -27.7026E+06    -293.689E+03
             884     31.4542E-03     1.54566E-03     31.4162E-03     517.490E-03    -258.586E-03    -259.115E-03    -258.810E-03     517.487E-03    -258.888E-03    -1.67582E-03     523.200E-03     7.08890E+06    -36.0874E+06    -39.4736E+06    -43.7818E+06    -41.6643E+06    -41.3000E+06    -36.3786E+06    -595.584E+03
             885     31.4568E-03     772.888E-06     31.4473E-03     517.609E-03    -257.391E-03    -260.246E-03    -258.443E-03     517.604E-03    -259.189E-03    -883.585E-06     519.334E-03     9.94524E+06    -39.1483E+06    -45.0774E+06      -49.89E+06    -43.5606E+06    -47.1069E+06    -43.4483E+06    -605.535E+03
             886     34.4674E-03     13.1171E-03     31.8739E-03     545.349E-03    -259.929E-03    -285.574E-03    -265.980E-03     525.755E-03    -259.929E-03     238.482E-03     688.463E-03     30.5193E+06     27.0682E+06     16.2672E+06    -7.04149E+06    -1.95303E+06     11.1787E+06     27.0682E+06    -729.841E+03
             887     33.6879E-03     12.3389E-03     31.3469E-03     546.076E-03    -259.168E-03    -287.374E-03    -265.342E-03     524.045E-03    -259.168E-03     260.798E-03     708.761E-03     29.1275E+06     24.4319E+06     16.1743E+06    -7.49832E+06    -2.89564E+06     11.5716E+06     24.4319E+06    -319.463E+03
             888     33.1412E-03     11.5733E-03     31.0547E-03     532.757E-03    -259.257E-03    -273.397E-03    -259.144E-03     518.503E-03    -259.257E-03     211.837E-03     675.893E-03     28.4571E+06     22.2885E+06     13.1368E+06    -8.92806E+06    -5.35651E+06     9.56529E+06     22.2885E+06    -1.04105E+06
             889     32.5572E-03     10.8042E-03     30.7122E-03     528.976E-03    -259.380E-03    -269.581E-03    -255.949E-03     515.343E-03    -259.380E-03     205.853E-03     674.138E-03     30.1952E+06     20.6617E+06     12.1377E+06    -12.1739E+06    -6.88019E+06     6.84397E+06     20.6617E+06    -2.18658E+06
             890     32.0618E-03     10.0311E-03     30.4522E-03     522.629E-03    -259.762E-03    -263.498E-03    -253.077E-03     512.208E-03    -259.762E-03     179.789E-03     659.419E-03     32.4010E+06     18.2311E+06     11.6087E+06    -16.5921E+06    -9.20903E+06     4.22567E+06     18.2311E+06    -2.43423E+06
             891     31.5983E-03     9.26046E-03     30.2108E-03     521.700E-03    -259.762E-03    -262.208E-03    -253.382E-03     512.874E-03    -259.762E-03     165.008E-03     653.898E-03     32.1510E+06     15.7929E+06     10.8849E+06    -18.4097E+06    -11.0850E+06     3.56022E+06     15.7929E+06    -3.02788E+06
             892     31.1923E-03     8.49431E-03     30.0135E-03     517.521E-03    -258.147E-03    -259.794E-03    -252.576E-03     511.058E-03    -258.902E-03     140.565E-03     639.614E-03     29.7597E+06     13.0552E+06     6.42254E+06    -19.3656E+06    -13.5682E+06     625.115E+03     13.0552E+06    -3.52692E+06
             893     30.8465E-03     7.71834E-03     29.8653E-03     514.435E-03    -256.019E-03    -258.373E-03    -251.598E-03     510.014E-03    -258.373E-03     115.717E-03     623.804E-03     27.3008E+06     10.5820E+06     178.542E+03    -20.2176E+06    -16.5095E+06    -3.52955E+06     10.5820E+06    -3.43702E+06
             894     30.5490E-03     6.94562E-03     29.7489E-03     513.792E-03    -255.484E-03    -258.718E-03    -252.793E-03     511.101E-03    -258.718E-03     89.7591E-03     608.362E-03     25.0100E+06     7.31670E+06    -4.95733E+06    -21.1679E+06    -18.8993E+06    -7.22598E+06     7.31670E+06    -3.42543E+06
             895     30.3137E-03     6.17295E-03     29.6785E-03     513.082E-03    -255.289E-03    -259.339E-03    -253.860E-03     511.653E-03    -259.339E-03     65.3393E-03     590.297E-03     22.9080E+06     2.82723E+06    -9.99738E+06    -23.2737E+06    -21.8664E+06    -11.4046E+06     2.82723E+06    -3.12142E+06
             896     30.1328E-03     5.40269E-03     29.6445E-03     513.759E-03    -254.942E-03    -259.499E-03    -254.252E-03     513.069E-03    -259.499E-03     44.9263E-03     573.460E-03     21.6872E+06    -1.85373E+06    -14.5226E+06    -26.7303E+06    -25.7485E+06    -15.5044E+06    -1.85373E+06    -3.15390E+06
             897     29.9920E-03     4.62907E-03     29.6327E-03     515.413E-03    -255.483E-03    -259.330E-03    -255.203E-03     515.132E-03    -259.330E-03     28.6012E-03     558.994E-03     19.6295E+06    -6.87590E+06    -18.8850E+06    -29.4927E+06    -28.7723E+06    -19.6053E+06    -6.87590E+06    -2.56331E+06
             898     29.8892E-03     3.85612E-03     29.6394E-03     517.007E-03    -257.184E-03    -259.427E-03    -257.088E-03     516.911E-03    -259.427E-03     15.9358E-03     548.230E-03     15.9940E+06    -14.1596E+06    -24.3427E+06    -32.5545E+06    -32.1612E+06    -24.7360E+06    -14.1596E+06    -1.67524E+06
             899     29.8274E-03     3.08692E-03     29.6673E-03     517.361E-03    -258.542E-03    -259.389E-03    -258.525E-03     517.344E-03    -259.389E-03     6.30043E-03     539.255E-03     12.7021E+06    -21.8681E+06    -30.1200E+06    -36.4483E+06    -36.0686E+06    -30.4996E+06    -21.8681E+06    -1.05970E+06
             900     29.7900E-03     2.31614E-03     29.6998E-03     517.125E-03    -258.361E-03    -259.182E-03    -258.359E-03     517.123E-03    -259.182E-03     424.262E-06     529.941E-03     9.38023E+06    -29.1909E+06    -36.3528E+06    -39.7357E+06    -39.4933E+06    -36.5952E+06    -29.1909E+06    -368.566E+03
             901     29.7789E-03     1.54076E-03     29.7390E-03     517.813E-03    -258.669E-03    -259.267E-03    -258.670E-03     517.811E-03    -259.263E-03    -1.87264E-03     523.571E-03     6.82391E+06    -36.8791E+06    -40.4045E+06    -44.1896E+06    -42.1628E+06    -42.3412E+06    -36.9691E+06     8.08218E+03
             902     29.7772E-03     770.749E-06     29.7672E-03     518.703E-03    -258.163E-03    -260.682E-03    -258.157E-03     518.694E-03    -260.679E-03    -1.77633E-03     520.593E-03     9.99170E+06    -38.5879E+06    -44.3589E+06    -49.4219E+06    -42.9884E+06    -46.6937E+06    -42.6867E+06     78.4149E+03
             903     32.9109E-03     13.1103E-03     30.1868E-03     546.422E-03    -260.007E-03    -286.642E-03    -267.515E-03     527.296E-03    -260.007E-03     236.558E-03     688.988E-03     32.1331E+06     28.8910E+06     16.5108E+06    -7.15535E+06    -2.39743E+06     11.7529E+06     28.8910E+06    -980.677E+03
             904     32.1237E-03     12.3457E-03     29.6567E-03     546.576E-03    -259.195E-03    -287.723E-03    -266.304E-03     525.156E-03    -259.195E-03     257.568E-03     708.586E-03     31.4947E+06     26.8335E+06     16.6733E+06    -7.95946E+06    -4.05266E+06     12.7665E+06     26.8335E+06    -1.27441E+06
             905     31.5579E-03     11.5735E-03     29.3591E-03     532.234E-03    -259.248E-03    -272.549E-03    -258.404E-03     518.089E-03    -259.248E-03     210.751E-03     675.144E-03     29.4361E+06     23.6439E+06     13.8923E+06    -8.79653E+06    -5.15319E+06     10.2490E+06     23.6439E+06    -1.75208E+06
             906     30.9682E-03     10.8036E-03     29.0226E-03     529.896E-03    -259.255E-03    -270.355E-03    -256.716E-03     516.256E-03    -259.255E-03     206.052E-03     675.061E-03     31.4407E+06     21.1332E+06     12.8504E+06    -12.8474E+06    -7.18751E+06     7.67013E+06     20.6536E+06    -2.20532E+06
             907     30.4722E-03     10.0356E-03     28.7722E-03     523.642E-03    -259.537E-03    -264.539E-03    -254.104E-03     513.208E-03    -259.537E-03     180.154E-03     659.884E-03     33.4666E+06     18.4822E+06     12.9695E+06    -17.0333E+06    -9.60160E+06     6.01740E+06     18.0027E+06    -2.88763E+06
             908     29.9889E-03     9.26531E-03     28.5217E-03     520.425E-03    -259.117E-03    -261.571E-03    -252.262E-03     511.562E-03    -259.563E-03     165.089E-03     651.836E-03     32.3895E+06     15.3940E+06     10.4403E+06    -19.1246E+06    -11.4653E+06     2.78094E+06     15.3940E+06    -2.85506E+06
             909     29.5763E-03     8.48947E-03     28.3318E-03     517.132E-03    -258.156E-03    -259.250E-03    -252.001E-03     510.576E-03    -258.849E-03     141.583E-03     638.796E-03     29.6592E+06     12.4937E+06     5.20582E+06    -20.0723E+06    -13.9589E+06    -907.578E+03     12.4937E+06    -2.85601E+06
             910     29.2158E-03     7.71942E-03     28.1776E-03     515.245E-03    -256.709E-03    -258.379E-03    -252.189E-03     510.725E-03    -258.379E-03     117.047E-03     624.430E-03     26.6694E+06     9.38925E+06    -407.458E+03    -20.6611E+06    -16.7535E+06    -4.31506E+06     9.38925E+06    -3.00794E+06
             911     28.9097E-03     6.94998E-03     28.0619E-03     513.399E-03    -255.107E-03    -258.619E-03    -252.398E-03     510.690E-03    -258.619E-03     90.0611E-03     607.655E-03     24.6525E+06     5.52785E+06    -5.97266E+06    -22.4605E+06    -20.0513E+06    -8.38183E+06     5.52785E+06    -3.08189E+06
             912     28.6635E-03     6.17171E-03     27.9911E-03     512.485E-03    -254.608E-03    -259.184E-03    -253.156E-03     511.033E-03    -259.184E-03     65.8023E-03     589.095E-03     22.2082E+06     629.576E+03    -11.3200E+06    -24.5950E+06    -23.2378E+06    -12.6771E+06     629.576E+03    -3.02393E+06
             913     28.4682E-03     5.40036E-03     27.9513E-03     513.972E-03    -255.192E-03    -259.358E-03    -254.476E-03     513.256E-03    -259.358E-03     45.9482E-03     573.236E-03     19.0661E+06    -4.40299E+06    -15.7539E+06    -26.2663E+06    -25.5962E+06    -16.4240E+06    -4.40299E+06    -2.33644E+06
             914     28.3262E-03     4.63242E-03     27.9448E-03     515.840E-03    -256.073E-03    -259.157E-03    -255.788E-03     515.554E-03    -259.157E-03     28.5399E-03     559.245E-03     17.1453E+06    -10.1418E+06    -21.1875E+06    -29.8533E+06    -29.4007E+06    -21.6400E+06    -10.1418E+06    -1.89982E+06
             915     28.2170E-03     3.85913E-03     27.9518E-03     516.504E-03    -256.814E-03    -259.197E-03    -256.733E-03     516.423E-03    -259.197E-03     14.6528E-03     547.348E-03     15.1199E+06    -16.2584E+06    -26.2523E+06    -33.5751E+06    -32.9572E+06    -26.8701E+06    -16.2584E+06    -1.83975E+06
             916     28.1427E-03     3.08491E-03     27.9731E-03     516.520E-03    -257.814E-03    -259.244E-03    -257.799E-03     516.505E-03    -259.244E-03     4.69952E-03     538.370E-03     11.6492E+06    -23.5619E+06    -31.3214E+06    -36.8895E+06    -36.0599E+06    -32.1509E+06    -23.5619E+06    -1.78149E+06
             917     28.1076E-03     2.31334E-03     28.0123E-03     516.992E-03    -258.323E-03    -259.246E-03    -258.426E-03     516.990E-03    -259.140E-03    -719.791E-06     530.131E-03     8.80684E+06    -30.8414E+06    -36.7228E+06    -40.7527E+06    -39.2532E+06    -38.2223E+06    -30.8414E+06    -1.46991E+06
             918     28.0909E-03     1.54406E-03     28.0484E-03     517.794E-03    -258.699E-03    -259.280E-03    -258.801E-03     517.791E-03    -259.174E-03    -2.96553E-03     523.613E-03     7.33785E+06    -36.5746E+06    -40.0698E+06    -44.6552E+06    -41.7443E+06    -42.8908E+06    -36.6646E+06    -658.899E+03
             919     28.0892E-03     771.561E-06     28.0786E-03     518.490E-03    -257.965E-03    -260.724E-03    -259.815E-03     518.481E-03    -258.867E-03    -4.10896E-03     520.383E-03     9.90135E+06    -38.9305E+06    -44.4053E+06    -50.1144E+06    -43.9777E+06    -47.9971E+06    -41.4753E+06    -135.412E+03
             920     31.3633E-03     13.1164E-03     28.4889E-03     547.992E-03    -259.880E-03    -288.109E-03    -269.050E-03     528.932E-03    -259.880E-03     236.318E-03     690.922E-03     32.7609E+06     32.1554E+06     17.7927E+06    -5.09456E+06    -1.04807E+06     13.7462E+06     32.1554E+06    -1.01295E+06
             921     30.5706E-03     12.3453E-03     27.9670E-03     546.689E-03    -259.073E-03    -287.879E-03    -266.329E-03     525.139E-03    -259.073E-03     258.740E-03     709.410E-03     31.0363E+06     27.6147E+06     15.1261E+06    -6.97406E+06    -3.57838E+06     11.7304E+06     27.6147E+06    -895.040E+03
             922     30.0021E-03     11.5766E-03     27.6786E-03     531.780E-03    -259.197E-03    -272.162E-03    -257.896E-03     517.515E-03    -259.197E-03     211.644E-03     674.018E-03     30.1578E+06     22.7364E+06     12.6964E+06    -9.86166E+06    -6.60595E+06     9.44072E+06     22.7364E+06    -1.39298E+06
             923     29.3868E-03     10.8017E-03     27.3296E-03     529.441E-03    -259.195E-03    -270.142E-03    -256.301E-03     515.600E-03    -259.195E-03     207.668E-03     673.547E-03     31.6546E+06     20.5116E+06     14.2824E+06    -13.0347E+06    -8.01370E+06     9.74095E+06     20.0320E+06    -2.89827E+06
             924     28.8741E-03     10.0364E-03     27.0737E-03     524.253E-03    -259.503E-03    -265.332E-03    -254.612E-03     513.534E-03    -259.503E-03     182.687E-03     660.672E-03     32.3102E+06     17.3430E+06     13.1432E+06    -16.7023E+06    -9.78792E+06     6.70841E+06     16.8634E+06    -2.83587E+06
             925     28.3986E-03     9.26535E-03     26.8446E-03     521.043E-03    -259.089E-03    -262.291E-03    -252.955E-03     512.154E-03    -259.535E-03     165.446E-03     652.509E-03     32.7593E+06     13.8300E+06     9.75294E+06    -20.6825E+06    -12.9694E+06     2.03984E+06     13.8300E+06    -3.01535E+06
             926     27.9646E-03     8.49279E-03     26.6438E-03     517.174E-03    -257.858E-03    -259.507E-03    -252.085E-03     510.729E-03    -258.835E-03     140.308E-03     637.953E-03     30.3113E+06     11.1787E+06     4.46300E+06    -21.7487E+06    -15.3477E+06    -1.93805E+06     11.1787E+06    -2.86132E+06
             927     27.5936E-03     7.71940E-03     26.4918E-03     514.845E-03    -256.171E-03    -258.351E-03    -251.802E-03     510.476E-03    -258.351E-03     115.016E-03     623.289E-03     26.0479E+06     7.29572E+06    -1.05952E+06    -21.6254E+06    -17.7352E+06    -4.94973E+06     7.29572E+06    -2.35866E+06
             928     27.2831E-03     6.94655E-03     26.3840E-03     513.203E-03    -254.905E-03    -258.470E-03    -252.273E-03     510.571E-03    -258.470E-03     88.7423E-03     606.780E-03     22.4089E+06     2.11637E+06    -6.28942E+06    -22.8790E+06    -20.6964E+06    -8.47203E+06     2.11637E+06    -2.57871E+06
             929     27.0296E-03     6.17379E-03     26.3151E-03     512.485E-03    -254.642E-03    -258.984E-03    -253.247E-03     511.090E-03    -258.984E-03     64.3876E-03     588.101E-03     19.7979E+06    -2.46860E+06    -12.6325E+06    -24.9705E+06    -23.5655E+06    -14.0375E+06    -2.46860E+06    -2.48380E+06
             930     26.8263E-03     5.40223E-03     26.2768E-03     513.686E-03    -255.081E-03    -259.224E-03    -254.409E-03     513.014E-03    -259.224E-03     44.5494E-03     572.312E-03     18.1582E+06    -6.45897E+06    -17.7487E+06    -27.2602E+06    -26.6655E+06    -18.3433E+06    -6.45897E+06    -2.08692E+06
             931     26.6682E-03     4.62879E-03     26.2634E-03     515.867E-03    -256.487E-03    -259.037E-03    -256.214E-03     515.595E-03    -259.037E-03     27.7960E-03     559.253E-03     16.3251E+06    -11.4644E+06    -22.4154E+06    -30.1986E+06    -29.7538E+06    -22.8602E+06    -11.4644E+06    -1.76351E+06
             932     26.5620E-03     3.86093E-03     26.2799E-03     516.784E-03    -257.313E-03    -258.926E-03    -257.235E-03     516.706E-03    -258.926E-03     14.5048E-03     547.523E-03     14.4547E+06    -16.7820E+06    -27.4120E+06    -33.1955E+06    -32.6319E+06    -27.9757E+06    -16.7820E+06    -1.48307E+06
             933     26.4830E-03     3.08894E-03     26.3022E-03     516.127E-03    -257.749E-03    -258.846E-03    -257.737E-03     516.112E-03    -258.843E-03     4.24436E-03     537.801E-03     12.4061E+06    -23.0996E+06    -32.6360E+06    -37.1138E+06    -35.9860E+06    -33.7639E+06    -23.0996E+06    -1.61237E+06
             934     26.4361E-03     2.31586E-03     26.3345E-03     516.333E-03    -258.310E-03    -258.776E-03    -258.416E-03     516.330E-03    -258.667E-03    -2.16725E-03     529.546E-03     9.82811E+06    -30.6478E+06    -37.3172E+06    -41.7665E+06    -39.3875E+06    -39.6961E+06    -30.6478E+06    -1.12444E+06
             935     26.4134E-03     1.54315E-03     26.3683E-03     516.810E-03    -258.360E-03    -258.698E-03    -258.460E-03     516.804E-03    -258.592E-03    -3.87844E-03     522.557E-03     8.70725E+06    -36.3794E+06    -40.6417E+06    -46.2361E+06    -41.4338E+06    -44.6417E+06    -37.1817E+06    -354.539E+03
             936     26.4119E-03     772.296E-06     26.4007E-03     517.213E-03    -257.445E-03    -259.867E-03    -259.300E-03     517.210E-03    -258.009E-03    -2.17635E-03     518.945E-03     10.4805E+06    -39.2566E+06    -45.0495E+06    -51.2251E+06    -43.5194E+06    -49.4981E+06    -42.5138E+06    -265.968E+03
             937     29.8333E-03     13.1145E-03     26.7962E-03     547.473E-03    -259.846E-03    -287.499E-03    -268.244E-03     528.218E-03    -259.846E-03     237.470E-03     690.291E-03     31.7154E+06     31.8079E+06     17.2490E+06    -4.18955E+06    -1.01622E+06     14.0757E+06     31.8079E+06    -245.909E+03
             938     29.0351E-03     12.3431E-03     26.2809E-03     546.493E-03    -259.071E-03    -287.760E-03    -265.919E-03     524.652E-03    -259.071E-03     260.573E-03     709.289E-03     31.7858E+06     27.1599E+06     15.2398E+06    -7.60588E+06    -5.26099E+06     13.3813E+06     26.6735E+06    -1.56870E+06
             939     28.4468E-03     11.5740E-03     25.9858E-03     532.500E-03    -259.180E-03    -273.027E-03    -258.594E-03     518.068E-03    -259.180E-03     213.181E-03     674.553E-03     31.3461E+06     23.8103E+06     15.6227E+06    -9.50315E+06    -5.35084E+06     11.9568E+06     23.3240E+06    -2.50375E+06
             940     27.8363E-03     10.8060E-03     25.6533E-03     529.706E-03    -259.241E-03    -270.296E-03    -256.309E-03     515.719E-03    -259.241E-03     208.943E-03     672.627E-03     32.2952E+06     19.5966E+06     13.9628E+06    -14.6349E+06    -8.41278E+06     8.36907E+06     18.9683E+06    -1.61807E+06
             941     27.2977E-03     10.0300E-03     25.3882E-03     524.011E-03    -259.587E-03    -264.947E-03    -254.289E-03     513.353E-03    -259.587E-03     182.002E-03     659.094E-03     33.1804E+06     16.5901E+06     12.8112E+06    -18.1814E+06    -11.4260E+06     6.68423E+06     15.9618E+06    -2.18182E+06
             942     26.8055E-03     9.26354E-03     25.1540E-03     521.957E-03    -259.537E-03    -262.686E-03    -254.004E-03     513.275E-03    -259.537E-03     163.798E-03     653.346E-03     32.8828E+06     13.0360E+06     10.2154E+06    -21.1394E+06    -13.2841E+06     2.36013E+06     13.0360E+06    -2.53316E+06
             943     26.3685E-03     8.49458E-03     24.9628E-03     518.027E-03    -258.196E-03    -260.211E-03    -253.253E-03     511.577E-03    -258.705E-03     140.569E-03     638.558E-03     30.1683E+06     9.04667E+06     4.53548E+06    -22.8994E+06    -15.9749E+06    -2.38903E+06     9.04667E+06    -2.33198E+06
             944     25.9829E-03     7.72184E-03     24.8089E-03     514.784E-03    -256.338E-03    -258.343E-03    -252.282E-03     510.485E-03    -258.100E-03     113.984E-03     622.094E-03     24.8233E+06     4.65416E+06    -1.93058E+06    -22.2986E+06    -18.1352E+06    -6.09403E+06     4.65416E+06    -2.49215E+06
             945     25.6555E-03     6.95091E-03     24.6959E-03     513.309E-03    -255.460E-03    -258.155E-03    -253.005E-03     510.854E-03    -258.155E-03     85.5649E-03     605.675E-03     20.3201E+06     113.599E+03    -7.34157E+06    -22.4073E+06    -20.4771E+06    -9.27179E+06     113.599E+03    -1.81011E+06
             946     25.3903E-03     6.17450E-03     24.6281E-03     512.514E-03    -255.161E-03    -258.599E-03    -253.908E-03     511.261E-03    -258.599E-03     61.0957E-03     587.414E-03     18.1576E+06    -3.81438E+06    -13.0349E+06    -24.3280E+06    -23.3602E+06    -14.0027E+06    -3.81438E+06    -1.47004E+06
             947     25.1797E-03     5.40318E-03     24.5931E-03     513.015E-03    -254.919E-03    -258.807E-03    -254.327E-03     512.423E-03    -258.807E-03     41.5064E-03     570.996E-03     17.2183E+06    -7.94649E+06    -18.9743E+06    -27.6114E+06    -26.9436E+06    -19.6420E+06    -7.94649E+06    -1.72315E+06
             948     25.0139E-03     4.63338E-03     24.5810E-03     514.068E-03    -255.286E-03    -258.693E-03    -255.066E-03     513.848E-03    -258.693E-03     24.9685E-03     556.875E-03     15.9646E+06    -11.9744E+06    -23.0896E+06    -30.2335E+06    -29.7831E+06    -23.5400E+06    -11.9744E+06    -1.68943E+06
             949     24.8947E-03     3.85908E-03     24.5937E-03     515.985E-03    -256.705E-03    -258.613E-03    -256.642E-03     515.921E-03    -258.613E-03     13.0533E-03     546.560E-03     13.6557E+06    -18.1583E+06    -28.7028E+06    -33.5010E+06    -33.0384E+06    -29.1655E+06    -18.1583E+06    -1.10238E+06
             950     24.8106E-03     3.08867E-03     24.6176E-03     516.358E-03    -258.057E-03    -258.512E-03    -258.108E-03     516.346E-03    -258.448E-03     4.94782E-03     537.745E-03     11.5084E+06    -25.0201E+06    -34.5740E+06    -37.7678E+06    -36.7519E+06    -35.5899E+06    -25.0201E+06    -611.466E+03
             951     24.7561E-03     2.31767E-03     24.6474E-03     515.594E-03    -258.118E-03    -258.238E-03    -258.179E-03     515.591E-03    -258.174E-03    -860.001E-06     528.650E-03     10.6542E+06    -30.9524E+06    -38.1738E+06    -42.8702E+06    -39.8209E+06    -41.2231E+06    -30.9524E+06    -616.955E+03
             952     24.7349E-03     1.54620E-03     24.6866E-03     515.725E-03    -257.846E-03    -258.149E-03    -257.927E-03     515.720E-03    -258.062E-03    -3.59791E-03     521.478E-03     9.84636E+06    -36.1332E+06    -41.7539E+06    -47.0392E+06    -42.0859E+06    -45.9048E+06    -36.9355E+06    -1.06861E+06
             953     24.7300E-03     771.786E-06     24.7180E-03     516.210E-03    -257.713E-03    -258.552E-03    -258.015E-03     516.204E-03    -258.245E-03    -3.41390E-03     517.919E-03     11.2608E+06    -38.6077E+06    -45.7536E+06    -51.2576E+06    -43.4462E+06    -50.0448E+06    -42.1280E+06    -742.032E+03
             954     28.3253E-03     13.1134E-03     25.1071E-03     547.869E-03    -260.024E-03    -287.843E-03    -268.357E-03     528.383E-03    -260.024E-03     239.528E-03     690.854E-03     33.4583E+06     31.5432E+06     18.9151E+06    -5.72695E+06    -3.13601E+06     16.3242E+06     31.5432E+06    -1.17626E+06
             955     27.5159E-03     12.3437E-03     24.5919E-03     547.263E-03    -259.179E-03    -288.519E-03    -266.626E-03     525.370E-03    -259.179E-03     260.972E-03     709.297E-03     30.8630E+06     28.3509E+06     18.0328E+06    -4.57571E+06    -2.21646E+06     16.1599E+06     27.8645E+06    -1.11388E+06
             956     26.9097E-03     11.5732E-03     24.2940E-03     532.924E-03    -259.187E-03    -273.212E-03    -258.924E-03     518.636E-03    -259.187E-03     212.220E-03     673.476E-03     33.1014E+06     24.3486E+06     15.1723E+06    -10.8752E+06    -6.44087E+06     12.3052E+06     22.7814E+06    -874.402E+03
             957     26.2837E-03     10.7997E-03     23.9624E-03     531.173E-03    -259.245E-03    -271.379E-03    -257.753E-03     517.547E-03    -259.245E-03     206.396E-03     672.500E-03     36.3110E+06     20.7194E+06     15.1479E+06    -17.6613E+06    -8.61489E+06     7.81069E+06     19.0102E+06    -1.66902E+06
             958     25.7424E-03     10.0382E-03     23.7046E-03     524.364E-03    -259.502E-03    -265.160E-03    -254.832E-03     514.037E-03    -259.502E-03     179.307E-03     657.235E-03     34.9446E+06     16.5775E+06     13.8615E+06    -19.6283E+06    -9.64066E+06     4.89730E+06     15.5541E+06    -1.56521E+06
             959     25.2301E-03     9.26434E-03     23.4677E-03     521.212E-03    -259.386E-03    -261.991E-03    -253.561E-03     512.782E-03    -259.386E-03     161.151E-03     650.275E-03     32.7400E+06     13.2081E+06     9.33063E+06    -21.2562E+06    -12.9992E+06     2.86021E+06     11.4215E+06    -1.73402E+06
             960     24.7799E-03     8.49238E-03     23.2792E-03     518.668E-03    -258.507E-03    -260.602E-03    -254.468E-03     512.534E-03    -258.507E-03     137.198E-03     637.746E-03     29.8329E+06     8.76194E+06     3.84799E+06    -23.1384E+06    -15.2895E+06    -2.60945E+06     7.37042E+06    -1.67470E+06
             961     24.3842E-03     7.72317E-03     23.1288E-03     515.912E-03    -257.402E-03    -258.712E-03    -254.300E-03     511.849E-03    -257.751E-03     110.883E-03     621.663E-03     24.0090E+06     3.97854E+06    -2.37831E+06    -22.1667E+06    -17.6261E+06    -6.91889E+06     3.97854E+06    -778.730E+03
             962     24.0448E-03     6.95278E-03     23.0176E-03     513.536E-03    -256.514E-03    -257.758E-03    -254.388E-03     511.277E-03    -257.625E-03     81.9948E-03     604.258E-03     19.3180E+06    -476.899E+03    -8.36992E+06    -22.1339E+06    -20.7175E+06    -9.78634E+06    -476.899E+03    -904.150E+03
             963     23.7732E-03     6.18007E-03     22.9559E-03     511.839E-03    -255.409E-03    -257.824E-03    -254.301E-03     510.731E-03    -257.824E-03     57.3539E-03     585.486E-03     16.3492E+06    -5.67214E+06    -14.2485E+06    -24.1202E+06    -23.4054E+06    -14.9633E+06    -5.67214E+06    -775.040E+03
             964     23.5472E-03     5.40930E-03     22.9175E-03     511.561E-03    -254.330E-03    -258.044E-03    -253.830E-03     511.061E-03    -258.044E-03     38.0526E-03     568.449E-03     14.1671E+06    -9.92176E+06    -19.0127E+06    -26.1202E+06    -25.7759E+06    -19.3570E+06    -9.92176E+06    -114.150E+03
             965     23.3768E-03     4.63440E-03     22.9128E-03     512.392E-03    -254.479E-03    -258.030E-03    -254.302E-03     512.215E-03    -258.030E-03     22.1553E-03     554.019E-03     13.6544E+06    -13.8603E+06    -23.8781E+06    -29.2188E+06    -28.9485E+06    -24.1484E+06    -13.8603E+06    -139.085E+03
             966     23.2466E-03     3.86279E-03     22.9235E-03     514.189E-03    -255.737E-03    -257.887E-03    -255.695E-03     514.146E-03    -257.887E-03     9.72117E-03     543.843E-03     13.3073E+06    -18.7773E+06    -30.4475E+06    -33.1752E+06    -32.8715E+06    -30.7511E+06    -18.7773E+06    -494.641E+03
             967     23.1539E-03     3.08941E-03     22.9468E-03     514.720E-03    -256.942E-03    -257.843E-03    -256.997E-03     514.714E-03    -257.782E-03     1.19064E-03     535.683E-03     11.3214E+06    -25.3330E+06    -34.8574E+06    -37.6460E+06    -35.9136E+06    -36.5897E+06    -25.3330E+06    -168.715E+03
             968     23.0943E-03     2.31685E-03     22.9778E-03     514.541E-03    -257.428E-03    -257.804E-03    -257.599E-03     514.533E-03    -257.625E-03    -3.35692E-03     527.592E-03     8.65805E+06    -32.7193E+06    -37.3308E+06    -42.3475E+06    -38.8353E+06    -40.8429E+06    -32.7193E+06    -194.933E+03
             969     23.0687E-03     1.54375E-03     23.0170E-03     514.803E-03    -257.437E-03    -257.689E-03    -257.663E-03     514.793E-03    -257.453E-03    -4.69815E-03     520.675E-03     8.97073E+06    -37.7464E+06    -41.9627E+06    -47.6141E+06    -42.1560E+06    -46.3104E+06    -38.8568E+06    -732.662E+03
             970     23.0536E-03     773.994E-06     23.0406E-03     514.934E-03    -257.286E-03    -257.723E-03    -257.716E-03     514.927E-03    -257.286E-03    -3.85841E-03     516.642E-03     12.7046E+06    -38.3819E+06    -46.2028E+06    -52.7126E+06    -43.7875E+06    -51.2995E+06    -42.2102E+06    -26.2614E+03
             971     26.8446E-03     13.1093E-03     23.4261E-03     549.319E-03    -260.259E-03    -289.203E-03    -269.408E-03     529.523E-03    -260.259E-03     242.016E-03     691.994E-03     31.7380E+06     31.3662E+06     20.1176E+06    -3.71503E+06    -1.25923E+06     17.6618E+06     31.3662E+06    -343.029E+03
             972     26.0086E-03     12.3402E-03     22.8947E-03     549.688E-03    -259.314E-03    -290.989E-03    -269.153E-03     527.852E-03    -259.314E-03     260.602E-03     710.136E-03     33.2278E+06     27.9406E+06     15.9204E+06    -7.96298E+06    -6.23435E+06     16.2667E+06     25.8656E+06    -1.18573E+06
             973     25.4078E-03     11.5727E-03     22.6193E-03     535.127E-03    -259.135E-03    -275.660E-03    -261.754E-03     521.221E-03    -259.135E-03     209.884E-03     672.993E-03     35.3500E+06     24.8682E+06     15.9939E+06    -12.8730E+06    -7.00816E+06     13.2849E+06     21.7124E+06    -1.38850E+06
             974     24.7568E-03     10.8066E-03     22.2736E-03     532.127E-03    -259.022E-03    -272.539E-03    -259.446E-03     519.034E-03    -259.022E-03     202.342E-03     669.659E-03     37.1951E+06     20.2573E+06     16.0663E+06    -18.8337E+06    -8.19054E+06     7.64238E+06     18.0379E+06    -666.337E+03
             975     24.2038E-03     10.0350E-03     22.0255E-03     524.904E-03    -259.151E-03    -265.987E-03    -256.279E-03     515.196E-03    -259.151E-03     174.063E-03     654.580E-03     35.7573E+06     16.0025E+06     12.1457E+06    -21.4721E+06    -11.0150E+06     4.65729E+06     13.0339E+06    -1.07427E+06
             976     23.6704E-03     9.26724E-03     21.7809E-03     522.077E-03    -258.815E-03    -263.255E-03    -255.435E-03     514.257E-03    -258.815E-03     155.091E-03     646.671E-03     32.2747E+06     12.2355E+06     8.62625E+06    -21.6043E+06    -11.8259E+06     2.06955E+06     9.01385E+06    -900.958E+03
             977     23.2025E-03     8.49803E-03     21.5902E-03     518.347E-03    -257.807E-03    -260.818E-03    -255.464E-03     512.993E-03    -257.807E-03     128.107E-03     633.009E-03     29.2400E+06     7.33212E+06     3.53181E+06    -23.4849E+06    -14.8823E+06    -3.67926E+06     5.94060E+06    -127.847E+03
             978     22.7880E-03     7.72905E-03     21.4373E-03     515.018E-03    -256.940E-03    -258.407E-03    -254.968E-03     511.579E-03    -256.940E-03     101.803E-03     617.417E-03     22.3565E+06     1.78447E+06    -3.17203E+06    -22.4089E+06    -18.1565E+06    -7.42448E+06     1.78447E+06    -284.146E+03
             979     22.4400E-03     6.96028E-03     21.3333E-03     512.510E-03    -256.344E-03    -256.973E-03    -254.826E-03     510.630E-03    -256.611E-03     74.8418E-03     599.885E-03     16.5725E+06    -3.59939E+06    -9.17182E+06    -21.8541E+06    -20.5806E+06    -10.4018E+06    -3.64294E+06     434.154E+03
             980     22.1482E-03     6.18530E-03     21.2670E-03     510.702E-03    -255.379E-03    -256.593E-03    -254.470E-03     509.793E-03    -256.593E-03     51.4183E-03     581.798E-03     14.8088E+06    -8.18312E+06    -15.1273E+06    -24.7425E+06    -23.6350E+06    -16.1912E+06    -8.22667E+06     1.20768E+06
             981     21.9167E-03     5.41233E-03     21.2379E-03     510.446E-03    -254.460E-03    -256.748E-03    -254.099E-03     510.085E-03    -256.748E-03     31.5296E-03     564.987E-03     12.8341E+06    -11.9315E+06    -18.6207E+06    -26.5821E+06    -25.4523E+06    -19.7505E+06    -11.9315E+06     1.49173E+06
             982     21.7277E-03     4.64098E-03     21.2262E-03     510.500E-03    -254.422E-03    -256.675E-03    -254.318E-03     510.396E-03    -256.675E-03     15.7861E-03     550.269E-03     10.5517E+06    -16.5865E+06    -22.3452E+06    -28.3165E+06    -27.6970E+06    -22.9647E+06    -16.5865E+06     1.71122E+06
             983     21.5871E-03     3.86821E-03     21.2376E-03     511.073E-03    -254.770E-03    -256.372E-03    -254.753E-03     511.056E-03    -256.372E-03     4.17410E-03     539.628E-03     11.2376E+06    -21.4052E+06    -28.6503E+06    -33.4062E+06    -30.9477E+06    -30.8486E+06    -21.6654E+06     1.71024E+06
             984     21.4847E-03     3.09506E-03     21.2606E-03     511.283E-03    -255.084E-03    -256.269E-03    -255.076E-03     511.275E-03    -256.269E-03    -3.48075E-03     531.275E-03     11.2888E+06    -26.5141E+06    -32.8244E+06    -38.8423E+06    -34.3910E+06    -37.0156E+06    -26.7742E+06     1.85094E+06
             985     21.4174E-03     2.32109E-03     21.2913E-03     511.528E-03    -255.594E-03    -256.393E-03    -255.696E-03     511.510E-03    -256.274E-03    -7.13600E-03     523.816E-03     8.37734E+06    -32.4822E+06    -35.6068E+06    -41.8908E+06    -37.0602E+06    -39.9449E+06    -32.9747E+06     1.92141E+06
             986     21.3827E-03     1.54873E-03     21.3265E-03     512.148E-03    -255.994E-03    -256.429E-03    -256.125E-03     512.130E-03    -256.280E-03    -7.40162E-03     517.710E-03     9.05813E+06    -36.2576E+06    -38.8484E+06    -46.3094E+06    -39.0409E+06    -44.5140E+06    -37.8605E+06     1.60651E+06
             987     21.3721E-03     772.376E-06     21.3582E-03     512.755E-03    -255.950E-03    -256.872E-03    -256.760E-03     512.744E-03    -256.051E-03    -5.29444E-03     514.387E-03     14.7447E+06    -36.7581E+06    -43.9671E+06    -53.5702E+06    -41.7714E+06    -51.2675E+06    -41.2566E+06     593.030E+03
             988     25.3753E-03     13.1058E-03     21.7289E-03     551.480E-03    -260.350E-03    -291.100E-03    -271.670E-03     532.050E-03    -260.350E-03     242.126E-03     691.837E-03     30.1256E+06     29.0532E+06     19.0910E+06    -4.14663E+06    -2.15281E+06     17.8957E+06     28.2547E+06     272.455E+03
             989     24.5309E-03     12.3388E-03     21.2019E-03     551.881E-03    -259.247E-03    -293.206E-03    -272.327E-03     531.002E-03    -259.247E-03     255.464E-03     707.678E-03     32.4492E+06     27.0966E+06     17.7699E+06    -8.25594E+06    -3.64910E+06     16.0365E+06     24.2231E+06    -1.26128E+06
             990     23.9004E-03     11.5763E-03     20.9098E-03     537.306E-03    -258.854E-03    -278.326E-03    -265.280E-03     524.259E-03    -258.854E-03     204.005E-03     670.094E-03     36.1474E+06     25.1798E+06     17.6906E+06    -14.0923E+06    -5.24228E+06     13.5834E+06     20.4370E+06    -467.643E+03
             991     23.2436E-03     10.8076E-03     20.5782E-03     533.687E-03    -258.447E-03    -275.081E-03    -263.062E-03     521.668E-03    -258.447E-03     194.155E-03     665.073E-03     39.1868E+06     21.7926E+06     14.4690E+06    -20.4588E+06    -7.78403E+06     8.03429E+06     15.5526E+06    -923.380E+03
             992     22.6743E-03     10.0453E-03     20.3277E-03     526.409E-03    -258.216E-03    -268.860E-03    -260.435E-03     517.984E-03    -258.216E-03     162.537E-03     649.341E-03     38.7562E+06     18.3803E+06     11.1538E+06    -23.3970E+06    -9.53369E+06     4.51701E+06     11.1538E+06     190.743E+03
             993     22.1306E-03     9.27930E-03     20.0913E-03     522.600E-03    -257.453E-03    -265.060E-03    -258.572E-03     516.112E-03    -257.453E-03     141.467E-03     640.162E-03     34.3200E+06     12.9976E+06     6.63456E+06    -23.9310E+06    -13.2125E+06     1.89150E+06     7.02216E+06     1.35706E+06
             994     21.6475E-03     8.51190E-03     19.9038E-03     516.973E-03    -256.178E-03    -260.735E-03    -256.414E-03     512.652E-03    -256.178E-03     114.794E-03     624.569E-03     28.7991E+06     5.83803E+06     3.02059E+06    -24.0766E+06    -14.5158E+06    -4.21915E+06     3.51689E+06     505.601E+03
             995     21.2178E-03     7.74159E-03     19.7551E-03     512.174E-03    -255.125E-03    -257.343E-03    -254.742E-03     509.573E-03    -255.125E-03     87.6235E-03     608.501E-03     20.2962E+06    -951.847E+03    -3.52307E+06    -22.1538E+06    -16.8041E+06    -8.18947E+06    -1.63511E+06     1.75814E+06
             996     20.8515E-03     6.97028E-03     19.6520E-03     509.329E-03    -254.521E-03    -255.671E-03    -254.270E-03     508.058E-03    -254.651E-03     60.2157E-03     591.344E-03     14.7658E+06    -5.55376E+06    -10.0455E+06    -21.7747E+06    -19.5246E+06    -11.5688E+06    -6.28057E+06     2.38664E+06
             997     20.5482E-03     6.19507E-03     19.5921E-03     507.991E-03    -254.091E-03    -255.112E-03    -254.269E-03     507.465E-03    -254.408E-03     37.5134E-03     574.768E-03     12.9874E+06    -9.10783E+06    -14.1257E+06    -23.4226E+06    -20.8657E+06    -16.4598E+06    -9.33076E+06     2.68128E+06
             998     20.2950E-03     5.42540E-03     19.5564E-03     507.925E-03    -253.710E-03    -254.732E-03    -254.161E-03     507.769E-03    -254.124E-03     18.8726E-03     558.737E-03     10.4659E+06    -13.9252E+06    -17.9482E+06    -25.5449E+06    -23.4994E+06    -19.8142E+06    -14.1046E+06     3.07187E+06
             999     20.1015E-03     4.65300E-03     19.5555E-03     506.737E-03    -253.166E-03    -254.153E-03    -253.449E-03     506.706E-03    -253.839E-03     4.99528E-03     543.540E-03     10.1421E+06    -17.9831E+06    -21.4005E+06    -29.3396E+06    -25.8018E+06    -23.5466E+06    -19.3749E+06     3.92395E+06
            1000     19.9466E-03     3.87814E-03     19.5660E-03     505.693E-03    -252.738E-03    -253.650E-03    -252.719E-03     505.674E-03    -253.650E-03    -4.26243E-03     532.585E-03     11.8720E+06    -21.8897E+06    -24.8143E+06    -34.7988E+06    -27.9910E+06    -29.9703E+06    -23.5416E+06     5.22347E+06
            1001     19.8373E-03     3.10213E-03     19.5932E-03     505.901E-03    -252.742E-03    -253.610E-03    -252.702E-03     505.861E-03    -253.610E-03    -9.84703E-03     524.415E-03     11.9428E+06    -25.3298E+06    -28.5059E+06    -38.3359E+06    -30.4335E+06    -34.6818E+06    -27.0563E+06     5.09288E+06
            1002     19.7594E-03     2.32648E-03     19.6219E-03     506.081E-03    -252.868E-03    -253.646E-03    -252.813E-03     506.025E-03    -253.646E-03    -12.0929E-03     517.206E-03     10.4778E+06    -28.2322E+06    -31.6085E+06    -39.8388E+06    -33.0607E+06    -36.4276E+06    -30.1912E+06     4.05448E+06
            1003     19.7158E-03     1.54901E-03     19.6549E-03     506.649E-03    -253.207E-03    -253.756E-03    -253.160E-03     506.603E-03    -253.756E-03    -11.1588E-03     511.725E-03     10.6039E+06    -31.1128E+06    -33.9872E+06    -42.7683E+06    -34.8492E+06    -40.0787E+06    -32.9404E+06     3.33357E+06
            1004     19.7002E-03     776.148E-06     19.6849E-03     507.782E-03    -253.348E-03    -254.496E-03    -254.302E-03     507.761E-03    -253.520E-03    -7.03028E-03     509.350E-03     15.7274E+06    -30.2268E+06    -38.3190E+06    -48.2212E+06    -35.9098E+06    -45.9073E+06    -34.9499E+06     1.75923E+06
            1005     23.9278E-03     13.1065E-03     20.0189E-03     556.590E-03    -260.215E-03    -296.100E-03    -277.456E-03     537.946E-03    -260.215E-03     240.873E-03     693.752E-03     26.5394E+06     26.0791E+06     19.1405E+06    -2.54592E+06    -2.03957E+06     19.4327E+06     25.2806E+06     409.921E+03
            1006     23.0876E-03     12.3464E-03     19.5091E-03     554.909E-03    -258.767E-03    -296.592E-03    -277.190E-03     535.508E-03    -258.767E-03     247.564E-03     703.828E-03     29.9067E+06     24.9070E+06     15.5273E+06    -8.00918E+06    -3.71903E+06     15.7692E+06     20.3749E+06     1.64972E+06
            1007     22.4361E-03     11.5822E-03     19.2154E-03     539.773E-03    -258.037E-03    -281.617E-03    -270.162E-03     528.319E-03    -258.037E-03     192.275E-03     665.024E-03     37.1331E+06     25.4644E+06     14.3986E+06    -15.7975E+06    -4.68317E+06     12.6872E+06     16.0615E+06     530.157E+03
            1008     21.7732E-03     10.8228E-03     18.8928E-03     535.811E-03    -257.165E-03    -278.761E-03    -268.763E-03     525.813E-03    -257.165E-03     177.764E-03     658.983E-03     43.7360E+06     25.2286E+06     12.7836E+06    -23.2352E+06    -6.47589E+06     8.46928E+06     12.7836E+06     1.98817E+06
            1009     21.1767E-03     10.0626E-03     18.6333E-03     527.294E-03    -256.276E-03    -271.970E-03    -265.195E-03     520.519E-03    -256.276E-03     146.030E-03     641.315E-03     45.7201E+06     23.3794E+06     9.01493E+06    -27.4400E+06    -10.3388E+06     6.27820E+06     9.01493E+06     1.55447E+06
            1010     20.6264E-03     9.30151E-03     18.4100E-03     521.662E-03    -254.770E-03    -266.382E-03    -261.409E-03     516.689E-03    -254.770E-03     123.683E-03     630.332E-03     38.5834E+06     16.5226E+06     4.66323E+06    -26.1990E+06    -10.5028E+06     826.418E+03     4.66323E+06     774.061E+03
            1011     20.1196E-03     8.53378E-03     18.2202E-03     515.262E-03    -253.217E-03    -261.459E-03    -258.397E-03     512.200E-03    -253.217E-03     95.7301E-03     614.498E-03     27.5328E+06     4.88579E+06    -201.816E+03    -24.7058E+06    -12.9813E+06    -6.90837E+06    -132.136E+03     3.68596E+06
            1012     19.6776E-03     7.76602E-03     18.0803E-03     508.873E-03    -252.183E-03    -257.297E-03    -255.737E-03     507.314E-03    -252.183E-03     66.3056E-03     596.969E-03     17.4393E+06    -2.16008E+06    -4.01858E+06    -20.4148E+06    -15.4660E+06    -7.53668E+06    -3.59075E+06     3.71367E+06
            1013     19.2974E-03     6.99657E-03     17.9843E-03     505.103E-03    -251.435E-03    -254.628E-03    -254.048E-03     504.523E-03    -251.435E-03     38.5125E-03     579.315E-03     12.8630E+06    -5.47597E+06    -9.34377E+06    -19.6710E+06    -15.9551E+06    -11.5357E+06    -6.99997E+06     3.70426E+06
            1014     18.9730E-03     6.22128E-03     17.9240E-03     502.896E-03    -250.780E-03    -252.729E-03    -252.567E-03     502.734E-03    -250.780E-03     17.0868E-03     562.507E-03     11.0981E+06    -10.0755E+06    -13.9011E+06    -22.4676E+06    -17.6827E+06    -16.8461E+06    -11.9154E+06     4.58338E+06
            1015     18.7066E-03     5.44690E-03     17.8960E-03     501.376E-03    -249.984E-03    -251.325E-03    -251.274E-03     501.325E-03    -249.984E-03     1.39438E-03     546.452E-03     11.7898E+06    -12.9903E+06    -17.1383E+06    -26.0628E+06    -19.7577E+06    -19.8899E+06    -16.5438E+06     5.81592E+06
            1016     18.4959E-03     4.67156E-03     17.8962E-03     500.322E-03    -249.456E-03    -250.869E-03    -250.801E-03     500.258E-03    -249.461E-03    -9.81803E-03     532.532E-03     14.1754E+06    -14.8971E+06    -20.1387E+06    -30.6807E+06    -22.4414E+06    -24.4320E+06    -18.8430E+06     7.10371E+06
            1017     18.3359E-03     3.89411E-03     17.9176E-03     499.005E-03    -249.023E-03    -250.406E-03    -250.099E-03     498.888E-03    -249.212E-03    -16.8837E-03     522.271E-03     14.8318E+06    -17.0837E+06    -20.8060E+06    -33.2506E+06    -23.8077E+06    -27.5090E+06    -19.8237E+06     7.32606E+06
            1018     18.2095E-03     3.11577E-03     17.9410E-03     497.795E-03    -248.735E-03    -249.536E-03    -249.112E-03     497.645E-03    -249.008E-03    -20.2200E-03     513.704E-03     13.8875E+06    -19.0540E+06    -22.5588E+06    -34.1243E+06    -24.8807E+06    -28.9877E+06    -21.8686E+06     6.67692E+06
            1019     18.1215E-03     2.33737E-03     17.9702E-03     497.292E-03    -248.625E-03    -249.109E-03    -248.691E-03     497.153E-03    -248.904E-03    -19.9900E-03     506.929E-03     12.9118E+06    -21.0809E+06    -25.3321E+06    -35.2305E+06    -26.1059E+06    -30.8635E+06    -24.6742E+06     5.41673E+06
            1020     18.0710E-03     1.55965E-03     18.0035E-03     497.429E-03    -248.624E-03    -249.081E-03    -248.666E-03     497.340E-03    -248.950E-03    -15.9645E-03     501.947E-03     11.4520E+06    -23.5532E+06    -27.9781E+06    -36.3413E+06    -27.5659E+06    -33.2917E+06    -27.0151E+06     3.70920E+06
            1021     18.0463E-03     777.852E-06     18.0295E-03     498.203E-03    -248.628E-03    -249.659E-03    -249.484E-03     498.162E-03    -248.762E-03    -9.89770E-03     499.644E-03     16.5096E+06    -21.2795E+06    -30.6685E+06    -40.1407E+06    -26.9549E+06    -37.7506E+06    -27.3833E+06     1.70260E+06
            1022     22.5235E-03     13.1107E-03     18.3144E-03     564.669E-03    -260.006E-03    -304.405E-03    -286.249E-03     546.513E-03    -260.006E-03     241.598E-03     698.911E-03     22.6645E+06     25.2999E+06     17.2985E+06     396.386E+03     770.942E+03     18.2716E+06     23.9523E+06     1.33068E+06
            1023     21.6750E-03     12.3538E-03     17.8099E-03     562.030E-03    -257.944E-03    -304.576E-03    -286.369E-03     543.824E-03    -257.944E-03     241.772E-03     705.451E-03     29.1471E+06     26.0103E+06     15.4234E+06    -6.52127E+06     225.294E+03     16.0790E+06     18.6081E+06     1.81770E+06
            1024     21.0083E-03     11.6012E-03     17.5145E-03     546.256E-03    -256.555E-03    -289.853E-03    -279.701E-03     536.104E-03    -256.555E-03     183.007E-03     665.101E-03     41.2047E+06     27.2874E+06     12.5046E+06    -19.2022E+06    -4.90555E+06     12.9907E+06     12.5046E+06     3.33655E+06
            1025     20.3227E-03     10.8469E-03     17.1860E-03     539.120E-03    -254.983E-03    -284.430E-03    -276.031E-03     530.721E-03    -254.983E-03     163.904E-03     654.948E-03     50.8781E+06     29.6094E+06     8.11056E+06    -27.7620E+06    -7.64500E+06     9.49233E+06     8.11056E+06     2.34630E+06
            1026     19.7228E-03     10.0928E-03     16.9447E-03     528.367E-03    -253.342E-03    -275.735E-03    -270.400E-03     523.032E-03    -253.342E-03     130.060E-03     635.085E-03     51.5529E+06     29.0280E+06     4.37616E+06    -29.5339E+06    -5.27223E+06     4.76635E+06     4.37616E+06     2.32707E+06
            1027     19.1508E-03     9.33248E-03     16.7230E-03     521.688E-03    -251.244E-03    -269.672E-03    -266.084E-03     518.100E-03    -251.244E-03     104.894E-03     622.536E-03     40.0973E+06     17.8083E+06     664.072E+03    -27.6737E+06    -9.31494E+06    -550.504E+03     664.072E+03     5.45847E+06
            1028     18.6332E-03     8.57301E-03     16.5439E-03     513.827E-03    -249.230E-03    -263.995E-03    -262.115E-03     511.946E-03    -249.230E-03     74.2863E-03     605.590E-03     26.0835E+06     6.43798E+06    -1.01447E+06    -22.3708E+06    -11.0786E+06    -4.85422E+06    -1.01447E+06     4.77513E+06
            1029     18.1705E-03     7.80704E-03     16.4078E-03     505.433E-03    -247.569E-03    -258.716E-03    -257.980E-03     504.697E-03    -247.569E-03     43.7623E-03     585.738E-03     15.7572E+06    -786.684E+03    -5.71029E+06    -17.9783E+06    -10.5925E+06    -8.53061E+06    -5.35214E+06     4.72339E+06
            1030     17.7691E-03     7.03633E-03     16.3166E-03     499.601E-03    -246.021E-03    -254.220E-03    -254.041E-03     499.423E-03    -246.021E-03     15.9307E-03     565.929E-03     13.4155E+06    -4.63298E+06    -10.5966E+06    -19.6397E+06    -12.3120E+06    -12.3189E+06    -10.2384E+06     6.73362E+06
            1031     17.4342E-03     6.25975E-03     16.2717E-03     494.884E-03    -244.953E-03    -250.180E-03    -250.086E-03     494.790E-03    -244.953E-03    -6.13686E-03     547.129E-03     16.0030E+06    -6.44733E+06    -12.8911E+06    -24.5993E+06    -14.3322E+06    -16.7145E+06    -12.8911E+06     8.57139E+06
            1032     17.1554E-03     5.48191E-03     16.2559E-03     491.024E-03    -243.918E-03    -247.130E-03    -246.906E-03     490.800E-03    -243.918E-03    -21.4686E-03     530.009E-03     17.3285E+06    -8.55390E+06    -14.6930E+06    -27.7613E+06    -17.1137E+06    -19.5721E+06    -14.3224E+06     9.30456E+06
            1033     16.9239E-03     4.69980E-03     16.2582E-03     488.975E-03    -243.123E-03    -245.654E-03    -245.302E-03     488.623E-03    -243.123E-03    -29.7694E-03     516.914E-03     17.4790E+06    -9.61049E+06    -15.0176E+06    -28.7837E+06    -18.0582E+06    -21.4077E+06    -13.9459E+06     8.85946E+06
            1034     16.7390E-03     3.91986E-03     16.2736E-03     487.595E-03    -242.662E-03    -244.926E-03    -244.533E-03     487.202E-03    -242.662E-03    -32.7086E-03     507.524E-03     15.7371E+06    -10.7800E+06    -15.3795E+06    -28.2004E+06    -18.5042E+06    -21.9462E+06    -13.9095E+06     7.66524E+06
            1035     16.6079E-03     3.13782E-03     16.3088E-03     485.626E-03    -242.325E-03    -243.595E-03    -243.238E-03     485.269E-03    -242.325E-03    -31.6692E-03     498.817E-03     13.9167E+06    -12.5351E+06    -16.1679E+06    -27.8144E+06    -18.6905E+06    -22.8368E+06    -14.9902E+06     6.13232E+06
            1036     16.4932E-03     2.35256E-03     16.3245E-03     484.336E-03    -242.111E-03    -242.516E-03    -242.246E-03     484.065E-03    -242.111E-03    -27.5044E-03     492.218E-03     13.1604E+06    -13.5116E+06    -18.3245E+06    -28.1742E+06    -18.8352E+06    -24.4299E+06    -16.7452E+06     4.75950E+06
            1037     16.4316E-03     1.56731E-03     16.3567E-03     484.272E-03    -242.077E-03    -242.293E-03    -242.066E-03     484.117E-03    -242.150E-03    -20.3933E-03     487.991E-03     12.5346E+06    -13.7067E+06    -20.2934E+06    -28.0411E+06    -18.2866E+06    -25.3456E+06    -18.4091E+06     3.29847E+06
            1038     16.4025E-03     785.391E-06     16.3837E-03     484.712E-03    -241.722E-03    -243.047E-03    -242.917E-03     484.654E-03    -241.794E-03    -11.4782E-03     485.924E-03     18.4976E+06    -12.0707E+06    -23.6567E+06    -33.2264E+06    -18.8024E+06    -30.7365E+06    -19.4150E+06     1.69978E+06
            1039     21.1481E-03     13.1103E-03     16.5940E-03     574.286E-03    -259.780E-03    -314.306E-03    -296.558E-03     556.538E-03    -259.780E-03     242.910E-03     707.463E-03     19.7556E+06     19.4531E+06     10.7743E+06    -2.20038E+06    -1.64778E+06     15.7849E+06     13.8898E+06     452.032E+03
            1040     20.2860E-03     12.3647E-03     16.0822E-03     571.571E-03    -257.030E-03    -315.318E-03    -298.073E-03     554.326E-03    -257.030E-03     238.000E-03     713.766E-03     29.6590E+06     21.9317E+06     10.5837E+06    -11.4663E+06    -4.71777E+06     15.0962E+06     10.6707E+06     2.44646E+06
            1041     19.6031E-03     11.6207E-03     15.7874E-03     553.995E-03    -254.713E-03    -299.762E-03    -290.392E-03     544.625E-03    -254.713E-03     177.810E-03     670.769E-03     50.6353E+06     32.7233E+06     6.54369E+06    -24.5041E+06    -4.09874E+06     12.3179E+06     6.54369E+06     1.98586E+06
            1042     18.9193E-03     10.8777E-03     15.4796E-03     544.873E-03    -252.378E-03    -292.960E-03    -285.370E-03     537.284E-03    -252.378E-03     157.203E-03     657.687E-03     59.9322E+06     36.7642E+06     3.15048E+06    -31.1383E+06    -1.36272E+06     6.98866E+06     3.15048E+06     3.74800E+06
            1043     18.3021E-03     10.1269E-03     15.2450E-03     533.704E-03    -249.974E-03    -284.566E-03    -280.019E-03     529.157E-03    -249.974E-03     121.034E-03     636.871E-03     53.6951E+06     30.1311E+06    -391.904E+03    -31.4003E+06    -5.16350E+06     3.89436E+06    -391.904E+03     6.67503E+06
            1044     17.7171E-03     9.37763E-03     15.0318E-03     524.451E-03    -247.251E-03    -277.049E-03    -274.351E-03     521.753E-03    -247.251E-03     91.2085E-03     620.847E-03     38.7350E+06     20.4615E+06    -1.73906E+06    -23.9794E+06    -4.75682E+06     1.23892E+06    -1.73906E+06     4.99147E+06
            1045     17.1836E-03     8.61906E-03     14.8656E-03     513.485E-03    -244.178E-03    -269.359E-03    -268.218E-03     512.344E-03    -244.178E-03     56.9284E-03     600.447E-03     24.3906E+06     9.03546E+06    -3.84110E+06    -18.7218E+06    -3.31386E+06    -5.22987E+06    -4.98373E+06     5.81129E+06
            1046     16.7102E-03     7.85766E-03     14.7475E-03     502.587E-03    -241.078E-03    -262.155E-03    -261.856E-03     502.288E-03    -241.078E-03     23.5200E-03     577.577E-03     19.5914E+06     2.37897E+06    -7.35809E+06    -19.7096E+06    -5.90801E+06    -10.2800E+06    -8.50073E+06     9.42069E+06
            1047     16.2915E-03     7.08567E-03     14.6699E-03     493.306E-03    -238.588E-03    -254.909E-03    -254.795E-03     493.192E-03    -238.588E-03    -6.32841E-03     554.318E-03     21.8203E+06     1.33343E+06    -9.64690E+06    -23.6192E+06    -9.05991E+06    -13.2258E+06    -9.64690E+06     11.5888E+06
            1048     15.9327E-03     6.31219E-03     14.6290E-03     484.918E-03    -236.837E-03    -248.398E-03    -248.058E-03     484.578E-03    -236.837E-03    -28.4324E-03     532.430E-03     21.4539E+06    -521.296E+03    -8.24939E+06    -24.4686E+06    -10.8181E+06    -14.1718E+06    -8.24939E+06     11.6063E+06
            1049     15.6315E-03     5.53236E-03     14.6197E-03     478.476E-03    -235.369E-03    -243.256E-03    -242.603E-03     477.824E-03    -235.369E-03    -42.1776E-03     513.384E-03     20.0368E+06    -1.41111E+06    -6.29896E+06    -23.1543E+06    -10.6332E+06    -14.3028E+06    -5.92835E+06     10.4677E+06
            1050     15.3811E-03     4.74658E-03     14.6304E-03     473.490E-03    -234.238E-03    -238.954E-03    -238.097E-03     472.633E-03    -234.238E-03    -48.6574E-03     498.545E-03     17.6953E+06    -2.60449E+06    -8.04370E+06    -22.2427E+06    -11.4845E+06    -15.1367E+06    -6.26961E+06     8.69702E+06
            1051     15.1722E-03     3.95484E-03     14.6477E-03     469.883E-03    -233.772E-03    -236.173E-03    -235.287E-03     468.998E-03    -233.772E-03    -49.1106E-03     487.411E-03     15.1044E+06    -4.19264E+06    -9.46196E+06    -21.1791E+06    -11.5735E+06    -15.9706E+06    -7.28961E+06     6.61799E+06
            1052     15.0175E-03     3.16427E-03     14.6803E-03     468.367E-03    -233.591E-03    -235.006E-03    -234.265E-03     467.625E-03    -233.591E-03    -44.6930E-03     479.317E-03     12.9095E+06    -6.01097E+06    -10.4660E+06    -20.5124E+06    -11.7481E+06    -16.8077E+06    -8.43353E+06     4.79586E+06
            1053     14.9081E-03     2.37359E-03     14.7179E-03     467.537E-03    -233.474E-03    -234.082E-03    -233.585E-03     467.040E-03    -233.474E-03    -36.5657E-03     473.672E-03     12.3681E+06    -6.90268E+06    -12.4659E+06    -21.0510E+06    -12.3108E+06    -18.0769E+06    -10.0319E+06     3.61218E+06
            1054     14.8304E-03     1.58282E-03     14.7457E-03     467.200E-03    -233.537E-03    -233.660E-03    -233.385E-03     466.934E-03    -233.546E-03    -26.5638E-03     470.073E-03     13.5797E+06    -7.26340E+06    -14.4763E+06    -22.8757E+06    -13.1531E+06    -19.6010E+06    -11.8613E+06     2.86409E+06
            1055     14.7929E-03     789.296E-06     14.7719E-03     467.358E-03    -233.279E-03    -234.099E-03    -233.877E-03     467.258E-03    -233.402E-03    -14.5619E-03     468.279E-03     18.7256E+06    -6.01546E+06    -18.5487E+06    -27.3492E+06    -14.0619E+06    -24.2751E+06    -13.5763E+06     2.27032E+06
            1056     19.7989E-03     13.1110E-03     14.8358E-03     584.512E-03    -259.545E-03    -324.771E-03    -307.840E-03     567.582E-03    -259.545E-03     240.117E-03     717.095E-03     16.9630E+06     16.1609E+06     4.02707E+06    -2.40519E+06    -1.77268E+06     14.0750E+06     5.48043E+06     1.72965E+06
            1057     18.9356E-03     12.3751E-03     14.3323E-03     578.526E-03    -256.189E-03    -323.258E-03    -306.769E-03     562.037E-03    -256.189E-03     235.159E-03     722.494E-03     38.1149E+06     27.3963E+06     1.82244E+06    -15.2000E+06    -409.679E+03     12.5190E+06     1.90944E+06     1.76667E+06
            1058     18.2416E-03     11.6406E-03     14.0446E-03     561.271E-03    -253.383E-03    -308.165E-03    -299.053E-03     552.159E-03    -253.383E-03     177.045E-03     680.431E-03     61.1678E+06     39.6446E+06    -482.044E+03    -29.5384E+06     1.03897E+06     9.06716E+06    -482.044E+03     4.65878E+06
            1059     17.5485E-03     10.8979E-03     13.7544E-03     554.155E-03    -250.281E-03    -303.673E-03    -296.261E-03     546.743E-03    -250.281E-03     157.316E-03     668.762E-03     66.9621E+06     40.0180E+06    -3.50187E+06    -35.7621E+06    -3.83637E+06     8.09220E+06    -3.50187E+06     4.94573E+06
            1060     16.9187E-03     10.1646E-03     13.5249E-03     542.357E-03    -246.712E-03    -296.548E-03    -292.248E-03     538.056E-03    -246.712E-03     118.958E-03     646.791E-03     57.6470E+06     34.6270E+06    -4.75932E+06    -30.6579E+06     545.334E+03     3.42379E+06    -4.75932E+06     3.11611E+06
            1061     16.3274E-03     9.42206E-03     13.3345E-03     529.630E-03    -242.751E-03    -287.442E-03    -285.112E-03     527.300E-03    -242.751E-03     85.4846E-03     627.580E-03     37.9769E+06     20.4756E+06    -6.76068E+06    -22.8320E+06     3.88062E+06    -4.26953E+06    -8.72819E+06     8.52905E+06
            1062     15.7816E-03     8.67429E-03     13.1839E-03     516.010E-03    -238.365E-03    -277.785E-03    -276.938E-03     515.163E-03    -238.365E-03     48.3309E-03     603.414E-03     28.5563E+06     10.7507E+06    -8.01336E+06    -21.9634E+06    -197.683E+03    -7.90492E+06    -11.1235E+06     13.0157E+06
            1063     15.2910E-03     7.91737E-03     13.0816E-03     501.354E-03    -234.111E-03    -267.555E-03    -267.413E-03     501.212E-03    -234.111E-03     11.4919E-03     575.704E-03     27.1694E+06     8.52385E+06    -6.29861E+06    -22.6874E+06    -2.79515E+06    -10.2258E+06    -7.44125E+06     13.9912E+06
            1064     14.8605E-03     7.14815E-03     13.0284E-03     487.193E-03    -230.645E-03    -256.966E-03    -256.781E-03     487.008E-03    -230.645E-03    -19.1025E-03     548.297E-03     25.8091E+06     7.74811E+06    -2.32575E+06    -21.3713E+06    -3.52104E+06    -10.1021E+06    -2.32575E+06     13.5681E+06
            1065     14.4851E-03     6.37236E-03     13.0082E-03     474.808E-03    -227.792E-03    -247.316E-03    -246.702E-03     474.193E-03    -227.792E-03    -40.9639E-03     522.197E-03     21.8716E+06     6.43522E+06     785.037E+03     -17.442E+06    -2.92253E+06    -8.08426E+06     785.037E+03     11.2822E+06
            1066     14.1618E-03     5.58711E-03     13.0131E-03     465.614E-03    -225.590E-03    -239.619E-03    -238.562E-03     464.557E-03    -225.590E-03    -54.1428E-03     499.903E-03     17.9122E+06     5.33899E+06     1.04653E+06    -14.1535E+06    -2.03428E+06    -7.28886E+06     1.55518E+06     9.08475E+06
            1067     13.8906E-03     4.79673E-03     13.0362E-03     457.933E-03    -224.019E-03    -233.340E-03    -232.008E-03     456.601E-03    -224.019E-03    -60.3706E-03     481.983E-03     17.1111E+06     5.57748E+06    -1.20913E+06    -13.6700E+06    -1.73666E+06    -8.26801E+06     703.013E+03     7.83582E+06
            1068     13.6657E-03     4.00208E-03     13.0666E-03     451.306E-03    -223.092E-03    -228.031E-03    -226.657E-03     449.932E-03    -223.092E-03    -60.8566E-03     467.260E-03     15.6776E+06     2.68684E+06    -3.27042E+06    -14.8076E+06    -3.30434E+06    -10.4674E+06    -1.61948E+06     6.66492E+06
            1069     13.4862E-03     3.20073E-03     13.1009E-03     447.651E-03    -222.602E-03    -224.828E-03    -223.660E-03     446.484E-03    -222.602E-03    -55.6709E-03     457.268E-03     14.5972E+06     393.773E+03    -5.44038E+06    -15.9157E+06    -4.93389E+06    -12.0990E+06    -3.92934E+06     5.81671E+06
            1070     13.3538E-03     2.40033E-03     13.1363E-03     446.346E-03    -222.458E-03    -223.659E-03    -222.869E-03     445.557E-03    -222.458E-03    -45.2167E-03     451.664E-03     14.5604E+06    -242.332E+03    -7.21110E+06    -16.8019E+06    -6.06020E+06    -12.9230E+06    -5.27215E+06     4.95265E+06
            1071     13.2604E-03     1.59922E-03     13.1636E-03     445.600E-03    -222.502E-03    -223.102E-03    -222.699E-03     445.197E-03    -222.502E-03    -31.8821E-03     448.110E-03     14.9486E+06    -1.16971E+06    -8.68280E+06    -18.1626E+06    -7.09543E+06    -14.3568E+06    -6.56286E+06     3.64595E+06
            1072     13.2112E-03     801.664E-06     13.1868E-03     445.185E-03    -221.951E-03    -223.250E-03    -222.993E-03     445.040E-03    -222.064E-03    -18.4024E-03     445.897E-03     18.9737E+06    -560.997E+03    -12.6257E+06    -22.1325E+06    -9.17675E+06    -17.2253E+06    -8.91708E+06     2.14973E+06
            1073     18.5319E-03     13.1208E-03     13.0873E-03     592.689E-03    -259.420E-03    -333.096E-03    -315.894E-03     575.487E-03    -259.420E-03     242.257E-03     726.514E-03     25.5230E+06     16.9162E+06     1.79880E+06    -11.9355E+06     1.17516E+06     11.3944E+06    -5.79015E+06     2.45124E+06
            1074     17.6523E-03     12.3845E-03     12.5788E-03     585.010E-03    -255.716E-03    -329.936E-03    -312.299E-03     567.373E-03    -255.716E-03     245.279E-03     734.923E-03     46.6748E+06     30.5263E+06    -4.86699E+06    -22.0640E+06    -1.12140E+06     11.7735E+06    -7.05679E+06     4.72013E+06
            1075     16.9435E-03     11.6492E-03     12.3036E-03     570.721E-03    -252.791E-03    -317.676E-03    -307.534E-03     560.579E-03    -252.791E-03     188.562E-03     697.212E-03     75.9152E+06     47.5939E+06    -8.51600E+06    -37.2872E+06    -287.198E+03     10.5940E+06    -8.51600E+06     1.75045E+06
            1076     16.2286E-03     10.9214E-03     12.0037E-03     565.571E-03    -248.900E-03    -315.774E-03    -307.539E-03     557.336E-03    -248.900E-03     167.830E-03     688.875E-03     80.7931E+06     50.8345E+06    -10.7140E+06    -39.2519E+06     9.05747E+06     2.52514E+06    -10.7140E+06     2.35336E+06
            1077     15.5817E-03     10.1912E-03     11.7869E-03     551.440E-03    -244.110E-03    -308.097E-03    -303.301E-03     546.643E-03    -244.110E-03     127.105E-03     664.762E-03     59.4987E+06     32.0186E+06    -13.9940E+06    -35.0480E+06     6.13322E+06    -6.57786E+06    -16.5787E+06     12.2223E+06
            1078     14.9803E-03     9.45917E-03     11.6161E-03     535.910E-03    -239.087E-03    -297.985E-03    -295.259E-03     533.184E-03    -239.087E-03     93.4674E-03     643.193E-03     36.5816E+06     14.9809E+06    -9.49152E+06    -26.7284E+06    -355.357E+03    -6.83985E+06    -14.0438E+06     15.6043E+06
            1079     14.4240E-03     8.71919E-03     11.4903E-03     519.360E-03    -233.639E-03    -286.266E-03    -285.160E-03     518.255E-03    -233.639E-03     55.9185E-03     615.764E-03     30.5504E+06     13.8881E+06    -3.67772E+06    -21.1571E+06     905.468E+03    -6.20701E+06    -5.64524E+06     15.2039E+06
            1080     13.9264E-03     7.96864E-03     11.4213E-03     500.866E-03    -228.339E-03    -272.555E-03    -272.318E-03     500.630E-03    -228.339E-03     19.0943E-03     583.271E-03     26.1192E+06     14.3061E+06     1.79788E+06    -15.5424E+06     3.48682E+06    -4.72306E+06     1.79788E+06     13.5405E+06
            1081     13.4804E-03     7.19999E-03     11.3965E-03     483.393E-03    -223.663E-03    -259.634E-03    -259.494E-03     483.253E-03    -223.663E-03    -11.3612E-03     552.553E-03     22.0850E+06     14.0852E+06     5.51477E+06    -10.4268E+06     6.64289E+06    -2.98448E+06     5.51477E+06     10.6887E+06
            1082     13.0906E-03     6.42594E-03     11.4048E-03     467.989E-03    -219.826E-03    -248.317E-03    -247.831E-03     467.503E-03    -219.826E-03    -34.7719E-03     523.009E-03     20.0138E+06     13.6345E+06     5.10816E+06    -8.70379E+06     7.86843E+06    -2.93774E+06     5.10816E+06     9.44260E+06
            1083     12.7494E-03     5.64086E-03     11.4337E-03     455.468E-03    -216.721E-03    -238.263E-03    -237.294E-03     454.499E-03    -216.721E-03    -50.8502E-03     495.997E-03     20.2565E+06     13.1407E+06     2.78046E+06    -9.71337E+06     6.92487E+06    -4.00622E+06     3.28911E+06       9.421E+06
            1084     12.4548E-03     4.84780E-03     11.4726E-03     444.816E-03    -214.202E-03    -229.926E-03    -228.588E-03     443.478E-03    -214.202E-03    -59.7775E-03     473.085E-03     20.4002E+06     12.0789E+06     1.51764E+06    -10.8586E+06     5.80685E+06    -5.09515E+06     2.02630E+06     9.74488E+06
            1085     12.2113E-03     4.04709E-03     11.5212E-03     435.646E-03    -212.279E-03    -223.006E-03    -221.544E-03     434.184E-03    -212.279E-03    -61.9541E-03     454.352E-03     20.1288E+06     10.7376E+06     1.02912E+06    -11.8000E+06     4.58090E+06    -5.89079E+06     1.27658E+06     9.66142E+06
            1086     12.0087E-03     3.24197E-03     11.5628E-03     428.400E-03    -210.910E-03    -217.207E-03    -215.885E-03     427.077E-03    -210.910E-03    -58.3223E-03     439.600E-03     18.9799E+06     8.63125E+06     354.549E+03    -12.2191E+06     2.61826E+06    -6.45352E+06     602.008E+03     8.71145E+06
            1087     11.8479E-03     2.43106E-03     11.5958E-03     423.676E-03    -210.023E-03    -213.383E-03    -212.390E-03     422.683E-03    -210.023E-03    -49.9392E-03     429.647E-03     17.5053E+06     7.87579E+06      38.262E+03    -11.5474E+06     2.03294E+06    -6.37995E+06     713.636E+03     7.15107E+06
            1088     11.7350E-03     1.62203E-03     11.6224E-03     420.839E-03    -209.614E-03    -211.131E-03    -210.571E-03     420.279E-03    -209.614E-03    -36.6016E-03     423.501E-03     17.3237E+06     8.22519E+06    -1.02628E+06    -11.3858E+06     1.39952E+06    -6.45520E+06     868.822E+03     5.05125E+06
            1089     11.6712E-03     808.923E-06     11.6431E-03     419.422E-03    -208.915E-03    -210.500E-03    -210.303E-03     419.225E-03    -208.915E-03    -20.5223E-03     420.207E-03     20.8850E+06     10.0725E+06    -2.61339E+06    -13.6921E+06     1.07388E+06    -8.17718E+06     870.343E+03     3.24900E+06
            1090     17.3146E-03     13.1091E-03     11.3115E-03     596.401E-03    -260.021E-03    -336.345E-03    -318.174E-03     578.230E-03    -260.021E-03     248.326E-03     734.744E-03     27.8195E+06     13.3447E+06    -5.39859E+06    -16.9649E+06    -2.16083E+06     8.46115E+06    -15.3191E+06     1.60599E+06
            1091     16.4302E-03     12.3737E-03     10.8095E-03     591.773E-03    -256.019E-03    -336.041E-03    -316.642E-03     572.374E-03    -256.019E-03     259.438E-03     752.511E-03     63.8177E+06     43.1328E+06    -10.1165E+06    -26.4468E+06     7.56258E+06     11.8495E+06    -12.8425E+06    -157.360E+03
            1092     15.7002E-03     11.6483E-03     10.5269E-03     578.783E-03    -252.687E-03    -325.315E-03    -313.728E-03     567.196E-03    -252.687E-03     203.292E-03     717.333E-03     97.7532E+06     60.1325E+06    -20.9143E+06    -47.4716E+06     12.4614E+06     199.453E+03    -20.9143E+06     4.25892E+06
            1093     14.9670E-03     10.9231E-03     10.2321E-03     572.062E-03    -248.189E-03    -322.543E-03    -312.719E-03     562.238E-03    -248.189E-03     184.995E-03     709.767E-03     83.5684E+06     43.5089E+06    -25.9970E+06    -48.6990E+06     1.33394E+06    -6.52414E+06    -25.9970E+06     15.3694E+06
            1094     14.3146E-03     10.2034E-03     10.0399E-03     557.602E-03    -242.961E-03    -315.076E-03    -308.698E-03     551.224E-03    -242.961E-03     147.599E-03     686.514E-03     51.8544E+06     25.1895E+06    -9.98577E+06    -32.4422E+06    -174.670E+03    -4.49320E+06    -12.5705E+06     14.7595E+06
            1095     13.6937E-03     9.47351E-03     9.88783E-03     540.380E-03    -237.524E-03    -303.560E-03    -299.443E-03     536.262E-03    -237.524E-03     115.857E-03     662.855E-03     29.6762E+06     17.4990E+06     4.35554E+06    -16.0064E+06     7.74485E+06    -3.66745E+06     1.77078E+06     11.4366E+06
            1096     13.1229E-03     8.73719E-03     9.79137E-03     520.466E-03    -231.712E-03    -289.209E-03    -287.015E-03     518.272E-03    -231.712E-03     80.9916E-03     632.512E-03     22.3441E+06     18.3854E+06     8.02851E+06    -7.23456E+06     11.7597E+06    -608.892E+03     8.02851E+06     9.89178E+06
            1097     12.6177E-03     7.98804E-03     9.76717E-03     501.006E-03    -226.026E-03    -274.551E-03    -273.588E-03     500.043E-03    -226.026E-03     48.9497E-03     599.112E-03     22.8322E+06     20.5132E+06     8.19521E+06    -4.75214E+06     15.4856E+06     275.418E+03     8.19521E+06     8.68301E+06
            1098     12.1522E-03     7.22303E-03     9.77261E-03     483.831E-03    -220.770E-03    -261.618E-03    -261.228E-03     483.441E-03    -220.770E-03     21.4734E-03     567.915E-03     24.2263E+06     21.5936E+06     4.82740E+06    -5.06389E+06     17.0239E+06    -494.246E+03     4.82740E+06     9.87736E+06
            1099     11.7442E-03     6.45338E-03     9.81221E-03     467.746E-03    -216.196E-03    -251.259E-03    -251.022E-03     467.509E-03    -216.196E-03    -2.64341E-03     537.493E-03     27.6661E+06     21.9353E+06     1.83024E+06    -9.35576E+06     15.0540E+06    -2.47453E+06     1.83024E+06     12.5124E+06
            1100     11.3782E-03     5.67295E-03     9.86307E-03     452.927E-03    -211.879E-03    -241.185E-03    -240.804E-03     452.546E-03    -211.879E-03    -22.8496E-03     507.414E-03     29.2091E+06     22.2053E+06     1.96472E+06    -11.0128E+06     14.1390E+06    -2.94641E+06     1.96472E+06     13.9988E+06
            1101     11.0601E-03     4.88124E-03     9.92464E-03     439.139E-03    -208.016E-03    -231.149E-03    -230.488E-03     438.478E-03    -208.016E-03    -37.7573E-03     479.125E-03     27.6474E+06     20.8952E+06     3.16812E+06    -10.5667E+06     12.4404E+06    -2.11197E+06     3.16812E+06     13.8894E+06
            1102     10.7885E-03     4.08137E-03     9.98666E-03     427.146E-03    -204.729E-03    -222.466E-03    -221.573E-03     426.254E-03    -204.729E-03    -46.0816E-03     454.318E-03     25.2597E+06     19.7925E+06     5.33344E+06    -8.82017E+06     11.2835E+06    -311.167E+03     5.33344E+06     12.9413E+06
            1103     10.5674E-03     3.27434E-03     10.0474E-03     416.602E-03    -201.898E-03    -214.638E-03    -213.694E-03     415.658E-03    -201.898E-03    -47.8078E-03     433.118E-03     23.2438E+06     19.9944E+06     7.76752E+06    -5.96932E+06     12.3034E+06     1.72168E+06     7.76752E+06     11.4610E+06
            1104     10.3894E-03     2.46361E-03     10.0931E-03     406.879E-03    -199.544E-03    -207.197E-03    -206.400E-03     406.083E-03    -199.544E-03    -43.6074E-03     415.749E-03     20.9234E+06     18.9513E+06     8.42538E+06    -4.29505E+06     11.2244E+06     2.64323E+06     9.21403E+06     8.94253E+06
            1105     10.2663E-03     1.64343E-03     10.1339E-03     399.266E-03    -197.852E-03    -201.355E-03    -200.852E-03     398.763E-03    -197.852E-03    -33.9194E-03     403.253E-03     18.7808E+06     19.2262E+06     9.15950E+06    -2.03264E+06     11.4426E+06     3.74256E+06     11.1679E+06     5.82129E+06
            1106     10.1849E-03     824.324E-06     10.1515E-03     394.828E-03    -196.470E-03    -198.355E-03    -198.161E-03     394.634E-03    -196.470E-03    -19.8736E-03     396.078E-03     22.5939E+06     22.5777E+06     8.96442E+06    -3.13175E+06     12.2476E+06     3.48922E+06     12.6736E+06     2.77416E+06
            1107     16.2132E-03     13.0993E-03     9.55386E-03     596.567E-03    -261.187E-03    -336.165E-03    -316.913E-03     577.315E-03    -261.187E-03     255.777E-03     741.861E-03     46.5175E+06     21.6436E+06    -8.96411E+06    -27.7891E+06     5.35695E+06     5.67679E+06    -26.1434E+06    -2.87999E+06
            1108     15.3137E-03     12.3663E-03     9.03246E-03     596.882E-03    -257.078E-03    -340.171E-03    -319.000E-03     575.710E-03    -257.078E-03     273.273E-03     772.087E-03     85.1354E+06     44.1010E+06    -33.5311E+06    -46.7744E+06     3.37288E+06    -3.30064E+06    -36.2767E+06     3.69127E+06
            1109     14.5592E-03     11.6405E-03     8.74458E-03     580.857E-03    -253.465E-03    -326.811E-03    -313.380E-03     567.426E-03    -253.465E-03     218.839E-03     735.954E-03     103.292E+06     50.1292E+06    -36.4793E+06    -63.6532E+06    -5.53917E+06    -7.98487E+06    -36.4793E+06     12.4394E+06
            1110     13.8131E-03     10.9142E-03     8.46650E-03     572.061E-03    -249.133E-03    -321.664E-03    -310.019E-03     560.415E-03    -249.133E-03     201.635E-03     724.020E-03     75.7910E+06     43.9841E+06    -6.76167E+06    -40.4780E+06     6.09251E+06    -2.58637E+06    -6.76167E+06     6.23645E+06
            1111     13.1251E-03     10.1843E-03     8.27937E-03     556.090E-03    -244.292E-03    -311.764E-03    -303.602E-03     547.928E-03    -244.292E-03     166.957E-03     696.943E-03     45.0389E+06     32.3379E+06     10.8525E+06    -16.9463E+06     19.4187E+06    -3.39092E+06     10.2163E+06      3.9504E+06
            1112     12.4907E-03     9.45763E-03     8.15909E-03     537.101E-03    -239.366E-03    -297.872E-03    -291.815E-03     531.044E-03    -239.366E-03     140.703E-03     671.606E-03     27.3904E+06     25.3513E+06     10.7939E+06    -5.25801E+06     21.9800E+06    -1.25055E+06     10.1576E+06     6.22011E+06
            1113     11.9035E-03     8.71496E-03     8.10821E-03     518.416E-03    -234.321E-03    -284.088E-03    -279.767E-03     514.095E-03    -234.321E-03     115.305E-03     643.808E-03     29.7028E+06     27.3282E+06     5.82922E+06    -5.47018E+06     24.1612E+06    -1.44446E+06     4.97048E+06     8.84559E+06
            1114     11.3628E-03     7.96305E-03     8.10574E-03     501.824E-03    -229.084E-03    -272.105E-03    -269.272E-03     498.991E-03    -229.084E-03     90.3199E-03     613.753E-03     35.5491E+06     28.5835E+06     438.658E+03    -10.1152E+06     22.2925E+06    -2.96540E+06    -420.090E+03     13.6479E+06
            1115     10.8720E-03     7.19678E-03     8.14898E-03     487.034E-03    -224.090E-03    -261.456E-03    -259.710E-03     485.288E-03    -224.090E-03     67.7492E-03     584.962E-03     37.9244E+06     28.7649E+06    -1.56257E+06    -13.5075E+06     18.8768E+06    -3.61939E+06    -1.56257E+06     17.3397E+06
            1116     10.4268E-03     6.43086E-03     8.20746E-03     473.229E-03    -219.359E-03    -253.250E-03    -252.215E-03     472.195E-03    -219.359E-03     47.1789E-03     557.426E-03     38.5161E+06     30.3626E+06     1.72040E+06    -13.2960E+06     18.1449E+06    -1.07827E+06     1.72040E+06     19.1205E+06
            1117     10.0392E-03     5.65842E-03     8.29262E-03     459.991E-03    -214.581E-03    -245.658E-03    -245.046E-03     459.378E-03    -214.581E-03     27.7499E-03     529.426E-03     35.2330E+06     28.9503E+06     4.75567E+06    -11.3276E+06     15.8441E+06     1.77860E+06     4.75567E+06     18.5326E+06
            1118     9.69462E-03     4.87767E-03     8.37819E-03     446.106E-03    -209.916E-03    -236.650E-03    -236.249E-03     445.705E-03    -209.916E-03     10.0933E-03     499.887E-03     30.9465E+06     28.8843E+06     8.06504E+06    -6.63506E+06     17.2461E+06     5.00317E+06     8.06504E+06     16.3433E+06
            1119     9.39961E-03     4.08584E-03     8.46514E-03     431.930E-03    -205.312E-03    -227.010E-03    -226.672E-03     431.592E-03    -205.312E-03    -3.69121E-03     470.231E-03     27.4018E+06     29.0338E+06     11.5671E+06    -2.18791E+06     18.6812E+06     8.16465E+06     11.5671E+06     14.6417E+06
            1120     9.14733E-03     3.28505E-03     8.53711E-03     418.028E-03    -200.949E-03    -217.329E-03    -217.008E-03     417.707E-03    -200.949E-03    -13.4100E-03     442.773E-03     24.0079E+06     28.0651E+06     14.7302E+06     1.11478E+06     18.0529E+06     11.0042E+06     14.8530E+06     12.0076E+06
            1121     8.95340E-03     2.47321E-03     8.60503E-03     404.743E-03    -197.121E-03    -207.783E-03    -207.507E-03     404.468E-03    -197.121E-03    -17.5375E-03     418.913E-03     21.4733E+06     29.7137E+06     17.1522E+06     6.03402E+06     20.8351E+06     14.0012E+06     18.0636E+06     8.94775E+06
            1122     8.81310E-03     1.65642E-03     8.65604E-03     393.374E-03    -194.028E-03    -199.498E-03    -199.312E-03     393.188E-03    -194.028E-03    -15.9658E-03     399.996E-03     21.4065E+06     28.5012E+06     17.5491E+06     5.14615E+06     19.1594E+06     13.6993E+06     18.3378E+06     6.56371E+06
            1123     8.72868E-03     828.288E-06     8.68929E-03     385.369E-03    -191.512E-03    -193.913E-03    -193.839E-03     385.295E-03    -191.512E-03    -9.54222E-03     387.474E-03     24.3636E+06     32.0856E+06     17.5721E+06     5.80891E+06     20.7957E+06     14.6095E+06     20.0615E+06     2.30434E+06
            1124     15.2046E-03     13.0807E-03     7.75094E-03     592.977E-03    -262.314E-03    -331.777E-03    -309.124E-03     570.324E-03    -262.314E-03     278.188E-03     756.075E-03     64.7927E+06     21.0589E+06    -27.5961E+06    -47.3988E+06    -7.50185E+06     964.596E+03    -47.3988E+06     1.20579E+06
            1125     14.3184E-03     12.3451E-03     7.25361E-03     599.574E-03    -259.117E-03    -341.153E-03    -316.533E-03     574.955E-03    -259.117E-03     296.006E-03     791.055E-03     108.675E+06     51.9593E+06    -37.0274E+06    -66.5943E+06    -8.47212E+06    -3.18435E+06    -40.0060E+06    -2.75892E+06
            1126     13.5386E-03     11.6122E-03     6.96056E-03     584.078E-03    -255.837E-03    -328.169E-03    -312.704E-03     568.613E-03    -255.837E-03     235.255E-03     744.563E-03     113.611E+06     66.0176E+06    -762.742E+03    -60.3799E+06     18.6832E+06    -13.0455E+06    -762.742E+03    -11.1777E+06
            1127     12.7758E-03     10.8818E-03     6.69371E-03     569.870E-03    -251.628E-03    -316.584E-03    -304.436E-03     557.722E-03    -251.628E-03     205.225E-03     717.632E-03     73.1942E+06     43.7372E+06     19.5881E+06    -36.4927E+06     32.4331E+06    -18.0555E+06     12.4550E+06    -2.13428E+06
            1128     12.0682E-03     10.1516E-03     6.52581E-03     546.874E-03    -247.624E-03    -298.994E-03    -290.553E-03     538.432E-03    -247.624E-03     167.792E-03     681.483E-03     47.5812E+06     31.2139E+06     6.52891E+06    -20.9844E+06     27.1942E+06    -9.19539E+06    -1.24041E+06     7.98752E+06
            1129     11.3941E-03     9.40005E-03     6.43934E-03     526.056E-03    -244.217E-03    -282.458E-03    -275.982E-03     519.580E-03    -244.217E-03     143.886E-03     652.776E-03     46.7884E+06     31.6048E+06    -8.80001E+06    -19.2659E+06     23.3480E+06    -8.91401E+06    -10.8951E+06     13.8209E+06
            1130     10.7677E-03     8.64665E-03     6.41715E-03     511.136E-03    -241.045E-03    -270.153E-03    -264.812E-03     505.795E-03    -241.045E-03     128.584E-03     630.419E-03     51.5081E+06     30.9664E+06    -12.5022E+06    -25.1782E+06     18.2872E+06    -10.1813E+06    -14.8199E+06     21.1066E+06
            1131     10.1891E-03     7.88814E-03     6.44947E-03     499.188E-03    -237.368E-03    -261.598E-03    -256.970E-03     494.560E-03    -237.368E-03     117.828E-03     608.083E-03     49.6821E+06     31.6468E+06    -7.97201E+06    -23.6866E+06     15.0827E+06    -6.26370E+06    -8.83075E+06     24.3672E+06
            1132     9.65203E-03     7.12311E-03     6.51329E-03     489.415E-03    -233.944E-03    -255.012E-03    -250.805E-03     485.207E-03    -233.944E-03     109.652E-03     587.174E-03     45.0413E+06     33.2117E+06     115.895E+03    -17.9330E+06     14.5690E+06     709.811E+03     115.895E+03     24.0775E+06
            1133     9.16517E-03     6.35733E-03     6.60187E-03     481.335E-03    -230.792E-03    -250.251E-03    -246.430E-03     477.514E-03    -230.792E-03     101.528E-03     567.735E-03     38.8041E+06     33.4398E+06     7.56370E+06    -11.0370E+06     15.4893E+06     6.91349E+06     7.56370E+06     21.4121E+06
            1134     8.72278E-03     5.58693E-03     6.69874E-03     473.878E-03    -227.390E-03    -246.350E-03    -243.073E-03     470.601E-03    -227.390E-03     91.0160E-03     546.982E-03     32.9084E+06     34.1365E+06     12.8203E+06    -3.75517E+06     18.1253E+06     12.2560E+06     12.8203E+06     18.3428E+06
            1135     8.34158E-03     4.81407E-03     6.81225E-03     465.205E-03    -223.578E-03    -241.653E-03    -238.939E-03     462.491E-03    -223.578E-03     79.0069E-03     523.776E-03     27.8664E+06     33.2061E+06     15.4616E+06     1.11864E+06     18.5553E+06     15.7695E+06     15.4616E+06     15.5672E+06
            1136     8.00967E-03     4.03357E-03     6.91991E-03     454.233E-03    -219.298E-03    -235.358E-03    -233.277E-03     452.153E-03    -219.298E-03     65.0422E-03     497.959E-03     23.6581E+06     33.4246E+06     18.3343E+06     6.22204E+06     20.9289E+06     18.7178E+06     18.3343E+06     12.8296E+06
            1137     7.73130E-03     3.24374E-03     7.01792E-03     441.919E-03    -214.902E-03    -227.382E-03    -225.997E-03     440.535E-03    -214.902E-03     48.5934E-03     471.393E-03     19.7754E+06     33.6569E+06     20.9238E+06     11.6765E+06     23.5477E+06     21.6628E+06     21.0467E+06     10.0294E+06
            1138     7.51624E-03     2.44610E-03     7.10707E-03     430.016E-03    -210.774E-03    -219.196E-03    -218.394E-03     429.214E-03    -210.774E-03     33.2145E-03     447.245E-03     21.1001E+06     35.6796E+06     22.8929E+06     12.6896E+06     24.4811E+06     23.7652E+06     23.0157E+06     7.56800E+06
            1139     7.36095E-03     1.63584E-03     7.17688E-03     419.380E-03    -207.355E-03    -211.985E-03    -211.610E-03     419.004E-03    -207.355E-03     20.2266E-03     427.682E-03     21.1623E+06     36.4571E+06     24.5135E+06     14.0524E+06     25.4067E+06     25.1028E+06     24.5135E+06     5.08957E+06
            1140     7.26897E-03     822.844E-06     7.22224E-03     411.188E-03    -204.405E-03    -206.831E-03    -205.771E-03     411.062E-03    -205.340E-03     10.7924E-03     414.005E-03     26.3205E+06     38.2687E+06     23.9869E+06     10.9930E+06     24.0758E+06     23.6076E+06     25.5652E+06     1.93209E+06
            1141     14.3759E-03     13.0668E-03     5.99378E-03     602.749E-03    -264.117E-03    -339.429E-03    -308.850E-03     572.170E-03    -264.117E-03     329.995E-03     804.769E-03     80.5644E+06     59.3502E+06    -2.63386E+06    -29.4521E+06     16.9262E+06     16.1316E+06    -5.79352E+06    -1.77036E+06
            1142     13.4539E-03     12.2952E-03     5.46221E-03     612.686E-03    -261.242E-03    -352.043E-03    -327.922E-03     588.565E-03    -261.242E-03     290.969E-03     782.960E-03     121.583E+06     89.9091E+06     11.3811E+06    -45.2047E+06     42.7516E+06     2.72200E+06     10.6120E+06    -13.1814E+06
            1143     12.6727E-03     11.5732E-03     5.16311E-03     585.844E-03    -258.167E-03    -328.314E-03    -316.947E-03     574.478E-03    -258.167E-03     197.281E-03     712.927E-03     116.680E+06     52.1968E+06     10.0422E+06    -77.8274E+06     32.3485E+06    -38.2041E+06    -9.73276E+06     1.13004E+06
            1144     11.9163E-03     10.8476E-03     4.93220E-03     557.093E-03    -253.852E-03    -302.198E-03    -294.241E-03     549.136E-03    -253.852E-03     159.456E-03     670.746E-03     80.2059E+06     16.3964E+06    -14.8070E+06    -70.5894E+06     10.2546E+06    -37.5395E+06    -41.7151E+06     14.5598E+06
            1145     11.1838E-03     10.0971E-03     4.80897E-03     528.289E-03    -250.447E-03    -277.160E-03    -270.599E-03     522.579E-03    -251.298E-03     132.356E-03     631.718E-03     60.3406E+06     20.1097E+06    -29.3496E+06    -44.1467E+06     5.19074E+06    -21.3024E+06    -37.2749E+06      21.228E+06
            1146     10.4847E-03     9.34326E-03     4.75727E-03     507.604E-03    -244.683E-03    -263.273E-03    -252.767E-03     502.567E-03    -250.153E-03     123.176E-03     603.910E-03     61.8464E+06     24.4704E+06    -28.3117E+06    -42.1001E+06     3.03889E+06    -18.4175E+06    -30.5628E+06     28.0086E+06
            1147     9.80346E-03     8.57035E-03     4.75993E-03     495.077E-03    -237.346E-03    -257.766E-03    -239.766E-03     489.718E-03    -249.988E-03     125.122E-03     585.795E-03     54.7600E+06     27.6544E+06    -12.9319E+06    -33.5892E+06     2.79402E+06    -7.26998E+06    -14.3908E+06     28.4999E+06
            1148     9.14981E-03     7.79125E-03     4.79745E-03     488.531E-03    -233.433E-03    -255.496E-03    -232.661E-03     482.370E-03    -250.107E-03     132.611E-03     571.763E-03     45.4636E+06     31.2177E+06    -230.643E+03    -20.7469E+06     5.92373E+06     4.54702E+06    -230.643E+03     24.9131E+06
            1149     8.53872E-03     7.00874E-03     4.87722E-03     488.151E-03    -233.775E-03    -254.882E-03    -230.971E-03     480.971E-03    -250.505E-03     142.570E-03     564.383E-03     35.8936E+06     32.6962E+06     8.58944E+06    -8.38551E+06     10.5555E+06     13.7552E+06     8.58944E+06     19.9273E+06
            1150     7.96562E-03     6.22754E-03     4.96677E-03     491.102E-03    -236.010E-03    -255.111E-03    -232.160E-03     483.167E-03    -251.026E-03     150.015E-03     560.060E-03     29.6863E+06     34.3618E+06     14.9402E+06     240.473E+03     14.4912E+06     20.1110E+06     14.9402E+06     16.1662E+06
            1151     7.45324E-03     5.45403E-03     5.07980E-03     493.686E-03    -238.501E-03    -255.193E-03    -234.789E-03     485.706E-03    -250.925E-03     150.483E-03     552.947E-03     24.2938E+06     35.0209E+06     19.8584E+06     7.04372E+06     17.9341E+06     24.1305E+06     19.8584E+06     12.9569E+06
            1152     6.99502E-03     4.67983E-03     5.19899E-03     495.936E-03    -240.897E-03    -255.103E-03    -238.210E-03     488.456E-03    -250.311E-03     145.990E-03     544.286E-03     20.6508E+06     35.4837E+06     22.9677E+06     11.7266E+06     20.2043E+06     27.0060E+06     22.9677E+06     10.4399E+06
            1153     6.60440E-03     3.90841E-03     5.32377E-03     496.689E-03    -242.569E-03    -254.067E-03    -241.232E-03     490.371E-03    -249.087E-03     134.205E-03     533.432E-03     16.7658E+06     34.8060E+06     24.2838E+06     15.5346E+06     20.9195E+06     29.4211E+06     24.2838E+06     8.06529E+06
            1154     6.27810E-03     3.13530E-03     5.43915E-03     494.433E-03    -243.111E-03    -251.337E-03    -242.485E-03     489.712E-03    -247.243E-03     115.317E-03     519.833E-03     16.6024E+06     37.6859E+06     25.7157E+06     18.9023E+06     25.4065E+06     31.1817E+06     25.7157E+06     6.37539E+06
            1155     6.02468E-03     2.35687E-03     5.54454E-03     490.819E-03    -242.654E-03    -248.078E-03    -242.471E-03     487.790E-03    -245.233E-03     91.2861E-03     506.079E-03     17.2009E+06     37.0112E+06     25.4486E+06     18.1680E+06     24.3712E+06     30.9632E+06     25.2933E+06     4.72636E+06
            1156     5.84510E-03     1.57695E-03     5.62835E-03     487.229E-03    -241.819E-03    -245.288E-03    -241.922E-03     485.688E-03    -243.643E-03     63.7659E-03     494.808E-03     16.7465E+06     38.7370E+06     27.0691E+06     20.7730E+06     26.8666E+06     32.7987E+06     26.9139E+06     3.22637E+06
            1157     5.74219E-03     787.471E-06     5.68794E-03     485.110E-03    -240.885E-03    -244.233E-03    -241.978E-03     484.574E-03    -242.603E-03     35.8684E-03     487.749E-03     21.5314E+06     39.2178E+06     26.5102E+06     16.1764E+06     23.3211E+06     30.7821E+06     27.8012E+06     2.93791E+06
            1158     13.6395E-03     12.9916E-03     4.15400E-03     644.095E-03    -265.484E-03    -378.696E-03    -345.739E-03     611.138E-03    -265.484E-03     334.721E-03     841.378E-03     131.948E+06     90.2590E+06     5.68819E+06    -56.5728E+06     29.1061E+06    -5.68497E+06     15.9532E+06    -15.0507E+06
            1159     12.8142E-03     12.2891E-03     3.63066E-03     624.293E-03    -261.342E-03    -362.847E-03    -350.932E-03     612.377E-03    -261.342E-03     180.939E-03     726.603E-03     100.939E+06     49.6689E+06     3.73745E+06    -63.3637E+06     1.61146E+06    -23.8194E+06     12.2506E+06     13.5769E+06
            1160     12.0667E-03     11.5856E-03     3.37323E-03     567.967E-03    -257.634E-03    -311.260E-03    -307.544E-03     564.251E-03    -257.634E-03     103.483E-03     642.236E-03     73.3396E+06    -5.79156E+06    -33.3376E+06    -88.1228E+06    -22.1315E+06    -50.2559E+06    -54.8645E+06     25.1701E+06
            1161     11.3072E-03     10.8418E-03     3.21043E-03     526.136E-03    -249.214E-03    -277.501E-03    -269.348E-03     523.359E-03    -254.590E-03     90.5698E-03     594.645E-03     70.6717E+06    -873.550E+03    -43.6828E+06    -79.2170E+06    -15.6517E+06    -44.6639E+06    -63.4579E+06     24.2047E+06
            1162     10.5519E-03     10.0747E-03     3.13749E-03     495.546E-03    -235.316E-03    -259.515E-03    -237.628E-03     492.790E-03    -254.447E-03     89.1526E-03     556.761E-03     56.1459E+06     8.72897E+06    -33.9317E+06    -50.2044E+06    -12.7214E+06    -27.9618E+06    -34.7239E+06     26.7408E+06
            1163     9.78354E-03     9.27420E-03     3.11559E-03     478.665E-03    -221.554E-03    -256.874E-03    -217.832E-03     474.943E-03    -256.874E-03     101.282E-03     535.555E-03     48.2010E+06     16.3200E+06    -9.82761E+06    -35.4755E+06    -8.79642E+06    -9.56687E+06    -10.6198E+06     24.1237E+06
            1164     9.03449E-03     8.47043E-03     3.14229E-03     473.632E-03    -213.068E-03    -260.895E-03    -207.873E-03     468.437E-03    -260.895E-03     118.560E-03     526.589E-03     35.8960E+06     24.5647E+06     6.73523E+06    -16.1966E+06    -316.426E+03     8.68457E+06     6.73523E+06     18.1094E+06
            1165     8.29965E-03     7.66062E-03     3.19359E-03     477.856E-03    -212.823E-03    -265.873E-03    -206.290E-03     471.323E-03    -265.873E-03     133.533E-03     525.219E-03     26.8455E+06     28.7930E+06     13.9041E+06    -1.87206E+06     6.66203E+06     20.2589E+06     13.9041E+06     12.9808E+06
            1166     7.59372E-03     6.85697E-03     3.26290E-03     489.078E-03    -218.838E-03    -271.135E-03    -211.059E-03     481.300E-03    -271.135E-03     147.223E-03     532.058E-03     23.7508E+06     32.7452E+06     17.6128E+06     5.45219E+06     11.6390E+06     26.5584E+06     17.6128E+06     9.94474E+06
            1167     6.91560E-03     6.05605E-03     3.33913E-03     504.701E-03    -228.377E-03    -276.381E-03    -219.650E-03     495.975E-03    -276.381E-03     158.465E-03     544.062E-03     20.8897E+06     35.4573E+06     20.7476E+06     11.5619E+06     15.6016E+06     31.4175E+06     20.7476E+06     7.74864E+06
            1168     6.29428E-03     5.27160E-03     3.43923E-03     521.774E-03    -240.425E-03    -281.285E-03    -231.387E-03     512.737E-03    -281.285E-03     164.213E-03     555.584E-03     20.0023E+06     37.0851E+06     23.5817E+06     14.2502E+06     18.1151E+06     33.2202E+06     23.5817E+06     5.55903E+06
            1169     5.72523E-03     4.49926E-03     3.54046E-03     538.846E-03    -252.879E-03    -285.784E-03    -244.153E-03     530.120E-03    -285.784E-03     164.376E-03     566.440E-03     17.6677E+06     37.2164E+06     24.8513E+06     17.1657E+06     20.4179E+06     33.9643E+06     24.8513E+06     4.18841E+06
            1170     5.21966E-03     3.73461E-03     3.64657E-03     554.533E-03    -264.614E-03    -289.598E-03    -257.003E-03     546.923E-03    -289.598E-03     156.169E-03     576.014E-03     16.3369E+06     38.1016E+06     25.3942E+06     19.7778E+06     22.6078E+06     35.2715E+06     25.3942E+06     3.23554E+06
            1171     4.79527E-03     2.97928E-03     3.75745E-03     567.914E-03    -275.349E-03    -292.508E-03    -269.372E-03     561.936E-03    -292.508E-03     140.320E-03     583.346E-03     18.1597E+06     38.5723E+06     25.1532E+06     18.0600E+06     20.6848E+06     35.9476E+06     25.1532E+06     2.48839E+06
            1172     4.45036E-03     2.23109E-03     3.85071E-03     578.832E-03    -284.167E-03    -294.689E-03    -280.178E-03     574.844E-03    -294.689E-03     115.340E-03     588.423E-03     16.0814E+06     38.9543E+06     25.9932E+06     21.2453E+06     23.6789E+06     36.6759E+06     25.8379E+06     2.28563E+06
            1173     4.20014E-03     1.48278E-03     3.92970E-03     587.095E-03    -290.779E-03    -296.218E-03    -288.716E-03     585.032E-03    -296.218E-03     82.4303E-03     591.876E-03     14.9534E+06     37.2224E+06     24.6807E+06     20.9412E+06     22.6624E+06     35.6564E+06     24.5254E+06     1.12014E+06
            1174     4.05273E-03     741.609E-06     3.98429E-03     592.777E-03    -294.272E-03    -298.512E-03    -296.159E-03     592.054E-03    -295.902E-03     47.0685E-03     594.356E-03     15.1173E+06     37.3555E+06     26.3166E+06     20.6072E+06     25.7593E+06     34.9872E+06     23.5329E+06     1.90053E+06
            1175     13.2196E-03     13.0448E-03     2.14266E-03     762.105E-03    -266.350E-03    -495.113E-03    -470.383E-03     737.375E-03    -266.350E-03     300.494E-03     882.459E-03     149.588E+06     73.1975E+06    -28.4467E+06    -92.4591E+06    -20.6507E+06    -8.87592E+06    -18.1817E+06    -39.7588E+06
            1176     12.5019E-03     12.3696E-03     1.81451E-03     623.167E-03    -258.560E-03    -365.711E-03    -364.071E-03     621.527E-03    -258.560E-03     74.8188E-03     671.419E-03     101.228E+06     44.9464E+06    -14.7466E+06    -68.1418E+06    -33.6969E+06     1.98836E+06    -6.23348E+06     17.5986E+06
            1177     11.7417E-03     11.6250E-03     1.65098E-03     535.140E-03    -248.680E-03    -287.529E-03    -281.020E-03     534.593E-03    -254.642E-03     40.1560E-03     572.344E-03     66.8394E+06     8.46006E+06    -21.5585E+06    -66.5771E+06    -15.4969E+06    -43.2386E+06    -20.9401E+06     20.4173E+06
            1178     10.9584E-03     10.8463E-03     1.56337E-03     485.274E-03    -226.823E-03    -259.249E-03    -230.530E-03     484.480E-03    -254.749E-03     44.0724E-03     517.668E-03     63.2041E+06     11.2144E+06    -14.3763E+06    -58.6109E+06    -8.81789E+06    -47.1412E+06    -5.81369E+06     12.4589E+06
            1179     10.1464E-03     10.0290E-03     1.53892E-03     459.330E-03    -201.716E-03    -257.840E-03    -200.409E-03     458.022E-03    -257.840E-03     55.4620E-03     487.722E-03     45.7405E+06     22.3345E+06     1.62226E+06    -27.8338E+06     133.250E+03    -16.9775E+06     12.9672E+06     15.3409E+06
            1180     9.33355E-03     9.20401E-03     1.54962E-03     453.303E-03    -189.414E-03    -263.709E-03    -187.387E-03     451.276E-03    -263.709E-03     68.2781E-03     478.376E-03     30.3925E+06     28.3392E+06     17.4577E+06    -4.87727E+06     7.56766E+06     7.75767E+06     25.5943E+06     9.54928E+06
            1181     8.51095E-03     8.36578E-03     1.56526E-03     459.977E-03    -188.756E-03    -271.105E-03    -185.965E-03     457.187E-03    -271.105E-03     78.9981E-03     482.011E-03     18.7817E+06     28.3025E+06     22.5668E+06     7.82229E+06     11.2115E+06     21.8247E+06     25.6553E+06     4.69628E+06
            1182     7.70535E-03     7.53822E-03     1.59612E-03     475.166E-03    -195.736E-03    -279.559E-03    -192.331E-03     471.761E-03    -279.559E-03     87.3372E-03     494.067E-03     16.0378E+06     29.8787E+06     24.8606E+06     12.2863E+06     14.5868E+06     27.4737E+06     24.9651E+06     2.47425E+06
            1183     6.91584E-03     6.71958E-03     1.63588E-03     495.806E-03    -207.506E-03    -288.541E-03    -203.585E-03     491.885E-03    -288.541E-03     95.5763E-03     512.075E-03     17.9009E+06     34.2889E+06     24.1575E+06     13.7877E+06     16.2151E+06     31.8616E+06     24.1575E+06     2.52011E+06
            1184     6.14922E-03     5.91342E-03     1.68652E-03     520.721E-03    -222.755E-03    -297.891E-03    -218.529E-03     516.495E-03    -297.891E-03     101.925E-03     535.144E-03     20.9045E+06     38.2511E+06     22.9556E+06     14.5432E+06     17.1453E+06     35.6490E+06     22.9556E+06     1.79447E+06
            1185     5.40715E-03     5.11890E-03     1.74186E-03     549.060E-03    -241.285E-03    -307.461E-03    -236.981E-03     544.755E-03    -307.461E-03     105.923E-03     560.753E-03     23.5393E+06     41.0987E+06     21.9256E+06     14.8997E+06     18.4168E+06     37.5816E+06     21.9256E+06     1.21375E+06
            1186     4.70349E-03     4.34470E-03     1.80177E-03     578.606E-03    -261.649E-03    -316.776E-03    -257.462E-03     574.420E-03    -316.776E-03     107.378E-03     588.009E-03     23.7601E+06     41.0689E+06     21.2462E+06     14.7667E+06     19.0591E+06     36.7765E+06     21.2462E+06     496.892E+03
            1187     4.04475E-03     3.58646E-03     1.87010E-03     607.698E-03    -282.177E-03    -325.231E-03    -278.452E-03     603.973E-03    -325.231E-03     103.955E-03     615.095E-03     23.8913E+06     41.1104E+06     21.0587E+06     14.7209E+06     19.4576E+06     36.3737E+06     21.0587E+06     632.973E+03
            1188     3.43965E-03     2.84501E-03     1.93316E-03     635.270E-03    -302.115E-03    -332.592E-03    -299.140E-03     632.296E-03    -332.592E-03     94.6292E-03     640.489E-03     25.5025E+06     42.4005E+06     20.5819E+06     14.5312E+06     19.2337E+06     37.6980E+06     20.5819E+06     186.243E+03
            1189     2.90669E-03     2.11771E-03     1.99101E-03     659.453E-03    -320.262E-03    -338.909E-03    -318.253E-03     657.444E-03    -338.909E-03     79.0696E-03     662.592E-03     24.4893E+06     41.9380E+06     20.7653E+06     15.2855E+06     18.8752E+06     38.3483E+06     20.7653E+06     36.0384E+03
            1190     2.47716E-03     1.40749E-03     2.03846E-03     678.394E-03    -334.882E-03    -343.449E-03    -333.834E-03     677.346E-03    -343.449E-03     58.0939E-03     679.852E-03     18.3848E+06     38.1980E+06     21.5513E+06     18.5705E+06     19.8559E+06     36.9126E+06     21.5513E+06     849.896E+03
            1191     2.18695E-03     701.185E-06     2.07149E-03     690.188E-03    -341.862E-03    -348.311E-03    -342.978E-03     689.805E-03    -346.813E-03     35.4078E-03     690.617E-03     16.3166E+06     35.9536E+06     22.5591E+06     18.4016E+06     21.4473E+06     35.4043E+06     20.0627E+06     255.658E+03
            1192     93.7907E-03     771.540E-06     93.7875E-03     519.552E-03    -259.203E-03    -260.490E-03    -260.340E-03     519.548E-03    -259.350E-03    -3.14801E-03     521.615E-03     6.39476E+06    -69.0218E+06    -72.7274E+06    -76.2727E+06    -73.3175E+06    -73.0837E+06    -71.6208E+06     271.838E+03
            1193     93.7740E-03     1.54221E-03     93.7613E-03     519.101E-03    -259.431E-03    -259.819E-03    -259.428E-03     519.098E-03    -259.819E-03    -2.54909E-03     525.121E-03     8.36516E+06    -60.4891E+06    -64.4037E+06    -69.9918E+06    -69.5146E+06    -64.8810E+06    -60.4891E+06     983.302E+03
            1194     93.7585E-03     2.31260E-03     93.7300E-03     518.280E-03    -258.828E-03    -259.858E-03    -258.827E-03     518.279E-03    -259.858E-03     718.269E-06     531.251E-03     15.1495E+06    -46.9623E+06    -55.1611E+06    -64.3520E+06    -63.9979E+06    -55.5151E+06    -46.9623E+06     1.29214E+06
            1195     93.7453E-03     3.08505E-03     93.6945E-03     517.570E-03    -258.316E-03    -259.941E-03    -258.295E-03     517.550E-03    -259.941E-03     6.82109E-03     539.868E-03     21.2205E+06    -33.5145E+06    -45.0804E+06    -57.9859E+06    -57.7723E+06    -45.2939E+06    -33.5145E+06     1.00721E+06
            1196     93.7452E-03     3.85745E-03     93.6658E-03     517.531E-03    -257.484E-03    -259.865E-03    -257.381E-03     517.427E-03    -259.865E-03     16.8835E-03     549.593E-03     27.8585E+06    -18.6962E+06    -33.3716E+06    -50.8141E+06    -50.6623E+06    -33.5234E+06    -18.6962E+06     1.33075E+06
            1197     93.7699E-03     4.62774E-03     93.6557E-03     516.475E-03    -256.067E-03    -259.812E-03    -255.742E-03     516.150E-03    -259.812E-03     30.6621E-03     560.761E-03     32.8744E+06    -6.99305E+06    -25.1793E+06    -44.9068E+06    -44.7065E+06    -25.3796E+06    -6.99305E+06     1.76055E+06
            1198     93.8174E-03     5.39907E-03     93.6619E-03     514.011E-03    -254.751E-03    -259.862E-03    -253.951E-03     513.211E-03    -259.862E-03     48.5177E-03     573.385E-03     35.1801E+06     1.30104E+06    -18.9369E+06    -39.3121E+06    -39.0597E+06    -19.1892E+06     1.30104E+06     1.92188E+06
            1199     93.8943E-03     6.17169E-03     93.6912E-03     512.317E-03    -254.309E-03    -259.751E-03    -252.729E-03     510.736E-03    -259.751E-03     68.7767E-03     589.429E-03     36.2090E+06     8.34290E+06    -11.5813E+06    -33.4370E+06    -33.1310E+06    -11.8873E+06     8.34290E+06     2.07686E+06
            1200     94.0081E-03     6.94829E-03     93.7510E-03     512.983E-03    -255.049E-03    -259.138E-03    -252.193E-03     510.126E-03    -259.138E-03     92.4933E-03     608.643E-03     36.9325E+06     14.4602E+06    -5.07851E+06    -28.0878E+06    -27.9117E+06    -5.25461E+06     14.4602E+06     1.25878E+06
            1201     94.1909E-03     7.71807E-03     93.8741E-03     514.945E-03    -256.571E-03    -258.694E-03    -252.081E-03     510.456E-03    -258.694E-03     116.843E-03     625.154E-03     38.0237E+06     20.3593E+06    -1.65406E+06    -23.4272E+06    -23.3725E+06    -1.70877E+06     20.3593E+06     845.523E+03
            1202     94.4440E-03     8.48291E-03     94.0622E-03     517.573E-03    -258.302E-03    -259.360E-03    -251.878E-03     511.092E-03    -259.303E-03     140.653E-03     640.110E-03     39.1670E+06     25.6097E+06     3.04983E+06    -19.5273E+06    -19.4549E+06     2.97743E+06     25.6097E+06     1.23165E+06
            1203     94.6901E-03     9.26007E-03     94.2362E-03     520.081E-03    -259.317E-03    -260.590E-03    -251.284E-03     511.208E-03    -259.751E-03     165.060E-03     652.750E-03     37.9348E+06     27.8240E+06     8.17596E+06    -15.8710E+06    -15.6011E+06     7.90616E+06     27.8240E+06     997.348E+03
            1204     94.9838E-03     10.0350E-03     94.4522E-03     521.884E-03    -259.466E-03    -262.633E-03    -251.933E-03     511.184E-03    -259.466E-03     181.914E-03     658.416E-03     36.6205E+06     29.1349E+06     9.66865E+06    -12.9565E+06    -11.7874E+06     8.49961E+06     29.1349E+06     849.004E+03
            1205     95.3374E-03     10.8008E-03     94.7236E-03     527.506E-03    -259.183E-03    -267.931E-03    -253.979E-03     513.554E-03    -259.183E-03     207.964E-03     672.250E-03     36.9021E+06     30.9536E+06     12.3023E+06    -11.1788E+06    -9.06312E+06     10.1867E+06     30.9536E+06     1.37976E+06
            1206     95.7818E-03     11.5740E-03     95.0799E-03     530.268E-03    -259.193E-03    -270.343E-03    -256.050E-03     515.975E-03    -259.193E-03     211.344E-03     673.470E-03     38.6850E+06     32.9131E+06     16.4765E+06    -10.8314E+06    -6.72573E+06     12.3708E+06     32.9131E+06     1.21629E+06
            1207     96.1688E-03     12.3442E-03     95.3733E-03     544.468E-03    -258.983E-03    -285.509E-03    -263.848E-03     522.807E-03    -258.983E-03     258.426E-03     707.555E-03     40.4006E+06     36.4487E+06     19.0065E+06    -9.20653E+06    -4.31400E+06     14.1140E+06     36.4487E+06     615.963E+03
            1208     96.7749E-03     13.1208E-03     95.8813E-03     544.947E-03    -259.512E-03    -285.364E-03    -266.208E-03     525.791E-03    -259.512E-03     235.704E-03     687.808E-03     39.7219E+06     39.8946E+06     18.1187E+06    -5.22948E+06    -1.95864E+06     14.8479E+06     39.8946E+06     411.450E+03
            1209     95.4726E-03     770.006E-06     95.4695E-03     520.453E-03    -260.107E-03    -260.627E-03    -260.390E-03     520.450E-03    -260.340E-03    -2.90827E-03     522.655E-03     6.40050E+06    -69.6616E+06    -72.7744E+06    -76.5614E+06    -74.7604E+06    -73.5402E+06    -70.6968E+06    -246.208E+03
            1210     95.4529E-03     1.54098E-03     95.4404E-03     519.477E-03    -259.491E-03    -260.114E-03    -259.488E-03     519.474E-03    -260.114E-03    -2.30482E-03     525.664E-03     8.20731E+06    -60.7752E+06    -63.9684E+06    -69.8978E+06    -69.0715E+06    -64.7946E+06    -60.7752E+06    -489.105E+03
            1211     95.4313E-03     2.31291E-03     95.4033E-03     518.145E-03    -258.505E-03    -259.962E-03    -258.504E-03     518.144E-03    -259.962E-03     719.385E-06     530.931E-03     13.9012E+06    -48.1879E+06    -56.0462E+06    -64.1455E+06    -64.1152E+06    -56.0765E+06    -48.1879E+06     85.4125E+03
            1212     95.4104E-03     3.08497E-03     95.3605E-03     517.287E-03    -257.958E-03    -259.962E-03    -257.937E-03     517.266E-03    -259.962E-03     6.85078E-03     539.284E-03     22.1043E+06    -33.2715E+06     -45.743E+06      -58.76E+06    -58.7135E+06    -45.7895E+06    -33.2715E+06     482.066E+03
            1213     95.4103E-03     3.85747E-03     95.3322E-03     517.013E-03    -257.094E-03    -259.786E-03    -256.994E-03     516.913E-03    -259.786E-03     16.7462E-03     549.157E-03     27.9854E+06    -20.1380E+06    -35.8261E+06    -52.3943E+06    -52.3038E+06    -35.9165E+06    -20.1380E+06     1.00612E+06
            1214     95.4325E-03     4.62894E-03     95.3202E-03     516.103E-03    -255.820E-03    -259.683E-03    -255.499E-03     515.782E-03    -259.683E-03     30.3887E-03     560.260E-03     31.9954E+06    -8.94983E+06    -26.3787E+06    -45.8122E+06    -45.6422E+06    -26.5487E+06    -8.94983E+06     1.59656E+06
            1215     95.4781E-03     5.40156E-03     95.3251E-03     514.138E-03    -254.958E-03    -259.724E-03    -254.220E-03     513.400E-03    -259.724E-03     46.7847E-03     573.202E-03     35.4129E+06     1.07906E+06    -18.9860E+06    -39.7596E+06    -39.5132E+06    -19.2324E+06     1.07906E+06     1.62541E+06
            1216     95.5581E-03     6.17487E-03     95.3584E-03     513.064E-03    -255.187E-03    -259.701E-03    -253.733E-03     511.610E-03    -259.701E-03     65.8436E-03     590.202E-03     36.8992E+06     8.82154E+06    -12.1804E+06    -33.7381E+06    -33.5574E+06    -12.3610E+06     8.82154E+06     1.28552E+06
            1217     95.6730E-03     6.94494E-03     95.4206E-03     514.121E-03    -255.879E-03    -259.264E-03    -253.073E-03     511.315E-03    -259.264E-03     91.5339E-03     609.739E-03     38.3045E+06     15.8929E+06    -4.80483E+06    -28.2335E+06    -28.1289E+06    -4.90946E+06     15.8929E+06     1.36681E+06
            1218     95.8574E-03     7.71312E-03     95.5466E-03     515.572E-03    -256.884E-03    -258.847E-03    -252.234E-03     510.922E-03    -258.847E-03     118.810E-03     625.943E-03     40.2643E+06     22.3593E+06    -1.45107E+06    -24.0006E+06    -23.8810E+06    -1.57065E+06     22.3593E+06     1.53696E+06
            1219     96.1084E-03     8.48168E-03     95.7334E-03     517.456E-03    -258.319E-03    -259.440E-03    -251.619E-03     510.757E-03    -259.440E-03     143.059E-03     640.565E-03     40.0970E+06     26.5223E+06     2.90649E+06    -19.6906E+06    -19.5992E+06     2.81505E+06     26.5223E+06     786.778E+03
            1220     96.3607E-03     9.25957E-03     95.9148E-03     519.913E-03    -259.275E-03    -260.656E-03    -250.959E-03     510.826E-03    -259.885E-03     166.977E-03     652.583E-03     38.3780E+06     28.2367E+06     8.01121E+06    -15.9776E+06    -15.5633E+06     7.59695E+06     28.2367E+06     836.958E+03
            1221     96.6537E-03     10.0339E-03     96.1315E-03     521.376E-03    -259.535E-03    -262.325E-03    -251.513E-03     510.564E-03    -259.535E-03     182.786E-03     658.238E-03     36.8933E+06     28.5017E+06     8.70986E+06    -13.8813E+06    -12.7498E+06     7.57837E+06     28.5017E+06     1.59334E+06
            1222     97.0015E-03     10.8022E-03     96.3982E-03     527.125E-03    -259.194E-03    -267.642E-03    -253.657E-03     513.140E-03    -259.194E-03     208.061E-03     672.218E-03     37.1018E+06     30.1909E+06     11.7141E+06    -12.0380E+06    -10.2577E+06     9.93372E+06     30.1909E+06     1.55254E+06
            1223     97.4528E-03     11.5709E-03     96.7634E-03     529.967E-03    -259.164E-03    -269.994E-03    -255.675E-03     515.648E-03    -259.164E-03     211.392E-03     673.324E-03     38.2105E+06     32.1146E+06     16.2631E+06    -10.9741E+06    -7.44362E+06     12.7327E+06     32.1146E+06     1.44598E+06
            1224     97.8304E-03     12.3451E-03     97.0483E-03     544.411E-03    -258.955E-03    -285.279E-03    -263.626E-03     522.758E-03    -258.955E-03     258.271E-03     707.492E-03     39.6088E+06     34.9181E+06     19.1284E+06    -9.45385E+06    -5.08624E+06     14.7608E+06     34.9181E+06     848.825E+03
            1225     98.4432E-03     13.1170E-03     97.5654E-03     545.310E-03    -259.527E-03    -285.520E-03    -266.333E-03     526.124E-03    -259.527E-03     235.959E-03     687.829E-03     40.9206E+06     40.2213E+06     19.2446E+06    -5.98354E+06    -2.90593E+06     16.1670E+06     40.2213E+06     52.9282E+03
            1226     97.1582E-03     771.023E-06     97.1551E-03     519.610E-03    -259.565E-03    -260.283E-03    -260.134E-03     519.609E-03    -259.714E-03    -854.921E-06     521.769E-03     5.87639E+06    -68.3328E+06    -70.6119E+06    -74.6788E+06    -71.3453E+06    -71.7596E+06    -70.5187E+06    -1.05469E+06
            1227     97.1415E-03     1.54114E-03     97.1293E-03     519.154E-03    -259.372E-03    -260.026E-03    -259.606E-03     519.154E-03    -259.792E-03    -1.10999E-03     525.473E-03     8.32407E+06    -61.6685E+06    -65.2714E+06    -70.9961E+06    -69.9811E+06    -65.8174E+06    -62.1376E+06    -255.872E+03
            1228     97.1094E-03     2.31350E-03     97.0818E-03     518.442E-03    -258.776E-03    -259.956E-03    -258.905E-03     518.440E-03    -259.825E-03     654.129E-06     531.492E-03     14.6249E+06    -48.8079E+06    -57.1775E+06    -65.6172E+06    -65.5699E+06    -57.2248E+06    -48.8079E+06     269.593E+03
            1229     97.0926E-03     3.08500E-03     97.0436E-03     517.717E-03    -258.243E-03    -259.964E-03    -258.227E-03     517.700E-03    -259.964E-03     6.18601E-03     539.767E-03     22.2581E+06    -33.6637E+06    -46.9700E+06    -59.3352E+06    -59.2674E+06    -47.0379E+06    -33.6637E+06     815.534E+03
            1230     97.0871E-03     3.85742E-03     97.0104E-03     517.201E-03    -257.123E-03    -259.856E-03    -257.032E-03     517.110E-03    -259.856E-03     15.6938E-03     549.176E-03     29.3131E+06    -19.3384E+06    -36.5271E+06    -53.1377E+06    -53.0247E+06    -36.6401E+06    -19.3384E+06     667.934E+03
            1231     97.1102E-03     4.62949E-03     96.9998E-03     516.771E-03    -256.201E-03    -259.792E-03    -255.914E-03     516.484E-03    -259.792E-03     28.8788E-03     560.564E-03     33.2145E+06    -7.50070E+06    -26.4242E+06    -45.7710E+06    -45.6971E+06    -26.4982E+06    -7.50070E+06     386.376E+03
            1232     97.1545E-03     5.39984E-03     97.0043E-03     515.314E-03    -255.602E-03    -259.946E-03    -254.895E-03     514.607E-03    -259.946E-03     45.5890E-03     574.120E-03     35.3336E+06     1.50907E+06    -19.7020E+06    -39.2140E+06    -39.1209E+06    -19.7951E+06     1.50907E+06     827.378E+03
            1233     97.2396E-03     6.16747E-03     97.0438E-03     513.458E-03    -255.091E-03    -259.947E-03    -253.614E-03     511.980E-03    -259.947E-03     66.2870E-03     590.745E-03     37.1709E+06     8.64813E+06    -14.0513E+06    -34.1649E+06    -34.0339E+06    -14.1823E+06     8.64813E+06     1.18471E+06
            1234     97.3528E-03     6.94423E-03     97.1048E-03     513.314E-03    -254.840E-03    -259.398E-03    -251.980E-03     510.454E-03    -259.398E-03     92.3312E-03     608.857E-03     39.6652E+06     16.2891E+06    -5.72984E+06    -29.2976E+06    -29.1331E+06    -5.89427E+06     16.2891E+06     1.89255E+06
            1235     97.5447E-03     7.71706E-03     97.2389E-03     514.319E-03    -255.638E-03    -258.855E-03    -250.951E-03     509.632E-03    -258.855E-03     119.142E-03     624.811E-03     40.6499E+06     22.2845E+06     266.984E+03    -24.4875E+06    -24.3189E+06     98.3446E+03     22.2845E+06     1.65211E+06
            1236     97.7908E-03     8.48385E-03     97.4221E-03     517.125E-03    -258.022E-03    -259.401E-03    -251.234E-03     510.337E-03    -259.401E-03     143.901E-03     640.605E-03     39.7927E+06     24.9933E+06     3.18087E+06    -20.8881E+06    -20.6721E+06     2.96496E+06     24.9933E+06     1.14165E+06
            1237     98.0420E-03     9.25730E-03     97.6040E-03     520.134E-03    -259.508E-03    -260.741E-03    -251.144E-03     510.872E-03    -259.842E-03     168.618E-03     653.223E-03     39.5106E+06     27.2428E+06     6.19492E+06    -18.2688E+06    -17.7530E+06     5.67917E+06     27.2428E+06     1.56609E+06
            1238     98.3282E-03     10.0348E-03     97.8148E-03     521.252E-03    -259.487E-03    -262.456E-03    -251.546E-03     510.343E-03    -259.487E-03     183.616E-03     658.925E-03     37.9923E+06     28.4264E+06     8.62721E+06    -15.0676E+06    -14.0366E+06     7.59613E+06     28.4264E+06     1.67433E+06
            1239     98.6791E-03     10.8006E-03     98.0863E-03     526.949E-03    -259.134E-03    -267.567E-03    -253.490E-03     512.872E-03    -259.134E-03     208.645E-03     672.497E-03     36.6887E+06     28.8820E+06     11.3854E+06    -12.7003E+06    -11.0079E+06     9.69304E+06     28.8820E+06     1.63984E+06
            1240     99.1201E-03     11.5741E-03     98.4421E-03     530.105E-03    -259.061E-03    -270.272E-03    -255.769E-03     515.602E-03    -259.061E-03     212.790E-03     673.365E-03     37.6432E+06     31.4300E+06     15.9444E+06    -10.9294E+06    -7.60840E+06     12.6234E+06     31.4300E+06     1.28528E+06
            1241     99.4961E-03     12.3452E-03     98.7273E-03     545.094E-03    -258.907E-03    -286.149E-03    -264.341E-03     523.286E-03    -258.907E-03     259.580E-03     707.975E-03     39.7836E+06     36.1995E+06     20.0372E+06    -8.22801E+06    -4.47036E+06     16.2795E+06     36.1995E+06     835.815E+03
            1242     100.108E-03     13.1200E-03     99.2441E-03     545.191E-03    -259.565E-03    -285.568E-03    -266.327E-03     525.950E-03    -259.565E-03     236.261E-03     687.991E-03     41.6734E+06     42.0988E+06     20.4917E+06    -4.86391E+06    -2.04269E+06     17.6705E+06     42.0988E+06     683.346E+03
            1243     98.8405E-03     772.246E-06     98.8375E-03     518.385E-03    -258.231E-03    -260.347E-03    -260.113E-03     518.380E-03    -258.461E-03    -2.37126E-03     520.325E-03     8.24054E+06    -69.3553E+06    -73.4344E+06    -78.7871E+06    -75.1134E+06    -74.6269E+06    -71.8365E+06     1.29031E+06
            1244     98.8264E-03     1.54424E-03     98.8143E-03     518.374E-03    -259.127E-03    -259.601E-03    -259.369E-03     518.371E-03    -259.357E-03    -1.85163E-03     524.531E-03     10.3196E+06    -61.5393E+06    -67.2800E+06    -73.3960E+06    -72.8746E+06    -67.3323E+06    -62.0084E+06     1.37800E+06
            1245     98.7985E-03     2.31349E-03     98.7714E-03     518.631E-03    -259.364E-03    -259.764E-03    -259.503E-03     518.629E-03    -259.623E-03     960.989E-06     532.122E-03     16.7706E+06    -47.2072E+06    -56.7241E+06    -66.5087E+06    -66.4515E+06    -56.7814E+06    -47.2072E+06     587.214E+03
            1246     98.7805E-03     3.08438E-03     98.7323E-03     518.529E-03    -259.115E-03    -259.948E-03    -259.099E-03     518.512E-03    -259.948E-03     6.40420E-03     540.915E-03     22.9272E+06    -34.1200E+06     -47.805E+06    -60.5687E+06    -60.5402E+06    -47.8335E+06    -34.1200E+06     487.523E+03
            1247     98.7741E-03     3.85629E-03     98.6988E-03     518.410E-03    -258.131E-03    -260.010E-03    -258.037E-03     518.317E-03    -260.010E-03     15.8340E-03     550.155E-03     29.0091E+06    -20.3092E+06    -35.6099E+06    -53.6658E+06    -53.5667E+06    -35.7090E+06    -20.3092E+06     570.571E+03
            1248     98.7969E-03     4.62626E-03     98.6885E-03     517.385E-03    -256.633E-03    -260.065E-03    -256.327E-03     517.079E-03    -260.065E-03     29.7134E-03     561.291E-03     34.2531E+06    -7.95661E+06    -27.0468E+06    -47.3352E+06    -47.2288E+06    -27.1533E+06    -7.95661E+06     719.052E+03
            1249     98.8441E-03     5.39687E-03     98.6966E-03     514.935E-03    -254.971E-03    -260.166E-03    -254.209E-03     514.173E-03    -260.166E-03     47.3009E-03     574.037E-03     37.6050E+06     2.20765E+06    -21.6295E+06    -41.1411E+06    -41.0239E+06    -21.7467E+06     2.20765E+06     1.30750E+06
            1250     98.9278E-03     6.17203E-03     98.7350E-03     513.037E-03    -254.337E-03    -260.033E-03    -252.804E-03     511.504E-03    -260.033E-03     67.6948E-03     590.288E-03     39.2081E+06     9.47873E+06    -15.0054E+06    -35.7138E+06    -35.4700E+06    -15.2492E+06     9.47873E+06     1.90484E+06
            1251     99.0411E-03     6.94351E-03     98.7974E-03     512.950E-03    -254.426E-03    -259.394E-03    -251.583E-03     510.107E-03    -259.394E-03     92.1453E-03     608.421E-03     39.6168E+06     14.6890E+06    -6.81187E+06    -30.8514E+06    -30.6115E+06    -7.05176E+06     14.6890E+06     2.09672E+06
            1252     99.2301E-03     7.71208E-03     98.9300E-03     513.308E-03    -254.679E-03    -258.816E-03    -250.020E-03     508.649E-03    -258.816E-03     118.577E-03     624.077E-03     39.6578E+06     19.2721E+06     701.891E+03    -26.2303E+06    -26.0370E+06     508.645E+03     19.2721E+06     1.77512E+06
            1253     99.4705E-03     8.48415E-03     99.1080E-03     516.397E-03    -257.170E-03    -259.358E-03    -250.315E-03     509.543E-03    -259.358E-03     144.420E-03     639.573E-03     39.8789E+06     23.5399E+06     3.16064E+06    -22.3264E+06    -22.0653E+06     2.89948E+06     23.5399E+06     1.85557E+06
            1254     99.7285E-03     9.26131E-03     99.2975E-03     520.067E-03    -259.409E-03    -260.721E-03    -251.052E-03     510.791E-03    -259.801E-03     168.793E-03     652.712E-03     39.6437E+06     26.8594E+06     5.65983E+06    -18.7708E+06    -18.1425E+06     5.03153E+06     26.8594E+06     2.20181E+06
            1255     100.008E-03     10.0353E-03     99.5031E-03     521.467E-03    -259.395E-03    -262.676E-03    -251.673E-03     510.464E-03    -259.395E-03     184.409E-03     659.040E-03     37.7647E+06     27.3974E+06     9.12396E+06    -15.8631E+06    -14.6821E+06     7.94301E+06     27.3974E+06     1.76449E+06
            1256     100.355E-03     10.8036E-03     99.7713E-03     527.359E-03    -259.042E-03    -267.921E-03    -253.811E-03     513.250E-03    -259.042E-03     209.161E-03     673.052E-03     36.7322E+06     29.3367E+06     11.8229E+06    -12.6262E+06    -11.2326E+06     10.4293E+06     29.3367E+06     639.444E+03
            1257     100.791E-03     11.5743E-03     100.124E-03     530.478E-03    -259.005E-03    -270.672E-03    -256.281E-03     516.086E-03    -259.005E-03     212.139E-03     673.986E-03     38.6553E+06     33.0250E+06     16.1782E+06    -10.7669E+06    -7.65811E+06     13.0694E+06     33.0250E+06     137.194E+03
            1258     101.176E-03     12.3458E-03     100.420E-03     544.929E-03    -258.869E-03    -286.130E-03    -264.407E-03     523.207E-03    -258.869E-03     259.078E-03     707.695E-03     40.7581E+06     37.2952E+06     20.1407E+06    -8.49533E+06    -4.59281E+06     16.2382E+06     37.2952E+06     556.979E+03
            1259     101.772E-03     13.1173E-03     100.924E-03     544.659E-03    -259.566E-03    -285.153E-03    -265.980E-03     525.487E-03    -259.566E-03     235.854E-03     687.396E-03     41.3363E+06     41.5278E+06     20.2239E+06    -5.45227E+06    -2.78114E+06     17.5527E+06     41.5278E+06     693.327E+03
            1260     100.525E-03     769.920E-06     100.522E-03     519.138E-03    -258.638E-03    -260.670E-03    -260.425E-03     519.133E-03    -258.878E-03    -3.42372E-03     521.101E-03     7.32735E+06    -73.7477E+06    -77.4005E+06    -82.0823E+06    -79.1536E+06    -78.3921E+06    -75.6849E+06     1.52278E+06
            1261     100.515E-03     1.54179E-03     100.503E-03     518.433E-03    -259.066E-03    -259.623E-03    -259.073E-03     518.430E-03    -259.612E-03    -2.87254E-03     524.447E-03     9.87627E+06    -62.6699E+06    -67.7122E+06    -73.9082E+06    -73.6403E+06    -67.9801E+06    -62.6699E+06     1.12503E+06
            1262     100.491E-03     2.31523E-03     100.464E-03     518.166E-03    -259.075E-03    -259.637E-03    -259.084E-03     518.164E-03    -259.626E-03    -108.581E-06     531.508E-03     17.1140E+06    -49.1313E+06    -58.3649E+06    -68.7907E+06    -68.3032E+06    -58.8524E+06    -49.1313E+06     1.83322E+06
            1263     100.472E-03     3.08574E-03     100.425E-03     518.743E-03    -259.498E-03    -259.890E-03    -259.477E-03     518.721E-03    -259.890E-03     6.62126E-03     541.194E-03     24.9677E+06    -33.0396E+06    -47.2373E+06    -61.8131E+06    -61.3987E+06    -47.6517E+06    -33.0396E+06     1.76211E+06
            1264     100.463E-03     3.85540E-03     100.389E-03     518.802E-03    -258.457E-03    -260.032E-03    -258.347E-03     518.692E-03    -260.032E-03     17.3865E-03     550.705E-03     30.6612E+06    -19.5980E+06    -35.8032E+06    -54.8831E+06    -54.7476E+06    -35.9387E+06    -19.5980E+06     1.47987E+06
            1265     100.481E-03     4.62632E-03     100.375E-03     517.025E-03    -256.243E-03    -260.107E-03    -255.902E-03     516.683E-03    -260.107E-03     31.4852E-03     561.216E-03     35.0752E+06    -8.41863E+06    -28.1404E+06    -48.7600E+06    -48.5808E+06    -28.3197E+06    -8.41863E+06     1.84384E+06
            1266     100.527E-03     5.39961E-03     100.382E-03     514.424E-03    -254.696E-03    -260.109E-03    -253.901E-03     513.630E-03    -260.109E-03     48.5170E-03     573.913E-03     37.9973E+06     261.360E+03    -23.5489E+06    -43.5514E+06    -43.3194E+06    -23.7809E+06     261.360E+03     1.91731E+06
            1267     100.614E-03     6.16836E-03     100.425E-03     512.531E-03    -254.025E-03    -259.893E-03    -252.438E-03     510.944E-03    -259.893E-03     68.7074E-03     589.911E-03     39.0996E+06     7.18925E+06    -15.3681E+06    -37.9071E+06    -37.6241E+06    -15.6510E+06     7.18925E+06     2.05049E+06
            1268     100.730E-03     6.94447E-03     100.491E-03     512.372E-03    -254.069E-03    -259.237E-03    -251.126E-03     509.430E-03    -259.237E-03     93.7175E-03     607.977E-03     40.2883E+06     14.8209E+06    -6.38516E+06    -31.6240E+06    -31.4474E+06    -6.56173E+06     14.8209E+06     1.61784E+06
            1269     100.919E-03     7.71624E-03     100.624E-03     513.659E-03    -255.275E-03    -258.735E-03    -250.526E-03     508.910E-03    -258.735E-03     119.864E-03     624.312E-03     41.1646E+06     20.9208E+06    -534.546E+03    -26.4410E+06    -26.2926E+06    -683.017E+03     20.9208E+06     1.72641E+06
            1270     101.156E-03     8.48558E-03     100.800E-03     516.649E-03    -257.496E-03    -259.352E-03    -250.691E-03     509.844E-03    -259.352E-03     144.047E-03     639.604E-03     40.5997E+06     25.1201E+06     2.73420E+06    -21.6224E+06    -21.3532E+06     2.46507E+06     25.1201E+06     2.20719E+06
            1271     101.415E-03     9.26016E-03     100.992E-03     519.198E-03    -259.157E-03    -260.429E-03    -250.685E-03     510.128E-03    -259.832E-03     166.781E-03     651.803E-03     39.0324E+06     27.4597E+06     5.97188E+06    -17.4937E+06    -16.8437E+06     5.32187E+06     27.4597E+06     2.04601E+06
            1272     101.689E-03     10.0382E-03     101.193E-03     520.912E-03    -259.351E-03    -262.467E-03    -251.609E-03     510.054E-03    -259.351E-03     183.097E-03     658.012E-03     37.5630E+06     28.3124E+06     9.98684E+06    -14.7307E+06    -13.5543E+06     8.81047E+06     28.3124E+06     1.62960E+06
            1273     102.028E-03     10.8051E-03     101.454E-03     527.723E-03    -258.931E-03    -268.271E-03    -254.200E-03     513.652E-03    -258.931E-03     208.970E-03     673.399E-03     37.5749E+06     31.3171E+06     13.7832E+06    -11.6671E+06    -10.4049E+06     12.5210E+06     31.3171E+06     596.788E+03
            1274     102.471E-03     11.5736E-03     101.815E-03     531.041E-03    -258.928E-03    -271.201E-03    -256.742E-03     516.583E-03    -258.928E-03     212.837E-03     674.995E-03     39.8871E+06     33.9682E+06     16.1911E+06    -11.5099E+06    -8.18893E+06     12.8701E+06     33.9682E+06     571.861E+03
            1275     102.847E-03     12.3446E-03     102.103E-03     544.881E-03    -258.831E-03    -286.143E-03    -264.290E-03     523.028E-03    -258.831E-03     259.928E-03     707.682E-03     43.0001E+06     37.9057E+06     18.6346E+06    -10.7170E+06    -6.43196E+06     14.3496E+06     37.9057E+06     704.360E+03
            1276     103.448E-03     13.1200E-03     102.612E-03     544.417E-03    -259.559E-03    -284.894E-03    -265.655E-03     525.177E-03    -259.559E-03     236.196E-03     687.038E-03     42.6474E+06     43.3961E+06     21.0610E+06    -5.12456E+06    -2.54084E+06     18.4772E+06     43.3961E+06     63.1532E+03
            1277     102.217E-03     771.987E-06     102.214E-03     519.315E-03    -259.342E-03    -260.060E-03    -260.049E-03     519.313E-03    -259.352E-03    -1.91989E-03     521.361E-03     2.97482E+06    -77.1238E+06    -78.3311E+06    -80.4403E+06    -79.0782E+06    -79.0866E+06    -77.7304E+06    -153.555E+03
            1278     102.207E-03     1.54153E-03     102.196E-03     518.914E-03    -259.392E-03    -259.739E-03    -259.421E-03     518.913E-03    -259.708E-03    -1.55793E-03     525.064E-03     8.38274E+06    -66.4713E+06    -70.0190E+06    -75.8973E+06    -75.2147E+06    -70.7016E+06    -66.4713E+06     1.56131E+06
            1279     102.184E-03     2.31213E-03     102.158E-03     518.067E-03    -258.962E-03    -259.726E-03    -258.971E-03     518.064E-03    -259.714E-03     961.985E-06     531.446E-03     17.4061E+06    -51.3100E+06    -60.2021E+06    -71.2164E+06    -70.3814E+06    -61.0371E+06    -51.3100E+06     2.02602E+06
            1280     102.172E-03     3.08482E-03     102.125E-03     518.040E-03    -258.888E-03    -259.839E-03    -258.865E-03     518.016E-03    -259.839E-03     7.24753E-03     540.572E-03     25.7955E+06    -34.5647E+06    -48.2680E+06    -64.2316E+06    -63.7330E+06    -48.7667E+06    -34.5647E+06     1.70142E+06
            1281     102.159E-03     3.85703E-03     102.087E-03     518.112E-03    -257.870E-03    -259.882E-03    -257.762E-03     518.004E-03    -259.882E-03     17.3042E-03     550.131E-03     32.7642E+06    -18.9778E+06    -37.3590E+06    -56.7086E+06    -56.4922E+06    -37.5754E+06    -18.9778E+06     1.96222E+06
            1282     102.172E-03     4.62838E-03     102.067E-03     516.664E-03    -256.082E-03    -259.932E-03    -255.738E-03     516.320E-03    -259.932E-03     31.4648E-03     560.829E-03     36.0365E+06    -8.74251E+06    -30.3375E+06    -50.3021E+06    -49.9068E+06    -30.7329E+06    -8.74251E+06     2.59718E+06
            1283     102.220E-03     5.39836E-03     102.077E-03     514.084E-03    -254.704E-03    -259.938E-03    -253.887E-03     513.267E-03    -259.938E-03     49.1829E-03     573.728E-03     37.2683E+06    -543.219E+03    -23.3160E+06    -43.5420E+06    -43.0607E+06    -23.7974E+06    -543.219E+03     3.01919E+06
            1284     102.304E-03     6.17355E-03     102.118E-03     512.026E-03    -253.885E-03    -259.674E-03    -252.286E-03     510.428E-03    -259.674E-03     69.0350E-03     589.738E-03     38.8920E+06     7.53886E+06    -13.1447E+06    -37.1595E+06    -36.9416E+06    -13.3626E+06     7.53886E+06     1.92512E+06
            1285     102.418E-03     6.94796E-03     102.182E-03     512.141E-03    -253.964E-03    -259.017E-03    -251.112E-03     509.288E-03    -259.017E-03     92.3809E-03     608.167E-03     41.1965E+06     15.3709E+06    -6.60460E+06    -31.8843E+06    -31.8190E+06    -6.66995E+06     15.3709E+06     1.17462E+06
            1286     102.611E-03     7.71530E-03     102.321E-03     514.019E-03    -255.778E-03    -258.707E-03    -251.104E-03     509.345E-03    -258.707E-03     118.832E-03     624.592E-03     42.3683E+06     21.1254E+06    -2.85431E+06    -27.5321E+06    -27.4509E+06    -2.93551E+06     21.1254E+06     1.35158E+06
            1287     102.847E-03     8.48307E-03     102.496E-03     516.821E-03    -257.960E-03    -259.404E-03    -251.147E-03     510.008E-03    -259.404E-03     144.187E-03     639.888E-03     42.6392E+06     26.2954E+06     2.59218E+06    -22.7739E+06    -22.5818E+06     2.39999E+06     26.2954E+06     1.39911E+06
            1288     103.096E-03     9.26079E-03     102.679E-03     519.357E-03    -259.211E-03    -260.615E-03    -250.845E-03     510.255E-03    -259.880E-03     167.093E-03     652.528E-03     41.0708E+06     29.1738E+06     5.71426E+06    -18.1817E+06    -17.7774E+06     5.31001E+06     29.1738E+06     1.10731E+06
            1289     103.369E-03     10.0368E-03     102.881E-03     520.559E-03    -259.387E-03    -262.176E-03    -251.338E-03     509.721E-03    -259.387E-03     182.872E-03     658.234E-03     38.5548E+06     29.4716E+06     9.73694E+06    -14.7822E+06    -13.7747E+06     8.72949E+06     29.4716E+06     887.801E+03
            1290     103.712E-03     10.8048E-03     103.147E-03     527.105E-03    -258.874E-03    -267.799E-03    -253.614E-03     512.920E-03    -258.874E-03     209.526E-03     672.449E-03     37.9476E+06     30.8314E+06     13.1046E+06    -12.5207E+06    -10.9112E+06     11.4951E+06     30.8314E+06     1.10192E+06
            1291     104.155E-03     11.5766E-03     103.510E-03     530.852E-03    -258.816E-03    -271.068E-03    -256.496E-03     516.279E-03    -258.816E-03     213.491E-03     674.272E-03     39.8224E+06     33.6916E+06     15.7919E+06    -11.6525E+06    -8.59840E+06     12.7378E+06     33.6916E+06     1.65528E+06
            1292     104.531E-03     12.3469E-03     103.799E-03     544.548E-03    -258.739E-03    -286.001E-03    -264.071E-03     522.618E-03    -258.739E-03     260.069E-03     707.611E-03     43.0827E+06     39.4739E+06     20.6315E+06    -8.97194E+06    -5.24227E+06     16.9018E+06     39.4739E+06     1.13995E+06
            1293     105.118E-03     13.1186E-03     104.296E-03     544.944E-03    -259.506E-03    -285.466E-03    -266.051E-03     525.529E-03    -259.506E-03     237.389E-03     687.729E-03     44.3112E+06     44.9293E+06     22.5883E+06    -5.23711E+06    -2.77224E+06     20.1234E+06     44.9293E+06          669.25
            1294     103.901E-03     770.935E-06     103.898E-03     518.900E-03    -259.032E-03    -259.943E-03    -259.770E-03     518.899E-03    -259.204E-03    -2.20164E-03     520.933E-03     4.29782E+06    -78.3394E+06    -79.8329E+06    -83.1178E+06    -81.8537E+06    -81.0492E+06    -78.3873E+06     871.472E+03
            1295     103.901E-03     1.54320E-03     103.889E-03     518.574E-03    -259.335E-03    -259.556E-03    -259.363E-03     518.572E-03    -259.526E-03    -1.87218E-03     524.868E-03     9.68045E+06    -68.5579E+06    -72.8634E+06    -79.5556E+06    -78.8727E+06    -73.5464E+06    -68.5579E+06     1.14679E+06
            1296     103.879E-03     2.31471E-03     103.854E-03     518.018E-03    -259.105E-03    -259.602E-03    -259.114E-03     518.014E-03    -259.589E-03     1.56122E-03     531.501E-03     17.7563E+06    -53.0070E+06    -61.8969E+06    -73.3018E+06    -72.4339E+06    -62.7648E+06    -53.0070E+06     1.54430E+06
            1297     103.863E-03     3.08524E-03     103.818E-03     517.510E-03    -258.424E-03    -259.685E-03    -258.398E-03     517.484E-03    -259.685E-03     8.04026E-03     539.890E-03     25.0848E+06    -37.6365E+06    -50.0802E+06    -66.4385E+06    -65.8966E+06    -50.6221E+06    -37.6365E+06     1.66409E+06
            1298     103.850E-03     3.85772E-03     103.778E-03     517.461E-03    -257.434E-03    -259.655E-03    -257.322E-03     517.349E-03    -259.655E-03     17.6789E-03     549.455E-03     31.6575E+06    -22.1030E+06    -39.5651E+06    -58.5401E+06    -58.2087E+06    -39.8965E+06    -22.1030E+06     2.33295E+06
            1299     103.866E-03     4.62843E-03     103.763E-03     516.178E-03    -255.901E-03    -259.689E-03    -255.561E-03     515.838E-03    -259.689E-03     31.3557E-03     560.462E-03     37.2813E+06     -8.3919E+06    -31.7945E+06    -51.3339E+06    -50.8618E+06    -32.2665E+06     -8.3919E+06     2.67499E+06
            1300     103.909E-03     5.40183E-03     103.768E-03     513.773E-03    -254.656E-03    -259.722E-03    -253.851E-03     512.968E-03    -259.722E-03     48.7571E-03     573.243E-03     39.0109E+06     1.32205E+06    -23.1369E+06    -43.6245E+06    -43.3329E+06    -23.4284E+06     1.32205E+06     1.95046E+06
            1301     103.997E-03     6.17216E-03     103.813E-03     512.232E-03    -254.333E-03    -259.482E-03    -252.783E-03     510.682E-03    -259.482E-03     68.1238E-03     589.738E-03     39.8430E+06     9.27428E+06    -12.0039E+06    -36.5270E+06    -36.3820E+06    -12.1489E+06     9.27428E+06     1.73222E+06
            1302     104.110E-03     6.94493E-03     103.878E-03     512.757E-03    -254.452E-03    -258.916E-03    -251.641E-03     509.946E-03    -258.916E-03     91.6721E-03     608.744E-03     41.2447E+06     15.0799E+06    -7.40367E+06    -32.2534E+06    -32.0791E+06    -7.57792E+06     15.0799E+06     1.99494E+06
            1303     104.306E-03     7.71479E-03     104.020E-03     513.815E-03    -255.442E-03    -258.762E-03    -250.762E-03     509.136E-03    -258.762E-03     118.845E-03     624.560E-03     42.6490E+06     21.5172E+06    -2.85044E+06    -27.4907E+06    -27.2864E+06    -3.05476E+06     21.5172E+06     2.14563E+06
            1304     104.537E-03     8.48747E-03     104.192E-03     516.163E-03    -257.448E-03    -259.431E-03    -250.665E-03     509.379E-03    -259.431E-03     143.804E-03     639.077E-03     44.3051E+06     27.9228E+06     3.59396E+06    -23.0744E+06    -22.8571E+06     3.37661E+06     27.9228E+06     1.69201E+06
            1305     104.788E-03     9.26057E-03     104.378E-03     519.577E-03    -259.139E-03    -260.694E-03    -250.823E-03     510.385E-03    -259.818E-03     167.845E-03     652.605E-03     43.1656E+06     30.3881E+06     5.91249E+06    -19.3848E+06    -18.9559E+06     5.48353E+06     30.3881E+06     818.347E+03
            1306     105.058E-03     10.0366E-03     104.577E-03     521.172E-03    -259.344E-03    -262.381E-03    -251.434E-03     510.224E-03    -259.344E-03     183.906E-03     659.185E-03     40.1889E+06     30.1725E+06     9.15083E+06    -16.0540E+06    -15.1635E+06     8.26030E+06     30.1725E+06     248.296E+03
            1307     105.396E-03     10.8060E-03     104.840E-03     527.452E-03    -258.865E-03    -267.933E-03    -253.703E-03     513.222E-03    -258.865E-03     209.869E-03     672.328E-03     39.4036E+06     31.9691E+06     11.4212E+06    -12.9477E+06    -11.6081E+06     10.0816E+06     31.9691E+06     1.03103E+06
            1308     105.838E-03     11.5752E-03     105.203E-03     530.023E-03    -258.771E-03    -270.152E-03    -255.593E-03     515.463E-03    -258.771E-03     213.106E-03     672.715E-03     40.6538E+06     35.4928E+06     15.8072E+06    -10.5428E+06    -8.15923E+06     13.4237E+06     35.4928E+06     1.09212E+06
            1309     106.205E-03     12.3464E-03     105.485E-03     543.983E-03    -258.649E-03    -285.404E-03    -263.664E-03     522.243E-03    -258.649E-03     258.821E-03     706.754E-03     42.5689E+06     39.7831E+06     21.4622E+06    -7.98374E+06    -5.38504E+06     18.8635E+06     39.7831E+06     640.096E+03
            1310     106.792E-03     13.1253E-03     105.983E-03     545.868E-03    -259.441E-03    -286.326E-03    -267.124E-03     526.666E-03    -259.441E-03     236.034E-03     688.518E-03     43.6849E+06     45.3558E+06     22.9859E+06    -4.09881E+06    -1.89711E+06     20.7842E+06     45.3558E+06     860.724E+03
            1311     105.588E-03     771.135E-06     105.585E-03     519.175E-03    -258.554E-03    -260.650E-03    -260.382E-03     519.174E-03    -258.820E-03    -2.09369E-03     521.242E-03     4.65276E+06    -81.2107E+06    -82.7844E+06    -86.3873E+06    -84.4569E+06    -83.8285E+06    -82.0969E+06     899.068E+03
            1312     105.590E-03     1.54182E-03     105.579E-03     518.317E-03    -259.055E-03    -259.579E-03    -259.053E-03     518.315E-03    -259.579E-03    -2.26900E-03     524.714E-03     9.59547E+06    -69.2909E+06    -74.1557E+06    -80.2973E+06    -79.7019E+06    -74.5134E+06    -69.5287E+06     803.634E+03
            1313     105.573E-03     2.31321E-03     105.548E-03     517.444E-03    -258.631E-03    -259.466E-03    -258.629E-03     517.442E-03    -259.466E-03     742.867E-06     530.991E-03     16.7061E+06    -55.2727E+06    -64.1424E+06    -74.4811E+06    -73.8016E+06    -64.8219E+06    -55.2727E+06     801.586E+03
            1314     105.556E-03     3.08640E-03     105.510E-03     517.169E-03    -258.168E-03    -259.479E-03    -258.144E-03     517.145E-03    -259.479E-03     7.42657E-03     539.400E-03     24.8517E+06    -39.0669E+06    -51.5358E+06    -67.6419E+06    -66.8614E+06    -52.3163E+06    -39.0669E+06     1.97049E+06
            1315     105.543E-03     3.85884E-03     105.473E-03     517.045E-03    -257.153E-03    -259.435E-03    -257.042E-03     516.934E-03    -259.435E-03     17.6047E-03     548.801E-03     32.6533E+06    -22.8798E+06    -40.6814E+06    -60.5306E+06    -60.1274E+06    -41.0846E+06    -22.8798E+06     2.29320E+06
            1316     105.556E-03     4.63086E-03     105.454E-03     515.989E-03    -255.894E-03    -259.446E-03    -255.569E-03     515.664E-03    -259.446E-03     30.7707E-03     560.079E-03     37.2146E+06    -9.28090E+06    -31.1179E+06    -52.1206E+06    -51.9176E+06    -31.3209E+06    -9.28090E+06     1.48312E+06
            1317     105.600E-03     5.40141E-03     105.461E-03     513.940E-03    -254.949E-03    -259.498E-03    -254.167E-03     513.158E-03    -259.498E-03     47.9630E-03     573.283E-03     39.1392E+06    -620.027E+03    -23.5516E+06    -45.6807E+06    -45.6222E+06    -23.6101E+06    -620.027E+03     1.07527E+06
            1318     105.688E-03     6.17464E-03     105.508E-03     511.975E-03    -254.204E-03    -259.306E-03    -252.649E-03     510.420E-03    -259.306E-03     68.1641E-03     589.377E-03     40.8772E+06     6.96838E+06    -15.6628E+06    -40.1957E+06    -40.0665E+06    -15.7920E+06     6.96838E+06     1.71185E+06
            1319     105.804E-03     6.94784E-03     105.576E-03     512.601E-03    -254.390E-03    -258.817E-03    -251.502E-03     509.714E-03    -258.817E-03     92.8549E-03     608.363E-03     42.9291E+06     15.6445E+06    -7.32311E+06    -33.8746E+06    -33.6258E+06    -7.57195E+06     15.6445E+06     2.54316E+06
            1320     106.003E-03     7.71520E-03     105.722E-03     514.130E-03    -255.769E-03    -258.732E-03    -251.053E-03     509.413E-03    -258.732E-03     119.513E-03     625.028E-03     44.2290E+06     22.7251E+06    -1.77813E+06    -28.3118E+06    -28.0869E+06    -2.00299E+06     22.7251E+06     2.18065E+06
            1321     106.228E-03     8.48378E-03     105.889E-03     516.026E-03    -257.490E-03    -259.406E-03    -250.728E-03     509.264E-03    -259.406E-03     143.542E-03     639.151E-03     43.9083E+06     27.4657E+06     2.89081E+06    -23.2066E+06    -23.0206E+06     2.70483E+06     27.4657E+06     1.66074E+06
            1322     106.479E-03     9.26161E-03     106.076E-03     518.973E-03    -258.935E-03    -260.483E-03    -250.515E-03     509.829E-03    -259.759E-03     167.334E-03     651.653E-03     42.7936E+06     30.2283E+06     7.02608E+06    -19.0885E+06    -18.6974E+06     6.63491E+06     30.2283E+06     1.04833E+06
            1323     106.744E-03     10.0407E-03     106.271E-03     521.734E-03    -259.259E-03    -262.691E-03    -251.804E-03     510.846E-03    -259.259E-03     183.508E-03     659.029E-03     41.5537E+06     31.9259E+06     10.0789E+06    -15.8106E+06    -15.0804E+06     9.34868E+06     31.9259E+06     458.922E+03
            1324     107.086E-03     10.8038E-03     106.539E-03     528.025E-03    -258.852E-03    -268.238E-03    -254.030E-03     513.817E-03    -258.852E-03     209.808E-03     673.381E-03     40.6506E+06     33.1179E+06     11.9631E+06    -13.0879E+06    -12.1346E+06     11.0098E+06     33.1179E+06     739.301E+03
            1325     107.513E-03     11.5757E-03     106.888E-03     530.054E-03    -258.780E-03    -270.280E-03    -255.736E-03     515.510E-03    -258.780E-03     213.005E-03     673.593E-03     42.5369E+06     36.3675E+06     15.3691E+06    -11.6541E+06    -9.58846E+06     13.3035E+06     36.3675E+06     587.433E+03
            1326     107.885E-03     12.3495E-03     107.176E-03     544.797E-03    -258.662E-03    -286.185E-03    -264.685E-03     523.297E-03    -258.662E-03     257.891E-03     707.363E-03     44.4845E+06     41.2575E+06     20.3575E+06    -8.86924E+06    -6.43251E+06     17.9208E+06     41.2575E+06     356.728E+03
            1327     108.472E-03     13.1176E-03     107.675E-03     545.893E-03    -259.505E-03    -286.349E-03    -267.384E-03     526.928E-03    -259.505E-03     234.967E-03     688.155E-03     45.2794E+06     45.7292E+06     23.0204E+06    -5.80959E+06    -3.65043E+06     20.8612E+06     45.7292E+06     139.247E+03
            1328     107.278E-03     770.952E-06     107.276E-03     519.060E-03    -258.750E-03    -260.412E-03    -260.117E-03     519.057E-03    -259.043E-03    -2.69857E-03     521.115E-03     4.19990E+06    -81.3021E+06    -82.6238E+06    -85.9731E+06    -83.4822E+06    -83.9487E+06    -82.4681E+06    -138.932E+03
            1329     107.283E-03     1.54230E-03     107.272E-03     518.106E-03    -258.872E-03    -259.459E-03    -258.871E-03     518.104E-03    -259.459E-03    -1.89537E-03     524.446E-03     8.22641E+06    -72.0362E+06    -75.4556E+06    -81.3756E+06    -80.3975E+06    -76.1960E+06    -72.2740E+06    -358.686E+03
            1330     107.267E-03     2.31491E-03     107.242E-03     517.448E-03    -258.632E-03    -259.372E-03    -258.630E-03     517.446E-03    -259.372E-03     772.818E-06     531.076E-03     17.0510E+06    -55.7241E+06    -64.7267E+06    -75.3644E+06    -74.5752E+06    -65.5159E+06    -55.7241E+06     646.198E+03
            1331     107.249E-03     3.08598E-03     107.205E-03     517.353E-03    -258.357E-03    -259.416E-03    -258.339E-03     517.335E-03    -259.416E-03     6.56058E-03     539.738E-03     26.2251E+06    -38.8132E+06    -53.3843E+06    -69.0401E+06    -68.2693E+06    -54.1552E+06    -38.8132E+06     1.46103E+06
            1332     107.234E-03     3.85885E-03     107.165E-03     517.094E-03    -257.239E-03    -259.400E-03    -257.146E-03     517.001E-03    -259.400E-03     15.9903E-03     548.753E-03     31.9963E+06    -24.0688E+06    -41.6675E+06    -60.9407E+06    -60.5771E+06    -42.0310E+06    -24.0688E+06     1.65348E+06
            1333     107.249E-03     4.63035E-03     107.149E-03     515.687E-03    -255.689E-03    -259.424E-03    -255.379E-03     515.376E-03    -259.424E-03     29.8129E-03     559.725E-03     35.9071E+06    -12.6746E+06    -31.2404E+06    -54.0246E+06    -53.8130E+06    -31.4520E+06    -12.6746E+06     1.84072E+06
            1334     107.297E-03     5.40295E-03     107.161E-03     513.244E-03    -254.325E-03    -259.423E-03    -253.550E-03     512.469E-03    -259.423E-03     47.7349E-03     572.700E-03     39.2248E+06    -2.35726E+06    -23.7905E+06    -47.5656E+06    -47.4585E+06    -23.8976E+06    -2.35726E+06     1.55359E+06
            1335     107.382E-03     6.17290E-03     107.204E-03     511.397E-03    -253.760E-03    -259.160E-03    -252.203E-03     509.840E-03    -259.160E-03     68.0972E-03     588.865E-03     42.6253E+06     7.70645E+06    -17.9994E+06    -41.4215E+06    -41.3103E+06    -18.1106E+06     7.70645E+06     1.56623E+06
            1336     107.499E-03     6.94895E-03     107.274E-03     512.323E-03    -254.339E-03    -258.682E-03    -251.443E-03     509.427E-03    -258.682E-03     92.9724E-03     608.045E-03     44.6954E+06     16.7191E+06    -7.97081E+06    -34.7087E+06    -34.5567E+06    -8.12283E+06     16.7191E+06     1.55821E+06
            1337     107.703E-03     7.71611E-03     107.426E-03     514.062E-03    -255.792E-03    -258.665E-03    -251.070E-03     509.340E-03    -258.665E-03     119.576E-03     624.988E-03     44.7026E+06     22.9654E+06    -1.79590E+06    -28.4302E+06    -28.2858E+06    -1.94031E+06     22.9654E+06     1.28612E+06
            1338     107.922E-03     8.48889E-03     107.588E-03     516.375E-03    -257.855E-03    -259.329E-03    -251.064E-03     509.585E-03    -259.329E-03     143.899E-03     639.714E-03     44.2401E+06     27.3403E+06     1.93027E+06    -23.5788E+06    -23.4880E+06     1.83954E+06     27.3403E+06     1.09262E+06
            1339     108.164E-03     9.26173E-03     107.766E-03     519.630E-03    -259.269E-03    -260.731E-03    -251.138E-03     510.492E-03    -259.725E-03     167.458E-03     652.613E-03     42.9449E+06     30.1681E+06     8.21720E+06    -19.2757E+06    -19.1071E+06     8.04861E+06     30.1681E+06     1.23504E+06
            1340     108.431E-03     10.0380E-03     107.966E-03     521.178E-03    -259.251E-03    -262.280E-03    -251.455E-03     510.353E-03    -259.251E-03     182.868E-03     659.038E-03     41.4880E+06     31.4110E+06     10.8036E+06    -16.1760E+06    -15.5254E+06      10.153E+06     31.4110E+06     1.29607E+06
            1341     108.771E-03     10.8074E-03     108.233E-03     527.257E-03    -258.835E-03    -267.734E-03    -253.697E-03     513.220E-03    -258.835E-03     208.470E-03     673.340E-03     41.1993E+06     33.6986E+06     13.7819E+06    -13.2706E+06    -12.3761E+06     12.8874E+06     33.6986E+06     934.613E+03
            1342     109.194E-03     11.5780E-03     108.579E-03     531.241E-03    -258.798E-03    -271.610E-03    -257.208E-03     516.840E-03    -258.798E-03     212.365E-03     675.409E-03     42.4663E+06     37.5196E+06     15.6957E+06    -10.9962E+06    -9.03701E+06     13.7365E+06     37.5196E+06     383.745E+03
            1343     109.570E-03     12.3436E-03     108.873E-03     545.594E-03    -258.734E-03    -287.059E-03    -265.382E-03     523.917E-03    -258.734E-03     258.935E-03     708.475E-03     44.6047E+06     42.4735E+06     19.8346E+06    -8.26381E+06    -5.83034E+06     17.4011E+06     42.4735E+06    -46.0205E+03
            1344     110.148E-03     13.1215E-03     109.363E-03     545.415E-03    -259.592E-03    -285.884E-03    -266.631E-03     526.163E-03    -259.592E-03     236.855E-03     687.659E-03     47.1843E+06     47.5126E+06      23.393E+06    -6.33079E+06    -4.12779E+06       21.19E+06     47.5126E+06     44.7775E+03
            1345     108.964E-03     771.366E-06     108.961E-03     518.658E-03    -258.833E-03    -259.948E-03    -258.876E-03     518.654E-03    -259.901E-03    -3.16888E-03     520.689E-03     6.70751E+06    -80.5508E+06    -82.5992E+06    -87.9965E+06    -85.7488E+06    -84.5193E+06    -80.8783E+06     807.033E+03
            1346     108.972E-03     1.54333E-03     108.961E-03     518.035E-03    -258.897E-03    -259.294E-03    -258.894E-03     518.032E-03    -259.294E-03    -2.66097E-03     524.241E-03     11.4138E+06    -70.5313E+06    -75.2093E+06    -83.4368E+06    -82.0743E+06    -76.5719E+06    -70.5313E+06     633.378E+03
            1347     108.959E-03     2.31385E-03     108.935E-03     517.829E-03    -258.868E-03    -259.342E-03    -258.866E-03     517.826E-03    -259.342E-03     581.702E-06     531.236E-03     18.5413E+06    -56.7144E+06    -66.2390E+06    -78.0732E+06    -76.9941E+06    -67.3182E+06    -56.7144E+06     716.864E+03
            1348     108.945E-03     3.08574E-03     108.901E-03     517.698E-03    -258.558E-03    -259.438E-03    -258.537E-03     517.677E-03    -259.438E-03     7.03174E-03     540.124E-03     25.7631E+06    -39.8670E+06    -54.3119E+06    -69.5779E+06    -68.6261E+06    -55.2637E+06    -39.8670E+06     1.13897E+06
            1349     108.928E-03     3.85719E-03     108.860E-03     517.142E-03    -257.182E-03    -259.454E-03    -257.076E-03     517.036E-03    -259.454E-03     16.9471E-03     549.029E-03     31.5944E+06    -25.1225E+06    -43.6514E+06    -61.5277E+06    -61.1131E+06    -44.0660E+06    -25.1225E+06     1.37323E+06
            1350     108.944E-03     4.62941E-03     108.846E-03     515.119E-03    -255.109E-03    -259.459E-03    -254.779E-03     514.789E-03    -259.459E-03     30.8767E-03     559.322E-03     37.0148E+06    -11.2982E+06    -32.4836E+06    -53.9368E+06    -53.7262E+06    -32.6942E+06    -11.2982E+06     1.47919E+06
            1351     108.986E-03     5.40210E-03     108.852E-03     512.558E-03    -253.698E-03    -259.378E-03    -252.924E-03     511.784E-03    -259.378E-03     47.7818E-03     572.030E-03     40.9450E+06     696.000E+03    -24.2741E+06    -46.4724E+06    -46.2819E+06    -24.4645E+06     696.000E+03     1.85591E+06
            1352     109.075E-03     6.17766E-03     108.900E-03     511.280E-03    -253.758E-03    -259.042E-03    -252.208E-03     509.731E-03    -259.042E-03     67.8866E-03     588.688E-03     43.1595E+06     9.57788E+06    -17.3374E+06    -40.0883E+06    -39.9386E+06    -17.4870E+06     9.57788E+06     1.32516E+06
            1353     109.190E-03     6.94828E-03     108.969E-03     512.234E-03    -254.392E-03    -258.615E-03    -251.518E-03     509.361E-03    -258.615E-03     92.6578E-03     607.930E-03     44.3853E+06     16.1326E+06    -8.13073E+06    -34.9234E+06    -34.8779E+06    -8.17622E+06     16.1326E+06     580.451E+03
            1354     109.393E-03     7.71634E-03     109.120E-03     513.728E-03    -255.519E-03    -258.625E-03    -250.917E-03     509.126E-03    -258.625E-03     118.078E-03     624.658E-03     45.1888E+06     22.0491E+06    -2.46271E+06    -29.8692E+06    -29.7716E+06    -2.56028E+06     22.0491E+06     581.696E+03
            1355     109.608E-03     8.48790E-03     109.278E-03     516.582E-03    -257.989E-03    -259.224E-03    -251.350E-03     509.943E-03    -259.224E-03     142.299E-03     639.959E-03     45.7806E+06     28.0590E+06     2.33622E+06    -24.6005E+06    -24.4939E+06     2.22965E+06     28.0590E+06     965.262E+03
            1356     109.853E-03     9.26196E-03     109.462E-03     520.107E-03    -259.603E-03    -260.656E-03    -251.492E-03     511.052E-03    -259.712E-03     166.764E-03     653.897E-03     44.0354E+06     30.7157E+06     7.97003E+06    -20.0123E+06    -19.8896E+06     7.84733E+06     30.7157E+06     1.24013E+06
            1357     110.118E-03     10.0388E-03     109.659E-03     521.107E-03    -259.286E-03    -262.243E-03    -251.511E-03     510.375E-03    -259.286E-03     182.083E-03     659.941E-03     41.6477E+06     32.1032E+06     10.8996E+06    -15.6673E+06    -15.2288E+06     10.4611E+06     32.1032E+06     1.54057E+06
            1358     110.451E-03     10.8060E-03     109.921E-03     527.652E-03    -258.815E-03    -268.117E-03    -254.153E-03     513.688E-03    -258.815E-03     207.999E-03     672.910E-03     41.5470E+06     35.4587E+06     14.7265E+06    -11.9698E+06    -11.3212E+06     14.0779E+06     35.4587E+06     1.08923E+06
            1359     110.878E-03     11.5754E-03     110.272E-03     531.273E-03    -258.801E-03    -271.347E-03    -256.930E-03     516.856E-03    -258.801E-03     212.490E-03     674.549E-03     42.7568E+06     39.2410E+06     16.2962E+06    -9.58832E+06    -7.92720E+06     14.6351E+06     39.2410E+06     395.676E+03
            1360     111.254E-03     12.3470E-03     110.567E-03     545.067E-03    -258.753E-03    -286.350E-03    -264.548E-03     523.265E-03    -258.753E-03     259.469E-03     707.761E-03     45.1768E+06     42.8090E+06     19.7083E+06    -8.36488E+06    -6.02124E+06     17.3647E+06     42.8090E+06     711.006E+03
            1361     111.839E-03     13.1200E-03     111.066E-03     545.447E-03    -259.600E-03    -285.862E-03    -266.558E-03     526.142E-03    -259.600E-03     236.833E-03     687.779E-03     46.7418E+06     48.1503E+06     23.8763E+06    -5.05336E+06    -2.64028E+06     21.4632E+06     48.1503E+06     610.771E+03
            1362     110.644E-03     771.496E-06     110.642E-03     518.329E-03    -258.267E-03    -260.092E-03    -259.221E-03     518.327E-03    -259.137E-03    -1.96796E-03     520.246E-03     6.55103E+06    -83.4939E+06    -86.6525E+06    -90.7209E+06    -87.9947E+06    -87.5102E+06    -85.3624E+06    -148.802E+03
            1363     110.657E-03     1.54212E-03     110.646E-03     518.217E-03    -259.105E-03    -259.300E-03    -259.152E-03     518.215E-03    -259.251E-03    -2.07702E-03     524.223E-03     10.2280E+06    -73.1134E+06    -77.3902E+06    -84.6914E+06    -83.2643E+06    -78.6167E+06    -73.3139E+06     1.70310E+06
            1364     110.648E-03     2.31470E-03     110.624E-03     517.603E-03    -258.775E-03    -259.348E-03    -258.772E-03     517.600E-03    -259.348E-03     1.18038E-03     530.936E-03     18.3606E+06    -57.7331E+06    -66.5582E+06    -78.8115E+06    -77.8169E+06    -67.5528E+06    -57.7331E+06     1.59755E+06
            1365     110.630E-03     3.08588E-03     110.587E-03     516.951E-03    -258.030E-03    -259.335E-03    -258.004E-03     516.925E-03    -259.335E-03     7.92561E-03     539.284E-03     27.6572E+06    -40.1269E+06    -54.8079E+06    -71.9666E+06    -70.8541E+06    -55.9204E+06    -40.1269E+06     196.791E+03
            1366     110.616E-03     3.85928E-03     110.548E-03     516.708E-03    -256.907E-03    -259.288E-03    -256.785E-03     516.587E-03    -259.288E-03     18.2949E-03     548.462E-03     34.7731E+06    -22.7952E+06    -44.2820E+06    -62.8879E+06    -62.3371E+06    -44.8328E+06    -22.7952E+06    -58.1334E+03
            1367     110.632E-03     4.63181E-03     110.535E-03     515.505E-03    -255.673E-03    -259.309E-03    -255.340E-03     515.172E-03    -259.309E-03     31.3035E-03     559.519E-03     39.0231E+06    -9.30486E+06    -33.9695E+06    -54.2868E+06    -54.1888E+06    -34.0674E+06    -9.30486E+06     944.748E+03
            1368     110.675E-03     5.40348E-03     110.543E-03     513.387E-03    -254.621E-03    -259.301E-03    -253.865E-03     512.631E-03    -259.301E-03     47.2468E-03     572.816E-03     41.4035E+06     600.895E+03    -25.2642E+06    -47.1226E+06    -46.9211E+06    -25.4657E+06     600.895E+03     1.91581E+06
            1369     110.761E-03     6.17387E-03     110.589E-03     511.499E-03    -253.956E-03    -259.033E-03    -252.475E-03     510.018E-03    -259.033E-03     66.4969E-03     589.166E-03     43.1897E+06     8.91450E+06    -16.2305E+06    -40.8633E+06    -40.6721E+06    -16.4217E+06     8.91450E+06     1.66960E+06
            1370     110.874E-03     6.94874E-03     110.656E-03     511.828E-03    -253.878E-03    -258.722E-03    -251.116E-03     509.066E-03    -258.722E-03     90.7138E-03     607.613E-03     44.7213E+06     16.3875E+06    -7.48313E+06    -35.2011E+06    -35.1179E+06    -7.56630E+06     16.3875E+06     1.10432E+06
            1371     111.078E-03     7.71542E-03     110.810E-03     514.093E-03    -255.670E-03    -258.730E-03    -251.099E-03     509.522E-03    -258.730E-03     117.626E-03     624.857E-03     46.3975E+06     23.4130E+06    -2.32563E+06    -30.0346E+06    -29.9252E+06    -2.43498E+06     23.4130E+06     920.008E+03
            1372     111.297E-03     8.48774E-03     110.973E-03     516.850E-03    -258.140E-03    -259.246E-03    -251.491E-03     510.202E-03    -259.246E-03     142.448E-03     640.168E-03     47.0802E+06     29.0230E+06     2.21916E+06    -25.2338E+06    -25.0702E+06     2.05556E+06     29.0230E+06     1.36021E+06
            1373     111.541E-03     9.26040E-03     111.156E-03     519.447E-03    -259.331E-03    -260.342E-03    -250.914E-03     510.422E-03    -259.734E-03     166.353E-03     653.179E-03     45.3131E+06     32.0107E+06     7.65814E+06    -20.2428E+06    -20.0453E+06     7.46065E+06     32.0107E+06     1.24505E+06
            1374     111.801E-03     10.0389E-03     111.350E-03     522.100E-03    -259.292E-03    -262.869E-03    -252.033E-03     511.264E-03    -259.292E-03     183.121E-03     660.037E-03     42.7441E+06     33.1659E+06     10.7682E+06    -15.9485E+06    -15.7046E+06     10.5243E+06     33.1659E+06     440.422E+03
            1375     112.147E-03     10.8044E-03     111.625E-03     528.943E-03    -258.875E-03    -268.876E-03    -254.668E-03     514.735E-03    -258.875E-03     210.058E-03     673.356E-03     41.9076E+06     35.1573E+06     12.7412E+06    -12.6125E+06    -12.2668E+06     12.3954E+06     35.1573E+06     582.274E+03
            1376     112.571E-03     11.5762E-03     111.974E-03     530.768E-03    -258.863E-03    -270.744E-03    -256.236E-03     516.260E-03    -258.863E-03     212.927E-03     674.095E-03     44.1768E+06     39.0538E+06     16.2103E+06    -10.9235E+06    -9.28012E+06     14.5669E+06     39.0538E+06     1.10707E+06
            1377     112.939E-03     12.3455E-03     112.263E-03     544.418E-03    -258.759E-03    -285.758E-03    -264.104E-03     522.763E-03    -258.759E-03     258.468E-03     707.197E-03     46.3067E+06     43.1695E+06     20.6526E+06    -8.79905E+06    -6.30183E+06     18.1554E+06     43.1695E+06     1.25600E+06
            1378     113.528E-03     13.1213E-03     112.767E-03     544.754E-03    -259.625E-03    -285.258E-03    -266.066E-03     525.562E-03    -259.625E-03     236.148E-03     687.155E-03     46.6946E+06     48.8176E+06     24.5201E+06    -4.15110E+06    -1.78865E+06     22.1577E+06     48.8176E+06     638.695E+03
            1379     112.333E-03     772.237E-06     112.330E-03     517.970E-03    -258.463E-03    -259.614E-03    -259.415E-03     517.967E-03    -258.659E-03    -2.69756E-03     519.741E-03     6.32639E+06    -85.0826E+06    -88.1040E+06    -92.0544E+06    -89.1591E+06    -89.1308E+06    -86.9511E+06    -114.305E+03
            1380     112.351E-03     1.54393E-03     112.340E-03     517.791E-03    -258.938E-03    -259.136E-03    -258.986E-03     517.790E-03    -259.087E-03    -1.68235E-03     523.682E-03     8.58729E+06    -76.3873E+06    -80.5397E+06    -86.2009E+06    -85.3882E+06    -81.1518E+06    -76.5879E+06      -60.88E+03
            1381     112.345E-03     2.31378E-03     112.321E-03     517.170E-03    -258.642E-03    -259.157E-03    -258.640E-03     517.168E-03    -259.157E-03     1.31931E-03     530.533E-03     17.7859E+06    -59.4259E+06    -67.2961E+06    -79.7323E+06    -78.9459E+06    -68.0824E+06    -59.4259E+06     386.492E+03
            1382     112.322E-03     3.08748E-03     112.280E-03     516.749E-03    -258.033E-03    -259.186E-03    -258.014E-03     516.730E-03    -259.186E-03     6.88326E-03     539.160E-03     29.1111E+06    -40.0292E+06    -53.9276E+06    -73.3874E+06    -72.0919E+06    -55.2231E+06    -40.0292E+06     780.712E+03
            1383     112.308E-03     3.86057E-03     112.242E-03     516.636E-03    -257.022E-03    -259.188E-03    -256.921E-03     516.535E-03    -259.188E-03     16.4352E-03     548.366E-03     37.4094E+06    -22.2828E+06    -44.6205E+06    -65.3581E+06    -64.5591E+06    -45.4195E+06    -22.2828E+06     1.09017E+06
            1384     112.324E-03     4.63186E-03     112.228E-03     515.836E-03    -256.041E-03    -259.264E-03    -255.727E-03     515.521E-03    -259.264E-03     30.1946E-03     559.658E-03     40.8663E+06    -9.81088E+06    -35.8580E+06    -56.9010E+06    -56.8044E+06    -35.9545E+06    -9.81088E+06     1.25333E+06
            1385     112.366E-03     5.40248E-03     112.236E-03     513.955E-03    -255.207E-03    -259.328E-03    -254.439E-03     513.187E-03    -259.328E-03     47.5434E-03     573.452E-03     42.4011E+06    -668.106E+03    -26.1541E+06    -49.6008E+06    -49.5284E+06    -26.2265E+06    -668.106E+03     994.496E+03
            1386     112.453E-03     6.17428E-03     112.284E-03     511.724E-03    -254.294E-03    -259.096E-03    -252.772E-03     510.203E-03    -259.096E-03     67.4304E-03     589.615E-03     44.1657E+06     9.11418E+06    -15.6802E+06    -41.8672E+06    -41.7810E+06    -15.7664E+06     9.11418E+06     793.417E+03
            1387     112.558E-03     6.94584E-03     112.344E-03     512.297E-03    -254.379E-03    -258.846E-03    -251.577E-03     509.495E-03    -258.846E-03     91.4748E-03     608.151E-03     45.8085E+06     17.8478E+06    -7.29640E+06    -35.0217E+06    -34.9297E+06    -7.38840E+06     17.8478E+06     914.335E+03
            1388     112.767E-03     7.71624E-03     112.502E-03     514.301E-03    -255.738E-03    -258.842E-03    -251.144E-03     509.707E-03    -258.842E-03     117.942E-03     624.822E-03     47.4883E+06     25.1533E+06    -3.64867E+06    -29.5814E+06    -29.4401E+06    -3.78997E+06     25.1533E+06     1.67003E+06
            1389     112.985E-03     8.48643E-03     112.666E-03     516.124E-03    -257.226E-03    -259.267E-03    -250.589E-03     509.487E-03    -259.267E-03     142.198E-03     639.127E-03     48.0557E+06     30.8302E+06     2.24067E+06    -24.5356E+06    -24.3499E+06     2.05503E+06     30.8302E+06     1.79794E+06
            1390     113.227E-03     9.26285E-03     112.847E-03     519.471E-03    -258.751E-03    -260.767E-03    -250.734E-03     510.378E-03    -259.691E-03     166.916E-03     652.373E-03     46.1324E+06     32.9847E+06     8.73765E+06    -20.2017E+06    -19.8790E+06     8.41490E+06     32.9847E+06     1.40869E+06
            1391     113.493E-03     10.0393E-03     113.049E-03     522.405E-03    -259.249E-03    -263.034E-03    -252.149E-03     511.519E-03    -259.249E-03     183.606E-03     659.715E-03      44.229E+06     33.8615E+06     10.3827E+06    -16.9847E+06    -16.6460E+06     10.0440E+06     33.8615E+06     1.09090E+06
            1392     113.837E-03     10.8064E-03     113.323E-03     528.260E-03    -258.928E-03    -268.187E-03    -254.110E-03     514.183E-03    -258.928E-03     208.927E-03     673.408E-03     43.7664E+06     36.2209E+06     12.6289E+06    -13.7200E+06    -13.4199E+06     12.3287E+06     36.2209E+06     759.334E+03
            1393     114.256E-03     11.5765E-03     113.668E-03     530.734E-03    -258.915E-03    -270.863E-03    -256.323E-03     516.194E-03    -258.915E-03     213.282E-03     674.446E-03     45.2036E+06     39.0958E+06     15.6936E+06    -12.1153E+06    -9.94900E+06     13.5273E+06     39.0958E+06     735.962E+03
            1394     114.622E-03     12.3447E-03     113.955E-03     544.306E-03    -258.724E-03    -285.774E-03    -263.853E-03     522.385E-03    -258.724E-03     260.062E-03     707.306E-03     47.4839E+06     44.6379E+06     21.5746E+06    -8.73305E+06    -5.84169E+06     18.6833E+06     44.6379E+06     492.428E+03
            1395     115.199E-03     13.1194E-03     114.450E-03     544.122E-03    -259.577E-03    -284.689E-03    -265.226E-03     524.659E-03    -259.577E-03     237.958E-03     686.711E-03     49.2755E+06     50.6380E+06     25.6756E+06    -5.34549E+06    -3.40082E+06     23.7310E+06     50.6380E+06     370.459E+03
            1396     114.007E-03     771.151E-06     114.004E-03     518.227E-03    -258.732E-03    -259.641E-03    -259.352E-03     518.224E-03    -259.017E-03    -2.36938E-03     520.025E-03     7.17360E+06    -86.1735E+06    -89.8484E+06    -94.1658E+06    -91.5118E+06    -90.8112E+06    -87.8647E+06     1.35562E+06
            1397     114.033E-03     1.54252E-03     114.022E-03     517.743E-03    -258.806E-03    -259.187E-03    -258.803E-03     517.740E-03    -259.187E-03    -2.73887E-03     523.739E-03     11.9139E+06    -75.1798E+06    -80.9625E+06    -88.8424E+06    -88.4237E+06    -81.3812E+06    -75.1798E+06     713.192E+03
            1398     114.025E-03     2.31669E-03     114.002E-03     517.244E-03    -258.622E-03    -259.178E-03    -258.619E-03     517.241E-03    -259.178E-03    -375.730E-06     530.580E-03     20.2152E+06    -59.6684E+06    -68.3941E+06    -82.7192E+06    -82.0975E+06    -69.0158E+06    -59.6684E+06     234.552E+03
            1399     114.010E-03     3.08657E-03     113.968E-03     517.395E-03    -258.484E-03    -259.233E-03    -258.464E-03     517.375E-03    -259.233E-03     6.26728E-03     539.732E-03     28.3699E+06    -42.2451E+06    -55.8651E+06    -74.7330E+06    -73.5934E+06    -57.0047E+06    -42.2451E+06     1.15384E+06
            1400     113.995E-03     3.85763E-03     113.930E-03     517.157E-03    -257.474E-03    -259.322E-03    -257.377E-03     517.060E-03    -259.322E-03     16.2795E-03     549.094E-03     36.2455E+06    -24.4277E+06    -45.2348E+06    -66.1715E+06    -65.4726E+06    -45.9337E+06    -24.4277E+06     1.72402E+06
            1401     114.016E-03     4.63100E-03     113.922E-03     515.207E-03    -255.550E-03    -259.399E-03    -255.234E-03     514.891E-03    -259.399E-03     30.0904E-03     559.424E-03     41.8392E+06    -9.65706E+06    -36.0263E+06    -57.8258E+06    -57.7266E+06    -36.1255E+06    -9.65706E+06     1.30089E+06
            1402     114.060E-03     5.40381E-03     113.932E-03     512.765E-03    -254.101E-03    -259.342E-03    -253.330E-03     511.994E-03    -259.342E-03     47.6493E-03     572.468E-03     44.5675E+06     1.67604E+06    -25.4434E+06    -49.6890E+06    -49.6636E+06    -25.4688E+06     1.67604E+06     567.414E+03
            1403     114.140E-03     6.17469E-03     113.973E-03     511.619E-03    -254.235E-03    -259.018E-03    -252.679E-03     510.063E-03    -259.018E-03     68.0903E-03     589.275E-03     46.1454E+06     10.5893E+06    -15.2034E+06    -42.6779E+06    -42.6624E+06    -15.2189E+06     10.5893E+06     120.851E+03
            1404     114.259E-03     6.94926E-03     114.047E-03     513.287E-03    -255.348E-03    -258.809E-03    -252.484E-03     510.423E-03    -258.809E-03     92.6966E-03     608.885E-03     47.6573E+06     17.9439E+06    -10.0226E+06    -37.0229E+06    -36.9817E+06    -10.0638E+06     17.9439E+06     541.681E+03
            1405     114.460E-03     7.71180E-03     114.200E-03     514.491E-03    -255.796E-03    -258.797E-03    -251.169E-03     509.864E-03    -258.797E-03     118.404E-03     625.127E-03     48.8395E+06     25.1856E+06    -5.32240E+06    -31.1063E+06    -31.0368E+06    -5.39190E+06     25.1856E+06     1.20516E+06
            1406     114.673E-03     8.48792E-03     114.358E-03     516.026E-03    -257.075E-03    -259.229E-03    -250.440E-03     509.392E-03    -259.229E-03     142.179E-03     639.312E-03     47.9540E+06     29.9724E+06     2.74614E+06    -25.2674E+06    -25.1617E+06     2.64051E+06     29.9724E+06     1.25818E+06
            1407     114.914E-03     9.26328E-03     114.540E-03     519.427E-03    -259.072E-03    -260.699E-03    -251.001E-03     510.377E-03    -259.721E-03     166.540E-03     652.084E-03     46.2996E+06     32.0935E+06     7.78623E+06    -21.2419E+06    -20.9257E+06     7.47003E+06     32.0935E+06     1.43667E+06
            1408     115.183E-03     10.0381E-03     114.745E-03     521.523E-03    -259.257E-03    -262.423E-03    -251.497E-03     510.597E-03    -259.257E-03     183.729E-03     658.410E-03     45.3797E+06     35.1093E+06     10.0990E+06    -17.0910E+06    -16.5390E+06     9.54696E+06     35.1093E+06     1.90461E+06
            1409     115.521E-03     10.8053E-03     115.014E-03     527.534E-03    -258.784E-03    -267.634E-03    -253.436E-03     513.336E-03    -258.784E-03     209.666E-03     672.772E-03     44.2476E+06     37.7681E+06     14.6749E+06    -12.8801E+06    -12.4003E+06     14.1951E+06     37.7681E+06     1.60666E+06
            1410     115.937E-03     11.5764E-03     115.358E-03     530.185E-03    -258.748E-03    -270.417E-03    -255.703E-03     515.471E-03    -258.748E-03     214.464E-03     673.757E-03     46.4772E+06     41.0860E+06     18.2200E+06    -11.6687E+06    -9.41400E+06     15.9654E+06     41.0860E+06     1.16237E+06
            1411     116.305E-03     12.3476E-03     115.648E-03     544.034E-03    -258.622E-03    -285.445E-03    -263.436E-03     522.025E-03    -258.622E-03     260.806E-03     706.444E-03     50.9584E+06     47.3807E+06     22.4043E+06    -9.93050E+06    -6.41028E+06     18.8841E+06     47.3807E+06     276.954E+03
            1412     116.888E-03     13.1258E-03     116.149E-03     544.887E-03    -259.477E-03    -285.311E-03    -265.955E-03     525.530E-03    -259.477E-03     237.195E-03     687.402E-03     52.4541E+06     52.7115E+06     25.4479E+06    -6.93784E+06    -4.49052E+06     23.0006E+06     52.7115E+06    -163.554E+03
            1413     115.695E-03     771.469E-06     115.693E-03     519.166E-03    -258.809E-03    -260.462E-03    -260.179E-03     519.161E-03    -259.087E-03    -3.01339E-03     520.994E-03     6.90516E+06    -89.6924E+06    -93.1950E+06    -97.3837E+06    -94.8227E+06    -94.0647E+06    -91.3836E+06     1.29106E+06
            1414     115.724E-03     1.54293E-03     115.714E-03     518.351E-03    -258.942E-03    -259.584E-03    -258.938E-03     518.347E-03    -259.584E-03    -2.93965E-03     524.297E-03     10.6494E+06    -77.9772E+06    -82.1858E+06    -90.0746E+06    -89.7180E+06    -82.5423E+06    -77.9772E+06     1.45016E+06
            1415     115.719E-03     2.31206E-03     115.695E-03     517.697E-03    -258.648E-03    -259.514E-03    -258.645E-03     517.695E-03    -259.514E-03    -383.768E-06     530.925E-03     20.3789E+06    -60.0805E+06    -69.5475E+06    -83.3304E+06    -82.8932E+06    -69.9847E+06    -60.0805E+06     1.79155E+06
            1416     115.703E-03     3.08637E-03     115.662E-03     517.390E-03    -258.055E-03    -259.423E-03    -258.033E-03     517.368E-03    -259.423E-03     6.37322E-03     539.238E-03     30.1230E+06    -41.4187E+06    -57.3648E+06    -76.0260E+06    -75.2536E+06    -58.1372E+06    -41.4187E+06     1.62535E+06
            1417     115.695E-03     3.85989E-03     115.630E-03     516.994E-03    -257.022E-03    -259.380E-03    -256.912E-03     516.883E-03    -259.380E-03     17.3842E-03     548.542E-03     37.1354E+06    -24.5472E+06    -45.4194E+06    -67.3300E+06    -66.8221E+06    -45.9272E+06    -24.5472E+06     1.03353E+06
            1418     115.709E-03     4.62955E-03     115.616E-03     514.986E-03    -255.359E-03    -259.377E-03    -255.026E-03     514.653E-03    -259.377E-03     31.0695E-03     559.239E-03     41.5318E+06    -10.1054E+06    -35.1551E+06    -57.9621E+06    -57.8814E+06    -35.2357E+06    -10.1054E+06     649.309E+03
            1419     115.753E-03     5.40347E-03     115.627E-03     512.464E-03    -253.812E-03    -259.276E-03    -253.049E-03     511.701E-03    -259.276E-03     47.4761E-03     572.023E-03     44.5618E+06     1.03398E+06    -25.4752E+06    -50.3412E+06    -50.2983E+06    -25.5181E+06     1.03398E+06     647.607E+03
            1420     115.836E-03     6.17742E-03     115.671E-03     511.510E-03    -254.064E-03    -258.982E-03    -252.506E-03     509.953E-03    -258.982E-03     68.0014E-03     588.914E-03     47.9855E+06     10.4707E+06    -16.1529E+06    -44.8915E+06    -44.7921E+06    -16.2523E+06     10.4707E+06     1.39884E+06
            1421     115.954E-03     6.94593E-03     115.746E-03     512.427E-03    -254.594E-03    -258.702E-03    -251.722E-03     509.555E-03    -258.702E-03     92.7774E-03     607.922E-03     50.6579E+06     19.2915E+06    -10.9538E+06    -39.0741E+06    -38.9472E+06    -11.0808E+06     19.2915E+06     1.69312E+06
            1422     116.155E-03     7.71661E-03     115.898E-03     514.248E-03    -255.773E-03    -258.616E-03    -251.051E-03     509.526E-03    -258.616E-03     119.471E-03     624.966E-03     50.6859E+06     26.0113E+06    -4.81751E+06    -32.3814E+06    -32.3284E+06    -4.87052E+06     26.0113E+06     1.04573E+06
            1423     116.364E-03     8.48660E-03     116.055E-03     517.236E-03    -258.301E-03    -259.243E-03    -251.499E-03     510.294E-03    -259.102E-03     145.568E-03     640.583E-03     49.4077E+06     30.2070E+06     2.65585E+06    -26.7402E+06    -26.6320E+06     2.54760E+06     30.2070E+06     523.065E+03
            1424     116.610E-03     9.25887E-03     116.242E-03     519.922E-03    -259.632E-03    -260.597E-03    -251.213E-03     510.623E-03    -259.717E-03     168.979E-03     652.670E-03     47.4432E+06     32.6163E+06     5.98082E+06    -22.0891E+06    -21.7330E+06     5.62474E+06     32.6163E+06     966.152E+03
            1425     116.877E-03     10.0402E-03     116.445E-03     520.839E-03    -259.274E-03    -261.918E-03    -250.901E-03     509.823E-03    -259.274E-03     184.347E-03     657.668E-03     45.0853E+06     34.1452E+06     10.0532E+06    -17.7867E+06    -17.1615E+06     9.42800E+06     34.1452E+06     1.48076E+06
            1426     117.224E-03     10.8089E-03     116.724E-03     526.592E-03    -258.627E-03    -267.104E-03    -252.813E-03     512.300E-03    -258.627E-03     210.175E-03     671.541E-03     44.4038E+06     37.0349E+06     14.2885E+06    -13.9716E+06    -13.3884E+06     13.7053E+06     37.0349E+06     1.31965E+06
            1427     117.634E-03     11.5789E-03     117.063E-03     529.872E-03    -258.556E-03    -270.467E-03    -255.813E-03     515.219E-03    -258.556E-03     213.889E-03     673.957E-03     46.8583E+06     41.2817E+06     19.1877E+06    -12.1878E+06    -10.3201E+06     17.3200E+06     41.2817E+06     1.06381E+06
            1428     118.000E-03     12.3508E-03     117.352E-03     544.079E-03    -258.556E-03    -285.730E-03    -264.125E-03     522.474E-03    -258.556E-03     258.537E-03     706.981E-03     51.3491E+06     47.3316E+06     23.8517E+06    -10.5916E+06    -7.19135E+06     20.4515E+06     47.3316E+06     967.359E+03
            1429     118.590E-03     13.1222E-03     117.862E-03     545.204E-03    -259.459E-03    -285.535E-03    -266.533E-03     526.202E-03    -259.459E-03     235.203E-03     687.803E-03     53.0619E+06     54.2530E+06     26.2720E+06    -6.11980E+06    -3.07216E+06     23.2244E+06     54.2530E+06     328.025E+03
            1430     117.387E-03     770.136E-06     117.385E-03     519.040E-03    -258.911E-03    -260.174E-03    -259.681E-03     519.035E-03    -259.398E-03    -2.17018E-03     520.859E-03     6.60404E+06    -92.1431E+06    -95.9571E+06    -99.3147E+06    -96.6050E+06    -96.5278E+06    -94.2822E+06     533.886E+03
            1431     117.415E-03     1.54152E-03     117.404E-03     518.327E-03    -258.986E-03    -259.536E-03    -259.008E-03     518.325E-03    -259.512E-03    -1.41133E-03     524.125E-03     9.42688E+06    -81.3231E+06    -84.6248E+06    -91.9255E+06    -91.7226E+06    -84.8276E+06    -81.3231E+06     717.943E+03
            1432     117.411E-03     2.31550E-03     117.388E-03     517.771E-03    -258.684E-03    -259.532E-03    -258.682E-03     517.769E-03    -259.532E-03     1.41191E-03     530.939E-03     19.6485E+06    -63.2096E+06    -71.8143E+06    -85.5020E+06    -85.2867E+06    -72.0296E+06    -63.2096E+06     967.582E+03
            1433     117.396E-03     3.08507E-03     117.355E-03     517.387E-03    -258.072E-03    -259.483E-03    -258.050E-03     517.365E-03    -259.483E-03     7.13300E-03     539.568E-03     30.6063E+06    -42.6983E+06    -58.2642E+06    -77.8437E+06    -77.3661E+06    -58.7418E+06    -42.6983E+06     1.51336E+06
            1434     117.388E-03     3.85839E-03     117.324E-03     516.494E-03    -256.441E-03    -259.381E-03    -256.336E-03     516.389E-03    -259.381E-03     16.9351E-03     548.015E-03     39.2212E+06    -24.4560E+06    -45.4745E+06    -69.6162E+06    -69.1443E+06    -45.9464E+06    -24.4560E+06     1.73591E+06
            1435     117.414E-03     4.63332E-03     117.322E-03     514.906E-03    -255.113E-03    -259.304E-03    -254.795E-03     514.588E-03    -259.304E-03     30.2852E-03     558.679E-03     43.2424E+06    -10.9375E+06    -35.1525E+06    -60.8029E+06    -60.5746E+06    -35.3808E+06    -10.9375E+06     1.50184E+06
            1436     117.452E-03     5.40385E-03     117.327E-03     513.052E-03    -254.350E-03    -259.252E-03    -253.567E-03     512.269E-03    -259.252E-03     47.8844E-03     572.537E-03     45.8651E+06    -821.609E+03    -26.9356E+06    -53.7735E+06    -53.5870E+06    -27.1221E+06    -821.609E+03     1.74018E+06
            1437     117.538E-03     6.17316E-03     117.376E-03     510.873E-03    -253.420E-03    -258.967E-03    -251.842E-03     509.295E-03    -258.967E-03     68.5368E-03     588.116E-03     48.6210E+06     9.75035E+06    -17.6186E+06    -46.3488E+06    -46.1593E+06    -17.8082E+06     9.75035E+06     2.25593E+06
            1438     117.654E-03     6.95138E-03     117.449E-03     510.660E-03    -253.157E-03    -258.478E-03    -250.285E-03     507.787E-03    -258.478E-03     92.5389E-03     605.951E-03     51.4226E+06     20.2742E+06    -9.15509E+06    -39.0164E+06    -38.8518E+06    -9.31973E+06     20.2742E+06     2.14735E+06
            1439     117.844E-03     7.71797E-03     117.591E-03     513.448E-03    -255.690E-03    -258.275E-03    -250.884E-03     508.642E-03    -258.275E-03     120.409E-03     624.085E-03     52.8560E+06     27.4236E+06    -3.66538E+06    -33.4898E+06    -33.4264E+06    -3.72880E+06     27.4236E+06     1.11075E+06
            1440     118.067E-03     8.49092E-03     117.761E-03     517.062E-03    -258.691E-03    -258.959E-03    -251.843E-03     510.073E-03    -258.818E-03     146.153E-03     640.230E-03     52.8106E+06     32.3909E+06     2.15413E+06    -28.4831E+06    -28.2937E+06     1.96474E+06     32.3909E+06     815.506E+03
            1441     118.306E-03     9.26596E-03     117.943E-03     520.221E-03    -259.507E-03    -260.776E-03    -251.419E-03     510.930E-03    -259.573E-03     168.935E-03     653.152E-03     49.7420E+06     34.5236E+06     5.88892E+06    -22.8396E+06    -22.2939E+06     5.34317E+06     34.5236E+06     950.063E+03
            1442     118.576E-03     10.0391E-03     118.150E-03     521.234E-03    -259.218E-03    -262.330E-03    -251.403E-03     510.307E-03    -259.218E-03     183.736E-03     658.976E-03     46.3339E+06     34.8561E+06     9.78624E+06    -18.4824E+06    -17.8740E+06     9.17775E+06     34.8561E+06     726.234E+03
            1443     118.914E-03     10.8068E-03     118.422E-03     526.706E-03    -258.595E-03    -267.438E-03    -253.301E-03     512.570E-03    -258.595E-03     209.059E-03     671.986E-03     46.5448E+06     38.0549E+06     13.1430E+06    -15.2578E+06    -14.6805E+06     12.5658E+06     38.0549E+06     698.220E+03
            1444     119.332E-03     11.5817E-03     118.768E-03     530.251E-03    -258.534E-03    -270.820E-03    -256.323E-03     515.754E-03    -258.534E-03     212.811E-03     674.280E-03     47.9680E+06     41.9032E+06     17.8471E+06    -12.7530E+06    -10.6882E+06     15.7824E+06     41.9032E+06     884.294E+03
            1445     119.697E-03     12.3465E-03     119.059E-03     544.016E-03    -258.494E-03    -285.804E-03    -264.075E-03     522.287E-03    -258.494E-03     258.798E-03     707.414E-03     50.7564E+06     47.1616E+06     25.4991E+06    -10.3761E+06    -6.37376E+06     21.4967E+06     47.1616E+06     368.709E+03
            1446     120.270E-03     13.1245E-03     119.552E-03     544.738E-03    -259.346E-03    -285.394E-03    -265.947E-03     525.291E-03    -259.346E-03     238.436E-03     687.511E-03     53.1852E+06     53.8491E+06     28.6800E+06    -6.81006E+06    -3.08065E+06     24.9506E+06     53.8491E+06      83.055E+03
            1447     119.073E-03     773.631E-06     119.071E-03     517.782E-03    -258.512E-03    -259.197E-03    -258.893E-03     517.778E-03    -258.813E-03    -1.53213E-03     519.529E-03     6.31573E+06    -92.7840E+06    -97.0091E+06    -99.7096E+06    -97.5381E+06    -97.0416E+06    -94.9231E+06     23.0034E+03
            1448     119.108E-03     1.54446E-03     119.098E-03     517.970E-03    -258.907E-03    -259.234E-03    -259.111E-03     517.968E-03    -259.028E-03    -1.52331E-03     523.623E-03     9.85198E+06    -84.2870E+06    -86.8062E+06    -95.0914E+06    -94.8149E+06    -87.0827E+06    -84.2870E+06     1.04647E+06
            1449     119.105E-03     2.31383E-03     119.083E-03     517.581E-03    -258.611E-03    -259.338E-03    -258.709E-03     517.578E-03    -259.237E-03     1.39971E-03     530.424E-03     20.4800E+06    -66.4956E+06    -73.4438E+06    -89.4401E+06    -89.0819E+06    -73.8020E+06    -66.4956E+06     1.74038E+06
            1450     119.098E-03     3.08754E-03     119.058E-03     517.255E-03    -258.332E-03    -259.312E-03    -258.308E-03     517.230E-03    -259.312E-03     7.72871E-03     539.494E-03     29.9427E+06    -47.1184E+06    -60.8882E+06    -81.4163E+06    -81.0398E+06    -61.2647E+06    -47.1184E+06     1.59875E+06
            1451     119.080E-03     3.85901E-03     119.017E-03     516.834E-03    -257.061E-03    -259.307E-03    -256.953E-03     516.726E-03    -259.307E-03     17.3421E-03     548.775E-03     39.2372E+06    -26.7867E+06    -47.0301E+06    -71.9398E+06    -71.5601E+06    -47.4098E+06    -26.7867E+06     1.76200E+06
            1452     119.102E-03     4.62993E-03     119.012E-03     514.848E-03    -255.048E-03    -259.272E-03    -254.721E-03     514.521E-03    -259.272E-03     30.6708E-03     558.901E-03     46.0298E+06    -10.9608E+06    -35.4536E+06    -64.0150E+06    -63.7685E+06    -35.7001E+06    -10.9608E+06     2.28140E+06
            1453     119.150E-03     5.40423E-03     119.027E-03     512.363E-03    -253.805E-03    -259.196E-03    -253.005E-03     511.564E-03    -259.196E-03     48.3880E-03     571.932E-03     48.7482E+06     827.983E+03    -27.4523E+06    -55.2871E+06    -55.0653E+06    -27.6742E+06     827.983E+03     2.36817E+06
            1454     119.231E-03     6.17796E-03     119.071E-03     510.551E-03    -253.199E-03    -258.822E-03    -251.650E-03     509.002E-03    -258.822E-03     68.0152E-03     587.464E-03     50.0228E+06     10.7085E+06    -18.6972E+06    -46.8846E+06    -46.6957E+06    -18.8862E+06     10.7085E+06     2.27951E+06
            1455     119.344E-03     6.94974E-03     119.141E-03     510.981E-03    -253.455E-03    -258.355E-03    -250.647E-03     508.173E-03    -258.355E-03     91.4744E-03     606.171E-03     51.8493E+06     20.0342E+06    -8.18034E+06    -39.7739E+06    -39.6596E+06    -8.29466E+06     20.0342E+06     1.77253E+06
            1456     119.543E-03     7.72159E-03     119.293E-03     513.166E-03    -255.338E-03    -258.173E-03    -250.716E-03     508.544E-03    -258.173E-03     118.136E-03     623.848E-03     53.7000E+06     28.2994E+06    -3.29970E+06    -33.6403E+06    -33.5409E+06    -3.39909E+06     28.2994E+06     1.34433E+06
            1457     119.764E-03     8.49082E-03     119.462E-03     516.111E-03    -257.852E-03    -258.705E-03    -251.196E-03     509.455E-03    -258.705E-03     142.460E-03     639.154E-03     53.8188E+06     33.8920E+06     1.81306E+06    -28.1716E+06    -27.9025E+06     1.54404E+06     33.8920E+06     1.28070E+06
            1458     120.001E-03     9.26311E-03     119.643E-03     519.144E-03    -259.307E-03    -260.282E-03    -251.047E-03     510.143E-03    -259.540E-03     166.091E-03     652.233E-03     52.4974E+06     37.1634E+06     6.78961E+06    -23.3957E+06    -22.9774E+06     6.37132E+06     37.1634E+06     484.286E+03
            1459     120.275E-03     10.0439E-03     119.855E-03     521.524E-03    -259.232E-03    -262.648E-03    -251.842E-03     510.718E-03    -259.232E-03     182.784E-03     658.922E-03     50.1365E+06     38.1746E+06     9.77283E+06    -19.5485E+06    -19.0757E+06     9.29999E+06     38.1746E+06     341.581E+03
            1460     120.604E-03     10.8100E-03     120.119E-03     528.286E-03    -258.638E-03    -268.621E-03    -254.422E-03     514.086E-03    -258.638E-03     209.834E-03     673.055E-03     47.7785E+06     39.8370E+06     13.0262E+06    -14.9284E+06    -14.2339E+06     12.3316E+06     39.8370E+06     1.06233E+06
            1461     121.022E-03     11.5761E-03     120.467E-03     530.357E-03    -258.586E-03    -270.693E-03    -255.936E-03     515.600E-03    -258.586E-03     214.790E-03     673.667E-03     49.3939E+06     43.3527E+06     18.6787E+06    -12.9707E+06    -10.3046E+06     16.0127E+06     43.3527E+06     555.759E+03
            1462     121.385E-03     12.3516E-03     120.755E-03     543.459E-03    -258.345E-03    -285.203E-03    -263.028E-03     521.284E-03    -258.345E-03     261.414E-03     705.753E-03     53.8602E+06     49.3423E+06     27.1500E+06    -11.6254E+06    -7.07282E+06     22.5975E+06     49.3423E+06     12.4153E+03
            1463     121.938E-03     13.1298E-03     121.229E-03     544.662E-03    -259.066E-03    -285.590E-03    -265.859E-03     524.931E-03    -259.066E-03     240.010E-03     687.012E-03     55.5596E+06     55.8340E+06     29.3728E+06    -7.40817E+06    -3.49518E+06     25.4598E+06     55.8340E+06     341.456E+03
            1464     120.752E-03     770.840E-06     120.750E-03     517.978E-03    -258.530E-03    -259.403E-03    -259.259E-03     517.974E-03    -258.671E-03    -2.89212E-03     519.664E-03     11.8730E+06    -94.2161E+06    -98.6591E+06    -107.570E+06    -99.8934E+06    -103.797E+06    -96.7547E+06     3.32048E+06
            1465     120.796E-03     1.54323E-03     120.786E-03     517.828E-03    -258.732E-03    -259.254E-03    -258.911E-03     517.825E-03    -259.073E-03    -2.34580E-03     523.338E-03     11.5861E+06    -85.8589E+06    -88.4576E+06    -98.4879E+06    -96.7821E+06    -90.1635E+06    -85.8589E+06     3.45089E+06
            1466     120.792E-03     2.31649E-03     120.770E-03     517.455E-03    -258.658E-03    -259.309E-03    -258.771E-03     517.452E-03    -259.193E-03     678.408E-06     530.272E-03     21.8728E+06    -66.7706E+06    -74.1037E+06    -91.2772E+06    -90.2055E+06    -75.1754E+06    -66.7706E+06     3.55051E+06
            1467     120.782E-03     3.08720E-03     120.743E-03     517.066E-03    -258.216E-03    -259.244E-03    -258.210E-03     517.045E-03    -259.230E-03     7.06980E-03     539.108E-03     32.6576E+06    -45.6212E+06    -59.8145E+06    -82.9134E+06    -82.3004E+06    -60.4275E+06    -45.6212E+06     2.18422E+06
            1468     120.775E-03     3.86105E-03     120.713E-03     516.812E-03    -257.056E-03    -259.185E-03    -256.950E-03     516.705E-03    -259.185E-03     17.0203E-03     548.609E-03     41.0133E+06    -26.8963E+06    -48.7912E+06    -74.1208E+06    -73.7485E+06    -49.1635E+06    -26.8963E+06     1.55486E+06
            1469     120.792E-03     4.63307E-03     120.703E-03     515.107E-03    -255.431E-03    -259.160E-03    -255.095E-03     514.771E-03    -259.160E-03     31.1072E-03     559.424E-03     46.3716E+06    -11.3433E+06    -36.6231E+06    -64.8165E+06    -64.6126E+06    -36.8270E+06    -11.3433E+06     2.07382E+06
            1470     120.840E-03     5.40559E-03     120.719E-03     512.327E-03    -253.813E-03    -259.151E-03    -253.053E-03     511.567E-03    -259.151E-03     47.4519E-03     571.971E-03     49.4826E+06     880.380E+03    -27.1461E+06    -56.0595E+06    -55.9139E+06    -27.2917E+06     880.380E+03     1.94632E+06
            1471     120.923E-03     6.17769E-03     120.765E-03     510.961E-03    -253.600E-03    -258.889E-03    -252.132E-03     509.492E-03    -258.889E-03     66.1495E-03     587.850E-03     52.0262E+06     11.3315E+06    -19.0640E+06    -48.5696E+06    -48.4595E+06    -19.1740E+06     11.3315E+06     1.43183E+06
            1472     121.036E-03     6.95131E-03     120.837E-03     512.041E-03    -254.308E-03    -258.587E-03    -251.507E-03     509.240E-03    -258.587E-03     91.2921E-03     607.514E-03     53.9005E+06     20.4421E+06    -8.78025E+06    -41.7252E+06    -41.6102E+06    -8.89527E+06     20.4421E+06     1.50827E+06
            1473     121.236E-03     7.71439E-03     120.991E-03     513.358E-03    -255.148E-03    -258.352E-03    -250.443E-03     508.653E-03    -258.352E-03     119.127E-03     624.553E-03     54.9661E+06     28.7608E+06    -2.63937E+06    -34.6694E+06    -34.5322E+06    -2.77664E+06     28.7608E+06     1.35810E+06
            1474     121.452E-03     8.48902E-03     121.155E-03     515.329E-03    -256.944E-03    -258.575E-03    -250.079E-03     508.465E-03    -258.575E-03     144.425E-03     638.163E-03     54.5465E+06     34.6201E+06     2.80360E+06    -28.3237E+06    -28.1088E+06     2.58867E+06     34.6201E+06     778.600E+03
            1475     121.695E-03     9.26605E-03     121.342E-03     518.718E-03    -258.943E-03    -260.202E-03    -250.673E-03     509.663E-03    -259.418E-03     166.662E-03     651.533E-03     53.2268E+06     37.6678E+06     6.36382E+06    -23.6885E+06    -23.4608E+06     6.13607E+06     37.6678E+06     1.37186E+06
            1476     122.024E-03     10.0319E-03     121.611E-03     521.729E-03    -259.322E-03    -262.767E-03    -252.093E-03     511.056E-03    -259.322E-03     181.701E-03     658.883E-03     51.2021E+06     39.7632E+06     9.22602E+06    -19.2458E+06    -18.8594E+06     8.83967E+06     39.7632E+06     1.59108E+06
            1477     122.316E-03     10.8102E-03     121.837E-03     527.737E-03    -258.691E-03    -268.134E-03    -253.980E-03     513.583E-03    -258.691E-03     209.326E-03     672.122E-03     49.3607E+06     41.5839E+06     13.9796E+06    -15.2738E+06    -14.3757E+06     13.0814E+06     41.5839E+06     626.015E+03
            1478     122.742E-03     11.5783E-03     122.194E-03     529.751E-03    -258.545E-03    -270.279E-03    -255.506E-03     514.979E-03    -258.545E-03     214.772E-03     672.970E-03     51.1700E+06     45.7080E+06     19.7566E+06    -13.1079E+06    -10.0772E+06     16.7259E+06     45.7080E+06     243.761E+03
            1479     123.065E-03     12.3529E-03     122.444E-03     543.716E-03    -258.188E-03    -285.599E-03    -263.534E-03     521.651E-03    -258.188E-03     261.066E-03     705.444E-03     55.2174E+06     51.5815E+06     26.2198E+06    -11.1385E+06    -6.68672E+06     21.7679E+06     51.5815E+06     645.982E+03
            1480     123.600E-03     13.1336E-03     122.900E-03     544.932E-03    -258.879E-03    -285.932E-03    -266.462E-03     525.462E-03    -258.879E-03     238.167E-03     686.802E-03     57.3290E+06     57.8621E+06     29.2912E+06    -7.35092E+06    -3.87185E+06     25.8122E+06     57.8621E+06     598.774E+03
            1481     122.447E-03     771.730E-06     122.444E-03     518.904E-03    -259.158E-03    -259.825E-03    -259.528E-03     518.902E-03    -259.452E-03    -2.60018E-03     520.711E-03     17.5781E+06    -98.9325E+06    -102.794E+06    -117.957E+06    -102.798E+06    -114.989E+06    -101.897E+06     2.03640E+06
            1482     122.511E-03     1.54271E-03     122.501E-03     518.395E-03    -258.985E-03    -259.559E-03    -258.983E-03     518.394E-03    -259.559E-03    -2.10719E-03     524.266E-03     16.6446E+06    -86.4678E+06    -90.2106E+06    -104.598E+06    -98.1975E+06    -96.1857E+06    -86.8933E+06     4.37728E+06
            1483     122.514E-03     2.31349E-03     122.492E-03     517.934E-03    -258.917E-03    -259.577E-03    -258.930E-03     517.932E-03    -259.562E-03     349.298E-06     531.365E-03     23.1717E+06    -67.3148E+06    -75.1647E+06    -93.3813E+06    -92.1880E+06    -76.3580E+06    -67.3148E+06     4.04081E+06
            1484     122.511E-03     3.08624E-03     122.472E-03     517.763E-03    -258.491E-03    -259.477E-03    -258.487E-03     517.745E-03    -259.463E-03     6.48369E-03     539.952E-03     34.4974E+06    -46.7188E+06    -60.2956E+06    -85.8486E+06    -84.5757E+06    -61.5684E+06    -46.7188E+06     3.78372E+06
            1485     122.470E-03     3.86023E-03     122.409E-03     517.196E-03    -257.196E-03    -259.312E-03    -257.103E-03     517.103E-03    -259.312E-03     16.0006E-03     548.880E-03     43.7438E+06    -26.4293E+06    -47.9684E+06    -76.5781E+06    -75.5224E+06    -49.0241E+06    -26.4293E+06     3.41709E+06
            1486     122.490E-03     4.63282E-03     122.402E-03     515.399E-03    -255.734E-03    -259.288E-03    -255.434E-03     515.098E-03    -259.288E-03     29.4186E-03     559.723E-03     48.1852E+06    -10.5909E+06    -36.6460E+06    -66.1735E+06    -65.9359E+06    -36.8836E+06    -10.5909E+06     2.36849E+06
            1487     122.536E-03     5.40349E-03     122.416E-03     512.853E-03    -254.109E-03    -259.318E-03    -253.381E-03     512.125E-03    -259.318E-03     46.3109E-03     572.663E-03     50.5767E+06     623.346E+03    -26.8582E+06    -57.7355E+06    -57.5942E+06    -26.9995E+06     623.346E+03     1.87535E+06
            1488     122.651E-03     6.17247E-03     122.495E-03     511.302E-03    -253.494E-03    -259.169E-03    -251.990E-03     509.797E-03    -259.169E-03     66.7973E-03     588.303E-03     52.9648E+06     11.2025E+06    -18.7546E+06    -49.9415E+06    -49.8395E+06    -18.8566E+06     11.2025E+06     1.44183E+06
            1489     122.766E-03     6.94391E-03     122.570E-03     512.088E-03    -253.962E-03    -258.911E-03    -251.069E-03     509.195E-03    -258.911E-03     92.8226E-03     607.193E-03     55.6634E+06     21.8875E+06    -9.40347E+06    -42.3620E+06    -42.2708E+06    -9.49459E+06     21.8875E+06     1.00736E+06
            1490     122.944E-03     7.71860E-03     122.702E-03     514.145E-03    -255.550E-03    -258.443E-03    -250.677E-03     509.273E-03    -258.443E-03     121.315E-03     625.358E-03     56.9546E+06     30.5206E+06    -1.29234E+06    -35.2114E+06    -35.0800E+06    -1.42370E+06     30.5206E+06     1.06523E+06
            1491     123.125E-03     8.49486E-03     122.832E-03     515.835E-03    -257.276E-03    -258.290E-03    -250.355E-03     508.915E-03    -258.290E-03     145.263E-03     638.985E-03     56.6490E+06     35.6605E+06     2.67352E+06    -29.6283E+06    -29.4615E+06     2.50671E+06     35.6605E+06     1.28848E+06
            1492     123.297E-03     9.27945E-03     122.947E-03     518.183E-03    -258.706E-03    -259.908E-03    -250.339E-03     509.046E-03    -259.139E-03     167.179E-03     650.943E-03     53.9475E+06     37.5601E+06     4.63583E+06    -24.5495E+06    -24.3842E+06     4.47053E+06     37.5601E+06     1.71120E+06
            1493     123.715E-03     10.0313E-03     123.307E-03     521.141E-03    -259.285E-03    -262.482E-03    -251.657E-03     510.316E-03    -259.285E-03     182.875E-03     658.367E-03     50.8301E+06     39.3753E+06     9.81500E+06    -19.2216E+06    -18.8650E+06     9.45848E+06     39.3753E+06     1.46612E+06
            1494     123.941E-03     10.8146E-03     123.468E-03     527.080E-03    -258.574E-03    -267.860E-03    -253.683E-03     512.903E-03    -258.574E-03     209.367E-03     671.516E-03     50.6030E+06     42.5714E+06     15.3585E+06    -15.7161E+06    -14.9571E+06     14.5995E+06     42.5714E+06     256.182E+03
            1495     124.389E-03     11.5797E-03     123.849E-03     529.777E-03    -258.380E-03    -270.723E-03    -256.101E-03     515.154E-03    -258.380E-03     213.631E-03     673.267E-03     53.4938E+06     46.9993E+06     18.7775E+06    -14.4966E+06    -11.7566E+06     16.0375E+06     46.9993E+06      96.895E+03
            1496     124.736E-03     12.3568E-03     124.122E-03     544.282E-03    -258.171E-03    -286.347E-03    -264.479E-03     522.414E-03    -258.171E-03     259.814E-03     706.463E-03     57.1207E+06     53.4659E+06     25.3974E+06    -11.6106E+06    -7.48721E+06     21.2740E+06     53.4659E+06     430.660E+03
            1497     125.297E-03     13.1285E-03     124.607E-03     544.946E-03    -258.881E-03    -286.078E-03    -266.645E-03     525.513E-03    -258.881E-03     238.018E-03     686.998E-03     59.1334E+06     60.5851E+06     30.0994E+06    -6.82003E+06    -3.61212E+06     26.8915E+06     60.5851E+06     246.952E+03
            1498     124.143E-03     770.722E-06     124.140E-03     518.979E-03    -259.302E-03    -259.733E-03    -259.543E-03     518.976E-03    -259.489E-03    -2.31764E-03     520.881E-03     21.7402E+06    -99.9044E+06    -104.556E+06    -122.923E+06    -104.921E+06    -121.572E+06    -100.890E+06     1.62642E+06
            1499     124.211E-03     1.54100E-03     124.201E-03     519.272E-03    -259.605E-03    -259.875E-03    -259.604E-03     519.270E-03    -259.875E-03    -1.84537E-03     525.416E-03     19.1436E+06    -88.5443E+06    -95.8093E+06    -109.792E+06    -100.369E+06    -104.807E+06    -88.9699E+06     3.68012E+06
            1500     124.212E-03     2.31270E-03     124.191E-03     519.003E-03    -259.430E-03    -259.995E-03    -259.429E-03     519.002E-03    -259.995E-03     196.641E-06     532.581E-03     25.1709E+06    -70.7209E+06    -77.2667E+06    -98.3001E+06    -94.0086E+06    -81.5582E+06    -70.7209E+06     5.97671E+06
            1501     124.204E-03     3.08396E-03     124.166E-03     518.589E-03    -258.630E-03    -259.829E-03    -258.613E-03     518.572E-03    -259.829E-03     5.85211E-03     540.468E-03     35.8598E+06    -49.5435E+06    -60.4330E+06    -89.3088E+06    -87.1267E+06    -62.6151E+06    -49.5435E+06     6.13110E+06
            1502     124.195E-03     3.85706E-03     124.135E-03     517.601E-03    -257.188E-03    -259.626E-03    -257.089E-03     517.501E-03    -259.626E-03     16.3190E-03     548.976E-03     44.9169E+06    -27.5683E+06    -47.2509E+06    -78.8685E+06    -77.8334E+06    -48.2860E+06    -27.5683E+06     4.31504E+06
            1503     124.199E-03     4.62877E-03     124.113E-03     515.199E-03    -255.425E-03    -259.615E-03    -255.109E-03     514.883E-03    -259.615E-03     30.2472E-03     559.441E-03     50.2359E+06    -10.3020E+06    -35.8514E+06    -68.1478E+06    -67.8079E+06    -36.1913E+06    -10.3020E+06     2.95686E+06
            1504     124.245E-03     5.40346E-03     124.127E-03     513.027E-03    -254.139E-03    -259.512E-03    -253.383E-03     512.271E-03    -259.512E-03     47.2060E-03     572.962E-03     53.1511E+06     2.14425E+06    -26.5706E+06    -59.1795E+06    -58.9213E+06    -26.8288E+06     2.14425E+06     2.55612E+06
            1505     124.338E-03     6.17382E-03     124.185E-03     511.941E-03    -254.047E-03    -259.322E-03    -252.554E-03     510.448E-03    -259.322E-03     66.7273E-03     589.191E-03     55.3047E+06     12.5183E+06    -18.1090E+06    -51.3193E+06    -51.1863E+06    -18.2420E+06     12.5183E+06     1.88769E+06
            1506     124.471E-03     6.94519E-03     124.277E-03     512.998E-03    -254.718E-03    -259.141E-03    -251.944E-03     510.224E-03    -259.141E-03     91.0099E-03     608.067E-03     58.0213E+06     23.5054E+06    -8.65063E+06    -43.4660E+06    -43.3289E+06    -8.78776E+06     23.5054E+06     1.46312E+06
            1507     124.630E-03     7.71460E-03     124.391E-03     514.859E-03    -256.024E-03    -258.561E-03    -251.333E-03     510.168E-03    -258.561E-03     119.082E-03     625.594E-03     59.1901E+06     31.4390E+06    -1.56381E+06    -36.8746E+06    -36.7046E+06    -1.73384E+06     31.4390E+06     1.68634E+06
            1508     124.788E-03     8.49302E-03     124.498E-03     515.731E-03    -257.090E-03    -258.206E-03    -250.186E-03     508.826E-03    -258.206E-03     144.919E-03     638.693E-03     58.5845E+06     36.8546E+06     1.69877E+06    -30.6877E+06    -30.5596E+06     1.57065E+06     36.8546E+06     1.41913E+06
            1509     124.986E-03     9.27428E-03     124.642E-03     517.893E-03    -258.510E-03    -259.683E-03    -249.832E-03     508.547E-03    -259.015E-03     168.980E-03     650.781E-03     55.8970E+06     39.3725E+06     4.79864E+06    -25.0630E+06    -24.9252E+06     4.66078E+06     39.3725E+06     960.160E+03
            1510     125.402E-03     10.0315E-03     125.000E-03     521.014E-03    -259.242E-03    -262.253E-03    -251.445E-03     510.206E-03    -259.242E-03     182.733E-03     658.210E-03     52.2015E+06     39.7643E+06     10.3599E+06    -20.4502E+06    -20.1570E+06     10.0667E+06     39.7643E+06     710.094E+03
            1511     125.628E-03     10.8144E-03     125.162E-03     526.984E-03    -258.431E-03    -267.685E-03    -253.788E-03     513.087E-03    -258.431E-03     207.219E-03     671.100E-03     51.0738E+06     43.2645E+06     15.8594E+06    -15.5224E+06    -15.0056E+06     15.3426E+06     43.2645E+06     488.420E+03
            1512     126.070E-03     11.5846E-03     125.536E-03     529.734E-03    -258.228E-03    -270.807E-03    -256.248E-03     515.174E-03    -258.228E-03     213.286E-03     672.371E-03     53.9155E+06     48.0164E+06     18.8595E+06    -13.9982E+06    -11.3050E+06     16.1663E+06     48.0164E+06     683.706E+03
            1513     126.428E-03     12.3538E-03     125.823E-03     544.314E-03    -258.135E-03    -286.357E-03    -264.507E-03     522.464E-03    -258.135E-03     259.920E-03     706.228E-03     58.7409E+06     55.2703E+06     25.4579E+06    -11.6754E+06    -7.88840E+06     21.6709E+06     55.2703E+06     796.966E+03
            1514     126.986E-03     13.1321E-03     126.305E-03     544.703E-03    -258.867E-03    -285.770E-03    -266.406E-03     525.340E-03    -258.867E-03     237.696E-03     687.292E-03     60.8810E+06     63.0203E+06     30.5252E+06    -6.40131E+06    -3.64421E+06     27.7681E+06     63.0203E+06     456.026E+03
            1515     125.804E-03     772.264E-06     125.802E-03     519.110E-03    -258.727E-03    -260.377E-03    -260.256E-03     519.106E-03    -258.844E-03    -2.81696E-03     520.967E-03     29.6860E+06    -99.8018E+06    -106.346E+06    -131.562E+06    -104.245E+06    -130.400E+06    -103.065E+06     3.82185E+06
            1516     125.867E-03     1.54323E-03     125.858E-03     519.256E-03    -259.587E-03    -259.893E-03    -259.584E-03     519.253E-03    -259.893E-03    -2.39366E-03     525.350E-03     22.6183E+06    -90.9676E+06    -102.064E+06    -116.561E+06    -103.372E+06    -113.871E+06    -92.3498E+06     5.47683E+06
            1517     125.880E-03     2.31228E-03     125.858E-03     518.937E-03    -259.394E-03    -259.972E-03    -259.392E-03     518.935E-03    -259.972E-03     466.110E-06     532.570E-03     26.8514E+06    -73.6425E+06    -83.0584E+06    -103.390E+06    -96.9453E+06    -89.5028E+06    -73.6425E+06     6.58578E+06
            1518     125.883E-03     3.08418E-03     125.845E-03     518.366E-03    -258.333E-03    -259.865E-03    -258.312E-03     518.346E-03    -259.865E-03     6.58988E-03     540.335E-03     35.2918E+06    -50.3247E+06    -59.8172E+06    -89.0982E+06    -86.9836E+06    -61.9319E+06    -50.3247E+06     6.10399E+06
            1519     125.891E-03     3.85674E-03     125.832E-03     516.852E-03    -256.481E-03    -259.682E-03    -256.380E-03     516.752E-03    -259.682E-03     16.6122E-03     548.110E-03     44.6349E+06    -29.1985E+06    -46.8739E+06    -79.7667E+06    -78.5532E+06    -48.0874E+06    -29.1985E+06     5.24154E+06
            1520     125.910E-03     4.63231E-03     125.825E-03     514.967E-03    -255.398E-03    -259.721E-03    -255.100E-03     514.669E-03    -259.721E-03     29.4069E-03     558.954E-03     51.6457E+06    -11.0380E+06    -35.7598E+06    -70.3756E+06    -69.7281E+06    -36.4073E+06    -11.0380E+06     4.51391E+06
            1521     125.955E-03     5.40379E-03     125.839E-03     514.106E-03    -255.223E-03    -259.691E-03    -254.512E-03     513.394E-03    -259.691E-03     45.7569E-03     574.250E-03     55.6737E+06     3.43711E+06    -25.1329E+06    -60.7035E+06    -60.3512E+06    -25.4852E+06     3.43711E+06     3.41277E+06
            1522     126.054E-03     6.17360E-03     125.902E-03     512.985E-03    -255.313E-03    -259.530E-03    -253.911E-03     511.584E-03    -259.530E-03     64.8037E-03     590.852E-03     58.0161E+06     14.2092E+06    -16.8186E+06    -52.7147E+06    -52.4310E+06    -17.1023E+06     14.2092E+06     2.78351E+06
            1523     126.170E-03     6.93963E-03     125.979E-03     513.582E-03    -255.467E-03    -259.305E-03    -252.683E-03     510.798E-03    -259.305E-03     90.8645E-03     609.084E-03     60.7515E+06     24.5123E+06    -8.82543E+06    -45.5918E+06    -45.3175E+06    -9.09970E+06     24.5123E+06     2.67866E+06
            1524     126.321E-03     7.71226E-03     126.085E-03     513.894E-03    -255.452E-03    -258.634E-03    -250.666E-03     509.108E-03    -258.634E-03     120.201E-03     624.980E-03     62.0025E+06     33.1097E+06    -1.98768E+06    -38.4640E+06    -38.2805E+06    -2.17124E+06     33.1097E+06     2.24506E+06
            1525     126.461E-03     8.49561E-03     126.176E-03     514.652E-03    -256.457E-03    -258.361E-03    -249.635E-03     507.664E-03    -258.194E-03     145.651E-03     637.514E-03     61.3275E+06     38.6807E+06     2.05695E+06    -32.0962E+06    -31.9605E+06     1.92121E+06     38.6807E+06     1.86715E+06
            1526     126.681E-03     9.28027E-03     126.341E-03     518.524E-03    -258.595E-03    -260.017E-03    -250.475E-03     509.360E-03    -258.974E-03     167.623E-03     651.677E-03     58.7171E+06     41.4283E+06     5.97973E+06    -26.3146E+06    -26.1977E+06     5.86278E+06     41.4283E+06     1.24582E+06
            1527     127.092E-03     10.0276E-03     126.696E-03     521.358E-03    -259.260E-03    -262.262E-03    -251.756E-03     510.852E-03    -259.260E-03     180.208E-03     659.204E-03     55.4182E+06     42.6666E+06     11.3179E+06    -21.2620E+06    -20.8163E+06     10.8721E+06     42.6666E+06    -90.6458E+03
            1528     127.309E-03     10.8138E-03     126.849E-03     526.819E-03    -258.433E-03    -267.536E-03    -253.723E-03     513.005E-03    -258.433E-03     206.538E-03     670.584E-03     54.5544E+06     45.1469E+06     15.3340E+06    -17.6822E+06    -16.9379E+06     14.5896E+06     45.1469E+06      76.413E+03
            1529     127.727E-03     11.5837E-03     127.200E-03     529.643E-03    -258.260E-03    -270.817E-03    -256.373E-03     515.199E-03    -258.260E-03     212.390E-03     671.500E-03     56.2111E+06     50.0136E+06     19.0439E+06    -14.6477E+06    -11.8192E+06     16.2154E+06     50.0136E+06     882.565E+03
            1530     128.097E-03     12.3605E-03     127.500E-03     543.451E-03    -258.167E-03    -285.570E-03    -264.049E-03     521.930E-03    -258.167E-03     257.699E-03     704.809E-03     58.8711E+06     56.2942E+06     25.4714E+06    -10.8948E+06    -7.09635E+06     21.6729E+06     56.2942E+06     475.621E+03
            1531     128.665E-03     13.1275E-03     127.993E-03     543.439E-03    -258.835E-03    -284.592E-03    -265.431E-03     524.279E-03    -258.835E-03     236.499E-03     685.847E-03     61.4597E+06      63.244E+06     30.4944E+06    -7.00986E+06    -4.37111E+06     27.8557E+06      63.244E+06     22.7564E+03
            1532     127.485E-03     770.245E-06     127.482E-03     519.228E-03    -258.649E-03    -260.617E-03    -259.933E-03     519.224E-03    -259.329E-03    -3.27674E-03     521.022E-03     37.7754E+06    -105.148E+06    -110.360E+06    -145.210E+06    -108.443E+06    -144.425E+06    -107.851E+06     3.13747E+06
            1533     127.554E-03     1.54072E-03     127.545E-03     518.682E-03    -259.104E-03    -259.764E-03    -259.101E-03     518.679E-03    -259.764E-03    -2.04547E-03     524.619E-03     28.9275E+06    -93.7495E+06    -103.686E+06    -125.906E+06    -104.864E+06    -123.345E+06    -95.1317E+06     5.81649E+06
            1534     127.567E-03     2.31443E-03     127.546E-03     517.979E-03    -258.681E-03    -259.623E-03    -258.679E-03     517.977E-03    -259.623E-03     957.577E-06     531.394E-03     26.2866E+06    -76.1098E+06    -86.6994E+06    -105.733E+06    -98.9407E+06    -93.4921E+06    -76.1098E+06     5.96236E+06
            1535     127.569E-03     3.08617E-03     127.532E-03     518.003E-03    -258.287E-03    -259.566E-03    -258.267E-03     517.984E-03    -259.566E-03     6.71816E-03     539.883E-03     34.6211E+06    -55.0960E+06    -64.3161E+06    -93.3285E+06    -91.3213E+06    -66.3233E+06    -55.0960E+06     6.49213E+06
            1536     127.574E-03     3.85864E-03     127.516E-03     517.293E-03    -257.214E-03    -259.592E-03    -257.123E-03     517.202E-03    -259.592E-03     15.8649E-03     548.778E-03     46.2321E+06    -30.5815E+06    -47.0035E+06    -82.5941E+06    -81.1574E+06    -48.4401E+06    -30.5815E+06     6.56890E+06
            1537     127.597E-03     4.63010E-03     127.513E-03     515.621E-03    -256.119E-03    -259.797E-03    -255.838E-03     515.339E-03    -259.797E-03     28.5313E-03     559.642E-03     53.1128E+06    -10.8403E+06    -34.7217E+06    -71.6837E+06    -70.8727E+06    -35.5327E+06    -10.8403E+06     5.22889E+06
            1538     127.654E-03     5.40150E-03     127.539E-03     514.211E-03    -255.293E-03    -259.859E-03    -254.589E-03     513.508E-03    -259.859E-03     45.4374E-03     574.296E-03     56.7198E+06     2.20472E+06    -24.8666E+06    -62.9595E+06    -62.2739E+06    -25.5522E+06     2.20472E+06     4.83889E+06
            1539     127.746E-03     6.17043E-03     127.597E-03     512.934E-03    -255.162E-03    -259.640E-03    -253.683E-03     511.455E-03    -259.640E-03     66.3530E-03     590.809E-03     59.2566E+06     13.7280E+06    -16.5275E+06    -54.5243E+06    -53.9429E+06    -17.1089E+06     13.7280E+06     4.50262E+06
            1540     127.864E-03     6.94334E-03     127.675E-03     513.062E-03    -254.822E-03    -259.258E-03    -251.999E-03     510.240E-03    -259.258E-03     91.7484E-03     608.613E-03     62.3571E+06     25.5827E+06    -8.11918E+06    -46.3548E+06    -45.9981E+06    -8.47586E+06     25.5827E+06     3.49276E+06
            1541     128.005E-03     7.71823E-03     127.772E-03     513.559E-03    -255.223E-03    -258.558E-03    -250.565E-03     508.901E-03    -258.558E-03     118.559E-03     624.671E-03     64.8085E+06     35.3638E+06    -1.38221E+06    -39.4384E+06    -39.1756E+06    -1.64498E+06     35.3638E+06     3.04859E+06
            1542     128.156E-03     8.49701E-03     127.874E-03     515.380E-03    -257.263E-03    -258.432E-03    -250.681E-03     508.574E-03    -258.208E-03     143.889E-03     638.042E-03     64.6285E+06     41.4531E+06     3.22892E+06    -33.1361E+06    -32.9382E+06     3.03108E+06     41.4531E+06     2.59601E+06
            1543     128.373E-03     9.27371E-03     128.037E-03     518.474E-03    -258.925E-03    -259.902E-03    -250.801E-03     509.372E-03    -258.925E-03     167.007E-03     651.960E-03     61.8927E+06     45.0593E+06     8.09416E+06    -26.3459E+06    -26.2391E+06     7.98739E+06     45.0593E+06     1.33856E+06
            1544     128.755E-03     10.0325E-03     128.364E-03     521.009E-03    -259.158E-03    -262.224E-03    -251.686E-03     510.471E-03    -259.158E-03     180.432E-03     658.896E-03     59.1248E+06     46.2802E+06     12.3404E+06    -21.9406E+06    -21.2170E+06     11.6169E+06     46.2802E+06     888.491E+03
            1545     128.986E-03     10.8132E-03     128.532E-03     528.020E-03    -258.493E-03    -268.901E-03    -254.976E-03     514.095E-03    -258.493E-03     207.649E-03     671.501E-03     58.1494E+06     49.0065E+06     15.1302E+06    -17.7027E+06    -16.7171E+06     14.1446E+06     49.0065E+06     1.20463E+06
            1546     129.436E-03     11.5834E-03     128.917E-03     530.137E-03    -258.426E-03    -271.389E-03    -257.058E-03     515.807E-03    -258.426E-03     211.533E-03     672.740E-03     59.2222E+06     52.1617E+06     18.6397E+06    -15.5762E+06    -13.1594E+06     16.2229E+06     52.1617E+06     759.318E+03
            1547     129.768E-03     12.3526E-03     129.179E-03     542.289E-03    -258.279E-03    -284.445E-03    -262.827E-03     520.671E-03    -258.279E-03     257.133E-03     704.488E-03     61.5041E+06     57.7272E+06     26.0855E+06    -12.3722E+06    -8.79760E+06     22.5110E+06     57.7272E+06    -94.7621E+03
            1548     130.373E-03     13.1298E-03     129.711E-03     542.460E-03    -258.799E-03    -283.842E-03    -264.205E-03     522.824E-03    -258.799E-03     239.353E-03     685.155E-03     63.5087E+06     65.7112E+06     30.8654E+06    -6.91590E+06    -4.05340E+06     28.0030E+06     65.7112E+06    -93.3221E+03
            1549     129.147E-03     772.110E-06     129.145E-03     518.205E-03    -258.683E-03    -259.538E-03    -258.940E-03     518.203E-03    -259.279E-03    -1.22284E-03     519.965E-03     45.4848E+06    -108.082E+06    -112.282E+06    -155.440E+06    -112.347E+06    -155.293E+06    -108.164E+06     1.72250E+06
            1550     129.220E-03     1.54387E-03     129.210E-03     518.503E-03    -259.009E-03    -259.772E-03    -259.379E-03     518.501E-03    -259.401E-03    -2.11138E-03     524.414E-03     36.9302E+06    -96.0881E+06    -104.900E+06    -136.472E+06    -106.112E+06    -135.260E+06    -96.0881E+06     4.48311E+06
            1551     129.237E-03     2.31411E-03     129.217E-03     517.858E-03    -258.765E-03    -259.630E-03    -258.967E-03     517.857E-03    -259.426E-03    -386.321E-06     531.321E-03     31.1326E+06    -78.4103E+06    -88.5644E+06    -113.252E+06    -100.009E+06    -101.807E+06    -78.4103E+06     8.33321E+06
            1552     129.244E-03     3.08679E-03     129.207E-03     517.820E-03    -258.373E-03    -259.393E-03    -258.357E-03     517.804E-03    -259.393E-03     5.61115E-03     539.522E-03     37.3886E+06    -55.5216E+06    -65.3788E+06    -96.7221E+06    -93.6007E+06    -68.5002E+06    -55.5216E+06     8.44175E+06
            1553     129.259E-03     3.85759E-03     129.202E-03     517.478E-03    -257.521E-03    -259.496E-03    -257.423E-03     517.379E-03    -259.496E-03     16.2052E-03     548.816E-03     47.5579E+06    -31.9897E+06    -47.0062E+06    -85.0851E+06    -83.8626E+06    -48.2287E+06    -31.9897E+06     6.47369E+06
            1554     129.279E-03     4.62974E-03     129.196E-03     515.514E-03    -256.112E-03    -259.763E-03    -255.793E-03     515.195E-03    -259.763E-03     30.3457E-03     559.619E-03     54.2274E+06    -13.0260E+06    -35.8181E+06    -74.8971E+06    -73.9221E+06    -36.7931E+06    -13.0260E+06     6.08196E+06
            1555     129.332E-03     5.40179E-03     129.219E-03     513.656E-03    -254.793E-03    -259.752E-03    -254.060E-03     512.922E-03    -259.752E-03     46.6342E-03     573.723E-03     58.1179E+06     1.08737E+06    -25.8844E+06    -65.6099E+06    -64.7256E+06    -26.7687E+06     1.08737E+06     5.72432E+06
            1556     129.422E-03     6.17535E-03     129.275E-03     512.545E-03    -254.639E-03    -259.454E-03    -253.173E-03     511.079E-03    -259.454E-03     66.0761E-03     590.245E-03     61.0684E+06     14.3087E+06    -15.7474E+06    -55.9406E+06    -55.3227E+06    -16.3652E+06     14.3087E+06     4.77620E+06
            1557     129.540E-03     6.94328E-03     129.354E-03     513.321E-03    -255.093E-03    -259.138E-03    -252.433E-03     510.661E-03    -259.138E-03     89.3812E-03     608.787E-03     64.1607E+06     25.9110E+06    -7.87360E+06    -48.0532E+06    -47.6048E+06    -8.32196E+06     25.9110E+06     4.15874E+06
            1558     129.675E-03     7.71499E-03     129.445E-03     514.392E-03    -256.058E-03    -258.610E-03    -251.568E-03     509.902E-03    -258.610E-03     116.368E-03     624.923E-03     66.6117E+06     36.5059E+06    -534.916E+03    -40.3622E+06    -40.0007E+06    -896.417E+03     36.5059E+06     3.76640E+06
            1559     129.821E-03     8.49412E-03     129.543E-03     514.802E-03    -256.830E-03    -258.379E-03    -250.127E-03     508.042E-03    -258.322E-03     143.267E-03     636.950E-03     66.6074E+06     44.3998E+06     5.56212E+06    -32.4639E+06    -32.2305E+06     5.32873E+06     44.3998E+06     2.83643E+06
            1560     130.032E-03     9.27860E-03     129.701E-03     517.406E-03    -258.085E-03    -259.844E-03    -249.899E-03     508.240E-03    -258.864E-03     167.351E-03     650.118E-03     63.8007E+06     46.6718E+06     8.39176E+06    -26.9444E+06    -26.6397E+06     8.08704E+06     46.6718E+06     2.23197E+06
            1561     130.408E-03     10.0350E-03     130.022E-03     522.156E-03    -259.070E-03    -263.351E-03    -252.924E-03     511.728E-03    -259.070E-03     179.780E-03     658.784E-03     61.3127E+06     48.4841E+06     13.0258E+06    -22.2670E+06    -21.5068E+06     12.2656E+06     48.4841E+06     2.26684E+06
            1562     130.657E-03     10.8137E-03     130.209E-03     528.484E-03    -258.549E-03    -269.116E-03    -255.416E-03     514.784E-03    -258.549E-03     205.824E-03     672.092E-03     59.8156E+06     51.8152E+06     15.9896E+06    -16.8925E+06    -16.0449E+06     15.1420E+06     51.8152E+06     1.72490E+06
            1563     131.090E-03     11.5796E-03     130.577E-03     528.470E-03    -258.399E-03    -269.481E-03    -254.999E-03     513.988E-03    -258.399E-03     212.282E-03     670.957E-03     60.3321E+06     55.4624E+06     20.5812E+06    -13.6494E+06    -11.5046E+06     18.4363E+06     55.4624E+06     914.468E+03
            1564     131.437E-03     12.3584E-03     130.854E-03     541.816E-03    -258.108E-03    -283.861E-03    -261.818E-03     519.772E-03    -258.108E-03     259.700E-03     703.460E-03     64.0690E+06     60.4976E+06     27.0220E+06    -12.7509E+06    -9.38358E+06     23.6546E+06     60.4976E+06     339.890E+03
            1565     132.027E-03     13.1310E-03     131.373E-03     542.814E-03    -258.637E-03    -284.338E-03    -264.517E-03     522.992E-03    -258.637E-03     240.110E-03     685.666E-03     66.6884E+06     68.2471E+06     30.1269E+06    -8.16030E+06    -4.97978E+06     26.9463E+06     68.2471E+06    -37.2265E+03
            1566     130.800E-03     773.136E-06     130.797E-03     517.442E-03    -258.474E-03    -258.888E-03    -258.877E-03     517.438E-03    -258.482E-03    -2.24938E-03     519.142E-03     54.1660E+06    -108.406E+06    -111.812E+06    -164.149E+06    -112.038E+06    -163.841E+06    -108.488E+06     2.78631E+06
            1567     130.877E-03     1.54277E-03     130.868E-03     518.344E-03    -259.071E-03    -259.502E-03    -259.440E-03     518.342E-03    -259.130E-03    -2.76456E-03     524.186E-03     45.2225E+06    -97.9549E+06    -108.330E+06    -146.975E+06    -109.177E+06    -146.128E+06    -97.9549E+06     4.69294E+06
            1568     130.898E-03     2.31427E-03     130.878E-03     517.951E-03    -258.908E-03    -259.545E-03    -259.108E-03     517.948E-03    -259.342E-03    -255.515E-06     531.363E-03     35.1737E+06    -80.2837E+06    -96.1122E+06    -120.350E+06    -102.233E+06    -114.229E+06    -80.2837E+06     6.72008E+06
            1569     130.901E-03     3.08572E-03     130.864E-03     517.398E-03    -258.242E-03    -259.339E-03    -258.224E-03     517.380E-03    -259.339E-03     6.30820E-03     539.518E-03     38.0351E+06    -56.5585E+06    -68.1039E+06    -98.4201E+06    -92.3235E+06    -74.2004E+06    -56.5585E+06     9.69863E+06
            1570     130.919E-03     3.85925E-03     130.862E-03     516.631E-03    -256.941E-03    -259.348E-03    -256.846E-03     516.535E-03    -259.348E-03     16.0348E-03     548.092E-03     50.1764E+06    -32.4151E+06    -45.4454E+06    -87.6341E+06    -84.9647E+06    -48.1149E+06    -32.4151E+06     10.0226E+06
            1571     130.936E-03     4.63304E-03     130.854E-03     515.034E-03    -255.704E-03    -259.589E-03    -255.412E-03     514.741E-03    -259.589E-03     29.0805E-03     558.789E-03     57.6918E+06    -12.5686E+06    -35.0317E+06    -78.0512E+06    -76.5204E+06    -36.5624E+06    -12.5686E+06     7.68749E+06
            1572     130.992E-03     5.40467E-03     130.881E-03     513.937E-03    -255.135E-03    -259.602E-03    -254.445E-03     513.248E-03    -259.602E-03     45.1023E-03     574.222E-03     60.3203E+06     1.93833E+06    -24.9786E+06    -67.1332E+06    -66.3689E+06    -25.7428E+06     1.93833E+06     5.52865E+06
            1573     131.080E-03     6.17234E-03     130.934E-03     512.615E-03    -254.812E-03    -259.326E-03    -253.407E-03     511.210E-03    -259.326E-03     64.7085E-03     590.388E-03     63.3057E+06     14.6932E+06    -16.0614E+06    -58.0704E+06    -57.4530E+06    -16.6788E+06     14.6932E+06     5.00081E+06
            1574     131.202E-03     6.94320E-03     131.018E-03     513.263E-03    -255.137E-03    -259.118E-03    -252.427E-03     510.553E-03    -259.118E-03     89.9507E-03     608.350E-03     66.3826E+06     26.5333E+06    -7.92280E+06    -49.9549E+06    -49.4243E+06    -8.45337E+06     26.5333E+06     4.64998E+06
            1575     131.338E-03     7.71460E-03     131.111E-03     514.004E-03    -255.662E-03    -258.670E-03    -251.071E-03     509.414E-03    -258.670E-03     117.749E-03     624.577E-03     68.1322E+06     36.9044E+06     45.8845E+03    -41.6823E+06    -41.3563E+06    -280.169E+03     36.9044E+06     3.50996E+06
            1576     131.483E-03     8.49539E-03     131.209E-03     514.491E-03    -256.365E-03    -258.501E-03    -249.767E-03     507.805E-03    -258.412E-03     142.512E-03     636.735E-03     67.7338E+06     44.8739E+06     5.87575E+06    -33.2948E+06    -32.9458E+06     5.52681E+06     44.8739E+06     3.21159E+06
            1577     131.685E-03     9.27699E-03     131.358E-03     517.948E-03    -258.137E-03    -259.966E-03    -250.310E-03     509.071E-03    -258.916E-03     164.852E-03     649.621E-03     64.6606E+06     47.8260E+06     9.27936E+06    -26.7961E+06    -26.3317E+06     8.81498E+06     47.8260E+06     3.33528E+06
            1578     132.076E-03     10.0338E-03     131.695E-03     521.264E-03    -259.104E-03    -262.826E-03    -252.371E-03     510.809E-03    -259.104E-03     179.753E-03     657.420E-03     62.0529E+06     48.3508E+06     13.2350E+06    -23.2306E+06    -22.4719E+06     12.4762E+06     48.3508E+06     2.69720E+06
            1579     132.327E-03     10.8068E-03     131.885E-03     525.757E-03    -258.460E-03    -267.047E-03    -252.964E-03     511.675E-03    -258.460E-03     208.050E-03     670.407E-03     61.0033E+06     51.4106E+06     16.2994E+06    -18.8293E+06    -18.0616E+06     15.5318E+06     51.4106E+06     2.09017E+06
            1580     132.723E-03     11.5918E-03     132.216E-03     527.075E-03    -258.090E-03    -268.310E-03    -253.514E-03     512.279E-03    -258.090E-03     214.187E-03     669.367E-03     62.0794E+06     56.1544E+06     22.0358E+06    -15.0261E+06    -12.7442E+06     19.7539E+06     56.1544E+06     1.75797E+06
            1581     133.105E-03     12.3600E-03     132.530E-03     542.356E-03    -257.799E-03    -284.615E-03    -262.672E-03     520.413E-03    -257.799E-03     259.919E-03     703.284E-03     65.0927E+06     63.0297E+06     29.4146E+06    -11.1533E+06    -7.94117E+06     26.2024E+06     63.0297E+06     1.34915E+06
            1582     133.699E-03     13.1337E-03     133.052E-03     543.902E-03    -258.481E-03    -285.412E-03    -265.952E-03     524.443E-03    -258.481E-03     238.110E-03     686.851E-03     68.6167E+06     71.6878E+06     31.9543E+06    -6.84613E+06    -3.99003E+06     29.0982E+06     71.6878E+06     636.169E+03
            1583     132.468E-03     771.191E-06     132.466E-03     517.877E-03    -257.868E-03    -259.839E-03    -258.012E-03     517.873E-03    -259.691E-03    -3.01461E-03     519.642E-03     63.5487E+06    -112.703E+06    -116.773E+06    -178.154E+06    -116.641E+06    -177.747E+06    -113.242E+06     4.60514E+06
            1584     132.539E-03     1.54412E-03     132.530E-03     517.586E-03    -258.551E-03    -259.159E-03    -258.549E-03     517.584E-03    -259.159E-03    -2.08538E-03     523.095E-03     50.0969E+06    -100.101E+06    -111.039E+06    -154.266E+06    -111.890E+06    -153.416E+06    -100.101E+06     5.28527E+06
            1585     132.547E-03     2.31544E-03     132.527E-03     517.682E-03    -258.841E-03    -259.206E-03    -258.839E-03     517.680E-03    -259.206E-03     363.029E-06     530.488E-03     39.9751E+06    -82.0840E+06    -102.267E+06    -127.580E+06    -105.473E+06    -124.374E+06    -82.0840E+06     6.78492E+06
            1586     132.560E-03     3.08787E-03     132.524E-03     517.502E-03    -258.529E-03    -259.248E-03    -258.509E-03     517.483E-03    -259.248E-03     6.61649E-03     539.542E-03     40.5444E+06    -60.3723E+06    -77.4813E+06    -105.695E+06    -97.4876E+06    -85.6882E+06    -60.3723E+06     9.60931E+06
            1587     132.570E-03     3.85887E-03     132.514E-03     517.021E-03    -257.320E-03    -259.296E-03    -257.227E-03     516.927E-03    -259.296E-03     16.0358E-03     548.459E-03     50.0969E+06    -34.4141E+06    -47.6770E+06    -89.7115E+06    -86.6478E+06    -50.7407E+06    -34.4141E+06     10.8216E+06
            1588     132.602E-03     4.63141E-03     132.521E-03     515.278E-03    -255.710E-03    -259.458E-03    -255.423E-03     514.991E-03    -259.458E-03     28.7531E-03     558.989E-03     58.6765E+06    -12.8474E+06    -33.1205E+06    -78.8983E+06    -76.5838E+06    -35.4349E+06    -12.8474E+06     9.78138E+06
            1589     132.655E-03     5.40186E-03     132.545E-03     513.622E-03    -254.738E-03    -259.484E-03    -254.029E-03     512.913E-03    -259.484E-03     45.6124E-03     573.718E-03     62.8199E+06     2.97477E+06    -23.0566E+06    -68.6544E+06    -67.1096E+06    -24.6015E+06     2.97477E+06     7.93792E+06
            1590     132.743E-03     6.17494E-03     132.599E-03     512.358E-03    -254.565E-03    -259.271E-03    -253.109E-03     510.902E-03    -259.271E-03     65.8872E-03     589.840E-03     65.7867E+06     15.8577E+06    -14.7698E+06    -59.6010E+06    -58.7232E+06    -15.6476E+06     15.8577E+06     6.13413E+06
            1591     132.857E-03     6.94297E-03     132.676E-03     512.521E-03    -254.436E-03    -259.076E-03    -251.690E-03     509.775E-03    -259.076E-03     90.5501E-03     607.625E-03     68.2270E+06     28.0697E+06    -6.71389E+06    -50.4785E+06    -49.9595E+06    -7.23286E+06     28.0697E+06     4.68818E+06
            1592     133.001E-03     7.71647E-03     132.777E-03     513.483E-03    -255.219E-03    -258.611E-03    -250.713E-03     508.977E-03    -258.611E-03     116.717E-03     624.469E-03     69.6302E+06     38.3235E+06     464.399E+03    -42.0005E+06    -41.4834E+06    -52.6927E+03     38.3235E+06     4.21539E+06
            1593     133.149E-03     8.49485E-03     132.878E-03     515.724E-03    -257.430E-03    -258.596E-03    -250.908E-03     509.030E-03    -258.423E-03     142.641E-03     638.051E-03     69.5119E+06     45.0390E+06     6.01938E+06    -35.2135E+06    -34.6698E+06     5.47573E+06     45.0390E+06     3.88553E+06
            1594     133.354E-03     9.27325E-03     133.031E-03     518.388E-03    -258.869E-03    -259.581E-03    -250.362E-03     509.169E-03    -258.869E-03     167.922E-03     649.905E-03     66.2742E+06     47.2517E+06     10.0727E+06    -29.2124E+06    -28.7625E+06     9.62281E+06     47.2517E+06     3.34755E+06
            1595     133.727E-03     10.0314E-03     133.350E-03     518.397E-03    -258.905E-03    -260.898E-03    -249.899E-03     507.397E-03    -258.905E-03     183.761E-03     655.005E-03     62.4931E+06     48.9520E+06     13.1360E+06    -22.9930E+06    -22.3495E+06     12.4925E+06     48.9520E+06     3.67192E+06
            1596     133.994E-03     10.8194E-03     133.556E-03     524.139E-03    -258.198E-03    -266.435E-03    -252.213E-03     509.916E-03    -258.198E-03     209.273E-03     668.898E-03     61.2159E+06     52.7821E+06     16.5015E+06    -17.5759E+06    -16.7758E+06     15.7013E+06     52.7821E+06     3.44789E+06
            1597     134.379E-03     11.5936E-03     133.878E-03     528.351E-03    -257.849E-03    -270.099E-03    -255.755E-03     514.007E-03    -257.849E-03     211.203E-03     671.293E-03     63.0098E+06      56.636E+06     22.7921E+06    -15.6064E+06    -13.0689E+06     20.2546E+06      56.636E+06     1.92116E+06
            1598     134.777E-03     12.3603E-03     134.209E-03     542.831E-03    -257.752E-03    -285.379E-03    -263.994E-03     521.446E-03    -257.752E-03     256.403E-03     704.824E-03      66.604E+06     64.0568E+06     30.9499E+06    -11.6909E+06    -8.31212E+06     27.5711E+06     64.0568E+06     1.31217E+06
            1599     135.367E-03     13.1332E-03     134.728E-03     543.484E-03    -258.525E-03    -284.929E-03    -265.756E-03     524.310E-03    -258.525E-03     236.474E-03     686.472E-03     69.6446E+06     73.3475E+06     34.0448E+06    -6.18229E+06    -3.72521E+06     31.5878E+06     73.3475E+06     1.51112E+06
            1600     134.140E-03     771.331E-06     134.138E-03     518.138E-03    -257.477E-03    -260.497E-03    -258.680E-03     518.136E-03    -259.292E-03    -1.64190E-03     519.977E-03     72.3515E+06    -115.915E+06    -118.946E+06    -189.679E+06    -117.945E+06    -189.465E+06    -117.130E+06     1.40682E+06
            1601     134.197E-03     1.54344E-03     134.189E-03     517.741E-03    -258.486E-03    -259.413E-03    -258.613E-03     517.739E-03    -259.283E-03    -2.41406E-03     523.168E-03     58.3653E+06    -102.883E+06    -112.861E+06    -165.314E+06    -113.108E+06    -164.418E+06    -103.531E+06     5.50983E+06
            1602     134.221E-03     2.31584E-03     134.201E-03     517.694E-03    -258.782E-03    -259.305E-03    -258.781E-03     517.694E-03    -259.305E-03    -334.022E-06     530.199E-03     47.6006E+06    -83.1216E+06    -103.812E+06    -136.905E+06    -106.853E+06    -133.865E+06    -83.1216E+06     8.28069E+06
            1603     134.217E-03     3.08703E-03     134.181E-03     517.608E-03    -258.652E-03    -259.284E-03    -258.634E-03     517.590E-03    -259.284E-03     5.89986E-03     539.384E-03     42.4811E+06    -60.7563E+06    -82.7423E+06    -109.343E+06    -97.9064E+06    -94.1788E+06    -60.7563E+06     9.20190E+06
            1604     134.239E-03     3.85996E-03     134.183E-03     517.058E-03    -257.243E-03    -259.298E-03    -257.145E-03     516.960E-03    -259.298E-03     16.4020E-03     548.390E-03     49.3015E+06    -36.8347E+06    -53.1545E+06    -91.9882E+06    -88.4703E+06    -56.6724E+06    -36.8347E+06     10.7039E+06
            1605     134.254E-03     4.63191E-03     134.174E-03     514.933E-03    -255.231E-03    -259.272E-03    -254.920E-03     514.622E-03    -259.272E-03     29.9376E-03     558.877E-03     60.0010E+06    -13.5684E+06    -32.9667E+06    -80.7902E+06    -78.2426E+06    -35.5142E+06    -13.5684E+06     10.5002E+06
            1606     134.311E-03     5.40560E-03     134.202E-03     512.784E-03    -254.143E-03    -259.282E-03    -253.395E-03     512.035E-03    -259.282E-03     46.9647E-03     572.715E-03     64.2887E+06     2.89055E+06    -22.4938E+06    -70.1937E+06    -68.3216E+06    -24.3660E+06     2.89055E+06     9.07472E+06
            1607     134.398E-03     6.17442E-03     134.256E-03     511.891E-03    -254.117E-03    -259.150E-03    -252.621E-03     510.395E-03    -259.150E-03     66.7978E-03     589.049E-03     67.0970E+06     16.4955E+06    -12.9509E+06    -60.2575E+06    -58.8374E+06    -14.3710E+06     16.4955E+06     7.95797E+06
            1608     134.525E-03     6.94458E-03     134.345E-03     512.380E-03    -254.290E-03    -258.917E-03    -251.539E-03     509.629E-03    -258.917E-03     90.7046E-03     607.613E-03     70.8302E+06     29.6804E+06    -5.16416E+06    -51.7652E+06    -50.5950E+06    -6.33440E+06     29.6804E+06     6.95560E+06
            1609     134.658E-03     7.71613E-03     134.436E-03     513.503E-03    -255.421E-03    -258.495E-03    -250.801E-03     508.883E-03    -258.495E-03     118.002E-03     624.271E-03     72.8656E+06     39.9311E+06     1.21027E+06    -44.0867E+06    -43.1672E+06     290.750E+03     39.9311E+06     5.87212E+06
            1610     134.814E-03     8.49343E-03     134.546E-03     514.799E-03    -256.902E-03    -258.352E-03    -249.981E-03     507.794E-03    -258.269E-03     145.709E-03     637.232E-03     71.9399E+06     45.9242E+06     7.11705E+06    -37.0775E+06    -36.3355E+06     6.37506E+06     45.9242E+06     4.87086E+06
            1611     135.014E-03     9.27670E-03     134.695E-03     516.807E-03    -257.918E-03    -259.248E-03    -249.240E-03     507.380E-03    -258.499E-03     169.626E-03     648.864E-03     68.6276E+06     48.3511E+06     10.9986E+06    -30.8040E+06    -30.1849E+06     10.3795E+06     48.3511E+06     4.16024E+06
            1612     135.380E-03     10.0455E-03     135.007E-03     519.274E-03    -258.592E-03    -261.866E-03    -251.185E-03     508.593E-03    -258.592E-03     181.359E-03     655.865E-03     64.8907E+06     50.4707E+06     13.1954E+06    -24.2789E+06    -23.8475E+06     12.7641E+06     50.4707E+06     3.28206E+06
            1613     135.664E-03     10.8134E-03     135.232E-03     525.586E-03    -258.142E-03    -267.674E-03    -254.098E-03     512.010E-03    -258.142E-03     204.739E-03     670.014E-03     63.2513E+06     53.2196E+06     16.9450E+06    -19.6446E+06    -18.9051E+06     16.2055E+06     53.2196E+06     2.01665E+06
            1614     136.063E-03     11.5936E-03     135.568E-03     528.200E-03    -257.865E-03    -269.853E-03    -255.860E-03     514.207E-03    -257.865E-03     208.758E-03     671.391E-03     65.0694E+06     57.6612E+06     24.5217E+06    -17.0317E+06    -14.2478E+06     21.7378E+06     57.6612E+06     1.37905E+06
            1615     136.446E-03     12.3558E-03     135.886E-03     542.859E-03    -257.796E-03    -285.181E-03    -263.623E-03     521.300E-03    -257.796E-03     257.117E-03     704.932E-03     68.7977E+06     65.2574E+06     31.3738E+06    -13.0124E+06    -9.63175E+06     27.9931E+06     65.2574E+06     1.51944E+06
            1616     137.030E-03     13.1315E-03     136.399E-03     543.006E-03    -258.571E-03    -284.412E-03    -264.879E-03     523.473E-03    -258.571E-03     238.873E-03     685.677E-03     72.0074E+06     74.5699E+06     34.5453E+06    -7.71999E+06    -5.72684E+06     32.5521E+06     74.5699E+06     735.922E+03
            1617     135.814E-03     772.930E-06     135.812E-03     518.511E-03    -258.414E-03    -259.974E-03    -259.678E-03     518.505E-03    -258.704E-03    -3.15760E-03     520.300E-03     82.2635E+06    -113.241E+06    -116.283E+06    -196.904E+06    -115.929E+06    -196.581E+06    -113.917E+06     2.15934E+06
            1618     135.869E-03     1.54245E-03     135.860E-03     518.776E-03    -259.179E-03    -259.741E-03    -259.371E-03     518.774E-03    -259.547E-03    -2.31134E-03     524.129E-03     68.7735E+06    -103.847E+06    -112.978E+06    -176.514E+06    -112.658E+06    -176.185E+06    -104.496E+06     3.05680E+06
            1619     135.880E-03     2.31375E-03     135.861E-03     517.924E-03    -258.585E-03    -259.585E-03    -258.583E-03     517.922E-03    -259.585E-03     569.932E-06     530.059E-03     55.6039E+06    -85.5295E+06    -103.586E+06    -147.176E+06    -105.613E+06    -145.149E+06    -85.5295E+06     6.72703E+06
            1620     135.880E-03     3.08704E-03     135.845E-03     516.987E-03    -257.990E-03    -259.433E-03    -257.968E-03     516.965E-03    -259.433E-03     6.91262E-03     538.747E-03     46.4177E+06    -62.6279E+06    -87.6101E+06    -116.154E+06    -99.1917E+06    -104.572E+06    -62.6279E+06     10.8324E+06
            1621     135.883E-03     3.85916E-03     135.828E-03     515.867E-03    -256.370E-03    -259.229E-03    -256.268E-03     515.766E-03    -259.229E-03     16.7523E-03     547.614E-03     52.3699E+06    -37.5396E+06    -57.3963E+06    -96.2788E+06    -90.6968E+06    -62.9783E+06    -37.5396E+06     12.2416E+06
            1622     135.910E-03     4.63381E-03     135.831E-03     513.988E-03    -254.604E-03    -259.015E-03    -254.283E-03     513.667E-03    -259.015E-03     30.3218E-03     557.943E-03     61.0334E+06    -15.2485E+06    -32.3364E+06    -82.8949E+06    -80.0296E+06    -35.2016E+06    -15.2485E+06     11.4310E+06
            1623     135.972E-03     5.40459E-03     135.864E-03     512.086E-03    -253.935E-03    -259.136E-03    -253.167E-03     511.318E-03    -259.136E-03     47.5927E-03     572.160E-03     65.3313E+06     1.26374E+06    -22.4371E+06    -72.5143E+06    -70.3729E+06    -24.5785E+06     1.26374E+06     9.88930E+06
            1624     136.058E-03     6.17789E-03     135.918E-03     511.080E-03    -253.452E-03    -259.027E-03    -251.918E-03     509.546E-03    -259.027E-03     67.5563E-03     588.300E-03     69.0240E+06     15.7464E+06    -13.9002E+06    -63.1155E+06    -61.4314E+06    -15.5843E+06     15.7464E+06     8.93331E+06
            1625     136.186E-03     6.94638E-03     136.009E-03     512.062E-03    -253.874E-03    -258.677E-03    -251.030E-03     509.217E-03    -258.677E-03     92.1622E-03     607.096E-03     72.7744E+06     29.3678E+06    -5.22729E+06    -54.2299E+06    -52.5923E+06    -6.86488E+06     29.3678E+06     8.78824E+06
            1626     136.326E-03     7.71842E-03     136.107E-03     513.013E-03    -255.065E-03    -258.271E-03    -250.346E-03     508.294E-03    -258.271E-03     119.271E-03     623.709E-03     75.3125E+06     40.7648E+06     2.61048E+06    -45.9756E+06    -44.5105E+06     1.14529E+06     40.7648E+06     7.85264E+06
            1627     136.488E-03     8.49791E-03     136.223E-03     514.103E-03    -256.379E-03    -258.123E-03    -249.585E-03     507.289E-03    -258.103E-03     143.774E-03     636.755E-03     74.7413E+06      48.256E+06     8.65415E+06    -37.9303E+06    -36.8738E+06     7.59771E+06      48.256E+06     6.21647E+06
            1628     136.680E-03     9.28122E-03     136.365E-03     517.647E-03    -257.815E-03    -259.917E-03    -250.484E-03     508.796E-03    -258.397E-03     164.612E-03     649.868E-03     71.4655E+06     51.8516E+06     13.4440E+06    -30.5203E+06    -29.7342E+06     12.6579E+06     51.8516E+06     5.16506E+06
            1629     137.052E-03     10.0368E-03     136.684E-03     520.849E-03    -258.657E-03    -262.961E-03    -252.757E-03     510.644E-03    -258.657E-03     177.660E-03     658.028E-03     68.7296E+06     53.5721E+06     15.6172E+06    -25.6272E+06    -25.0638E+06     15.0538E+06     53.5721E+06     4.12267E+06
            1630     137.334E-03     10.8111E-03     136.908E-03     525.482E-03    -258.313E-03    -267.232E-03    -253.556E-03     511.805E-03    -258.313E-03     205.113E-03     670.170E-03     67.4045E+06     56.3576E+06     19.0675E+06    -21.3385E+06    -20.3527E+06     18.0816E+06     56.3576E+06     3.07889E+06
            1631     137.704E-03     11.5905E-03     137.216E-03     527.110E-03    -257.899E-03    -268.610E-03    -254.033E-03     512.534E-03    -257.899E-03     212.784E-03     669.405E-03     68.6161E+06     60.8323E+06     26.1117E+06    -17.9085E+06    -15.2229E+06     23.4262E+06     60.8323E+06     2.36637E+06
            1632     138.118E-03     12.3618E-03     137.563E-03     541.876E-03    -257.703E-03    -284.185E-03    -262.207E-03     519.899E-03    -257.703E-03     259.950E-03     703.293E-03     71.2768E+06     68.1696E+06     31.5580E+06    -13.2016E+06    -10.2989E+06     28.6554E+06     68.1696E+06     1.30998E+06
            1633     138.686E-03     13.1374E-03     138.062E-03     543.081E-03    -258.490E-03    -284.491E-03    -264.861E-03     523.451E-03    -258.490E-03     239.472E-03     685.596E-03     73.4324E+06     77.6866E+06     35.1955E+06    -6.43209E+06    -4.60218E+06     33.3655E+06     77.6866E+06     344.377E+03
            1634     137.487E-03     770.610E-06     137.485E-03     518.686E-03    -258.685E-03    -259.964E-03    -258.743E-03     518.680E-03    -259.900E-03    -1.99990E-03     520.491E-03     88.5096E+06    -116.265E+06    -119.162E+06    -206.107E+06    -119.244E+06    -205.657E+06    -116.633E+06     2.76067E+06
            1635     137.536E-03     1.54269E-03     137.528E-03     518.418E-03    -258.947E-03    -259.621E-03    -259.010E-03     518.417E-03    -259.557E-03    -1.27697E-03     523.770E-03     77.1495E+06    -104.219E+06    -115.054E+06    -185.828E+06    -115.672E+06    -185.210E+06    -104.219E+06     4.93116E+06
            1636     137.545E-03     2.31439E-03     137.526E-03     517.534E-03    -258.309E-03    -259.450E-03    -258.305E-03     517.530E-03    -259.450E-03     2.30089E-03     529.394E-03     65.9474E+06    -87.0211E+06    -108.468E+06    -160.377E+06    -110.498E+06    -158.347E+06    -87.0211E+06     7.77071E+06
            1637     137.543E-03     3.08728E-03     137.509E-03     516.113E-03    -257.447E-03    -259.191E-03    -257.419E-03     516.085E-03    -259.191E-03     8.57087E-03     537.923E-03     52.0175E+06    -64.9735E+06    -93.7126E+06    -124.813E+06    -101.691E+06    -116.835E+06    -64.9735E+06     10.9033E+06
            1638     137.553E-03     3.86194E-03     137.499E-03     514.938E-03    -256.191E-03    -258.877E-03    -256.085E-03     514.831E-03    -258.877E-03     17.3516E-03     547.534E-03     52.6227E+06    -41.3826E+06    -62.1667E+06    -99.9596E+06    -91.7519E+06    -70.3743E+06    -41.3826E+06     12.5091E+06
            1639     137.565E-03     4.63459E-03     137.487E-03     513.429E-03    -254.661E-03    -258.652E-03    -254.336E-03     513.103E-03    -258.652E-03     30.5542E-03     557.911E-03     60.4068E+06    -19.3271E+06    -33.6607E+06    -85.5456E+06    -82.0403E+06    -37.1659E+06    -19.3271E+06     12.9218E+06
            1640     137.635E-03     5.40842E-03     137.529E-03     511.712E-03    -253.786E-03    -258.965E-03    -253.035E-03     510.961E-03    -258.965E-03     47.1218E-03     571.643E-03     67.2861E+06    -223.607E+03    -22.2491E+06    -75.6723E+06    -72.6904E+06    -25.2310E+06    -223.607E+03     12.1467E+06
            1641     137.721E-03     6.17837E-03     137.583E-03     510.907E-03    -253.325E-03    -258.973E-03    -251.870E-03     509.452E-03    -258.973E-03     65.8246E-03     588.061E-03     72.0028E+06     16.1710E+06    -12.8707E+06    -65.7495E+06    -63.5030E+06    -15.1171E+06     16.1710E+06     10.5372E+06
            1642     137.855E-03     6.94908E-03     137.679E-03     511.398E-03    -253.452E-03    -258.517E-03    -250.726E-03     508.672E-03    -258.517E-03     90.0180E-03     606.701E-03     75.0749E+06     30.0465E+06    -5.30058E+06    -56.1317E+06    -54.5659E+06    -6.86636E+06     30.0465E+06     8.69929E+06
            1643     137.997E-03     7.72018E-03     137.781E-03     512.738E-03    -254.986E-03    -258.133E-03    -250.474E-03     508.227E-03    -258.133E-03     116.684E-03     623.588E-03     77.2279E+06     41.7159E+06     2.91669E+06    -47.2181E+06    -45.8255E+06     1.52410E+06     41.7159E+06     8.06162E+06
            1644     138.152E-03     8.49611E-03     137.890E-03     515.667E-03    -257.294E-03    -258.602E-03    -251.197E-03     509.092E-03    -258.125E-03     141.497E-03     637.947E-03     77.4592E+06     49.6638E+06     10.5650E+06    -39.4928E+06    -37.9732E+06     9.04539E+06     49.6638E+06     7.97287E+06
            1645     138.345E-03     9.27337E-03     138.034E-03     518.952E-03    -258.498E-03    -260.364E-03    -251.378E-03     509.967E-03    -258.498E-03     165.896E-03     650.654E-03     74.6763E+06     53.7454E+06     14.2294E+06    -32.2013E+06    -30.9516E+06     12.9796E+06     53.7454E+06     7.00678E+06
            1646     138.723E-03     10.0349E-03     138.360E-03     519.588E-03    -258.725E-03    -261.827E-03    -251.071E-03     508.832E-03    -258.725E-03     181.984E-03     657.000E-03     71.5053E+06     56.9298E+06     17.9874E+06    -25.3586E+06    -24.2251E+06     16.8540E+06     56.9298E+06     6.30193E+06
            1647     138.998E-03     10.8112E-03     138.577E-03     524.444E-03    -258.275E-03    -266.522E-03    -252.280E-03     510.202E-03    -258.275E-03     209.236E-03     668.784E-03     69.8070E+06     61.3479E+06     23.3546E+06    -19.0123E+06    -17.7520E+06     22.0942E+06     61.3479E+06     4.93153E+06
            1648     139.370E-03     11.5981E-03     138.886E-03     527.482E-03    -257.756E-03    -269.269E-03    -254.422E-03     512.635E-03    -257.756E-03     214.778E-03     669.020E-03     71.7385E+06     67.0990E+06     29.1074E+06    -15.4372E+06    -12.6670E+06     26.3372E+06     67.0990E+06     3.34658E+06
            1649     139.781E-03     12.3594E-03     139.234E-03     541.787E-03    -257.604E-03    -284.240E-03    -262.438E-03     519.985E-03    -257.604E-03     259.150E-03     703.356E-03     73.9666E+06     73.3834E+06     32.7830E+06    -10.9289E+06    -8.30874E+06     30.1628E+06     73.3834E+06     2.72663E+06
            1650     140.352E-03     13.1374E-03     139.736E-03     542.418E-03    -258.480E-03    -283.869E-03    -264.500E-03     523.049E-03    -258.480E-03     237.749E-03     684.957E-03     75.2514E+06     80.9274E+06     36.8068E+06    -4.87512E+06    -3.54216E+06     35.4739E+06     80.9274E+06     1.52086E+06
            1651     139.171E-03     772.148E-06     139.169E-03     517.492E-03    -257.585E-03    -259.980E-03    -259.022E-03     517.490E-03    -258.541E-03    -355.047E-06     519.408E-03     97.1934E+06    -118.750E+06    -121.934E+06    -217.460E+06    -121.945E+06    -217.082E+06    -119.119E+06     2.59575E+06
            1652     139.209E-03     1.54376E-03     139.201E-03     517.301E-03    -258.466E-03    -259.085E-03    -258.564E-03     517.300E-03    -258.987E-03    -567.312E-06     522.838E-03     88.6799E+06    -106.391E+06    -117.614E+06    -199.742E+06    -118.362E+06    -198.994E+06    -106.391E+06     6.60485E+06
            1653     139.210E-03     2.31650E-03     139.191E-03     517.092E-03    -258.281E-03    -259.055E-03    -258.376E-03     517.089E-03    -258.957E-03     1.86524E-03     528.843E-03     74.0501E+06    -88.2978E+06    -110.435E+06    -170.327E+06    -112.134E+06    -168.628E+06    -88.2978E+06     9.15619E+06
            1654     139.210E-03     3.08986E-03     139.176E-03     515.608E-03    -257.385E-03    -258.766E-03    -257.362E-03     515.584E-03    -258.766E-03     7.49861E-03     537.494E-03     57.8776E+06    -68.2295E+06    -98.2729E+06    -134.567E+06    -103.626E+06    -129.214E+06    -68.2295E+06     11.2415E+06
            1655     139.216E-03     3.86210E-03     139.163E-03     514.244E-03    -256.203E-03    -258.504E-03    -256.095E-03     514.135E-03    -258.504E-03     17.1968E-03     547.507E-03     56.8023E+06    -43.3627E+06    -67.3760E+06    -107.120E+06    -94.6409E+06    -79.8550E+06    -43.3627E+06     14.3198E+06
            1656     139.233E-03     4.63582E-03     139.156E-03     513.519E-03    -255.090E-03    -258.356E-03    -254.767E-03     513.196E-03    -258.356E-03     30.6029E-03     558.375E-03     64.1926E+06    -19.1899E+06    -35.6538E+06    -89.9390E+06    -85.4980E+06    -40.0948E+06    -19.1899E+06     14.6816E+06
            1657     139.292E-03     5.40656E-03     139.187E-03     512.250E-03    -254.152E-03    -258.839E-03    -253.416E-03     511.513E-03    -258.839E-03     46.6704E-03     571.725E-03     70.0205E+06     -875.57E+03    -22.3714E+06    -79.0711E+06    -75.7927E+06    -25.6499E+06     -875.57E+03     13.2015E+06
            1658     139.384E-03     6.17970E-03     139.247E-03     511.213E-03    -253.651E-03    -259.046E-03    -252.234E-03     509.795E-03    -259.046E-03     65.0649E-03     588.449E-03     73.5452E+06     14.8889E+06    -12.4784E+06    -68.3665E+06    -65.6983E+06    -15.1465E+06     14.8889E+06     11.8600E+06
            1659     139.513E-03     6.94539E-03     139.340E-03     511.422E-03    -253.696E-03    -258.541E-03    -251.011E-03     508.737E-03    -258.541E-03     89.2849E-03     606.915E-03     77.7770E+06     30.7829E+06    -3.22510E+06    -58.1217E+06    -56.0295E+06    -5.31730E+06     30.7829E+06     10.3853E+06
            1660     139.654E-03     7.71878E-03     139.441E-03     512.982E-03    -255.128E-03    -258.168E-03    -250.535E-03     508.390E-03    -258.168E-03     117.613E-03     622.789E-03     80.8703E+06     43.5119E+06     3.23689E+06    -49.5172E+06    -47.7899E+06     1.50954E+06     43.5119E+06     9.12300E+06
            1661     139.824E-03     8.49447E-03     139.566E-03     515.187E-03    -256.680E-03    -258.595E-03    -250.197E-03     508.247E-03    -258.138E-03     145.105E-03     636.905E-03     80.4188E+06     51.0132E+06     8.92562E+06    -41.6146E+06    -39.9866E+06     7.29758E+06     51.0132E+06     8.60188E+06
            1662     140.008E-03     9.27726E-03     139.701E-03     517.358E-03    -257.663E-03    -259.819E-03    -249.691E-03     507.866E-03    -258.298E-03     170.282E-03     649.240E-03     77.3496E+06     55.3608E+06     15.0139E+06    -33.5405E+06    -32.0312E+06     13.5046E+06     55.3608E+06     8.18120E+06
            1663     140.370E-03     10.0432E-03     140.010E-03     519.087E-03    -258.492E-03    -261.728E-03    -250.781E-03     508.139E-03    -258.492E-03     183.582E-03     656.017E-03     73.5162E+06     58.0468E+06     20.1687E+06    -26.4476E+06    -25.1882E+06     18.9092E+06     58.0468E+06     6.18229E+06
            1664     140.660E-03     10.8178E-03     140.243E-03     525.413E-03    -258.103E-03    -267.523E-03    -253.408E-03     511.298E-03    -258.103E-03     208.596E-03     669.488E-03     71.6045E+06     61.5596E+06     25.8561E+06    -20.5794E+06    -19.2962E+06     24.5729E+06     61.5596E+06     4.63529E+06
            1665     141.022E-03     11.5959E-03     140.545E-03     527.788E-03    -257.631E-03    -269.691E-03    -255.156E-03     513.254E-03    -257.631E-03     212.558E-03     670.004E-03     72.7373E+06     66.0978E+06     29.8197E+06    -17.2803E+06    -14.8266E+06     27.3660E+06     66.0978E+06     4.17328E+06
            1666     141.443E-03     12.3631E-03     140.902E-03     541.754E-03    -257.570E-03    -284.341E-03    -262.357E-03     519.771E-03    -257.570E-03     259.437E-03     703.549E-03     74.6265E+06     72.0451E+06     33.7305E+06    -12.4962E+06    -10.3093E+06     31.5436E+06     72.0451E+06     3.04166E+06
            1667     142.008E-03     13.1358E-03     141.399E-03     542.015E-03    -258.478E-03    -283.600E-03    -263.757E-03     522.172E-03    -258.478E-03     240.434E-03     684.607E-03     76.6384E+06     80.6947E+06     40.3312E+06    -6.30582E+06    -5.06984E+06     39.0953E+06     80.6947E+06     1.02226E+06
            1668     140.838E-03     772.835E-06     140.836E-03     516.881E-03    -257.545E-03    -259.410E-03    -259.364E-03     516.878E-03    -257.587E-03    -3.13228E-03     518.833E-03     109.990E+06    -118.909E+06    -123.295E+06    -231.000E+06    -122.762E+06    -230.684E+06    -119.757E+06     3.84799E+06
            1669     140.866E-03     1.54535E-03     140.858E-03     516.980E-03    -258.448E-03    -258.777E-03    -258.545E-03     516.978E-03    -258.679E-03    -1.87023E-03     522.606E-03     100.012E+06    -108.459E+06    -118.511E+06    -212.995E+06    -119.064E+06    -212.442E+06    -108.459E+06     6.62504E+06
            1670     140.867E-03     2.31633E-03     140.848E-03     516.237E-03    -257.809E-03    -258.729E-03    -257.905E-03     516.235E-03    -258.630E-03     1.15570E-03     528.077E-03     85.0922E+06    -90.9196E+06    -110.623E+06    -183.809E+06    -112.274E+06    -182.158E+06    -90.9196E+06     9.98505E+06
            1671     140.856E-03     3.08873E-03     140.822E-03     514.718E-03    -256.802E-03    -258.409E-03    -256.777E-03     514.692E-03    -258.409E-03     7.54726E-03     536.241E-03     69.7665E+06    -69.1258E+06    -100.569E+06    -148.420E+06    -106.101E+06    -142.888E+06    -69.1258E+06     13.4037E+06
            1672     140.866E-03     3.86403E-03     140.813E-03     513.665E-03    -256.085E-03    -258.202E-03    -255.962E-03     513.542E-03    -258.202E-03     18.3364E-03     546.691E-03     62.6186E+06    -42.6118E+06    -73.5326E+06    -114.198E+06    -96.6368E+06    -91.0940E+06    -42.6118E+06     16.3101E+06
            1673     140.886E-03     4.63701E-03     140.810E-03     513.493E-03    -255.319E-03    -258.121E-03    -254.975E-03     513.148E-03    -258.121E-03     31.7582E-03     558.160E-03     68.6183E+06    -17.6285E+06    -37.9074E+06    -93.7792E+06    -86.2689E+06    -45.4177E+06    -17.6285E+06     18.1549E+06
            1674     140.956E-03     5.40825E-03     140.852E-03     512.512E-03    -254.277E-03    -258.606E-03    -253.481E-03     511.716E-03    -258.606E-03     48.3985E-03     571.571E-03     74.7315E+06     1.24438E+06    -18.9679E+06    -81.4044E+06    -76.7514E+06    -23.6210E+06     1.24438E+06     16.1639E+06
            1675     141.040E-03     6.17757E-03     140.905E-03     511.216E-03    -253.753E-03    -258.975E-03    -252.234E-03     509.696E-03    -258.975E-03     67.4415E-03     588.475E-03     76.6116E+06     16.5777E+06    -11.3725E+06    -69.9884E+06    -67.0374E+06    -14.3235E+06     16.5777E+06     12.7483E+06
            1676     141.170E-03     6.94942E-03     140.999E-03     511.813E-03    -254.199E-03    -258.609E-03    -251.381E-03     508.995E-03    -258.609E-03     91.5838E-03     607.528E-03     80.0779E+06     31.1865E+06    -3.14300E+06    -60.2892E+06    -57.7546E+06    -5.67760E+06     31.1865E+06     11.7447E+06
            1677     141.316E-03     7.71765E-03     141.105E-03     512.359E-03    -254.618E-03    -258.165E-03    -249.838E-03     507.580E-03    -258.165E-03     119.916E-03     622.265E-03     83.2370E+06     44.7340E+06     4.29838E+06    -50.9205E+06    -48.6392E+06     2.01708E+06     44.7340E+06     10.9482E+06
            1678     141.481E-03     8.49710E-03     141.226E-03     513.239E-03    -255.388E-03    -257.945E-03    -248.314E-03     506.165E-03    -257.945E-03     146.259E-03     635.129E-03     83.0783E+06     54.8075E+06     9.26475E+06    -41.0209E+06    -39.4940E+06     7.73784E+06     54.8075E+06     8.50169E+06
            1679     141.663E-03     9.28298E-03     141.359E-03     516.686E-03    -257.163E-03    -259.253E-03    -249.054E-03     507.355E-03    -258.031E-03     168.811E-03     648.676E-03     79.4887E+06     58.8563E+06     14.2820E+06    -32.6043E+06    -31.4184E+06     13.0960E+06     58.8563E+06     7.27298E+06
            1680     142.037E-03     10.0445E-03     141.681E-03     520.380E-03    -258.340E-03    -262.727E-03    -252.067E-03     509.720E-03    -258.340E-03     181.469E-03     657.151E-03     75.3724E+06     60.1736E+06     22.0200E+06    -26.1661E+06    -24.4531E+06     20.3070E+06     60.1736E+06     7.25270E+06
            1681     142.321E-03     10.8133E-03     141.910E-03     526.222E-03    -258.042E-03    -268.220E-03    -254.240E-03     512.242E-03    -258.042E-03     207.720E-03     670.061E-03     73.3181E+06     62.2353E+06     28.3773E+06    -21.6479E+06    -19.9008E+06     26.6302E+06     62.2353E+06     7.26045E+06
            1682     142.690E-03     11.5986E-03     142.218E-03     526.899E-03    -257.569E-03    -268.984E-03    -254.331E-03     512.246E-03    -257.569E-03     213.316E-03     669.077E-03     73.7726E+06     66.4904E+06     32.8095E+06    -17.7375E+06    -15.5663E+06     30.6382E+06     66.4904E+06     5.47952E+06
            1683     143.107E-03     12.3598E-03     142.572E-03     540.525E-03    -257.483E-03    -283.507E-03    -261.233E-03     518.250E-03    -257.483E-03     260.987E-03     702.773E-03     75.3445E+06     72.6674E+06     37.4498E+06    -12.7764E+06    -10.8803E+06     35.5536E+06     72.6674E+06     2.54018E+06
            1684     143.666E-03     13.1461E-03     143.063E-03     542.532E-03    -258.418E-03    -284.162E-03    -264.285E-03     522.654E-03    -258.418E-03     240.096E-03     685.313E-03     77.3153E+06     81.6373E+06      42.961E+06    -6.51966E+06    -5.28814E+06     41.7295E+06     81.6373E+06     780.484E+03
            1685     142.496E-03     771.784E-06     142.494E-03     516.914E-03    -258.198E-03    -258.815E-03    -258.602E-03     516.910E-03    -258.407E-03    -2.13679E-03     518.816E-03     125.629E+06    -120.633E+06    -125.398E+06    -248.562E+06    -124.897E+06    -248.214E+06    -121.481E+06     4.80247E+06
            1686     142.529E-03     1.54279E-03     142.521E-03     516.195E-03    -257.823E-03    -258.502E-03    -257.844E-03     516.192E-03    -258.478E-03    -608.247E-06     521.810E-03     112.136E+06    -109.953E+06    -121.197E+06    -227.145E+06    -121.898E+06    -226.445E+06    -109.953E+06     8.28020E+06
            1687     142.525E-03     2.31694E-03     142.506E-03     514.716E-03    -256.773E-03    -258.215E-03    -256.768E-03     514.711E-03    -258.215E-03     2.57400E-03     526.438E-03     98.1264E+06    -92.6914E+06    -114.930E+06    -199.787E+06    -116.652E+06    -198.065E+06    -92.6914E+06     11.3692E+06
            1688     142.517E-03     3.09283E-03     142.483E-03     514.220E-03    -256.676E-03    -257.941E-03    -256.645E-03     514.189E-03    -257.941E-03     8.86750E-03     535.050E-03     81.2696E+06    -68.9069E+06    -102.086E+06    -160.920E+06    -106.750E+06    -156.256E+06    -68.9069E+06     14.5302E+06
            1689     142.517E-03     3.86504E-03     142.465E-03     513.608E-03    -256.234E-03    -257.901E-03    -256.110E-03     513.484E-03    -257.901E-03     18.6444E-03     546.252E-03     68.8309E+06    -43.8700E+06    -79.8785E+06    -123.114E+06    -97.2923E+06    -105.700E+06    -43.8700E+06     17.9381E+06
            1690     142.547E-03     4.63768E-03     142.472E-03     512.526E-03    -254.687E-03    -257.864E-03    -254.329E-03     512.169E-03    -257.864E-03     32.1923E-03     557.136E-03     71.3360E+06    -18.3297E+06    -42.6392E+06    -97.8744E+06    -87.1247E+06    -53.3889E+06    -18.3297E+06     20.2495E+06
            1691     142.609E-03     5.40994E-03     142.506E-03     511.305E-03    -253.439E-03    -258.096E-03    -252.601E-03     510.467E-03    -258.096E-03     49.6476E-03     570.061E-03     77.4779E+06     3.31587E+06    -15.2745E+06    -81.7058E+06    -75.8556E+06    -21.1247E+06     3.31587E+06     18.7258E+06
            1692     142.695E-03     6.18347E-03     142.561E-03     510.948E-03    -253.772E-03    -258.553E-03    -252.132E-03     509.308E-03    -258.553E-03     69.9434E-03     587.747E-03     80.4034E+06     19.7082E+06    -8.07256E+06    -70.7523E+06    -66.3691E+06    -12.4557E+06     19.7082E+06     15.8957E+06
            1693     142.840E-03     6.94773E-03     142.671E-03     511.987E-03    -254.598E-03    -258.463E-03    -251.671E-03     509.060E-03    -258.463E-03     93.6152E-03     608.128E-03     83.5185E+06     35.1657E+06    -2.33569E+06    -60.4221E+06    -57.2096E+06    -5.54820E+06     35.1657E+06     13.1630E+06
            1694     142.983E-03     7.72057E-03     142.774E-03     512.425E-03    -254.822E-03    -258.037E-03    -250.165E-03     507.768E-03    -258.037E-03     118.558E-03     623.251E-03     85.3313E+06     48.2246E+06     5.58005E+06    -49.9972E+06    -47.7259E+06     3.30875E+06     48.2246E+06     10.9614E+06
            1695     143.145E-03     8.50061E-03     142.892E-03     513.710E-03    -256.021E-03    -257.749E-03    -249.207E-03     506.896E-03    -257.749E-03     143.594E-03     635.741E-03     85.3331E+06     56.7336E+06     13.1307E+06    -41.5123E+06    -39.5520E+06     11.1704E+06     56.7336E+06     10.1293E+06
            1696     143.337E-03     9.28095E-03     143.037E-03     516.989E-03    -257.626E-03    -258.980E-03    -249.599E-03     507.883E-03    -257.901E-03     166.825E-03     648.431E-03     82.4404E+06     60.1911E+06     15.3317E+06    -34.6792E+06    -33.2415E+06     13.8940E+06     60.1911E+06     8.25656E+06
            1697     143.699E-03     10.0453E-03     143.347E-03     520.014E-03    -258.309E-03    -262.307E-03    -251.542E-03     509.248E-03    -258.309E-03     182.212E-03     655.772E-03     77.9596E+06     60.2709E+06     19.0900E+06    -29.2254E+06    -27.6574E+06     17.5220E+06     60.2709E+06     7.67720E+06
            1698     143.995E-03     10.8172E-03     143.588E-03     525.125E-03    -257.809E-03    -267.262E-03    -253.021E-03     510.884E-03    -257.809E-03     209.502E-03     668.628E-03     74.5080E+06     62.7276E+06     28.2826E+06    -22.4607E+06    -20.8158E+06     26.6377E+06     62.7276E+06     7.91742E+06
            1699     144.344E-03     11.6001E-03     143.877E-03     526.251E-03    -257.217E-03    -268.603E-03    -253.773E-03     511.422E-03    -257.217E-03     214.476E-03     668.465E-03     73.5880E+06     68.7430E+06     36.8931E+06    -15.1561E+06    -13.6559E+06     35.3928E+06     68.7430E+06     7.23054E+06
            1700     144.773E-03     12.3706E-03     144.243E-03     541.057E-03    -257.298E-03    -284.085E-03    -262.208E-03     519.180E-03    -257.298E-03     259.576E-03     703.610E-03     76.5913E+06     77.2013E+06     44.2979E+06    -9.22095E+06    -7.76814E+06     42.8451E+06     77.2013E+06     5.10123E+06
            1701     145.331E-03     13.1416E-03     144.736E-03     542.841E-03    -258.394E-03    -284.378E-03    -264.989E-03     523.452E-03    -258.394E-03     237.971E-03     685.458E-03     80.4740E+06     86.2504E+06     47.2557E+06    -5.13524E+06    -4.13596E+06     46.2564E+06     86.2504E+06     2.14976E+06
            1702     144.169E-03     773.148E-06     144.167E-03     515.434E-03    -257.430E-03    -258.162E-03    -257.747E-03     515.433E-03    -257.843E-03    -1.02361E-03     517.371E-03     142.399E+06    -122.414E+06    -127.303E+06    -267.168E+06    -125.909E+06    -266.914E+06    -124.062E+06     4.97080E+06
            1703     144.184E-03     1.54665E-03     144.176E-03     514.830E-03    -257.036E-03    -257.914E-03    -257.241E-03     514.828E-03    -257.707E-03    -424.923E-06     520.386E-03     127.306E+06    -112.016E+06    -121.933E+06    -243.869E+06    -122.537E+06    -243.265E+06    -112.016E+06     8.17239E+06
            1704     144.178E-03     2.32056E-03     144.159E-03     514.611E-03    -256.940E-03    -257.884E-03    -257.119E-03     514.607E-03    -257.700E-03     1.83926E-03     526.072E-03     113.285E+06    -92.2406E+06    -113.465E+06    -214.368E+06    -114.920E+06    -212.914E+06    -92.2406E+06     11.3946E+06
            1705     144.175E-03     3.09230E-03     144.142E-03     514.005E-03    -256.793E-03    -257.642E-03    -256.762E-03     513.974E-03    -257.642E-03     8.64920E-03     534.516E-03     96.3989E+06    -69.4510E+06    -102.087E+06    -177.537E+06    -106.537E+06    -173.088E+06    -69.4510E+06     16.1152E+06
            1706     144.184E-03     3.86539E-03     144.133E-03     512.880E-03    -255.775E-03    -257.622E-03    -255.647E-03     512.753E-03    -257.622E-03     18.9131E-03     545.419E-03     79.0726E+06    -44.5977E+06    -82.9133E+06    -135.359E+06    -97.4452E+06    -120.828E+06    -44.5977E+06     20.1915E+06
            1707     144.196E-03     4.63978E-03     144.122E-03     511.580E-03    -254.059E-03    -257.521E-03    -253.697E-03     511.217E-03    -257.521E-03     32.3931E-03     556.335E-03     73.1054E+06    -18.7026E+06    -46.6161E+06    -100.765E+06    -86.9986E+06    -60.3820E+06    -18.7026E+06     20.6833E+06
            1708     144.267E-03     5.41425E-03     144.165E-03     510.332E-03    -252.836E-03    -257.552E-03    -252.016E-03     509.511E-03    -257.552E-03     49.1737E-03     568.892E-03     78.8355E+06     4.11981E+06    -16.7509E+06    -82.9830E+06    -76.0827E+06    -23.6512E+06     4.11981E+06     20.1334E+06
            1709     144.353E-03     6.18552E-03     144.221E-03     510.030E-03    -253.240E-03    -258.029E-03    -251.612E-03     508.402E-03    -258.029E-03     69.5087E-03     586.441E-03     83.7854E+06     22.2689E+06    -5.32612E+06    -71.7913E+06    -65.9378E+06    -11.1796E+06     22.2689E+06     18.7726E+06
            1710     144.506E-03     6.95558E-03     144.338E-03     511.391E-03    -254.567E-03    -258.144E-03    -251.668E-03     508.492E-03    -258.144E-03     93.2281E-03     606.824E-03     87.0586E+06     37.3064E+06     1.21444E+06    -61.8125E+06    -57.4324E+06    -3.16571E+06     37.3064E+06     15.9631E+06
            1711     144.653E-03     7.72291E-03     144.446E-03     513.616E-03    -256.114E-03    -257.991E-03    -251.637E-03     508.978E-03    -257.832E-03     118.445E-03     624.147E-03     89.5972E+06     49.9324E+06     7.56474E+06    -52.8904E+06    -49.3993E+06     4.07368E+06     49.9324E+06     14.0221E+06
            1712     144.820E-03     8.49610E-03     144.570E-03     514.963E-03    -257.194E-03    -257.824E-03    -250.480E-03     508.036E-03    -257.610E-03     144.927E-03     637.691E-03     89.8077E+06     58.4062E+06     14.9574E+06    -44.7779E+06    -41.7525E+06     11.9320E+06     58.4062E+06     13.0184E+06
            1713     145.007E-03     9.28015E-03     144.709E-03     516.817E-03    -257.729E-03    -259.025E-03    -249.597E-03     507.432E-03    -257.773E-03     169.286E-03     648.241E-03     86.6764E+06     62.6835E+06     20.7703E+06    -36.9426E+06    -34.3402E+06     18.1679E+06     62.6835E+06     11.7505E+06
            1714     145.378E-03     10.0448E-03     145.030E-03     518.768E-03    -258.197E-03    -261.417E-03    -250.469E-03     507.821E-03    -258.197E-03     183.492E-03     654.086E-03     80.7637E+06     63.9117E+06     23.6335E+06    -28.9917E+06    -27.3147E+06     21.9565E+06     63.9117E+06     8.49169E+06
            1715     145.667E-03     10.8202E-03     145.265E-03     524.385E-03    -257.490E-03    -266.484E-03    -252.443E-03     510.344E-03    -257.490E-03     207.986E-03     668.272E-03     75.3342E+06     64.1826E+06     25.5467E+06    -22.1871E+06    -21.2673E+06     24.6268E+06     64.1826E+06     6.05628E+06
            1716     146.020E-03     11.6073E-03     145.558E-03     527.034E-03    -256.948E-03    -269.231E-03    -254.891E-03     512.694E-03    -256.948E-03     211.042E-03     669.740E-03     75.5138E+06     68.7548E+06     36.4134E+06    -16.7179E+06    -15.7079E+06     35.4033E+06     68.7548E+06     6.18026E+06
            1717     146.446E-03     12.3632E-03     145.924E-03     541.477E-03    -257.276E-03    -284.350E-03    -262.568E-03     519.695E-03    -257.276E-03     258.311E-03     703.934E-03     79.1585E+06     77.1466E+06     48.8968E+06    -11.7437E+06    -10.9108E+06     48.0640E+06     77.1466E+06     4.89117E+06
            1718     147.006E-03     13.1435E-03     146.417E-03     540.848E-03    -258.272E-03    -282.612E-03    -262.848E-03     521.084E-03    -258.272E-03     240.317E-03     683.303E-03     81.8350E+06     85.4868E+06     51.6812E+06    -7.21530E+06    -6.43144E+06     50.8973E+06     85.4868E+06     2.70460E+06
            1719     145.835E-03     773.012E-06     145.833E-03     514.288E-03    -256.271E-03    -258.156E-03    -257.941E-03     514.287E-03    -256.485E-03    -1.55202E-03     516.200E-03     154.896E+06    -125.175E+06    -128.431E+06    -281.664E+06    -126.885E+06    -281.563E+06    -126.822E+06     2.60199E+06
            1720     145.851E-03     1.54710E-03     145.843E-03     514.771E-03    -257.111E-03    -257.828E-03    -257.563E-03     514.769E-03    -257.375E-03    -1.85043E-03     520.235E-03     138.673E+06    -116.669E+06    -124.450E+06    -258.959E+06    -124.877E+06    -258.531E+06    -116.669E+06     6.95296E+06
            1721     145.849E-03     2.31831E-03     145.831E-03     514.418E-03    -256.953E-03    -257.734E-03    -257.133E-03     514.414E-03    -257.551E-03     1.41363E-03     525.964E-03     126.799E+06    -96.4948E+06    -116.880E+06    -232.056E+06    -118.207E+06    -230.729E+06    -96.4948E+06     11.3701E+06
            1722     145.834E-03     3.09315E-03     145.801E-03     512.598E-03    -255.688E-03    -257.404E-03    -255.652E-03     512.561E-03    -257.404E-03     9.22928E-03     532.917E-03     109.299E+06    -73.1074E+06    -105.950E+06    -194.740E+06    -109.342E+06    -191.349E+06    -73.1074E+06     15.6959E+06
            1723     145.844E-03     3.86916E-03     145.792E-03     511.455E-03    -254.765E-03    -257.188E-03    -254.629E-03     511.319E-03    -257.188E-03     19.6823E-03     543.536E-03     86.6549E+06    -48.3613E+06    -87.8054E+06    -147.486E+06    -98.4187E+06    -136.873E+06    -48.3613E+06     19.6071E+06
            1724     145.867E-03     4.64257E-03     145.793E-03     511.453E-03    -254.293E-03    -257.088E-03    -253.922E-03     511.082E-03    -257.088E-03     32.7881E-03     556.175E-03     78.1473E+06    -20.6342E+06    -50.7110E+06    -108.574E+06    -88.1659E+06    -71.1194E+06    -20.6342E+06     23.5870E+06
            1725     145.932E-03     5.41428E-03     145.832E-03     510.844E-03    -253.552E-03    -257.161E-03    -252.733E-03     510.025E-03    -257.161E-03     49.2321E-03     569.444E-03     84.6506E+06     2.85905E+06    -18.0872E+06    -90.2101E+06    -80.3379E+06    -27.9594E+06     2.85905E+06     24.6345E+06
            1726     146.029E-03     6.18776E-03     145.897E-03     509.452E-03    -253.042E-03    -257.731E-03    -251.488E-03     507.898E-03    -257.731E-03     68.0291E-03     586.005E-03     89.8808E+06     20.5861E+06    -3.31849E+06    -78.6752E+06    -71.3222E+06    -10.6715E+06     20.5861E+06     22.2233E+06
            1727     146.179E-03     6.95483E-03     146.014E-03     509.810E-03    -253.832E-03    -257.950E-03    -250.977E-03     506.955E-03    -257.950E-03     92.1359E-03     604.577E-03     92.4087E+06     36.5173E+06     4.61360E+06    -67.3849E+06    -61.7225E+06    -1.04882E+06     36.5173E+06     19.3603E+06
            1728     146.329E-03     7.72622E-03     146.125E-03     512.375E-03    -255.636E-03    -257.717E-03    -251.018E-03     507.597E-03    -257.557E-03     120.003E-03     622.231E-03     94.3701E+06     50.0575E+06     9.75949E+06    -57.7437E+06    -52.9224E+06     4.93812E+06     50.0575E+06     17.3337E+06
            1729     146.501E-03     8.50286E-03     146.254E-03     515.113E-03    -256.865E-03    -258.344E-03    -250.787E-03     507.979E-03    -257.287E-03     147.238E-03     638.259E-03     94.5302E+06     60.6638E+06     16.1309E+06    -47.8505E+06    -44.0787E+06     12.3592E+06     60.6638E+06     15.0470E+06
            1730     146.679E-03     9.28426E-03     146.385E-03     517.838E-03    -257.507E-03    -259.878E-03    -250.416E-03     508.377E-03    -257.507E-03     170.244E-03     649.945E-03     91.2642E+06     66.6007E+06     24.0868E+06    -38.0920E+06    -35.2087E+06     21.2034E+06     66.6007E+06     12.6692E+06
            1731     147.040E-03     10.0498E-03     146.696E-03     519.126E-03    -258.066E-03    -261.745E-03    -251.016E-03     508.396E-03    -258.066E-03     181.772E-03     654.887E-03     86.0526E+06     67.8734E+06     30.8083E+06    -30.4399E+06    -28.3880E+06     28.7565E+06     67.8734E+06     10.6067E+06
            1732     147.335E-03     10.8207E-03     146.937E-03     524.855E-03    -257.385E-03    -267.011E-03    -253.106E-03     510.949E-03    -257.385E-03     206.904E-03     668.136E-03     80.7234E+06     67.2463E+06     29.9624E+06    -24.8901E+06    -23.6970E+06     28.7693E+06     67.2463E+06     7.80157E+06
            1733     147.696E-03     11.5996E-03     147.240E-03     527.253E-03    -256.899E-03    -269.281E-03    -254.662E-03     512.633E-03    -256.899E-03     213.163E-03     669.306E-03     80.2568E+06     71.5149E+06     37.4222E+06    -19.3696E+06    -18.3672E+06     36.4198E+06     71.5149E+06     4.78873E+06
            1734     148.113E-03     12.3679E-03     147.596E-03     540.123E-03    -257.259E-03    -283.108E-03    -260.515E-03     517.530E-03    -257.259E-03     262.405E-03     702.831E-03     81.9997E+06      79.134E+06     49.7762E+06    -13.0544E+06    -12.1494E+06     48.8712E+06      79.134E+06     3.56316E+06
            1735     148.660E-03     13.1485E-03     148.078E-03     539.174E-03    -257.938E-03    -281.410E-03    -261.035E-03     518.799E-03    -257.938E-03     242.878E-03     681.973E-03     83.2174E+06     88.7419E+06     55.3604E+06    -5.58341E+06    -4.99112E+06     54.7681E+06     88.7419E+06     3.33717E+06
            1736     147.501E-03     774.904E-06     147.499E-03     513.984E-03    -256.126E-03    -257.857E-03    -257.650E-03     513.982E-03    -256.331E-03    -1.30505E-03     515.836E-03     162.269E+06    -131.604E+06    -134.791E+06    -295.435E+06    -134.935E+06    -295.291E+06    -131.604E+06     4.12593E+06
            1737     147.522E-03     1.54519E-03     147.514E-03     513.931E-03    -256.640E-03    -257.404E-03    -256.908E-03     513.929E-03    -257.134E-03     699.044E-06     519.379E-03     148.236E+06    -120.269E+06    -129.939E+06    -273.013E+06    -130.260E+06    -272.692E+06    -120.269E+06     6.38629E+06
            1738     147.502E-03     2.32036E-03     147.484E-03     513.022E-03    -256.145E-03    -257.041E-03    -256.137E-03     513.014E-03    -257.041E-03     4.24755E-03     524.520E-03     134.036E+06    -102.823E+06    -122.496E+06    -245.454E+06    -123.416E+06    -244.535E+06    -102.823E+06     8.44437E+06
            1739     147.488E-03     3.09569E-03     147.456E-03     511.905E-03    -255.388E-03    -256.846E-03    -255.348E-03     511.865E-03    -256.846E-03     10.3500E-03     531.804E-03     116.664E+06    -81.3512E+06    -112.218E+06    -209.976E+06    -114.272E+06    -207.922E+06    -81.3512E+06     11.8942E+06
            1740     147.502E-03     3.86986E-03     147.451E-03     510.950E-03    -254.510E-03    -256.741E-03    -254.379E-03     510.819E-03    -256.741E-03     19.3697E-03     542.518E-03     94.2596E+06    -56.0543E+06    -97.2278E+06    -163.434E+06    -104.471E+06    -156.191E+06    -56.0543E+06     17.8365E+06
            1741     147.534E-03     4.64528E-03     147.460E-03     510.977E-03    -254.090E-03    -256.759E-03    -253.714E-03     510.601E-03    -256.759E-03     32.8806E-03     555.434E-03     82.6690E+06    -28.1507E+06    -63.5640E+06    -121.958E+06    -93.5639E+06    -91.9578E+06    -28.1507E+06     24.7485E+06
            1742     147.603E-03     5.41747E-03     147.503E-03     510.986E-03    -253.901E-03    -256.847E-03    -253.054E-03     510.139E-03    -256.847E-03     50.0749E-03     569.606E-03     88.4287E+06    -1.36889E+06    -21.2861E+06    -97.6998E+06    -82.0719E+06    -36.9140E+06    -1.36889E+06     29.7284E+06
            1743     147.693E-03     6.18683E-03     147.563E-03     509.369E-03    -253.198E-03    -257.490E-03    -251.595E-03     507.766E-03    -257.490E-03     69.0833E-03     586.451E-03     97.0387E+06     19.7179E+06     2.56313E+06    -84.6982E+06    -73.5100E+06    -8.62500E+06     19.7179E+06     28.7848E+06
            1744     147.843E-03     6.95620E-03     147.679E-03     508.768E-03    -253.211E-03    -257.795E-03    -250.259E-03     505.816E-03    -257.795E-03     93.5696E-03     603.996E-03     100.020E+06     37.8277E+06     10.5911E+06    -72.7263E+06    -64.6691E+06     2.53391E+06     37.8277E+06     24.4791E+06
            1745     148.001E-03     7.72894E-03     147.799E-03     510.957E-03    -254.815E-03    -257.261E-03    -250.059E-03     506.201E-03    -257.261E-03     119.763E-03     620.358E-03     100.487E+06     51.8158E+06     12.8149E+06    -62.1626E+06    -56.4286E+06     7.08087E+06     51.8158E+06     19.8500E+06
            1746     148.172E-03     8.50677E-03     147.927E-03     514.712E-03    -256.437E-03    -258.270E-03    -250.866E-03     507.807E-03    -256.936E-03     144.851E-03     637.001E-03     99.7793E+06     62.5895E+06     18.0323E+06    -51.6759E+06    -47.5951E+06     13.9515E+06     62.5895E+06     16.3391E+06
            1747     148.361E-03     9.28547E-03     148.070E-03     518.540E-03    -257.248E-03    -260.480E-03    -251.243E-03     509.304E-03    -257.248E-03     168.343E-03     650.717E-03     97.0474E+06     68.7715E+06     27.7061E+06    -41.9738E+06    -39.1518E+06     24.8841E+06     68.7715E+06     13.4151E+06
            1748     148.712E-03     10.0477E-03     148.372E-03     519.886E-03    -257.950E-03    -262.503E-03    -251.730E-03     509.113E-03    -257.950E-03     182.280E-03     655.531E-03     91.3438E+06     70.1082E+06     33.3480E+06    -33.8217E+06    -31.8371E+06     31.3634E+06     70.1082E+06     11.2170E+06
            1749     149.006E-03     10.8189E-03     148.613E-03     524.161E-03    -257.262E-03    -266.699E-03    -252.326E-03     509.789E-03    -257.262E-03     210.023E-03     666.103E-03     85.3736E+06     71.8968E+06     37.2063E+06    -25.3097E+06    -23.8789E+06     35.7755E+06     71.8968E+06     9.08932E+06
            1750     149.368E-03     11.6077E-03     148.917E-03     525.327E-03    -256.630E-03    -267.622E-03    -252.354E-03     510.059E-03    -256.630E-03     217.363E-03     666.129E-03     82.8882E+06     75.6834E+06     44.0309E+06    -18.1949E+06    -16.9719E+06     42.8079E+06     75.6834E+06     5.84269E+06
            1751     149.778E-03     12.3748E-03     149.266E-03     538.515E-03    -256.995E-03    -281.953E-03    -259.152E-03     515.714E-03    -256.995E-03     263.933E-03     701.031E-03     83.9700E+06     82.4312E+06     50.0041E+06    -12.2911E+06    -11.2533E+06     48.9663E+06     82.4312E+06     4.18141E+06
            1752     150.316E-03     13.1580E-03     149.739E-03     538.145E-03    -257.237E-03    -281.174E-03    -260.832E-03     517.802E-03    -257.237E-03     242.836E-03     681.599E-03     87.2079E+06     92.7681E+06     58.0951E+06    -5.73717E+06    -5.36944E+06     57.7273E+06     92.7681E+06     2.60749E+06
            1753     149.156E-03     772.199E-06     149.154E-03     512.220E-03    -255.607E-03    -256.607E-03    -255.754E-03     512.218E-03    -256.457E-03    -147.526E-06     514.130E-03     166.812E+06    -137.497E+06    -141.580E+06    -306.303E+06    -140.811E+06    -306.167E+06    -138.403E+06     1.55722E+06
            1754     149.157E-03     1.55021E-03     149.149E-03     511.348E-03    -255.354E-03    -256.113E-03    -255.405E-03     511.346E-03    -256.060E-03     1.52437E-03     516.858E-03     153.574E+06    -125.540E+06    -133.653E+06    -282.925E+06    -133.874E+06    -282.704E+06    -125.540E+06     3.00083E+06
            1755     149.151E-03     2.32466E-03     149.132E-03     511.621E-03    -255.592E-03    -256.094E-03    -255.763E-03     511.611E-03    -255.911E-03     5.03398E-03     522.979E-03     138.664E+06    -109.586E+06    -126.446E+06    -255.667E+06    -127.179E+06    -254.934E+06    -109.586E+06     6.61793E+06
            1756     149.139E-03     3.09809E-03     149.107E-03     511.566E-03    -255.569E-03    -256.140E-03    -255.650E-03     511.518E-03    -256.010E-03     11.4751E-03     531.124E-03     124.582E+06    -88.1557E+06    -118.945E+06    -224.962E+06    -120.443E+06    -223.464E+06    -88.1557E+06     10.2669E+06
            1757     149.150E-03     3.87159E-03     149.100E-03     510.916E-03    -255.073E-03    -256.144E-03    -254.913E-03     510.756E-03    -256.144E-03     21.2167E-03     542.351E-03     101.328E+06    -64.6118E+06    -106.574E+06    -179.599E+06    -110.951E+06    -175.222E+06    -64.6118E+06     14.6629E+06
            1758     149.178E-03     4.64516E-03     149.106E-03     510.139E-03    -253.933E-03    -256.316E-03    -253.523E-03     509.729E-03    -256.316E-03     34.5319E-03     555.155E-03     82.5525E+06    -40.0797E+06    -82.2830E+06    -134.986E+06    -99.8764E+06    -117.393E+06    -40.0797E+06     21.8848E+06
            1759     149.253E-03     5.41865E-03     149.155E-03     509.077E-03    -252.767E-03    -256.403E-03    -251.878E-03     508.188E-03    -256.403E-03     51.1666E-03     567.979E-03     87.6417E+06    -12.0110E+06    -35.6888E+06    -107.541E+06    -87.8180E+06    -55.4121E+06    -12.0110E+06     29.3406E+06
            1760     149.346E-03     6.19222E-03     149.218E-03     508.549E-03    -253.010E-03    -256.899E-03    -251.347E-03     506.886E-03    -256.899E-03     70.3875E-03     585.337E-03     98.2404E+06     15.2066E+06     3.65706E+06    -88.2332E+06    -75.2546E+06    -9.32153E+06     15.2066E+06     31.8747E+06
            1761     149.495E-03     6.96011E-03     149.333E-03     509.885E-03    -254.485E-03    -257.400E-03    -251.527E-03     506.928E-03    -257.400E-03     93.9664E-03     605.026E-03     104.141E+06     36.0016E+06     16.1786E+06    -76.4343E+06    -65.6627E+06     5.40692E+06     36.0016E+06     29.5935E+06
            1762     149.658E-03     7.73025E-03     149.459E-03     512.168E-03    -255.796E-03    -257.119E-03    -251.115E-03     507.487E-03    -257.119E-03     118.997E-03     621.408E-03     105.792E+06     53.5187E+06     20.5966E+06    -64.4899E+06    -56.2625E+06     12.3692E+06     53.5187E+06     24.9727E+06
            1763     149.839E-03     8.50412E-03     149.597E-03     513.796E-03    -256.342E-03    -257.324E-03    -249.974E-03     506.937E-03    -256.833E-03     144.113E-03     635.585E-03     106.111E+06     67.4479E+06     25.1352E+06    -53.2425E+06    -47.6701E+06     19.5627E+06     67.4479E+06     19.8581E+06
            1764     150.028E-03     9.28788E-03     149.740E-03     516.312E-03    -256.903E-03    -259.053E-03    -249.511E-03     506.929E-03    -257.062E-03     169.171E-03     648.021E-03     103.739E+06     75.1894E+06     33.2834E+06    -42.8815E+06    -39.3530E+06     29.7550E+06     75.1894E+06     15.9440E+06
            1765     150.392E-03     10.0523E-03     150.056E-03     518.678E-03    -257.639E-03    -261.748E-03    -250.584E-03     507.514E-03    -257.639E-03     185.291E-03     654.478E-03     95.9297E+06     76.4532E+06     36.8269E+06    -32.8750E+06    -30.4894E+06     34.4413E+06     76.4532E+06     12.6172E+06
            1766     150.671E-03     10.8270E-03     150.281E-03     523.012E-03    -256.863E-03    -266.157E-03    -251.547E-03     508.402E-03    -256.863E-03     211.744E-03     665.459E-03     90.1193E+06     76.6052E+06     43.0583E+06    -25.1608E+06    -23.8395E+06     41.7370E+06     76.6052E+06     9.05961E+06
            1767     151.022E-03     11.6107E-03     150.575E-03     523.186E-03    -256.144E-03    -266.768E-03    -251.575E-03     507.992E-03    -256.144E-03     216.391E-03     664.393E-03     87.4698E+06     78.3553E+06     47.2592E+06    -19.9015E+06    -18.8897E+06     46.2474E+06     78.3553E+06     6.79444E+06
            1768     151.439E-03     12.3827E-03     150.932E-03     536.465E-03    -256.658E-03    -280.513E-03    -257.720E-03     513.672E-03    -256.658E-03     263.131E-03     699.215E-03     87.0479E+06     84.9022E+06     52.2770E+06    -12.7167E+06    -11.8772E+06     51.4376E+06     84.9022E+06     4.94487E+06
            1769     151.972E-03     13.1619E-03     151.401E-03     535.245E-03    -256.471E-03    -279.138E-03    -258.545E-03     514.652E-03    -256.471E-03     244.283E-03     678.752E-03     89.8813E+06     94.7971E+06     63.6402E+06    -5.73980E+06    -5.39128E+06     63.2917E+06     94.7971E+06     1.73914E+06
            1770     150.810E-03     776.804E-06     150.808E-03     510.380E-03    -254.522E-03    -255.849E-03    -255.202E-03     510.378E-03    -255.167E-03    -851.027E-06     512.317E-03     161.166E+06    -144.330E+06    -147.613E+06    -307.106E+06    -146.549E+06    -307.074E+06    -145.426E+06    -1.48273E+06
            1771     150.806E-03     1.55023E-03     150.798E-03     510.014E-03    -254.731E-03    -255.453E-03    -255.016E-03     510.012E-03    -255.166E-03     113.581E-06     515.625E-03     150.512E+06    -135.662E+06    -143.963E+06    -289.943E+06    -143.831E+06    -289.884E+06    -135.853E+06     871.517E+03
            1772     150.807E-03     2.32549E-03     150.789E-03     509.690E-03    -254.645E-03    -255.331E-03    -254.817E-03     509.681E-03    -255.149E-03     4.72383E-03     521.335E-03     140.435E+06    -119.032E+06    -137.491E+06    -267.526E+06    -138.145E+06    -266.873E+06    -119.032E+06     3.97416E+06
            1773     150.789E-03     3.10117E-03     150.757E-03     509.575E-03    -254.487E-03    -255.266E-03    -254.562E-03     509.521E-03    -255.137E-03     12.0643E-03     529.326E-03     125.612E+06    -96.7072E+06    -126.774E+06    -234.378E+06    -127.705E+06    -233.447E+06    -96.7072E+06     6.67987E+06
            1774     150.803E-03     3.87606E-03     150.753E-03     509.557E-03    -254.584E-03    -255.203E-03    -254.387E-03     509.360E-03    -255.203E-03     23.5466E-03     540.965E-03     105.480E+06    -74.2929E+06    -114.891E+06    -193.671E+06    -116.989E+06    -191.573E+06    -74.2929E+06     10.4006E+06
            1775     150.835E-03     4.64861E-03     150.764E-03     509.059E-03    -253.942E-03    -255.482E-03    -253.459E-03     508.576E-03    -255.482E-03     37.6839E-03     554.609E-03     87.2530E+06    -49.7120E+06    -96.6654E+06    -150.176E+06    -105.728E+06    -141.114E+06    -49.7120E+06     16.8261E+06
            1776     150.899E-03     5.42193E-03     150.801E-03     508.376E-03    -252.869E-03    -255.771E-03    -251.920E-03     507.427E-03    -255.771E-03     53.0927E-03     567.342E-03     83.2646E+06    -22.6587E+06    -55.6646E+06    -115.412E+06    -92.6901E+06    -78.3869E+06    -22.6587E+06     24.5276E+06
            1777     151.003E-03     6.19587E-03     150.876E-03     508.698E-03    -253.626E-03    -256.276E-03    -251.943E-03     507.015E-03    -256.276E-03     70.9151E-03     584.586E-03     91.8800E+06     2.37190E+06    -8.93398E+06    -94.0777E+06    -80.6978E+06    -22.3139E+06     2.37190E+06     30.2081E+06
            1778     151.165E-03     6.96224E-03     151.005E-03     510.810E-03    -255.532E-03    -256.986E-03    -252.519E-03     507.797E-03    -256.986E-03     94.8703E-03     605.393E-03     103.356E+06     26.6831E+06     16.6482E+06    -81.1894E+06    -69.9890E+06     5.44786E+06     26.6831E+06     31.0480E+06
            1779     151.329E-03     7.72849E-03     151.131E-03     512.877E-03    -256.219E-03    -256.962E-03    -251.297E-03     507.956E-03    -256.962E-03     121.932E-03     621.939E-03     109.658E+06     50.2245E+06     27.2798E+06    -68.6577E+06    -59.5963E+06     18.2185E+06     50.2245E+06     27.8558E+06
            1780     151.500E-03     8.50661E-03     151.261E-03     513.197E-03    -256.230E-03    -256.741E-03    -249.135E-03     506.028E-03    -256.667E-03     147.265E-03     634.840E-03     112.816E+06     70.0074E+06     33.1626E+06    -56.4048E+06    -49.8776E+06     26.6354E+06     70.0074E+06     23.0537E+06
            1781     151.687E-03     9.29063E-03     151.402E-03     513.956E-03    -256.688E-03    -257.482E-03    -247.869E-03     504.503E-03    -256.847E-03     169.461E-03     645.601E-03     111.887E+06     81.1376E+06     39.3465E+06    -45.5599E+06    -41.2723E+06     35.0589E+06     81.1376E+06     18.4958E+06
            1782     152.047E-03     10.0589E-03     151.714E-03     515.567E-03    -257.189E-03    -259.618E-03    -248.654E-03     504.603E-03    -257.189E-03     183.032E-03     651.991E-03     105.810E+06     83.5494E+06     43.8500E+06    -36.2838E+06    -33.6319E+06     41.1981E+06     83.5494E+06     14.2036E+06
            1783     152.333E-03     10.8344E-03     151.947E-03     521.530E-03    -256.363E-03    -265.324E-03    -251.029E-03     507.235E-03    -256.363E-03     209.178E-03     664.674E-03     98.6998E+06     82.6550E+06     48.3637E+06    -28.3932E+06    -26.9150E+06     46.8855E+06     82.6550E+06     10.4297E+06
            1784     152.668E-03     11.6186E-03     152.226E-03     522.281E-03    -255.764E-03    -266.647E-03    -251.591E-03     507.226E-03    -255.764E-03     215.388E-03     663.761E-03     92.6536E+06     82.6975E+06     51.0887E+06    -20.9762E+06    -20.0060E+06     50.1186E+06     82.6975E+06     7.25413E+06
            1785     153.090E-03     12.3847E-03     152.589E-03     533.546E-03    -256.100E-03    -278.138E-03    -254.897E-03     510.305E-03    -256.100E-03     264.363E-03     696.371E-03     90.9707E+06     86.7904E+06     58.4315E+06    -14.2888E+06    -13.4106E+06     57.5533E+06     86.7904E+06     2.83698E+06
            1786     153.612E-03     13.1774E-03     153.045E-03     530.526E-03    -255.569E-03    -275.099E-03    -253.816E-03     509.242E-03    -255.569E-03     247.432E-03     673.226E-03     92.0457E+06     98.0263E+06     67.3389E+06    -5.10022E+06    -4.35530E+06     66.5940E+06     98.0263E+06     827.174E+03
            1787     152.474E-03     774.582E-06     152.472E-03     508.938E-03    -253.950E-03    -254.977E-03    -254.974E-03     508.935E-03    -253.950E-03    -142.715E-06     510.802E-03     147.482E+06    -154.859E+06    -161.604E+06    -305.532E+06    -158.499E+06    -305.509E+06    -157.987E+06    -779.237E+03
            1788     152.457E-03     1.55076E-03     152.449E-03     509.084E-03    -254.370E-03    -254.871E-03    -254.692E-03     509.080E-03    -254.545E-03     1.73581E-03     514.763E-03     141.924E+06    -145.264E+06    -156.216E+06    -292.173E+06    -156.168E+06    -292.032E+06    -145.455E+06    -774.008E+03
            1789     152.448E-03     2.32655E-03     152.430E-03     507.793E-03    -253.691E-03    -254.513E-03    -253.684E-03     507.777E-03    -254.504E-03     6.31615E-03     519.729E-03     133.030E+06    -128.078E+06    -147.451E+06    -269.563E+06    -147.618E+06    -269.396E+06    -128.078E+06    -1.68962E+06
            1790     152.443E-03     3.10353E-03     152.411E-03     507.120E-03    -253.224E-03    -254.255E-03    -253.152E-03     507.048E-03    -254.255E-03     13.7696E-03     527.180E-03     119.342E+06    -109.936E+06    -137.500E+06    -240.492E+06    -137.864E+06    -240.128E+06    -109.936E+06    -910.427E+03
            1791     152.461E-03     3.87845E-03     152.412E-03     507.463E-03    -253.409E-03    -254.230E-03    -253.191E-03     507.246E-03    -254.230E-03     24.9289E-03     538.315E-03     104.852E+06    -85.8455E+06    -124.466E+06    -204.119E+06    -125.127E+06    -203.457E+06    -85.8455E+06     2.03215E+06
            1792     152.489E-03     4.65512E-03     152.418E-03     508.035E-03    -253.791E-03    -254.596E-03    -253.323E-03     507.544E-03    -254.572E-03     38.0665E-03     552.709E-03     88.6802E+06    -60.1606E+06    -107.509E+06    -162.215E+06    -110.140E+06    -159.584E+06    -60.1606E+06     6.45957E+06
            1793     152.565E-03     5.42702E-03     152.468E-03     509.259E-03    -254.200E-03    -255.112E-03    -253.252E-03     508.287E-03    -255.087E-03     53.7271E-03     567.799E-03     77.9183E+06    -34.6464E+06    -78.2730E+06    -124.031E+06    -95.6491E+06    -106.655E+06    -34.6464E+06     15.8922E+06
            1794     152.661E-03     6.19588E-03     152.535E-03     509.625E-03    -254.574E-03    -255.878E-03    -252.787E-03     507.838E-03    -255.878E-03     73.0311E-03     584.664E-03     83.2899E+06    -9.00085E+06    -30.5038E+06    -98.7491E+06    -83.8582E+06    -45.3947E+06    -9.00085E+06     26.8293E+06
            1795     152.829E-03     6.96349E-03     152.670E-03     510.069E-03    -254.756E-03    -256.710E-03    -251.652E-03     506.965E-03    -256.710E-03     96.3786E-03     603.922E-03     100.252E+06     17.3611E+06     12.3007E+06    -85.2585E+06    -73.5532E+06     595.421E+03     17.3611E+06     31.4106E+06
            1796     152.991E-03     7.73669E-03     152.795E-03     511.990E-03    -255.124E-03    -256.641E-03    -250.175E-03     507.041E-03    -256.641E-03     122.136E-03     620.618E-03     110.907E+06     43.7743E+06     30.9904E+06    -72.7115E+06    -63.7383E+06     22.0173E+06     43.7743E+06     29.0276E+06
            1797     153.162E-03     8.51301E-03     152.926E-03     512.731E-03    -255.736E-03    -256.338E-03    -248.604E-03     505.526E-03    -256.265E-03     147.565E-03     633.697E-03     116.314E+06     67.1544E+06     38.5407E+06    -60.5333E+06    -53.8817E+06     31.8891E+06     67.1544E+06     24.7276E+06
            1798     153.342E-03     9.29551E-03     153.060E-03     513.816E-03    -256.357E-03    -257.709E-03    -247.936E-03     504.241E-03    -256.555E-03     170.500E-03     645.369E-03     118.278E+06     84.2023E+06     45.6110E+06    -48.4534E+06    -43.6204E+06     40.7780E+06     84.2023E+06     20.6872E+06
            1799     153.705E-03     10.0584E-03     153.376E-03     514.833E-03    -256.864E-03    -259.473E-03    -248.460E-03     503.820E-03    -256.864E-03     183.338E-03     651.592E-03     115.070E+06     91.6639E+06     52.7149E+06    -37.8087E+06    -34.4323E+06     49.3384E+06     91.6639E+06     17.0512E+06
            1800     153.985E-03     10.8380E-03     153.603E-03     518.568E-03    -256.061E-03    -263.398E-03    -248.990E-03     504.161E-03    -256.061E-03     209.116E-03     662.113E-03     105.476E+06     91.2841E+06     54.2875E+06    -27.6419E+06    -25.4838E+06     52.1294E+06     91.2841E+06     12.9698E+06
            1801     154.334E-03     11.6225E-03     153.896E-03     518.522E-03    -255.480E-03    -263.300E-03    -247.944E-03     503.165E-03    -255.480E-03     216.459E-03     660.742E-03     97.4037E+06     90.5907E+06     60.3566E+06    -18.1265E+06    -16.9364E+06     59.1665E+06     90.5907E+06     7.83863E+06
            1802     154.742E-03     12.3966E-03     154.245E-03     529.545E-03    -255.415E-03    -274.467E-03    -250.365E-03     505.443E-03    -255.415E-03     267.405E-03     692.908E-03     95.0102E+06     94.7996E+06     67.8568E+06    -10.6828E+06    -9.55024E+06     66.7242E+06     94.7996E+06     3.62034E+06
            1803     155.250E-03     13.1872E-03     154.689E-03     525.763E-03    -253.885E-03    -271.525E-03    -248.679E-03     503.406E-03    -254.374E-03     252.516E-03     668.525E-03     96.6337E+06     102.862E+06     69.0540E+06    -6.06429E+06    -5.10713E+06     68.0968E+06     102.862E+06     1.99071E+06
            1804     154.125E-03     777.907E-06     154.123E-03     505.957E-03    -252.706E-03    -253.304E-03    -253.228E-03     505.955E-03    -252.780E-03     1.89262E-03     507.796E-03     139.548E+06    -156.828E+06    -168.520E+06    -301.691E+06    -165.630E+06    -301.645E+06    -159.765E+06    -589.691E+03
            1805     154.110E-03     1.55363E-03     154.102E-03     506.101E-03    -253.007E-03    -253.300E-03    -253.216E-03     506.093E-03    -253.081E-03     4.78410E-03     511.749E-03     131.971E+06    -149.986E+06    -158.877E+06    -286.087E+06    -159.042E+06    -285.922E+06    -149.986E+06    -4.24047E+06
            1806     154.099E-03     2.32983E-03     154.081E-03     506.081E-03    -252.832E-03    -253.488E-03    -253.145E-03     506.047E-03    -253.141E-03     9.46476E-03     517.853E-03     121.063E+06    -136.931E+06    -152.499E+06    -264.859E+06    -152.965E+06    -264.393E+06    -136.931E+06    -5.93730E+06
            1807     154.093E-03     3.10632E-03     154.061E-03     506.007E-03    -252.721E-03    -253.651E-03    -253.020E-03     505.906E-03    -253.251E-03     16.8785E-03     525.953E-03     109.066E+06    -118.760E+06    -144.084E+06    -237.996E+06    -144.898E+06    -237.182E+06    -118.760E+06    -7.34364E+06
            1808     154.116E-03     3.88364E-03     154.067E-03     506.636E-03    -253.133E-03    -253.753E-03    -253.145E-03     506.389E-03    -253.492E-03     26.8418E-03     536.640E-03     97.5476E+06    -98.3899E+06    -133.704E+06    -208.418E+06    -134.654E+06    -207.468E+06    -98.3899E+06    -7.62631E+06
            1809     154.152E-03     4.65613E-03     154.082E-03     507.594E-03    -253.715E-03    -253.972E-03    -253.276E-03     507.058E-03    -253.876E-03     39.6606E-03     551.107E-03     84.3560E+06    -77.0400E+06    -123.541E+06    -173.263E+06    -124.203E+06    -172.601E+06    -77.0400E+06    -3.92232E+06
            1810     154.227E-03     5.42860E-03     154.132E-03     508.638E-03    -254.146E-03    -254.391E-03    -253.092E-03     507.560E-03    -254.366E-03     56.4497E-03     566.813E-03     73.8733E+06    -53.5546E+06    -106.491E+06    -137.263E+06    -112.204E+06    -131.550E+06    -53.5546E+06     2.27549E+06
            1811     154.335E-03     6.20088E-03     154.210E-03     509.564E-03    -254.586E-03    -255.366E-03    -252.656E-03     507.634E-03    -255.366E-03     76.0255E-03     583.188E-03     72.0578E+06    -27.0633E+06    -64.2083E+06    -107.051E+06    -95.5575E+06    -75.7016E+06    -27.0633E+06     12.4298E+06
            1812     154.495E-03     6.96868E-03     154.338E-03     510.082E-03    -254.981E-03    -256.411E-03    -251.830E-03     506.931E-03    -256.411E-03     97.3360E-03     602.734E-03     84.6649E+06     2.25588E+06    -10.0005E+06    -86.5000E+06    -78.2924E+06    -17.1295E+06     1.17736E+06     23.1702E+06
            1813     154.656E-03     7.73690E-03     154.462E-03     510.640E-03    -254.617E-03    -256.363E-03    -249.776E-03     505.799E-03    -256.363E-03     120.712E-03     619.140E-03     101.507E+06     32.1964E+06     25.0256E+06    -72.5946E+06    -64.2355E+06     19.5714E+06     29.2915E+06     27.6149E+06
            1814     154.821E-03     8.51631E-03     154.586E-03     510.631E-03    -254.492E-03    -255.682E-03    -247.347E-03     503.485E-03    -255.682E-03     146.515E-03     631.164E-03     111.839E+06     60.3428E+06     41.6909E+06    -59.4493E+06    -52.6399E+06     36.7080E+06     58.5163E+06     25.4785E+06
            1815     155.007E-03     9.30147E-03     154.728E-03     512.143E-03    -255.530E-03    -257.036E-03    -247.040E-03     502.438E-03    -255.822E-03     171.338E-03     643.014E-03     118.044E+06     83.3063E+06     50.6032E+06    -47.4343E+06    -42.6442E+06     45.8130E+06     83.3063E+06     21.0799E+06
            1816     155.374E-03     10.0674E-03     155.048E-03     513.913E-03    -256.334E-03    -258.632E-03    -247.380E-03     502.661E-03    -256.334E-03     185.083E-03     649.976E-03     118.253E+06     96.6019E+06     55.6338E+06    -36.5896E+06    -32.8304E+06     51.8745E+06     96.6019E+06     18.2314E+06
            1817     155.646E-03     10.8422E-03     155.268E-03     515.127E-03    -255.746E-03    -260.511E-03    -245.500E-03     500.117E-03    -255.746E-03     212.268E-03     659.509E-03     113.101E+06     100.903E+06     64.7430E+06    -25.6318E+06    -23.1642E+06     62.2754E+06     100.903E+06     14.2213E+06
            1818     155.978E-03     11.6358E-03     155.543E-03     512.489E-03    -254.328E-03    -258.847E-03    -242.145E-03     496.355E-03    -254.896E-03     220.157E-03     656.299E-03     105.143E+06     100.909E+06     69.3109E+06    -16.2225E+06    -14.8905E+06     67.9789E+06     100.909E+06     8.59890E+06
            1819     156.391E-03     12.4122E-03     155.898E-03     523.425E-03    -253.556E-03    -269.672E-03    -244.147E-03     498.468E-03    -254.123E-03     270.196E-03     687.489E-03     102.092E+06     101.932E+06     72.1224E+06    -11.5814E+06    -10.5121E+06     71.0531E+06     101.932E+06     6.68127E+06
            1820     156.880E-03     13.2137E-03     156.322E-03     517.793E-03    -248.986E-03    -268.251E-03    -240.754E-03     494.285E-03    -252.974E-03     257.685E-03     660.451E-03     102.695E+06     107.693E+06     75.4495E+06    -7.05710E+06    -6.24017E+06     74.6325E+06     107.693E+06     5.06835E+06
            1821     155.764E-03     777.430E-06     155.762E-03     500.935E-03    -250.140E-03    -250.850E-03    -250.770E-03     500.929E-03    -250.214E-03     3.16529E-03     502.541E-03     134.469E+06    -150.737E+06    -165.244E+06    -291.560E+06    -158.324E+06    -291.314E+06    -157.903E+06    -3.55506E+06
            1822     155.751E-03     1.55819E-03     155.743E-03     501.555E-03    -250.520E-03    -251.144E-03    -251.054E-03     501.539E-03    -250.594E-03     6.69971E-03     506.602E-03     122.209E+06    -148.631E+06    -154.825E+06    -273.723E+06    -155.252E+06    -273.297E+06    -148.631E+06    -5.97954E+06
            1823     155.741E-03     2.33616E-03     155.723E-03     503.009E-03    -251.006E-03    -252.177E-03    -252.129E-03     502.960E-03    -251.006E-03     11.6874E-03     514.343E-03     116.496E+06    -133.468E+06    -147.540E+06    -256.151E+06    -148.507E+06    -255.185E+06    -133.468E+06    -9.79164E+06
            1824     155.736E-03     3.11221E-03     155.705E-03     504.593E-03    -251.533E-03    -253.256E-03    -253.118E-03     504.455E-03    -251.533E-03     19.7634E-03     524.368E-03     105.516E+06    -116.385E+06    -139.629E+06    -231.345E+06    -140.942E+06    -230.031E+06    -116.385E+06    -10.8236E+06
            1825     155.761E-03     3.88542E-03     155.713E-03     505.647E-03    -252.022E-03    -253.505E-03    -253.176E-03     505.318E-03    -252.022E-03     30.7957E-03     535.256E-03     94.5967E+06    -99.2730E+06    -133.760E+06    -205.825E+06    -135.380E+06    -204.206E+06    -99.2730E+06    -10.5984E+06
            1826     155.800E-03     4.66189E-03     155.730E-03     506.527E-03    -252.727E-03    -253.556E-03    -252.857E-03     505.849E-03    -252.748E-03     44.6500E-03     549.337E-03     88.2347E+06    -79.6393E+06    -124.752E+06    -179.974E+06    -126.834E+06    -177.891E+06    -79.6393E+06    -10.3567E+06
            1827     155.878E-03     5.43561E-03     155.783E-03     507.673E-03    -253.380E-03    -254.303E-03    -252.905E-03     506.430E-03    -253.536E-03     60.8718E-03     565.614E-03     74.8327E+06    -60.3153E+06    -111.593E+06    -144.137E+06    -115.376E+06    -140.354E+06    -60.3153E+06    -8.90547E+06
            1828     155.988E-03     6.20755E-03     155.864E-03     509.193E-03    -254.212E-03    -255.227E-03    -252.823E-03     507.095E-03    -254.518E-03     79.3159E-03     582.136E-03     63.0419E+06    -41.8716E+06    -88.4174E+06    -112.956E+06    -102.740E+06    -98.6331E+06    -41.8716E+06    -5.01266E+06
            1829     156.162E-03     6.97158E-03     156.006E-03     510.283E-03    -255.298E-03    -255.952E-03    -252.073E-03     506.873E-03    -255.766E-03     101.200E-03     601.345E-03     67.2078E+06    -20.3484E+06    -44.2837E+06    -93.9988E+06    -88.4970E+06    -48.7070E+06    -21.4269E+06     5.33106E+06
            1830     156.324E-03     7.74124E-03     156.132E-03     510.274E-03    -255.196E-03    -256.196E-03    -250.129E-03     505.094E-03    -256.083E-03     124.905E-03     617.918E-03     85.0890E+06     10.9985E+06     2.01951E+06    -78.1327E+06    -74.3008E+06     3.94354E+06     5.24261E+06     16.4179E+06
            1831     156.483E-03     8.52194E-03     156.251E-03     509.938E-03    -254.550E-03    -255.788E-03    -247.611E-03     502.445E-03    -255.234E-03     150.051E-03     630.481E-03     104.250E+06     44.8047E+06     31.7133E+06    -65.3048E+06    -60.7168E+06     35.3030E+06     36.6270E+06     20.6635E+06
            1832     156.669E-03     9.30626E-03     156.393E-03     509.572E-03    -254.249E-03    -255.631E-03    -245.120E-03     499.661E-03    -254.850E-03     172.686E-03     639.998E-03     113.907E+06     68.9088E+06     49.2017E+06    -53.2466E+06    -49.3332E+06     48.7886E+06     65.4084E+06     19.7142E+06
            1833     157.034E-03     10.0725E-03     156.711E-03     509.040E-03    -253.454E-03    -255.646E-03    -242.373E-03     497.437E-03    -255.125E-03     186.628E-03     644.242E-03     119.862E+06     89.1231E+06     58.1344E+06    -42.5289E+06    -39.8414E+06     55.4469E+06     89.1231E+06     15.4003E+06
            1834     157.305E-03     10.8580E-03     156.930E-03     510.306E-03    -253.580E-03    -257.054E-03    -240.092E-03     494.509E-03    -254.745E-03     216.289E-03     653.945E-03     123.447E+06     105.382E+06     71.1261E+06    -31.2937E+06    -29.7075E+06     69.5399E+06     105.382E+06     11.8094E+06
            1835     157.605E-03     11.6516E-03     157.174E-03     507.087E-03    -252.091E-03    -255.751E-03    -237.080E-03     489.947E-03    -253.623E-03     225.395E-03     650.050E-03     117.143E+06     107.075E+06     75.6120E+06    -22.3850E+06    -21.1947E+06     74.4217E+06     107.075E+06     9.87516E+06
            1836     158.005E-03     12.4345E-03     157.515E-03     514.469E-03    -250.534E-03    -263.889E-03    -235.255E-03     487.367E-03    -252.066E-03     277.632E-03     678.012E-03     109.686E+06     105.390E+06     73.4572E+06    -16.5035E+06    -15.4313E+06     72.3850E+06     105.390E+06     8.16707E+06
            1837     158.503E-03     13.2377E-03     157.949E-03     502.799E-03    -240.075E-03    -262.323E-03    -225.519E-03     476.420E-03    -250.499E-03     269.270E-03     645.124E-03     108.145E+06     111.564E+06     79.9254E+06    -8.61989E+06    -7.86331E+06     79.1689E+06     111.564E+06     5.09852E+06
            1838     157.399E-03     783.029E-06     157.397E-03     494.785E-03    -246.857E-03    -248.048E-03    -248.040E-03     494.777E-03    -246.857E-03     4.53075E-03     496.332E-03     124.800E+06    -142.357E+06    -161.602E+06    -275.343E+06    -152.236E+06    -274.736E+06    -152.329E+06    -7.32122E+06
            1839     157.370E-03     1.56162E-03     157.362E-03     496.562E-03    -247.603E-03    -248.978E-03    -248.950E-03     496.534E-03    -247.603E-03     8.72983E-03     501.293E-03     112.283E+06    -142.222E+06    -150.585E+06    -258.379E+06    -148.704E+06    -257.454E+06    -145.028E+06    -9.49645E+06
            1840     157.377E-03     2.34008E-03     157.359E-03     498.544E-03    -248.413E-03    -250.260E-03    -250.172E-03     498.456E-03    -248.413E-03     15.2796E-03     509.107E-03     109.055E+06    -129.825E+06    -143.533E+06    -244.875E+06    -144.726E+06    -243.683E+06    -129.825E+06    -10.8119E+06
            1841     157.384E-03     3.11720E-03     157.353E-03     500.684E-03    -249.227E-03    -251.606E-03    -251.387E-03     500.465E-03    -249.227E-03     24.8038E-03     519.946E-03     101.101E+06    -114.567E+06    -138.278E+06    -225.100E+06    -140.165E+06    -223.213E+06    -114.567E+06    -12.0906E+06
            1842     157.408E-03     3.89490E-03     157.360E-03     502.863E-03    -249.947E-03    -252.723E-03    -252.259E-03     502.399E-03    -249.947E-03     36.7732E-03     532.440E-03     91.7538E+06    -97.6923E+06    -128.786E+06    -200.375E+06    -131.713E+06    -197.448E+06    -97.6923E+06    -13.6623E+06
            1843     157.449E-03     4.66996E-03     157.379E-03     504.604E-03    -250.910E-03    -253.570E-03    -252.698E-03     503.732E-03    -250.910E-03     50.7544E-03     546.466E-03     86.1770E+06    -79.6527E+06    -117.512E+06    -177.270E+06    -122.083E+06    -172.699E+06    -79.6527E+06    -14.8712E+06
            1844     157.533E-03     5.44273E-03     157.439E-03     506.008E-03    -251.894E-03    -254.203E-03    -252.685E-03     504.490E-03    -251.894E-03     67.1024E-03     562.589E-03     74.8875E+06    -62.6791E+06    -105.356E+06    -147.926E+06    -112.994E+06    -140.288E+06    -62.6791E+06    -14.8937E+06
            1845     157.644E-03     6.21419E-03     157.522E-03     507.112E-03    -252.942E-03    -254.536E-03    -252.070E-03     504.647E-03    -252.942E-03     85.8325E-03     579.146E-03     65.8462E+06    -45.2357E+06    -90.7997E+06    -120.015E+06    -104.293E+06    -106.521E+06    -45.2357E+06    -12.1584E+06
            1846     157.822E-03     6.98368E-03     157.667E-03     508.368E-03    -253.951E-03    -254.952E-03    -250.904E-03     504.522E-03    -254.153E-03     107.399E-03     597.677E-03     65.8619E+06    -27.4512E+06    -63.7080E+06    -101.749E+06    -94.7001E+06    -70.7567E+06    -27.4512E+06    -8.08935E+06
            1847     157.990E-03     7.75409E-03     157.800E-03     509.984E-03    -254.323E-03    -255.956E-03    -250.023E-03     504.252E-03    -254.524E-03     131.397E-03     615.470E-03     74.4098E+06    -4.67884E+06    -20.5333E+06    -84.6636E+06    -81.3420E+06    -21.0039E+06    -7.52975E+06     124.566E+03
            1848     158.151E-03     8.53011E-03     157.921E-03     509.172E-03    -253.903E-03    -255.473E-03    -247.105E-03     500.804E-03    -253.903E-03     158.207E-03     628.510E-03     89.6067E+06     24.8940E+06     15.2020E+06    -69.1065E+06    -67.7582E+06     22.9921E+06     15.7557E+06     9.25711E+06
            1849     158.330E-03     9.31549E-03     158.055E-03     506.304E-03    -252.563E-03    -253.899E-03    -241.699E-03     494.988E-03    -253.449E-03     183.357E-03     636.194E-03     102.407E+06     50.3081E+06     41.0404E+06    -56.3556E+06    -54.2153E+06     46.0402E+06     43.1680E+06     13.5216E+06
            1850     158.669E-03     10.0913E-03     158.347E-03     503.926E-03    -250.715E-03    -253.196E-03    -237.386E-03     490.596E-03    -253.196E-03     198.462E-03     638.457E-03     112.984E+06     75.9200E+06     62.0873E+06    -43.0648E+06    -41.2843E+06     61.1594E+06     75.0674E+06     13.3316E+06
            1851     158.954E-03     10.8778E-03     158.582E-03     503.722E-03    -250.610E-03    -253.191E-03    -233.702E-03     486.015E-03    -252.392E-03     227.013E-03     645.634E-03     124.260E+06     100.804E+06     74.6593E+06    -34.3119E+06    -33.0371E+06     73.3845E+06     100.804E+06     11.5531E+06
            1852     159.227E-03     11.6817E-03     158.798E-03     498.236E-03    -246.835E-03    -251.725E-03    -227.853E-03     478.456E-03    -250.926E-03     239.064E-03     638.898E-03     120.885E+06     108.077E+06     75.2693E+06    -25.5914E+06    -24.3105E+06     73.9884E+06     108.077E+06     10.4685E+06
            1853     159.640E-03     12.4660E-03     159.152E-03     501.085E-03    -244.978E-03    -256.151E-03    -220.096E-03     468.935E-03    -248.882E-03     296.433E-03     663.231E-03     111.609E+06     110.421E+06     76.4830E+06    -14.0292E+06    -12.9703E+06     75.4240E+06     110.421E+06     7.96528E+06
            1854     160.068E-03     13.3012E-03     159.514E-03     485.000E-03    -231.231E-03    -253.588E-03    -207.053E-03     453.554E-03    -246.319E-03     287.530E-03     626.951E-03     110.360E+06     117.663E+06     84.4267E+06     -5.3128E+06    -4.29995E+06     83.4138E+06     117.663E+06     5.78585E+06
            1855     159.029E-03     782.153E-06     159.027E-03     488.900E-03    -243.678E-03    -245.369E-03    -245.210E-03     488.881E-03    -243.817E-03     6.57938E-03     490.622E-03     117.063E+06    -126.862E+06    -151.173E+06    -253.972E+06    -140.277E+06    -253.549E+06    -138.180E+06    -4.92525E+06
            1856     159.000E-03     1.56571E-03     158.992E-03     489.952E-03    -244.442E-03    -245.658E-03    -245.455E-03     489.890E-03    -244.582E-03     12.6666E-03     494.906E-03     107.612E+06    -130.002E+06    -142.422E+06    -243.124E+06    -140.558E+06    -242.182E+06    -132.808E+06    -8.97752E+06
            1857     159.005E-03     2.34747E-03     158.988E-03     491.913E-03    -245.181E-03    -246.902E-03    -246.733E-03     491.743E-03    -245.181E-03     21.5859E-03     502.152E-03     104.117E+06    -123.529E+06    -135.726E+06    -233.091E+06    -137.295E+06    -231.521E+06    -123.529E+06    -11.9593E+06
            1858     159.020E-03     3.12854E-03     158.989E-03     494.780E-03    -246.051E-03    -248.811E-03    -248.455E-03     494.424E-03    -246.051E-03     31.8920E-03     513.306E-03     97.0285E+06    -109.700E+06    -127.562E+06    -213.921E+06    -130.399E+06    -211.084E+06    -109.700E+06    -15.0973E+06
            1859     159.055E-03     3.90603E-03     159.007E-03     498.296E-03    -247.182E-03    -251.101E-03    -250.411E-03     497.606E-03    -247.182E-03     44.5643E-03     527.217E-03     89.4784E+06    -94.0231E+06    -118.852E+06    -192.401E+06    -122.840E+06    -188.412E+06    -94.0231E+06    -16.5395E+06
            1860     159.104E-03     4.68177E-03     159.035E-03     500.730E-03    -248.235E-03    -252.680E-03    -251.464E-03     499.514E-03    -248.235E-03     59.7154E-03     541.334E-03     82.5276E+06    -77.3046E+06    -109.870E+06    -170.006E+06    -115.775E+06    -164.100E+06    -77.3046E+06    -17.3238E+06
            1861     159.185E-03     5.45628E-03     159.091E-03     502.073E-03    -249.060E-03    -252.810E-03    -250.782E-03     500.045E-03    -249.060E-03     77.2938E-03     556.175E-03     77.3620E+06    -59.2535E+06    -101.059E+06    -146.770E+06    -108.882E+06    -138.947E+06    -59.2535E+06    -16.7675E+06
            1862     159.297E-03     6.23134E-03     159.176E-03     502.852E-03    -250.201E-03    -252.789E-03    -249.633E-03     499.695E-03    -250.201E-03     96.7292E-03     572.406E-03     71.8325E+06    -40.9320E+06    -85.9285E+06    -122.751E+06    -100.711E+06    -107.968E+06    -40.9320E+06    -15.2317E+06
            1863     159.463E-03     7.00044E-03     159.310E-03     504.054E-03    -251.238E-03    -253.414E-03    -248.503E-03     499.143E-03    -251.238E-03     120.259E-03     590.383E-03     68.4115E+06    -23.6382E+06    -64.2393E+06    -102.109E+06    -90.9808E+06    -75.3673E+06    -23.6382E+06    -13.9417E+06
            1864     159.652E-03     7.77003E-03     159.463E-03     505.638E-03    -251.444E-03    -253.950E-03    -246.424E-03     498.112E-03    -251.444E-03     148.908E-03     607.535E-03     69.5726E+06    -10.3112E+06    -34.7516E+06    -87.0598E+06    -82.5181E+06    -39.2932E+06    -10.3112E+06    -9.77853E+06
            1865     159.814E-03     8.55209E-03     159.585E-03     503.541E-03    -250.856E-03    -252.336E-03    -241.683E-03     492.888E-03    -250.856E-03     176.951E-03     619.728E-03     80.3404E+06     12.5185E+06     784.498E+03    -72.8572E+06    -71.4077E+06     6.14815E+06     5.70534E+06    -2.04686E+06
            1866     159.973E-03     9.34699E-03     159.700E-03     500.257E-03    -249.847E-03    -250.487E-03    -235.944E-03     486.093E-03    -250.227E-03     203.333E-03     626.888E-03     93.7099E+06     38.9583E+06     28.3359E+06    -59.5140E+06    -58.6806E+06     38.1250E+06     28.3359E+06     2.89897E+06
            1867     160.313E-03     10.1260E-03     159.993E-03     497.928E-03    -248.448E-03    -249.694E-03    -231.562E-03     480.857E-03    -249.508E-03     222.403E-03     628.611E-03     103.429E+06     61.0341E+06     48.0519E+06    -48.0784E+06    -46.8408E+06     56.8194E+06     51.0290E+06     4.95506E+06
            1868     160.582E-03     10.9150E-03     160.211E-03     495.008E-03    -247.082E-03    -247.997E-03    -224.278E-03     472.204E-03    -247.997E-03     253.612E-03     632.866E-03     111.343E+06     85.3015E+06     67.0355E+06    -33.8544E+06    -33.0492E+06     72.4262E+06     79.1056E+06     7.03031E+06
            1869     160.868E-03     11.7279E-03     160.440E-03     485.394E-03    -239.270E-03    -246.006E-03    -213.505E-03     459.628E-03    -246.006E-03     267.275E-03     621.917E-03     113.637E+06     101.744E+06     73.8010E+06    -22.6981E+06    -21.6767E+06     72.7795E+06     101.744E+06     8.23793E+06
            1870     161.223E-03     12.5398E-03     160.735E-03     486.137E-03    -236.962E-03    -249.013E-03    -203.697E-03     447.322E-03    -243.464E-03     320.648E-03     645.966E-03     112.059E+06     110.930E+06     77.3020E+06    -13.9492E+06    -12.9699E+06     76.3226E+06     110.930E+06     7.80178E+06
            1871     161.685E-03     13.3790E-03     161.130E-03     470.940E-03    -225.268E-03    -245.875E-03    -194.324E-03     434.446E-03    -240.325E-03     303.762E-03     613.780E-03     117.797E+06     119.114E+06     87.9526E+06    -10.8274E+06    -9.93276E+06     87.0579E+06     119.114E+06     6.03956E+06
            1872     160.658E-03     786.361E-06     160.656E-03     479.466E-03    -239.145E-03    -240.408E-03    -240.222E-03     479.419E-03    -239.285E-03     10.8282E-03     481.094E-03     119.591E+06    -107.977E+06    -130.667E+06    -237.135E+06    -119.107E+06    -236.919E+06    -119.753E+06    -3.19719E+06
            1873     160.627E-03     1.57272E-03     160.620E-03     480.157E-03    -239.770E-03    -240.585E-03    -240.303E-03     480.013E-03    -239.910E-03     19.3071E-03     484.949E-03     112.135E+06    -107.476E+06    -121.490E+06    -225.773E+06    -118.880E+06    -225.118E+06    -110.740E+06    -7.55323E+06
            1874     160.637E-03     2.35900E-03     160.620E-03     482.349E-03    -240.336E-03    -242.251E-03    -241.929E-03     482.027E-03    -240.336E-03     29.5831E-03     492.276E-03     109.151E+06    -102.606E+06    -113.666E+06    -216.657E+06    -115.257E+06    -215.066E+06    -102.606E+06    -12.2147E+06
            1875     160.655E-03     3.14182E-03     160.625E-03     485.890E-03    -241.126E-03    -244.763E-03    -244.116E-03     485.243E-03    -241.126E-03     42.2204E-03     503.251E-03     100.852E+06    -93.8275E+06    -108.675E+06    -200.723E+06    -111.204E+06    -198.194E+06    -93.8275E+06    -14.8611E+06
            1876     160.697E-03     3.92308E-03     160.649E-03     489.342E-03    -242.267E-03    -247.077E-03    -245.892E-03     488.157E-03    -242.267E-03     57.7746E-03     516.384E-03     92.4832E+06    -81.6339E+06    -103.044E+06    -181.873E+06    -107.108E+06    -177.809E+06    -81.6339E+06    -17.0712E+06
            1877     160.752E-03     4.70141E-03     160.683E-03     491.840E-03    -243.367E-03    -248.658E-03    -246.652E-03     489.833E-03    -243.367E-03     75.5592E-03     530.100E-03     85.5747E+06    -68.0894E+06    -97.4322E+06    -162.896E+06    -102.678E+06    -157.650E+06    -68.0894E+06    -17.7096E+06
            1878     160.831E-03     5.47933E-03     160.738E-03     493.880E-03    -244.265E-03    -249.485E-03    -246.275E-03     490.669E-03    -244.265E-03     95.8460E-03     544.793E-03     79.3223E+06    -52.7730E+06    -90.3989E+06    -141.695E+06    -96.6901E+06    -135.404E+06    -52.7730E+06    -16.5764E+06
            1879     160.939E-03     6.25662E-03     160.817E-03     494.868E-03    -245.238E-03    -249.669E-03    -244.779E-03     489.978E-03    -245.238E-03     118.502E-03     560.146E-03     71.2044E+06    -37.6333E+06    -78.1471E+06    -117.503E+06    -89.9673E+06    -105.683E+06    -37.6333E+06    -15.7559E+06
            1880     161.102E-03     7.03371E-03     160.948E-03     495.791E-03    -246.004E-03    -250.098E-03    -242.680E-03     488.373E-03    -246.004E-03     146.138E-03     576.733E-03     65.5696E+06    -22.5211E+06    -62.3276E+06    -97.3995E+06    -83.7008E+06    -76.0263E+06    -22.5211E+06    -14.0541E+06
            1881     161.281E-03     7.81316E-03     161.092E-03     495.533E-03    -246.108E-03    -249.325E-03    -238.622E-03     484.830E-03    -246.108E-03     175.959E-03     591.643E-03     67.9165E+06    -5.60620E+06    -37.0015E+06    -82.9037E+06    -75.8474E+06    -44.0578E+06    -5.60620E+06    -11.4431E+06
            1882     161.456E-03     8.60528E-03     161.226E-03     492.727E-03    -245.268E-03    -247.120E-03    -232.519E-03     478.127E-03    -245.268E-03     204.383E-03     602.382E-03     76.8942E+06     12.2485E+06    -5.74180E+06    -71.6375E+06    -69.0166E+06    -4.33667E+06     8.22247E+06    -8.10435E+06
            1883     161.627E-03     9.39899E-03     161.354E-03     490.115E-03    -243.976E-03    -245.869E-03    -226.322E-03     470.569E-03    -243.976E-03     234.753E-03     609.300E-03     91.2251E+06     36.2206E+06     20.6886E+06    -61.6667E+06    -60.1059E+06     32.5154E+06     22.8330E+06    -4.03693E+06
            1884     161.963E-03     10.1887E-03     161.643E-03     487.066E-03    -242.459E-03    -244.449E-03    -219.982E-03     462.849E-03    -242.708E-03     259.932E-03     609.903E-03     99.9606E+06     55.7434E+06     39.6330E+06    -50.9797E+06    -50.3461E+06     55.1099E+06     39.6330E+06    -3.12965E+06
            1885     162.200E-03     10.9966E-03     161.827E-03     483.233E-03    -240.312E-03    -242.945E-03    -211.557E-03     452.143E-03    -240.609E-03     291.758E-03     614.127E-03     103.171E+06     68.4312E+06     53.3775E+06    -41.0983E+06    -40.6736E+06     66.1021E+06     55.2820E+06    -3.91127E+06
            1886     162.421E-03     11.8277E-03     161.990E-03     474.320E-03    -234.488E-03    -239.894E-03    -202.922E-03     440.957E-03    -238.097E-03     299.932E-03     604.944E-03     103.883E+06     85.0821E+06     61.6520E+06    -28.1944E+06    -27.9060E+06     67.7639E+06     78.6817E+06    -1.44884E+06
            1887     162.781E-03     12.6407E-03     162.289E-03     478.360E-03    -232.082E-03    -246.392E-03    -198.408E-03     433.937E-03    -235.643E-03     342.673E-03     636.183E-03     105.407E+06     99.3118E+06     70.1614E+06    -17.5842E+06      -17.05E+06     69.6272E+06     99.3118E+06     3.79520E+06
            1888     163.256E-03     13.4923E-03     162.697E-03     469.783E-03    -226.028E-03    -244.152E-03    -199.077E-03     431.603E-03    -232.922E-03     308.373E-03     617.520E-03     115.383E+06     117.288E+06     86.8792E+06    -9.93744E+06    -9.16480E+06     86.1065E+06     117.288E+06     6.23134E+06
            1889     162.268E-03     793.320E-06     162.266E-03     462.200E-03    -230.747E-03    -231.489E-03    -231.336E-03     462.097E-03    -230.797E-03     15.5393E-03     463.607E-03     119.651E+06    -96.3005E+06    -113.377E+06    -223.499E+06    -106.199E+06    -223.287E+06    -103.691E+06    -2.98028E+06
            1890     162.230E-03     1.58600E-03     162.222E-03     464.395E-03    -231.500E-03    -233.031E-03    -232.709E-03     464.073E-03    -231.500E-03     28.4002E-03     468.649E-03     110.018E+06    -93.8257E+06    -108.219E+06    -210.279E+06    -102.788E+06    -209.698E+06    -99.8376E+06    -7.05703E+06
            1891     162.243E-03     2.37593E-03     162.225E-03     467.148E-03    -232.263E-03    -235.058E-03    -234.338E-03     466.429E-03    -232.263E-03     43.2341E-03     475.947E-03     104.935E+06    -89.9186E+06    -103.834E+06    -200.826E+06    -102.208E+06    -199.705E+06    -92.6662E+06    -10.2460E+06
            1892     162.265E-03     3.16572E-03     162.234E-03     470.377E-03    -233.124E-03    -237.305E-03    -235.932E-03     469.004E-03    -233.124E-03     60.2772E-03     485.787E-03     99.3598E+06    -82.2257E+06    -96.6979E+06    -187.221E+06    -98.8628E+06    -185.056E+06    -82.2257E+06    -13.4971E+06
            1893     162.324E-03     3.95220E-03     162.276E-03     473.010E-03    -233.969E-03    -239.058E-03    -236.758E-03     470.710E-03    -233.969E-03     78.9372E-03     497.151E-03     92.2725E+06    -72.2144E+06    -91.5917E+06    -171.287E+06    -94.8924E+06    -167.986E+06    -72.2144E+06    -15.0956E+06
            1894     162.383E-03     4.73989E-03     162.314E-03     475.502E-03    -234.812E-03    -240.747E-03    -237.069E-03     471.824E-03    -234.812E-03     100.300E-03     509.850E-03     86.3496E+06    -61.0374E+06    -87.1157E+06    -155.466E+06    -91.3093E+06    -151.273E+06    -61.0374E+06    -15.6836E+06
            1895     162.493E-03     5.52491E-03     162.399E-03     478.146E-03    -235.635E-03    -242.543E-03    -236.978E-03     472.581E-03    -235.635E-03     124.313E-03     524.227E-03     78.2054E+06    -48.1350E+06    -80.8455E+06    -134.326E+06    -86.2035E+06    -128.968E+06    -48.1350E+06    -15.7741E+06
            1896     162.602E-03     6.31092E-03     162.480E-03     479.872E-03    -236.406E-03    -243.462E-03    -235.439E-03     471.849E-03    -236.406E-03     149.669E-03     539.034E-03     71.3541E+06    -33.3021E+06    -70.4464E+06    -112.637E+06    -80.4003E+06    -102.683E+06    -33.3021E+06    -15.6733E+06
            1897     162.757E-03     7.09553E-03     162.602E-03     480.337E-03    -236.902E-03    -243.445E-03    -231.795E-03     468.688E-03    -236.902E-03     179.919E-03     554.218E-03     68.4553E+06    -14.8349E+06    -55.9029E+06    -91.8476E+06    -72.3756E+06    -75.3749E+06    -14.8349E+06    -13.7808E+06
            1898     162.914E-03     7.88462E-03     162.723E-03     479.076E-03    -236.608E-03    -242.491E-03    -226.122E-03     462.707E-03    -236.608E-03     212.235E-03     566.942E-03     67.5278E+06     3.61088E+06    -33.1161E+06     -73.237E+06    -64.5766E+06    -41.7766E+06     3.61088E+06    -11.4774E+06
            1899     163.057E-03     8.68286E-03     162.825E-03     477.174E-03    -235.327E-03    -241.679E-03    -219.439E-03     454.935E-03    -235.327E-03     245.967E-03     576.658E-03     71.9380E+06     19.8493E+06    -2.36379E+06    -60.1181E+06    -55.6294E+06    -6.85253E+06     19.8493E+06    -9.76804E+06
            1900     163.214E-03     9.49859E-03     162.937E-03     475.316E-03    -233.521E-03    -241.631E-03    -213.092E-03     446.777E-03    -233.521E-03     278.309E-03     583.575E-03     82.8967E+06     40.1369E+06     25.5342E+06    -48.7310E+06    -46.7976E+06     30.0058E+06     33.7320E+06    -5.52680E+06
            1901     163.484E-03     10.3095E-03     163.158E-03     472.591E-03    -231.925E-03    -240.597E-03    -207.509E-03     439.502E-03    -231.925E-03     299.094E-03     585.388E-03     99.1095E+06     62.3519E+06     52.3627E+06    -41.0490E+06    -39.8930E+06     60.6309E+06     52.9277E+06    -2.36485E+06
            1902     163.847E-03     11.1229E-03     163.469E-03     472.772E-03    -229.924E-03    -242.868E-03    -203.875E-03     433.779E-03    -229.924E-03     324.001E-03     595.253E-03     102.741E+06     74.0719E+06     59.1046E+06    -34.9749E+06    -34.1777E+06     67.7270E+06     64.6523E+06    -4.62515E+06
            1903     164.059E-03     11.9549E-03     163.623E-03     471.869E-03    -227.786E-03    -244.150E-03    -205.708E-03     433.428E-03    -227.786E-03     321.999E-03     598.134E-03     102.715E+06     85.2014E+06     55.1139E+06    -29.0793E+06    -28.4922E+06     60.9271E+06     78.8010E+06    -3.57586E+06
            1904     164.351E-03     12.7749E-03     163.854E-03     485.524E-03    -226.415E-03    -259.116E-03    -214.924E-03     441.331E-03    -226.415E-03     349.556E-03     644.829E-03     102.927E+06     94.3301E+06     61.3413E+06    -20.9697E+06    -20.6668E+06     61.0384E+06     94.3301E+06     1.14336E+06
            1905     164.818E-03     13.5935E-03     164.256E-03     492.036E-03    -225.817E-03    -266.275E-03    -232.312E-03     458.073E-03    -225.817E-03     295.215E-03     647.129E-03     117.357E+06     124.604E+06     82.7494E+06    -7.77363E+06    -7.09428E+06     82.0701E+06     124.604E+06     915.876E+03
            1906     163.828E-03     804.224E-06     163.826E-03     436.684E-03    -217.224E-03    -219.492E-03    -219.236E-03     436.478E-03    -217.274E-03     21.5131E-03     437.832E-03     121.105E+06    -82.7337E+06    -98.3077E+06    -210.856E+06    -90.2201E+06    -210.712E+06    -90.9647E+06    -2.98362E+06
            1907     163.794E-03     1.60548E-03     163.786E-03     439.105E-03    -218.743E-03    -220.430E-03    -219.796E-03     438.472E-03    -218.743E-03     39.1236E-03     442.623E-03     107.535E+06    -82.2608E+06    -96.5240E+06    -196.188E+06    -90.2016E+06    -195.658E+06    -89.1133E+06    -6.61005E+06
            1908     163.795E-03     2.40770E-03     163.777E-03     442.161E-03    -219.491E-03    -222.755E-03    -221.331E-03     440.736E-03    -219.491E-03     59.7097E-03     449.672E-03     103.103E+06    -77.6159E+06    -91.9734E+06    -186.946E+06    -87.9794E+06    -185.679E+06    -82.8769E+06    -10.8785E+06
            1909     163.819E-03     3.20580E-03     163.788E-03     445.006E-03    -220.247E-03    -224.783E-03    -222.164E-03     442.387E-03    -220.247E-03     81.7919E-03     458.201E-03     99.4367E+06    -70.6340E+06    -85.5104E+06    -176.090E+06    -85.1070E+06    -173.979E+06    -73.1476E+06    -13.4855E+06
            1910     163.857E-03     4.00546E-03     163.808E-03     447.900E-03    -220.908E-03    -226.941E-03    -222.643E-03     443.603E-03    -220.908E-03     105.292E-03     468.367E-03     95.4349E+06    -60.7061E+06    -78.4924E+06    -162.431E+06    -81.0365E+06    -159.887E+06    -60.7061E+06    -13.8433E+06
            1911     163.915E-03     4.80341E-03     163.845E-03     450.884E-03    -221.493E-03    -229.397E-03    -222.848E-03     444.336E-03    -221.493E-03     130.651E-03     480.429E-03     91.6302E+06    -46.9228E+06    -72.0704E+06    -146.686E+06    -75.1486E+06    -143.608E+06    -46.9228E+06    -13.9536E+06
            1912     164.001E-03     5.60177E-03     163.906E-03     453.193E-03    -221.979E-03    -231.247E-03    -221.642E-03     443.587E-03    -221.979E-03     158.433E-03     492.995E-03     83.8730E+06    -33.9378E+06    -66.1564E+06    -126.143E+06    -70.5344E+06    -121.765E+06    -33.9378E+06    -14.8939E+06
            1913     164.132E-03     6.39789E-03     164.008E-03     455.347E-03    -222.312E-03    -232.991E-03    -219.211E-03     441.567E-03    -222.312E-03     189.561E-03     506.589E-03     76.4942E+06    -18.7846E+06    -57.0740E+06    -103.301E+06    -63.3075E+06    -97.0671E+06    -18.7846E+06    -13.9745E+06
            1914     164.322E-03     7.19541E-03     164.164E-03     456.553E-03    -222.392E-03    -234.177E-03    -214.860E-03     437.236E-03    -222.392E-03     224.350E-03     520.737E-03     73.4095E+06    -2.93862E+06    -45.0265E+06    -85.2649E+06    -57.4868E+06    -72.8046E+06    -2.93862E+06    -13.3541E+06
            1915     164.529E-03     8.00138E-03     164.335E-03     456.999E-03    -221.787E-03    -235.416E-03    -209.905E-03     431.487E-03    -221.787E-03     258.511E-03     533.335E-03     72.6606E+06     15.3228E+06    -26.2005E+06    -67.3723E+06    -52.7100E+06    -40.8628E+06     15.3228E+06    -9.79892E+06
            1916     164.708E-03     8.82002E-03     164.471E-03     459.111E-03    -220.506E-03    -238.515E-03    -206.652E-03     427.248E-03    -220.506E-03     289.948E-03     545.665E-03     77.1704E+06     36.4286E+06     1.25354E+06    -51.3986E+06    -46.3935E+06    -3.75159E+06     36.4286E+06    -5.69522E+06
            1917     164.868E-03     9.63968E-03     164.585E-03     461.298E-03    -218.938E-03    -242.163E-03    -204.755E-03     423.891E-03    -218.938E-03     315.090E-03     557.589E-03     91.3032E+06     53.7967E+06     31.9158E+06    -45.6361E+06    -43.9090E+06     30.1887E+06     53.7967E+06    -3.77899E+06
            1918     165.062E-03     10.4628E-03     164.730E-03     463.034E-03    -217.838E-03    -245.157E-03    -205.559E-03     423.436E-03    -217.838E-03     325.241E-03     566.220E-03     107.697E+06     73.9729E+06     59.4172E+06    -40.0487E+06    -38.7213E+06     60.5562E+06     71.5066E+06    -1.60904E+06
            1919     165.347E-03     11.2767E-03     164.962E-03     472.090E-03    -217.128E-03    -254.868E-03    -212.724E-03     429.947E-03    -217.128E-03     339.575E-03     586.830E-03     110.783E+06     88.9631E+06     67.9549E+06    -30.6359E+06    -29.0431E+06     68.8284E+06     86.4968E+06     1.88088E+06
            1920     165.624E-03     12.1049E-03     165.181E-03     483.451E-03    -216.961E-03    -266.483E-03    -229.042E-03     446.010E-03    -216.961E-03     324.225E-03     607.134E-03     109.672E+06     97.8150E+06     59.3379E+06    -25.0559E+06    -23.7398E+06     58.0219E+06     97.8150E+06     3.49992E+06
            1921     165.931E-03     12.8918E-03     165.430E-03     511.210E-03    -218.014E-03    -293.133E-03    -255.421E-03     473.498E-03    -218.014E-03     337.903E-03     672.043E-03     110.427E+06     106.416E+06     59.1926E+06    -19.3805E+06    -18.2601E+06     58.0722E+06     106.416E+06    -3.90762E+06
            1922     166.422E-03     13.6713E-03     165.860E-03     534.447E-03    -220.656E-03    -313.585E-03    -286.353E-03     507.215E-03    -220.656E-03     277.538E-03     692.912E-03     134.927E+06     142.462E+06     83.7847E+06    -11.5945E+06    -9.72723E+06     81.9175E+06     142.462E+06    -3.18624E+06
            1923     165.381E-03     815.950E-06     165.379E-03     401.644E-03    -199.528E-03    -202.144E-03    -201.784E-03     401.284E-03    -199.528E-03     26.9606E-03     402.565E-03     122.135E+06    -68.4434E+06    -80.2552E+06    -196.026E+06    -74.0222E+06    -195.499E+06    -75.2032E+06    -6.55917E+06
            1924     165.361E-03     1.63445E-03     165.353E-03     403.493E-03    -201.098E-03    -202.414E-03    -201.264E-03     402.343E-03    -201.098E-03     50.4704E-03     406.261E-03     109.593E+06    -65.1334E+06    -78.4490E+06    -180.744E+06    -71.2614E+06    -179.735E+06    -73.3294E+06    -10.0387E+06
            1925     165.378E-03     2.44872E-03     165.360E-03     406.160E-03    -201.536E-03    -204.620E-03    -202.092E-03     403.632E-03    -201.536E-03     76.2687E-03     412.090E-03     107.031E+06    -59.7202E+06    -74.9554E+06    -173.437E+06    -69.8112E+06    -171.976E+06    -66.3249E+06    -11.9947E+06
            1926     165.408E-03     3.26474E-03     165.376E-03     409.201E-03    -202.008E-03    -207.152E-03    -202.648E-03     404.698E-03    -202.008E-03     102.897E-03     419.638E-03     105.192E+06    -53.8526E+06    -69.6495E+06    -165.613E+06    -67.5714E+06    -163.471E+06    -58.0723E+06    -14.1701E+06
            1927     165.463E-03     4.07913E-03     165.412E-03     412.587E-03    -202.416E-03    -210.157E-03    -202.842E-03     405.272E-03    -202.416E-03     131.818E-03     428.747E-03     101.858E+06    -45.2804E+06    -62.5307E+06    -153.930E+06    -63.5603E+06    -151.195E+06    -46.9865E+06    -15.3657E+06
            1928     165.535E-03     4.89352E-03     165.463E-03     415.656E-03    -202.613E-03    -213.203E-03    -202.132E-03     404.586E-03    -202.613E-03     162.753E-03     439.254E-03     98.1763E+06    -35.5451E+06    -57.8113E+06    -141.313E+06    -61.1775E+06    -137.946E+06    -35.5451E+06    -15.7895E+06
            1929     165.620E-03     5.70745E-03     165.521E-03     418.689E-03    -202.614E-03    -216.073E-03    -200.052E-03     402.668E-03    -202.614E-03     196.168E-03     450.663E-03     92.4763E+06    -21.1587E+06    -51.6811E+06    -122.888E+06    -55.9201E+06    -118.649E+06    -21.1587E+06    -12.6274E+06
            1930     165.721E-03     6.52799E-03     165.592E-03     422.456E-03    -202.594E-03    -219.698E-03    -197.744E-03     400.501E-03    -202.594E-03     231.056E-03     463.569E-03     82.7046E+06    -4.54671E+06    -48.0824E+06    -97.6139E+06    -52.2845E+06    -93.4118E+06    -4.54671E+06    -8.59848E+06
            1931     165.860E-03     7.35009E-03     165.697E-03     428.044E-03    -202.541E-03    -225.704E-03    -197.306E-03     399.646E-03    -202.541E-03     265.010E-03     480.057E-03     84.3801E+06     12.7867E+06    -37.3170E+06    -83.5335E+06    -51.7251E+06    -69.1254E+06     12.7867E+06    -4.37973E+06
            1932     166.001E-03     8.16999E-03     165.799E-03     435.884E-03    -202.296E-03    -233.932E-03    -199.496E-03     401.448E-03    -202.296E-03     295.057E-03     499.511E-03     88.0587E+06     32.8867E+06    -21.9608E+06    -67.8791E+06    -49.9184E+06    -39.9214E+06     32.8867E+06    -821.140E+03
            1933     166.206E-03     8.98888E-03     165.963E-03     444.758E-03    -202.101E-03    -242.565E-03    -203.328E-03     405.522E-03    -202.101E-03     318.543E-03     519.131E-03     97.0243E+06     54.7116E+06     5.15753E+06    -54.9369E+06    -49.2059E+06    -573.428E+03     54.7116E+06     3.64606E+06
            1934     166.375E-03     9.81413E-03     166.085E-03     453.864E-03    -202.040E-03    -251.332E-03    -209.359E-03     411.890E-03    -202.040E-03     333.607E-03     539.333E-03     114.127E+06     75.7846E+06     43.1345E+06    -50.7409E+06    -47.0670E+06     39.4606E+06     75.7846E+06     5.06090E+06
            1935     166.626E-03     10.6341E-03     166.286E-03     466.274E-03    -202.765E-03    -263.215E-03    -222.841E-03     425.900E-03    -202.765E-03     333.061E-03     561.729E-03     119.666E+06     88.2595E+06     63.2088E+06    -41.8720E+06    -40.6006E+06     61.9374E+06     88.2595E+06     2.05916E+06
            1936     166.923E-03     11.4320E-03     166.531E-03     488.052E-03    -204.704E-03    -283.370E-03    -245.011E-03     449.694E-03    -204.704E-03     334.463E-03     597.497E-03     117.606E+06     92.4443E+06     65.9512E+06    -36.0303E+06    -33.8779E+06     63.7987E+06     92.4443E+06     3.16676E+06
            1937     167.220E-03     12.2162E-03     166.774E-03     510.662E-03    -207.716E-03    -302.732E-03    -271.501E-03     479.432E-03    -207.716E-03     308.651E-03     631.250E-03     112.933E+06     101.039E+06     59.0588E+06    -26.0820E+06    -24.1909E+06     57.1676E+06     101.039E+06    -2.40689E+06
            1938     167.588E-03     12.9749E-03     167.085E-03     547.631E-03    -211.931E-03    -335.597E-03    -305.286E-03     517.320E-03    -211.931E-03     319.582E-03     704.465E-03     125.030E+06     120.057E+06     78.8955E+06    -18.0832E+06    -15.0853E+06     75.8976E+06     120.057E+06    -1.30111E+06
            1939     168.112E-03     13.7028E-03     167.552E-03     574.205E-03    -217.621E-03    -356.601E-03    -334.392E-03     551.996E-03    -217.621E-03     265.451E-03     728.323E-03     152.703E+06     150.861E+06     92.0164E+06    -19.6082E+06    -13.3936E+06     85.8019E+06     150.861E+06    -1.52137E+06
            1940     166.853E-03     837.373E-06     166.851E-03     357.287E-03    -178.015E-03    -179.281E-03    -178.445E-03     356.725E-03    -178.289E-03     31.8495E-03     357.931E-03     113.309E+06    -58.8065E+06    -65.4572E+06    -175.285E+06    -62.3636E+06    -174.741E+06    -62.4438E+06    -6.15937E+06
            1941     166.840E-03     1.67029E-03     166.832E-03     359.039E-03    -178.899E-03    -180.131E-03    -178.377E-03     357.284E-03    -178.899E-03     59.3232E-03     360.994E-03     102.110E+06    -57.4071E+06    -69.0130E+06    -164.606E+06    -65.3636E+06    -163.182E+06    -62.4807E+06    -11.3309E+06
            1942     166.853E-03     2.50764E-03     166.834E-03     360.618E-03    -178.987E-03    -181.609E-03    -177.794E-03     356.802E-03    -178.987E-03     88.7940E-03     364.764E-03     103.126E+06    -51.9326E+06    -70.2259E+06    -162.876E+06    -64.1802E+06    -160.672E+06    -60.1826E+06    -14.3878E+06
            1943     166.896E-03     3.34276E-03     166.863E-03     363.451E-03    -178.933E-03    -184.479E-03    -177.441E-03     356.412E-03    -178.933E-03     121.112E-03     370.625E-03     102.568E+06    -46.6729E+06    -63.0692E+06    -156.144E+06    -59.5018E+06    -153.846E+06    -52.5379E+06    -14.0934E+06
            1944     166.947E-03     4.17709E-03     166.895E-03     366.933E-03    -178.794E-03    -188.106E-03    -176.600E-03     355.428E-03    -178.794E-03     155.631E-03     378.186E-03     99.0227E+06    -42.8199E+06    -59.3274E+06    -148.420E+06    -59.6895E+06    -146.352E+06    -44.5260E+06    -12.9371E+06
            1945     167.010E-03     5.01433E-03     166.934E-03     371.109E-03    -178.584E-03    -192.808E-03    -175.744E-03     354.045E-03    -178.584E-03     190.835E-03     387.620E-03     100.159E+06    -32.3390E+06    -57.2176E+06    -140.668E+06    -61.1269E+06    -136.759E+06    -32.3390E+06    -9.57995E+06
            1946     167.083E-03     5.85598E-03     166.980E-03     378.540E-03    -178.388E-03    -200.249E-03    -176.991E-03     355.283E-03    -178.388E-03     225.668E-03     401.415E-03     95.7585E+06    -17.0877E+06    -60.1519E+06    -124.103E+06    -63.8657E+06    -120.389E+06    -17.0877E+06    -3.95048E+06
            1947     167.169E-03     6.69381E-03     167.035E-03     388.903E-03    -178.566E-03    -210.021E-03    -180.590E-03     359.472E-03    -178.566E-03     257.949E-03     419.472E-03     94.9926E+06    -440.588E+03    -55.2817E+06    -110.004E+06    -69.0736E+06    -96.2124E+06    -440.588E+03     2.84017E+06
            1948     167.284E-03     7.53073E-03     167.114E-03     402.328E-03    -179.330E-03    -223.194E-03    -188.029E-03     367.162E-03    -179.330E-03     287.669E-03     442.968E-03     101.289E+06     21.3044E+06    -42.4822E+06    -94.3511E+06    -68.0709E+06    -68.7624E+06     21.3044E+06     6.57392E+06
            1949     167.485E-03     8.35802E-03     167.277E-03     420.098E-03    -180.674E-03    -239.610E-03    -200.015E-03     380.503E-03    -180.674E-03     313.266E-03     472.837E-03     108.797E+06     42.8226E+06    -20.6373E+06    -79.0735E+06    -65.8093E+06    -33.9015E+06     42.8226E+06     9.94267E+06
            1950     167.743E-03     9.17480E-03     167.492E-03     439.382E-03    -182.879E-03    -256.470E-03    -214.850E-03     397.763E-03    -182.879E-03     329.902E-03     504.929E-03     117.915E+06     62.5202E+06     14.0592E+06    -69.4598E+06    -60.3158E+06     4.91518E+06     62.5202E+06     10.2183E+06
            1951     167.930E-03     9.98731E-03     167.632E-03     459.228E-03    -185.502E-03    -273.465E-03    -232.852E-03     418.614E-03    -185.502E-03     334.759E-03     537.033E-03     127.802E+06     84.4824E+06     54.3776E+06    -54.2417E+06    -48.9675E+06     49.4405E+06     84.1453E+06     9.28349E+06
            1952     168.156E-03     10.7863E-03     167.810E-03     484.486E-03    -189.143E-03    -295.124E-03    -259.110E-03     448.473E-03    -189.143E-03     325.932E-03     573.762E-03     132.235E+06     95.0468E+06     80.1336E+06    -43.4417E+06    -40.8956E+06     77.9246E+06     94.7097E+06     7.14444E+06
            1953     168.551E-03     11.5443E-03     168.155E-03     517.366E-03    -194.632E-03    -322.829E-03    -291.035E-03     485.572E-03    -194.632E-03     319.598E-03     622.247E-03     117.355E+06     91.8053E+06     67.3981E+06    -35.0475E+06    -33.8308E+06     66.1815E+06     91.8053E+06    -2.32110E+06
            1954     168.886E-03     12.2963E-03     168.437E-03     547.227E-03    -201.042E-03    -345.665E-03    -320.292E-03     521.855E-03    -201.042E-03     293.813E-03     662.902E-03     111.689E+06     97.4522E+06     60.0259E+06    -27.9876E+06    -26.5407E+06     58.5791E+06     97.4522E+06    -3.65389E+06
            1955     169.220E-03     13.0146E-03     168.719E-03     583.493E-03    -208.243E-03    -375.270E-03    -349.144E-03     557.368E-03    -208.243E-03     310.408E-03     733.368E-03     132.355E+06     118.197E+06     83.1039E+06    -26.7859E+06    -20.3262E+06     76.6442E+06     118.197E+06    -1.82554E+06
            1956     169.832E-03     13.7266E-03     169.277E-03     599.795E-03    -216.269E-03    -384.038E-03    -364.263E-03     580.020E-03    -216.269E-03     260.161E-03     748.183E-03     152.170E+06     150.966E+06     92.5712E+06     -18.769E+06    -4.77486E+06     78.5770E+06     150.966E+06    -1.47686E+06
            1957     168.234E-03     857.250E-06     168.232E-03     305.933E-03    -152.301E-03    -153.628E-03    -152.426E-03     305.196E-03    -152.767E-03     33.7929E-03     306.327E-03     92.8878E+06    -59.8359E+06    -68.7310E+06    -156.647E+06    -63.0034E+06    -155.977E+06    -66.2325E+06    -6.08305E+06
            1958     168.203E-03     1.71671E-03     168.195E-03     306.589E-03    -152.790E-03    -153.791E-03    -151.212E-03     304.202E-03    -152.981E-03     63.6637E-03     307.751E-03     86.3319E+06    -59.9232E+06    -69.9797E+06    -150.635E+06    -67.1109E+06    -149.465E+06    -63.9623E+06    -9.27985E+06
            1959     168.213E-03     2.57289E-03     168.193E-03     307.534E-03    -152.560E-03    -154.986E-03    -149.601E-03     302.149E-03    -152.560E-03     96.7378E-03     309.952E-03     88.5516E+06    -57.7870E+06    -75.0949E+06    -153.474E+06    -69.6658E+06    -151.687E+06    -65.0026E+06    -10.8241E+06
            1960     168.238E-03     3.43471E-03     168.203E-03     309.741E-03    -151.919E-03    -157.872E-03    -147.935E-03     299.804E-03    -151.919E-03     132.559E-03     313.844E-03     87.5883E+06    -62.2001E+06    -78.9362E+06    -156.589E+06    -75.8402E+06    -155.526E+06    -66.3589E+06    -6.57353E+06
            1961     168.299E-03     4.29892E-03     168.244E-03     314.934E-03    -151.307E-03    -163.531E-03    -147.846E-03     299.248E-03    -151.307E-03     168.762E-03     321.483E-03     90.0630E+06    -60.2198E+06    -77.9973E+06    -157.092E+06    -85.5789E+06    -149.511E+06    -60.2198E+06     1.44169E+06
            1962     168.381E-03     5.16237E-03     168.302E-03     325.152E-03    -151.298E-03    -173.839E-03    -151.588E-03     302.902E-03    -151.298E-03     204.862E-03     335.154E-03     94.3132E+06    -44.8305E+06    -83.2555E+06    -150.181E+06    -92.0231E+06    -141.414E+06    -44.8305E+06     7.27287E+06
            1963     168.511E-03     6.01899E-03     168.403E-03     340.724E-03    -151.901E-03    -188.728E-03    -160.165E-03     312.161E-03    -151.901E-03     238.681E-03     355.757E-03     101.259E+06    -25.2287E+06    -80.8724E+06    -141.656E+06    -98.1738E+06    -124.355E+06    -25.2287E+06     11.8858E+06
            1964     168.647E-03     6.87147E-03     168.507E-03     360.942E-03    -153.255E-03    -207.212E-03    -173.128E-03     326.857E-03    -153.255E-03     269.599E-03     383.022E-03     106.685E+06    -3.14092E+06    -66.7281E+06    -124.335E+06    -95.2192E+06    -95.8435E+06    -3.14092E+06     13.1561E+06
            1965     168.784E-03     7.71158E-03     168.607E-03     384.620E-03    -155.955E-03    -228.730E-03    -190.268E-03     346.158E-03    -155.955E-03     297.361E-03     416.856E-03     111.873E+06     19.3192E+06    -46.2947E+06    -105.210E+06    -87.3693E+06    -64.1358E+06     19.3192E+06     12.9272E+06
            1966     168.930E-03     8.54096E-03     168.714E-03     411.989E-03    -159.696E-03    -252.315E-03    -211.826E-03     371.500E-03    -159.696E-03     317.769E-03     456.814E-03     119.838E+06     41.0208E+06    -13.7544E+06    -92.2477E+06    -77.6067E+06    -28.3954E+06     41.0208E+06     11.4287E+06
            1967     169.210E-03     9.34776E-03     168.952E-03     444.538E-03    -165.041E-03    -279.571E-03    -240.130E-03     405.096E-03    -165.041E-03     328.141E-03     503.032E-03     125.780E+06     61.9418E+06     22.1858E+06    -76.1111E+06    -65.1486E+06     11.2233E+06     61.9418E+06     8.99375E+06
            1968     169.546E-03     10.1281E-03     169.243E-03     479.557E-03    -171.369E-03    -308.339E-03    -272.450E-03     443.668E-03    -171.369E-03     327.567E-03     551.695E-03     139.424E+06     85.9006E+06     68.5783E+06    -59.7040E+06    -53.5566E+06     65.1591E+06     83.1724E+06     5.98750E+06
            1969     169.782E-03     10.8984E-03     169.432E-03     514.881E-03    -178.645E-03    -335.775E-03    -305.171E-03     484.276E-03    -178.645E-03     315.267E-03     597.892E-03     136.640E+06      95.932E+06     89.5066E+06    -43.7601E+06    -40.6762E+06     89.1509E+06     93.2038E+06     369.203E+03
            1970     170.148E-03     11.6320E-03     169.750E-03     552.515E-03    -187.652E-03    -364.333E-03    -337.574E-03     525.756E-03    -187.652E-03     307.900E-03     649.758E-03     120.508E+06     96.2732E+06     79.4078E+06    -31.0307E+06    -30.4798E+06     82.1667E+06     92.9634E+06     618.960E+03
            1971     170.548E-03     12.3488E-03     170.101E-03     582.882E-03    -196.949E-03    -385.797E-03    -363.709E-03     560.793E-03    -196.949E-03     287.411E-03     691.456E-03     112.590E+06     96.1236E+06     62.7741E+06    -28.4003E+06    -25.1907E+06     62.8743E+06     92.8138E+06    -1.09432E+06
            1972     171.004E-03     13.0397E-03     170.506E-03     611.080E-03    -206.487E-03    -404.898E-03    -381.134E-03     587.315E-03    -206.487E-03     305.106E-03     754.977E-03     123.493E+06     111.310E+06     71.5442E+06    -26.2528E+06    -17.2137E+06     62.5051E+06     111.310E+06    -3.99775E+06
            1973     171.728E-03     13.7086E-03     171.180E-03     615.162E-03    -215.968E-03    -399.479E-03    -381.286E-03     596.969E-03    -215.968E-03     255.329E-03     761.342E-03     151.225E+06     144.016E+06     90.1990E+06    -25.4512E+06    -11.0453E+06     75.7932E+06     144.016E+06    -2.66752E+06
            1974     169.557E-03     881.792E-06     169.555E-03     248.925E-03    -124.027E-03    -124.894E-03    -123.730E-03     247.952E-03    -124.219E-03     34.5410E-03     249.116E-03     58.8625E+06    -77.1604E+06    -92.8934E+06    -141.718E+06    -83.1541E+06    -139.487E+06    -89.1315E+06    -8.91713E+06
            1975     169.529E-03     1.76336E-03     169.520E-03     248.885E-03    -124.050E-03    -124.831E-03    -121.468E-03     245.714E-03    -124.242E-03     65.9071E-03     249.379E-03     59.4099E+06    -85.7672E+06    -99.0482E+06    -150.068E+06    -89.1582E+06    -147.770E+06    -97.9553E+06    -3.59397E+06
            1976     169.537E-03     2.65214E-03     169.516E-03     250.673E-03    -123.585E-03    -127.104E-03    -120.060E-03     243.629E-03    -123.585E-03     100.128E-03     251.673E-03     65.3566E+06    -92.4533E+06    -104.438E+06    -162.592E+06    -101.478E+06    -158.734E+06    -99.2698E+06     7.09800E+06
            1977     169.567E-03     3.53703E-03     169.530E-03     256.063E-03    -123.092E-03    -133.007E-03    -120.643E-03     243.699E-03    -123.092E-03     135.100E-03     257.856E-03     79.5481E+06    -93.6636E+06    -107.824E+06    -178.905E+06    -119.507E+06    -166.037E+06    -94.8488E+06     14.8955E+06
            1978     169.619E-03     4.42519E-03     169.562E-03     266.999E-03    -123.148E-03    -143.690E-03    -125.216E-03     248.525E-03    -123.148E-03     169.428E-03     270.267E-03     88.2788E+06    -81.6683E+06    -108.964E+06    -179.460E+06    -127.962E+06    -160.461E+06    -81.6683E+06     20.0043E+06
            1979     169.699E-03     5.30641E-03     169.616E-03     284.861E-03    -124.348E-03    -160.347E-03    -135.434E-03     259.948E-03    -124.348E-03     204.244E-03     290.827E-03     95.1296E+06    -59.3056E+06    -103.399E+06    -168.090E+06    -127.618E+06    -143.872E+06    -59.3056E+06     21.5617E+06
            1980     169.814E-03     6.18014E-03     169.702E-03     309.296E-03    -126.676E-03    -182.647E-03    -151.772E-03     278.421E-03    -126.676E-03     238.512E-03     319.767E-03     105.808E+06    -32.0343E+06    -85.5225E+06    -152.844E+06    -117.229E+06    -121.138E+06    -32.0343E+06     18.2299E+06
            1981     170.002E-03     7.03575E-03     169.856E-03     340.036E-03    -130.316E-03    -209.687E-03    -174.283E-03     304.632E-03    -130.316E-03     269.854E-03     357.411E-03     109.273E+06    -5.73083E+06    -64.9252E+06    -128.442E+06    -103.956E+06    -89.4108E+06    -5.73083E+06     14.3559E+06
            1982     170.198E-03     7.87670E-03     170.016E-03     375.205E-03    -135.753E-03    -239.961E-03    -201.853E-03     337.097E-03    -135.753E-03     296.497E-03     402.468E-03     114.062E+06     17.2688E+06    -36.6542E+06    -109.691E+06    -89.2628E+06    -57.0829E+06     17.2688E+06     10.2068E+06
            1983     170.436E-03     8.69461E-03     170.214E-03     414.725E-03    -142.255E-03    -272.725E-03    -234.466E-03     376.466E-03    -142.255E-03     314.715E-03     453.765E-03     118.054E+06     39.3049E+06    -3.38573E+06    -90.9097E+06    -73.0531E+06    -21.2423E+06     39.3049E+06     5.93612E+06
            1984     170.668E-03     9.49180E-03     170.403E-03     459.689E-03    -150.441E-03    -309.109E-03    -273.430E-03     424.010E-03    -150.441E-03     322.528E-03     511.612E-03     122.420E+06     62.8592E+06     35.0840E+06    -68.2050E+06    -59.0950E+06     25.9740E+06     62.8592E+06     5.69856E+06
            1985     171.095E-03     10.2415E-03     170.788E-03     505.589E-03    -160.277E-03    -345.526E-03    -313.923E-03     473.985E-03    -160.277E-03     320.881E-03     571.463E-03     132.435E+06     88.9445E+06     75.3043E+06    -49.3931E+06    -44.0394E+06     74.8949E+06     84.0003E+06     1.77908E+06
            1986     171.362E-03     10.9807E-03     171.010E-03     547.327E-03    -171.202E-03    -376.057E-03    -349.249E-03     520.519E-03    -171.202E-03     309.084E-03     624.484E-03     132.252E+06     102.292E+06     90.7317E+06    -35.3366E+06    -33.5320E+06     97.8398E+06     93.3790E+06     1.04118E+06
            1987     171.969E-03     11.6649E-03     171.573E-03     587.047E-03    -183.264E-03    -403.361E-03    -379.717E-03     563.403E-03    -183.264E-03     301.975E-03     677.064E-03     115.503E+06     95.6882E+06     70.0679E+06    -27.3944E+06    -25.9196E+06     75.8713E+06     88.4100E+06     2.43987E+06
            1988     172.425E-03     12.3634E-03     171.981E-03     611.072E-03    -194.851E-03    -416.415E-03    -396.709E-03     591.366E-03    -194.851E-03     280.472E-03     713.757E-03     112.548E+06     99.6423E+06     64.0330E+06    -23.1156E+06    -16.7090E+06     64.8251E+06     92.4437E+06     2.43295E+06
            1989     172.880E-03     13.0327E-03     172.388E-03     627.346E-03    -205.711E-03    -421.718E-03    -399.915E-03     605.542E-03    -205.711E-03     297.071E-03     766.746E-03     124.981E+06     117.111E+06     79.8620E+06    -20.5392E+06    -9.89664E+06     73.1083E+06     113.223E+06     3.29976E+06
            1990     173.474E-03     13.7165E-03     172.931E-03     623.746E-03    -215.776E-03    -407.792E-03    -390.708E-03     606.661E-03    -215.776E-03     251.062E-03     766.587E-03     145.478E+06     141.239E+06     90.1604E+06    -21.7894E+06    -5.31894E+06     73.6899E+06     141.239E+06     133.821E+03
            1991     170.814E-03     910.216E-06     170.811E-03     187.351E-03    -93.2091E-03    -94.1536E-03    -92.8205E-03     186.018E-03    -93.2091E-03     35.4233E-03     187.441E-03     56.2288E+06    -104.196E+06    -122.091E+06    -166.860E+06    -127.809E+06    -145.916E+06    -119.422E+06     13.9736E+06
            1992     170.771E-03     1.82128E-03     170.761E-03     191.542E-03    -93.9448E-03    -97.6080E-03    -93.5538E-03     187.487E-03    -93.9448E-03     65.7390E-03     191.731E-03     58.8662E+06    -124.436E+06    -142.795E+06    -190.024E+06    -149.949E+06    -164.511E+06    -142.795E+06     20.9324E+06
            1993     170.782E-03     2.72975E-03     170.760E-03     198.496E-03    -94.5848E-03    -103.844E-03    -95.5014E-03     190.154E-03    -94.5848E-03     97.5992E-03     198.929E-03     61.0982E+06    -138.093E+06    -145.488E+06    -202.264E+06    -163.041E+06    -177.472E+06    -145.332E+06     26.1339E+06
            1994     170.814E-03     3.64131E-03     170.775E-03     210.932E-03    -95.7949E-03    -115.110E-03    -101.325E-03     197.147E-03    -95.7949E-03     130.437E-03     211.917E-03     79.0018E+06    -123.153E+06    -134.041E+06    -206.728E+06    -160.181E+06    -179.402E+06    -124.339E+06     28.5523E+06
            1995     170.894E-03     4.54130E-03     170.834E-03     229.999E-03    -97.8595E-03    -131.987E-03    -112.119E-03     210.131E-03    -97.8595E-03     164.525E-03     232.327E-03     88.2745E+06    -93.4731E+06    -121.494E+06    -191.884E+06    -149.636E+06    -163.742E+06    -93.4731E+06     26.6896E+06
            1996     171.016E-03     5.43435E-03     170.930E-03     255.315E-03    -101.047E-03    -154.093E-03    -128.345E-03     229.566E-03    -101.047E-03     198.687E-03     260.333E-03     95.0012E+06    -61.8762E+06    -101.610E+06    -170.035E+06    -132.593E+06    -139.051E+06    -61.8762E+06     20.4240E+06
            1997     171.163E-03     6.31287E-03     171.046E-03     287.349E-03    -105.617E-03    -181.827E-03    -151.203E-03     256.725E-03    -105.617E-03     231.755E-03     296.418E-03     100.798E+06    -33.4599E+06    -79.2737E+06    -147.729E+06    -115.871E+06    -111.132E+06    -33.4599E+06     13.4103E+06
            1998     171.311E-03     7.17613E-03     171.160E-03     326.696E-03    -111.714E-03    -214.894E-03    -180.929E-03     292.731E-03    -111.714E-03     262.515E-03     342.063E-03     105.648E+06    -8.41584E+06    -53.7745E+06    -127.627E+06    -99.5226E+06    -81.8793E+06    -8.41584E+06     6.98697E+06
            1999     171.606E-03     8.00685E-03     171.420E-03     373.142E-03    -119.668E-03    -253.586E-03    -218.077E-03     337.632E-03    -119.668E-03     289.455E-03     397.443E-03     107.549E+06     15.4001E+06    -26.5199E+06    -105.338E+06    -80.7282E+06    -51.1301E+06     15.4001E+06     428.513E+03
            2000     171.902E-03     8.81285E-03     171.676E-03     425.395E-03    -129.129E-03    -296.488E-03    -261.872E-03     390.780E-03    -129.129E-03     307.748E-03     460.266E-03     107.265E+06     39.0379E+06     5.33237E+06    -78.6170E+06    -65.1288E+06    -8.15583E+06     39.0379E+06     231.881E+03
            2001     172.247E-03     9.58125E-03     171.981E-03     478.296E-03    -140.049E-03    -338.078E-03    -306.146E-03     446.364E-03    -140.049E-03     315.862E-03     525.027E-03     109.103E+06     59.7544E+06     39.2696E+06    -56.7723E+06    -50.6406E+06     33.1380E+06     59.7544E+06    -1.76821E+06
            2002     172.634E-03     10.3245E-03     172.325E-03     528.724E-03    -152.716E-03    -375.986E-03    -347.553E-03     500.291E-03    -152.716E-03     314.883E-03     588.376E-03     125.384E+06     88.5593E+06     71.5533E+06    -44.0452E+06    -42.0964E+06     78.7151E+06     79.4488E+06     60.8761E+03
            2003     173.122E-03     11.0302E-03     172.770E-03     574.638E-03    -166.472E-03    -408.747E-03    -384.721E-03     550.611E-03    -166.472E-03     302.546E-03     646.726E-03     126.995E+06     97.9815E+06     78.4209E+06    -37.4406E+06    -36.1848E+06     90.2442E+06     84.9024E+06     1.67060E+06
            2004     173.662E-03     11.7078E-03     173.267E-03     612.031E-03    -180.439E-03    -431.855E-03    -410.746E-03     590.922E-03    -180.439E-03     293.457E-03     698.225E-03     109.413E+06     88.1214E+06     57.7935E+06    -30.5786E+06    -28.5851E+06     63.9516E+06     79.9697E+06    -3.39532E+06
            2005     174.159E-03     12.3759E-03     173.719E-03     626.560E-03    -193.464E-03    -433.117E-03    -415.329E-03     608.773E-03    -193.464E-03     271.408E-03     723.978E-03     119.576E+06     98.2953E+06     66.3322E+06    -31.2786E+06    -23.3121E+06     66.4378E+06     90.2232E+06    -1.80183E+06
            2006     174.607E-03     13.0534E-03     174.118E-03     633.526E-03    -205.114E-03    -428.442E-03    -408.242E-03     613.326E-03    -205.114E-03     287.696E-03     766.603E-03     132.110E+06     115.379E+06     84.1542E+06    -28.2298E+06    -17.4600E+06     77.2733E+06     111.491E+06    -4.09827E+06
            2007     175.259E-03     13.7245E-03     174.721E-03     626.431E-03    -215.472E-03    -410.868E-03    -394.841E-03     610.404E-03    -215.472E-03     244.438E-03     764.369E-03     143.652E+06     133.597E+06     84.7976E+06    -26.7297E+06    -10.5979E+06     68.6658E+06     133.597E+06    -4.78982E+06
            2008     171.982E-03     942.635E-06     171.980E-03     129.490E-03    -63.3391E-03    -66.1652E-03    -64.6062E-03     127.931E-03    -63.3391E-03     32.3901E-03     129.738E-03     80.1749E+06    -161.615E+06    -199.509E+06    -250.003E+06    -210.880E+06    -197.475E+06    -202.773E+06     35.9606E+06
            2009     171.983E-03     1.87662E-03     171.973E-03     140.762E-03    -65.8629E-03    -74.9128E-03    -70.2258E-03     136.075E-03    -65.8629E-03     61.3155E-03     141.427E-03     79.6877E+06    -149.320E+06    -173.792E+06    -238.107E+06    -200.040E+06    -187.387E+06    -173.792E+06     42.9024E+06
            2010     172.000E-03     2.80722E-03     171.977E-03     156.900E-03    -68.8953E-03    -88.0297E-03    -78.6773E-03     147.548E-03    -68.8953E-03     93.0558E-03     158.270E-03     71.5542E+06    -150.301E+06    -160.542E+06    -226.124E+06    -190.930E+06    -186.917E+06    -159.120E+06     33.1917E+06
            2011     172.059E-03     3.72536E-03     172.019E-03     177.964E-03    -72.7082E-03    -105.184E-03    -90.4007E-03     163.181E-03    -72.7082E-03     125.580E-03     179.956E-03     74.2169E+06    -137.965E+06    -145.451E+06    -215.534E+06    -179.280E+06    -181.705E+06    -137.965E+06     22.7526E+06
            2012     172.156E-03     4.63935E-03     172.093E-03     204.402E-03    -77.3244E-03    -126.827E-03    -106.504E-03     184.078E-03    -77.3244E-03     158.871E-03     207.731E-03     77.2449E+06    -105.363E+06    -126.649E+06    -190.380E+06    -159.058E+06    -157.972E+06    -105.363E+06     15.2100E+06
            2013     172.259E-03     5.53498E-03     172.170E-03     237.534E-03    -83.0172E-03    -154.225E-03    -128.741E-03     212.050E-03    -83.0172E-03     193.220E-03     243.352E-03     84.8205E+06    -71.1068E+06    -100.607E+06    -165.693E+06    -137.499E+06    -128.802E+06    -71.1068E+06     6.21414E+06
            2014     172.470E-03     6.41292E-03     172.350E-03     277.333E-03    -90.1665E-03    -187.042E-03    -157.503E-03     247.794E-03    -90.1665E-03     226.629E-03     286.810E-03     102.130E+06    -40.8599E+06    -66.1810E+06    -152.187E+06    -113.151E+06    -105.217E+06    -40.8599E+06    -2.56783E+06
            2015     172.717E-03     7.26541E-03     172.564E-03     323.999E-03    -98.6872E-03    -225.102E-03    -193.393E-03     292.291E-03    -98.6872E-03     255.914E-03     339.028E-03     103.972E+06    -13.0410E+06    -40.5727E+06    -127.078E+06    -89.8773E+06    -77.7737E+06    -13.0410E+06    -7.40037E+06
            2016     173.017E-03     8.09717E-03     172.827E-03     378.595E-03    -108.873E-03    -269.422E-03    -237.494E-03     346.667E-03    -108.873E-03     279.915E-03     400.925E-03     95.7437E+06     11.1646E+06    -22.8395E+06    -95.2669E+06    -76.9098E+06    -41.1967E+06     11.1646E+06    -5.12765E+06
            2017     173.376E-03     8.88486E-03     173.149E-03     436.978E-03    -120.964E-03    -315.966E-03    -285.267E-03     406.279E-03    -120.964E-03     297.147E-03     468.274E-03     98.1628E+06     32.0397E+06     3.50146E+06    -74.7916E+06    -66.2654E+06    -5.02465E+06     32.0397E+06    -5.91905E+06
            2018     173.830E-03     9.63974E-03     173.562E-03     494.034E-03    -134.414E-03    -359.655E-03    -331.312E-03     465.691E-03    -134.414E-03     305.036E-03     535.734E-03     110.024E+06     49.3079E+06     37.0182E+06    -64.8552E+06    -61.9491E+06     34.1121E+06     49.3079E+06    -5.77806E+06
            2019     174.279E-03     10.3660E-03     173.970E-03     547.341E-03    -149.126E-03    -398.073E-03    -373.013E-03     522.281E-03    -149.126E-03     302.763E-03     600.386E-03     127.852E+06     74.4151E+06     64.3733E+06    -57.9478E+06    -57.5926E+06     72.7937E+06     65.6396E+06    -3.23733E+06
            2020     174.856E-03     11.0510E-03     174.507E-03     592.240E-03    -164.385E-03    -428.136E-03    -406.456E-03     570.561E-03    -164.385E-03     293.703E-03     657.489E-03     139.384E+06     97.4833E+06     67.4290E+06    -53.9381E+06    -52.9958E+06     90.0594E+06     73.9105E+06    -7.65002E+06
            2021     175.444E-03     11.7088E-03     175.053E-03     622.805E-03    -179.165E-03    -444.013E-03    -424.003E-03     602.795E-03    -179.165E-03     289.433E-03     703.090E-03     138.174E+06     94.4895E+06     67.2197E+06    -54.5860E+06    -48.5544E+06     80.1685E+06      75.509E+06    -15.2280E+06
            2022     175.922E-03     12.3867E-03     175.485E-03     631.895E-03    -192.729E-03    -439.314E-03    -421.842E-03     614.423E-03    -192.729E-03     270.759E-03     722.732E-03     125.303E+06     89.6686E+06     66.5069E+06    -44.9229E+06    -35.0645E+06     60.8318E+06     85.4854E+06    -23.1878E+06
            2023     176.416E-03     13.0474E-03     175.933E-03     636.177E-03    -204.812E-03    -431.620E-03    -412.509E-03     617.066E-03    -204.812E-03     281.517E-03     759.019E-03     124.947E+06     104.058E+06     68.5044E+06    -33.9535E+06    -20.8090E+06     55.3599E+06     104.058E+06    -19.2576E+06
            2024     177.055E-03     13.7161E-03     176.523E-03     625.960E-03    -215.437E-03    -410.648E-03    -395.552E-03     610.864E-03    -215.437E-03     239.381E-03     756.554E-03     147.741E+06     128.637E+06     82.2468E+06    -35.8111E+06    -5.14160E+06     51.5774E+06     128.637E+06    -7.63274E+06
            2025     173.104E-03     960.599E-06     173.101E-03     89.5713E-03    -43.0556E-03    -46.5281E-03    -45.1578E-03     88.2011E-03    -43.0556E-03     25.4858E-03     89.8912E-03     135.584E+06    -226.549E+06    -345.707E+06    -368.577E+06    -349.101E+06    -242.761E+06    -348.971E+06     8.96189E+06
            2026     173.112E-03     1.91851E-03     173.102E-03     103.704E-03    -46.1782E-03    -57.5324E-03    -53.1540E-03     99.3252E-03    -46.1782E-03     51.3844E-03     104.731E-03     125.619E+06    -184.473E+06    -282.829E+06    -315.910E+06    -294.180E+06    -206.055E+06    -282.977E+06     13.5333E+06
            2027     173.159E-03     2.86110E-03     173.135E-03     125.938E-03    -50.5909E-03    -75.4367E-03    -66.2128E-03     116.714E-03    -50.5909E-03     83.7660E-03     128.129E-03     99.3811E+06    -157.867E+06    -216.028E+06    -264.761E+06    -242.950E+06    -180.796E+06    -214.910E+06     9.73230E+06
            2028     173.233E-03     3.79329E-03     173.191E-03     155.071E-03    -56.2533E-03    -98.7540E-03    -83.7223E-03     140.040E-03    -56.2533E-03     119.675E-03     158.368E-03     84.1404E+06    -138.767E+06    -164.075E+06    -229.379E+06    -199.745E+06    -171.996E+06    -160.480E+06    -978.645E+03
            2029     173.341E-03     4.70450E-03     173.277E-03     190.087E-03    -63.0805E-03    -126.833E-03    -106.306E-03     169.560E-03    -63.0805E-03     155.987E-03     195.094E-03     70.7874E+06    -117.222E+06    -130.366E+06    -192.750E+06    -166.640E+06    -153.634E+06    -120.063E+06    -8.73158E+06
            2030     173.548E-03     5.60111E-03     173.458E-03     230.551E-03    -71.2355E-03    -159.129E-03    -134.173E-03     205.596E-03    -71.2355E-03     190.782E-03     237.771E-03     80.8069E+06    -80.0980E+06    -95.1112E+06    -166.529E+06    -138.246E+06    -119.005E+06    -84.4867E+06    -13.6873E+06
            2031     173.781E-03     6.47393E-03     173.660E-03     277.262E-03    -80.7985E-03    -196.529E-03    -168.711E-03     249.444E-03    -80.7985E-03     222.483E-03     287.989E-03     107.330E+06    -49.5373E+06    -60.9517E+06    -162.114E+06    -121.324E+06    -96.2659E+06    -55.0132E+06    -22.7976E+06
            2032     174.070E-03     7.32317E-03     173.916E-03     331.352E-03    -91.8151E-03    -239.846E-03    -211.015E-03     302.522E-03    -91.8151E-03     249.549E-03     347.119E-03     114.410E+06    -26.9571E+06    -42.7112E+06    -148.390E+06    -111.391E+06    -75.9700E+06    -30.6972E+06    -25.6988E+06
            2033     174.464E-03     8.12687E-03     174.274E-03     390.786E-03    -104.396E-03    -286.377E-03    -258.066E-03     362.475E-03    -104.396E-03     270.425E-03     412.172E-03     103.664E+06    -5.70937E+06    -28.0231E+06    -116.744E+06    -97.0241E+06    -47.7431E+06    -5.70937E+06    -22.6881E+06
            2034     174.910E-03     8.90562E-03     174.683E-03     450.281E-03    -118.686E-03    -331.506E-03    -305.153E-03     423.928E-03    -118.686E-03     281.181E-03     478.097E-03     106.713E+06     18.2267E+06    -3.38089E+06    -95.2195E+06    -85.8640E+06    -12.7364E+06     18.2267E+06    -18.8278E+06
            2035     175.423E-03     9.64866E-03     175.157E-03     507.209E-03    -134.069E-03    -373.378E-03    -349.952E-03     483.783E-03    -134.069E-03     282.178E-03     543.278E-03     107.262E+06     39.9434E+06     22.8374E+06    -73.8317E+06    -69.8556E+06     18.8613E+06     39.9434E+06    -12.7634E+06
            2036     175.980E-03     10.3543E-03     175.675E-03     556.734E-03    -149.894E-03    -406.926E-03    -386.107E-03     535.915E-03    -149.894E-03     279.531E-03     602.167E-03     114.846E+06     67.8289E+06     52.3990E+06    -53.2596E+06    -51.6966E+06     57.1798E+06     61.4851E+06    -8.42233E+06
            2037     176.587E-03     11.0355E-03     176.241E-03     592.741E-03    -165.396E-03    -427.031E-03    -407.843E-03     573.553E-03    -165.396E-03     276.788E-03     649.076E-03     130.348E+06     106.852E+06     84.0805E+06    -32.7267E+06    -31.8773E+06     106.003E+06     84.0805E+06     314.858E+03
            2038     177.157E-03     11.7191E-03     176.769E-03     615.170E-03    -180.122E-03    -434.821E-03    -416.628E-03     596.977E-03    -180.122E-03     273.611E-03     685.503E-03     135.754E+06     120.608E+06     100.193E+06    -23.3815E+06    -14.5922E+06     110.011E+06     102.001E+06    -606.646E+03
            2039     177.719E-03     12.3841E-03     177.287E-03     624.775E-03    -193.633E-03    -431.043E-03    -414.907E-03     608.639E-03    -193.633E-03     258.414E-03     708.269E-03     124.361E+06     118.052E+06     88.7251E+06    -16.3581E+06    -7.66237E+06     82.2084E+06     115.873E+06    -4.22947E+06
            2040     178.235E-03     13.0512E-03     177.757E-03     629.466E-03    -205.612E-03    -423.991E-03    -406.697E-03     612.172E-03    -205.612E-03     266.552E-03     741.532E-03     128.829E+06     130.152E+06     70.2521E+06    -17.5361E+06    -6.97694E+06     59.6929E+06     130.152E+06    -5.10305E+06
            2041     178.874E-03     13.7150E-03     178.347E-03     616.242E-03    -216.019E-03    -400.337E-03    -386.766E-03     602.671E-03    -216.019E-03     226.606E-03     734.631E-03     164.226E+06     146.328E+06     70.5165E+06    -41.9848E+06    -9.81627E+06     38.3479E+06     146.328E+06    -5.61140E+06
            2042     174.173E-03     967.361E-06     174.170E-03     76.9455E-03    -37.1302E-03    -39.8295E-03    -38.9230E-03     76.1660E-03    -37.2573E-03     17.2016E-03     77.1813E-03     168.874E+06    -224.517E+06    -387.939E+06    -398.141E+06    -392.627E+06    -228.550E+06    -389.419E+06    -23.3317E+06
            2043     174.203E-03     1.92776E-03     174.193E-03     88.5760E-03    -39.7155E-03    -48.8619E-03    -46.1050E-03     85.8192E-03    -39.7155E-03     36.7234E-03     89.3712E-03     180.591E+06    -185.893E+06    -352.335E+06    -375.970E+06    -365.329E+06    -196.386E+06    -352.483E+06    -38.8131E+06
            2044     174.269E-03     2.88376E-03     174.245E-03     108.767E-03    -43.7664E-03    -64.9815E-03    -58.4030E-03     102.189E-03    -43.7664E-03     65.0360E-03     110.522E-03     161.021E+06    -152.801E+06    -285.748E+06    -329.860E+06    -313.065E+06    -169.448E+06    -285.896E+06    -45.0230E+06
            2045     174.365E-03     3.82194E-03     174.323E-03     139.263E-03    -49.5289E-03    -89.7344E-03    -77.8160E-03     127.344E-03    -49.5289E-03     101.020E-03     142.520E-03     147.913E+06    -126.318E+06    -222.186E+06    -292.178E+06    -259.985E+06    -158.511E+06    -222.186E+06    -50.7035E+06
            2046     174.566E-03     4.74332E-03     174.502E-03     179.727E-03    -57.1143E-03    -122.623E-03    -104.918E-03     162.023E-03    -57.1143E-03     141.598E-03     185.049E-03     133.047E+06    -105.657E+06    -171.201E+06    -254.501E+06    -210.932E+06    -149.227E+06    -171.201E+06    -54.8835E+06
            2047     174.780E-03     5.63179E-03     174.690E-03     228.562E-03    -66.6407E-03    -161.868E-03    -139.685E-03     206.379E-03    -66.6407E-03     180.383E-03     236.521E-03     128.264E+06    -75.1397E+06    -125.694E+06    -218.547E+06    -172.659E+06    -121.028E+06    -125.694E+06    -55.0866E+06
            2048     175.049E-03     6.49757E-03     174.928E-03     284.292E-03    -78.0863E-03    -206.153E-03    -181.772E-03     259.911E-03    -78.0863E-03     212.652E-03     295.920E-03     133.768E+06    -46.2823E+06    -76.8161E+06    -191.045E+06    -141.076E+06    -96.2511E+06    -76.8161E+06    -47.1239E+06
            2049     175.470E-03     7.31925E-03     175.317E-03     344.659E-03    -91.3975E-03    -253.414E-03    -228.797E-03     320.042E-03    -91.3975E-03     236.812E-03     360.578E-03     121.940E+06    -23.5103E+06    -44.8698E+06    -154.220E+06    -114.210E+06    -78.5806E+06    -29.8101E+06    -38.0234E+06
            2050     175.908E-03     8.12013E-03     175.721E-03     406.569E-03    -106.268E-03    -300.492E-03    -277.425E-03     383.502E-03    -106.268E-03     249.579E-03     427.043E-03     118.114E+06     3.49129E+06    -24.4748E+06    -125.040E+06    -92.3375E+06    -57.1775E+06     3.49129E+06    -33.7808E+06
            2051     176.463E-03     8.87370E-03     176.240E-03     465.504E-03    -122.360E-03    -343.224E-03    -323.208E-03     445.487E-03    -122.360E-03     249.035E-03     490.643E-03     105.033E+06     26.1280E+06    -11.4551E+06    -88.5216E+06    -66.3803E+06    -33.5963E+06     26.1280E+06    -24.2149E+06
            2052     177.020E-03     9.59600E-03     176.760E-03     515.857E-03    -139.012E-03    -376.792E-03    -359.665E-03     498.730E-03    -139.012E-03     243.219E-03     546.616E-03     88.5371E+06     45.3556E+06     5.33542E+06    -53.8514E+06    -47.7536E+06    -762.350E+03     45.3556E+06    -15.8718E+06
            2053     177.634E-03     10.2957E-03     177.335E-03     553.095E-03    -155.516E-03    -397.363E-03    -382.127E-03     537.859E-03    -155.516E-03     237.119E-03     590.353E-03     102.205E+06     73.6332E+06     50.0888E+06    -37.8535E+06    -35.5283E+06     51.8893E+06     69.5075E+06    -10.7510E+06
            2054     178.264E-03     10.9873E-03     177.926E-03     576.073E-03    -170.851E-03    -404.755E-03    -390.908E-03     562.227E-03    -170.851E-03     229.731E-03     622.067E-03     122.416E+06     95.8958E+06     84.8323E+06    -31.5588E+06    -24.9457E+06     85.2075E+06     88.9076E+06    -14.4395E+06
            2055     178.896E-03     11.6620E-03     178.515E-03     588.257E-03    -184.820E-03    -403.101E-03    -389.950E-03     575.106E-03    -184.820E-03     225.829E-03     645.942E-03     138.789E+06     114.083E+06     97.9059E+06    -31.6024E+06    -19.7910E+06     91.1363E+06     109.042E+06    -11.1827E+06
            2056     179.534E-03     12.3397E-03     179.110E-03     595.286E-03    -197.373E-03    -397.959E-03    -384.780E-03     582.107E-03    -197.373E-03     227.029E-03     667.929E-03     143.498E+06     129.597E+06     84.1979E+06    -29.5783E+06    -22.7978E+06     79.5965E+06     127.418E+06    -3.12970E+06
            2057     180.105E-03     13.0103E-03     179.635E-03     602.275E-03    -207.992E-03    -394.401E-03    -378.062E-03     585.936E-03    -207.992E-03     251.760E-03     704.307E-03     144.348E+06     148.079E+06     73.9053E+06    -17.9756E+06    -14.0124E+06     69.9420E+06     148.079E+06    -169.291E+03
            2058     180.713E-03     13.6887E-03     180.194E-03     595.080E-03    -217.012E-03    -377.922E-03    -364.352E-03     581.509E-03    -217.012E-03     222.598E-03     703.906E-03     188.356E+06     176.654E+06     83.3362E+06    -39.7684E+06     1.11752E+06     42.4503E+06     176.654E+06     2.46922E+06
            2059     175.261E-03     958.070E-06     175.258E-03     94.7061E-03    -46.5801E-03    -48.1321E-03    -47.7819E-03     94.4979E-03    -46.7222E-03     6.09748E-03     95.0182E-03     136.901E+06    -168.804E+06    -295.396E+06    -313.683E+06    -305.583E+06    -175.424E+06    -296.877E+06    -28.7276E+06
            2060     175.291E-03     1.91357E-03     175.280E-03     102.879E-03    -48.6803E-03    -54.2088E-03    -53.3920E-03     102.063E-03    -48.6803E-03     15.0282E-03     103.803E-03     173.177E+06    -124.612E+06    -273.505E+06    -314.193E+06    -293.659E+06    -145.146E+06    -273.505E+06    -56.9197E+06
            2061     175.363E-03     2.85964E-03     175.340E-03     117.653E-03    -52.2241E-03    -65.4372E-03    -63.1486E-03     115.365E-03    -52.2241E-03     30.8226E-03     119.721E-03     185.996E+06    -105.464E+06    -250.115E+06    -314.137E+06    -279.112E+06    -140.488E+06    -250.115E+06    -77.2170E+06
            2062     175.517E-03     3.79896E-03     175.476E-03     140.795E-03    -57.4670E-03    -83.3178E-03    -78.4708E-03     135.948E-03    -57.4670E-03     54.8136E-03     144.403E-03     191.412E+06    -86.6766E+06    -221.703E+06    -304.912E+06    -256.152E+06    -135.436E+06    -221.703E+06     -86.584E+06
            2063     175.715E-03     4.71247E-03     175.651E-03     175.099E-03    -64.6098E-03    -110.499E-03    -102.077E-03     166.677E-03    -64.6098E-03     87.5148E-03     180.239E-03     194.440E+06    -66.8796E+06    -191.681E+06    -290.702E+06    -227.166E+06    -130.416E+06    -191.681E+06    -95.2633E+06
            2064     175.969E-03     5.61204E-03     175.879E-03     221.996E-03    -74.0763E-03    -147.903E-03    -136.024E-03     210.117E-03    -74.0763E-03     122.983E-03     229.175E-03     189.094E+06    -47.6292E+06    -157.588E+06    -265.216E+06    -192.688E+06    -120.157E+06    -157.588E+06    -94.4681E+06
            2065     176.406E-03     6.45847E-03     176.287E-03     279.858E-03    -85.9793E-03    -193.852E-03    -179.650E-03     265.656E-03    -85.9793E-03     155.145E-03     289.974E-03     180.864E+06    -37.9541E+06    -121.496E+06    -242.534E+06    -163.978E+06    -116.510E+06    -121.496E+06    -86.5042E+06
            2066     176.787E-03     7.28252E-03     176.637E-03     344.748E-03    -100.442E-03    -244.448E-03    -229.978E-03     330.279E-03    -100.442E-03     175.057E-03     358.065E-03     177.006E+06    -13.3638E+06    -89.8880E+06    -213.301E+06    -134.913E+06    -102.440E+06    -79.1993E+06    -82.3675E+06
            2067     177.349E-03     8.04619E-03     177.166E-03     408.261E-03    -117.100E-03    -291.381E-03    -278.894E-03     395.775E-03    -117.100E-03     176.685E-03     424.986E-03     163.986E+06     8.55599E+06    -63.7485E+06    -178.077E+06    -106.598E+06    -84.9500E+06    -41.7216E+06    -73.3130E+06
            2068     177.911E-03     8.78208E-03     177.694E-03     462.153E-03    -134.538E-03    -327.749E-03    -317.544E-03     451.948E-03    -134.538E-03     170.610E-03     482.148E-03     154.646E+06     12.5699E+06    -49.4051E+06    -160.806E+06    -93.9440E+06    -83.1601E+06    -20.5374E+06    -68.3363E+06
            2069     178.568E-03     9.48644E-03     178.315E-03     504.217E-03    -151.576E-03    -352.357E-03    -343.583E-03     495.442E-03    -151.576E-03     165.850E-03     527.452E-03     148.427E+06     25.2517E+06    -19.1915E+06    -136.124E+06    -82.3623E+06     -55.988E+06     8.28681E+06    -60.5524E+06
            2070     179.177E-03     10.1835E-03     178.888E-03     531.836E-03    -167.760E-03    -363.690E-03    -355.803E-03     523.949E-03    -167.760E-03     162.466E-03     559.655E-03     148.019E+06     50.5207E+06     31.9259E+06    -105.481E+06    -68.6892E+06    -295.602E+03     45.9501E+06    -53.7305E+06
            2071     179.865E-03     10.8605E-03     179.537E-03     544.540E-03    -182.290E-03    -362.168E-03    -354.446E-03     536.819E-03    -182.290E-03     164.632E-03     579.545E-03     164.805E+06     96.9505E+06     60.8161E+06    -79.2383E+06    -57.9108E+06     45.2910E+06     91.1480E+06    -44.5770E+06
            2072     180.550E-03     11.5483E-03     180.180E-03     548.921E-03    -194.602E-03    -354.204E-03    -345.305E-03     540.022E-03    -194.602E-03     177.741E-03     594.904E-03     166.110E+06     125.459E+06     56.9987E+06    -56.8031E+06    -48.2770E+06     49.7043E+06     124.227E+06    -25.7739E+06
            2073     181.241E-03     12.2422E-03     180.827E-03     548.815E-03    -204.540E-03    -344.219E-03    -333.067E-03     537.663E-03    -204.540E-03     197.930E-03     613.297E-03     153.645E+06     139.087E+06     60.0236E+06    -34.1835E+06    -30.3741E+06     56.2142E+06     139.087E+06    -12.0272E+06
            2074     181.884E-03     12.9682E-03     181.421E-03     552.857E-03    -212.205E-03    -340.639E-03    -324.680E-03     536.898E-03    -212.205E-03     235.281E-03     655.660E-03     147.466E+06     149.421E+06     64.6275E+06    -20.2770E+06    -17.4649E+06     61.8154E+06     149.421E+06    -11.2529E+06
            2075     182.492E-03     13.6938E-03     181.978E-03     555.724E-03    -218.548E-03    -336.984E-03    -322.785E-03     541.525E-03    -218.548E-03     219.398E-03     676.439E-03     187.662E+06     165.627E+06     66.6350E+06    -50.0365E+06    -11.3031E+06     27.9016E+06     165.627E+06    -6.76114E+06
            2076     176.382E-03     934.693E-06     176.379E-03     148.295E-03    -73.4841E-03    -74.8026E-03    -74.0731E-03     148.005E-03    -73.9235E-03    -12.3996E-03     148.845E-03     96.5070E+06    -101.341E+06    -189.768E+06    -203.991E+06    -191.662E+06    -112.884E+06    -190.553E+06    -28.8195E+06
            2077     176.422E-03     1.86552E-03     176.412E-03     155.766E-03    -75.9320E-03    -79.8443E-03    -78.9815E-03     154.903E-03    -75.9320E-03    -20.9498E-03     156.940E-03     130.870E+06    -67.5589E+06    -175.158E+06    -211.839E+06    -191.052E+06    -87.5612E+06    -175.944E+06    -47.2848E+06
            2078     176.518E-03     2.78995E-03     176.496E-03     168.643E-03    -80.0464E-03    -88.6685E-03    -87.0133E-03     166.988E-03    -80.0464E-03    -26.9786E-03     171.353E-03     154.555E+06    -46.8746E+06    -154.472E+06    -223.058E+06    -186.809E+06    -83.1242E+06    -154.472E+06    -67.9712E+06
            2079     176.659E-03     3.69354E-03     176.620E-03     185.796E-03    -85.8675E-03    -99.9712E-03    -97.0748E-03     182.900E-03    -85.8675E-03    -29.7672E-03     190.680E-03     165.879E+06    -40.5388E+06    -141.807E+06    -231.388E+06    -174.239E+06    -97.6879E+06    -141.807E+06    -84.7888E+06
            2080     176.881E-03     4.59380E-03     176.822E-03     207.202E-03    -93.5363E-03    -113.695E-03    -109.182E-03     202.688E-03    -93.5363E-03    -25.8505E-03     214.049E-03     179.593E+06    -25.7677E+06    -130.093E+06    -232.617E+06    -162.374E+06    -96.0107E+06    -130.093E+06    -94.1596E+06
            2081     177.221E-03     5.45549E-03     177.137E-03     235.238E-03    -102.870E-03    -132.388E-03    -126.996E-03     229.847E-03    -102.870E-03    -11.4802E-03     243.740E-03     196.653E+06    -15.9011E+06    -127.274E+06    -242.246E+06    -161.584E+06    -96.5626E+06    -127.274E+06    -100.639E+06
            2082     177.589E-03     6.30383E-03     177.477E-03     276.440E-03    -114.545E-03    -162.100E-03    -156.014E-03     270.355E-03    -114.545E-03     1.77905E-03     286.926E-03     201.533E+06    -17.1681E+06    -125.525E+06    -248.925E+06    -157.949E+06    -108.144E+06    -125.525E+06    -103.158E+06
            2083     178.098E-03     7.10232E-03     177.957E-03     325.655E-03    -129.558E-03    -196.287E-03    -189.073E-03     318.442E-03    -129.558E-03     65.4440E-06     338.442E-03     201.131E+06    -7.26649E+06    -107.732E+06    -237.911E+06    -144.839E+06    -100.339E+06    -107.732E+06    -104.667E+06
            2084     178.735E-03     7.84362E-03     178.562E-03     370.157E-03    -145.640E-03    -224.396E-03    -215.763E-03     362.684E-03    -146.799E-03    -8.98749E-03     385.190E-03     197.147E+06    -7.14349E+06    -85.6755E+06    -229.953E+06    -135.745E+06    -101.352E+06    -85.6755E+06    -104.399E+06
            2085     179.362E-03     8.56195E-03     179.157E-03     406.316E-03    -159.777E-03    -246.576E-03    -235.600E-03     399.542E-03    -163.978E-03    -11.9774E-03     423.515E-03     193.543E+06    -4.71954E+06    -57.8828E+06    -219.011E+06    -127.014E+06    -96.7166E+06    -57.8828E+06    -103.049E+06
            2086     180.014E-03     9.26582E-03     179.776E-03     433.338E-03    -169.076E-03    -264.509E-03    -248.442E-03     427.915E-03    -179.720E-03    -4.67508E-03     453.113E-03     196.573E+06     100.308E+03    -29.8211E+06    -208.996E+06    -111.845E+06    -100.325E+06    -26.5474E+06    -99.2467E+06
            2087     180.720E-03     9.95804E-03     180.446E-03     447.520E-03    -172.211E-03    -275.245E-03    -250.089E-03     443.668E-03    -193.515E-03     14.3214E-03     471.259E-03     194.137E+06     24.3642E+06     12.3194E+06    -175.471E+06    -92.4172E+06    -61.9628E+06     15.5931E+06    -92.3919E+06
            2088     181.424E-03     10.6611E-03     181.111E-03     450.995E-03    -173.277E-03    -277.530E-03    -242.777E-03     447.818E-03    -204.853E-03     43.8319E-03     481.493E-03     192.566E+06     71.0374E+06     28.6911E+06    -135.445E+06    -75.1975E+06    -26.0190E+06     65.5000E+06    -69.0747E+06
            2089     182.163E-03     11.3742E-03     181.807E-03     452.240E-03    -176.297E-03    -275.732E-03    -234.885E-03     448.317E-03    -213.222E-03     81.7612E-03     494.534E-03     186.935E+06     115.480E+06     29.5780E+06    -93.9451E+06    -52.9939E+06    -11.3732E+06     115.480E+06    -41.0138E+06
            2090     182.822E-03     12.1215E-03     182.419E-03     457.379E-03    -186.268E-03    -270.811E-03    -232.756E-03     451.572E-03    -218.517E-03     117.356E-03     522.560E-03     180.873E+06     153.461E+06     48.1753E+06    -52.5775E+06    -29.5112E+06     25.1090E+06     153.461E+06    -29.4807E+06
            2091     183.449E-03     12.8714E-03     182.997E-03     461.975E-03    -194.461E-03    -267.438E-03    -230.214E-03     451.906E-03    -221.616E-03     161.229E-03     569.631E-03     188.250E+06     181.202E+06     62.2571E+06    -35.8075E+06    -20.2492E+06     46.6989E+06     181.202E+06    -11.1702E+06
            2092     184.086E-03     13.6408E-03     183.580E-03     471.316E-03    -204.218E-03    -267.191E-03    -233.268E-03     456.311E-03    -223.136E-03     199.246E-03     616.002E-03     212.132E+06     188.680E+06     75.3145E+06    -54.7115E+06    -13.7928E+06     34.3957E+06     188.680E+06     4.89412E+06
            2093     177.595E-03     890.669E-06     177.593E-03     254.149E-03    -125.294E-03    -128.779E-03    -126.779E-03     252.574E-03    -125.719E-03    -44.6455E-03     256.574E-03     59.1574E+06    -34.9757E+06     -80.874E+06    -98.0672E+06    -82.3318E+06    -49.9259E+06    -81.6592E+06    -24.0168E+06
            2094     177.636E-03     1.77582E-03     177.628E-03     265.542E-03    -130.152E-03    -135.392E-03    -130.416E-03     260.566E-03    -130.152E-03    -84.3285E-03     268.337E-03     85.7894E+06    -18.5044E+06    -76.3639E+06    -114.909E+06    -90.8987E+06    -41.7291E+06    -77.1491E+06    -33.9252E+06
            2095     177.737E-03     2.64719E-03     177.718E-03     281.476E-03    -136.123E-03    -145.495E-03    -134.895E-03     270.876E-03    -136.123E-03    -127.103E-03     285.172E-03     104.437E+06    -3.68364E+06    -60.3031E+06    -122.842E+06    -90.8744E+06    -35.6512E+06    -60.3031E+06    -44.6887E+06
            2096     177.891E-03     3.50915E-03     177.856E-03     299.371E-03    -143.854E-03    -155.871E-03    -138.430E-03     281.929E-03    -143.854E-03    -167.538E-03     305.273E-03     113.843E+06    -3.84285E+06    -54.7658E+06    -133.132E+06    -95.9317E+06    -44.6247E+06    -51.1838E+06    -54.6123E+06
            2097     178.116E-03     4.33547E-03     178.063E-03     319.508E-03    -153.717E-03    -165.999E-03    -139.425E-03     292.933E-03    -153.717E-03    -210.007E-03     327.996E-03     127.465E+06    -1.94228E+06    -52.4063E+06    -145.332E+06    -96.8355E+06    -54.0206E+06    -48.8243E+06    -62.4734E+06
            2098     178.475E-03     5.14525E-03     178.400E-03     340.056E-03    -165.165E-03    -174.755E-03    -134.497E-03     299.798E-03    -165.165E-03    -253.741E-03     351.580E-03     144.938E+06     1.40580E+06    -51.0181E+06    -160.015E+06    -102.265E+06    -56.5332E+06    -50.8298E+06    -67.9286E+06
            2099     178.820E-03     5.94859E-03     178.721E-03     357.005E-03    -170.151E-03    -186.915E-03    -123.077E-03     302.289E-03    -179.272E-03    -285.167E-03     372.525E-03     153.616E+06     6.82800E+06    -44.2416E+06    -162.347E+06    -95.1149E+06    -61.6003E+06    -43.0450E+06    -70.4197E+06
            2100     179.376E-03     6.66095E-03     179.252E-03     367.150E-03    -165.221E-03    -201.860E-03    -108.970E-03     304.840E-03    -195.800E-03    -297.722E-03     388.281E-03     147.108E+06     13.7759E+06    -36.1896E+06    -149.510E+06    -88.3850E+06    -60.1244E+06    -23.4143E+06    -64.9935E+06
            2101     179.921E-03     7.37344E-03     179.770E-03     368.741E-03    -154.971E-03    -213.648E-03    -95.4226E-03     307.096E-03    -211.551E-03    -289.902E-03     398.121E-03     152.570E+06     22.2154E+06    -26.0148E+06    -148.422E+06    -86.0224E+06    -60.1602E+06    -6.03904E+06    -67.7628E+06
            2102     180.565E-03     8.07229E-03     180.384E-03     364.735E-03    -139.862E-03    -225.066E-03    -85.5271E-03     310.400E-03    -225.066E-03    -262.039E-03     404.532E-03     153.872E+06     37.8754E+06    -14.1571E+06    -132.354E+06    -69.5954E+06    -56.8601E+06     17.8195E+06    -63.5690E+06
            2103     181.235E-03     8.77126E-03     181.022E-03     354.590E-03    -118.632E-03    -236.023E-03    -76.3569E-03     312.315E-03    -236.023E-03    -217.332E-03     407.025E-03     162.019E+06     50.6989E+06     7.63500E+06    -124.481E+06    -58.1771E+06    -48.9855E+06     41.0160E+06    -63.8883E+06
            2104     181.975E-03     9.46885E-03     181.729E-03     337.270E-03    -92.9218E-03    -244.274E-03    -63.9846E-03     308.333E-03    -244.274E-03    -161.991E-03     404.146E-03     174.124E+06     61.6525E+06     15.9034E+06    -123.337E+06    -54.9950E+06    -48.2384E+06     57.4520E+06    -56.4846E+06
            2105     182.716E-03     10.2066E-03     182.430E-03     318.675E-03    -69.6433E-03    -248.925E-03    -52.4044E-03     301.436E-03    -248.925E-03    -105.560E-03     401.738E-03     183.698E+06     82.3437E+06     28.1822E+06    -115.648E+06    -49.1993E+06    -37.2993E+06     81.3770E+06    -56.2181E+06
            2106     183.458E-03     10.9763E-03     183.129E-03     305.299E-03    -55.4026E-03    -249.802E-03    -46.1663E-03     296.063E-03    -249.802E-03    -53.1173E-03     403.576E-03     210.354E+06     104.945E+06     31.9785E+06    -130.314E+06    -50.3032E+06    -48.0319E+06     104.945E+06    -43.2411E+06
            2107     184.191E-03     11.7902E-03     183.813E-03     306.853E-03    -59.1099E-03    -247.810E-03    -55.0352E-03     302.778E-03    -247.810E-03    -5.82065E-03     420.688E-03     224.997E+06     150.383E+06     58.6199E+06    -101.812E+06    -38.2913E+06    -4.90117E+06     150.383E+06    -40.5861E+06
            2108     184.888E-03     12.6183E-03     184.457E-03     314.039E-03    -70.3059E-03    -244.006E-03    -63.1094E-03     306.843E-03    -244.006E-03     15.4869E-03     456.881E-03     231.374E+06     151.051E+06     64.0976E+06    -104.445E+06    -23.9954E+06    -7.56858E+06     142.268E+06    -9.83733E+06
            2109     185.472E-03     13.5035E-03     184.980E-03     297.181E-03    -59.8265E-03    -237.641E-03    -43.5358E-03     280.890E-03    -237.641E-03     69.8070E-03     453.983E-03     232.617E+06     157.107E+06     75.9211E+06    -101.319E+06     2.28395E+06    -6.11055E+06     135.535E+06     15.5033E+06


