********************************************************************************
Field Output Report, written Mon Apr 21 01:56:40 2025

Source 1
---------

   ODB: F:/Abaqus_calc/Vel_20/odb/Correct/1020_2a_16_rd_250_cal_75_v_20_f_0100.odb
   Step: Step-1
   Frame: Increment   4178660: Step Time =   0.5814

Loc 1 : Nodal values from source 1

Output sorted by column "Nodal Label".

Field Output reported at nodes for region: DIE_2A_16_D0_36-1.Region_1
   Computation algorithm: EXTRAPOLATE_COMPUTE_AVERAGE
   Averaged at nodes
   Averaging regions: ODB_REGIONS

      Node Label  COORD.Magnitude     COORD.COOR1     COORD.COOR2
                          @Loc 1          @Loc 1          @Loc 1
------------------------------------------------------------------
               1     151.282E-03     19.9925E-03     149.955E-03


Field Output reported at nodes for region: DIE_2A_16_D0_36-1.Region_2
   Computation algorithm: EXTRAPOLATE_COMPUTE_AVERAGE
   Averaged at nodes
   Averaging regions: ODB_REGIONS

      Node Label  COORD.Magnitude     COORD.COOR1     COORD.COOR2
                          @Loc 1          @Loc 1          @Loc 1
------------------------------------------------------------------
               1     151.282E-03     19.9925E-03     149.955E-03


Field Output reported at nodes for part: WIRE_1-1
   Computation algorithm: EXTRAPOLATE_COMPUTE_AVERAGE
   Averaged at nodes
   Averaging regions: ODB_REGIONS

      Node Label  COORD.Magnitude     COORD.COOR1     COORD.COOR2    PE.Max. Prin    PE.Mid. Prin    PE.Min. Prin         PE.PE11         PE.PE22         PE.PE33         PE.PE12            PEEQ         S.Mises     S.Max. Prin     S.Mid. Prin     S.Min. Prin           S.S11           S.S22           S.S33           S.S12
                          @Loc 1          @Loc 1          @Loc 1          @Loc 1          @Loc 1          @Loc 1          @Loc 1          @Loc 1          @Loc 1          @Loc 1          @Loc 1          @Loc 1          @Loc 1          @Loc 1          @Loc 1          @Loc 1          @Loc 1          @Loc 1          @Loc 1
----------------------------------------------------------------------------------------------------------------------------------------------------------------------------------------------------------------------------------------------------------------------------------------------------------------------------------
               1     61.0715E-03     17.5094E-03     58.5077E-03     68.2012E-03    -28.5161E-03    -39.6816E-03    -27.0511E-03     55.5708E-03    -28.5161E-03     69.3708E-03     203.166E-03     189.197E+06     200.351E+06     160.529E+06    -5.58726E+06    -5.58716E+06     200.351E+06     160.529E+06    -29.4354E+03
               2     58.0851E-03     32.8951E-09     58.0851E-03     56.9109E-03    -28.3258E-03    -28.5859E-03    -28.5837E-03     56.9087E-03    -28.3258E-03     858.940E-06     57.4798E-03     199.245E+06    -44.9967E+06    -47.6833E+06    -245.570E+06    -45.8069E+06    -245.562E+06    -46.8803E+06     269.497E+03
               3     1.02421E-06     1.02122E-06    -78.2311E-09     123.257E-03    -61.3742E-03    -61.8835E-03    -61.8819E-03     123.255E-03    -61.3742E-03     1.06000E-03     125.082E-03     180.675E+06    -53.8250E+06    -54.3320E+06    -234.753E+06    -54.3611E+06    -234.723E+06    -53.8250E+06    -2.29093E+06
               4     17.2733E-03     17.2733E-03    -78.2311E-09     128.485E-03    -38.5494E-03    -89.6705E-03    -74.9606E-03     113.775E-03    -38.5494E-03     109.410E-03     163.807E-03     177.492E+06     188.069E+06     143.173E+06    -7.56003E+06    -7.08584E+06     187.595E+06     143.173E+06     9.61982E+06
               5     118.578E-03     17.2583E-03     117.315E-03     18.2477E-03     15.2400E-03    -33.4845E-03     17.5307E-03     15.9571E-03    -33.4845E-03     2.56325E-03     33.8730E-03     83.2356E+06     30.8436E+06     534.352E+03    -63.2996E+06     30.8416E+06     536.279E+03    -63.2996E+06    -241.745E+03
               6     115.620E-03     2.33194E-06     115.620E-03     29.7928E-03    -14.4232E-03    -15.3691E-03    -15.3592E-03     29.7830E-03    -14.4232E-03    -1.33451E-03     29.7993E-03     61.0434E+06     58.6466E+06     55.3002E+06    -4.00117E+06     55.0289E+06    -3.72978E+06     58.6466E+06    -4.00250E+06
               7     60.7271E-03     16.5357E-03     58.4325E-03     76.4443E-03    -28.3669E-03    -48.0698E-03    -27.7073E-03     56.0818E-03    -28.3669E-03     91.0408E-03     229.295E-03     181.092E+06     193.397E+06     125.218E+06    -9.42455E+06    -9.42428E+06     193.397E+06     125.218E+06        -728.371
               8     60.3558E-03     15.5624E-03     58.3150E-03     75.1235E-03    -28.0653E-03    -47.0525E-03    -27.8643E-03     55.9353E-03    -28.0653E-03     87.2655E-03     212.465E-03     166.464E+06     171.053E+06     51.3840E+06    -15.2118E+06    -15.2106E+06     171.052E+06     51.3840E+06     300.085E+03
               9     60.0481E-03     14.5882E-03     58.2491E-03     61.7184E-03    -27.8093E-03    -33.9080E-03    -27.2427E-03     55.0530E-03    -27.8093E-03     47.0071E-03     152.728E-03     158.791E+06     142.901E+06    -1.85468E+06    -26.8471E+06    -16.8608E+06     142.896E+06    -11.8361E+06     575.754E+03
              10     59.7863E-03     13.6147E-03     58.2155E-03     57.4508E-03    -27.8031E-03    -29.6511E-03    -27.2798E-03     55.0794E-03    -27.8031E-03     28.0582E-03     124.276E-03     110.143E+06     84.7524E+06    -16.0427E+06    -32.7073E+06    -16.0350E+06     84.7447E+06    -32.7073E+06     124.442E+03
              11     59.5475E-03     12.6419E-03     58.1900E-03     56.7848E-03    -27.9638E-03    -28.8395E-03    -27.5821E-03     55.5274E-03    -27.9638E-03     20.2779E-03     105.186E-03     34.2769E+06     12.0903E+06    -18.0080E+06    -25.2124E+06    -15.3708E+06     9.45302E+06    -25.2124E+06    -313.845E+03
              12     59.3318E-03     11.6692E-03     58.1729E-03     56.5015E-03    -28.0874E-03    -28.4629E-03    -27.7523E-03     55.7910E-03    -28.0874E-03     15.4268E-03     93.7759E-03     28.5956E+06    -13.2247E+06    -17.9825E+06    -43.0287E+06    -15.3497E+06    -42.4829E+06    -16.4033E+06    -275.001E+03
              13     59.1333E-03     10.6962E-03     58.1579E-03     56.5308E-03    -28.1918E-03    -28.3535E-03    -27.8022E-03     55.9795E-03    -28.1918E-03     13.6230E-03     86.1751E-03     67.8214E+06    -8.41929E+06    -15.7143E+06    -79.5821E+06    -15.7150E+06    -79.5813E+06    -8.41929E+06    -129.566E+03
              14     58.9516E-03     9.72343E-03     58.1441E-03     56.5547E-03    -28.1854E-03    -28.3295E-03    -27.8358E-03     56.1595E-03    -28.2838E-03     11.4403E-03     79.2747E-03     97.4991E+06    -1.68633E+06    -16.7669E+06    -105.819E+06    -16.7675E+06    -105.818E+06    -1.68633E+06     139.613E+03
              15     58.7889E-03     8.75079E-03     58.1339E-03     56.5721E-03    -28.1884E-03    -28.3600E-03    -27.9169E-03     56.3006E-03    -28.3600E-03     9.57419E-03     73.8396E-03     119.964E+06     2.01199E+06    -18.7836E+06    -126.989E+06    -18.7850E+06    -126.987E+06     2.01199E+06     358.425E+03
              16     58.6426E-03     7.77832E-03     58.1244E-03     56.6976E-03    -28.2793E-03    -28.4104E-03    -28.0466E-03     56.4649E-03    -28.4104E-03     8.87072E-03     69.8800E-03     137.155E+06     205.239E+03    -21.2207E+06    -146.394E+06    -21.2225E+06    -146.392E+06     205.239E+03     459.379E+03
              17     58.5126E-03     6.80580E-03     58.1154E-03     56.7780E-03    -28.3228E-03    -28.4523E-03    -28.1430E-03     56.5981E-03    -28.4523E-03     7.78796E-03     66.5332E-03     153.411E+06    -2.98894E+06    -24.0436E+06    -165.836E+06    -24.0455E+06    -165.834E+06    -2.98894E+06     498.212E+03
              18     58.4003E-03     5.83336E-03     58.1082E-03     56.8281E-03    -28.3382E-03    -28.4916E-03    -28.2061E-03     56.6960E-03    -28.4916E-03     6.68715E-03     63.7714E-03     168.943E+06    -7.37247E+06    -27.1850E+06    -185.338E+06    -27.1870E+06    -185.336E+06    -7.37247E+06     516.172E+03
              19     58.3045E-03     4.86111E-03     58.1015E-03     56.9076E-03    -28.3765E-03    -28.5322E-03    -28.2794E-03     56.8105E-03    -28.5322E-03     5.72507E-03     61.6284E-03     186.985E+06    -12.7627E+06    -30.8676E+06    -208.135E+06     -30.869E+06    -208.134E+06    -12.7627E+06     456.304E+03
              20     58.2259E-03     3.88867E-03     58.0959E-03     56.9810E-03    -28.4354E-03    -28.5468E-03    -28.3707E-03     56.9164E-03    -28.5468E-03     4.66545E-03     60.0203E-03     198.953E+06    -19.6444E+06    -34.7006E+06    -225.683E+06    -34.7013E+06    -225.682E+06    -19.6444E+06     209.004E+03
              21     58.1648E-03     2.91655E-03     58.0917E-03     57.0018E-03    -28.4661E-03    -28.5363E-03    -28.4275E-03     56.9632E-03    -28.5363E-03     3.59272E-03     58.7469E-03     200.211E+06    -28.1594E+06    -38.2172E+06    -233.199E+06    -38.2180E+06    -233.198E+06    -28.1594E+06     148.808E+03
              22     58.1210E-03     1.94421E-03     58.0884E-03     57.0046E-03    -28.4748E-03    -28.5302E-03    -28.4773E-03     56.9855E-03    -28.5086E-03     2.48684E-03     57.9072E-03     199.246E+06    -36.5393E+06    -41.5744E+06    -238.241E+06    -41.5763E+06    -238.239E+06    -36.5393E+06     53.8365E+03
              23     58.0948E-03     972.439E-06     58.0867E-03     56.9600E-03    -28.4041E-03    -28.5568E-03    -28.5493E-03     56.9536E-03    -28.4052E-03     1.38713E-03     57.5610E-03     198.667E+06    -42.8492E+06    -45.3955E+06    -242.776E+06    -44.4586E+06    -242.771E+06    -43.7910E+06     54.1974E+03
              24     57.0290E-03     351.239E-09     57.0290E-03     57.0067E-03    -28.3479E-03    -28.6579E-03    -28.6567E-03     57.0055E-03    -28.3479E-03     614.853E-06     57.3625E-03     200.556E+06    -40.4669E+06    -43.8575E+06    -242.697E+06    -41.9790E+06    -242.692E+06    -42.3505E+06     699.857E+03
              25     55.9704E-03    -132.089E-09     55.9704E-03     56.9661E-03    -28.3584E-03    -28.6045E-03    -28.6040E-03     56.9656E-03    -28.3584E-03     393.479E-06     57.3087E-03     198.247E+06    -40.7834E+06    -42.8235E+06    -240.041E+06    -42.2905E+06    -240.041E+06    -41.3164E+06     17.3079E+03
              26     54.9138E-03     412.065E-09     54.9138E-03     56.8908E-03    -28.3409E-03    -28.5485E-03    -28.5474E-03     56.8898E-03    -28.3409E-03     569.296E-06     57.4221E-03     195.837E+06    -43.2032E+06    -44.5389E+06    -239.705E+06    -44.0060E+06    -239.705E+06    -43.7362E+06    -20.1382E+03
              27     53.8557E-03    -277.754E-09     53.8557E-03     56.9045E-03    -28.3613E-03    -28.5421E-03    -28.5403E-03     56.9026E-03    -28.3613E-03     802.978E-06     57.4951E-03     193.211E+06    -43.9520E+06    -46.2335E+06    -238.293E+06    -44.7558E+06    -238.292E+06    -45.4308E+06     258.652E+03
              28     52.7978E-03     491.273E-09     52.7978E-03     56.6697E-03    -28.1936E-03    -28.4733E-03    -28.4713E-03     56.6677E-03    -28.1936E-03     825.899E-06     57.2952E-03     191.626E+06    -46.1806E+06    -48.4523E+06    -238.932E+06    -46.9817E+06    -238.924E+06    -47.6594E+06     1.14205E+06
              29     51.7422E-03    -163.155E-09     51.7422E-03     56.5887E-03    -28.1272E-03    -28.4627E-03    -28.4617E-03     56.5876E-03    -28.1272E-03     537.840E-06     57.2090E-03     191.805E+06    -45.9534E+06    -47.0750E+06    -238.317E+06    -47.0949E+06    -238.297E+06    -45.9534E+06    -280.727E+03
              30     50.6841E-03     513.092E-09     50.6841E-03     56.7654E-03    -28.2330E-03    -28.5356E-03    -28.5345E-03     56.7643E-03    -28.2330E-03     526.233E-06     57.2118E-03     193.694E+06    -44.2553E+06    -44.6538E+06    -238.148E+06    -44.6675E+06    -238.135E+06    -44.2553E+06    -1.39955E+06
              31     49.6272E-03    -258.639E-09     49.6272E-03     56.9810E-03    -28.3344E-03    -28.6477E-03    -28.6465E-03     56.9798E-03    -28.3344E-03     601.842E-06     57.3715E-03     196.584E+06    -42.8148E+06    -42.9688E+06    -239.476E+06    -42.9733E+06    -239.471E+06    -42.8148E+06    -892.343E+03
              32     48.5692E-03     625.404E-09     48.5692E-03     57.0517E-03    -28.3718E-03    -28.6789E-03    -28.6772E-03     57.0500E-03    -28.3718E-03     697.725E-06     57.4896E-03     199.062E+06    -40.9604E+06    -41.9271E+06    -240.503E+06    -41.0596E+06    -240.488E+06    -41.8429E+06     472.501E+03
              33     47.5113E-03    -396.700E-09     47.5113E-03     56.8285E-03    -28.3224E-03    -28.5056E-03    -28.5026E-03     56.8255E-03    -28.3224E-03     1.00723E-03     57.1965E-03     199.569E+06    -40.3269E+06    -41.3928E+06    -240.426E+06    -40.3390E+06    -240.414E+06    -41.3928E+06     1.33961E+06
              34     46.4542E-03     513.828E-09     46.4542E-03     56.7704E-03    -28.2723E-03    -28.4995E-03    -28.4968E-03     56.7678E-03    -28.2723E-03     941.673E-06     57.0819E-03     198.776E+06    -38.4144E+06    -38.7563E+06    -237.361E+06    -38.5814E+06    -237.353E+06    -38.5978E+06     1.14657E+06
              35     45.3976E-03    -183.720E-09     45.3976E-03     56.9720E-03    -28.3202E-03    -28.6514E-03    -28.6494E-03     56.9699E-03    -28.3202E-03     835.133E-06     57.2980E-03     198.727E+06    -33.8594E+06    -34.1200E+06    -232.717E+06    -34.0260E+06    -232.709E+06    -33.9614E+06     1.04634E+06
              36     44.3387E-03     506.713E-09     44.3387E-03     56.7749E-03    -28.2593E-03    -28.5146E-03    -28.5128E-03     56.7731E-03    -28.2593E-03     783.501E-06     57.3415E-03     193.404E+06    -37.9712E+06    -38.9691E+06    -231.871E+06    -38.8699E+06    -231.868E+06    -38.0733E+06     658.750E+03
              37     43.2830E-03    -315.799E-09     43.2830E-03     56.4982E-03    -28.0656E-03    -28.4332E-03    -28.4324E-03     56.4973E-03    -28.0656E-03     443.355E-06     57.3692E-03     183.206E+06    -46.7808E+06    -48.7385E+06    -230.958E+06    -47.6797E+06    -230.955E+06    -47.8427E+06     291.091E+03
              38     42.2258E-03     846.774E-09     42.2258E-03     56.5904E-03    -28.1549E-03    -28.4366E-03    -28.4317E-03     56.5895E-03    -28.1589E-03     451.178E-06     57.6354E-03     176.651E+06    -52.6762E+06    -54.4341E+06    -230.199E+06    -53.3769E+06    -230.194E+06    -53.7380E+06    -800.012E+03
              39     41.1680E-03    -841.733E-09     41.1680E-03     56.5565E-03    -28.2758E-03    -28.2813E-03    -28.2754E-03     56.5547E-03    -28.2798E-03     782.989E-06     57.6442E-03     173.570E+06    -55.9275E+06    -57.4155E+06    -230.237E+06    -56.6298E+06    -230.230E+06    -56.7194E+06    -170.404E+03
              40     40.1107E-03     837.132E-09     40.1107E-03     56.5130E-03    -28.0714E-03    -28.4407E-03    -28.4386E-03     56.5109E-03    -28.0714E-03     845.694E-06     57.5968E-03     173.696E+06    -56.0751E+06    -57.8306E+06    -230.642E+06    -57.0427E+06    -230.638E+06    -56.8670E+06     839.925E+03
              41     39.0544E-03    -102.441E-09     39.0544E-03     56.5819E-03    -28.0693E-03    -28.5128E-03    -28.5116E-03     56.5807E-03    -28.0693E-03     476.291E-06     57.6020E-03     177.254E+06    -52.5858E+06    -53.6733E+06     -230.38E+06    -53.5580E+06    -230.371E+06    -52.7098E+06    -370.338E+03
              42     37.9973E-03     250.934E-09     37.9973E-03     56.7215E-03    -28.2489E-03    -28.4756E-03    -28.4753E-03     56.7211E-03    -28.2489E-03     268.810E-06     57.5260E-03     182.333E+06    -45.9164E+06    -46.1089E+06    -228.345E+06    -45.9921E+06    -228.338E+06    -46.0405E+06    -1.00074E+06
              43     36.9392E-03     50.0370E-09     36.9392E-03     56.8476E-03    -28.3047E-03    -28.5462E-03    -28.5450E-03     56.8463E-03    -28.3047E-03     629.397E-06     57.4085E-03     190.755E+06    -38.7987E+06    -39.6248E+06    -229.964E+06    -38.8677E+06    -229.964E+06    -39.5565E+06    -91.2916E+03
              44     35.8818E-03     118.064E-09     35.8818E-03     56.9915E-03    -28.3832E-03    -28.6110E-03    -28.6087E-03     56.9892E-03    -28.3832E-03     874.124E-06     57.3637E-03     196.252E+06    -34.6939E+06    -36.1366E+06    -231.663E+06    -35.3793E+06    -231.663E+06    -35.4517E+06     302.249E+03
              45     34.8244E-03     160.613E-09     34.8244E-03     57.1709E-03    -28.4732E-03    -28.7004E-03    -28.6987E-03     57.1693E-03    -28.4732E-03     716.845E-06     57.4454E-03     197.316E+06    -33.2330E+06    -35.0756E+06    -231.463E+06    -33.9185E+06    -231.463E+06    -34.3907E+06         739.047
              46     33.7663E-03     4.59449E-09     33.7663E-03     57.2562E-03    -28.4846E-03    -28.7722E-03    -28.7708E-03     57.2548E-03    -28.4846E-03     648.141E-06     57.6529E-03     195.061E+06    -35.9236E+06    -38.8187E+06    -232.415E+06    -37.6638E+06    -232.413E+06    -37.0812E+06    -652.501E+03
              47     32.7091E-03     406.835E-09     32.7091E-03     57.3398E-03    -28.5632E-03    -28.7758E-03    -28.7584E-03     57.3372E-03    -28.5780E-03     933.337E-06     58.0083E-03     187.815E+06    -44.1516E+06    -48.4016E+06    -234.054E+06    -45.8916E+06    -234.051E+06    -46.6641E+06    -431.058E+03
              48     31.6497E-03    -466.776E-09     31.6497E-03     57.0221E-03    -28.4942E-03    -28.5267E-03    -28.5088E-03     57.0190E-03    -28.5090E-03     1.02954E-03     57.8443E-03     182.241E+06    -51.3835E+06    -54.9921E+06    -235.398E+06    -52.4798E+06    -235.398E+06    -53.8959E+06     178.955E+03
              49     30.5932E-03     517.206E-09     30.5932E-03     56.6690E-03    -28.0488E-03    -28.6200E-03    -28.6173E-03     56.6663E-03    -28.0488E-03     957.482E-06     57.4505E-03     183.932E+06    -51.1960E+06    -53.2787E+06     -236.16E+06    -53.2835E+06    -236.155E+06    -51.1960E+06     783.065E+03
              50     29.5362E-03     578.551E-09     29.5362E-03     56.6605E-03    -28.0379E-03    -28.6247E-03    -28.6230E-03     56.6588E-03    -28.0379E-03     739.228E-06     57.3209E-03     189.202E+06    -46.4097E+06    -48.1657E+06    -236.483E+06    -47.4076E+06    -236.472E+06    -47.1791E+06    -151.113E+03
              51     28.4797E-03    -522.080E-09     28.4797E-03     56.7403E-03    -28.3116E-03    -28.4290E-03    -28.3444E-03     56.7398E-03    -28.3956E-03     354.776E-06     57.3278E-03     191.936E+06    -42.7704E+06    -43.8440E+06    -235.241E+06    -43.0829E+06    -235.232E+06    -43.5398E+06    -411.778E+03
              52     27.4218E-03     371.749E-09     27.4218E-03     56.7130E-03    -28.2287E-03    -28.4833E-03    -28.3979E-03     56.7117E-03    -28.3127E-03     532.749E-06     57.3449E-03     190.160E+06    -43.9359E+06    -45.1510E+06    -234.699E+06    -44.2418E+06    -234.698E+06    -44.8469E+06     257.359E+03
              53     26.3641E-03    -48.7125E-09     26.3641E-03     56.6424E-03    -28.1014E-03    -28.5412E-03    -28.5393E-03     56.6405E-03    -28.1014E-03     791.346E-06     57.2044E-03     191.393E+06    -43.7717E+06    -46.5723E+06    -236.548E+06    -45.6627E+06    -236.547E+06    -44.6827E+06    -470.965E+03
              54     25.3081E-03     600.516E-09     25.3081E-03     56.6986E-03    -28.1590E-03    -28.5392E-03    -28.5385E-03     56.6979E-03    -28.1590E-03     447.742E-06     57.1523E-03     195.846E+06    -41.2224E+06    -44.6307E+06    -238.750E+06    -43.1250E+06    -238.737E+06    -42.7411E+06    -1.41458E+06
              55     24.2503E-03    -395.689E-09     24.2503E-03     56.6505E-03    -28.2440E-03    -28.4057E-03    -28.4047E-03     56.6495E-03    -28.2440E-03     513.312E-06     57.0750E-03     197.257E+06    -44.0536E+06    -46.5629E+06    -242.552E+06    -45.0559E+06    -242.541E+06    -45.5723E+06    -1.08032E+06
              56     23.1927E-03     510.082E-09     23.1927E-03     56.5566E-03    -28.1706E-03    -28.3868E-03    -28.3847E-03     56.5545E-03    -28.1706E-03     852.808E-06     56.9429E-03     197.991E+06    -44.6725E+06    -46.9114E+06    -243.774E+06    -45.6634E+06    -243.773E+06    -45.9208E+06     173.975E+03
              57     22.1362E-03    -200.642E-09     22.1362E-03     56.3727E-03    -28.0766E-03    -28.2967E-03    -28.2952E-03     56.3712E-03    -28.0766E-03     675.782E-06     56.7972E-03     197.982E+06    -44.6686E+06    -46.6916E+06    -243.654E+06    -45.4437E+06    -243.654E+06    -45.9170E+06     266.265E+03
              58     21.0793E-03     321.898E-09     21.0793E-03     56.1391E-03    -27.9738E-03    -28.1635E-03    -28.1628E-03     56.1384E-03    -27.9738E-03     466.978E-06     56.6240E-03     197.269E+06    -45.4388E+06    -47.4169E+06    -243.689E+06    -46.2136E+06    -243.689E+06    -46.6423E+06     201.048E+03
              59     20.0232E-03    -71.5862E-09     20.0232E-03     55.9163E-03    -27.8663E-03    -28.0517E-03    -28.0511E-03     55.9158E-03    -27.8663E-03     408.610E-06     56.3796E-03     196.848E+06    -44.8601E+06    -46.6339E+06    -242.588E+06    -45.4306E+06    -242.588E+06    -46.0637E+06     63.7853E+03
              60     18.9667E-03     182.346E-09     18.9667E-03     55.5185E-03    -27.6475E-03    -27.8744E-03    -27.8739E-03     55.5180E-03    -27.6475E-03     396.925E-06     55.7736E-03     195.339E+06    -44.5458E+06    -45.5092E+06    -240.365E+06    -45.5148E+06    -240.359E+06    -44.5458E+06     686.566E+03
              61     17.9108E-03     169.417E-09     17.9108E-03     54.7193E-03    -27.2160E-03    -27.5027E-03    -27.5020E-03     54.7185E-03    -27.2160E-03     491.319E-06     54.9766E-03     191.912E+06    -45.7143E+06    -46.6753E+06    -238.105E+06    -46.1151E+06    -238.097E+06    -46.2822E+06     1.18276E+06
              62     16.8557E-03     39.8432E-09     16.8557E-03     53.0092E-03    -26.3430E-03    -26.6667E-03    -26.6663E-03     53.0088E-03    -26.3430E-03     329.382E-06     53.4227E-03     188.950E+06    -48.0265E+06    -49.9852E+06    -237.947E+06    -49.4305E+06    -237.934E+06    -48.5944E+06     1.46419E+06
              63     15.8036E-03     399.646E-09     15.8036E-03     50.3577E-03    -25.0121E-03    -25.3471E-03    -25.3463E-03     50.3569E-03    -25.0121E-03    -258.554E-06     50.7162E-03     188.217E+06    -45.8909E+06    -48.6379E+06    -235.466E+06    -47.2933E+06    -235.455E+06    -47.2471E+06     805.541E+03
              64     14.7564E-03    -178.309E-09     14.7564E-03     47.4064E-03    -23.5754E-03    -23.8329E-03    -23.6928E-03     47.4026E-03    -23.7116E-03    -989.604E-06     47.6313E-03     190.376E+06    -40.6731E+06    -43.0858E+06    -232.244E+06    -40.6742E+06    -232.243E+06    -43.0858E+06     36.6953E+03
              65     13.7093E-03    -105.658E-09     13.7093E-03     43.7934E-03    -21.6995E-03    -22.0948E-03    -21.9533E-03     43.7881E-03    -21.8358E-03    -1.17839E-03     43.9321E-03     191.618E+06    -33.3625E+06    -34.7937E+06    -225.691E+06    -33.4183E+06    -225.635E+06    -34.7937E+06     2.54432E+06
              66     12.6670E-03     611.103E-09     12.6670E-03     38.7644E-03    -19.2008E-03    -19.5626E-03    -19.5566E-03     38.7584E-03    -19.2008E-03    -1.17033E-03     38.9333E-03     188.610E+06    -27.4676E+06    -29.7585E+06    -217.208E+06    -29.4841E+06    -217.108E+06    -27.8422E+06     4.33408E+06
              67     11.6335E-03    -383.545E-09     11.6335E-03     33.5055E-03    -16.6691E-03    -16.8350E-03    -16.8210E-03     33.4915E-03    -16.6691E-03    -1.61703E-03     33.8226E-03     185.100E+06    -22.2223E+06    -24.6158E+06    -208.503E+06    -24.1860E+06    -208.456E+06    -22.6996E+06     1.55988E+06
              68     10.6019E-03     485.897E-09     10.6019E-03     29.0285E-03    -14.4444E-03    -14.5836E-03    -14.5666E-03     29.0115E-03    -14.4444E-03    -1.71894E-03     29.6244E-03     183.727E+06    -19.0532E+06    -19.7021E+06    -203.103E+06    -19.0582E+06    -203.098E+06    -19.7021E+06     4.73266E+03
              69     9.57656E-03    -346.711E-09     9.57656E-03     25.5250E-03    -12.7173E-03    -12.8074E-03    -12.7822E-03     25.5139E-03    -12.7313E-03    -1.30350E-03     26.3933E-03     184.963E+06     -17.604E+06    -17.8615E+06    -202.696E+06    -17.6925E+06    -202.693E+06    -17.7756E+06     460.849E+03
              70     8.55257E-03     315.927E-09     8.55257E-03     24.0499E-03    -11.9368E-03    -12.1132E-03    -12.0944E-03     24.0450E-03    -11.9508E-03    -756.665E-06     25.1661E-03     188.066E+06    -15.3228E+06    -16.6756E+06    -204.059E+06    -16.6805E+06    -204.054E+06    -15.3228E+06     658.648E+03
              71     7.53035E-03     25.5246E-09     7.53035E-03     25.8387E-03    -12.8121E-03    -13.0267E-03    -12.9740E-03     25.8382E-03    -12.8643E-03    -152.556E-06     27.2846E-03     191.426E+06    -15.5841E+06    -17.1660E+06    -207.795E+06    -16.8768E+06    -207.769E+06    -15.8992E+06    -744.813E+03
              72     6.50395E-03    -125.218E-09     6.50395E-03     32.1155E-03    -16.0181E-03    -16.0970E-03    -16.0400E-03     32.1107E-03    -16.0702E-03     768.541E-06     33.8328E-03     193.650E+06    -17.7871E+06    -18.5867E+06    -211.836E+06    -17.8105E+06    -211.812E+06    -18.5867E+06    -1.91470E+06
              73     5.46734E-03     172.298E-09     5.46734E-03     43.5801E-03    -21.6843E-03    -21.8949E-03    -21.8750E-03     43.5602E-03    -21.6843E-03     2.24196E-03     45.3202E-03     194.938E+06    -21.5777E+06    -24.0771E+06    -217.749E+06    -23.6026E+06    -217.739E+06    -22.0623E+06    -1.34854E+06
              74     4.41722E-03     201.923E-09     4.41722E-03     60.1307E-03    -29.9462E-03    -30.1866E-03    -30.0965E-03     60.0972E-03    -30.0027E-03     3.47585E-03     61.9605E-03     195.743E+06    -24.4013E+06    -29.7457E+06    -222.758E+06    -26.4291E+06    -222.745E+06    -27.7309E+06    -1.59135E+06
              75     3.34682E-03    -360.541E-09     3.34682E-03     81.2481E-03    -40.5157E-03    -40.7393E-03    -40.6454E-03     81.2107E-03    -40.5722E-03     4.25915E-03     83.1463E-03     196.860E+06    -27.8282E+06    -32.2078E+06    -226.832E+06    -28.8849E+06    -226.825E+06    -31.1579E+06    -361.787E+03
              76     2.25013E-03     684.857E-09     2.25013E-03     102.668E-03    -51.2164E-03    -51.4546E-03    -51.4292E-03     102.643E-03    -51.2164E-03     3.77152E-03     104.480E-03     193.878E+06    -36.7076E+06    -37.7774E+06    -231.117E+06    -37.7797E+06    -231.114E+06    -36.7076E+06     74.6814E+03
              77     1.13129E-03    -560.402E-09     1.13129E-03     117.870E-03    -58.7719E-03    -59.0976E-03    -59.0904E-03     117.863E-03    -58.7719E-03     2.00476E-03     119.682E-03     185.227E+06    -48.5281E+06    -48.8015E+06    -233.892E+06    -48.8170E+06    -233.876E+06    -48.5281E+06    -1.44249E+06
              78     938.782E-06     938.782E-06    -78.2311E-09     122.023E-03    -60.5746E-03    -61.4473E-03    -60.8238E-03     122.017E-03    -61.1927E-03     1.83178E-03     123.760E-03     181.538E+06    -52.4460E+06    -53.3760E+06    -234.447E+06    -53.3910E+06    -234.432E+06    -52.4460E+06    -1.34615E+06
              79     1.88037E-03     1.88037E-03    -78.2311E-09     118.658E-03    -58.1944E-03    -60.4561E-03    -58.1774E-03     118.641E-03    -60.4561E-03     3.36531E-03     120.262E-03     183.634E+06    -49.4188E+06    -51.9698E+06    -234.312E+06    -51.9702E+06    -234.311E+06    -49.4188E+06    -187.490E+03
              80     2.82407E-03     2.82407E-03    -78.2311E-09     113.341E-03    -54.2369E-03    -59.0913E-03    -54.2040E-03     113.308E-03    -59.0913E-03     4.64733E-03     114.797E-03     186.443E+06    -47.2200E+06    -49.5649E+06    -234.821E+06    -49.5764E+06    -234.809E+06    -47.2200E+06    -1.02804E+06
              81     3.77308E-03     3.77308E-03    -78.2311E-09     106.628E-03    -49.3495E-03    -57.2695E-03    -49.2945E-03     106.573E-03    -57.2695E-03     5.79552E-03     107.843E-03     189.834E+06    -45.5565E+06    -49.4495E+06    -237.290E+06    -46.0741E+06    -237.243E+06    -48.9791E+06    -2.90371E+06
              82     4.72760E-03     4.72760E-03    -78.2311E-09     99.6809E-03    -44.5284E-03    -55.1543E-03    -44.4520E-03     99.6045E-03    -55.1543E-03     6.62193E-03     100.688E-03     191.869E+06    -42.6537E+06    -54.1793E+06    -239.983E+06    -42.7418E+06    -239.895E+06    -54.1793E+06    -4.15053E+06
              83     5.68607E-03     5.68607E-03    -78.2311E-09     92.8135E-03    -39.8851E-03    -52.9056E-03    -39.7901E-03     92.7185E-03    -52.9056E-03     7.07571E-03     93.7623E-03     191.654E+06    -37.7081E+06    -62.7664E+06    -240.501E+06    -37.9099E+06    -240.299E+06    -62.7664E+06    -6.20645E+06
              84     6.64986E-03     6.64986E-03    -78.2311E-09     86.1581E-03    -35.5409E-03    -50.5690E-03    -35.4317E-03     86.0489E-03    -50.5690E-03     7.28097E-03     87.3821E-03     176.031E+06    -29.8845E+06    -77.9344E+06    -224.163E+06    -30.2894E+06    -223.758E+06    -77.9344E+06    -8.74199E+06
              85     7.61771E-03     7.61771E-03    -78.2311E-09     80.7627E-03    -32.4568E-03    -48.2700E-03    -32.3255E-03     80.6314E-03    -48.2700E-03     7.67643E-03     82.5766E-03     148.690E+06    -21.7868E+06    -95.7418E+06    -191.840E+06    -22.3034E+06    -191.323E+06    -95.7418E+06    -9.35014E+06
              86     8.58760E-03     8.58760E-03    -78.2311E-09     78.9460E-03    -32.6890E-03    -46.2390E-03    -32.3787E-03     78.6357E-03    -46.2390E-03     11.3471E-03     81.9747E-03     129.725E+06    -14.1580E+06    -116.232E+06    -156.360E+06    -15.0072E+06    -155.511E+06    -116.232E+06    -10.6080E+06
              87     9.55212E-03     9.55212E-03    -78.2311E-09     77.8085E-03    -33.2186E-03    -44.6385E-03    -32.8370E-03     77.4269E-03    -44.6385E-03     12.9205E-03     82.2091E-03     119.186E+06    -6.74219E+06    -112.596E+06    -134.785E+06    -7.79204E+06    -115.808E+06    -130.524E+06    -10.6991E+06
              88     10.5205E-03     10.5205E-03    -78.2311E-09     73.0262E-03    -29.8549E-03    -43.2747E-03    -29.4518E-03     72.6230E-03    -43.2747E-03     12.6742E-03     78.5195E-03     113.592E+06    -1.51608E+06    -67.7953E+06    -129.112E+06    -2.72385E+06    -66.5875E+06    -129.112E+06    -8.37190E+06
              89     11.4944E-03     11.4944E-03    -78.2311E-09     68.4400E-03    -26.6132E-03    -41.8600E-03    -26.0404E-03     67.8672E-03    -41.8600E-03     14.6837E-03     75.6252E-03     123.947E+06     16.9792E+06    -19.0520E+06    -120.835E+06     153.697E+03    -2.22655E+06    -120.835E+06    -5.99825E+06
              90     12.4699E-03     12.4699E-03    -78.2311E-09     65.6288E-03    -25.1055E-03    -40.5407E-03    -24.4863E-03     65.0096E-03    -40.5407E-03     14.9395E-03     75.1051E-03     146.413E+06     66.0367E+06    -381.482E+03    -99.0164E+06    -44.1542E+03     65.6994E+06    -99.0164E+06    -3.34300E+06
              91     13.4456E-03     13.4456E-03    -78.2311E-09     63.2475E-03    -23.8337E-03    -39.4433E-03    -23.1854E-03     62.5992E-03    -39.4433E-03     14.9597E-03     75.1814E-03     154.472E+06     118.927E+06    -1.81470E+06    -51.9479E+06    -1.79043E+06     118.903E+06    -51.9479E+06    -1.19265E+06
              92     14.4254E-03     14.4254E-03    -78.2311E-09     62.3053E-03    -23.6481E-03    -38.6014E-03    -22.5740E-03     61.2312E-03    -38.6014E-03     18.7742E-03     79.3303E-03     150.660E+06     152.995E+06     17.6959E+06    -9.14115E+06     828.143E+03     152.917E+06     7.80464E+06    -2.61269E+06
              93     15.3928E-03     15.3928E-03    -78.2311E-09     63.5829E-03    -25.4945E-03    -37.9798E-03    -23.0963E-03     61.1846E-03    -37.9798E-03     28.3179E-03     89.7325E-03     154.754E+06     179.054E+06     78.8481E+06     5.64329E+06     5.73986E+06     178.957E+06     78.8481E+06    -1.20980E+06
              94     16.3703E-03     16.3703E-03    -78.2311E-09     96.7028E-03    -32.8293E-03    -63.6820E-03    -49.3656E-03     87.6785E-03    -38.1215E-03     71.9129E-03     130.080E-03     168.984E+06     189.717E+06     131.645E+06      19.894E+03     275.647E+03     189.461E+06     131.645E+06     6.11912E+06
              95     17.3943E-03     17.3543E-03     1.17854E-03     113.810E-03    -37.2068E-03    -76.5411E-03    -56.8570E-03     94.1259E-03    -37.2068E-03     113.016E-03     181.649E-03     177.051E+06     191.233E+06     142.396E+06    -5.07273E+06    -4.78375E+06     190.944E+06     142.396E+06     7.07011E+06
              96     17.5408E-03     17.3977E-03     2.23581E-03     91.3203E-03    -34.7474E-03    -56.6540E-03    -37.1939E-03     71.8602E-03    -34.7474E-03     99.5312E-03     191.498E-03     179.292E+06     196.878E+06     146.843E+06    -2.08863E+06    -1.91991E+06     196.709E+06     146.843E+06     5.68440E+06
              97     17.7397E-03     17.4333E-03     3.28311E-03     82.8428E-03    -32.5467E-03    -50.3626E-03    -41.8942E-03     74.3744E-03    -32.5467E-03     59.8929E-03     160.164E-03     181.071E+06     197.595E+06     152.784E+06    -1.66239E+06    -1.50411E+06     197.436E+06     152.784E+06     5.44720E+06
              98     17.9964E-03     17.4597E-03     4.36217E-03     82.4251E-03    -30.7488E-03    -51.7623E-03    -49.7138E-03     80.3767E-03    -30.7488E-03     32.4728E-03     136.043E-03     180.116E+06     191.925E+06     152.656E+06    -4.56526E+06    -4.48660E+06     191.846E+06     152.656E+06     3.92925E+06
              99     18.3112E-03     17.4801E-03     5.45404E-03     82.5926E-03    -29.5540E-03    -53.1151E-03    -51.3115E-03     80.7890E-03    -29.5540E-03     30.9036E-03     141.040E-03     178.849E+06     188.472E+06     154.110E+06    -5.05901E+06    -5.00577E+06     188.419E+06     154.110E+06     3.14587E+06
             100     18.6788E-03     17.4936E-03     6.54749E-03     82.2389E-03    -28.7726E-03    -53.6351E-03    -50.9862E-03     79.5900E-03    -28.7726E-03     37.4176E-03     152.611E-03     179.645E+06     188.400E+06     155.536E+06    -5.40748E+06    -5.38997E+06     188.383E+06     155.536E+06     1.61900E+06
             101     19.0957E-03     17.5021E-03     7.63686E-03     81.1746E-03    -28.3164E-03    -53.0455E-03    -49.3852E-03     77.5143E-03    -28.3164E-03     43.5714E-03     162.949E-03     179.937E+06     187.846E+06     156.342E+06    -5.75880E+06    -5.75521E+06     187.842E+06     156.342E+06     829.589E+03
             102     19.5591E-03     17.5071E-03     8.72137E-03     79.6281E-03    -28.1039E-03    -51.7173E-03    -46.8350E-03     74.7458E-03    -28.1039E-03     49.5473E-03     170.896E-03     179.554E+06     188.809E+06     157.844E+06    -4.21105E+06    -4.20474E+06     188.803E+06     157.844E+06     1.08899E+06
             103     20.0666E-03     17.5087E-03     9.80366E-03     78.1612E-03    -28.0537E-03    -50.3539E-03    -44.1285E-03     71.9358E-03    -28.0537E-03     55.0759E-03     177.029E-03     181.250E+06     191.054E+06     158.018E+06    -4.43985E+06    -4.43074E+06     191.045E+06     158.018E+06     1.33390E+06
             104     20.6140E-03     17.5095E-03     10.8792E-03     76.6748E-03    -28.0889E-03    -48.8479E-03    -41.3344E-03     69.1613E-03    -28.0889E-03     59.4778E-03     182.179E-03     182.039E+06     192.779E+06     158.157E+06    -4.08365E+06    -4.07869E+06     192.774E+06     158.157E+06     760.551E+03
             105     21.1999E-03     17.5094E-03     11.9523E-03     74.8820E-03    -28.1645E-03    -46.9518E-03    -38.4134E-03     66.3437E-03    -28.1645E-03     62.1666E-03     186.984E-03     182.210E+06     193.405E+06     158.004E+06    -3.90736E+06    -3.90637E+06     193.404E+06     158.004E+06    -242.435E+03
             106     21.8194E-03     17.5092E-03     13.0198E-03     72.6105E-03    -28.2569E-03    -44.4366E-03    -35.1673E-03     63.3411E-03    -28.2569E-03     63.1836E-03     190.900E-03     181.727E+06     192.565E+06     156.791E+06    -4.38870E+06    -4.38733E+06     192.564E+06     156.791E+06    -508.434E+03
             107     22.4704E-03     17.5095E-03     14.0832E-03     70.6423E-03    -28.3373E-03    -42.2636E-03    -32.4175E-03     60.7961E-03    -28.3373E-03     63.6957E-03     193.842E-03     181.060E+06     191.418E+06     155.897E+06    -4.77013E+06    -4.76420E+06     191.412E+06     155.897E+06    -935.813E+03
             108     23.1507E-03     17.5090E-03     15.1456E-03     69.8557E-03    -28.3869E-03    -41.4208E-03    -30.9518E-03     59.3866E-03    -28.3869E-03     64.9591E-03     196.597E-03     180.708E+06     192.214E+06     156.776E+06    -3.58690E+06    -3.58129E+06     192.209E+06     156.776E+06    -642.793E+03
             109     23.8590E-03     17.5095E-03     16.2071E-03     69.2949E-03    -28.4233E-03    -40.8427E-03    -29.6600E-03     58.1122E-03    -28.4233E-03     66.5144E-03     198.689E-03     180.498E+06     192.268E+06     156.406E+06    -3.46976E+06    -3.46645E+06     192.264E+06     156.406E+06     653.740E+03
             110     24.5922E-03     17.5090E-03     17.2687E-03     68.4830E-03    -28.4717E-03    -39.9908E-03    -28.1122E-03     56.6043E-03    -28.4717E-03     67.7335E-03     200.279E-03     181.055E+06     192.068E+06     155.581E+06    -4.45148E+06    -4.44745E+06     192.064E+06     155.581E+06     841.878E+03
             111     25.3440E-03     17.5090E-03     18.3236E-03     67.5598E-03    -28.4917E-03    -39.0502E-03    -27.2778E-03     55.7874E-03    -28.4917E-03     66.8189E-03     200.723E-03     182.074E+06     193.045E+06     154.966E+06    -5.05553E+06    -5.05465E+06     193.044E+06     154.966E+06     368.944E+03
             112     26.1185E-03     17.5096E-03     19.3801E-03     67.5699E-03    -28.4765E-03    -39.0522E-03    -27.4512E-03     55.9689E-03    -28.4765E-03     66.4011E-03     200.806E-03     182.827E+06     194.149E+06     155.737E+06    -4.83017E+06    -4.83006E+06     194.149E+06     155.737E+06     25.9912E+03
             113     26.9156E-03     17.5095E-03     20.4418E-03     68.2696E-03    -28.4767E-03    -39.7551E-03    -27.7638E-03     56.2783E-03    -28.4767E-03     67.8689E-03     201.586E-03     183.548E+06     195.408E+06     157.357E+06    -4.18325E+06    -4.18319E+06     195.408E+06     157.357E+06    -100.710E+03
             114     27.7264E-03     17.5092E-03     21.4983E-03     67.9009E-03    -28.4887E-03    -39.3893E-03    -27.3187E-03     55.8302E-03    -28.4887E-03     67.8041E-03     201.893E-03     183.337E+06     195.502E+06     156.776E+06    -4.10360E+06    -4.10324E+06     195.502E+06     156.776E+06     147.293E+03
             115     28.5538E-03     17.5097E-03     22.5550E-03     67.5004E-03    -28.4921E-03    -38.9810E-03    -26.8293E-03     55.3487E-03    -28.4921E-03     67.7126E-03     201.709E-03     182.925E+06     194.368E+06     155.117E+06    -4.99604E+06    -4.99495E+06     194.367E+06     155.117E+06    -86.2054E+03
             116     29.3971E-03     17.5092E-03     23.6139E-03     67.8627E-03    -28.4986E-03    -39.3442E-03    -27.0740E-03     55.5925E-03    -28.4986E-03     68.2607E-03     201.829E-03     183.013E+06     194.692E+06     155.908E+06    -4.60420E+06    -4.60253E+06     194.690E+06     155.908E+06     32.4901E+03
             117     30.2516E-03     17.5093E-03     24.6695E-03     67.8787E-03    -28.4957E-03    -39.3645E-03    -27.4018E-03     55.9161E-03    -28.4957E-03     67.5171E-03     201.947E-03     183.323E+06     196.025E+06     157.384E+06    -3.53844E+06    -3.53608E+06     196.022E+06     157.384E+06     681.264E+03
             118     31.1206E-03     17.5095E-03     25.7276E-03     67.8012E-03    -28.4903E-03    -39.2646E-03    -27.2194E-03     55.7559E-03    -28.4903E-03     67.6527E-03     202.080E-03     184.846E+06     196.699E+06     156.840E+06    -4.82430E+06    -4.82226E+06     196.697E+06     156.840E+06     626.686E+03
             119     32.0026E-03     17.5094E-03     26.7878E-03     68.1750E-03    -28.5000E-03    -39.6447E-03    -27.0076E-03     55.5378E-03    -28.5000E-03     69.3624E-03     202.736E-03     185.802E+06     197.507E+06     157.008E+06    -5.20448E+06    -5.20384E+06     197.506E+06     157.008E+06     287.403E+03
             120     32.8907E-03     17.5093E-03     27.8428E-03     68.0427E-03    -28.5034E-03    -39.5312E-03    -27.1059E-03     55.6173E-03    -28.5034E-03     68.7602E-03     202.657E-03     185.839E+06     198.075E+06     158.209E+06    -4.46164E+06    -4.46096E+06     198.074E+06     158.209E+06     296.074E+03
             121     33.7906E-03     17.5096E-03     28.9001E-03     67.8153E-03    -28.5052E-03    -39.2966E-03    -27.1319E-03     55.6505E-03    -28.5052E-03     67.9699E-03     202.373E-03     185.956E+06     197.831E+06     158.899E+06    -4.50791E+06    -4.50687E+06     197.830E+06     158.899E+06     62.9863E+03
             122     34.7006E-03     17.5094E-03     29.9591E-03     67.8381E-03    -28.5157E-03    -39.3263E-03    -26.9082E-03     55.4199E-03    -28.5157E-03     68.6012E-03     202.584E-03     185.868E+06     197.453E+06     158.825E+06    -4.69373E+06    -4.69318E+06     197.452E+06     158.825E+06    -64.9486E+03
             123     35.6160E-03     17.5095E-03     31.0148E-03     67.5856E-03    -28.5187E-03    -39.0627E-03    -26.7577E-03     55.2806E-03    -28.5187E-03     68.1415E-03     202.453E-03     185.803E+06     197.191E+06     158.791E+06    -4.81156E+06    -4.81090E+06     197.190E+06     158.791E+06    -90.0295E+03
             124     36.5399E-03     17.5095E-03     32.0716E-03     67.5828E-03    -28.5105E-03    -39.0590E-03    -27.0912E-03     55.6150E-03    -28.5105E-03     67.3195E-03     202.500E-03     185.286E+06     196.329E+06     158.843E+06    -4.83278E+06    -4.82882E+06     196.325E+06     158.843E+06    -811.263E+03
             125     37.4719E-03     17.5093E-03     33.1295E-03     67.6850E-03    -28.5102E-03    -39.1628E-03    -27.2517E-03     55.7740E-03    -28.5102E-03     67.2543E-03     202.744E-03     184.611E+06     196.383E+06     159.121E+06    -4.01704E+06    -4.01165E+06     196.377E+06     159.121E+06    -152.559E+03
             126     38.4106E-03     17.5095E-03     34.1876E-03     67.6298E-03    -28.5174E-03    -39.0988E-03    -26.8458E-03     55.3768E-03    -28.5174E-03     68.0417E-03     202.805E-03     185.202E+06     196.769E+06     159.205E+06    -4.33565E+06    -4.33307E+06     196.766E+06     159.205E+06     696.648E+03
             127     39.3544E-03     17.5096E-03     35.2445E-03     67.8140E-03    -28.5165E-03    -39.2927E-03    -26.8597E-03     55.3809E-03    -28.5165E-03     68.6158E-03     202.719E-03     186.304E+06     197.683E+06     159.886E+06    -4.62145E+06    -4.61973E+06     197.682E+06     159.886E+06     586.343E+03
             128     40.3040E-03     17.5094E-03     36.3020E-03     67.7919E-03    -28.5192E-03    -39.2643E-03    -27.0817E-03     55.6093E-03    -28.5192E-03     67.9935E-03     202.520E-03     187.243E+06     198.807E+06     160.082E+06    -4.76986E+06    -4.76740E+06     198.805E+06     160.082E+06     706.691E+03
             129     41.2587E-03     17.5093E-03     37.3592E-03     67.3867E-03    -28.5171E-03    -38.8462E-03    -26.8731E-03     55.4137E-03    -28.5171E-03     67.1886E-03     202.101E-03     186.962E+06     198.353E+06     158.995E+06    -5.15472E+06    -5.15277E+06     198.351E+06     158.995E+06     142.298E+03
             130     42.2169E-03     17.5099E-03     38.4144E-03     67.4599E-03    -28.5040E-03    -38.9415E-03    -27.0228E-03     55.5412E-03    -28.5040E-03     67.1149E-03     202.097E-03     186.455E+06     198.436E+06     160.148E+06    -4.18854E+06    -4.18438E+06     198.432E+06     160.148E+06    -841.794E+03
             131     43.1842E-03     17.5096E-03     39.4752E-03     68.0591E-03    -28.5061E-03    -39.5688E-03    -27.2982E-03     55.7885E-03    -28.5061E-03     68.4079E-03     202.817E-03     186.433E+06     198.102E+06     160.945E+06    -4.11141E+06    -4.10716E+06     198.097E+06     160.945E+06    -351.750E+03
             132     44.1532E-03     17.5095E-03     40.5330E-03     68.0555E-03    -28.5181E-03    -39.5381E-03    -26.9653E-03     55.4827E-03    -28.5181E-03     69.1281E-03     202.974E-03     186.526E+06     197.702E+06     160.268E+06    -4.70188E+06    -4.70006E+06     197.700E+06     160.268E+06     600.212E+03
             133     45.1234E-03     17.5097E-03     41.5877E-03     67.5187E-03    -28.5161E-03    -38.9652E-03    -26.7146E-03     55.2681E-03    -28.5161E-03     67.9496E-03     202.460E-03     186.846E+06     198.250E+06     160.252E+06    -4.67451E+06    -4.67320E+06     198.249E+06     160.252E+06     231.381E+03
             134     46.1005E-03     17.5098E-03     42.6458E-03     67.7397E-03    -28.5055E-03    -39.1930E-03    -26.9507E-03     55.4974E-03    -28.5055E-03     68.0928E-03     202.614E-03     187.097E+06     198.761E+06     160.823E+06    -4.39770E+06    -4.39738E+06     198.760E+06     160.823E+06    -256.073E+03
             135     47.0812E-03     17.5098E-03     43.7041E-03     68.2847E-03    -28.5053E-03    -39.7485E-03    -27.1756E-03     55.7118E-03    -28.5053E-03     69.2881E-03     203.030E-03     187.594E+06     198.959E+06     161.207E+06    -4.64013E+06    -4.63981E+06     198.958E+06     161.207E+06    -26.0502E+03
             136     48.0650E-03     17.5095E-03     44.7623E-03     68.3375E-03    -28.5132E-03    -39.8014E-03    -27.1240E-03     55.6601E-03    -28.5132E-03     69.5758E-03     203.096E-03     187.216E+06     198.314E+06     160.687E+06    -4.85797E+06    -4.85775E+06     198.314E+06     160.687E+06     210.422E+03
             137     49.0499E-03     17.5096E-03     45.8182E-03     67.8617E-03    -28.5157E-03    -39.3281E-03    -26.9735E-03     55.5071E-03    -28.5157E-03     68.4534E-03     202.815E-03     186.276E+06     197.539E+06     160.210E+06    -4.57526E+06    -4.57509E+06     197.539E+06     160.210E+06     5.82454E+03
             138     50.0384E-03     17.5096E-03     46.8749E-03     67.6717E-03    -28.5099E-03    -39.1479E-03    -27.0425E-03     55.5663E-03    -28.5099E-03     67.7213E-03     202.713E-03     185.208E+06     196.420E+06     159.387E+06    -4.50619E+06    -4.50540E+06     196.419E+06     159.387E+06    -357.389E+03
             139     51.0311E-03     17.5095E-03     47.9332E-03     67.6486E-03    -28.5100E-03    -39.1318E-03    -27.0663E-03     55.5831E-03    -28.5100E-03     67.6094E-03     202.728E-03     184.772E+06     196.111E+06     159.587E+06    -4.19501E+06    -4.19346E+06     196.109E+06     159.587E+06     23.1789E+03
             140     52.0247E-03     17.5097E-03     48.9896E-03     67.4478E-03    -28.5179E-03    -38.9285E-03    -26.8338E-03     55.3531E-03    -28.5179E-03     67.5346E-03     202.508E-03     185.629E+06     196.902E+06     159.842E+06    -4.45998E+06    -4.45814E+06     196.901E+06     159.842E+06     606.957E+03
             141     53.0222E-03     17.5096E-03     50.0477E-03     67.6917E-03    -28.5194E-03    -39.1580E-03    -26.8871E-03     55.4208E-03    -28.5194E-03     68.1340E-03     202.589E-03     187.077E+06     198.374E+06     159.972E+06    -4.92406E+06    -4.92157E+06     198.372E+06     159.972E+06     707.101E+03
             142     54.0212E-03     17.5095E-03     51.1049E-03     67.4653E-03    -28.5215E-03    -38.9263E-03    -26.7780E-03     55.3170E-03    -28.5215E-03     67.6727E-03     202.413E-03     188.763E+06     200.104E+06     160.637E+06    -5.27130E+06    -5.26980E+06     200.103E+06     160.637E+06     407.288E+03
             143     55.0211E-03     17.5098E-03     52.1606E-03     67.6950E-03    -28.5123E-03    -39.1701E-03    -26.9733E-03     55.4981E-03    -28.5123E-03     67.9605E-03     202.583E-03     188.697E+06     200.179E+06     160.827E+06    -5.09062E+06    -5.08792E+06     200.176E+06     160.827E+06    -507.762E+03
             144     56.0268E-03     17.5094E-03     53.2205E-03     68.4627E-03    -28.5005E-03    -39.9428E-03    -27.5444E-03     56.0643E-03    -28.5005E-03     69.0026E-03     203.044E-03     187.647E+06     199.621E+06     160.949E+06    -4.34856E+06    -4.34585E+06     199.619E+06     160.949E+06    -554.264E+03
             145     57.0330E-03     17.5096E-03     54.2787E-03     68.1692E-03    -28.5172E-03    -39.6421E-03    -27.1214E-03     55.6485E-03    -28.5172E-03     69.0805E-03     203.063E-03     187.140E+06     199.207E+06     160.787E+06    -4.16109E+06    -4.16072E+06     199.207E+06     160.787E+06     160.114E+03
             146     58.0385E-03     17.5093E-03     55.3344E-03     67.6569E-03    -28.5290E-03    -39.1153E-03    -26.7056E-03     55.2472E-03    -28.5290E-03     68.4381E-03     202.808E-03     186.458E+06     197.990E+06     159.713E+06    -4.63637E+06    -4.63576E+06     197.990E+06     159.713E+06     29.4228E+03
             147     59.0469E-03     17.5094E-03     56.3911E-03     67.5332E-03    -28.5214E-03    -38.9841E-03    -26.8293E-03     55.3783E-03    -28.5214E-03     67.7334E-03     202.679E-03     186.664E+06     198.493E+06     159.927E+06    -4.44074E+06    -4.43799E+06     198.491E+06     159.927E+06     343.792E+03
             148     60.0578E-03     17.5097E-03     57.4487E-03     67.8355E-03    -28.5175E-03    -39.2791E-03    -26.9291E-03     55.4855E-03    -28.5175E-03     68.4181E-03     202.980E-03     188.027E+06     200.468E+06     161.348E+06    -4.04125E+06    -4.03872E+06     200.465E+06     161.348E+06     556.899E+03
             149     62.0838E-03     17.5097E-03     59.5635E-03     67.9038E-03    -28.5170E-03    -39.4092E-03    -26.9231E-03     55.4177E-03    -28.5170E-03     68.8186E-03     202.989E-03     188.542E+06     200.176E+06     161.116E+06    -4.83495E+06    -4.83444E+06     200.176E+06     161.116E+06    -292.849E+03
             150     63.0991E-03     17.5097E-03     60.6210E-03     67.8390E-03    -28.5171E-03    -39.3284E-03    -26.9415E-03     55.4521E-03    -28.5171E-03     68.5285E-03     202.955E-03     188.517E+06     200.195E+06     161.436E+06    -4.68817E+06    -4.68760E+06     200.195E+06     161.436E+06    -327.505E+03
             151     64.1156E-03     17.5096E-03     61.6784E-03     67.9321E-03    -28.5127E-03    -39.4378E-03    -27.0663E-03     55.5606E-03    -28.5127E-03     68.5642E-03     202.939E-03     188.368E+06     200.498E+06     161.436E+06    -4.33806E+06    -4.33791E+06     200.498E+06     161.436E+06    -63.1013E+03
             152     65.1335E-03     17.5100E-03     62.7357E-03     68.2311E-03    -28.5013E-03    -39.7352E-03    -27.1596E-03     55.6555E-03    -28.5013E-03     69.2682E-03     203.188E-03     187.848E+06     199.630E+06     161.100E+06    -4.49580E+06    -4.49298E+06     199.627E+06     161.100E+06    -480.051E+03
             153     66.1543E-03     17.5096E-03     63.7950E-03     68.7332E-03    -28.5017E-03    -40.2233E-03    -27.3797E-03     55.8896E-03    -28.5017E-03     70.2691E-03     203.463E-03     186.833E+06     198.780E+06     160.910E+06    -4.08701E+06    -4.08187E+06     198.775E+06     160.910E+06    -46.3134E+03
             154     67.1744E-03     17.5096E-03     64.8523E-03     68.2891E-03    -28.5172E-03    -39.7713E-03    -27.1218E-03     55.6396E-03    -28.5172E-03     69.4805E-03     203.275E-03     187.474E+06     199.298E+06     161.143E+06    -4.31764E+06    -4.31383E+06     199.295E+06     161.143E+06     873.741E+03
             155     68.1932E-03     17.5097E-03     65.9069E-03     67.3688E-03    -28.5173E-03    -38.8573E-03    -26.6316E-03     55.1431E-03    -28.5173E-03     67.7988E-03     202.634E-03     188.018E+06     198.959E+06     160.156E+06    -5.43300E+06    -5.43124E+06     198.957E+06     160.156E+06     562.314E+03
             156     69.2162E-03     17.5101E-03     66.9648E-03     67.5715E-03    -28.5103E-03    -39.0522E-03    -26.7315E-03     55.2508E-03    -28.5103E-03     68.1700E-03     202.612E-03     187.351E+06     199.467E+06     160.984E+06    -4.13719E+06    -4.13566E+06     199.466E+06     160.984E+06    -177.166E+03
             157     70.2408E-03     17.5095E-03     68.0235E-03     68.1404E-03    -28.5150E-03    -39.6145E-03    -27.1119E-03     55.6377E-03    -28.5150E-03     69.0175E-03     202.919E-03     188.060E+06     199.500E+06     161.164E+06    -4.77422E+06    -4.77300E+06     199.499E+06     161.164E+06    -349.539E+03
             158     71.2643E-03     17.5095E-03     69.0798E-03     67.9244E-03    -28.5227E-03    -39.3976E-03    -27.0037E-03     55.5305E-03    -28.5227E-03     68.6006E-03     202.817E-03     187.438E+06     198.535E+06     160.826E+06    -4.89119E+06    -4.89072E+06     198.534E+06     160.826E+06    -213.839E+03
             159     72.2894E-03     17.5097E-03     70.1368E-03     67.9247E-03    -28.5166E-03    -39.4085E-03    -27.0363E-03     55.5526E-03    -28.5166E-03     68.5520E-03     202.960E-03     186.459E+06     197.703E+06     160.747E+06    -4.46670E+06    -4.46581E+06     197.702E+06     160.747E+06    -422.324E+03
             160     73.3165E-03     17.5094E-03     71.1950E-03     68.1499E-03    -28.5086E-03    -39.6778E-03    -27.3745E-03     55.8467E-03    -28.5086E-03     68.5640E-03     202.980E-03     186.333E+06     197.641E+06     160.476E+06    -4.47306E+06    -4.47091E+06     197.639E+06     160.476E+06     212.991E+03
             161     74.3440E-03     17.5096E-03     72.2526E-03     67.9086E-03    -28.5134E-03    -39.4398E-03    -27.2091E-03     55.6780E-03    -28.5134E-03     68.2158E-03     202.627E-03     187.139E+06     198.983E+06     160.471E+06    -4.41427E+06    -4.41107E+06     198.980E+06     160.471E+06     806.241E+03
             162     75.3713E-03     17.5098E-03     73.3093E-03     67.6208E-03    -28.5186E-03    -39.1176E-03    -26.9533E-03     55.4565E-03    -28.5186E-03     67.8359E-03     202.466E-03     188.254E+06     200.135E+06     160.555E+06    -4.76237E+06    -4.76089E+06     200.134E+06     160.555E+06     407.529E+03
             163     76.4006E-03     17.5094E-03     74.3672E-03     67.6190E-03    -28.5240E-03    -39.1104E-03    -26.9039E-03     55.4126E-03    -28.5240E-03     67.9348E-03     202.574E-03     188.629E+06     200.483E+06     160.447E+06    -4.94947E+06    -4.94927E+06     200.483E+06     160.447E+06     156.767E+03
             164     77.4297E-03     17.5096E-03     75.4239E-03     67.5765E-03    -28.5258E-03    -39.0832E-03    -26.7654E-03     55.2587E-03    -28.5258E-03     68.1783E-03     202.925E-03     188.926E+06     201.469E+06     160.919E+06    -4.43993E+06    -4.43956E+06     201.468E+06     160.919E+06     272.795E+03
             165     78.4600E-03     17.5099E-03     76.4812E-03     67.7182E-03    -28.5204E-03    -39.2234E-03    -26.7267E-03     55.2215E-03    -28.5204E-03     68.7092E-03     203.159E-03     189.423E+06     202.187E+06     161.151E+06    -4.39031E+06    -4.38963E+06     202.186E+06     161.151E+06     360.941E+03
             166     79.4922E-03     17.5096E-03     77.5398E-03     68.1477E-03    -28.5191E-03    -39.6233E-03    -26.7843E-03     55.3086E-03    -28.5191E-03     69.8216E-03     203.184E-03     189.737E+06     202.430E+06     160.940E+06    -4.61895E+06    -4.61845E+06     202.429E+06     160.940E+06     236.814E+03
             167     80.5234E-03     17.5097E-03     78.5966E-03     68.2570E-03    -28.5198E-03    -39.7124E-03    -26.8596E-03     55.4042E-03    -28.5198E-03     69.9265E-03     203.201E-03     189.617E+06     202.369E+06     161.199E+06    -4.45029E+06    -4.45003E+06     202.369E+06     161.199E+06     173.739E+03
             168     81.5547E-03     17.5094E-03     79.6529E-03     68.0540E-03    -28.5188E-03    -39.5286E-03    -27.0281E-03     55.5535E-03    -28.5188E-03     68.9504E-03     202.953E-03     190.145E+06     203.104E+06     161.506E+06    -4.39495E+06    -4.38897E+06     203.098E+06     161.506E+06     934.993E+03
             169     82.5878E-03     17.5097E-03     80.7103E-03     67.8029E-03    -28.5188E-03    -39.2856E-03    -26.9832E-03     55.5005E-03    -28.5188E-03     68.2963E-03     202.566E-03     192.132E+06     205.855E+06     162.446E+06    -4.26710E+06    -4.25496E+06     205.843E+06     162.446E+06     1.59630E+06
             170     83.6215E-03     17.5096E-03     81.7678E-03     67.7005E-03    -28.5200E-03    -39.1920E-03    -26.8276E-03     55.3361E-03    -28.5200E-03     68.3742E-03     202.474E-03     195.216E+06     209.250E+06     163.355E+06    -4.82190E+06    -4.80971E+06     209.238E+06     163.355E+06     1.61421E+06
             171     84.6554E-03     17.5097E-03     82.8248E-03     67.7014E-03    -28.5156E-03    -39.2068E-03    -26.8760E-03     55.3706E-03    -28.5156E-03     68.2984E-03     202.392E-03     197.386E+06     212.156E+06     163.837E+06    -4.90122E+06    -4.89294E+06     212.148E+06     163.837E+06     1.31344E+06
             172     85.6898E-03     17.5097E-03     83.8818E-03     67.7448E-03    -28.5164E-03    -39.2378E-03    -26.8738E-03     55.3808E-03    -28.5164E-03     68.4046E-03     202.617E-03     199.027E+06     214.466E+06     164.516E+06    -4.77713E+06    -4.77455E+06     214.464E+06     164.516E+06     611.599E+03
             173     86.7265E-03     17.5096E-03     84.9406E-03     67.7784E-03    -28.5262E-03    -39.2511E-03    -26.6289E-03     55.1562E-03    -28.5262E-03     69.0393E-03     203.023E-03     199.968E+06     216.029E+06     165.333E+06    -4.40789E+06    -4.40400E+06     216.025E+06     165.333E+06     737.009E+03
             174     87.7605E-03     17.5098E-03     85.9960E-03     67.5403E-03    -28.5243E-03    -39.0438E-03    -26.4603E-03     54.9567E-03    -28.5243E-03     68.7852E-03     202.663E-03     201.078E+06     217.307E+06     165.184E+06    -4.69772E+06    -4.68879E+06     217.298E+06     165.184E+06     1.40504E+06
             175     88.7964E-03     17.5101E-03     87.0528E-03     67.4870E-03    -28.5127E-03    -39.0220E-03    -26.5991E-03     55.0641E-03    -28.5127E-03     68.3757E-03     202.493E-03     203.648E+06     219.288E+06     165.501E+06    -5.85500E+06    -5.84870E+06     219.281E+06     165.501E+06     388.974E+03
             176     89.8336E-03     17.5102E-03     88.1106E-03     67.4868E-03    -28.5050E-03    -39.0318E-03    -26.5335E-03     54.9885E-03    -28.5050E-03     68.5576E-03     202.578E-03     203.412E+06     219.681E+06     166.243E+06    -5.11553E+06    -5.11396E+06     219.679E+06     166.243E+06    -571.376E+03
             177     90.8705E-03     17.5106E-03     89.1674E-03     67.1501E-03    -28.4993E-03    -38.7161E-03    -25.9700E-03     54.4040E-03    -28.4993E-03     68.9015E-03     202.146E-03     201.167E+06     218.514E+06     165.763E+06    -3.77203E+06    -3.76949E+06     218.512E+06     165.763E+06     285.798E+03
             178     91.9069E-03     17.5110E-03     90.2233E-03     66.9177E-03    -28.4727E-03    -38.4878E-03    -25.7223E-03     54.1521E-03    -28.4727E-03     68.7771E-03     201.738E-03     201.979E+06     218.235E+06     164.917E+06    -5.05370E+06    -5.05153E+06     218.233E+06     164.917E+06     503.332E+03
             179     92.9421E-03     17.5117E-03     91.2775E-03     66.5805E-03    -28.4192E-03    -38.1930E-03    -25.7116E-03     54.0991E-03    -28.4192E-03     67.8795E-03     201.193E-03     201.831E+06     217.551E+06     163.822E+06    -5.70754E+06    -5.70390E+06     217.547E+06     163.822E+06    -620.459E+03
             180     93.9816E-03     17.5128E-03     92.3354E-03     66.5282E-03    -28.3566E-03    -38.1913E-03    -25.3425E-03     53.6793E-03    -28.3566E-03     68.6990E-03     201.219E-03     198.221E+06     215.758E+06     161.997E+06    -3.79738E+06    -3.79370E+06     215.754E+06     161.997E+06    -563.343E+03
             181     95.0183E-03     17.5141E-03     93.3902E-03     66.3933E-03    -28.2716E-03    -38.0904E-03    -24.9844E-03     53.2873E-03    -28.2716E-03     69.2102E-03     200.915E-03     197.164E+06     215.113E+06     159.060E+06    -4.00116E+06    -4.00049E+06     215.112E+06     159.060E+06     332.515E+03
             182     96.0540E-03     17.5162E-03     94.4434E-03     65.8188E-03    -28.1412E-03    -37.6299E-03    -24.7966E-03     52.9854E-03    -28.1412E-03     68.2025E-03     199.851E-03     196.808E+06     215.020E+06     155.586E+06    -4.64959E+06    -4.64889E+06     215.019E+06     155.586E+06     170.368E+03
             183     97.0925E-03     17.5187E-03     95.4989E-03     65.3538E-03    -27.9558E-03    -37.3549E-03    -24.4606E-03     52.4595E-03    -27.9558E-03     68.0608E-03     199.436E-03     193.205E+06     211.501E+06     149.510E+06    -5.08223E+06    -5.06530E+06     211.484E+06     149.510E+06    -1.43432E+06
             184     98.1289E-03     17.5226E-03     96.5517E-03     64.9380E-03    -27.6936E-03    -37.2181E-03    -24.1370E-03     51.8568E-03    -27.6936E-03     68.2686E-03     199.171E-03     186.536E+06     206.183E+06     141.059E+06    -4.15822E+06    -4.13145E+06     206.156E+06     141.059E+06    -2.35493E+06
             185     99.1655E-03     17.5281E-03     97.6041E-03     64.8361E-03    -27.3445E-03    -37.4843E-03    -24.3922E-03     51.7440E-03    -27.3445E-03     68.3556E-03     198.805E-03     180.379E+06     200.030E+06     133.229E+06    -4.21943E+06    -4.19128E+06     200.002E+06     133.229E+06    -2.36865E+06
             186     100.205E-03     17.5348E-03     98.6585E-03     64.9199E-03    -26.9328E-03    -38.0278E-03    -25.1252E-03     52.0173E-03    -26.9328E-03     68.1701E-03     199.283E-03     173.856E+06     193.201E+06     129.735E+06    -3.46548E+06    -3.44475E+06     193.181E+06     129.735E+06    -1.84482E+06
             187     101.242E-03     17.5429E-03     99.7105E-03     65.2714E-03    -26.4830E-03    -38.8539E-03    -26.7177E-03     53.1352E-03    -26.4830E-03     66.7782E-03     201.312E-03     169.939E+06     185.822E+06     131.264E+06    -4.60643E+06    -4.56546E+06     185.781E+06     131.264E+06    -2.39649E+06
             188     102.284E-03     17.5499E-03     100.767E-03     67.1617E-03    -26.0784E-03    -41.0823E-03    -30.5259E-03     56.6053E-03    -26.0784E-03     64.0998E-03     205.106E-03     167.624E+06     174.587E+06     139.953E+06    -7.21979E+06    -6.93232E+06     174.300E+06     139.953E+06    -6.55879E+06
             189     103.330E-03     17.5535E-03     101.828E-03     71.1353E-03    -25.8040E-03    -45.2959E-03    -36.5022E-03     62.3416E-03    -25.8040E-03     61.3449E-03     210.135E-03     158.416E+06     161.962E+06     149.933E+06    -1.97124E+06    -1.62260E+06     159.866E+06     151.679E+06    -7.38396E+06
             190     104.384E-03     17.5543E-03     102.897E-03     75.3499E-03    -25.6335E-03    -49.7248E-03    -42.4464E-03     68.0715E-03    -25.6335E-03     58.4526E-03     214.255E-03     155.946E+06     156.545E+06     148.966E+06    -3.01587E+06    -2.91261E+06     148.863E+06     156.545E+06    -3.26008E+06
             191     105.441E-03     17.5548E-03     103.970E-03     79.0513E-03    -25.4932E-03    -53.5568E-03    -47.3415E-03     72.8360E-03    -25.4932E-03     55.9782E-03     216.343E-03     157.625E+06     157.920E+06     143.147E+06    -6.54531E+06    -6.44476E+06     143.046E+06     157.920E+06    -3.18127E+06
             192     106.504E-03     17.5554E-03     105.047E-03     83.3639E-03    -25.3177E-03    -58.0423E-03    -52.7500E-03     78.0715E-03    -25.3177E-03     53.5654E-03     215.894E-03     152.999E+06     155.467E+06     134.178E+06    -7.02642E+06    -6.69483E+06     133.847E+06     155.467E+06    -6.65434E+06
             193     107.572E-03     17.5560E-03     106.130E-03     89.0344E-03    -25.0881E-03    -63.9640E-03    -59.6086E-03     84.6790E-03    -25.0881E-03     50.7376E-03     211.880E-03     142.905E+06     150.953E+06     120.181E+06    -4.66427E+06    -4.27903E+06     119.795E+06     150.953E+06    -6.91095E+06
             194     108.650E-03     17.5570E-03     107.222E-03     96.3861E-03    -24.8240E-03    -71.6009E-03    -68.1117E-03     92.8970E-03    -24.8240E-03     47.7434E-03     204.730E-03     135.790E+06     148.134E+06     107.447E+06    -3.30744E+06    -3.12335E+06     107.263E+06     148.134E+06    -4.25992E+06
             195     109.736E-03     17.5575E-03     108.322E-03     105.610E-03    -24.5128E-03    -81.1258E-03    -78.4693E-03     102.953E-03    -24.5128E-03     43.9564E-03     196.595E-03     133.824E+06     143.384E+06     95.7037E+06    -7.69596E+06    -7.40997E+06     95.4177E+06     143.384E+06    -4.85977E+06
             196     110.835E-03     17.5587E-03     109.435E-03     116.563E-03    -24.1476E-03    -92.4120E-03    -90.3126E-03     114.464E-03    -24.1476E-03     41.6075E-03     190.417E-03     125.701E+06     139.175E+06     79.9806E+06    -4.72149E+06    -4.29523E+06     79.5544E+06     139.175E+06    -5.99307E+06
             197     111.951E-03     17.5595E-03     110.565E-03     127.865E-03    -23.7853E-03    -104.109E-03    -102.101E-03     125.856E-03    -23.7853E-03     42.9811E-03     188.883E-03     116.621E+06     131.484E+06     62.4324E+06    -3.09672E+06    -2.92157E+06     62.2573E+06     131.484E+06    -2.68453E+06
             198     113.084E-03     17.5592E-03     111.713E-03     139.289E-03    -23.4398E-03    -115.870E-03    -112.990E-03     136.409E-03    -23.4398E-03     53.4899E-03     195.338E-03     103.961E+06     118.196E+06     48.6180E+06    -1.13392E+06    -597.477E+03     48.0815E+06     118.196E+06     3.01102E+06
             199     114.234E-03     17.5604E-03     112.876E-03     152.087E-03    -23.1560E-03    -128.902E-03    -123.055E-03     146.241E-03    -23.1560E-03     79.1202E-03     212.947E-03     99.7571E+06     112.196E+06     42.1862E+06    -1.99588E+06    -1.28187E+06     41.4721E+06     112.196E+06     1.13447E+06
             200     115.415E-03     17.5600E-03     114.072E-03     158.745E-03    -23.0513E-03    -135.677E-03    -121.507E-03     144.575E-03    -23.0513E-03     122.494E-03     227.190E-03     85.5213E+06     95.2885E+06     39.4980E+06    -3.09096E+06    -1.14877E+06     37.5558E+06     95.2885E+06    -7.47044E+06
             201     116.587E-03     17.5633E-03     115.257E-03     139.597E-03    -23.9996E-03    -115.652E-03    -80.9970E-03     104.942E-03    -23.9996E-03     165.175E-03     193.354E-03     69.4685E+06     64.7762E+06     22.7747E+06    -15.4088E+06    -12.5585E+06     19.9244E+06     64.7762E+06    -9.91770E+06
             202     117.648E-03     17.5611E-03     116.330E-03     69.4037E-03    -4.85195E-03    -64.5899E-03    -14.6096E-03     43.7856E-03    -29.2142E-03     91.7749E-03     95.4054E-03     77.8788E+06     41.4137E+06     4.34162E+06    -47.5128E+06     644.808E+03     3.25557E+06    -5.65782E+06    -4.64753E+06
             203     118.164E-03     16.3066E-03     117.033E-03     31.2106E-03     2.84681E-03    -34.1358E-03     4.23417E-03     29.8232E-03    -34.1358E-03     6.35780E-03     48.8902E-03     82.7218E+06     61.9604E+06     18.2369E+06    -32.2194E+06     15.1459E+06     17.9431E+06     14.8888E+06    -2.43969E+06
             204     117.801E-03     15.3422E-03     116.798E-03     60.1307E-03    -21.2695E-03    -38.9384E-03    -26.0614E-03     59.8741E-03    -33.8898E-03     6.93849E-03     79.1087E-03     77.2939E+06     53.7893E+06     23.6449E+06    -30.2709E+06     4.60871E+06    -11.2347E+06     53.7893E+06     2.91337E+06
             205     117.427E-03     14.4368E-03     116.536E-03     68.3717E-03    -31.2528E-03    -37.1676E-03    -36.2768E-03     68.3472E-03    -32.1191E-03     520.624E-06     83.5568E-03     70.0138E+06     49.2461E+06     24.3555E+06    -26.4993E+06     9.41202E+06    -11.5559E+06     49.2461E+06     9.56489E+06
             206     117.118E-03     13.5049E-03     116.337E-03     62.4938E-03    -29.7288E-03    -32.8113E-03    -31.7944E-03     62.3432E-03    -30.5951E-03    -6.60314E-03     73.2051E-03     67.0952E+06     70.0440E+06     14.2373E+06    -2.74945E+06    -140.042E+03     11.6279E+06     70.0440E+06     3.79487E+06
             207     116.866E-03     12.5564E-03     116.189E-03     68.7797E-03    -29.1516E-03    -39.6632E-03    -39.1678E-03     68.2843E-03    -29.1516E-03    -14.3908E-03     77.4210E-03     79.7168E+06     74.4601E+06     1.64321E+06    -10.3223E+06    -7.79870E+06    -880.407E+03     74.4601E+06    -3.91937E+06
             208     116.639E-03     11.6233E-03     116.058E-03     71.1809E-03    -27.3270E-03    -43.9044E-03    -43.2561E-03     70.5327E-03    -27.3270E-03    -17.2159E-03     78.0825E-03     91.9606E+06     88.0903E+06     9.05018E+06    -12.8312E+06    -4.18459E+06     403.562E+03     88.0903E+06    -8.83676E+06
             209     116.445E-03     10.6851E-03     115.954E-03     66.0616E-03    -25.3517E-03    -40.7227E-03    -40.2496E-03     65.5885E-03    -25.3517E-03    -14.1159E-03     70.9558E-03     87.7009E+06     84.3304E+06     6.82902E+06    -10.7231E+06     1.54297E+06    -5.43703E+06     84.3304E+06    -7.93741E+06
             210     116.281E-03     9.73554E-03     115.873E-03     60.6429E-03    -23.5587E-03    -37.0866E-03    -36.7841E-03     60.3404E-03    -23.5587E-03    -10.8266E-03     63.9659E-03     80.8308E+06     82.5525E+06     8.89900E+06    -3.91326E+06     5.63573E+06    -650.004E+03     82.5525E+06    -5.54109E+06
             211     116.141E-03     8.77973E-03     115.809E-03     55.9061E-03    -21.9235E-03    -33.9840E-03    -33.7741E-03     55.6962E-03    -21.9235E-03    -8.65998E-03     58.1013E-03     77.6699E+06     79.8913E+06     10.2567E+06    -3.87003E+06     7.08967E+06    -703.003E+03     79.8913E+06    -5.76928E+06
             212     116.021E-03     7.81939E-03     115.757E-03     50.8886E-03    -20.3831E-03    -30.5128E-03    -30.3654E-03     50.7412E-03    -20.3831E-03    -6.90687E-03     52.2833E-03     71.6612E+06     74.9863E+06     13.2105E+06    -3.48864E+06     10.2233E+06    -501.398E+03     74.9863E+06    -6.38615E+06
             213     115.920E-03     6.85363E-03     115.717E-03     45.9724E-03    -18.9964E-03    -26.9890E-03    -26.8828E-03     45.8661E-03    -18.9964E-03    -5.56012E-03     46.7966E-03     65.9217E+06     69.8213E+06     16.9048E+06    -3.98399E+06     14.3632E+06    -1.44248E+06     69.8213E+06    -6.48916E+06
             214     115.835E-03     5.88296E-03     115.686E-03     41.5370E-03    -17.7710E-03    -23.7721E-03    -23.6944E-03     41.4593E-03    -17.7710E-03    -4.49257E-03     41.9871E-03     58.1780E+06     64.0665E+06     18.9112E+06    -1.58554E+06     17.2184E+06     107.312E+03     64.0665E+06    -5.57707E+06
             215     115.766E-03     4.90861E-03     115.662E-03     37.6234E-03    -16.7028E-03    -20.9115E-03    -20.8583E-03     37.5702E-03    -16.7028E-03    -3.51800E-03     37.8416E-03     51.0960E+06     56.4608E+06     23.1418E+06    -1.88387E+06     21.1559E+06     102.001E+03     56.4608E+06    -6.69131E+06
             216     115.712E-03     3.93061E-03     115.645E-03     34.3916E-03    -15.8321E-03    -18.5593E-03    -18.5230E-03     34.3553E-03    -15.8321E-03    -2.76546E-03     34.4845E-03     46.6423E+06     49.6742E+06     29.2686E+06    -3.41478E+06     27.7299E+06    -1.87607E+06     49.6742E+06    -6.81213E+06
             217     115.669E-03     2.95011E-03     115.631E-03     31.8417E-03    -15.1372E-03    -16.6981E-03    -16.6743E-03     31.8179E-03    -15.1372E-03    -2.13827E-03     31.8748E-03     41.0524E+06     43.0438E+06     35.4110E+06    -1.04454E+06     35.9366E+06    -270.710E+03     41.7444E+06    -5.19240E+06
             218     115.639E-03     1.96762E-03     115.623E-03     29.8849E-03    -14.5854E-03    -15.2849E-03    -15.0983E-03     29.8719E-03    -14.7590E-03    -1.50602E-03     29.8934E-03     45.8843E+06     44.9963E+06     43.2751E+06    -1.71519E+06     44.5022E+06    -1.22100E+06     43.2751E+06    -4.77053E+06
             219     115.621E-03     983.629E-06     115.616E-03     29.4034E-03    -14.3779E-03    -15.0245E-03    -14.8419E-03     29.3944E-03    -14.5516E-03    -1.25911E-03     29.4085E-03     55.7926E+06     53.7303E+06     51.6353E+06    -3.07271E+06     51.6812E+06    -2.69673E+06     53.3085E+06    -4.46388E+06
             220     114.585E-03    -1.39760E-06     114.585E-03     25.7562E-03    -12.4070E-03    -13.3485E-03    -12.8735E-03     25.7497E-03    -12.8755E-03    -990.721E-06     25.7671E-03     45.2386E+06      35.476E+06     33.0795E+06    -10.9131E+06     33.1262E+06    -10.2365E+06     34.7526E+06    -4.80418E+06
             221     113.564E-03     460.630E-09     113.564E-03     18.1991E-03    -8.78047E-03    -9.41806E-03    -8.94722E-03     18.1967E-03    -9.24898E-03    -500.781E-06     18.2121E-03     22.0465E+06    -559.270E+03    -3.62393E+06    -23.8387E+06    -1.26342E+06    -23.1346E+06    -3.62393E+06    -3.94931E+06
             222     112.551E-03    -157.877E-09     112.551E-03     12.3164E-03    -6.05141E-03    -6.26497E-03    -6.21686E-03     12.3127E-03    -6.09589E-03    -472.520E-06     12.3287E-03     10.3678E+06    -24.9681E+06    -29.0627E+06    -36.6906E+06    -27.4934E+06    -34.1654E+06    -29.0627E+06    -2.79174E+06
             223     111.541E-03     72.7411E-09     111.541E-03     8.23593E-03    -4.09284E-03    -4.14316E-03    -4.08754E-03     8.23064E-03    -4.14316E-03    -510.208E-06     8.24914E-03     17.0358E+06    -44.2908E+06    -58.2205E+06    -63.0924E+06    -60.5368E+06    -46.8464E+06    -58.2205E+06    -6.06890E+06
             224     110.535E-03    -64.2090E-09     110.535E-03     5.27905E-03    -2.62858E-03    -2.65035E-03    -2.62567E-03     5.27614E-03    -2.65035E-03    -296.113E-06     5.29046E-03     42.1436E+06    -62.6719E+06    -102.073E+06    -106.950E+06    -103.296E+06    -64.5658E+06    -103.833E+06    -8.02324E+06
             225     109.530E-03     4.06747E-09     109.530E-03     3.36313E-03    -1.66541E-03    -1.69768E-03    -1.66299E-03     3.36071E-03    -1.69768E-03     41.7344E-06     3.37253E-03     66.7369E+06    -78.3564E+06    -143.195E+06    -146.840E+06    -144.595E+06    -78.8410E+06    -144.955E+06    -3.55841E+06
             226     108.527E-03    -10.0293E-09     108.527E-03     2.20951E-03    -1.08673E-03    -1.12278E-03    -1.07867E-03     2.20146E-03    -1.12278E-03     300.880E-06     2.21485E-03     93.7478E+06    -77.8638E+06    -167.075E+06    -175.497E+06    -167.954E+06    -78.8688E+06    -173.612E+06     7.17176E+06
             227     107.525E-03    -140.519E-09     107.525E-03     2.43367E-03    -1.19502E-03    -1.23857E-03    -1.20168E-03     2.41649E-03    -1.21473E-03     499.833E-06     2.43745E-03     106.455E+06    -33.3612E+06    -133.012E+06    -145.515E+06    -133.117E+06    -39.2222E+06    -139.550E+06     22.5817E+06
             228     106.522E-03     185.173E-09     106.522E-03     5.12794E-03    -2.51316E-03    -2.61468E-03    -2.58307E-03     5.09632E-03    -2.51316E-03     986.400E-06     5.13311E-03     92.5843E+06     37.2005E+06    -48.6525E+06    -60.8785E+06    -54.4427E+06     30.7648E+06    -48.6525E+06     23.6431E+06
             229     105.515E-03    -4.04616E-09     105.515E-03     10.2266E-03    -5.05585E-03    -5.17064E-03    -5.12559E-03     10.1815E-03    -5.05585E-03     1.65319E-03     10.2301E-03     74.1979E+06     79.6805E+06     10.0895E+06     1.69476E+06     3.29620E+06     78.0791E+06     10.0895E+06     7.33469E+06
             230     104.502E-03     64.7741E-09     104.502E-03     17.2012E-03    -8.50154E-03    -8.69985E-03    -8.65535E-03     17.1567E-03    -8.50154E-03     2.11658E-03     17.2078E-03     44.1285E+06     87.9833E+06     45.6148E+06     42.2932E+06     43.6604E+06     87.8037E+06     44.4272E+06    -2.14005E+06
             231     103.479E-03     202.836E-09     103.479E-03     24.9451E-03    -12.3892E-03    -12.5568E-03    -12.5227E-03     24.9111E-03    -12.3892E-03     2.22863E-03     24.9615E-03     17.5135E+06     88.1940E+06     76.3479E+06     69.5957E+06     75.0019E+06     82.7052E+06     76.4305E+06    -3.75407E+06
             232     102.451E-03    -172.870E-09     102.451E-03     32.4836E-03    -16.2259E-03    -16.2599E-03    -16.2324E-03     32.4561E-03    -16.2259E-03     2.30867E-03     32.5125E-03     21.9624E+06     91.6745E+06     86.8679E+06     67.7078E+06     87.5057E+06     70.6065E+06     88.1380E+06    -7.15613E+06
             233     101.412E-03     176.786E-09     101.412E-03     39.2354E-03    -19.5194E-03    -19.7174E-03    -19.6941E-03     39.2121E-03    -19.5194E-03     2.32791E-03     39.2739E-03     44.4308E+06     92.7144E+06     88.8611E+06     46.6605E+06     90.8810E+06     48.1771E+06     89.1779E+06    -6.54819E+06
             234     100.370E-03     147.545E-09     100.370E-03     44.8944E-03    -22.2466E-03    -22.6473E-03    -22.6313E-03     44.8784E-03    -22.2466E-03     2.05853E-03     44.9442E-03     61.4598E+06     89.7090E+06     88.9077E+06     27.8526E+06      88.554E+06     28.2063E+06     89.7090E+06    -4.59629E+06
             235     99.3211E-03     304.006E-09     99.3211E-03     49.3503E-03    -24.4808E-03    -24.8692E-03    -24.8601E-03     49.3412E-03    -24.4808E-03     1.60217E-03     49.4130E-03     69.0901E+06     77.6209E+06     77.0459E+06     8.24611E+06     76.3666E+06     8.92537E+06     77.6209E+06    -6.74093E+06
             236     98.2691E-03     9.37490E-09     98.2691E-03     52.4861E-03    -26.1120E-03    -26.3749E-03    -26.3696E-03     52.4808E-03    -26.1120E-03     1.29250E-03     52.5536E-03     81.6052E+06     65.9643E+06     65.0215E+06    -16.1063E+06     65.0848E+06    -15.3173E+06     65.1120E+06    -7.94090E+06
             237     97.2139E-03     185.000E-09     97.2139E-03     54.6803E-03    -27.2265E-03    -27.4546E-03    -27.4495E-03     54.6752E-03    -27.2265E-03     1.29643E-03     54.7534E-03     96.3073E+06     58.4767E+06     55.5473E+06    -39.2576E+06     57.9198E+06    -38.7006E+06     55.5473E+06    -7.27596E+06
             238     96.1566E-03     25.9951E-09     96.1566E-03     55.8766E-03    -27.7662E-03    -28.1113E-03    -28.1071E-03     55.8724E-03    -27.7662E-03     1.17350E-03     55.9565E-03     99.4380E+06     39.1651E+06     36.5289E+06    -61.5570E+06     38.3231E+06    -61.2740E+06     37.0879E+06    -5.14363E+06
             239     95.0992E-03     413.127E-09     95.0992E-03     56.3971E-03    -27.9543E-03    -28.4429E-03    -28.4408E-03     56.3951E-03    -27.9543E-03     803.771E-06     56.4782E-03     102.914E+06     21.9078E+06     20.8071E+06    -81.5518E+06     20.4059E+06    -81.1507E+06     21.9078E+06    -6.04356E+06
             240     94.0429E-03     119.512E-09     94.0429E-03     56.7647E-03    -28.2228E-03    -28.5385E-03    -28.4889E-03     56.7641E-03    -28.2718E-03     410.351E-06     56.8417E-03     105.647E+06     5.09161E+06     3.14028E+06    -101.514E+06     4.08638E+06    -101.051E+06     3.68192E+06    -6.83376E+06
             241     92.9836E-03    -227.650E-09     92.9836E-03     57.0177E-03    -28.3726E-03    -28.6427E-03    -28.5931E-03     57.0170E-03    -28.4216E-03     428.090E-06     57.0939E-03     108.041E+06    -9.60064E+06    -11.0161E+06    -118.335E+06    -9.78922E+06    -118.146E+06    -11.0161E+06    -4.41669E+06
             242     91.9257E-03     662.607E-09     91.9257E-03     57.1327E-03    -28.4067E-03    -28.7273E-03    -28.7260E-03     57.1314E-03    -28.4067E-03     680.355E-06     57.2160E-03     111.770E+06    -21.2793E+06    -21.9372E+06    -133.375E+06    -22.2360E+06    -133.071E+06    -21.2851E+06    -5.47825E+06
             243     90.8674E-03    -456.517E-09     90.8674E-03     57.0661E-03    -28.4504E-03    -28.6178E-03    -28.6164E-03     57.0647E-03    -28.4504E-03     690.773E-06     57.1555E-03     115.565E+06    -35.8611E+06    -37.9418E+06    -152.451E+06    -36.8511E+06    -152.113E+06    -37.2896E+06    -6.02756E+06
             244     89.8092E-03     574.934E-09     89.8092E-03     57.1166E-03    -28.3910E-03    -28.7275E-03    -28.7261E-03     57.1151E-03    -28.3910E-03     702.660E-06     57.2028E-03     124.029E+06    -43.2378E+06    -47.5737E+06    -169.372E+06    -46.3442E+06    -169.173E+06    -44.6663E+06    -4.94552E+06
             245     88.7517E-03    -10.4747E-09     88.7517E-03     57.2191E-03    -28.4375E-03    -28.7816E-03    -28.7802E-03     57.2177E-03    -28.4375E-03     688.263E-06     57.3027E-03     132.234E+06    -48.7955E+06    -55.0862E+06    -184.063E+06    -51.8578E+06    -183.908E+06    -52.1789E+06    -4.40688E+06
             246     87.6930E-03     116.681E-09     87.6930E-03     57.1074E-03    -28.4294E-03    -28.6772E-03    -28.6753E-03     57.1055E-03    -28.4294E-03     782.495E-06     57.1941E-03     141.277E+06    -53.2560E+06    -58.0872E+06    -196.875E+06    -54.7763E+06    -196.803E+06    -56.6393E+06    -3.16415E+06
             247     86.6351E-03     239.522E-09     86.6351E-03     56.9002E-03    -28.2583E-03    -28.6424E-03    -28.6404E-03     56.8982E-03    -28.2583E-03     831.361E-06     56.9871E-03     149.098E+06    -57.4039E+06    -60.3648E+06    -207.961E+06    -58.9160E+06    -207.896E+06    -58.9169E+06    -3.08037E+06
             248     85.5787E-03     155.514E-09     85.5787E-03     56.9742E-03    -28.3798E-03    -28.5976E-03    -28.5967E-03     56.9733E-03    -28.3798E-03     546.263E-06     57.0639E-03     158.724E+06    -57.6559E+06    -60.3363E+06    -217.703E+06    -58.9047E+06    -217.622E+06    -59.1690E+06    -3.59721E+06
             249     84.5200E-03    -122.105E-09     84.5200E-03     57.0442E-03    -28.4483E-03    -28.5984E-03    -28.5975E-03     57.0432E-03    -28.4483E-03     546.337E-06     57.1333E-03     168.141E+06    -58.0654E+06    -60.6324E+06    -227.475E+06    -59.2874E+06    -227.420E+06    -59.4651E+06    -2.89956E+06
             250     83.4619E-03     387.356E-09     83.4619E-03     56.8906E-03    -28.3022E-03    -28.5888E-03    -28.5870E-03     56.8889E-03    -28.3022E-03     779.242E-06     56.9711E-03     174.542E+06    -58.4727E+06    -61.1173E+06    -234.322E+06    -59.7330E+06    -234.307E+06    -59.8724E+06    -582.942E+03
             251     82.4057E-03    -90.6348E-09     82.4057E-03     57.0148E-03    -28.4063E-03    -28.6100E-03    -28.6083E-03     57.0131E-03    -28.4063E-03     747.377E-06     57.1963E-03     177.070E+06    -57.0506E+06    -58.8601E+06    -235.017E+06    -58.2984E+06    -235.014E+06    -57.6151E+06     292.059E+03
             252     81.3469E-03     205.283E-09     81.3469E-03     57.1492E-03    -28.4533E-03    -28.6968E-03    -28.6942E-03     57.1466E-03    -28.4533E-03     907.483E-06     57.5150E-03     176.424E+06    -59.5717E+06    -60.3718E+06    -236.394E+06    -59.8077E+06    -236.394E+06    -60.1363E+06    -106.663E+03
             253     80.2888E-03     151.499E-09     80.2888E-03     56.9061E-03    -28.2476E-03    -28.6583E-03    -28.6553E-03     56.9031E-03    -28.2476E-03     995.794E-06     57.2055E-03     178.490E+06    -59.8520E+06    -60.1853E+06    -238.508E+06    -60.1873E+06    -238.506E+06    -59.8520E+06    -350.101E+03
             254     79.2329E-03     299.140E-09     79.2329E-03     56.9064E-03    -28.2555E-03    -28.6549E-03    -28.6537E-03     56.9052E-03    -28.2555E-03     575.512E-06     57.0998E-03     188.731E+06    -52.0438E+06    -52.6093E+06    -241.057E+06    -52.6301E+06    -241.036E+06    -52.0438E+06    -1.77783E+06
             255     78.1749E-03     42.0196E-09     78.1749E-03     57.1529E-03    -28.4547E-03    -28.7027E-03    -28.7015E-03     57.1516E-03    -28.4547E-03     597.146E-06     57.3709E-03     197.435E+06    -46.8086E+06    -49.0758E+06    -245.364E+06    -47.3007E+06    -245.340E+06    -48.6080E+06    -2.10169E+06
             256     77.1164E-03     84.8429E-09     77.1164E-03     57.1773E-03    -28.4436E-03    -28.7346E-03    -28.7322E-03     57.1748E-03    -28.4436E-03     916.489E-06     57.3681E-03     200.018E+06    -46.1125E+06    -49.5628E+06    -247.833E+06    -47.8154E+06    -247.781E+06    -47.9119E+06     1.40398E+06
             257     76.0591E-03     359.045E-09     76.0591E-03     57.0880E-03    -28.3407E-03    -28.7464E-03    -28.7444E-03     57.0860E-03    -28.3407E-03     804.855E-06     57.2687E-03     198.291E+06    -43.8198E+06    -47.2432E+06    -243.801E+06    -45.5212E+06    -243.750E+06    -45.5923E+06     2.79025E+06
             258     75.0019E-03    -8.12028E-09     75.0019E-03     56.9797E-03    -28.3677E-03    -28.6112E-03    -28.6100E-03     56.9785E-03    -28.3677E-03     637.477E-06     57.3763E-03     191.607E+06    -44.4010E+06    -47.4323E+06    -237.505E+06    -45.6646E+06    -237.500E+06    -46.1735E+06     890.218E+03
             259     73.9439E-03     128.694E-09     73.9439E-03     56.8353E-03    -28.2967E-03    -28.5383E-03    -28.5370E-03     56.8340E-03    -28.2967E-03     675.603E-06     57.5164E-03     187.121E+06    -48.6207E+06    -50.2784E+06    -236.563E+06    -49.8807E+06    -236.562E+06    -49.0196E+06     27.2198E+03
             260     72.8871E-03     236.901E-09     72.8871E-03     56.6991E-03    -28.2150E-03    -28.4840E-03    -28.4825E-03     56.6976E-03    -28.2150E-03     711.456E-06     57.4826E-03     184.875E+06    -51.9125E+06    -52.5714E+06    -237.116E+06    -51.9135E+06    -237.115E+06    -52.5714E+06    -422.194E+03
             261     71.8297E-03    -84.1995E-09     71.8297E-03     56.6077E-03    -28.1726E-03    -28.4362E-03    -28.4350E-03     56.6065E-03    -28.1726E-03     634.557E-06     57.3215E-03     182.446E+06    -53.1984E+06    -53.6834E+06    -235.887E+06    -53.4246E+06    -235.886E+06    -53.4584E+06     56.3692E+03
             262     70.7725E-03     450.879E-09     70.7725E-03     56.5404E-03    -28.1170E-03    -28.4257E-03    -28.4239E-03     56.5386E-03    -28.1170E-03     758.164E-06     57.3357E-03     180.318E+06    -53.7488E+06    -55.4062E+06    -234.887E+06    -55.4073E+06    -234.886E+06    -53.7488E+06     432.023E+03
             263     69.7155E-03    -188.840E-09     69.7155E-03     56.4258E-03    -28.0748E-03    -28.3542E-03    -28.3527E-03     56.4243E-03    -28.0748E-03     639.489E-06     57.3529E-03     180.421E+06    -51.8878E+06    -55.0978E+06    -233.892E+06    -53.3213E+06    -233.891E+06    -53.6654E+06    -86.6408E+03
             264     68.6586E-03     471.972E-09     68.6586E-03     56.3970E-03    -28.0597E-03    -28.3393E-03    -28.3379E-03     56.3956E-03    -28.0597E-03     628.079E-06     57.1759E-03     185.636E+06    -47.3817E+06    -49.4801E+06    -234.053E+06    -47.7067E+06    -234.049E+06    -49.1593E+06     301.877E+03
             265     67.6018E-03    -224.632E-09     67.6018E-03     56.5310E-03    -28.1578E-03    -28.3749E-03    -28.3728E-03     56.5289E-03    -28.1578E-03     835.775E-06     57.1366E-03     192.030E+06    -41.0843E+06    -42.0021E+06    -233.571E+06    -42.0092E+06    -233.564E+06    -41.0843E+06    -38.5647E+03
             266     66.5438E-03     420.220E-09     66.5438E-03     56.6130E-03    -28.1601E-03    -28.4555E-03    -28.4540E-03     56.6115E-03    -28.1601E-03     707.047E-06     57.0991E-03     195.538E+06    -38.0562E+06    -38.8078E+06    -233.969E+06    -38.8132E+06    -233.964E+06    -38.0562E+06    -1.00102E+06
             267     65.4884E-03    -21.0198E-09     65.4884E-03     56.7761E-03    -28.2854E-03    -28.4917E-03    -28.4874E-03     56.7754E-03    -28.2890E-03     473.866E-06     57.2648E-03     195.384E+06    -41.5802E+06    -42.7053E+06    -237.523E+06    -41.7374E+06    -237.520E+06    -42.5506E+06    -712.036E+03
             268     64.4296E-03     5.33496E-09     64.4296E-03     56.8408E-03    -28.3171E-03    -28.5237E-03    -28.5194E-03     56.8400E-03    -28.3207E-03     473.257E-06     57.3044E-03     192.846E+06    -44.7789E+06    -46.2355E+06    -238.349E+06    -45.2664E+06    -238.348E+06    -45.7494E+06    -128.392E+03
             269     63.3723E-03     399.703E-09     63.3723E-03     56.6847E-03    -28.1484E-03    -28.5350E-03    -28.5327E-03     56.6823E-03    -28.1484E-03     867.944E-06     57.1728E-03     191.612E+06    -47.2516E+06    -47.9429E+06    -239.208E+06    -47.7381E+06    -239.208E+06    -47.4567E+06     128.512E+03
             270     62.3156E-03    -41.4935E-09     62.3156E-03     56.7632E-03    -28.2155E-03    -28.5458E-03    -28.5433E-03     56.7607E-03    -28.2155E-03     916.369E-06     57.3315E-03     194.509E+06    -45.0443E+06    -46.3646E+06    -240.209E+06    -46.1599E+06    -240.208E+06    -45.2494E+06     128.420E+03
             271     61.2575E-03     346.368E-09     61.2575E-03     56.8303E-03    -28.2258E-03    -28.6052E-03    -28.6036E-03     56.8288E-03    -28.2258E-03     731.915E-06     57.4015E-03     196.059E+06    -43.5664E+06    -46.5952E+06    -241.121E+06    -44.6971E+06    -241.105E+06    -45.4799E+06    -1.03139E+06
             272     60.2012E-03     82.9209E-09     60.2012E-03     56.9234E-03    -28.3072E-03    -28.6162E-03    -28.6146E-03     56.9218E-03    -28.3072E-03     739.318E-06     57.4714E-03     197.132E+06    -43.9920E+06    -46.8517E+06    -242.536E+06    -44.9548E+06    -242.520E+06    -45.9056E+06    -826.602E+03
             273     59.1429E-03     80.0218E-09     59.1429E-03     57.0078E-03    -28.4401E-03    -28.5675E-03    -28.5654E-03     57.0057E-03    -28.4401E-03     840.442E-06     57.5671E-03     198.194E+06    -44.1872E+06    -45.9363E+06    -243.250E+06    -45.9399E+06    -243.247E+06    -44.1872E+06    -57.8248E+03
             274     59.7120E-03     16.5354E-03     57.3768E-03     76.2436E-03    -28.3677E-03    -47.8477E-03    -27.4719E-03     55.8679E-03    -28.3677E-03     90.7766E-03     229.163E-03     180.742E+06     193.412E+06     124.389E+06    -8.98443E+06    -8.98045E+06     193.408E+06     124.389E+06     572.522E+03
             275     59.3332E-03     15.5605E-03     57.2565E-03     75.3163E-03    -28.0714E-03    -47.2359E-03    -27.8728E-03     55.9532E-03    -28.0714E-03     87.6728E-03     212.741E-03     167.115E+06     171.155E+06     49.6575E+06    -15.7020E+06    -15.6963E+06     171.149E+06     49.6575E+06     141.311E+03
             276     59.0233E-03     14.5883E-03     57.1920E-03     61.9854E-03    -27.8129E-03    -34.1730E-03    -27.5371E-03     55.3495E-03    -27.8129E-03     46.9629E-03     152.998E-03     159.656E+06     143.181E+06    -2.67282E+06    -27.3093E+06    -17.3507E+06     143.178E+06    -12.6281E+06    -309.896E+03
             277     58.7574E-03     13.6152E-03     57.1582E-03     57.4262E-03    -27.7973E-03    -29.6312E-03    -27.2951E-03     55.0902E-03    -27.7973E-03     27.9026E-03     124.109E-03     110.658E+06     84.8625E+06    -16.2499E+06    -33.2129E+06    -16.2492E+06     84.8618E+06    -33.2129E+06    -65.8962E+03
             278     58.5147E-03     12.6417E-03     57.1328E-03     56.6751E-03    -27.9625E-03    -28.7242E-03    -27.4478E-03     55.3987E-03    -27.9625E-03     20.3908E-03     105.009E-03     34.4872E+06     12.1425E+06    -17.8584E+06    -25.5348E+06    -15.1506E+06     9.43464E+06    -25.5348E+06     148.515E+03
             279     58.2952E-03     11.6687E-03     57.1154E-03     56.5340E-03    -28.0909E-03    -28.4895E-03    -27.7779E-03     55.8224E-03    -28.0909E-03     15.4375E-03     93.7878E-03     28.5869E+06    -13.1380E+06    -17.9288E+06    -42.9807E+06    -15.2232E+06    -42.3084E+06    -16.5160E+06     150.927E+03
             280     58.0938E-03     10.6964E-03     57.1006E-03     56.5536E-03    -28.1920E-03    -28.3789E-03    -27.8316E-03     56.0063E-03    -28.1920E-03     13.5781E-03     86.1820E-03     67.5995E+06    -8.84277E+06    -15.9880E+06    -79.7213E+06    -15.9904E+06    -79.7188E+06    -8.84277E+06     209.857E+03
             281     57.9092E-03     9.72361E-03     57.0870E-03     56.4918E-03    -28.1579E-03    -28.2950E-03    -27.7733E-03     56.0961E-03    -28.2839E-03     11.4466E-03     79.1820E-03     97.0525E+06    -2.50961E+06    -17.1354E+06    -106.018E+06    -17.1359E+06    -106.017E+06    -2.50961E+06     173.696E+03
             282     57.7436E-03     8.75069E-03     57.0767E-03     56.5831E-03    -28.1956E-03    -28.3648E-03    -27.9224E-03     56.3099E-03    -28.3648E-03     9.60193E-03     73.8487E-03     119.608E+06     1.41066E+06    -18.9324E+06    -127.063E+06    -18.9332E+06    -127.062E+06     1.41066E+06     263.430E+03
             283     57.5945E-03     7.77821E-03     57.0668E-03     56.7339E-03    -28.3147E-03    -28.4133E-03    -28.0868E-03     56.5060E-03    -28.4133E-03     8.77842E-03     69.9239E-03     136.752E+06    -326.934E+03    -21.4705E+06    -146.412E+06    -21.4722E+06    -146.411E+06    -326.934E+03     461.937E+03
             284     57.4627E-03     6.80577E-03     57.0582E-03     56.7776E-03    -28.3238E-03    -28.4518E-03    -28.1479E-03     56.6017E-03    -28.4518E-03     7.70884E-03     66.5307E-03     152.694E+06    -3.56018E+06    -24.3867E+06    -165.595E+06    -24.3882E+06    -165.593E+06    -3.56018E+06     447.731E+03
             285     57.3480E-03     5.83344E-03     57.0505E-03     56.8583E-03    -28.3723E-03    -28.4882E-03    -28.2408E-03     56.7268E-03    -28.4882E-03     6.67359E-03     63.7901E-03     168.311E+06    -7.89539E+06    -27.4920E+06    -185.136E+06    -27.4935E+06    -185.134E+06    -7.89539E+06     476.450E+03
             286     57.2509E-03     4.86108E-03     57.0442E-03     56.9240E-03    -28.4047E-03    -28.5223E-03    -28.3084E-03     56.8276E-03    -28.5223E-03     5.71045E-03     61.6355E-03     186.452E+06    -13.0093E+06    -30.4953E+06    -207.582E+06    -30.4968E+06     -207.58E+06    -13.0093E+06     411.075E+03
             287     57.1709E-03     3.88880E-03     57.0385E-03     56.9318E-03    -28.3942E-03    -28.5401E-03    -28.3291E-03     56.8667E-03    -28.5401E-03     4.68031E-03     59.9576E-03     199.277E+06    -19.4651E+06    -33.8638E+06    -225.539E+06    -33.8645E+06    -225.538E+06    -19.4651E+06     165.663E+03
             288     57.1086E-03     2.91644E-03     57.0341E-03     56.9771E-03    -28.4358E-03    -28.5431E-03    -28.3976E-03     56.9389E-03    -28.5431E-03     3.56465E-03     58.7240E-03     200.888E+06    -27.5703E+06    -37.2904E+06    -233.132E+06    -37.2914E+06    -233.131E+06    -27.5703E+06     300.452E+03
             289     57.0642E-03     1.94433E-03     57.0311E-03     57.0287E-03    -28.4786E-03    -28.5520E-03    -28.4813E-03     57.0098E-03    -28.5304E-03     2.49281E-03     57.9441E-03     200.738E+06    -35.1975E+06    -40.1141E+06    -238.337E+06    -40.1160E+06    -238.335E+06    -35.1975E+06     591.482E+03
             290     57.0370E-03     971.970E-06     57.0287E-03     57.0227E-03    -28.4151E-03    -28.6078E-03    -28.5853E-03     57.0162E-03    -28.4312E-03     1.30675E-03     57.5160E-03     200.656E+06    -39.6790E+06    -42.6163E+06    -241.786E+06    -41.6782E+06    -241.782E+06    -40.6208E+06     680.262E+03
             291     58.6971E-03     16.5355E-03     56.3199E-03     76.2334E-03    -28.3703E-03    -47.8470E-03    -27.6358E-03     56.0222E-03    -28.3703E-03     90.4774E-03     229.110E-03     179.964E+06     193.683E+06     124.902E+06    -7.81560E+06    -7.80962E+06     193.677E+06     124.902E+06     848.196E+03
             292     58.3147E-03     15.5618E-03     56.1999E-03     75.2775E-03    -28.0624E-03    -47.2144E-03    -27.9724E-03     56.0355E-03    -28.0624E-03     87.4553E-03     212.589E-03     166.967E+06     172.527E+06     50.1530E+06    -13.6387E+06    -13.6306E+06     172.519E+06     50.1530E+06     573.194E+03
             293     57.9977E-03     14.5876E-03     56.1332E-03     61.6919E-03    -27.8092E-03    -33.8874E-03    -27.3486E-03     55.1530E-03    -27.8092E-03     46.4355E-03     152.742E-03     158.867E+06     143.153E+06    -3.16156E+06    -25.7688E+06    -16.4146E+06     143.148E+06    -12.5105E+06    -422.549E+03
             294     57.7298E-03     13.6152E-03     56.1013E-03     57.4133E-03    -27.8045E-03    -29.6145E-03    -27.2982E-03     55.0970E-03    -27.8045E-03     27.8225E-03     124.187E-03     110.022E+06     84.7247E+06    -16.2118E+06    -32.4122E+06    -16.2096E+06     84.7225E+06    -32.4122E+06    -209.556E+03
             295     57.4831E-03     12.6418E-03     56.0758E-03     56.7685E-03    -27.9629E-03    -28.8152E-03    -27.5171E-03     55.4704E-03    -27.9629E-03     20.5607E-03     105.046E-03     34.6116E+06     12.2486E+06    -18.0970E+06    -25.4314E+06    -15.2669E+06     9.41847E+06    -25.4314E+06     322.299E+03
             296     57.2595E-03     11.6691E-03     56.0578E-03     56.4436E-03    -28.0916E-03    -28.3937E-03    -27.6887E-03     55.7386E-03    -28.0916E-03     15.3468E-03     93.6950E-03     28.8709E+06    -13.0609E+06    -17.8709E+06    -43.0641E+06    -15.0461E+06    -42.5576E+06    -16.3922E+06     557.351E+03
             297     57.0548E-03     10.6961E-03     56.0432E-03     56.5066E-03    -28.1977E-03    -28.3281E-03    -27.7844E-03     55.9629E-03    -28.1977E-03     13.5282E-03     86.1863E-03     67.7940E+06    -8.62703E+06    -15.5107E+06    -79.5880E+06    -15.5167E+06    -79.5821E+06    -8.62703E+06     543.016E+03
             298     56.8673E-03     9.72336E-03     56.0299E-03     56.5949E-03    -28.2323E-03    -28.3290E-03    -27.8764E-03     56.1968E-03    -28.2868E-03     11.4961E-03     79.2811E-03     96.8114E+06    -2.37256E+06    -16.7367E+06    -105.535E+06    -16.7391E+06    -105.533E+06    -2.37256E+06     410.344E+03
             299     56.6986E-03     8.75080E-03     56.0192E-03     56.6290E-03    -28.2475E-03    -28.3606E-03    -27.9742E-03     56.3556E-03    -28.3606E-03     9.61034E-03     73.8943E-03     119.601E+06     1.30710E+06    -19.0542E+06    -127.167E+06    -19.0574E+06    -127.164E+06     1.30710E+06     525.673E+03
             300     56.5470E-03     7.77833E-03     56.0094E-03     56.7025E-03    -28.2901E-03    -28.4077E-03    -28.0647E-03     56.4771E-03    -28.4077E-03     8.72563E-03     69.9228E-03     136.706E+06    -414.209E+03    -21.8248E+06    -146.555E+06    -21.8272E+06    -146.553E+06    -414.209E+03     530.686E+03
             301     56.4128E-03     6.80591E-03     56.0008E-03     56.7754E-03    -28.3290E-03    -28.4458E-03    -28.1531E-03     56.5996E-03    -28.4458E-03     7.71357E-03     66.5421E-03     152.340E+06    -3.62238E+06    -24.5924E+06    -165.357E+06    -24.5938E+06    -165.356E+06    -3.62238E+06     440.714E+03
             302     56.2962E-03     5.83340E-03     55.9932E-03     56.8444E-03    -28.3651E-03    -28.4821E-03    -28.2334E-03     56.7126E-03    -28.4821E-03     6.67261E-03     63.7831E-03     168.069E+06    -7.73857E+06    -27.4887E+06    -184.800E+06    -27.4898E+06    -184.798E+06    -7.73857E+06     238.291E+03
             303     56.1972E-03     4.86111E-03     55.9865E-03     56.9137E-03    -28.4008E-03    -28.5158E-03    -28.3065E-03     56.8194E-03    -28.5158E-03     5.64967E-03     61.6344E-03     186.136E+06    -12.6644E+06    -30.5114E+06    -207.074E+06    -30.5119E+06    -207.073E+06    -12.6644E+06    -41.8475E+03
             304     56.1162E-03     3.88884E-03     55.9813E-03     56.9355E-03    -28.4092E-03    -28.5286E-03    -28.3447E-03     56.8710E-03    -28.5286E-03     4.66212E-03     59.9617E-03     199.382E+06    -19.1411E+06    -33.5354E+06    -225.314E+06    -33.5358E+06    -225.313E+06    -19.1411E+06    -69.9162E+03
             305     56.0527E-03     2.91651E-03     55.9767E-03     56.9539E-03    -28.4308E-03    -28.5252E-03    -28.3922E-03     56.9153E-03    -28.5252E-03     3.58302E-03     58.7057E-03     201.615E+06    -27.5361E+06    -36.5314E+06    -233.484E+06    -36.5320E+06    -233.484E+06    -27.5361E+06     6.52479E+03
             306     56.0071E-03     1.94428E-03     55.9734E-03     57.0018E-03    -28.4701E-03    -28.5340E-03    -28.4686E-03     56.9834E-03    -28.5171E-03     2.44213E-03     57.9111E-03     201.671E+06    -34.3628E+06    -39.2727E+06    -238.436E+06    -39.2744E+06    -238.434E+06    -34.3628E+06     406.264E+03
             307     55.9800E-03     972.243E-06     55.9715E-03     56.9908E-03    -28.4172E-03    -28.5732E-03    -28.5519E-03     56.9855E-03    -28.4333E-03     1.12815E-03     57.4640E-03     200.026E+06    -38.9259E+06    -41.6790E+06    -240.310E+06    -41.4141E+06    -240.308E+06    -39.1924E+06     395.182E+03
             308     57.6828E-03     16.5349E-03     55.2622E-03     76.5573E-03    -28.3752E-03    -48.1742E-03    -27.8770E-03     56.2601E-03    -28.3752E-03     91.0286E-03     229.488E-03     180.110E+06     193.196E+06     124.992E+06    -8.43031E+06    -8.42643E+06     193.192E+06     124.992E+06     46.7637E+03
             309     57.2957E-03     15.5620E-03     55.1418E-03     75.4503E-03    -28.0542E-03    -47.3947E-03    -28.1760E-03     56.2317E-03    -28.0542E-03     87.6460E-03     212.606E-03     167.400E+06     173.444E+06     51.1928E+06    -13.1184E+06    -13.1135E+06     173.439E+06     51.1928E+06     340.114E+03
             310     56.9764E-03     14.5891E-03     55.0769E-03     61.4652E-03    -27.8008E-03    -33.6688E-03    -27.0757E-03     54.8720E-03    -27.8008E-03     46.5630E-03     152.469E-03     158.007E+06     143.575E+06    -1.76609E+06    -24.5692E+06    -14.8239E+06     143.568E+06    -11.5052E+06     410.562E+03
             311     56.7023E-03     13.6142E-03     55.0437E-03     57.3691E-03    -27.8077E-03    -29.5707E-03    -27.2369E-03     55.0353E-03    -27.8077E-03     27.8556E-03     124.307E-03     109.068E+06     84.1333E+06    -15.6153E+06    -32.2003E+06    -15.6094E+06     84.1274E+06    -32.2003E+06     263.983E+03
             312     56.4519E-03     12.6420E-03     55.0181E-03     56.8459E-03    -27.9643E-03    -28.8878E-03    -27.6047E-03     55.5629E-03    -27.9643E-03     20.4915E-03     105.122E-03     34.8060E+06     12.3814E+06    -18.2860E+06    -25.4151E+06    -15.2729E+06     9.36836E+06    -25.4151E+06     575.829E+03
             313     56.2250E-03     11.6690E-03     55.0008E-03     56.4108E-03    -28.0921E-03    -28.3516E-03    -27.6368E-03     55.6960E-03    -28.0921E-03     15.4493E-03     93.6887E-03     29.0014E+06    -12.9850E+06    -18.0396E+06    -43.0492E+06    -15.0325E+06    -42.6994E+06    -16.3419E+06     760.918E+03
             314     56.0167E-03     10.6960E-03     54.9861E-03     56.5301E-03    -28.2004E-03    -28.3470E-03    -27.8041E-03     55.9871E-03    -28.2004E-03     13.5153E-03     86.2520E-03     67.8164E+06    -8.15407E+06    -15.2993E+06    -79.2439E+06    -15.3071E+06    -79.2361E+06    -8.15407E+06     661.670E+03
             315     55.8256E-03     9.72347E-03     54.9722E-03     56.6631E-03    -28.2640E-03    -28.3672E-03    -27.9549E-03     56.2731E-03    -28.2865E-03     11.3942E-03     79.3811E-03     97.0321E+06    -1.71914E+06    -16.6583E+06    -105.326E+06    -16.6652E+06    -105.319E+06    -1.71914E+06     754.181E+03
             316     55.6542E-03     8.75099E-03     54.9619E-03     56.6454E-03    -28.2701E-03    -28.3544E-03    -27.9984E-03     56.3737E-03    -28.3544E-03     9.58424E-03     73.9352E-03     120.035E+06     1.91385E+06    -18.8603E+06    -127.151E+06    -18.8665E+06    -127.145E+06     1.91385E+06     800.811E+03
             317     55.4999E-03     7.77833E-03     54.9521E-03     56.6806E-03    -28.2763E-03    -28.4001E-03    -28.0495E-03     56.4538E-03    -28.4001E-03     8.75323E-03     69.9099E-03     137.183E+06     294.073E+03    -21.3928E+06    -146.434E+06    -21.3957E+06    -146.431E+06     294.073E+03     572.237E+03
             318     55.3633E-03     6.80580E-03     54.9433E-03     56.7603E-03    -28.3237E-03    -28.4391E-03    -28.1472E-03     56.5838E-03    -28.4391E-03     7.72230E-03     66.5472E-03     152.592E+06    -2.90247E+06    -24.1869E+06    -165.015E+06    -24.1879E+06    -165.014E+06    -2.90247E+06     321.807E+03
             319     55.2445E-03     5.83361E-03     54.9356E-03     56.8270E-03    -28.3579E-03    -28.4741E-03    -28.2264E-03     56.6954E-03    -28.4741E-03     6.67060E-03     63.7823E-03     167.902E+06    -7.15391E+06    -27.2319E+06    -184.183E+06    -27.2324E+06    -184.182E+06    -7.15391E+06     13.3349E+03
             320     55.1439E-03     4.86116E-03     54.9293E-03     56.8943E-03    -28.3909E-03    -28.5069E-03    -28.2969E-03     56.8003E-03    -28.5069E-03     5.63333E-03     61.6246E-03     186.114E+06    -12.3572E+06    -30.7340E+06    -206.972E+06    -30.7348E+06    -206.971E+06    -12.3572E+06    -295.680E+03
             321     55.0612E-03     3.88884E-03     54.9237E-03     56.9403E-03    -28.4328E-03    -28.5102E-03    -28.3692E-03     56.8767E-03    -28.5102E-03     4.63486E-03     60.0006E-03     198.651E+06    -19.5823E+06    -34.3926E+06    -225.205E+06    -34.3935E+06    -225.204E+06    -19.5823E+06    -365.820E+03
             322     54.9968E-03     2.91669E-03     54.9194E-03     56.9406E-03    -28.4435E-03    -28.4983E-03    -28.4132E-03     56.9019E-03    -28.4900E-03     3.58535E-03     58.7166E-03     200.746E+06    -28.5328E+06    -37.8749E+06    -233.773E+06    -37.8758E+06    -233.772E+06    -28.5328E+06    -78.6204E+03
             323     54.9504E-03     1.94440E-03     54.9159E-03     56.9007E-03    -28.4118E-03    -28.4907E-03    -28.4186E-03     56.8822E-03    -28.4655E-03     2.44633E-03     57.8145E-03     200.123E+06    -35.8466E+06    -40.9826E+06    -238.478E+06    -40.9839E+06    -238.477E+06    -35.8466E+06     270.985E+03
             324     54.9224E-03     972.236E-06     54.9138E-03     56.8767E-03    -28.3626E-03    -28.5148E-03    -28.4775E-03     56.8709E-03    -28.3941E-03     1.23030E-03     57.4505E-03     197.282E+06    -41.1411E+06    -43.5176E+06    -239.595E+06    -43.2518E+06    -239.595E+06    -41.4076E+06     171.432E+03
             325     56.6700E-03     16.5352E-03     54.2040E-03     76.4245E-03    -28.3670E-03    -48.0414E-03    -27.7559E-03     56.1390E-03    -28.3670E-03     90.8568E-03     229.314E-03     180.053E+06     193.453E+06     125.288E+06    -8.08583E+06    -8.08305E+06     193.450E+06     125.288E+06    -426.613E+03
             326     56.2781E-03     15.5617E-03     54.0838E-03     75.0738E-03    -28.0595E-03    -47.0013E-03    -27.8119E-03     55.8844E-03    -28.0595E-03     87.2594E-03     212.560E-03     166.884E+06     171.973E+06     50.5479E+06    -14.3701E+06    -14.3673E+06     171.970E+06     50.5479E+06    -442.718E+03
             327     55.9552E-03     14.5876E-03     54.0202E-03     61.7288E-03    -27.8079E-03    -33.9251E-03    -27.2822E-03     55.0859E-03    -27.8079E-03     46.8236E-03     152.888E-03     158.768E+06     143.432E+06    -2.28716E+06    -25.6844E+06    -16.2998E+06     143.427E+06    -11.6661E+06     695.634E+03
             328     55.6766E-03     13.6154E-03     53.9862E-03     57.4397E-03    -27.8053E-03    -29.6447E-03    -27.3066E-03     55.1016E-03    -27.8053E-03     27.9075E-03     124.342E-03     109.486E+06     84.6167E+06    -15.7772E+06    -31.9710E+06    -15.7584E+06     84.5979E+06    -31.9710E+06     1.13802E+06
             329     55.4219E-03     12.6417E-03     53.9608E-03     56.6806E-03    -27.9655E-03    -28.7199E-03    -27.4457E-03     55.4064E-03    -27.9655E-03     20.3784E-03     105.070E-03     34.0667E+06     11.5391E+06    -18.3524E+06    -25.5288E+06    -15.6741E+06     8.86079E+06    -25.5288E+06     972.986E+03
             330     55.1913E-03     11.6688E-03     53.9437E-03     56.5224E-03    -28.0948E-03    -28.4595E-03    -27.7501E-03     55.8129E-03    -28.0948E-03     15.4064E-03     93.8406E-03     28.2897E+06    -13.0458E+06    -18.2692E+06    -42.6429E+06    -15.6115E+06    -42.1923E+06    -16.1541E+06     870.147E+03
             331     54.9790E-03     10.6963E-03     53.9285E-03     56.6037E-03    -28.1944E-03    -28.4252E-03    -27.8848E-03     56.0632E-03    -28.1944E-03     13.4994E-03     86.2897E-03     67.1251E+06    -8.17360E+06    -16.0781E+06    -78.8944E+06    -16.0907E+06    -78.8818E+06    -8.17360E+06     853.698E+03
             332     54.7848E-03     9.72359E-03     53.9150E-03     56.6142E-03    -28.2360E-03    -28.3449E-03    -27.9112E-03     56.2212E-03    -28.2767E-03     11.4353E-03     79.3366E-03     96.6417E+06    -2.14486E+06    -17.3057E+06    -105.450E+06    -17.3144E+06    -105.441E+06    -2.14486E+06     850.427E+03
             333     54.6101E-03     8.75089E-03     53.9044E-03     56.6374E-03    -28.2712E-03    -28.3454E-03    -27.9994E-03     56.3656E-03    -28.3454E-03     9.58349E-03     73.9363E-03     119.555E+06     1.72226E+06    -18.9982E+06    -126.837E+06    -19.0029E+06    -126.833E+06     1.72226E+06     649.069E+03
             334     54.4533E-03     7.77849E-03     53.8948E-03     56.7039E-03    -28.3128E-03    -28.3894E-03    -28.0866E-03     56.4776E-03    -28.3894E-03     8.74910E-03     69.9266E-03     136.896E+06     639.495E+03    -21.1453E+06    -145.836E+06    -21.1472E+06    -145.835E+06     639.495E+03     464.141E+03
             335     54.3139E-03     6.80612E-03     53.8858E-03     56.7314E-03    -28.3105E-03    -28.4259E-03    -28.1342E-03     56.5551E-03    -28.4259E-03     7.71370E-03     66.5291E-03     152.618E+06    -2.51609E+06    -23.8493E+06    -164.673E+06    -23.8500E+06    -164.672E+06    -2.51609E+06     222.907E+03
             336     54.1932E-03     5.83345E-03     53.8784E-03     56.7834E-03    -28.3285E-03    -28.4608E-03    -28.1976E-03     56.6525E-03    -28.4608E-03     6.65294E-03     63.7509E-03     167.689E+06    -7.27708E+06    -27.0865E+06    -183.980E+06    -27.0865E+06    -183.980E+06    -7.27708E+06    -5.96532E+03
             337     54.0905E-03     4.86123E-03     53.8717E-03     56.8948E-03    -28.4043E-03    -28.4941E-03    -28.3103E-03     56.8008E-03    -28.4941E-03     5.63201E-03     61.6373E-03     185.878E+06    -12.2654E+06    -30.7468E+06    -206.691E+06    -30.7474E+06    -206.690E+06    -12.2654E+06    -209.437E+03
             338     54.0066E-03     3.88899E-03     53.8664E-03     56.9426E-03    -28.4499E-03    -28.4934E-03    -28.3872E-03     56.8799E-03    -28.4934E-03     4.60200E-03     60.0008E-03     198.707E+06    -19.1704E+06    -35.0679E+06    -225.334E+06    -35.0691E+06    -225.333E+06    -19.1704E+06    -107.141E+03
             339     53.9406E-03     2.91667E-03     53.8617E-03     56.9052E-03    -28.4309E-03    -28.4737E-03    -28.4010E-03     56.8671E-03    -28.4654E-03     3.56320E-03     58.6760E-03     200.625E+06    -28.1211E+06    -39.2202E+06    -234.054E+06    -39.2213E+06    -234.053E+06    -28.1211E+06     196.784E+03
             340     53.8938E-03     1.94461E-03     53.8587E-03     56.8140E-03    -28.3698E-03    -28.4454E-03    -28.3596E-03     56.7955E-03    -28.4371E-03     2.45202E-03     57.7867E-03     198.791E+06    -36.8728E+06    -42.5291E+06    -238.412E+06    -42.5296E+06    -238.411E+06    -36.8728E+06     102.915E+03
             341     53.8654E-03     972.090E-06     53.8566E-03     56.8246E-03    -28.3441E-03    -28.4809E-03    -28.4282E-03     56.8183E-03    -28.3905E-03     1.35580E-03     57.4831E-03     194.870E+06    -42.7245E+06    -45.1121E+06    -238.776E+06    -44.3732E+06    -238.776E+06    -43.4638E+06     124.179E+03
             342     55.6597E-03     16.5370E-03     53.1463E-03     76.3475E-03    -28.3506E-03    -47.9713E-03    -27.6872E-03     56.0634E-03    -28.3506E-03     90.6864E-03     229.191E-03     180.195E+06     193.696E+06     125.513E+06    -8.01458E+06    -8.01203E+06     193.693E+06     125.513E+06    -404.718E+03
             343     55.2647E-03     15.5614E-03     53.0286E-03     74.9467E-03    -28.0497E-03    -46.8800E-03    -27.5867E-03     55.6534E-03    -28.0497E-03     87.3106E-03     212.483E-03     166.613E+06     171.324E+06     49.7954E+06    -14.5044E+06    -14.5002E+06     171.320E+06     49.7954E+06     206.776E+03
             344     54.9336E-03     14.5882E-03     52.9612E-03     61.7127E-03    -27.8092E-03    -33.9067E-03    -27.2850E-03     55.0910E-03    -27.8092E-03     46.6253E-03     152.862E-03     159.103E+06     142.725E+06    -4.44778E+06    -25.9834E+06    -17.8624E+06     142.719E+06    -12.5628E+06     781.057E+03
             345     54.6523E-03     13.6149E-03     52.9293E-03     57.3792E-03    -27.8081E-03    -29.5817E-03    -27.2849E-03     55.0824E-03    -27.8081E-03     27.7069E-03     124.325E-03     110.524E+06     84.8187E+06    -17.6242E+06    -32.1708E+06    -17.6014E+06     84.7958E+06    -32.1708E+06     1.18517E+06
             346     54.3934E-03     12.6417E-03     52.9040E-03     56.7809E-03    -27.9626E-03    -28.8290E-03    -27.5342E-03     55.4861E-03    -27.9626E-03     20.5343E-03     105.145E-03     34.3814E+06     11.6403E+06    -18.7642E+06    -25.6681E+06    -16.3662E+06     9.24240E+06    -25.6681E+06     1.15717E+06
             347     54.1578E-03     11.6690E-03     52.8858E-03     56.5335E-03    -28.0876E-03    -28.4806E-03    -27.7822E-03     55.8352E-03    -28.0876E-03     15.2851E-03     93.8144E-03     27.9894E+06    -13.1300E+06    -18.2246E+06    -42.5421E+06    -15.8561E+06    -41.9863E+06    -16.0543E+06     891.039E+03
             348     53.9425E-03     10.6963E-03     52.8714E-03     56.5696E-03    -28.1872E-03    -28.3949E-03    -27.8585E-03     56.0331E-03    -28.1872E-03     13.4511E-03     86.2646E-03     67.0842E+06    -7.89679E+06    -16.0169E+06    -78.6671E+06    -16.0317E+06    -78.6523E+06    -7.89679E+06     927.355E+03
             349     53.7445E-03     9.72356E-03     52.8576E-03     56.6154E-03    -28.2384E-03    -28.3421E-03    -27.9185E-03     56.2211E-03    -28.2677E-03     11.4429E-03     79.3607E-03     96.5254E+06    -2.09068E+06    -17.1153E+06    -105.230E+06    -17.1220E+06    -105.223E+06    -2.09068E+06     710.834E+03
             350     53.5668E-03     8.75108E-03     52.8472E-03     56.6250E-03    -28.2720E-03    -28.3328E-03    -28.0024E-03     56.3553E-03    -28.3328E-03     9.54709E-03     73.9228E-03     118.922E+06     1.53882E+06    -18.9051E+06    -126.279E+06    -18.9068E+06    -126.277E+06     1.53882E+06     376.237E+03
             351     53.4067E-03     7.77854E-03     52.8372E-03     56.6864E-03    -28.3084E-03    -28.3755E-03    -28.0821E-03     56.4601E-03    -28.3755E-03     8.74763E-03     69.9157E-03     136.209E+06     271.507E+03    -21.2289E+06    -145.402E+06    -21.2296E+06    -145.401E+06     271.507E+03     201.285E+03
             352     53.2652E-03     6.80603E-03     52.8286E-03     56.7223E-03    -28.3148E-03    -28.4103E-03    -28.1378E-03     56.5453E-03    -28.4103E-03     7.73085E-03     66.5169E-03     152.167E+06    -2.98956E+06    -23.9795E+06    -164.557E+06    -23.9801E+06    -164.556E+06    -2.98956E+06     153.181E+03
             353     53.1420E-03     5.83377E-03     52.8208E-03     56.7650E-03    -28.3247E-03    -28.4450E-03    -28.1934E-03     56.6336E-03    -28.4450E-03     6.66174E-03     63.7377E-03     167.394E+06    -7.42907E+06    -27.1155E+06    -183.787E+06    -27.1157E+06    -183.787E+06    -7.42907E+06     125.110E+03
             354     53.0377E-03     4.86126E-03     52.8144E-03     56.8603E-03    -28.3871E-03    -28.4775E-03    -28.2927E-03     56.7659E-03    -28.4775E-03     5.64529E-03     61.6037E-03     185.489E+06    -12.5024E+06    -30.9081E+06    -206.505E+06    -30.9085E+06    -206.504E+06    -12.5024E+06     136.345E+03
             355     52.9518E-03     3.88904E-03     52.8088E-03     56.9187E-03    -28.4390E-03    -28.4820E-03    -28.3756E-03     56.8554E-03    -28.4820E-03     4.61981E-03     59.9449E-03     199.563E+06    -18.2488E+06    -34.9888E+06    -225.649E+06    -34.9897E+06    -225.648E+06    -18.2488E+06     258.972E+03
             356     52.8851E-03     2.91691E-03     52.8046E-03     56.8677E-03    -28.4117E-03    -28.4570E-03    -28.3737E-03     56.8297E-03    -28.4570E-03     3.55541E-03     58.6148E-03     201.393E+06    -26.7693E+06    -39.1085E+06    -234.032E+06    -39.1102E+06    -234.031E+06    -26.7693E+06     353.893E+03
             357     52.8371E-03     1.94437E-03     52.8013E-03     56.8163E-03    -28.3692E-03    -28.4486E-03    -28.3834E-03     56.7983E-03    -28.4164E-03     2.40675E-03     57.7840E-03     198.537E+06    -35.8689E+06    -42.8208E+06    -237.779E+06    -42.8222E+06    -237.777E+06    -35.8689E+06     53.0802E+03
             358     52.8085E-03     972.336E-06     52.7995E-03     56.7415E-03    -28.2770E-03    -28.4640E-03    -28.4432E-03     56.7357E-03    -28.2919E-03     1.31987E-03     57.4142E-03     194.257E+06    -43.0747E+06    -46.4577E+06    -238.997E+06    -45.7227E+06    -238.993E+06    -43.8141E+06     445.642E+03
             359     54.6520E-03     16.5350E-03     52.0906E-03     76.3652E-03    -28.3587E-03    -47.9879E-03    -27.7939E-03     56.1712E-03    -28.3587E-03     90.5817E-03     229.153E-03     180.894E+06     193.129E+06     125.097E+06    -9.42192E+06    -9.42012E+06     193.128E+06     125.097E+06    -272.177E+03
             360     54.2503E-03     15.5621E-03     51.9704E-03     75.3013E-03    -28.0418E-03    -47.2486E-03    -27.9569E-03     56.0096E-03    -28.0418E-03     87.6674E-03     212.454E-03     167.040E+06     170.941E+06     49.6463E+06    -15.3346E+06    -15.3291E+06     170.935E+06     49.6463E+06     640.123E+03
             361     53.9158E-03     14.5886E-03     51.9046E-03     61.5116E-03    -27.7972E-03    -33.7174E-03    -27.0590E-03     54.8533E-03    -27.7972E-03     46.7618E-03     152.468E-03     158.752E+06     142.314E+06    -4.18877E+06    -26.2690E+06    -17.6007E+06     142.305E+06    -12.8483E+06     1.14994E+06
             362     53.6290E-03     13.6145E-03     51.8721E-03     57.3909E-03    -27.8056E-03    -29.5941E-03    -27.2714E-03     55.0683E-03    -27.8056E-03     27.7929E-03     124.362E-03     110.669E+06     84.8432E+06    -17.5616E+06    -32.4557E+06    -17.5483E+06     84.8299E+06    -32.4557E+06     996.431E+03
             363     53.3651E-03     12.6421E-03     51.8460E-03     56.9136E-03    -27.9560E-03    -28.9721E-03    -27.7019E-03     55.6434E-03    -27.9560E-03     20.4028E-03     105.294E-03     34.9658E+06     12.5619E+06    -18.5663E+06    -25.2691E+06    -16.3186E+06     10.3141E+06    -25.2691E+06     826.232E+03
             364     53.1263E-03     11.6693E-03     51.8288E-03     56.4583E-03    -28.0773E-03    -28.4197E-03    -27.7193E-03     55.7579E-03    -28.0773E-03     15.2999E-03     93.7191E-03     27.8599E+06    -13.0957E+06    -17.8526E+06    -42.3005E+06    -15.6201E+06    -41.7770E+06    -15.8517E+06     683.272E+03
             365     52.9064E-03     10.6963E-03     51.8139E-03     56.5486E-03    -28.1787E-03    -28.3811E-03    -27.8411E-03     56.0086E-03    -28.1787E-03     13.4900E-03     86.2725E-03     67.1662E+06    -7.80602E+06    -15.7265E+06    -78.5741E+06    -15.7351E+06    -78.5654E+06    -7.80602E+06     679.453E+03
             366     52.7050E-03     9.72377E-03     51.8002E-03     56.6295E-03    -28.2317E-03    -28.3599E-03    -27.9389E-03     56.2354E-03    -28.2587E-03     11.4419E-03     79.3825E-03     96.4548E+06    -1.70659E+06    -16.4579E+06    -104.672E+06    -16.4616E+06    -104.669E+06    -1.70659E+06     504.031E+03
             367     52.5238E-03     8.75118E-03     51.7896E-03     56.6041E-03    -28.2606E-03    -28.3214E-03    -27.9883E-03     56.3318E-03    -28.3214E-03     9.59440E-03     73.8997E-03     119.027E+06     1.71372E+06    -18.0022E+06    -125.939E+06    -18.0031E+06    -125.938E+06     1.71372E+06     283.560E+03
             368     52.3610E-03     7.77862E-03     51.7800E-03     56.6647E-03    -28.2962E-03    -28.3645E-03    -28.0685E-03     56.4369E-03    -28.3645E-03     8.76893E-03     69.9054E-03     136.554E+06     273.016E+03    -20.5755E+06    -145.502E+06    -20.5765E+06    -145.502E+06     273.016E+03     213.470E+03
             369     52.2166E-03     6.80621E-03     51.7711E-03     56.7088E-03    -28.3108E-03    -28.3999E-03    -28.1346E-03     56.5326E-03    -28.3999E-03     7.71496E-03     66.4966E-03     152.084E+06    -2.99616E+06    -23.8270E+06    -164.419E+06    -23.8288E+06    -164.417E+06    -2.99616E+06     376.140E+03
             370     52.0913E-03     5.83366E-03     51.7636E-03     56.7552E-03    -28.3270E-03    -28.4318E-03    -28.1938E-03     56.6219E-03    -28.4318E-03     6.71249E-03     63.7149E-03     166.879E+06    -7.72379E+06    -27.4246E+06    -183.570E+06    -27.4262E+06    -183.568E+06    -7.72379E+06     442.001E+03
             371     51.9848E-03     4.86146E-03     51.7569E-03     56.8261E-03    -28.3670E-03    -28.4641E-03    -28.2706E-03     56.7298E-03    -28.4641E-03     5.70127E-03     61.5579E-03     185.113E+06    -12.7696E+06    -31.1555E+06    -206.385E+06    -31.1566E+06    -206.384E+06    -12.7696E+06     438.476E+03
             372     51.8975E-03     3.88903E-03     51.7515E-03     56.8585E-03    -28.3897E-03    -28.4731E-03    -28.3260E-03     56.7949E-03    -28.4731E-03     4.62672E-03     59.8885E-03     199.420E+06    -18.8081E+06    -35.1969E+06    -225.907E+06    -35.1981E+06    -225.906E+06    -18.8081E+06     437.875E+03
             373     51.8293E-03     2.91667E-03     51.7471E-03     56.8603E-03    -28.4026E-03    -28.4609E-03    -28.3756E-03     56.8227E-03    -28.4504E-03     3.53850E-03     58.6269E-03     200.122E+06    -27.6165E+06    -39.4290E+06    -233.368E+06    -39.4306E+06    -233.366E+06    -27.6165E+06     396.645E+03
             374     51.7807E-03     1.94467E-03     51.7442E-03     56.8259E-03    -28.3868E-03    -28.4419E-03    -28.4119E-03     56.8072E-03    -28.3981E-03     2.46820E-03     57.7821E-03     197.702E+06    -36.3814E+06    -43.2735E+06    -237.430E+06    -43.2770E+06    -237.427E+06    -36.3814E+06     419.391E+03
             375     51.7509E-03     972.419E-06     51.7418E-03     56.6878E-03    -28.2442E-03    -28.4452E-03    -28.4391E-03     56.6816E-03    -28.2442E-03     1.24230E-03     57.3373E-03     194.706E+06    -43.0762E+06    -46.0221E+06    -239.232E+06    -46.0346E+06    -239.220E+06    -43.0762E+06     64.0845E+03
             376     53.6445E-03     16.5354E-03     51.0325E-03     76.3381E-03    -28.3625E-03    -47.9588E-03    -27.7950E-03     56.1743E-03    -28.3625E-03     90.5193E-03     229.072E-03     181.012E+06     192.983E+06     124.362E+06    -9.72585E+06    -9.72051E+06     192.978E+06     124.362E+06     554.791E+03
             377     53.2377E-03     15.5621E-03     50.9124E-03     75.2563E-03    -28.0446E-03    -47.2067E-03    -28.0370E-03     56.0867E-03    -28.0446E-03     87.3485E-03     212.579E-03     166.912E+06     169.961E+06     48.8373E+06    -16.4915E+06    -16.4846E+06     169.954E+06     48.8373E+06     532.086E+03
             378     52.8999E-03     14.5880E-03     50.8487E-03     61.5747E-03    -27.7963E-03    -33.7829E-03    -27.1744E-03     54.9662E-03    -27.7963E-03     46.7792E-03     152.598E-03     159.424E+06     142.493E+06    -4.15188E+06    -27.0830E+06    -18.3396E+06     142.486E+06    -12.8882E+06     769.246E+03
             379     52.6062E-03     13.6151E-03     50.8138E-03     57.5091E-03    -27.7951E-03    -29.7213E-03    -27.3464E-03     55.1342E-03    -27.7951E-03     28.0930E-03     124.348E-03     111.511E+06     85.8666E+06    -17.2105E+06    -32.3776E+06    -17.2034E+06     85.8595E+06    -32.3776E+06     746.215E+03
             380     52.3387E-03     12.6422E-03     50.7890E-03     56.7988E-03    -27.9467E-03    -28.8695E-03    -27.6183E-03     55.5476E-03    -27.9467E-03     20.2287E-03     105.218E-03     35.2012E+06     12.8644E+06    -18.2889E+06    -25.3184E+06    -15.8307E+06     10.4062E+06    -25.3184E+06     422.113E+03
             381     52.0951E-03     11.6691E-03     50.7714E-03     56.4403E-03    -28.0711E-03    -28.4149E-03    -27.7113E-03     55.7366E-03    -28.0711E-03     15.3446E-03     93.6850E-03     28.0494E+06    -12.7989E+06    -17.5041E+06    -42.1366E+06    -15.0501E+06    -41.5075E+06    -15.8820E+06     440.584E+03
             382     51.8715E-03     10.6966E-03     50.7566E-03     56.5569E-03    -28.1718E-03    -28.3972E-03    -27.8449E-03     56.0047E-03    -28.1718E-03     13.6420E-03     86.2475E-03     67.1043E+06    -7.91634E+06    -15.1665E+06    -78.3445E+06    -15.1690E+06    -78.3421E+06    -7.91634E+06     315.146E+03
             383     51.6660E-03     9.72378E-03     50.7427E-03     56.6165E-03    -28.2247E-03    -28.3494E-03    -27.9215E-03     56.2167E-03    -28.2528E-03     11.5208E-03     79.3412E-03     96.4745E+06    -1.66994E+06    -15.8632E+06    -104.433E+06    -15.8640E+06    -104.433E+06    -1.66994E+06     226.433E+03
             384     51.4817E-03     8.75116E-03     50.7325E-03     56.6072E-03    -28.2660E-03    -28.3171E-03    -27.9910E-03     56.3321E-03    -28.3171E-03     9.64298E-03     73.8948E-03     119.126E+06     1.89535E+06    -17.5746E+06    -125.765E+06    -17.5764E+06    -125.763E+06     1.89535E+06     342.477E+03
             385     51.3155E-03     7.77870E-03     50.7225E-03     56.6636E-03    -28.3023E-03    -28.3587E-03    -28.0720E-03     56.4332E-03    -28.3587E-03     8.82034E-03     69.8879E-03     136.899E+06     333.305E+03    -20.1794E+06    -145.659E+06    -20.1829E+06    -145.656E+06     333.305E+03     619.354E+03
             386     51.1686E-03     6.80617E-03     50.7139E-03     56.7002E-03    -28.3114E-03    -28.3934E-03    -28.1336E-03     56.5224E-03    -28.3934E-03     7.74780E-03     66.4769E-03     152.566E+06    -2.78386E+06    -23.1956E+06    -164.525E+06    -23.2008E+06    -164.519E+06    -2.78386E+06     841.758E+03
             387     51.0407E-03     5.83384E-03     50.7062E-03     56.7381E-03    -28.3172E-03    -28.4247E-03    -28.1836E-03     56.6045E-03    -28.4247E-03     6.71969E-03     63.6873E-03     167.060E+06    -7.49160E+06    -26.7248E+06    -183.327E+06    -26.7323E+06    -183.320E+06    -7.49160E+06     1.00045E+06
             388     50.9322E-03     4.86133E-03     50.6996E-03     56.8082E-03    -28.3539E-03    -28.4566E-03    -28.2572E-03     56.7115E-03    -28.4566E-03     5.71066E-03     61.5332E-03     184.817E+06    -12.9201E+06    -30.8425E+06    -206.041E+06    -30.8485E+06    -206.035E+06    -12.9201E+06     919.393E+03
             389     50.8431E-03     3.88911E-03     50.6942E-03     56.8418E-03    -28.3781E-03    -28.4670E-03    -28.3148E-03     56.7786E-03    -28.4670E-03     4.60685E-03     59.8624E-03     198.863E+06    -19.4434E+06    -34.9245E+06    -225.582E+06    -34.9270E+06    -225.579E+06    -19.4434E+06     639.950E+03
             390     50.7738E-03     2.91681E-03     50.6899E-03     56.8344E-03    -28.3757E-03    -28.4624E-03    -28.3482E-03     56.7964E-03    -28.4519E-03     3.56688E-03     58.6001E-03     199.740E+06    -28.1956E+06    -38.6732E+06    -232.955E+06    -38.6750E+06    -232.953E+06    -28.1956E+06     463.486E+03
             391     50.7239E-03     1.94444E-03     50.6866E-03     56.8300E-03    -28.3921E-03    -28.4397E-03    -28.3843E-03     56.8106E-03    -28.4281E-03     2.49726E-03     57.7955E-03     198.087E+06    -36.1618E+06    -41.7180E+06    -236.957E+06    -41.7235E+06    -236.952E+06    -36.1618E+06     212.985E+03
             392     50.6943E-03     972.167E-06     50.6850E-03     56.7923E-03    -28.3182E-03    -28.4752E-03    -28.4646E-03     56.7864E-03    -28.3229E-03     1.21309E-03     57.3573E-03     196.095E+06    -41.9000E+06    -43.7646E+06    -238.917E+06    -43.7759E+06    -238.905E+06    -41.9000E+06    -706.482E+03
             393     52.6396E-03     16.5358E-03     49.9749E-03     76.4279E-03    -28.3606E-03    -48.0492E-03    -27.6377E-03     56.0164E-03    -28.3606E-03     91.0068E-03     229.311E-03     179.880E+06     192.579E+06     124.089E+06    -8.76577E+06    -8.75689E+06     192.571E+06     124.089E+06     1.22420E+06
             394     52.2275E-03     15.5613E-03     49.8553E-03     75.3565E-03    -28.0548E-03    -47.2942E-03    -28.0646E-03     56.1269E-03    -28.0548E-03     87.3402E-03     212.863E-03     166.251E+06     171.029E+06     50.1415E+06    -14.8728E+06    -14.8621E+06     171.018E+06     50.1415E+06     1.09730E+06
             395     51.8840E-03     14.5886E-03     49.7908E-03     61.7198E-03    -27.8011E-03    -33.9241E-03    -27.4550E-03     55.2507E-03    -27.8011E-03     46.4571E-03     152.774E-03     158.812E+06     143.204E+06    -2.32096E+06    -26.0681E+06    -16.9240E+06     143.199E+06    -11.4601E+06     405.344E+03
             396     51.5861E-03     13.6152E-03     49.7569E-03     57.4311E-03    -27.7875E-03    -29.6479E-03    -27.2551E-03     55.0383E-03    -27.7875E-03     28.2183E-03     124.224E-03     110.446E+06     85.6836E+06    -15.9516E+06    -31.7102E+06    -15.9490E+06     85.6809E+06    -31.7102E+06     251.795E+03
             397     51.3130E-03     12.6420E-03     49.7313E-03     56.7322E-03    -27.9457E-03    -28.7990E-03    -27.5260E-03     55.4592E-03    -27.9457E-03     20.3246E-03     105.115E-03     34.4838E+06     12.9140E+06    -17.3405E+06    -24.6320E+06    -14.8098E+06     10.3832E+06    -24.6320E+06     176.210E+03
             398     51.0655E-03     11.6693E-03     49.7143E-03     56.4725E-03    -28.0702E-03    -28.4473E-03    -27.7471E-03     55.7723E-03    -28.0702E-03     15.3255E-03     93.7499E-03     28.4587E+06    -12.2985E+06    -16.8413E+06    -41.9738E+06    -14.3116E+06    -41.2850E+06    -15.5169E+06     182.458E+03
             399     50.8371E-03     10.6963E-03     49.6991E-03     56.5443E-03    -28.1694E-03    -28.3883E-03    -27.8324E-03     55.9884E-03    -28.1694E-03     13.6814E-03     86.2284E-03      67.396E+06    -7.50654E+06    -14.4201E+06    -78.0827E+06    -14.4204E+06    -78.0823E+06    -7.50654E+06     126.538E+03
             400     50.6281E-03     9.72377E-03     49.6856E-03     56.6032E-03    -28.2242E-03    -28.3377E-03    -27.9131E-03     56.2045E-03    -28.2501E-03     11.5086E-03     79.3187E-03     96.6789E+06    -1.62051E+06    -15.5317E+06    -104.481E+06    -15.5323E+06    -104.480E+06    -1.62051E+06     175.887E+03
             401     50.4399E-03     8.75124E-03     49.6749E-03     56.6054E-03    -28.2658E-03    -28.3150E-03    -27.9896E-03     56.3292E-03    -28.3150E-03     9.66173E-03     73.8913E-03     119.336E+06     1.75872E+06    -17.4890E+06    -126.031E+06    -17.4917E+06    -126.028E+06     1.75872E+06     483.040E+03
             402     50.2708E-03     7.77868E-03     49.6653E-03     56.6680E-03    -28.3084E-03    -28.3563E-03    -28.0774E-03     56.4369E-03    -28.3563E-03     8.83543E-03     69.8715E-03     136.961E+06     213.843E+03    -19.9811E+06    -145.717E+06    -19.9872E+06    -145.711E+06     213.843E+03     855.035E+03
             403     50.1207E-03     6.80622E-03     49.6564E-03     56.7027E-03    -28.3180E-03    -28.3893E-03    -28.1400E-03     56.5248E-03    -28.3893E-03     7.74860E-03     66.4524E-03     152.587E+06    -3.01630E+06    -22.9113E+06    -164.572E+06    -22.9215E+06    -164.562E+06    -3.01630E+06     1.18079E+06
             404     49.9905E-03     5.83377E-03     49.6489E-03     56.7308E-03    -28.3146E-03    -28.4204E-03    -28.1813E-03     56.5975E-03    -28.4204E-03     6.71305E-03     63.6752E-03     167.113E+06    -7.55204E+06    -26.2225E+06    -183.207E+06    -26.2378E+06    -183.191E+06    -7.55204E+06     1.53709E+06
             405     49.8798E-03     4.86145E-03     49.6423E-03     56.7873E-03    -28.3373E-03    -28.4526E-03    -28.2404E-03     56.6904E-03    -28.4526E-03     5.71754E-03     61.5092E-03     184.689E+06    -12.9972E+06    -29.7187E+06    -205.471E+06    -29.7327E+06    -205.457E+06    -12.9972E+06     1.53195E+06
             406     49.7890E-03     3.88903E-03     49.6368E-03     56.8325E-03    -28.3692E-03    -28.4672E-03    -28.3054E-03     56.7688E-03    -28.4672E-03     4.62605E-03     59.8346E-03     198.519E+06    -19.5632E+06    -33.7280E+06    -224.775E+06    -33.7345E+06    -224.769E+06    -19.5632E+06     1.01048E+06
             407     49.7183E-03     2.91673E-03     49.6327E-03     56.8229E-03    -28.3635E-03    -28.4633E-03    -28.3248E-03     56.7842E-03    -28.4633E-03     3.59951E-03     58.5512E-03     200.072E+06    -27.9613E+06    -37.3478E+06    -232.545E+06    -37.3504E+06    -232.543E+06    -27.9613E+06     522.603E+03
             408     49.6674E-03     1.94442E-03     49.6294E-03     56.8392E-03    -28.3713E-03    -28.4699E-03    -28.3514E-03     56.8193E-03    -28.4699E-03     2.52657E-03     57.7804E-03     198.716E+06    -35.2975E+06    -39.8604E+06    -236.249E+06    -39.8639E+06    -236.246E+06    -35.2975E+06    -81.3293E+03
             409     49.6369E-03     972.258E-06     49.6274E-03     56.9277E-03    -28.3657E-03    -28.5628E-03    -28.5162E-03     56.9215E-03    -28.4062E-03     1.26436E-03     57.4635E-03     197.718E+06    -40.6003E+06    -42.0138E+06    -239.018E+06    -42.0185E+06    -239.013E+06    -40.6003E+06    -714.585E+03
             410     51.6377E-03     16.5349E-03     48.9188E-03     76.3070E-03    -28.3653E-03    -47.9239E-03    -27.6065E-03     55.9896E-03    -28.3653E-03     90.6933E-03     229.242E-03     178.900E+06     192.025E+06     124.697E+06    -8.05280E+06    -8.04683E+06     192.020E+06     124.697E+06     1.00407E+06
             411     51.2181E-03     15.5616E-03     48.7969E-03     75.3700E-03    -28.0622E-03    -47.2935E-03    -27.9847E-03     56.0613E-03    -28.0622E-03     87.5626E-03     212.768E-03     166.141E+06     172.230E+06     51.3478E+06    -13.3202E+06    -13.3124E+06     172.222E+06     51.3478E+06     1.05776E+06
             412     50.8699E-03     14.5885E-03     48.7332E-03     61.8018E-03    -27.8065E-03    -34.0008E-03    -27.4792E-03     55.2802E-03    -27.8065E-03     46.5505E-03     152.879E-03     158.225E+06     143.840E+06    -1.25319E+06    -24.7769E+06    -15.3197E+06     143.837E+06    -10.7072E+06     376.824E+03
             413     50.5676E-03     13.6152E-03     48.7001E-03     57.5144E-03    -27.7903E-03    -29.7300E-03    -27.3511E-03     55.1354E-03    -27.7903E-03     28.2077E-03     124.285E-03     109.494E+06     85.4234E+06    -14.8789E+06    -31.2387E+06    -14.8774E+06     85.4219E+06    -31.2387E+06     191.604E+03
             414     50.2888E-03     12.6420E-03     48.6738E-03     56.7066E-03    -27.9467E-03    -28.7723E-03    -27.4822E-03     55.4165E-03    -27.9467E-03     20.4317E-03     105.027E-03     34.5152E+06     13.4130E+06    -16.8353E+06    -24.1504E+06    -13.8798E+06     10.3840E+06    -24.0770E+06     149.581E+03
             415     50.0367E-03     11.6691E-03     48.6570E-03     56.4893E-03    -28.0720E-03    -28.4612E-03    -27.7591E-03     55.7872E-03    -28.0720E-03     15.3524E-03     93.8185E-03     28.6581E+06    -11.7923E+06    -16.6213E+06    -41.5090E+06    -13.6671E+06    -41.1715E+06    -15.0839E+06     52.6347E+03
             416     49.8041E-03     10.6966E-03     48.6419E-03     56.5904E-03    -28.1685E-03    -28.4348E-03    -27.8783E-03     56.0339E-03    -28.1685E-03     13.6928E-03     86.2552E-03     67.6719E+06    -7.15592E+06    -13.9348E+06    -77.9506E+06    -13.9360E+06    -77.9494E+06    -7.15592E+06     217.618E+03
             417     49.5907E-03     9.72384E-03     48.6281E-03     56.5770E-03    -28.2079E-03    -28.3271E-03    -27.8892E-03     56.1791E-03    -28.2479E-03     11.5043E-03     79.2698E-03     97.1590E+06    -1.40728E+06    -15.1343E+06    -104.681E+06    -15.1367E+06    -104.679E+06    -1.40728E+06     408.307E+03
             418     49.3991E-03     8.75116E-03     48.6178E-03     56.6029E-03    -28.2617E-03    -28.3162E-03    -27.9863E-03     56.3248E-03    -28.3136E-03     9.69327E-03     73.8766E-03     119.785E+06     1.66333E+06    -17.2776E+06    -126.463E+06    -17.2813E+06    -126.459E+06     1.66333E+06     631.789E+03
             419     49.2262E-03     7.77867E-03     48.6078E-03     56.6830E-03    -28.3213E-03    -28.3587E-03    -28.0943E-03     56.4533E-03    -28.3560E-03     8.80931E-03     69.8789E-03     137.290E+06     509.004E+03    -19.6346E+06    -145.736E+06    -19.6432E+06    -145.728E+06     509.004E+03     1.00910E+06
             420     49.0735E-03     6.80625E-03     48.5992E-03     56.7013E-03    -28.3177E-03    -28.3870E-03    -28.1415E-03     56.5250E-03    -28.3870E-03     7.71284E-03     66.4410E-03     152.892E+06    -2.83977E+06    -22.4732E+06    -164.595E+06    -22.4878E+06    -164.580E+06    -2.83977E+06     1.43353E+06
             421     48.9405E-03     5.83383E-03     48.5915E-03     56.7215E-03    -28.3087E-03    -28.4167E-03    -28.1770E-03     56.5898E-03    -28.4167E-03     6.67061E-03     63.6622E-03     167.366E+06    -7.58884E+06    -25.4754E+06    -183.170E+06    -25.4931E+06    -183.152E+06    -7.58884E+06     1.66751E+06
             422     48.8276E-03     4.86137E-03     48.5849E-03     56.7587E-03    -28.3108E-03    -28.4524E-03    -28.2149E-03     56.6628E-03    -28.4524E-03     5.68597E-03     61.4754E-03     184.734E+06    -12.7576E+06    -28.5171E+06    -204.860E+06    -28.5358E+06    -204.841E+06    -12.7576E+06     1.80798E+06
             423     48.7350E-03     3.88903E-03     48.5795E-03     56.8092E-03    -28.3394E-03    -28.4735E-03    -28.2748E-03     56.7446E-03    -28.4735E-03     4.65784E-03     59.8072E-03     198.541E+06    -19.2566E+06    -31.9595E+06    -223.832E+06    -31.9729E+06    -223.818E+06    -19.2566E+06     1.55140E+06
             424     48.6628E-03     2.91669E-03     48.5753E-03     56.8603E-03    -28.3865E-03    -28.4764E-03    -28.3478E-03     56.8217E-03    -28.4764E-03     3.58461E-03     58.5644E-03     200.062E+06    -27.1598E+06    -35.5718E+06    -231.286E+06    -35.5765E+06    -231.282E+06    -27.1598E+06     734.888E+03
             425     48.6111E-03     1.94438E-03     48.5722E-03     56.8739E-03    -28.3941E-03    -28.4817E-03    -28.3748E-03     56.8546E-03    -28.4817E-03     2.50815E-03     57.7814E-03     199.376E+06    -34.2049E+06    -38.5314E+06    -235.700E+06    -38.5321E+06    -235.700E+06    -34.2049E+06     121.969E+03
             426     48.5797E-03     971.938E-06     48.5699E-03     56.9592E-03    -28.3770E-03    -28.5823E-03    -28.5238E-03     56.9525E-03    -28.4288E-03     1.34413E-03     57.5094E-03     199.586E+06    -39.1451E+06    -40.7635E+06    -239.534E+06    -40.3299E+06    -239.526E+06    -39.5864E+06     243.731E+03
             427     50.6368E-03     16.5362E-03     47.8606E-03     76.3955E-03    -28.3676E-03    -48.0143E-03    -27.7333E-03     56.1145E-03    -28.3676E-03     90.6866E-03     229.223E-03     178.359E+06     192.202E+06     125.767E+06    -7.21016E+06    -7.20672E+06     192.198E+06     125.767E+06     519.833E+03
             428     50.2131E-03     15.5618E-03     47.7408E-03     75.2378E-03    -28.0628E-03    -47.1653E-03    -27.8196E-03     55.8922E-03    -28.0628E-03     87.6018E-03     212.596E-03     165.781E+06     172.215E+06     51.5828E+06    -12.5828E+06    -12.5792E+06     172.211E+06     51.5828E+06     726.292E+03
             429     49.8567E-03     14.5874E-03     47.6749E-03     61.6444E-03    -27.8084E-03    -33.8411E-03    -27.3111E-03     55.1145E-03    -27.8084E-03     46.3558E-03     152.900E-03     158.197E+06     143.818E+06    -2.28399E+06    -24.1214E+06    -15.3624E+06     143.817E+06    -11.0417E+06     280.072E+03
             430     49.5498E-03     13.6152E-03     47.6425E-03     57.5330E-03    -27.8000E-03    -29.7459E-03    -27.4349E-03     55.2220E-03    -27.8000E-03     27.8269E-03     124.398E-03     109.850E+06     86.0223E+06    -15.1659E+06    -30.6553E+06    -15.1651E+06     86.0214E+06    -30.6553E+06     184.121E+03
             431     49.2666E-03     12.6423E-03     47.6170E-03     56.7418E-03    -27.9498E-03    -28.8122E-03    -27.5200E-03     55.4496E-03    -27.9498E-03     20.5225E-03     104.995E-03     34.7189E+06     13.5740E+06    -17.1494E+06    -24.0354E+06    -13.9726E+06     10.3239E+06    -23.9620E+06     192.003E+03
             432     49.0090E-03     11.6691E-03     47.5995E-03     56.4928E-03    -28.0744E-03    -28.4651E-03    -27.7480E-03     55.7756E-03    -28.0744E-03     15.4947E-03     93.7778E-03     28.7701E+06    -11.6747E+06    -16.7212E+06    -41.4018E+06    -13.5473E+06    -41.3164E+06    -14.9340E+06     259.882E+03
             433     48.7718E-03     10.6965E-03     47.5844E-03     56.6205E-03    -28.1706E-03    -28.4623E-03    -27.9127E-03     56.0709E-03    -28.1706E-03     13.6134E-03     86.2889E-03     67.8168E+06    -7.13066E+06    -14.2064E+06    -78.1904E+06    -14.2100E+06    -78.1868E+06    -7.13066E+06     419.264E+03
             434     48.5547E-03     9.72381E-03     47.5711E-03     56.6014E-03    -28.2240E-03    -28.3354E-03    -27.9135E-03     56.2033E-03    -28.2478E-03     11.5183E-03     79.2769E-03     97.2044E+06    -1.09194E+06    -15.3721E+06    -104.628E+06    -15.3760E+06    -104.624E+06    -1.09194E+06     579.400E+03
             435     48.3586E-03     8.75122E-03     47.5602E-03     56.6172E-03    -28.2766E-03    -28.3174E-03    -28.0056E-03     56.3394E-03    -28.3105E-03     9.68733E-03     73.8770E-03     120.013E+06     2.13880E+06    -17.1888E+06    -126.364E+06    -17.1939E+06    -126.359E+06     2.13880E+06     739.130E+03
             436     48.1826E-03     7.77878E-03     47.5505E-03     56.6620E-03    -28.3047E-03    -28.3543E-03    -28.0814E-03     56.4360E-03    -28.3516E-03     8.73759E-03     69.8480E-03     137.798E+06     657.639E+03    -19.6600E+06    -146.167E+06    -19.6693E+06    -146.158E+06     657.639E+03     1.05833E+06
             437     48.0264E-03     6.80624E-03     47.5417E-03     56.6791E-03    -28.2988E-03    -28.3847E-03    -28.1228E-03     56.5031E-03    -28.3847E-03     7.70812E-03     66.4162E-03     153.286E+06    -2.41672E+06    -22.0703E+06    -164.576E+06    -22.0849E+06    -164.562E+06    -2.41672E+06     1.44204E+06
             438     47.8909E-03     5.83387E-03     47.5342E-03     56.7107E-03    -28.3005E-03    -28.4152E-03    -28.1685E-03     56.5787E-03    -28.4152E-03     6.67469E-03     63.6457E-03     167.648E+06    -7.17585E+06    -24.7057E+06    -182.888E+06    -24.7218E+06    -182.872E+06    -7.17585E+06     1.59838E+06
             439     47.7757E-03     4.86142E-03     47.5278E-03     56.7506E-03    -28.3013E-03    -28.4532E-03    -28.2067E-03     56.6561E-03    -28.4532E-03     5.64438E-03     61.4639E-03     185.204E+06    -12.2882E+06    -27.4914E+06    -204.620E+06    -27.5101E+06    -204.601E+06    -12.2882E+06     1.81975E+06
             440     47.6812E-03     3.88895E-03     47.5224E-03     56.8040E-03    -28.3304E-03    -28.4766E-03    -28.2660E-03     56.7396E-03    -28.4766E-03     4.65915E-03     59.8010E-03     198.556E+06    -18.5669E+06    -30.7381E+06    -222.917E+06    -30.7602E+06    -222.894E+06    -18.5669E+06     2.02040E+06
             441     47.6073E-03     2.91661E-03     47.5179E-03     56.8903E-03    -28.4033E-03    -28.4880E-03    -28.3802E-03     56.8514E-03    -28.4722E-03     3.59243E-03     58.5883E-03     199.297E+06    -27.1928E+06    -34.3379E+06    -229.949E+06    -34.3550E+06    -229.932E+06    -27.1928E+06     1.67696E+06
             442     47.5545E-03     1.94446E-03     47.5147E-03     56.9147E-03    -28.4230E-03    -28.4913E-03    -28.4485E-03     56.8968E-03    -28.4479E-03     2.40054E-03     57.7643E-03     198.931E+06    -34.1804E+06    -37.4548E+06    -234.721E+06    -37.4635E+06    -234.712E+06    -34.1804E+06     991.406E+03
             443     47.5226E-03     972.396E-06     47.5127E-03     56.8555E-03    -28.3596E-03    -28.4947E-03    -28.4724E-03     56.8492E-03    -28.3756E-03     1.41142E-03     57.3170E-03     199.818E+06    -38.6074E+06    -40.1766E+06    -239.205E+06    -39.6530E+06    -239.195E+06    -39.1404E+06     1.01055E+06
             444     49.6388E-03     16.5352E-03     46.8038E-03     76.4894E-03    -28.3634E-03    -48.1126E-03    -27.8586E-03     56.2354E-03    -28.3634E-03     90.7579E-03     229.288E-03     179.097E+06     191.987E+06     125.421E+06    -8.32594E+06    -8.32215E+06     191.984E+06     125.421E+06    -318.784E+03
             445     49.2084E-03     15.5618E-03     46.6829E-03     75.2995E-03    -28.0568E-03    -47.2357E-03    -27.9977E-03     56.0616E-03    -28.0568E-03     87.4408E-03     212.533E-03     166.169E+06     171.988E+06     52.4505E+06    -13.7447E+06    -13.7403E+06     171.984E+06     52.4505E+06     18.2692E+03
             446     48.8478E-03     14.5892E-03     46.6183E-03     61.4436E-03    -27.7990E-03    -33.6491E-03    -27.1287E-03     54.9232E-03    -27.7990E-03     46.3745E-03     152.539E-03     158.084E+06     143.758E+06    -815.575E+03    -24.9409E+06    -15.2087E+06     143.756E+06    -10.5454E+06     329.442E+03
             447     48.5333E-03     13.6148E-03     46.5845E-03     57.3362E-03    -27.7988E-03    -29.5496E-03    -27.2199E-03     55.0065E-03    -27.7988E-03     27.7930E-03     124.273E-03     109.672E+06     85.9519E+06    -14.8595E+06    -30.7486E+06    -14.8577E+06     85.9500E+06    -30.7486E+06     302.572E+03
             448     48.2457E-03     12.6419E-03     46.5600E-03     56.8330E-03    -27.9573E-03    -28.8944E-03    -27.6193E-03     55.5580E-03    -27.9573E-03     20.4687E-03     105.132E-03     33.9469E+06     13.2390E+06    -17.0023E+06    -23.4624E+06    -14.5304E+06     10.7670E+06    -23.4624E+06     393.784E+03
             449     47.9825E-03     11.6692E-03     46.5419E-03     56.5554E-03    -28.0754E-03    -28.5234E-03    -27.7992E-03     55.8312E-03    -28.0754E-03     15.5639E-03     93.8080E-03     28.4192E+06    -12.0429E+06    -16.9678E+06    -41.7094E+06    -14.4998E+06    -41.3604E+06    -14.8599E+06     539.884E+03
             450     47.7408E-03     10.6965E-03     46.5271E-03     56.6008E-03    -28.1693E-03    -28.4410E-03    -27.9026E-03     56.0624E-03    -28.1693E-03     13.4738E-03     86.3102E-03     67.7114E+06    -7.13464E+06    -15.0760E+06    -78.4517E+06    -15.0814E+06    -78.4462E+06    -7.13464E+06     554.886E+03
             451     47.5191E-03     9.72384E-03     46.5136E-03     56.6422E-03    -28.2415E-03    -28.3603E-03    -27.9645E-03     56.2495E-03    -28.2446E-03     11.4453E-03     79.3238E-03     96.7744E+06    -789.576E+03    -16.1618E+06    -104.307E+06    -16.1661E+06    -104.302E+06    -789.576E+03     576.440E+03
             452     47.3192E-03     8.75140E-03     46.5029E-03     56.5963E-03    -28.2659E-03    -28.3088E-03    -27.9939E-03     56.3200E-03    -28.3046E-03     9.65963E-03     73.8553E-03     119.959E+06     2.47395E+06    -17.7824E+06    -126.317E+06    -17.7862E+06    -126.313E+06     2.47395E+06     617.295E+03
             453     47.1393E-03     7.77880E-03     46.4931E-03     56.6199E-03    -28.2712E-03    -28.3463E-03    -28.0441E-03     56.3928E-03    -28.3463E-03     8.75589E-03     69.8019E-03     138.078E+06     862.660E+03    -19.8614E+06    -146.402E+06    -19.8662E+06    -146.397E+06     862.660E+03     683.172E+03
             454     46.9801E-03     6.80632E-03     46.4845E-03     56.6530E-03    -28.2746E-03    -28.3837E-03    -28.0982E-03     56.4766E-03    -28.3837E-03     7.71444E-03     66.3925E-03     153.690E+06    -1.94538E+06    -21.9812E+06    -164.664E+06    -21.9892E+06    -164.656E+06    -1.94538E+06     953.866E+03
             455     46.8416E-03     5.83374E-03     46.4769E-03     56.6916E-03    -28.2788E-03    -28.4188E-03    -28.1468E-03     56.5596E-03    -28.4188E-03     6.67281E-03     63.6272E-03     168.158E+06    -6.47263E+06    -24.2618E+06    -182.805E+06    -24.2734E+06    -182.794E+06    -6.47263E+06     1.32722E+06
             456     46.7241E-03     4.86140E-03     46.4705E-03     56.7834E-03    -28.3305E-03    -28.4563E-03    -28.2362E-03     56.6890E-03    -28.4563E-03     5.63995E-03     61.5013E-03     185.679E+06    -11.7600E+06    -27.1868E+06    -204.666E+06    -27.2050E+06    -204.648E+06    -11.7600E+06     1.77706E+06
             457     46.6275E-03     3.88905E-03     46.4651E-03     56.8484E-03    -28.3828E-03    -28.4684E-03    -28.3188E-03     56.7845E-03    -28.4684E-03     4.64260E-03     59.8443E-03     198.443E+06    -18.1762E+06    -30.3024E+06    -222.389E+06    -30.3327E+06    -222.359E+06    -18.1762E+06     2.39322E+06
             458     46.5520E-03     2.91670E-03     46.4605E-03     56.8603E-03    -28.3936E-03    -28.4690E-03    -28.3707E-03     56.8216E-03    -28.4532E-03     3.58174E-03     58.5501E-03     198.880E+06    -26.9200E+06    -33.1324E+06    -228.812E+06    -33.1668E+06    -228.778E+06    -26.9200E+06     2.56939E+06
             459     46.4978E-03     1.94450E-03     46.4571E-03     56.8789E-03    -28.4008E-03    -28.4801E-03    -28.4324E-03     56.8605E-03    -28.4300E-03     2.45140E-03     57.6985E-03     198.652E+06    -33.5007E+06    -35.9012E+06    -233.341E+06    -35.9303E+06    -233.312E+06    -33.5007E+06     2.33228E+06
             460     46.4656E-03     972.246E-06     46.4554E-03     56.8337E-03    -28.3437E-03    -28.4915E-03    -28.4848E-03     56.8270E-03    -28.3437E-03     1.42665E-03     57.2389E-03     199.311E+06    -36.8746E+06    -37.9938E+06    -236.741E+06    -37.9200E+06    -236.723E+06    -36.9663E+06     1.69070E+06
             461     48.6429E-03     16.5358E-03     45.7460E-03     76.5870E-03    -28.3617E-03    -48.2055E-03    -27.9097E-03     56.2913E-03    -28.3617E-03     91.0024E-03     229.444E-03     179.742E+06     191.894E+06     125.055E+06    -9.14206E+06    -9.13888E+06     191.891E+06     125.055E+06    -525.448E+03
             462     48.2063E-03     15.5625E-03     45.6252E-03     75.3006E-03    -28.0521E-03    -47.2383E-03    -28.0412E-03     56.1035E-03    -28.0521E-03     87.4316E-03     212.565E-03     166.652E+06     171.280E+06     51.7515E+06    -15.2586E+06    -15.2547E+06     171.276E+06     51.7515E+06    -751.670E+03
             463     47.8398E-03     14.5881E-03     45.5613E-03     61.5195E-03    -27.7962E-03    -33.7273E-03    -27.1312E-03     54.9234E-03    -27.7962E-03     46.6937E-03     152.523E-03     159.137E+06     143.786E+06    -1.70722E+06    -26.0019E+06    -16.9108E+06     143.784E+06    -10.7963E+06     30.9316E+03
             464     47.5199E-03     13.6151E-03     45.5277E-03     57.3682E-03    -27.7943E-03    -29.5850E-03    -27.2288E-03     55.0121E-03    -27.7943E-03     27.9362E-03     124.307E-03     110.657E+06     85.9620E+06    -16.5881E+06    -31.2412E+06    -16.5853E+06     85.9593E+06    -31.2412E+06     459.179E+03
             465     47.2257E-03     12.6419E-03     45.5022E-03     56.7953E-03    -27.9537E-03    -28.8592E-03    -27.6018E-03     55.5378E-03    -27.9537E-03     20.3057E-03     105.161E-03     33.7442E+06     12.5600E+06    -17.8043E+06    -23.7582E+06    -15.9391E+06     10.6948E+06    -23.7582E+06     614.770E+03
             466     46.9576E-03     11.6693E-03     45.4846E-03     56.5594E-03    -28.0724E-03    -28.5285E-03    -27.8160E-03     55.8469E-03    -28.0724E-03     15.4459E-03     93.8460E-03     27.6056E+06    -12.4358E+06    -17.6295E+06    -41.6736E+06    -15.7675E+06    -41.1915E+06    -14.7798E+06     609.830E+03
             467     46.7110E-03     10.6966E-03     45.4698E-03     56.6026E-03    -28.1654E-03    -28.4469E-03    -27.9049E-03     56.0605E-03    -28.1654E-03     13.5243E-03     86.2952E-03     67.0550E+06    -6.81813E+06    -15.9756E+06    -77.9760E+06    -15.9792E+06    -77.9724E+06    -6.81813E+06     429.446E+03
             468     46.4845E-03     9.72405E-03     45.4561E-03     56.6347E-03    -28.2310E-03    -28.3632E-03    -27.9586E-03     56.2393E-03    -28.2402E-03     11.4698E-03     79.3257E-03     96.5771E+06    -656.239E+03    -16.9495E+06    -104.321E+06    -16.9519E+06    -104.318E+06    -656.239E+03     383.540E+03
             469     46.2806E-03     8.75138E-03     45.4457E-03     56.5723E-03    -28.2475E-03    -28.3032E-03    -27.9726E-03     56.2975E-03    -28.3032E-03     9.63479E-03     73.8352E-03     119.957E+06     3.05335E+06    -18.4897E+06    -126.209E+06    -18.4910E+06    -126.208E+06     3.05335E+06     240.270E+03
             470     46.0969E-03     7.77881E-03     45.4358E-03     56.5974E-03    -28.2499E-03    -28.3454E-03    -28.0213E-03     56.3688E-03    -28.3454E-03     8.78053E-03     69.7740E-03     138.016E+06     1.42474E+06    -20.2124E+06    -146.118E+06    -20.2145E+06    -146.116E+06     1.42474E+06    -66.6853E+03
             471     45.9342E-03     6.80628E-03     45.4271E-03     56.6418E-03    -28.2626E-03    -28.3836E-03    -28.0868E-03     56.4660E-03    -28.3836E-03     7.69805E-03     66.3902E-03     154.245E+06    -1.66076E+06    -22.2620E+06    -165.166E+06    -22.2649E+06    -165.163E+06    -1.66076E+06    -67.6639E+03
             472     45.7928E-03     5.83387E-03     45.4197E-03     56.6900E-03    -28.2732E-03    -28.4218E-03    -28.1420E-03     56.5587E-03    -28.4218E-03     6.65554E-03     63.6308E-03     169.156E+06    -5.84323E+06    -24.3774E+06    -183.489E+06    -24.3838E+06    -183.483E+06    -5.84323E+06     718.655E+03
             473     45.6725E-03     4.86133E-03     45.4131E-03     56.8162E-03    -28.3617E-03    -28.4571E-03    -28.2674E-03     56.7219E-03    -28.4571E-03     5.63878E-03     61.5389E-03     186.436E+06    -10.7228E+06    -27.0778E+06    -204.793E+06    -27.0929E+06    -204.778E+06    -10.7228E+06     1.60752E+06
             474     45.5739E-03     3.88909E-03     45.4077E-03     56.8830E-03    -28.4249E-03    -28.4606E-03    -28.3615E-03     56.8196E-03    -28.4606E-03     4.62518E-03     59.8780E-03     198.916E+06    -16.8546E+06    -30.1282E+06    -222.057E+06    -30.1543E+06    -222.031E+06    -16.8546E+06     2.20619E+06
             475     45.4967E-03     2.91689E-03     45.4031E-03     56.8210E-03    -28.3794E-03    -28.4453E-03    -28.3407E-03     56.7823E-03    -28.4453E-03     3.58676E-03     58.5064E-03     199.584E+06    -24.4194E+06    -32.5101E+06    -227.906E+06    -32.5478E+06    -227.868E+06    -24.4194E+06     2.69666E+06
             476     45.4417E-03     1.94437E-03     45.4000E-03     56.8071E-03    -28.3592E-03    -28.4515E-03    -28.3469E-03     56.7880E-03    -28.4448E-03     2.48855E-03     57.6247E-03     199.496E+06    -30.4627E+06    -33.8726E+06    -231.629E+06    -33.9062E+06    -231.595E+06    -30.4627E+06     2.43048E+06
             477     45.4080E-03     972.215E-06     45.3976E-03     56.9014E-03    -28.3468E-03    -28.5557E-03    -28.5126E-03     56.8947E-03    -28.3834E-03     1.39328E-03     57.3134E-03     199.679E+06    -33.4191E+06    -34.1896E+06    -233.482E+06    -34.1541E+06    -233.466E+06    -33.4702E+06     1.48911E+06
             478     47.6482E-03     16.5353E-03     44.6871E-03     76.4995E-03    -28.3657E-03    -48.1118E-03    -27.7807E-03     56.1684E-03    -28.3657E-03     91.0466E-03     229.494E-03     179.616E+06     192.057E+06     125.527E+06    -8.81698E+06    -8.81526E+06     192.055E+06     125.527E+06    -291.747E+03
             479     47.2073E-03     15.5615E-03     44.5687E-03     75.0315E-03    -28.0597E-03    -46.9659E-03    -27.8509E-03     55.9165E-03    -28.0597E-03     87.0707E-03     212.584E-03     166.264E+06     170.684E+06     51.0001E+06    -15.1501E+06    -15.1477E+06     170.681E+06     51.0001E+06    -509.173E+03
             480     46.8338E-03     14.5885E-03     44.5037E-03     61.7068E-03    -27.8023E-03    -33.9109E-03    -27.3013E-03     55.0971E-03    -27.8023E-03     46.7439E-03     152.803E-03     159.337E+06     143.305E+06    -3.34080E+06    -26.0877E+06    -17.9178E+06     143.303E+06    -11.5090E+06     99.7126E+03
             481     46.5079E-03     13.6152E-03     44.4704E-03     57.5377E-03    -27.7936E-03    -29.7555E-03    -27.4148E-03     55.1970E-03    -27.7936E-03     27.9475E-03     124.447E-03     111.281E+06     86.3435E+06    -17.8417E+06    -30.8486E+06    -17.8375E+06     86.3394E+06    -30.8486E+06     519.915E+03
             482     46.2079E-03     12.6423E-03     44.4448E-03     56.7619E-03    -27.9446E-03    -28.8349E-03    -27.5626E-03     55.4896E-03    -27.9446E-03     20.4056E-03     105.088E-03     34.0710E+06     12.5385E+06    -18.6787E+06    -23.8047E+06    -17.0134E+06     10.8733E+06    -23.8047E+06     482.351E+03
             483     45.9342E-03     11.6693E-03     44.4272E-03     56.4868E-03    -28.0667E-03    -28.4599E-03    -27.7463E-03     55.7732E-03    -28.0667E-03     15.4462E-03     93.7897E-03     27.0876E+06    -12.6837E+06    -18.0904E+06    -41.5412E+06    -16.4292E+06    -41.2045E+06    -14.6816E+06     291.265E+03
             484     45.6823E-03     10.6966E-03     44.4124E-03     56.5731E-03    -28.1648E-03    -28.4199E-03    -27.8750E-03     56.0283E-03    -28.1648E-03     13.5548E-03     86.2662E-03     66.6932E+06    -6.34902E+06    -16.6563E+06    -77.5936E+06    -16.6573E+06    -77.5927E+06    -6.34902E+06     114.929E+03
             485     45.4511E-03     9.72394E-03     44.3987E-03     56.5996E-03    -28.2251E-03    -28.3368E-03    -27.9204E-03     56.2002E-03    -28.2421E-03     11.5267E-03     79.3130E-03     96.3280E+06    -310.688E+03    -17.4950E+06    -104.063E+06    -17.4967E+06    -104.062E+06    -310.688E+03    -126.102E+03
             486     45.2427E-03     8.75140E-03     44.3883E-03     56.5978E-03    -28.2679E-03    -28.3093E-03    -27.9947E-03     56.3213E-03    -28.3059E-03     9.66483E-03     73.8685E-03     119.759E+06     3.62682E+06    -18.8608E+06    -125.781E+06    -18.8641E+06    -125.777E+06     3.62682E+06    -404.049E+03
             487     45.0552E-03     7.77890E-03     44.3786E-03     56.6204E-03    -28.2681E-03    -28.3495E-03    -28.0436E-03     56.3925E-03    -28.3461E-03     8.77079E-03     69.7939E-03     137.678E+06     2.10909E+06    -20.8620E+06    -145.594E+06    -20.8691E+06    -145.587E+06     2.10909E+06    -845.628E+03
             488     44.8889E-03     6.80635E-03     44.3698E-03     56.6346E-03    -28.2543E-03    -28.3836E-03    -28.0791E-03     56.4594E-03    -28.3836E-03     7.68230E-03     66.3787E-03     154.573E+06    -1.17736E+06    -23.1367E+06    -165.547E+06    -23.1450E+06    -165.539E+06    -1.17736E+06    -1.00955E+06
             489     44.7444E-03     5.83381E-03     44.3624E-03     56.7125E-03    -28.2959E-03    -28.4204E-03    -28.1651E-03     56.5817E-03    -28.4204E-03     6.64939E-03     63.6533E-03     170.018E+06    -5.31316E+06    -25.6759E+06    -184.581E+06    -25.6818E+06    -184.575E+06    -5.31316E+06    -317.547E+03
             490     44.6214E-03     4.86148E-03     44.3558E-03     56.8096E-03    -28.3608E-03    -28.4518E-03    -28.2654E-03     56.7143E-03    -28.4518E-03     5.66973E-03     61.5300E-03     187.273E+06    -9.74686E+06    -28.0507E+06    -205.490E+06    -28.0583E+06    -205.483E+06    -9.74686E+06     764.595E+03
             491     44.5204E-03     3.88919E-03     44.3502E-03     56.8381E-03    -28.3791E-03    -28.4624E-03    -28.3159E-03     56.7749E-03    -28.4624E-03     4.60964E-03     59.8337E-03     199.620E+06    -14.5019E+06    -30.9567E+06    -221.828E+06    -30.9700E+06    -221.815E+06    -14.5019E+06     1.53671E+06
             492     44.4418E-03     2.91675E-03     44.3460E-03     56.8211E-03    -28.3751E-03    -28.4488E-03    -28.3362E-03     56.7823E-03    -28.4488E-03     3.60518E-03     58.5271E-03     199.676E+06    -21.9068E+06    -33.9706E+06    -227.316E+06    -33.9905E+06    -227.296E+06    -21.9068E+06     1.64463E+06
             493     44.3851E-03     1.94463E-03     44.3425E-03     56.8013E-03    -28.3532E-03    -28.4511E-03    -28.3658E-03     56.7819E-03    -28.4190E-03     2.49117E-03     57.6810E-03     197.056E+06    -29.5951E+06    -35.9029E+06    -229.708E+06    -35.9162E+06    -229.694E+06    -29.5951E+06     1.19477E+06
             494     44.3514E-03     972.072E-06     44.3407E-03     56.7796E-03    -28.2922E-03    -28.4884E-03    -28.4459E-03     56.7737E-03    -28.3287E-03     1.31892E-03     57.3586E-03     194.643E+06    -35.4441E+06    -37.7978E+06    -231.242E+06    -37.7503E+06    -231.238E+06    -35.4951E+06     777.919E+03
             495     46.6590E-03     16.5363E-03     43.6304E-03     76.3285E-03    -28.3621E-03    -47.9472E-03    -27.6287E-03     56.0100E-03    -28.3621E-03     90.8206E-03     229.255E-03     179.627E+06     192.229E+06     125.863E+06    -8.64939E+06    -8.64774E+06     192.228E+06     125.863E+06    -77.9094E+03
             496     46.2107E-03     15.5620E-03     43.5115E-03     74.9975E-03    -28.0578E-03    -46.9383E-03    -27.7530E-03     55.8123E-03    -28.0578E-03     87.1440E-03     212.554E-03     166.033E+06     170.269E+06     50.5953E+06    -15.1476E+06    -15.1447E+06     170.266E+06     50.5953E+06     245.058E+03
             497     45.8299E-03     14.5880E-03     43.4462E-03     61.8159E-03    -27.7985E-03    -34.0214E-03    -27.3850E-03     55.1795E-03    -27.7985E-03     46.8791E-03     152.934E-03     159.364E+06     142.841E+06    -3.83291E+06    -26.6182E+06    -17.9843E+06     142.839E+06    -12.4644E+06     567.038E+03
             498     45.4977E-03     13.6152E-03     43.4127E-03     57.5656E-03    -27.7912E-03    -29.7825E-03    -27.4528E-03     55.2359E-03    -27.7912E-03     27.8854E-03     124.426E-03     111.488E+06     86.4639E+06    -17.7224E+06    -31.0950E+06    -17.7184E+06     86.4599E+06    -31.0950E+06     340.595E+03
             499     45.1921E-03     12.6423E-03     43.3877E-03     56.7991E-03    -27.9421E-03    -28.8726E-03    -27.6019E-03     55.5285E-03    -27.9421E-03     20.4207E-03     105.131E-03     34.0811E+06     13.0494E+06    -18.2921E+06    -23.2304E+06    -16.6539E+06     11.4112E+06    -23.2304E+06     145.953E+03
             500     44.9123E-03     11.6694E-03     43.3698E-03     56.4512E-03    -28.0628E-03    -28.4276E-03    -27.7055E-03     55.7292E-03    -28.0628E-03     15.5298E-03     93.7496E-03     26.9344E+06    -12.7278E+06     -17.894E+06    -41.3244E+06    -16.2594E+06    -41.1159E+06    -14.5709E+06     20.0175E+03
             501     44.6551E-03     10.6966E-03     43.3550E-03     56.5159E-03    -28.1656E-03    -28.3609E-03    -27.8119E-03     55.9668E-03    -28.1656E-03     13.5963E-03     86.2172E-03     66.7721E+06    -6.11888E+06    -16.4736E+06    -77.4570E+06    -16.4752E+06    -77.4555E+06    -6.11888E+06    -219.807E+03
             502     44.4189E-03     9.72397E-03     43.3415E-03     56.5906E-03    -28.2314E-03    -28.3228E-03    -27.9049E-03     56.1887E-03    -28.2474E-03     11.5619E-03     79.3151E-03     96.0548E+06     116.172E+03    -17.5668E+06    -103.540E+06    -17.5706E+06    -103.536E+06     116.172E+03    -546.034E+03
             503     44.2058E-03     8.75129E-03     43.3309E-03     56.6156E-03    -28.2817E-03    -28.3132E-03    -28.0075E-03     56.3380E-03    -28.3098E-03     9.68401E-03     73.8809E-03     119.134E+06     3.56178E+06    -19.5110E+06    -125.419E+06    -19.5214E+06    -125.409E+06     3.56178E+06    -1.00129E+06
             504     44.0141E-03     7.77888E-03     43.3213E-03     56.6611E-03    -28.3032E-03    -28.3543E-03    -28.0798E-03     56.4342E-03    -28.3509E-03     8.75343E-03     69.8470E-03     137.294E+06     2.75178E+06    -21.9809E+06    -145.220E+06    -21.9964E+06    -145.205E+06     2.75178E+06    -1.35201E+06
             505     43.8442E-03     6.80638E-03     43.3127E-03     56.6671E-03    -28.2850E-03    -28.3851E-03    -28.1098E-03     56.4920E-03    -28.3851E-03     7.68688E-03     66.4067E-03     154.310E+06    -296.367E+03    -24.9217E+06    -165.423E+06    -24.9377E+06    -165.407E+06    -296.367E+03    -1.48423E+06
             506     43.6962E-03     5.83397E-03     43.3050E-03     56.7082E-03    -28.2972E-03    -28.4161E-03    -28.1646E-03     56.5757E-03    -28.4161E-03     6.69348E-03     63.6353E-03     170.190E+06    -4.98565E+06    -28.0539E+06    -185.518E+06    -28.0657E+06    -185.506E+06    -4.98565E+06    -1.29536E+06
             507     43.5705E-03     4.86157E-03     43.2984E-03     56.7678E-03    -28.3262E-03    -28.4470E-03    -28.2300E-03     56.6716E-03    -28.4470E-03     5.69058E-03     61.4920E-03     187.101E+06    -9.74696E+06    -31.6850E+06    -206.836E+06    -31.6900E+06    -206.831E+06    -9.74696E+06    -218.561E+03
             508     43.4674E-03     3.88910E-03     43.2931E-03     56.7821E-03    -28.3378E-03    -28.4481E-03    -28.2748E-03     56.7191E-03    -28.4481E-03     4.59808E-03     59.8442E-03     196.732E+06    -16.3524E+06    -35.6375E+06    -221.993E+06    -35.6416E+06    -221.989E+06    -16.3524E+06     614.531E+03
             509     43.3867E-03     2.91689E-03     43.2885E-03     56.7755E-03    -28.3552E-03    -28.4213E-03    -28.3170E-03     56.7373E-03    -28.4213E-03     3.56777E-03     58.6215E-03     194.185E+06    -25.5642E+06    -39.6586E+06    -226.398E+06    -39.6618E+06    -226.395E+06    -25.5642E+06     439.088E+03
             510     43.3291E-03     1.94446E-03     43.2854E-03     56.7472E-03    -28.3414E-03    -28.4070E-03    -28.3647E-03     56.7270E-03    -28.3636E-03     2.56047E-03     57.8402E-03     189.312E+06    -35.4046E+06    -43.8257E+06    -228.764E+06    -43.8270E+06    -228.763E+06    -35.4046E+06     400.288E+03
             511     43.2939E-03     972.704E-06     43.2830E-03     56.6095E-03    -28.1916E-03    -28.4189E-03    -28.4122E-03     56.6028E-03    -28.1916E-03     1.24641E-03     57.4723E-03     184.865E+06    -43.7362E+06    -47.3401E+06    -230.370E+06    -46.8116E+06    -230.368E+06    -44.2671E+06     409.320E+03
             512     45.6722E-03     16.5355E-03     42.5737E-03     76.3097E-03    -28.3598E-03    -47.9206E-03    -27.5677E-03     55.9569E-03    -28.3598E-03     90.7755E-03     229.135E-03     179.232E+06     192.255E+06     125.598E+06    -8.24160E+06    -8.23885E+06     192.252E+06     125.598E+06     349.832E+03
             513     45.2163E-03     15.5614E-03     42.4542E-03     75.3203E-03    -28.0510E-03    -47.2636E-03    -27.9103E-03     55.9670E-03    -28.0510E-03     87.6588E-03     212.723E-03     165.408E+06     170.245E+06     50.8665E+06    -14.5309E+06    -14.5256E+06     170.239E+06     50.8665E+06     958.450E+03
             514     44.8289E-03     14.5886E-03     42.3887E-03     61.7829E-03    -27.7878E-03    -34.0020E-03    -27.4130E-03     55.1940E-03    -27.7878E-03     46.7231E-03     152.922E-03     159.417E+06     143.240E+06    -2.92282E+06    -26.6564E+06    -17.0881E+06     143.236E+06    -12.4879E+06     450.726E+03
             515     44.4898E-03     13.6151E-03     42.3553E-03     57.4424E-03    -27.7847E-03    -29.6654E-03    -27.3465E-03     55.1235E-03    -27.7847E-03     27.7953E-03     124.312E-03     111.492E+06     86.5050E+06    -16.6462E+06    -31.7162E+06    -16.6443E+06     86.5031E+06    -31.7162E+06    -40.3296E+03
             516     44.1777E-03     12.6422E-03     42.3302E-03     56.7920E-03    -27.9453E-03    -28.8622E-03    -27.5892E-03     55.5190E-03    -27.9453E-03     20.4254E-03     105.149E-03     33.6607E+06     12.9920E+06    -17.4237E+06    -23.1546E+06    -15.6957E+06     11.2640E+06    -23.1546E+06     105.350E+03
             517     43.8923E-03     11.6694E-03     42.3126E-03     56.4678E-03    -28.0678E-03    -28.4419E-03    -27.7134E-03     55.7393E-03    -28.0678E-03     15.6129E-03     93.7424E-03     26.9940E+06    -12.1668E+06    -17.0888E+06    -40.7033E+06    -15.3626E+06    -40.4664E+06    -14.1300E+06     31.3650E+03
             518     43.6294E-03     10.6965E-03     42.2978E-03     56.5468E-03    -28.1693E-03    -28.3871E-03    -27.8294E-03     55.9891E-03    -28.1693E-03     13.7000E-03     86.2212E-03     66.8696E+06    -5.94691E+06    -15.9309E+06    -77.2390E+06    -15.9327E+06    -77.2373E+06    -5.94691E+06    -300.414E+03
             519     43.3877E-03     9.72383E-03     42.2841E-03     56.6151E-03    -28.2273E-03    -28.3484E-03    -27.9269E-03     56.2161E-03    -28.2498E-03     11.5178E-03     79.3420E-03     96.0058E+06     472.655E+03    -17.4755E+06    -103.223E+06    -17.4793E+06    -103.219E+06     472.655E+03    -564.026E+03
             520     43.1699E-03     8.75141E-03     42.2736E-03     56.5875E-03    -28.2533E-03    -28.3127E-03    -27.9787E-03     56.3129E-03    -28.3127E-03     9.62949E-03     73.8491E-03     118.731E+06     3.91006E+06    -19.9971E+06    -124.954E+06    -20.0073E+06    -124.944E+06     3.91006E+06    -982.716E+03
             521     42.9737E-03     7.77879E-03     42.2638E-03     56.6545E-03    -28.2959E-03    -28.3560E-03    -28.0693E-03     56.4279E-03    -28.3560E-03     8.74821E-03     69.8429E-03     136.759E+06     2.73013E+06    -23.3689E+06    -145.194E+06    -23.3837E+06    -145.180E+06     2.73013E+06    -1.31518E+06
             522     42.7999E-03     6.80642E-03     42.2553E-03     56.7084E-03    -28.3210E-03    -28.3897E-03    -28.1450E-03     56.5324E-03    -28.3897E-03     7.70865E-03     66.4348E-03     153.483E+06    -33.2793E+03    -27.2586E+06    -165.299E+06    -27.2767E+06    -165.281E+06    -33.2793E+03    -1.57362E+06
             523     42.6488E-03     5.83399E-03     42.2479E-03     56.7103E-03    -28.2973E-03    -28.4186E-03    -28.1637E-03     56.5767E-03    -28.4186E-03     6.71910E-03     63.6306E-03     169.983E+06    -4.74932E+06    -31.7752E+06    -186.603E+06    -31.7892E+06    -186.589E+06    -4.74932E+06    -1.31869E+06
             524     42.5200E-03     4.86153E-03     42.2412E-03     56.7346E-03    -28.3026E-03    -28.4385E-03    -28.2064E-03     56.6384E-03    -28.4385E-03     5.68660E-03     61.5028E-03     185.175E+06    -11.6242E+06    -37.0362E+06    -208.176E+06    -37.0396E+06    -208.173E+06    -11.6242E+06    -341.741E+03
             525     42.4143E-03     3.88931E-03     42.2356E-03     56.7423E-03    -28.3298E-03    -28.4163E-03    -28.2666E-03     56.6791E-03    -28.4163E-03     4.60905E-03     59.9413E-03     190.411E+06    -21.8283E+06    -42.2927E+06    -221.614E+06    -42.2933E+06    -221.613E+06    -21.8283E+06     144.827E+03
             526     42.3319E-03     2.91689E-03     42.2313E-03     56.6984E-03    -28.3241E-03    -28.3756E-03    -28.2983E-03     56.6603E-03    -28.3632E-03     3.55615E-03     58.7645E-03     185.558E+06    -34.2368E+06    -47.1099E+06    -225.859E+06    -47.1108E+06    -225.858E+06    -34.2368E+06     98.2425E+03
             527     42.2729E-03     1.94475E-03     42.2282E-03     56.5995E-03    -28.2641E-03    -28.3356E-03    -28.2685E-03     56.5801E-03    -28.3118E-03     2.51572E-03     57.9413E-03     181.279E+06    -44.2114E+06    -50.8118E+06    -228.673E+06    -50.8124E+06    -228.672E+06    -44.2114E+06     132.926E+03
             528     42.2371E-03     971.985E-06     42.2260E-03     56.5569E-03    -28.1850E-03    -28.3724E-03    -28.3286E-03     56.5503E-03    -28.2221E-03     1.24406E-03     57.6229E-03     178.079E+06    -50.5165E+06    -53.3164E+06    -229.977E+06    -52.7879E+06    -229.974E+06    -51.0474E+06    -304.364E+03
             529     44.6893E-03     16.5356E-03     41.5175E-03     76.3594E-03    -28.3613E-03    -47.9655E-03    -27.7256E-03     56.1196E-03    -28.3613E-03     90.6863E-03     229.152E-03     179.569E+06     192.082E+06     124.944E+06    -8.83592E+06    -8.83316E+06     192.079E+06     124.944E+06     469.586E+03
             530     44.2245E-03     15.5618E-03     41.3961E-03     75.3664E-03    -28.0478E-03    -47.3145E-03    -28.0870E-03     56.1390E-03    -28.0478E-03     87.5442E-03     212.654E-03     165.536E+06     170.519E+06     51.2614E+06    -14.5896E+06    -14.5853E+06     170.515E+06     51.2614E+06     385.063E+03
             531     43.8303E-03     14.5885E-03     41.3313E-03     61.6516E-03    -27.7894E-03    -33.8743E-03    -27.2892E-03     55.0666E-03    -27.7894E-03     46.6438E-03     152.694E-03     158.565E+06     143.635E+06    -1.39432E+06    -25.5666E+06    -15.9249E+06     143.631E+06    -11.0322E+06     108.849E+03
             532     43.4847E-03     13.6152E-03     41.2982E-03     57.3685E-03    -27.7884E-03    -29.5848E-03    -27.2462E-03     55.0300E-03    -27.7884E-03     27.8991E-03     124.211E-03     110.490E+06     86.4533E+06    -15.3463E+06    -30.9705E+06    -15.3433E+06     86.4504E+06    -30.9705E+06     277.128E+03
             533     43.1654E-03     12.6420E-03     41.2726E-03     56.7351E-03    -27.9544E-03    -28.7949E-03    -27.5059E-03     55.4461E-03    -27.9544E-03     20.5211E-03     105.122E-03     33.1739E+06     12.8688E+06    -16.6969E+06    -23.0041E+06    -15.0217E+06     11.1937E+06    -23.0041E+06     197.277E+03
             534     42.8742E-03     11.6691E-03     41.2556E-03     56.5540E-03    -28.0790E-03    -28.5191E-03    -27.7915E-03     55.8264E-03    -28.0790E-03     15.6145E-03     93.8559E-03     26.9202E+06    -11.6331E+06    -16.5812E+06    -40.1680E+06    -14.9078E+06    -39.8451E+06    -13.6294E+06     40.5835E+03
             535     42.6049E-03     10.6965E-03     41.2403E-03     56.6326E-03    -28.1731E-03    -28.4695E-03    -27.9162E-03     56.0793E-03    -28.1731E-03     13.6595E-03     86.3051E-03     66.9293E+06    -5.59142E+06    -15.5090E+06    -76.9213E+06    -15.5097E+06    -76.9206E+06    -5.59142E+06    -71.7066E+03
             536     42.3580E-03     9.72405E-03     41.2267E-03     56.5986E-03    -28.2095E-03    -28.3480E-03    -27.9101E-03     56.2012E-03    -28.2498E-03     11.4999E-03     79.3152E-03     96.0316E+06     689.640E+03    -17.2443E+06    -103.022E+06    -17.2458E+06    -103.020E+06     689.640E+03    -256.311E+03
             537     42.1351E-03     8.75132E-03     41.2162E-03     56.5703E-03    -28.2345E-03    -28.3151E-03    -27.9580E-03     56.2938E-03    -28.3151E-03     9.66115E-03     73.8391E-03     118.588E+06     4.26373E+06    -19.9689E+06    -124.568E+06    -19.9717E+06    -124.565E+06     4.26373E+06    -384.679E+03
             538     41.9344E-03     7.77881E-03     41.2066E-03     56.6491E-03    -28.2884E-03    -28.3595E-03    -28.0604E-03     56.4211E-03    -28.3595E-03     8.77422E-03     69.8357E-03     136.550E+06     2.78902E+06    -23.8695E+06    -145.122E+06    -23.8746E+06    -145.117E+06     2.78902E+06    -556.587E+03
             539     41.7562E-03     6.80630E-03     41.1978E-03     56.7091E-03    -28.3149E-03    -28.3961E-03    -28.1406E-03     56.5349E-03    -28.3961E-03     7.66559E-03     66.4487E-03     152.949E+06     148.379E+03    -28.9407E+06    -165.254E+06    -28.9496E+06    -165.245E+06     148.379E+03    -807.925E+03
             540     41.6016E-03     5.83401E-03     41.1905E-03     56.7255E-03    -28.3019E-03    -28.4284E-03    -28.1710E-03     56.5946E-03    -28.4284E-03     6.65555E-03     63.6644E-03     170.164E+06    -4.29835E+06    -34.9150E+06    -187.683E+06    -34.9212E+06    -187.677E+06    -4.29835E+06    -417.059E+03
             541     41.4699E-03     4.86165E-03     41.1839E-03     56.7228E-03    -28.2962E-03    -28.4330E-03    -28.1989E-03     56.6255E-03    -28.4330E-03     5.72519E-03     61.5342E-03     183.159E+06    -13.7643E+06    -41.0552E+06    -209.005E+06    -41.0563E+06    -209.004E+06    -13.7643E+06     219.829E+03
             542     41.3618E-03     3.88920E-03     41.1785E-03     56.7079E-03    -28.3181E-03    -28.3935E-03    -28.2526E-03     56.6424E-03    -28.3935E-03     4.69080E-03     60.0130E-03     185.257E+06    -26.8562E+06    -46.7314E+06    -221.214E+06    -46.7322E+06    -221.213E+06    -26.8562E+06     302.140E+03
             543     41.2773E-03     2.91703E-03     41.1741E-03     56.6649E-03    -28.3191E-03    -28.3468E-03    -28.2922E-03     56.6252E-03    -28.3340E-03     3.63034E-03     58.8626E-03     180.465E+06    -39.8437E+06    -51.1483E+06    -225.653E+06    -51.1491E+06    -225.653E+06    -39.8437E+06     163.179E+03
             544     41.2169E-03     1.94464E-03     41.1710E-03     56.5471E-03    -28.2429E-03    -28.3046E-03    -28.2506E-03     56.5282E-03    -28.2779E-03     2.45901E-03     58.0155E-03     176.488E+06    -49.7489E+06    -54.1958E+06    -228.401E+06    -54.1044E+06    -228.400E+06    -49.8412E+06    -97.5653E+03
             545     41.1805E-03     972.521E-06     41.1690E-03     56.5090E-03    -28.2290E-03    -28.2806E-03    -28.2377E-03     56.5031E-03    -28.2660E-03     1.31075E-03     57.6594E-03     174.248E+06    -54.7214E+06    -56.4346E+06    -229.817E+06    -55.9500E+06    -229.813E+06    -55.2097E+06    -186.529E+03
             546     43.7065E-03     16.5350E-03     40.4581E-03     76.4755E-03    -28.3655E-03    -48.1080E-03    -27.8624E-03     56.2299E-03    -28.3655E-03     90.8939E-03     229.315E-03     179.510E+06     192.407E+06     125.568E+06    -8.36528E+06    -8.36397E+06     192.406E+06     125.568E+06     195.573E+03
             547     43.2372E-03     15.5625E-03     40.3394E-03     75.2040E-03    -28.0374E-03    -47.1683E-03    -28.0118E-03     56.0475E-03    -28.0374E-03     87.3843E-03     212.462E-03     165.835E+06     170.766E+06     50.0535E+06    -13.8764E+06    -13.8748E+06     170.765E+06     50.0535E+06    -223.169E+03
             548     42.8346E-03     14.5882E-03     40.2739E-03     61.6039E-03    -27.7833E-03    -33.8248E-03    -27.1736E-03     54.9527E-03    -27.7833E-03     46.7552E-03     152.521E-03     158.413E+06     143.294E+06    -3.46714E+06    -24.5495E+06    -15.9458E+06     143.291E+06    -12.0682E+06     206.523E+03
             549     42.4817E-03     13.6152E-03     40.2408E-03     57.3214E-03    -27.8003E-03    -29.5247E-03    -27.2052E-03     55.0019E-03    -27.8003E-03     27.7798E-03     124.204E-03     110.126E+06     86.5272E+06    -15.6825E+06    -30.0163E+06    -15.6802E+06     86.5249E+06    -30.0163E+06     430.035E+03
             550     42.1560E-03     12.6419E-03     40.2158E-03     56.7746E-03    -27.9608E-03    -28.8302E-03    -27.5383E-03     55.4827E-03    -27.9608E-03     20.5589E-03     105.196E-03     33.3695E+06     13.3089E+06    -16.5303E+06    -22.7210E+06    -14.7417E+06     11.5202E+06    -22.7210E+06     184.774E+03
             551     41.8571E-03     11.6691E-03     40.1977E-03     56.5963E-03    -28.0817E-03    -28.5593E-03    -27.8415E-03     55.8785E-03    -28.0817E-03     15.5002E-03     93.8981E-03     27.3779E+06    -11.3006E+06    -16.3339E+06    -40.3299E+06    -14.5465E+06    -39.8590E+06    -13.5588E+06     187.797E+03
             552     41.5824E-03     10.6967E-03     40.1831E-03     56.6070E-03    -28.1745E-03    -28.4405E-03    -27.8952E-03     56.0617E-03    -28.1745E-03     13.5680E-03     86.2813E-03     66.9698E+06    -5.55744E+06    -15.1646E+06    -76.8078E+06    -15.1661E+06    -76.8063E+06    -5.55744E+06     212.760E+03
             553     41.3295E-03     9.72378E-03     40.1693E-03     56.6025E-03    -28.2297E-03    -28.3313E-03    -27.9067E-03     56.2009E-03    -28.2527E-03     11.5472E-03     79.3028E-03     96.0552E+06     756.634E+03    -16.8124E+06    -102.844E+06    -16.8137E+06    -102.843E+06     756.634E+03     213.723E+03
             554     41.1014E-03     8.75129E-03     40.1590E-03     56.6001E-03    -28.2584E-03    -28.3203E-03    -27.9872E-03     56.3266E-03    -28.3181E-03     9.61066E-03     73.8747E-03     118.772E+06     4.42807E+06    -19.7890E+06    -124.585E+06    -19.7939E+06    -124.581E+06     4.42807E+06     448.774E+03
             555     40.8959E-03     7.77876E-03     40.1493E-03     56.6359E-03    -28.2693E-03    -28.3622E-03    -28.0429E-03     56.4095E-03    -28.3622E-03     8.74497E-03     69.8199E-03     136.514E+06     2.99332E+06    -23.8770E+06    -144.956E+06    -23.8852E+06    -144.948E+06     2.99332E+06     694.811E+03
             556     40.7135E-03     6.80642E-03     40.1406E-03     56.6788E-03    -28.2788E-03    -28.4008E-03    -28.1030E-03     56.5030E-03    -28.4008E-03     7.69940E-03     66.4302E-03     152.755E+06    -75.7212E+03    -29.1020E+06    -165.259E+06    -29.1155E+06    -165.246E+06    -75.7212E+03     899.036E+03
             557     40.5550E-03     5.83391E-03     40.1332E-03     56.7407E-03    -28.3087E-03    -28.4365E-03    -28.1774E-03     56.6094E-03    -28.4365E-03     6.66094E-03     63.6794E-03     170.156E+06    -4.61982E+06    -35.2306E+06    -187.996E+06    -35.2418E+06    -187.985E+06    -4.61982E+06     876.657E+03
             558     40.4203E-03     4.86151E-03     40.1269E-03     56.7520E-03    -28.3189E-03    -28.4387E-03    -28.2226E-03     56.6557E-03    -28.4387E-03     5.69895E-03     61.5715E-03     182.811E+06    -14.1781E+06    -41.3874E+06    -209.031E+06    -41.3908E+06    -209.027E+06    -14.1781E+06     735.860E+03
             559     40.3093E-03     3.88924E-03     40.1212E-03     56.6943E-03    -28.3035E-03    -28.3943E-03    -28.2378E-03     56.6286E-03    -28.3943E-03     4.69638E-03     60.0124E-03     184.249E+06    -28.0468E+06    -46.6743E+06    -220.856E+06    -46.6764E+06    -220.854E+06    -28.0468E+06     433.773E+03
             560     40.2229E-03     2.91684E-03     40.1170E-03     56.6515E-03    -28.2995E-03    -28.3536E-03    -28.2599E-03     56.6114E-03    -28.3532E-03     3.65100E-03     58.8409E-03     180.501E+06    -39.8924E+06    -50.7252E+06    -225.549E+06    -50.7255E+06    -225.549E+06    -39.8924E+06     193.098E+03
             561     40.1608E-03     1.94466E-03     40.1137E-03     56.6220E-03    -28.2899E-03    -28.3333E-03    -28.2928E-03     56.6024E-03    -28.3108E-03     2.50413E-03     58.0611E-03     176.912E+06    -48.5832E+06    -53.9310E+06    -228.089E+06    -53.8395E+06    -228.088E+06    -48.6754E+06     76.8109E+03
             562     40.1238E-03     972.187E-06     40.1121E-03     56.5581E-03    -28.1756E-03    -28.3823E-03    -28.3760E-03     56.5518E-03    -28.1756E-03     1.36870E-03     57.6942E-03     174.235E+06    -54.4286E+06    -56.6719E+06    -229.768E+06    -56.1862E+06    -229.766E+06    -54.9168E+06     334.111E+03
             563     42.7304E-03     16.5365E-03     39.4009E-03     76.3445E-03    -28.3562E-03    -47.9936E-03    -27.6599E-03     56.0109E-03    -28.3562E-03     90.7598E-03     229.149E-03     178.895E+06     192.217E+06     125.472E+06    -7.81005E+06    -7.80752E+06     192.214E+06     125.472E+06    -277.510E+03
             564     42.2520E-03     15.5613E-03     39.2820E-03     75.2172E-03    -28.0336E-03    -47.1820E-03    -27.8104E-03     55.8456E-03    -28.0336E-03     87.6419E-03     212.547E-03     165.256E+06     170.382E+06     49.6990E+06    -13.6340E+06    -13.6332E+06     170.381E+06     49.6990E+06     77.0663E+03
             565     41.8421E-03     14.5886E-03     39.2165E-03     61.6942E-03    -27.7852E-03    -33.9122E-03    -27.3009E-03     55.0829E-03    -27.7852E-03     46.6835E-03     152.682E-03     158.141E+06     143.242E+06    -3.17836E+06    -24.3666E+06    -15.7570E+06     143.241E+06    -11.7872E+06     263.861E+03
             566     41.4818E-03     13.6149E-03     39.1838E-03     57.3475E-03    -27.8014E-03    -29.5587E-03    -27.2455E-03     55.0344E-03    -27.8014E-03     27.7654E-03     124.264E-03     110.329E+06     86.9090E+06    -15.2790E+06    -29.9709E+06    -15.2768E+06     86.9068E+06    -29.9709E+06     240.703E+03
             567     41.1483E-03     12.6420E-03     39.1582E-03     56.8611E-03    -27.9557E-03    -28.9281E-03    -27.6310E-03     55.5641E-03    -27.9557E-03     20.6068E-03     105.248E-03     33.9178E+06     13.7360E+06    -16.4411E+06    -22.9700E+06    -14.5796E+06     11.8746E+06    -22.9700E+06     400.896E+03
             568     40.8428E-03     11.6694E-03     39.1403E-03     56.5273E-03    -28.0769E-03    -28.4935E-03    -27.7817E-03     55.8156E-03    -28.0769E-03     15.4260E-03     93.7976E-03     27.5467E+06    -11.3727E+06    -16.3721E+06    -40.5164E+06    -14.5150E+06    -40.0341E+06    -13.7120E+06     466.854E+03
             569     40.5615E-03     10.6963E-03     39.1257E-03     56.5560E-03    -28.1740E-03    -28.3883E-03    -27.8491E-03     56.0167E-03    -28.1740E-03     13.4819E-03     86.2505E-03     66.7796E+06    -5.76281E+06    -15.3002E+06    -76.7908E+06    -15.3051E+06    -76.7859E+06    -5.76281E+06     512.491E+03
             570     40.3026E-03     9.72388E-03     39.1119E-03     56.6219E-03    -28.2269E-03    -28.3534E-03    -27.9307E-03     56.2259E-03    -28.2536E-03     11.4713E-03     79.3321E-03     95.9684E+06     441.049E+03    -17.0376E+06    -103.044E+06    -17.0452E+06    -103.037E+06     441.049E+03     728.707E+03
             571     40.0688E-03     8.75139E-03     39.1014E-03     56.5883E-03    -28.2433E-03    -28.3211E-03    -27.9732E-03     56.3159E-03    -28.3189E-03     9.59047E-03     73.8566E-03     118.857E+06     4.05914E+06    -19.8356E+06    -124.929E+06    -19.8509E+06    -124.913E+06     4.05914E+06     1.18831E+06
             572     39.8584E-03     7.77886E-03     39.0919E-03     56.6093E-03    -28.2369E-03    -28.3649E-03    -28.0087E-03     56.3811E-03    -28.3649E-03     8.77616E-03     69.7935E-03     136.577E+06     2.57126E+06    -23.2240E+06    -145.054E+06    -23.2509E+06    -145.027E+06     2.57126E+06     1.75517E+06
             573     39.6714E-03     6.80612E-03     39.0832E-03     56.6628E-03    -28.2559E-03    -28.4073E-03    -28.0773E-03     56.4843E-03    -28.4073E-03     7.75754E-03     66.4013E-03     153.202E+06    -608.544E+03    -27.2764E+06    -165.386E+06    -27.3134E+06    -165.349E+06    -608.544E+03     2.21205E+06
             574     39.5090E-03     5.83381E-03     39.0759E-03     56.7591E-03    -28.3162E-03    -28.4465E-03    -28.1838E-03     56.6268E-03    -28.4465E-03     6.68616E-03     63.6955E-03     170.143E+06    -4.95606E+06    -32.3540E+06    -187.120E+06    -32.3837E+06    -187.090E+06    -4.95606E+06     1.99861E+06
             575     39.3707E-03     4.86156E-03     39.0694E-03     56.8155E-03    -28.3613E-03    -28.4592E-03    -28.2645E-03     56.7187E-03    -28.4592E-03     5.71924E-03     61.6032E-03     184.233E+06    -12.5252E+06    -37.6989E+06    -208.025E+06    -37.7102E+06    -208.014E+06    -12.5252E+06     1.05199E+06
             576     39.2573E-03     3.88919E-03     39.0642E-03     56.7597E-03    -28.3371E-03    -28.4266E-03    -28.2712E-03     56.6937E-03    -28.4266E-03     4.70466E-03     59.9808E-03     188.041E+06    -23.6714E+06    -42.2754E+06    -220.287E+06    -42.2774E+06    -220.285E+06    -23.6714E+06     397.415E+03
             577     39.1685E-03     2.91686E-03     39.0598E-03     56.6905E-03    -28.2980E-03    -28.3943E-03    -28.2586E-03     56.6510E-03    -28.3943E-03     3.62476E-03     58.7442E-03     184.726E+06    -35.2147E+06    -46.5067E+06    -225.310E+06    -46.5080E+06    -225.309E+06    -35.2147E+06     22.1081E+03
             578     39.1050E-03     1.94438E-03     39.0566E-03     56.7124E-03    -28.3186E-03    -28.3949E-03    -28.3287E-03     56.6929E-03    -28.3653E-03     2.49878E-03     58.0055E-03     181.605E+06    -43.5018E+06    -49.9464E+06    -228.235E+06    -49.9477E+06    -228.234E+06    -43.5018E+06     67.8126E+03
             579     39.0666E-03     972.406E-06     39.0545E-03     56.6622E-03    -28.2057E-03    -28.4570E-03    -28.4511E-03     56.6563E-03    -28.2057E-03     1.18848E-03     57.6906E-03     178.558E+06    -49.5836E+06    -52.3882E+06    -229.520E+06    -52.3310E+06    -229.515E+06    -49.6457E+06    -2.89938E+03
             580     41.7595E-03     16.5358E-03     38.3462E-03     76.3838E-03    -28.3557E-03    -48.0161E-03    -27.6975E-03     56.0653E-03    -28.3557E-03     90.6926E-03     228.862E-03     179.054E+06     191.856E+06     124.842E+06    -8.53658E+06    -8.53447E+06     191.854E+06     124.842E+06    -391.431E+03
             581     41.2702E-03     15.5617E-03     38.2239E-03     75.3288E-03    -28.0445E-03    -47.2840E-03    -27.8493E-03     55.8941E-03    -28.0445E-03     87.8067E-03     212.549E-03     165.491E+06     170.121E+06     50.5779E+06    -14.7291E+06    -14.7280E+06     170.120E+06     50.5779E+06    -68.8340E+03
             582     40.8526E-03     14.5881E-03     38.1592E-03     61.5379E-03    -27.7983E-03    -33.7493E-03    -27.2298E-03     55.0183E-03    -27.7983E-03     46.3267E-03     152.685E-03     158.280E+06     143.298E+06    -2.47230E+06    -24.9362E+06    -16.5677E+06     143.297E+06    -10.8395E+06    -200.371E+03
             583     40.4848E-03     13.6151E-03     38.1267E-03     57.4832E-03    -27.8015E-03    -29.6981E-03    -27.3601E-03     55.1452E-03    -27.8015E-03     27.9702E-03     124.388E-03     111.027E+06     87.0301E+06    -16.0798E+06    -30.4111E+06    -16.0734E+06     87.0237E+06    -30.4111E+06     314.229E+03
             584     40.1431E-03     12.6422E-03     38.1004E-03     56.8719E-03    -27.9527E-03    -28.9392E-03    -27.6288E-03     55.5616E-03    -27.9527E-03     20.6879E-03     105.265E-03     34.3158E+06     13.6513E+06    -17.1461E+06    -23.3268E+06    -15.3954E+06     11.9005E+06    -23.3268E+06     679.599E+03
             585     39.8308E-03     11.6692E-03     38.0831E-03     56.4987E-03    -28.0755E-03    -28.4648E-03    -27.7531E-03     55.7870E-03    -28.0755E-03     15.4297E-03     93.7618E-03     26.5153E+06    -11.9460E+06    -17.0631E+06    -40.0521E+06    -15.3252E+06    -39.7891E+06    -13.9469E+06     644.236E+03
             586     39.5424E-03     10.6966E-03     38.0681E-03     56.5629E-03    -28.1725E-03    -28.3991E-03    -27.8562E-03     56.0200E-03    -28.1725E-03     13.5255E-03     86.2685E-03     66.1018E+06    -6.25133E+06    -16.1026E+06    -76.7202E+06    -16.1137E+06    -76.7091E+06    -6.25133E+06     787.411E+03
             587     39.2775E-03     9.72399E-03     38.0547E-03     56.5717E-03    -28.1967E-03    -28.3340E-03    -27.8779E-03     56.1726E-03    -28.2537E-03     11.5238E-03     79.3009E-03     95.7777E+06    -297.473E+03    -17.5088E+06    -103.499E+06    -17.5220E+06    -103.486E+06    -297.473E+03     1.04856E+06
             588     39.0378E-03     8.75119E-03     38.0442E-03     56.5542E-03    -28.2082E-03    -28.3237E-03    -27.9303E-03     56.2763E-03    -28.3237E-03     9.68114E-03     73.8283E-03     118.960E+06     3.40168E+06    -19.4357E+06    -125.320E+06    -19.4539E+06    -125.301E+06     3.40168E+06     1.38361E+06
             589     38.8219E-03     7.77858E-03     38.0347E-03     56.6350E-03    -28.2565E-03    -28.3732E-03    -28.0275E-03     56.4059E-03    -28.3732E-03     8.79425E-03     69.8429E-03     137.062E+06     2.26146E+06    -22.0128E+06    -145.309E+06    -22.0436E+06    -145.278E+06     2.26146E+06     1.91089E+06
             590     38.6303E-03     6.80623E-03     38.0260E-03     56.6798E-03    -28.2662E-03    -28.4154E-03    -28.0875E-03     56.5011E-03    -28.4154E-03     7.76291E-03     66.4247E-03     153.808E+06    -866.892E+03    -24.9850E+06    -165.298E+06    -25.0267E+06    -165.257E+06    -866.892E+03     2.40629E+06
             591     38.4633E-03     5.83370E-03     38.0183E-03     56.7413E-03    -28.2870E-03    -28.4582E-03    -28.1531E-03     56.6074E-03    -28.4582E-03     6.72581E-03     63.6913E-03     170.354E+06    -5.06460E+06    -28.0860E+06    -185.738E+06    -28.1160E+06    -185.708E+06    -5.06460E+06     1.99658E+06
             592     38.3217E-03     4.86121E-03     38.0121E-03     56.8628E-03    -28.3741E-03    -28.4933E-03    -28.2751E-03     56.7638E-03    -28.4933E-03     5.78571E-03     61.6103E-03     186.655E+06    -9.71276E+06    -31.4094E+06    -206.253E+06    -31.4190E+06    -206.243E+06    -9.71276E+06     860.064E+03
             593     38.2051E-03     3.88904E-03     38.0067E-03     56.9041E-03    -28.4219E-03    -28.4847E-03    -28.3555E-03     56.8377E-03    -28.4847E-03     4.72321E-03     59.9941E-03     194.533E+06    -16.9655E+06    -35.4754E+06    -220.074E+06    -35.4765E+06    -220.073E+06    -16.9655E+06     99.2678E+03
             594     38.1144E-03     2.91676E-03     38.0026E-03     56.8536E-03    -28.3917E-03    -28.4622E-03    -28.3735E-03     56.8146E-03    -28.4413E-03     3.61077E-03     58.7325E-03     191.337E+06    -27.6311E+06    -39.9326E+06    -224.801E+06    -39.9369E+06    -224.797E+06    -27.6311E+06     170.818E+03
             595     38.0489E-03     1.94458E-03     37.9992E-03     56.7665E-03    -28.3343E-03    -28.4331E-03    -28.3574E-03     56.7473E-03    -28.3909E-03     2.48683E-03     57.8900E-03     187.799E+06    -37.9238E+06    -43.6337E+06    -228.490E+06    -43.6401E+06    -228.484E+06    -37.9238E+06    -45.9405E+03
             596     38.0097E-03     972.219E-06     37.9973E-03     56.7130E-03    -28.2749E-03    -28.4403E-03    -28.4042E-03     56.7076E-03    -28.3056E-03     1.07907E-03     57.5533E-03     184.441E+06    -44.2695E+06    -45.6206E+06    -229.378E+06    -45.5652E+06    -229.371E+06    -44.3316E+06    -718.274E+03
             597     40.7889E-03     16.5350E-03     37.2871E-03     76.4501E-03    -28.3632E-03    -48.0729E-03    -27.8966E-03     56.2739E-03    -28.3632E-03     90.5817E-03     229.048E-03     179.849E+06     192.160E+06     124.332E+06    -9.29878E+06    -9.29661E+06     192.157E+06     124.332E+06    -179.742E+03
             598     40.2938E-03     15.5625E-03     37.1671E-03     75.3074E-03    -28.0467E-03    -47.2607E-03    -27.9870E-03     56.0337E-03    -28.0467E-03     87.5982E-03     212.572E-03     166.594E+06     170.700E+06     50.2706E+06    -15.3223E+06    -15.3202E+06     170.698E+06     50.2706E+06    -506.745E+03
             599     39.8673E-03     14.5883E-03     37.1023E-03     61.4537E-03    -27.7954E-03    -33.6678E-03    -27.0791E-03     54.8650E-03    -27.7954E-03     46.5939E-03     152.466E-03     159.549E+06     142.941E+06    -3.72850E+06    -26.8409E+06    -17.7631E+06     142.939E+06    -12.8038E+06    -87.9015E+03
             600     39.4900E-03     13.6149E-03     37.0688E-03     57.5463E-03    -27.8015E-03    -29.7582E-03    -27.3773E-03     55.1654E-03    -27.8015E-03     28.1813E-03     124.439E-03     111.827E+06     86.4410E+06    -17.6852E+06    -31.7182E+06    -17.6780E+06     86.4338E+06    -31.7182E+06     294.073E+03
             601     39.1412E-03     12.6420E-03     37.0434E-03     56.8911E-03    -27.9561E-03    -28.9501E-03    -27.6568E-03     55.5977E-03    -27.9561E-03     20.5784E-03     105.328E-03     34.4603E+06     13.3270E+06    -17.9231E+06    -23.5055E+06    -16.4793E+06     11.8832E+06    -23.5055E+06     427.983E+03
             602     38.8209E-03     11.6692E-03     37.0256E-03     56.4885E-03    -28.0764E-03    -28.4535E-03    -27.7394E-03     55.7744E-03    -28.0764E-03     15.4547E-03     93.7425E-03     26.5529E+06    -12.3252E+06    -17.4976E+06    -40.6848E+06    -16.0641E+06    -39.9805E+06    -14.4630E+06     587.725E+03
             603     38.5257E-03     10.6965E-03     37.0110E-03     56.5323E-03    -28.1776E-03    -28.3631E-03    -27.8148E-03     55.9840E-03    -28.1776E-03     13.5895E-03     86.2573E-03     65.9779E+06    -6.33879E+06    -16.4627E+06    -76.7927E+06    -16.4720E+06    -76.7834E+06    -6.33879E+06     701.254E+03
             604     38.2538E-03     9.72363E-03     36.9973E-03     56.5490E-03    -28.1956E-03    -28.3117E-03    -27.8420E-03     56.1460E-03    -28.2624E-03     11.5714E-03     79.3000E-03     95.7410E+06    -488.425E+03    -17.4689E+06    -103.571E+06    -17.4790E+06    -103.560E+06    -488.425E+03     915.047E+03
             605     38.0081E-03     8.75113E-03     36.9869E-03     56.5771E-03    -28.2230E-03    -28.3338E-03    -27.9431E-03     56.2973E-03    -28.3338E-03     9.71819E-03     73.8716E-03     118.923E+06     3.04354E+06    -19.1494E+06    -125.411E+06    -19.1610E+06    -125.399E+06     3.04354E+06     1.09595E+06
             606     37.7865E-03     7.77860E-03     36.9772E-03     56.6609E-03    -28.2764E-03    -28.3828E-03    -28.0472E-03     56.4317E-03    -28.3828E-03     8.79522E-03     69.8764E-03     137.280E+06     1.80227E+06    -21.2826E+06    -145.547E+06    -21.2985E+06    -145.531E+06     1.80227E+06     1.34891E+06
             607     37.5898E-03     6.80603E-03     36.9685E-03     56.6848E-03    -28.2621E-03    -28.4259E-03    -28.0828E-03     56.5054E-03    -28.4259E-03     7.78246E-03     66.4573E-03     153.990E+06    -1.22744E+06    -23.2827E+06    -165.044E+06    -23.3031E+06    -165.023E+06    -1.22744E+06     1.50679E+06
             608     37.4188E-03     5.83355E-03     36.9613E-03     56.7669E-03    -28.3009E-03    -28.4701E-03    -28.1641E-03     56.6300E-03    -28.4701E-03     6.79893E-03     63.7263E-03     169.867E+06    -5.32274E+06    -25.2599E+06    -184.266E+06    -25.2712E+06    -184.255E+06    -5.32274E+06     937.586E+03
             609     37.2729E-03     4.86119E-03     36.9545E-03     56.8907E-03    -28.3840E-03    -28.5115E-03    -28.2867E-03     56.7934E-03    -28.5115E-03     5.72915E-03     61.6265E-03     186.973E+06    -9.49099E+06    -27.7384E+06    -204.912E+06    -27.7409E+06    -204.909E+06    -9.49099E+06         528.900
             610     37.1534E-03     3.88879E-03     36.9493E-03     56.9604E-03    -28.4417E-03    -28.5218E-03    -28.3773E-03     56.8960E-03    -28.5218E-03     4.66117E-03     59.9784E-03     197.792E+06    -14.9783E+06    -30.9646E+06    -220.262E+06    -30.9670E+06    -220.260E+06    -14.9783E+06    -364.801E+03
             611     37.0598E-03     2.91671E-03     36.9449E-03     56.9840E-03    -28.4700E-03    -28.5148E-03    -28.4544E-03     56.9438E-03    -28.4903E-03     3.66955E-03     58.7306E-03     196.677E+06    -23.0018E+06    -33.8093E+06    -224.833E+06    -33.8142E+06    -224.828E+06    -23.0018E+06    -121.583E+03
             612     36.9931E-03     1.94458E-03     36.9420E-03     56.8867E-03    -28.4129E-03    -28.4744E-03    -28.4242E-03     56.8672E-03    -28.4436E-03     2.49096E-03     57.8195E-03     194.346E+06    -30.7424E+06    -36.3605E+06    -227.822E+06    -36.3675E+06    -227.815E+06    -30.7424E+06    -260.684E+03
             613     36.9528E-03     972.178E-06     36.9400E-03     56.8194E-03    -28.3316E-03    -28.4894E-03    -28.4533E-03     56.8139E-03    -28.3623E-03     1.21801E-03     57.4224E-03     192.461E+06    -36.5493E+06    -38.8015E+06    -230.116E+06    -38.4255E+06    -230.113E+06    -36.9282E+06    -366.670E+03
             614     39.8248E-03     16.5358E-03     36.2296E-03     76.3696E-03    -28.3585E-03    -48.0108E-03    -27.7517E-03     56.1105E-03    -28.3585E-03     90.6743E-03     229.223E-03     179.921E+06     192.444E+06     123.909E+06    -8.99126E+06    -8.98682E+06     192.440E+06     123.909E+06     425.094E+03
             615     39.3198E-03     15.5613E-03     36.1094E-03     75.2148E-03    -28.0445E-03    -47.1770E-03    -27.9100E-03     55.9478E-03    -28.0445E-03     87.4544E-03     212.686E-03     166.834E+06     170.536E+06     49.0996E+06    -15.9309E+06    -15.9267E+06     170.532E+06     49.0996E+06     199.990E+03
             616     38.8858E-03     14.5882E-03     36.0456E-03     61.6945E-03    -27.7943E-03    -33.9086E-03    -27.3111E-03     55.0970E-03    -27.7943E-03     46.7451E-03     152.714E-03     160.662E+06     143.197E+06    -4.22962E+06    -27.9213E+06    -18.7819E+06     143.193E+06    -13.3651E+06     118.099E+03
             617     38.4988E-03     13.6147E-03     36.0111E-03     57.4872E-03    -27.7952E-03    -29.7057E-03    -27.3434E-03     55.1248E-03    -27.7952E-03     28.0539E-03     124.400E-03     112.245E+06     86.3108E+06    -17.9699E+06    -32.4192E+06    -17.9657E+06     86.3067E+06    -32.4192E+06    -137.307E+03
             618     38.1419E-03     12.6421E-03     35.9858E-03     56.7847E-03    -27.9550E-03    -28.8477E-03    -27.5729E-03     55.5100E-03    -27.9550E-03     20.4008E-03     105.245E-03     33.8961E+06     12.3793E+06    -17.5949E+06    -24.0826E+06    -16.7947E+06     11.5792E+06    -24.0826E+06     50.1994E+03
             619     37.8140E-03     11.6692E-03     35.9684E-03     56.4388E-03    -28.0804E-03    -28.3999E-03    -27.6849E-03     55.7238E-03    -28.0804E-03     15.4672E-03     93.7485E-03     26.6963E+06    -13.0551E+06    -17.1496E+06    -41.4620E+06    -16.3511E+06    -40.2301E+06    -15.0855E+06     269.917E+03
             620     37.5111E-03     10.6963E-03     35.9537E-03     56.5081E-03    -28.1878E-03    -28.3309E-03    -27.7744E-03     55.9516E-03    -28.1878E-03     13.6808E-03     86.2542E-03     65.9671E+06    -6.65841E+06    -16.4048E+06    -76.9491E+06    -16.4075E+06    -76.9463E+06    -6.65841E+06     382.056E+03
             621     37.2322E-03     9.72369E-03     35.9401E-03     56.6060E-03    -28.2229E-03    -28.3419E-03    -27.8874E-03     56.2032E-03    -28.2747E-03     11.5721E-03     79.3909E-03     95.4029E+06    -538.343E+03    -17.3758E+06    -103.230E+06    -17.3800E+06    -103.226E+06    -538.343E+03     553.397E+03
             622     36.9801E-03     8.75093E-03     35.9298E-03     56.5915E-03    -28.2249E-03    -28.3437E-03    -27.9433E-03     56.3098E-03    -28.3437E-03     9.75350E-03     73.9047E-03     118.631E+06     2.46653E+06    -19.0716E+06    -125.454E+06    -19.0757E+06    -125.450E+06     2.46653E+06     566.797E+03
             623     36.7525E-03     7.77845E-03     35.9199E-03     56.6490E-03    -28.2531E-03    -28.3951E-03    -28.0204E-03     56.4163E-03    -28.3951E-03     8.85962E-03     69.8737E-03     137.002E+06     1.05148E+06    -20.9765E+06    -145.621E+06    -20.9807E+06    -145.616E+06     1.05148E+06     472.833E+03
             624     36.5507E-03     6.80593E-03     35.9114E-03     56.7305E-03    -28.2944E-03    -28.4409E-03    -28.1140E-03     56.5502E-03    -28.4409E-03     7.80770E-03     66.5236E-03     153.490E+06    -1.69397E+06    -22.8070E+06    -164.640E+06    -22.8095E+06    -164.638E+06    -1.69397E+06     246.543E+03
             625     36.3744E-03     5.83343E-03     35.9036E-03     56.8096E-03    -28.3325E-03    -28.4820E-03    -28.1943E-03     56.6714E-03    -28.4820E-03     6.83802E-03     63.7847E-03     168.611E+06    -5.82084E+06    -24.7660E+06    -183.091E+06    -24.7688E+06    -183.088E+06    -5.82084E+06    -199.196E+03
             626     36.2250E-03     4.86116E-03     35.8973E-03     56.8943E-03    -28.3770E-03    -28.5223E-03    -28.2768E-03     56.7941E-03    -28.5223E-03     5.81700E-03     61.6381E-03     185.818E+06    -10.7547E+06    -27.0868E+06    -204.192E+06    -27.0933E+06    -204.186E+06    -10.7547E+06    -898.706E+03
             627     36.1019E-03     3.88889E-03     35.8918E-03     56.9841E-03    -28.4501E-03    -28.5397E-03    -28.3822E-03     56.9161E-03    -28.5397E-03     4.78751E-03     60.0087E-03     198.061E+06    -16.6271E+06    -29.3591E+06    -220.730E+06    -29.3711E+06    -220.718E+06    -16.6271E+06    -1.27450E+06
             628     36.0059E-03     2.91646E-03     35.8876E-03     57.0174E-03    -28.4869E-03    -28.5339E-03    -28.4500E-03     56.9769E-03    -28.5303E-03     3.66170E-03     58.7239E-03     198.191E+06    -23.3719E+06    -31.4115E+06    -225.450E+06    -31.4220E+06    -225.440E+06    -23.3719E+06    -1.16063E+06
             629     35.9369E-03     1.94424E-03     35.8843E-03     56.9989E-03    -28.4780E-03    -28.5213E-03    -28.4694E-03     56.9805E-03    -28.5114E-03     2.43385E-03     57.8061E-03     197.039E+06    -28.4553E+06    -33.0463E+06    -227.737E+06    -33.0209E+06    -227.731E+06    -28.4861E+06    -840.520E+03
             630     35.8960E-03     972.314E-06     35.8828E-03     56.9894E-03    -28.4289E-03    -28.5615E-03    -28.5431E-03     56.9833E-03    -28.4413E-03     1.35958E-03     57.4137E-03     197.064E+06    -32.5499E+06    -34.8737E+06    -230.755E+06    -34.4669E+06    -230.752E+06    -32.9596E+06    -180.370E+03
             631     38.8650E-03     16.5354E-03     35.1720E-03     76.3416E-03    -28.3690E-03    -47.9741E-03    -27.6549E-03     56.0224E-03    -28.3690E-03     90.8419E-03     229.230E-03     179.252E+06     191.919E+06     124.756E+06    -8.63283E+06    -8.62791E+06     191.914E+06     124.756E+06     928.151E+03
             632     38.3521E-03     15.5616E-03     35.0531E-03     75.2147E-03    -28.0609E-03    -47.1633E-03    -28.0022E-03     56.0535E-03    -28.0609E-03     87.2267E-03     212.577E-03     166.651E+06     171.568E+06     51.2244E+06    -14.7803E+06    -14.7738E+06     171.561E+06     51.2244E+06     1.08245E+06
             633     37.9062E-03     14.5880E-03     34.9867E-03     61.7097E-03    -27.8023E-03    -33.9169E-03    -27.3971E-03     55.1900E-03    -27.8023E-03     46.4623E-03     152.778E-03     159.796E+06     144.534E+06    -2.15679E+06    -25.5938E+06    -17.0223E+06     144.530E+06    -10.7244E+06     179.922E+03
             634     37.5129E-03     13.6157E-03     34.9547E-03     57.4376E-03    -27.7954E-03    -29.6530E-03    -27.2869E-03     55.0715E-03    -27.7954E-03     28.1237E-03     124.331E-03     111.166E+06     86.0546E+06    -16.9356E+06    -31.6842E+06    -16.9340E+06     86.0530E+06    -31.6842E+06    -228.651E+03
             635     37.1455E-03     12.6418E-03     34.9281E-03     56.6839E-03    -27.9567E-03    -28.7461E-03    -27.4391E-03     55.3769E-03    -27.9567E-03     20.5683E-03     105.100E-03     33.9325E+06     12.0923E+06    -17.6598E+06    -24.6732E+06    -16.2924E+06     10.7249E+06    -24.6732E+06    -43.5741E+03
             636     36.8099E-03     11.6690E-03     34.9114E-03     56.3912E-03    -28.0920E-03    -28.3449E-03    -27.6343E-03     55.6806E-03    -28.0920E-03     15.4192E-03     93.7641E-03     26.6274E+06    -12.6295E+06    -17.1956E+06    -40.8896E+06    -15.8293E+06    -40.0499E+06    -14.8356E+06     38.9200E+03
             637     36.4988E-03     10.6961E-03     34.8963E-03     56.5394E-03    -28.2005E-03    -28.3501E-03    -27.7861E-03     55.9754E-03    -28.2005E-03     13.7766E-03     86.2759E-03     65.9341E+06    -6.79373E+06    -16.1933E+06    -76.9177E+06    -16.1956E+06    -76.9153E+06    -6.79373E+06     143.795E+03
             638     36.2125E-03     9.72337E-03     34.8827E-03     56.6351E-03    -28.2478E-03    -28.3448E-03    -27.8995E-03     56.2293E-03    -28.2874E-03     11.6117E-03     79.4286E-03     95.4221E+06    -692.533E+03    -17.2025E+06    -103.277E+06    -17.2040E+06    -103.275E+06    -692.533E+03     97.1256E+03
             639     35.9535E-03     8.75098E-03     34.8723E-03     56.6068E-03    -28.2256E-03    -28.3583E-03    -27.9453E-03     56.3265E-03    -28.3583E-03     9.73071E-03     73.9426E-03     118.550E+06     2.59502E+06    -18.7046E+06    -125.156E+06    -18.7054E+06    -125.155E+06     2.59502E+06     4.49056E+03
             640     35.7198E-03     7.77819E-03     34.8627E-03     56.6607E-03    -28.2466E-03    -28.4120E-03    -28.0129E-03     56.4269E-03    -28.4120E-03     8.88263E-03     69.9133E-03     136.803E+06     1.09691E+06    -20.6227E+06    -145.260E+06    -20.6248E+06    -145.258E+06     1.09691E+06    -348.296E+03
             641     35.5120E-03     6.80574E-03     34.8537E-03     56.7792E-03    -28.3261E-03    -28.4582E-03    -28.1436E-03     56.5967E-03    -28.4582E-03     7.85455E-03     66.5893E-03     153.003E+06    -1.78174E+06    -22.8848E+06    -164.235E+06    -22.8926E+06    -164.227E+06    -1.78174E+06    -817.292E+03
             642     35.3314E-03     5.83350E-03     34.8465E-03     56.8245E-03    -28.3337E-03    -28.4984E-03    -28.1952E-03     56.6859E-03    -28.4984E-03     6.84881E-03     63.7956E-03     167.723E+06    -6.22985E+06    -25.0342E+06    -182.547E+06    -25.0479E+06    -182.533E+06    -6.22985E+06    -1.30294E+06
             643     35.1772E-03     4.86085E-03     34.8397E-03     56.9068E-03    -28.3684E-03    -28.5428E-03    -28.2669E-03     56.8053E-03    -28.5428E-03     5.85430E-03     61.6386E-03     185.268E+06    -11.2163E+06    -27.0244E+06    -203.873E+06    -27.0452E+06    -203.852E+06    -11.2163E+06    -1.82607E+06
             644     35.0507E-03     3.88852E-03     34.8344E-03     57.0197E-03    -28.4560E-03    -28.5669E-03    -28.3872E-03     56.9509E-03    -28.5669E-03     4.81790E-03     60.0444E-03     198.155E+06    -17.1877E+06    -29.5325E+06    -221.213E+06    -29.5558E+06    -221.190E+06    -17.1877E+06    -1.99525E+06
             645     34.9518E-03     2.91655E-03     34.8299E-03     57.0384E-03    -28.4757E-03    -28.5652E-03    -28.4346E-03     56.9973E-03    -28.5652E-03     3.69483E-03     58.7502E-03     197.887E+06    -25.1323E+06    -31.9863E+06    -226.335E+06    -32.0026E+06    -226.319E+06    -25.1323E+06    -1.66415E+06
             646     34.8812E-03     1.94431E-03     34.8270E-03     57.0725E-03    -28.5039E-03    -28.5694E-03    -28.4894E-03     57.0531E-03    -28.5645E-03     2.49817E-03     57.8755E-03     196.612E+06    -31.2970E+06    -33.6005E+06    -229.043E+06    -33.5788E+06    -229.033E+06    -31.3279E+06    -1.15741E+06
             647     34.8385E-03     971.876E-06     34.8249E-03     57.1427E-03    -28.5068E-03    -28.6376E-03    -28.6192E-03     57.1366E-03    -28.5192E-03     1.31166E-03     57.5068E-03     197.348E+06    -33.3086E+06    -34.6402E+06    -231.318E+06    -34.0336E+06    -231.315E+06    -33.9182E+06    -425.791E+03
             648     37.9109E-03     16.5350E-03     34.1149E-03     76.4382E-03    -28.3753E-03    -48.0565E-03    -27.7939E-03     56.1756E-03    -28.3753E-03     90.7893E-03     229.165E-03     178.533E+06     191.935E+06     125.403E+06    -7.81782E+06    -7.81400E+06     191.931E+06     125.403E+06      821.23E+03
             649     37.3872E-03     15.5620E-03     33.9945E-03     75.2609E-03    -28.0655E-03    -47.2018E-03    -28.0772E-03     56.1364E-03    -28.0655E-03     87.1777E-03     212.418E-03     166.024E+06     172.469E+06     52.7211E+06    -12.9941E+06    -12.9897E+06     172.464E+06     52.7211E+06     600.309E+03
             650     36.9337E-03     14.5887E-03     33.9304E-03     61.4661E-03    -27.8041E-03    -33.6694E-03    -27.1539E-03     54.9506E-03    -27.8041E-03     46.4771E-03     152.577E-03     158.404E+06     144.490E+06    -779.600E+03    -24.3020E+06    -15.0360E+06     144.481E+06    -10.0376E+06     576.652E+03
             651     36.5286E-03     13.6143E-03     33.8967E-03     57.4118E-03    -27.8057E-03    -29.6110E-03    -27.1977E-03     54.9985E-03    -27.8057E-03     28.3140E-03     124.330E-03     109.848E+06     85.7362E+06    -15.4978E+06    -30.9748E+06    -15.4914E+06     85.7298E+06    -30.9748E+06     523.799E+03
             652     36.1540E-03     12.6421E-03     33.8716E-03     56.7470E-03    -27.9686E-03    -28.7945E-03    -27.4966E-03     55.4491E-03    -27.9686E-03     20.5527E-03     105.170E-03     33.8673E+06     12.7424E+06    -17.1687E+06    -24.0113E+06    -15.2331E+06     10.8068E+06    -24.0113E+06     62.9306E+03
             653     35.8084E-03     11.6687E-03     33.8539E-03     56.4104E-03    -28.1029E-03    -28.3553E-03    -27.6419E-03     55.6971E-03    -28.1029E-03     15.4378E-03     93.7742E-03     27.1792E+06    -11.6259E+06    -16.9103E+06    -40.5442E+06    -14.9769E+06    -39.9060E+06    -14.1975E+06    -25.2522E+03
             654     35.4894E-03     10.6961E-03     33.8392E-03     56.5698E-03    -28.2103E-03    -28.3709E-03    -27.8150E-03     56.0138E-03    -28.2103E-03     13.6860E-03     86.3201E-03     66.3855E+06    -6.17358E+06    -15.4333E+06    -76.7011E+06    -15.4360E+06    -76.6984E+06    -6.17358E+06    -82.5174E+03
             655     35.1950E-03     9.72340E-03     33.8252E-03     56.6005E-03    -28.2130E-03    -28.3461E-03    -27.8611E-03     56.2002E-03    -28.2977E-03     11.5194E-03     79.3661E-03     96.0493E+06    -316.059E+03    -16.4337E+06    -103.386E+06    -16.4365E+06    -103.383E+06    -316.059E+03    -284.276E+03
             656     34.9290E-03     8.75062E-03     33.8151E-03     56.6145E-03    -28.2202E-03    -28.3724E-03    -27.9461E-03     56.3404E-03    -28.3724E-03     9.62304E-03     73.9526E-03     118.735E+06     3.16685E+06    -18.2097E+06    -124.801E+06    -18.2131E+06    -124.798E+06     3.16685E+06    -478.183E+03
             657     34.6885E-03     7.77827E-03     33.8051E-03     56.7030E-03    -28.2756E-03    -28.4241E-03    -28.0429E-03     56.4703E-03    -28.4241E-03     8.86969E-03     69.9333E-03     136.445E+06     1.43104E+06    -20.3777E+06    -144.595E+06    -20.3845E+06    -144.588E+06     1.43104E+06    -847.038E+03
             658     34.4749E-03     6.80570E-03     33.7965E-03     56.7672E-03    -28.3014E-03    -28.4708E-03    -28.1189E-03     56.5847E-03    -28.4708E-03     7.85046E-03     66.5534E-03     152.609E+06    -1.67843E+06    -22.6037E+06    -163.665E+06    -22.6229E+06    -163.646E+06    -1.67843E+06    -1.59153E+06
             659     34.2886E-03     5.83313E-03     33.7888E-03     56.8648E-03    -28.3596E-03    -28.5137E-03    -28.2240E-03     56.7293E-03    -28.5137E-03     6.77128E-03     63.8086E-03     167.482E+06    -6.00052E+06    -25.0801E+06    -182.193E+06    -25.1164E+06    -182.156E+06    -6.00052E+06    -2.31591E+06
             660     34.1304E-03     4.86098E-03     33.7824E-03     56.9598E-03    -28.4106E-03    -28.5534E-03    -28.3124E-03     56.8616E-03    -28.5534E-03     5.76547E-03     61.6748E-03     185.189E+06    -11.2280E+06    -27.9372E+06    -204.197E+06    -27.9772E+06    -204.157E+06    -11.2280E+06    -2.57268E+06
             661     33.9997E-03     3.88872E-03     33.7766E-03     56.9752E-03    -28.3962E-03    -28.5789E-03    -28.3305E-03     56.9095E-03    -28.5789E-03     4.70277E-03     59.9770E-03     198.095E+06    -17.4658E+06    -31.0461E+06    -221.990E+06    -31.0780E+06    -221.958E+06    -17.4658E+06    -2.35959E+06
             662     33.8983E-03     2.91616E-03     33.7726E-03     57.0136E-03    -28.4159E-03    -28.5979E-03    -28.3758E-03     56.9735E-03    -28.5979E-03     3.66444E-03     58.7129E-03     198.221E+06    -25.3937E+06    -33.6370E+06    -227.581E+06    -33.6597E+06    -227.559E+06    -25.3937E+06    -1.97130E+06
             663     33.8250E-03     1.94394E-03     33.7691E-03     57.1505E-03    -28.5272E-03    -28.6230E-03    -28.5113E-03     57.1297E-03    -28.6181E-03     2.59633E-03     57.9751E-03     197.076E+06    -31.6477E+06    -35.3046E+06    -230.512E+06    -35.3142E+06    -230.502E+06    -31.6477E+06    -1.19967E+06
             664     33.7814E-03     972.282E-06     33.7674E-03     57.2441E-03    -28.5402E-03    -28.7034E-03    -28.6824E-03     57.2376E-03    -28.5548E-03     1.32530E-03     57.6857E-03     196.387E+06    -34.8570E+06    -37.3700E+06    -232.487E+06    -36.7940E+06    -232.484E+06    -35.4358E+06    -650.153E+03
             665     36.9634E-03     16.5361E-03     33.0582E-03     76.5463E-03    -28.3607E-03    -48.1775E-03    -27.8002E-03     56.1690E-03    -28.3607E-03     90.9069E-03     229.027E-03     178.268E+06     191.982E+06     124.545E+06    -7.47273E+06    -7.46924E+06     191.978E+06     124.545E+06     203.187E+03
             666     36.4276E-03     15.5618E-03     32.9363E-03     75.2456E-03    -28.0529E-03    -47.1914E-03    -27.8091E-03     55.8632E-03    -28.0529E-03     87.5493E-03     212.444E-03     165.898E+06     171.770E+06     50.3832E+06    -13.1589E+06    -13.1569E+06     171.768E+06     50.3832E+06     348.446E+03
             667     35.9653E-03     14.5880E-03     32.8739E-03     61.5279E-03    -27.8058E-03    -33.7254E-03    -27.2112E-03     55.0137E-03    -27.8058E-03     46.5324E-03     152.749E-03     158.807E+06     143.897E+06    -2.57208E+06    -24.8283E+06    -15.6581E+06     143.889E+06    -11.7347E+06     634.504E+03
             668     35.5498E-03     13.6151E-03     32.8393E-03     57.4425E-03    -27.8122E-03    -29.6342E-03    -27.2346E-03     55.0429E-03    -27.8122E-03     28.2004E-03     124.294E-03     110.143E+06     86.4938E+06    -14.9112E+06    -30.5660E+06    -14.8984E+06     86.4810E+06    -30.5660E+06     901.242E+03
             669     35.1648E-03     12.6415E-03     32.8139E-03     56.6907E-03    -27.9761E-03    -28.7287E-03    -27.4609E-03     55.4230E-03    -27.9761E-03     20.3591E-03     105.132E-03     33.7632E+06     13.6302E+06    -15.8483E+06    -23.1800E+06    -13.8870E+06     11.6690E+06    -23.1800E+06     439.393E+03
             670     34.8108E-03     11.6689E-03     32.7968E-03     56.5191E-03    -28.1073E-03    -28.4567E-03    -27.7325E-03     55.7950E-03    -28.1073E-03     15.5669E-03     93.8109E-03     27.6513E+06    -11.2721E+06    -15.9912E+06    -40.4974E+06    -14.0380E+06    -39.6490E+06    -14.0737E+06     68.9841E+03
             671     34.4824E-03     10.6960E-03     32.7815E-03     56.5886E-03    -28.2114E-03    -28.3905E-03    -27.8396E-03     56.0377E-03    -28.2114E-03     13.6229E-03     86.2986E-03     66.5773E+06    -6.03227E+06    -14.4755E+06    -76.4219E+06    -14.4776E+06    -76.4198E+06    -6.03227E+06    -82.9491E+03
             672     34.1804E-03     9.72339E-03     32.7682E-03     56.5667E-03    -28.1979E-03    -28.3309E-03    -27.8323E-03     56.1692E-03    -28.2990E-03     11.4906E-03     79.2961E-03     95.9704E+06    -270.918E+03    -15.7378E+06    -103.019E+06    -15.7404E+06    -103.016E+06    -270.918E+03    -289.224E+03
             673     33.9062E-03     8.75076E-03     32.7575E-03     56.5971E-03    -28.1990E-03    -28.3756E-03    -27.9226E-03     56.3207E-03    -28.3756E-03     9.65786E-03     73.8971E-03     118.677E+06     2.92582E+06    -17.7739E+06    -124.738E+06    -17.7797E+06    -124.732E+06     2.92582E+06    -667.830E+03
             674     33.6588E-03     7.77811E-03     32.7477E-03     56.7106E-03    -28.2795E-03    -28.4296E-03    -28.0470E-03     56.4781E-03    -28.4296E-03     8.86849E-03     69.9303E-03     135.794E+06     1.33050E+06    -20.2604E+06    -143.959E+06    -20.2724E+06    -143.947E+06     1.33050E+06    -1.17080E+06
             675     33.4390E-03     6.80565E-03     32.7391E-03     56.7953E-03    -28.3263E-03    -28.4740E-03    -28.1431E-03     56.6122E-03    -28.4740E-03     7.86636E-03     66.5593E-03     151.370E+06    -1.86898E+06    -23.0710E+06    -162.717E+06    -23.0949E+06    -162.693E+06    -1.86898E+06    -1.81237E+06
             676     33.2472E-03     5.83333E-03     32.7315E-03     56.8858E-03    -28.3777E-03    -28.5141E-03    -28.2429E-03     56.7511E-03    -28.5141E-03     6.75157E-03     63.8174E-03     166.571E+06    -6.32388E+06    -26.3572E+06    -181.996E+06    -26.3987E+06    -181.954E+06    -6.32388E+06    -2.50689E+06
             677     33.0838E-03     4.86096E-03     32.7248E-03     56.9496E-03    -28.3983E-03    -28.5544E-03    -28.3013E-03     56.8525E-03    -28.5544E-03     5.73045E-03     61.6661E-03     184.964E+06    -11.4323E+06    -30.0488E+06    -204.993E+06    -30.0942E+06    -204.948E+06    -11.4323E+06    -2.75812E+06
             678     32.9498E-03     3.88861E-03     32.7196E-03     56.9735E-03    -28.3977E-03    -28.5756E-03    -28.3315E-03     56.9074E-03    -28.5756E-03     4.72024E-03     59.9952E-03     197.282E+06    -18.0669E+06    -33.8287E+06    -222.739E+06    -33.8642E+06    -222.703E+06    -18.0669E+06    -2.51989E+06
             679     32.8446E-03     2.91641E-03     32.7148E-03     57.0098E-03    -28.4257E-03    -28.5842E-03    -28.3866E-03     56.9707E-03    -28.5842E-03     3.60271E-03     58.7657E-03     196.775E+06    -26.8666E+06    -38.1261E+06    -229.018E+06    -38.1524E+06    -228.991E+06    -26.8666E+06    -2.14761E+06
             680     32.7693E-03     1.94417E-03     32.7116E-03     57.0413E-03    -28.4410E-03    -28.6002E-03    -28.4218E-03     57.0221E-03    -28.6002E-03     2.51376E-03     58.0057E-03     193.239E+06    -35.5261E+06    -42.4012E+06    -232.096E+06    -42.4128E+06    -232.084E+06    -35.5261E+06    -1.29035E+06
             681     32.7237E-03     971.702E-06     32.7092E-03     57.1922E-03    -28.4996E-03    -28.6916E-03    -28.5912E-03     57.1849E-03    -28.5927E-03     1.47636E-03     57.8752E-03     189.561E+06    -41.9849E+06    -46.3739E+06    -233.697E+06    -45.1204E+06    -233.695E+06    -43.2411E+06    -558.496E+03
             682     36.0204E-03     16.5356E-03     32.0007E-03     76.4009E-03    -28.3581E-03    -48.0293E-03    -27.6466E-03     56.0182E-03    -28.3581E-03     90.8098E-03     228.976E-03     178.724E+06     191.340E+06     123.800E+06    -8.63093E+06    -8.62784E+06     191.337E+06     123.800E+06    -478.255E+03
             683     35.4755E-03     15.5613E-03     31.8803E-03     75.2813E-03    -28.0511E-03    -47.2203E-03    -27.7665E-03     55.8275E-03    -28.0511E-03     87.7591E-03     212.440E-03     166.300E+06     171.241E+06     49.1329E+06    -13.8375E+06    -13.8355E+06     171.239E+06     49.1329E+06     153.086E+03
             684     35.0004E-03     14.5878E-03     31.8155E-03     61.7197E-03    -27.8105E-03    -33.9075E-03    -27.3686E-03     55.1808E-03    -27.8105E-03     46.5367E-03     152.830E-03     158.958E+06     143.957E+06    -3.05079E+06    -24.6888E+06    -15.4257E+06     143.955E+06    -12.3115E+06     519.316E+03
             685     34.5757E-03     13.6149E-03     31.7823E-03     57.4823E-03    -27.8132E-03    -29.6769E-03    -27.3254E-03     55.1307E-03    -27.8132E-03     28.0090E-03     124.299E-03     110.910E+06     87.0171E+06    -14.8634E+06    -30.9909E+06    -14.8558E+06     87.0094E+06    -30.9909E+06     599.069E+03
             686     34.1808E-03     12.6417E-03     31.7571E-03     56.6979E-03    -27.9734E-03    -28.7437E-03    -27.4551E-03     55.4092E-03    -27.9734E-03     20.5003E-03     104.999E-03     35.0583E+06     14.5877E+06    -15.8770E+06    -23.7078E+06    -13.6300E+06     12.3407E+06    -23.7078E+06     547.588E+03
             687     33.8160E-03     11.6686E-03     31.7390E-03     56.5385E-03    -28.1059E-03    -28.4773E-03    -27.7594E-03     55.8206E-03    -28.1059E-03     15.4982E-03     93.7701E-03     28.0250E+06    -10.9508E+06    -15.4500E+06    -40.3689E+06    -13.2113E+06    -39.3621E+06    -14.1962E+06     455.076E+03
             688     33.4790E-03     10.6962E-03     31.7244E-03     56.5675E-03    -28.2092E-03    -28.3722E-03    -27.8295E-03     56.0248E-03    -28.2092E-03     13.5198E-03     86.2233E-03     66.4950E+06    -6.31149E+06    -13.9428E+06    -76.2814E+06    -13.9462E+06    -76.2780E+06    -6.31149E+06     272.149E+03
             689     33.1679E-03     9.72329E-03     31.7107E-03     56.5610E-03    -28.2046E-03    -28.3201E-03    -27.8307E-03     56.1638E-03    -28.2969E-03     11.4943E-03     79.2506E-03     95.4097E+06    -506.279E+03    -15.5206E+06    -102.513E+06    -15.5221E+06    -102.512E+06    -506.279E+03    -17.5553E+03
             690     32.8858E-03     8.75063E-03     31.7002E-03     56.5957E-03    -28.2015E-03    -28.3735E-03    -27.9223E-03     56.3165E-03    -28.3735E-03     9.70486E-03     73.8646E-03     118.007E+06     2.61739E+06    -17.7654E+06    -124.252E+06    -17.7688E+06    -124.249E+06     2.61739E+06    -470.797E+03
             691     32.6310E-03     7.77810E-03     31.6904E-03     56.7153E-03    -28.2869E-03    -28.4274E-03    -28.0558E-03     56.4842E-03    -28.4274E-03     8.83913E-03     69.9448E-03     134.885E+06     935.422E+03    -20.6786E+06    -143.448E+06    -20.6883E+06    -143.438E+06     935.422E+03    -1.03547E+06
             692     32.4044E-03     6.80564E-03     31.6817E-03     56.7967E-03    -28.3298E-03    -28.4711E-03    -28.1477E-03     56.6146E-03    -28.4711E-03     7.84771E-03     66.5762E-03     150.132E+06    -2.32438E+06    -24.1511E+06    -162.172E+06    -24.1682E+06    -162.155E+06    -2.32438E+06    -1.49082E+06
             693     32.2064E-03     5.83330E-03     31.6737E-03     56.8456E-03    -28.3374E-03    -28.5132E-03    -28.1997E-03     56.7079E-03    -28.5132E-03     6.82431E-03     63.7858E-03     165.353E+06    -7.03674E+06    -28.1517E+06    -181.925E+06    -28.1770E+06    -181.900E+06    -7.03674E+06    -1.93209E+06
             694     32.0383E-03     4.86094E-03     31.6674E-03     56.9500E-03    -28.3942E-03    -28.5601E-03    -28.2960E-03     56.8518E-03    -28.5601E-03     5.75682E-03     61.6674E-03     184.221E+06    -11.8953E+06    -32.8765E+06    -205.703E+06    -32.9064E+06    -205.673E+06    -11.8953E+06    -2.18222E+06
             695     31.8998E-03     3.88862E-03     31.6619E-03     57.0250E-03    -28.4593E-03    -28.5686E-03    -28.3938E-03     56.9595E-03    -28.5686E-03     4.70250E-03     60.0870E-03     195.413E+06    -19.6218E+06    -38.3751E+06    -223.714E+06    -38.3952E+06    -223.694E+06    -19.6218E+06    -1.74620E+06
             696     31.7914E-03     2.91647E-03     31.6573E-03     56.9957E-03    -28.4590E-03    -28.5371E-03    -28.4191E-03     56.9558E-03    -28.5371E-03     3.64597E-03     58.8549E-03     192.464E+06    -31.5012E+06    -44.2335E+06    -229.999E+06    -44.2460E+06    -229.986E+06    -31.5012E+06    -1.12374E+06
             697     31.7138E-03     1.94434E-03     31.6541E-03     56.9338E-03    -28.3947E-03    -28.5393E-03    -28.4089E-03     56.9138E-03    -28.5052E-03     2.55481E-03     58.0496E-03     187.277E+06    -42.6498E+06    -49.4281E+06    -233.203E+06    -49.4365E+06    -233.194E+06    -42.6498E+06    -733.520E+03
             698     31.6668E-03     972.180E-06     31.6519E-03     56.9610E-03    -28.4199E-03    -28.5414E-03    -28.4552E-03     56.9534E-03    -28.4984E-03     1.53385E-03     57.8071E-03     183.276E+06    -49.5695E+06    -53.3122E+06    -234.680E+06    -52.0569E+06    -234.679E+06    -50.8258E+06    -166.976E+03
             699     35.0839E-03     16.5351E-03     30.9431E-03     76.1959E-03    -28.3616E-03    -47.8274E-03    -27.6822E-03     56.0508E-03    -28.3616E-03     90.4062E-03     229.032E-03     179.215E+06     191.740E+06     123.496E+06    -8.91979E+06    -8.91639E+06     191.737E+06     123.496E+06    -580.758E+03
             700     34.5289E-03     15.5615E-03     30.8234E-03     75.1372E-03    -28.0470E-03    -47.0872E-03    -27.9376E-03     55.9876E-03    -28.0470E-03     87.2624E-03     212.331E-03     166.622E+06     170.645E+06     48.6444E+06    -15.0552E+06    -15.0521E+06     170.642E+06     48.6444E+06    -506.190E+03
             701     34.0416E-03     14.5880E-03     30.7575E-03     61.5725E-03    -27.8073E-03    -33.7609E-03    -27.1821E-03     54.9937E-03    -27.8073E-03     46.4528E-03     152.605E-03     159.200E+06     143.133E+06    -3.75259E+06    -25.9645E+06    -16.8364E+06     143.131E+06    -12.8790E+06     99.4890E+03
             702     33.6066E-03     13.6146E-03     30.7253E-03     57.4291E-03    -27.8155E-03    -29.6137E-03    -27.3101E-03     55.1256E-03    -27.8155E-03     27.7484E-03     124.327E-03     111.676E+06     87.0457E+06    -15.8481E+06    -31.5986E+06    -15.8456E+06     87.0432E+06    -31.5986E+06     189.212E+03
             703     33.2004E-03     12.6416E-03     30.6995E-03     56.8665E-03    -27.9711E-03    -28.9111E-03    -27.6153E-03     55.5707E-03    -27.9711E-03     20.5748E-03     105.028E-03     35.3687E+06     14.3298E+06    -16.3529E+06    -24.2003E+06    -14.6824E+06     12.6592E+06    -24.2003E+06     398.750E+03
             704     32.8260E-03     11.6691E-03     30.6819E-03     56.4780E-03    -28.0989E-03    -28.4221E-03    -27.7121E-03     55.7680E-03    -28.0989E-03     15.4084E-03     93.6472E-03     27.4677E+06    -11.6693E+06    -15.7709E+06    -40.5982E+06    -14.1079E+06    -39.3198E+06    -14.6107E+06     659.178E+03
             705     32.4786E-03     10.6959E-03     30.6669E-03     56.5213E-03    -28.2050E-03    -28.3311E-03    -27.7926E-03     55.9827E-03    -28.2050E-03     13.4585E-03     86.1537E-03     66.0290E+06    -6.51047E+06    -14.3768E+06    -76.1092E+06    -14.3847E+06    -76.1012E+06    -6.51047E+06     579.702E+03
             706     32.1587E-03     9.72344E-03     30.6535E-03     56.5927E-03    -28.2137E-03    -28.3450E-03    -27.8758E-03     56.2029E-03    -28.2931E-03     11.3883E-03     79.2825E-03     94.9077E+06    -433.319E+03    -15.7054E+06    -102.029E+06    -15.7076E+06    -102.026E+06    -433.319E+03     272.662E+03
             707     31.8678E-03     8.75075E-03     30.6428E-03     56.5971E-03    -28.2139E-03    -28.3659E-03    -27.9393E-03     56.3225E-03    -28.3659E-03     9.62924E-03     73.8652E-03     117.269E+06     2.66722E+06    -18.0964E+06    -123.595E+06    -18.0978E+06    -123.594E+06     2.66722E+06    -41.3155E+03
             708     31.6052E-03     7.77818E-03     30.6331E-03     56.6929E-03    -28.2752E-03    -28.4169E-03    -28.0451E-03     56.4628E-03    -28.4169E-03     8.81880E-03     69.9040E-03     134.119E+06     598.752E+03    -21.1979E+06    -143.079E+06    -21.2007E+06    -143.076E+06     598.752E+03    -419.784E+03
             709     31.3712E-03     6.80579E-03     30.6241E-03     56.7357E-03    -28.2745E-03    -28.4649E-03    -28.0942E-03     56.5554E-03    -28.4649E-03     7.80360E-03     66.5120E-03     149.649E+06    -2.66620E+06    -24.7595E+06    -162.131E+06    -24.7649E+06    -162.126E+06    -2.66620E+06    -743.883E+03
             710     31.1673E-03     5.83319E-03     30.6165E-03     56.8042E-03    -28.2956E-03    -28.5141E-03    -28.1593E-03     56.6679E-03    -28.5141E-03     6.79040E-03     63.7509E-03     164.611E+06    -7.26597E+06    -29.1542E+06    -181.721E+06    -29.1633E+06    -181.711E+06    -7.26597E+06    -904.356E+03
             711     30.9933E-03     4.86079E-03     30.6098E-03     56.9822E-03    -28.4268E-03    -28.5608E-03    -28.3285E-03     56.8839E-03    -28.5608E-03     5.76375E-03     61.6992E-03     183.534E+06    -12.3749E+06    -34.4191E+06    -205.933E+06    -34.4284E+06    -205.924E+06    -12.3749E+06    -986.225E+03
             712     30.8504E-03     3.88880E-03     30.6043E-03     57.0399E-03    -28.4819E-03    -28.5611E-03    -28.4171E-03     56.9751E-03    -28.5611E-03     4.67757E-03     60.1085E-03     195.161E+06    -20.5873E+06    -40.1867E+06    -224.788E+06    -40.1910E+06    -224.784E+06    -20.5873E+06    -756.334E+03
             713     30.7387E-03     2.91654E-03     30.6000E-03     56.9810E-03    -28.4589E-03    -28.5224E-03    -28.4248E-03     56.9410E-03    -28.5164E-03     3.66525E-03     58.8665E-03     191.938E+06    -32.8236E+06    -44.9053E+06    -230.481E+06    -44.9066E+06    -230.480E+06    -32.8236E+06    -108.829E+03
             714     30.6583E-03     1.94430E-03     30.5966E-03     56.9625E-03    -28.4368E-03    -28.5245E-03    -28.4882E-03     56.9413E-03    -28.4521E-03     2.63299E-03     58.0781E-03     187.850E+06    -42.9393E+06    -48.1079E+06    -233.303E+06    -48.1092E+06    -233.302E+06    -42.9393E+06    -176.907E+03
             715     30.6097E-03     972.332E-06     30.5942E-03     56.8116E-03    -28.2294E-03    -28.5815E-03    -28.5737E-03     56.8039E-03    -28.2294E-03     1.52253E-03     57.6187E-03     185.080E+06    -49.1029E+06    -51.4036E+06    -235.322E+06    -51.4070E+06    -235.318E+06    -49.1029E+06     87.0687E+03
             716     34.1541E-03     16.5353E-03     29.8845E-03     76.3161E-03    -28.3578E-03    -47.9576E-03    -27.7351E-03     56.0936E-03    -28.3578E-03     90.6633E-03     229.140E-03     179.326E+06     192.095E+06     123.487E+06    -8.73110E+06    -8.72589E+06     192.090E+06     123.487E+06    -7.40056E+03
             717     33.5889E-03     15.5622E-03     29.7662E-03     75.1559E-03    -28.0436E-03    -47.1120E-03    -27.9417E-03     55.9856E-03    -28.0436E-03     87.3060E-03     212.410E-03     166.945E+06     170.708E+06     48.4074E+06    -15.4549E+06    -15.4500E+06     170.703E+06     48.4074E+06     17.9672E+03
             718     33.0898E-03     14.5882E-03     29.7005E-03     61.5659E-03    -27.8024E-03    -33.7585E-03    -27.1483E-03     54.9556E-03    -27.8024E-03     46.6228E-03     152.554E-03     159.695E+06     142.736E+06    -4.55849E+06    -26.9095E+06    -17.9583E+06     142.733E+06    -13.5065E+06    -455.368E+03
             719     32.6425E-03     13.6146E-03     29.6678E-03     57.4445E-03    -27.8109E-03    -29.6201E-03    -27.3014E-03     55.1259E-03    -27.8109E-03     27.8001E-03     124.292E-03     111.950E+06     86.8441E+06    -17.0401E+06    -31.6630E+06    -17.0361E+06     86.8401E+06    -31.6630E+06    -365.069E+03
             720     32.2250E-03     12.6419E-03     29.6417E-03     56.8765E-03    -27.9659E-03    -28.9126E-03    -27.6449E-03     55.6088E-03    -27.9659E-03     20.3503E-03     105.026E-03     35.0945E+06     13.8880E+06    -17.1294E+06    -24.0063E+06    -15.7198E+06     12.4785E+06    -24.0063E+06     200.512E+03
             721     31.8400E-03     11.6688E-03     29.6247E-03     56.4467E-03    -28.0898E-03    -28.4006E-03    -27.7031E-03     55.7492E-03    -28.0898E-03     15.2756E-03     93.6107E-03     26.8102E+06    -12.1908E+06    -16.5268E+06    -40.6637E+06    -15.1234E+06    -39.4450E+06    -14.8129E+06     346.871E+03
             722     31.4824E-03     10.6963E-03     29.6097E-03     56.4960E-03    -28.1954E-03    -28.3200E-03    -27.7813E-03     55.9572E-03    -28.1954E-03     13.4596E-03     86.1198E-03       65.15E+06    -6.72106E+06    -15.3349E+06    -75.7462E+06    -15.3421E+06    -75.7390E+06    -6.72106E+06     466.316E+03
             723     31.1523E-03     9.72345E-03     29.5960E-03     56.5909E-03    -28.2423E-03    -28.3171E-03    -27.8852E-03     56.2001E-03    -28.2835E-03     11.4005E-03     79.2792E-03     94.1285E+06    -679.750E+03    -16.3933E+06    -101.656E+06    -16.3962E+06    -101.653E+06    -679.750E+03     448.462E+03
             724     30.8526E-03     8.75092E-03     29.5856E-03     56.6075E-03    -28.2358E-03    -28.3547E-03    -27.9597E-03     56.3314E-03    -28.3547E-03     9.65855E-03     73.8851E-03     116.712E+06     2.62118E+06    -18.3218E+06    -123.142E+06    -18.3236E+06    -123.141E+06     2.62118E+06     351.794E+03
             725     30.5813E-03     7.77831E-03     29.5756E-03     56.6428E-03    -28.2371E-03    -28.4060E-03    -28.0041E-03     56.4098E-03    -28.4060E-03     8.86814E-03     69.8462E-03     133.901E+06     587.509E+03    -21.2026E+06    -142.867E+06    -21.2039E+06    -142.866E+06     587.509E+03     241.798E+03
             726     30.3399E-03     6.80570E-03     29.5667E-03     56.7302E-03    -28.2789E-03    -28.4541E-03    -28.0998E-03     56.5510E-03    -28.4541E-03     7.76977E-03     66.4972E-03     149.380E+06    -2.75785E+06    -24.9422E+06    -161.988E+06    -24.9443E+06    -161.986E+06    -2.75785E+06     167.544E+03
             727     30.1292E-03     5.83334E-03     29.5591E-03     56.8236E-03    -28.3301E-03    -28.4972E-03    -28.1975E-03     56.6910E-03    -28.4972E-03     6.69967E-03     63.7562E-03     164.436E+06    -7.47045E+06    -29.1803E+06    -181.674E+06    -29.1820E+06    -181.672E+06    -7.47045E+06     142.366E+03
             728     29.9494E-03     4.86104E-03     29.5522E-03     56.9192E-03    -28.3848E-03    -28.5380E-03    -28.2888E-03     56.8232E-03    -28.5380E-03     5.69217E-03     61.6240E-03     183.227E+06    -13.1219E+06    -33.6111E+06    -205.723E+06    -33.6121E+06    -205.722E+06    -13.1219E+06    -93.4767E+03
             729     29.8015E-03     3.88864E-03     29.5467E-03     57.0028E-03    -28.4570E-03    -28.5475E-03    -28.3942E-03     56.9400E-03    -28.5475E-03     4.60065E-03     60.0405E-03     196.516E+06    -20.1229E+06    -37.9183E+06    -224.915E+06    -37.9234E+06    -224.910E+06    -20.1229E+06    -633.319E+03
             730     29.6861E-03     2.91651E-03     29.5425E-03     57.0217E-03    -28.4906E-03    -28.5317E-03    -28.4724E-03     56.9827E-03    -28.5109E-03     3.62193E-03     58.8467E-03     195.924E+06    -29.6233E+06    -41.3145E+06    -231.103E+06    -41.3196E+06    -231.098E+06    -29.6233E+06    -654.608E+03
             731     29.6028E-03     1.94446E-03     29.5389E-03     56.9542E-03    -28.4406E-03    -28.5130E-03    -28.4926E-03     56.9338E-03    -28.4406E-03     2.56843E-03     57.9806E-03     192.135E+06    -38.4089E+06    -44.1114E+06    -233.320E+06    -44.1152E+06    -233.316E+06    -38.4089E+06     20.1259E+03
             732     29.5529E-03     972.249E-06     29.5369E-03     56.7779E-03    -28.2167E-03    -28.5616E-03    -28.5551E-03     56.7714E-03    -28.2167E-03     1.35081E-03     57.4746E-03     189.847E+06    -44.3272E+06    -46.9111E+06    -235.452E+06    -46.5348E+06    -235.444E+06    -44.7119E+06     135.858E+03
             733     33.2347E-03     16.5358E-03     28.8290E-03     76.3335E-03    -28.3597E-03    -47.9681E-03    -27.6761E-03     56.0415E-03    -28.3597E-03     90.6719E-03     228.936E-03     178.505E+06     191.343E+06     123.886E+06    -8.57114E+06    -8.56773E+06     191.340E+06     123.886E+06     285.258E+03
             734     32.6537E-03     15.5609E-03     28.7075E-03     75.1358E-03    -28.0557E-03    -47.0852E-03    -27.8158E-03     55.8664E-03    -28.0557E-03     87.3364E-03     212.403E-03     166.362E+06     171.051E+06     49.6171E+06    -14.3020E+06    -14.2981E+06     171.047E+06     49.6171E+06     447.180E+03
             735     32.1452E-03     14.5882E-03     28.6443E-03     61.7359E-03    -27.7996E-03    -33.9411E-03    -27.3821E-03     55.1769E-03    -27.7996E-03     46.6522E-03     152.699E-03     160.188E+06     143.952E+06    -3.50566E+06    -26.4417E+06    -16.6675E+06     143.948E+06    -13.2759E+06    -13.1548E+03
             736     31.6841E-03     13.6150E-03     28.6097E-03     57.5489E-03    -27.7932E-03    -29.7459E-03    -27.4117E-03     55.2147E-03    -27.7932E-03     27.8827E-03     124.305E-03     112.096E+06     86.5003E+06    -16.9122E+06    -32.5639E+06    -16.9060E+06     86.4941E+06    -32.5639E+06    -445.404E+03
             737     31.2556E-03     12.6420E-03     28.5848E-03     56.7399E-03    -27.9498E-03    -28.7827E-03    -27.5358E-03     55.4930E-03    -27.9498E-03     20.1994E-03     104.949E-03     35.1463E+06     13.4170E+06    -17.2930E+06    -24.5956E+06    -15.9823E+06     12.1063E+06    -24.5956E+06    -156.728E+03
             738     30.8586E-03     11.6692E-03     28.5671E-03     56.4399E-03    -28.0775E-03    -28.3984E-03    -27.6990E-03     55.7406E-03    -28.0775E-03     15.2787E-03     93.6150E-03     26.6969E+06    -12.7364E+06    -16.8143E+06    -41.0264E+06    -15.5069E+06    -39.5999E+06    -15.4703E+06     91.3124E+03
             739     30.4903E-03     10.6963E-03     28.5525E-03     56.4869E-03    -28.1828E-03    -28.3192E-03    -27.7804E-03     55.9482E-03    -28.1828E-03     13.4678E-03     86.1007E-03     64.5470E+06    -7.38253E+06    -15.8514E+06    -75.7400E+06    -15.8533E+06    -75.7381E+06    -7.38253E+06     233.836E+03
             740     30.1496E-03     9.72353E-03     28.5386E-03     56.5453E-03    -28.2190E-03    -28.2934E-03    -27.8390E-03     56.1449E-03    -28.2730E-03     11.5272E-03     79.2016E-03     93.6245E+06    -1.21906E+06    -16.9512E+06    -101.694E+06    -16.9543E+06    -101.691E+06    -1.21906E+06     456.399E+03
             741     29.8401E-03     8.75089E-03     28.5281E-03     56.6016E-03    -28.2381E-03    -28.3478E-03    -27.9612E-03     56.3248E-03    -28.3478E-03     9.66895E-03     73.8899E-03     116.281E+06     2.34605E+06    -18.8450E+06    -123.071E+06    -18.8480E+06    -123.068E+06     2.34605E+06     537.903E+03
             742     29.5601E-03     7.77834E-03     28.5183E-03     56.6751E-03    -28.2817E-03    -28.3951E-03    -28.0493E-03     56.4427E-03    -28.3951E-03     8.86374E-03     69.8716E-03     133.299E+06     394.528E+03    -21.6506E+06    -142.545E+06    -21.6557E+06    -142.540E+06     394.528E+03     739.134E+03
             743     29.3104E-03     6.80589E-03     28.5092E-03     56.7618E-03    -28.3340E-03    -28.4318E-03    -28.1552E-03     56.5830E-03    -28.4318E-03     7.76434E-03     66.5126E-03     148.909E+06    -3.24272E+06    -24.9228E+06    -161.799E+06    -24.9274E+06    -161.794E+06    -3.24272E+06     673.163E+03
             744     29.0924E-03     5.83357E-03     28.5016E-03     56.8232E-03    -28.3617E-03    -28.4649E-03    -28.2314E-03     56.6929E-03    -28.4649E-03     6.64347E-03     63.7590E-03     164.571E+06    -7.77297E+06    -28.1754E+06    -181.582E+06    -28.1778E+06    -181.580E+06    -7.77297E+06     500.167E+03
             745     28.9066E-03     4.86117E-03     28.4950E-03     56.8564E-03    -28.3600E-03    -28.4994E-03    -28.2656E-03     56.7620E-03    -28.4994E-03     5.64106E-03     61.5686E-03     183.181E+06    -13.1420E+06    -31.6157E+06    -204.852E+06    -31.6176E+06    -204.850E+06    -13.1420E+06     104.025E+03
             746     28.7536E-03     3.88885E-03     28.4894E-03     56.9469E-03    -28.4349E-03    -28.5155E-03    -28.3762E-03     56.8845E-03    -28.5118E-03     4.58429E-03     59.9643E-03     197.582E+06    -19.2476E+06    -35.1121E+06    -224.274E+06    -35.1218E+06    -224.264E+06    -19.2476E+06    -1.08614E+06
             747     28.6337E-03     2.91669E-03     28.4847E-03     56.9911E-03    -28.4817E-03    -28.5122E-03    -28.4747E-03     56.9542E-03    -28.4823E-03     3.50235E-03     58.7444E-03     199.423E+06    -26.8623E+06    -38.9208E+06    -232.034E+06    -38.9339E+06    -232.021E+06    -26.8623E+06    -1.53850E+06
             748     28.5479E-03     1.94450E-03     28.4816E-03     56.8564E-03    -28.3957E-03    -28.4631E-03    -28.4227E-03     56.8381E-03    -28.4178E-03     2.44956E-03     57.7930E-03     196.139E+06    -35.1766E+06    -41.7061E+06    -234.474E+06    -41.7142E+06    -234.466E+06    -35.1766E+06    -536.554E+03
             749     28.4960E-03     972.351E-06     28.4794E-03     56.7423E-03    -28.3221E-03    -28.4221E-03    -28.3520E-03     56.7364E-03    -28.3863E-03     1.16042E-03     57.3631E-03     193.135E+06    -41.1051E+06    -43.1085E+06    -235.232E+06    -42.7319E+06    -235.224E+06    -41.4898E+06    -134.110E+03
             750     32.3211E-03     16.5355E-03     27.7710E-03     76.3649E-03    -28.3577E-03    -47.9979E-03    -27.8683E-03     56.2353E-03    -28.3577E-03     90.5379E-03     228.928E-03     178.303E+06     191.206E+06     123.447E+06    -8.63960E+06    -8.63902E+06     191.205E+06     123.447E+06     39.5199E+03
             751     31.7301E-03     15.5622E-03     27.6517E-03     74.9908E-03    -28.0485E-03    -46.9417E-03    -27.9240E-03     55.9731E-03    -28.0485E-03     86.8770E-03     212.127E-03     165.809E+06     170.492E+06     50.0352E+06    -14.5191E+06    -14.5176E+06     170.490E+06     50.0352E+06     209.144E+03
             752     31.2053E-03     14.5877E-03     27.5856E-03     61.5969E-03    -27.7916E-03    -33.8172E-03    -27.2617E-03     55.0414E-03    -27.7916E-03     46.4631E-03     152.544E-03     160.340E+06     145.049E+06    -2.46135E+06    -25.5210E+06    -16.2605E+06     145.045E+06    -11.7185E+06     685.378E+03
             753     30.7332E-03     13.6154E-03     27.5526E-03     57.4275E-03    -27.7857E-03    -29.6471E-03    -27.3283E-03     55.1087E-03    -27.7857E-03     27.8105E-03     124.220E-03     112.510E+06     87.1508E+06    -16.3635E+06    -32.4559E+06    -16.3582E+06     87.1456E+06    -32.4559E+06     163.594E+03
             754     30.2918E-03     12.6421E-03     27.5276E-03     56.7231E-03    -27.9431E-03    -28.7771E-03    -27.4887E-03     55.4347E-03    -27.9431E-03     20.5158E-03     104.939E-03     35.1091E+06     12.5655E+06    -17.3078E+06    -25.7807E+06    -16.0717E+06     11.3294E+06    -25.7807E+06    -128.400E+03
             755     29.8823E-03     11.6691E-03     27.5097E-03     56.4688E-03    -28.0746E-03    -28.4203E-03    -27.7009E-03     55.7495E-03    -28.0746E-03     15.4980E-03     93.6265E-03     26.5916E+06    -13.2084E+06    -17.0820E+06    -41.3713E+06    -15.8492E+06    -39.7286E+06    -16.0839E+06     146.602E+03
             756     29.5026E-03     10.6964E-03     27.4953E-03     56.5396E-03    -28.1781E-03    -28.3674E-03    -27.8205E-03     55.9927E-03    -28.1781E-03     13.5728E-03     86.1489E-03     64.2497E+06    -7.88197E+06    -16.3313E+06    -75.9303E+06    -16.3322E+06    -75.9294E+06    -7.88197E+06     223.596E+03
             757     29.1509E-03     9.72366E-03     27.4814E-03     56.5702E-03    -28.1942E-03    -28.3401E-03    -27.8664E-03     56.1675E-03    -28.2652E-03     11.5698E-03     79.2344E-03     93.3675E+06    -1.63457E+06    -17.4133E+06    -101.870E+06    -17.4156E+06    -101.867E+06    -1.63457E+06     424.155E+03
             758     28.8308E-03     8.75091E-03     27.4706E-03     56.6015E-03    -28.2477E-03    -28.3404E-03    -27.9752E-03     56.3253E-03    -28.3368E-03     9.65570E-03     73.8860E-03     115.962E+06     1.81819E+06    -19.5256E+06    -123.332E+06    -19.5293E+06    -123.329E+06     1.81819E+06     610.475E+03
             759     28.5412E-03     7.77847E-03     27.4608E-03     56.7304E-03    -28.3491E-03    -28.3862E-03    -28.1317E-03     56.5027E-03    -28.3759E-03     8.78052E-03     69.9375E-03     132.635E+06     12.3916E+03    -22.0312E+06    -142.253E+06    -22.0364E+06    -142.248E+06     12.3916E+03     745.317E+03
             760     28.2830E-03     6.80614E-03     27.4519E-03     56.7527E-03    -28.3512E-03    -28.4080E-03    -28.1806E-03     56.5754E-03    -28.4012E-03     7.73708E-03     66.5034E-03     148.412E+06    -3.62693E+06    -24.6423E+06    -161.421E+06    -24.6462E+06    -161.417E+06    -3.62693E+06     604.214E+03
             761     28.0573E-03     5.83370E-03     27.4441E-03     56.7781E-03    -28.3536E-03    -28.4291E-03    -28.2242E-03     56.6488E-03    -28.4291E-03     6.61049E-03     63.7297E-03     164.427E+06    -8.04398E+06    -27.5587E+06    -181.347E+06    -27.5606E+06    -181.345E+06    -8.04398E+06     343.842E+03
             762     27.8649E-03     4.86140E-03     27.4376E-03     56.8487E-03    -28.3930E-03    -28.4592E-03    -28.3059E-03     56.7566E-03    -28.4542E-03     5.57721E-03     61.5771E-03     182.504E+06    -13.0768E+06    -30.6773E+06    -203.736E+06    -30.6795E+06    -203.734E+06    -13.0768E+06    -146.248E+03
             763     27.7062E-03     3.88907E-03     27.4319E-03     56.8592E-03    -28.3990E-03    -28.4637E-03    -28.3452E-03     56.7967E-03    -28.4550E-03     4.58962E-03     59.8702E-03     196.970E+06    -19.4927E+06    -34.3771E+06    -223.472E+06    -34.3843E+06    -223.465E+06    -19.4927E+06    -1.04565E+06
             764     27.5821E-03     2.91684E-03     27.4274E-03     56.8463E-03    -28.3982E-03    -28.4501E-03    -28.3753E-03     56.8085E-03    -28.4351E-03     3.54177E-03     58.5562E-03     200.322E+06    -27.1846E+06    -38.2649E+06    -232.809E+06    -38.2820E+06    -232.792E+06    -27.1846E+06    -1.75839E+06
             765     27.4933E-03     1.94468E-03     27.4245E-03     56.7774E-03    -28.3683E-03    -28.4114E-03    -28.3636E-03     56.7597E-03    -28.3984E-03     2.37535E-03     57.7077E-03     197.713E+06    -34.7529E+06    -41.8890E+06    -235.922E+06    -41.9031E+06    -235.908E+06    -34.7529E+06    -1.56735E+06
             766     27.4396E-03     972.115E-06     27.4224E-03     56.7066E-03    -28.2783E-03    -28.4294E-03    -28.3599E-03     56.7012E-03    -28.3425E-03     1.15641E-03     57.3711E-03     192.821E+06    -41.2758E+06    -44.3874E+06    -235.621E+06    -43.9361E+06    -235.617E+06    -41.7313E+06    -433.773E+03
             767     31.4151E-03     16.5351E-03     26.7114E-03     76.4474E-03    -28.3541E-03    -48.0740E-03    -27.8869E-03     56.2603E-03    -28.3541E-03     90.7843E-03     229.017E-03     178.952E+06     191.747E+06     122.674E+06    -8.96612E+06    -8.96541E+06     191.747E+06     122.674E+06     284.428E+03
             768     30.8136E-03     15.5622E-03     26.5950E-03     75.2105E-03    -28.0401E-03    -47.1687E-03    -28.1367E-03     56.1786E-03    -28.0401E-03     87.1269E-03     212.323E-03     166.249E+06     170.836E+06     49.6881E+06    -14.7699E+06    -14.7692E+06     170.835E+06     49.6881E+06     240.830E+03
             769     30.2753E-03     14.5893E-03     26.5282E-03     61.5557E-03    -27.7834E-03    -33.7815E-03    -27.1232E-03     54.8974E-03    -27.7834E-03     46.8778E-03     152.430E-03     159.856E+06     144.357E+06    -2.77245E+06    -25.6431E+06    -16.6941E+06     144.355E+06    -11.7193E+06     418.265E+03
             770     29.7890E-03     13.6147E-03     26.4958E-03     57.2577E-03    -27.7904E-03    -29.4780E-03    -27.1120E-03     54.8917E-03    -27.7904E-03     27.9907E-03     124.036E-03     112.264E+06     87.3465E+06    -16.1088E+06    -31.8832E+06    -16.0952E+06     87.3329E+06    -31.8832E+06     737.822E+03
             771     29.3338E-03     12.6417E-03     26.4700E-03     56.7825E-03    -27.9522E-03    -28.8394E-03    -27.5565E-03     55.4997E-03    -27.9522E-03     20.4574E-03     105.057E-03     35.0637E+06     12.7501E+06    -17.2828E+06    -25.5634E+06    -15.8919E+06     11.3592E+06    -25.5634E+06     431.337E+03
             772     28.9121E-03     11.6690E-03     26.4527E-03     56.4842E-03    -28.0777E-03    -28.4417E-03    -27.7309E-03     55.7734E-03    -28.0777E-03     15.4228E-03     93.6785E-03     26.3031E+06    -13.5665E+06    -17.4733E+06    -41.4074E+06    -16.0956E+06    -39.9490E+06    -16.4026E+06     180.884E+03
             773     28.5195E-03     10.6961E-03     26.4377E-03     56.6062E-03    -28.1759E-03    -28.4390E-03    -27.8957E-03     56.0629E-03    -28.1759E-03     13.5325E-03     86.2334E-03     64.0839E+06    -8.04388E+06    -16.4588E+06    -75.9088E+06    -16.4613E+06    -75.9063E+06    -8.04388E+06     348.736E+03
             774     28.1564E-03     9.72370E-03     26.4241E-03     56.6494E-03    -28.2234E-03    -28.3882E-03    -27.9649E-03     56.2564E-03    -28.2537E-03     11.4458E-03     79.3397E-03     93.1078E+06    -1.86006E+06    -17.6628E+06    -101.843E+06    -17.6650E+06    -101.841E+06    -1.86006E+06     428.770E+03
             775     27.8253E-03     8.75116E-03     26.4134E-03     56.6468E-03    -28.2828E-03    -28.3470E-03    -28.0413E-03     56.3714E-03    -28.3132E-03     9.65038E-03     73.9006E-03     115.596E+06     1.35970E+06    -19.6095E+06    -123.284E+06    -19.6122E+06    -123.281E+06     1.35970E+06     513.636E+03
             776     27.5253E-03     7.77871E-03     26.4033E-03     56.7137E-03    -28.3456E-03    -28.3710E-03    -28.1474E-03     56.4900E-03    -28.3456E-03     8.69368E-03     69.9178E-03     132.574E+06    -194.292E+03    -21.9563E+06    -142.295E+06    -21.9590E+06    -142.293E+06    -194.292E+03     539.252E+03
             777     27.2580E-03     6.80633E-03     26.3946E-03     56.7040E-03    -28.3336E-03    -28.3772E-03    -28.1723E-03     56.5325E-03    -28.3670E-03     7.61453E-03     66.4607E-03     147.958E+06    -3.74094E+06    -24.7140E+06    -161.060E+06    -24.7162E+06    -161.058E+06    -3.74094E+06     537.318E+03
             778     27.0240E-03     5.83392E-03     26.3868E-03     56.7225E-03    -28.3385E-03    -28.3886E-03    -28.2098E-03     56.5938E-03    -28.3886E-03     6.59083E-03     63.6621E-03     163.377E+06    -8.58572E+06    -27.8424E+06    -180.727E+06    -27.8436E+06    -180.726E+06    -8.58572E+06     144.095E+03
             779     26.8243E-03     4.86158E-03     26.3801E-03     56.7931E-03    -28.3848E-03    -28.4117E-03    -28.2976E-03     56.7008E-03    -28.4067E-03     5.58141E-03     61.5187E-03     181.298E+06    -13.9173E+06    -30.9856E+06    -203.138E+06    -30.9864E+06    -203.137E+06    -13.9173E+06    -364.242E+03
             780     26.6599E-03     3.88942E-03     26.3747E-03     56.7645E-03    -28.3608E-03    -28.4080E-03    -28.3038E-03     56.7025E-03    -28.4030E-03     4.56272E-03     59.7685E-03     195.739E+06    -20.2757E+06    -34.4176E+06    -222.691E+06    -34.4206E+06    -222.688E+06    -20.2757E+06    -719.211E+03
             781     26.5312E-03     2.91688E-03     26.3704E-03     56.6960E-03    -28.3045E-03    -28.3936E-03    -28.2669E-03     56.6584E-03    -28.3936E-03     3.54116E-03     58.3905E-03     199.734E+06    -28.4414E+06    -38.2924E+06    -232.909E+06    -38.3031E+06    -232.898E+06    -28.4414E+06    -1.28285E+06
             782     26.4385E-03     1.94446E-03     26.3669E-03     56.7205E-03    -28.3284E-03    -28.3926E-03    -28.3224E-03     56.7025E-03    -28.3805E-03     2.37860E-03     57.6149E-03     198.593E+06    -35.8840E+06    -41.7023E+06    -237.306E+06    -41.7239E+06    -237.284E+06    -35.8840E+06    -1.85680E+06
             783     26.3835E-03     972.521E-06     26.3655E-03     56.7001E-03    -28.2342E-03    -28.4662E-03    -28.4609E-03     56.6948E-03    -28.2342E-03     1.24943E-03     57.3031E-03     194.261E+06    -41.3871E+06    -44.8164E+06    -237.327E+06    -44.3749E+06    -237.313E+06    -41.8426E+06    -1.28276E+06
             784     30.5241E-03     16.5359E-03     25.6570E-03     76.3565E-03    -28.3458E-03    -47.9835E-03    -27.7029E-03     56.0758E-03    -28.3458E-03     90.6149E-03     228.546E-03     178.542E+06     191.808E+06     122.151E+06    -8.39351E+06    -8.38861E+06     191.803E+06     122.151E+06     869.361E+03
             785     29.9027E-03     15.5612E-03     25.5347E-03     75.1596E-03    -28.0396E-03    -47.1208E-03    -27.8593E-03     55.8981E-03    -28.0396E-03     87.2844E-03     212.334E-03     166.789E+06     171.409E+06     48.0416E+06    -14.2348E+06    -14.2308E+06     171.405E+06     48.0416E+06     461.388E+03
             786     29.3543E-03     14.5881E-03     25.4728E-03     61.6526E-03    -27.7868E-03    -33.8750E-03    -27.3157E-03     55.0932E-03    -27.7868E-03     46.7570E-03     152.688E-03     160.538E+06     143.906E+06    -4.46822E+06    -26.4624E+06    -17.0314E+06     143.905E+06    -13.8985E+06     101.156E+03
             787     28.8521E-03     13.6149E-03     25.4377E-03     57.4533E-03    -27.7893E-03    -29.6687E-03    -27.2726E-03     55.0572E-03    -27.7893E-03     28.1744E-03     124.095E-03     112.825E+06     87.0414E+06    -16.8528E+06    -32.8791E+06    -16.8395E+06     87.0281E+06    -32.8791E+06     726.074E+03
             788     28.3838E-03     12.6421E-03     25.4129E-03     56.7394E-03    -27.9486E-03    -28.8047E-03    -27.5563E-03     55.4910E-03    -27.9486E-03     20.2001E-03     105.055E-03     35.7837E+06     13.5820E+06    -17.3875E+06    -25.4126E+06    -15.6513E+06     11.8457E+06    -25.4126E+06     806.868E+03
             789     27.9479E-03     11.6690E-03     25.3952E-03     56.5141E-03    -28.0706E-03    -28.4909E-03    -27.7897E-03     55.8129E-03    -28.0706E-03     15.3232E-03     93.7504E-03     26.8764E+06    -12.9610E+06    -17.0575E+06    -41.3111E+06    -15.3363E+06    -39.7942E+06    -16.1991E+06     507.326E+03
             790     27.5422E-03     10.6965E-03     25.3802E-03     56.6338E-03    -28.1618E-03    -28.4875E-03    -27.9563E-03     56.1026E-03    -28.1618E-03     13.3874E-03     86.2511E-03     64.2330E+06    -8.08589E+06    -15.9073E+06    -75.8603E+06    -15.9112E+06    -75.8564E+06    -8.08589E+06     461.712E+03
             791     27.1663E-03     9.72384E-03     25.3665E-03     56.6914E-03    -28.2308E-03    -28.4223E-03    -28.0415E-03     56.3107E-03    -28.2308E-03     11.2677E-03     79.3702E-03     93.0498E+06    -1.91006E+06    -17.2808E+06    -101.667E+06    -17.2843E+06    -101.663E+06    -1.91006E+06     525.160E+03
             792     26.8237E-03     8.75148E-03     25.3559E-03     56.6564E-03    -28.2799E-03    -28.3527E-03    -28.0843E-03     56.3880E-03    -28.2799E-03     9.53302E-03     73.8820E-03     115.379E+06     1.22625E+06    -19.3202E+06    -123.043E+06    -19.3236E+06    -123.039E+06     1.22625E+06     571.520E+03
             793     26.5128E-03     7.77902E-03     25.3459E-03     56.6416E-03    -28.3070E-03    -28.3320E-03    -28.1104E-03     56.4205E-03    -28.3074E-03     8.63681E-03     69.8084E-03     132.596E+06    -612.409E+03    -21.8889E+06    -142.555E+06    -21.8916E+06    -142.552E+06    -612.409E+03     516.952E+03
             794     26.2355E-03     6.80659E-03     25.3372E-03     56.6427E-03    -28.3151E-03    -28.3321E-03    -28.1501E-03     56.4742E-03    -28.3286E-03     7.54287E-03     66.3821E-03     147.706E+06    -3.95345E+06    -24.7145E+06    -160.936E+06    -24.7168E+06    -160.933E+06    -3.95345E+06     519.432E+03
             795     25.9928E-03     5.83419E-03     25.3296E-03     56.6436E-03    -28.3011E-03    -28.3473E-03    -28.1726E-03     56.5152E-03    -28.3473E-03     6.58534E-03     63.5685E-03     162.240E+06    -8.81816E+06    -27.7546E+06    -179.683E+06    -27.7558E+06    -179.681E+06    -8.81816E+06     204.635E+03
             796     25.7852E-03     4.86178E-03     25.3227E-03     56.6791E-03    -28.3133E-03    -28.3700E-03    -28.2202E-03     56.5860E-03    -28.3700E-03     5.59628E-03     61.3921E-03     180.644E+06    -14.2444E+06    -31.1203E+06    -202.728E+06    -31.1211E+06    -202.727E+06    -14.2444E+06    -343.826E+03
             797     25.6144E-03     3.88930E-03     25.3174E-03     56.6999E-03    -28.3345E-03    -28.3703E-03    -28.2731E-03     56.6386E-03    -28.3703E-03     4.53685E-03     59.6929E-03     195.110E+06    -20.8206E+06    -34.7399E+06    -222.504E+06    -34.7417E+06    -222.503E+06    -20.8206E+06    -560.546E+03
             798     25.4806E-03     2.91716E-03     25.3131E-03     56.6470E-03    -28.2954E-03    -28.3548E-03    -28.2588E-03     56.6104E-03    -28.3548E-03     3.48600E-03     58.3353E-03     199.069E+06    -29.1569E+06    -38.0036E+06    -232.486E+06    -38.0086E+06    -232.481E+06    -29.1569E+06    -892.845E+03
             799     25.3846E-03     1.94465E-03     25.3100E-03     56.6286E-03    -28.2723E-03    -28.3573E-03    -28.2645E-03     56.6104E-03    -28.3469E-03     2.42441E-03     57.4864E-03     199.989E+06    -36.6828E+06    -40.4691E+06    -238.526E+06    -40.4864E+06    -238.509E+06    -36.6828E+06    -1.64949E+06
             800     25.3263E-03     972.092E-06     25.3077E-03     56.6747E-03    -28.2233E-03    -28.4511E-03    -28.4182E-03     56.6691E-03    -28.2506E-03     1.16581E-03     57.1897E-03     197.927E+06    -40.6975E+06    -43.1269E+06    -239.825E+06    -42.3872E+06    -239.806E+06    -41.4568E+06    -1.75582E+06
             801     29.6405E-03     16.5359E-03     24.5993E-03     76.2888E-03    -28.3405E-03    -47.9238E-03    -27.8083E-03     56.1733E-03    -28.3405E-03     90.2520E-03     228.538E-03     177.589E+06     191.392E+06     121.880E+06    -7.60802E+06    -7.60281E+06     191.387E+06     121.880E+06     920.875E+03
             802     29.0068E-03     15.5619E-03     24.4791E-03     75.0081E-03    -28.0259E-03    -46.9695E-03    -27.7261E-03     55.7647E-03    -28.0259E-03     87.2412E-03     212.308E-03     166.789E+06     171.363E+06     46.4032E+06    -13.6739E+06    -13.6643E+06     171.353E+06     46.4032E+06     984.662E+03
             803     28.4403E-03     14.5877E-03     24.4141E-03     61.7210E-03    -27.7798E-03    -33.9457E-03    -27.4313E-03     55.2067E-03    -27.7798E-03     46.2578E-03     152.897E-03     160.785E+06     144.306E+06    -5.11483E+06    -25.8268E+06    -16.1591E+06     144.300E+06    -14.7763E+06     601.370E+03
             804     27.9250E-03     13.6154E-03     24.3809E-03     57.4775E-03    -27.7806E-03    -29.6936E-03    -27.4197E-03     55.2036E-03    -27.7806E-03     27.5936E-03     124.228E-03     112.500E+06     87.1655E+06    -16.1761E+06    -32.5614E+06    -16.1727E+06     87.1621E+06    -32.5614E+06     475.666E+03
             805     27.4409E-03     12.6418E-03     24.3555E-03     56.7315E-03    -27.9332E-03    -28.8100E-03    -27.5332E-03     55.4547E-03    -27.9332E-03     20.3860E-03     104.979E-03     35.7229E+06     13.8042E+06    -16.8882E+06    -25.2176E+06    -15.0281E+06     11.9441E+06    -25.2176E+06     800.323E+03
             806     26.9909E-03     11.6694E-03     24.3379E-03     56.5935E-03    -28.0496E-03    -28.5995E-03    -27.9109E-03     55.9049E-03    -28.0496E-03     15.1883E-03     93.8391E-03     27.4250E+06    -12.3552E+06    -16.3785E+06    -41.1876E+06    -14.5278E+06    -39.4286E+06    -15.9647E+06     884.904E+03
             807     26.5710E-03     10.6966E-03     24.3229E-03     56.6143E-03    -28.1314E-03    -28.5076E-03    -27.9897E-03     56.0964E-03    -28.1314E-03     13.2266E-03     86.2005E-03     64.3880E+06    -8.21540E+06    -15.2448E+06    -75.8176E+06    -15.2551E+06    -75.8072E+06    -8.21540E+06     729.465E+03
             808     26.1820E-03     9.72431E-03     24.3092E-03     56.6508E-03    -28.1963E-03    -28.4204E-03    -28.0436E-03     56.2739E-03    -28.1963E-03     11.2016E-03     79.3025E-03     93.1646E+06    -1.93863E+06    -16.6278E+06    -101.546E+06    -16.6350E+06    -101.538E+06    -1.93863E+06     764.927E+03
             809     25.8265E-03     8.75180E-03     24.2984E-03     56.6000E-03    -28.2433E-03    -28.3327E-03    -28.0708E-03     56.3381E-03    -28.2433E-03     9.41215E-03     73.8254E-03     115.554E+06     1.41592E+06    -18.6404E+06    -122.850E+06    -18.6482E+06    -122.842E+06     1.41592E+06     882.919E+03
             810     25.5041E-03     7.77933E-03     24.2887E-03     56.5601E-03    -28.2610E-03    -28.2943E-03    -28.0692E-03     56.3418E-03    -28.2678E-03     8.58004E-03     69.6917E-03     132.500E+06    -774.616E+03    -21.2356E+06    -142.308E+06    -21.2408E+06    -142.303E+06    -774.616E+03     713.820E+03
             811     25.2158E-03     6.80679E-03     24.2797E-03     56.5550E-03    -28.2672E-03    -28.2897E-03    -28.0989E-03     56.3867E-03    -28.2897E-03     7.53073E-03     66.2653E-03     147.574E+06    -4.24987E+06    -24.2997E+06    -160.820E+06    -24.3018E+06    -160.818E+06    -4.24987E+06     505.733E+03
             812     24.9638E-03     5.83442E-03     24.2724E-03     56.5618E-03    -28.2551E-03    -28.3115E-03    -28.1282E-03     56.4349E-03    -28.3115E-03     6.54008E-03     63.4749E-03     161.911E+06    -8.86071E+06    -27.5261E+06    -179.285E+06    -27.5282E+06    -179.283E+06    -8.86071E+06     443.799E+03
             813     24.7479E-03     4.86186E-03     24.2657E-03     56.5792E-03    -28.2447E-03    -28.3387E-03    -28.1530E-03     56.4876E-03    -28.3387E-03     5.54803E-03     61.2770E-03     180.010E+06    -14.2819E+06    -31.1809E+06    -202.140E+06    -31.1824E+06    -202.138E+06    -14.2819E+06     118.381E+03
             814     24.5702E-03     3.88957E-03     24.2604E-03     56.6128E-03    -28.2701E-03    -28.3462E-03    -28.2091E-03     56.5518E-03    -28.3462E-03     4.51969E-03     59.5889E-03     194.557E+06    -21.3135E+06    -35.1297E+06    -222.394E+06    -35.1314E+06    -222.393E+06    -21.3135E+06    -354.960E+03
             815     24.4307E-03     2.91699E-03     24.2560E-03     56.6317E-03    -28.3009E-03    -28.3328E-03    -28.2703E-03     56.5951E-03    -28.3268E-03     3.48059E-03     58.3101E-03     197.965E+06    -30.1441E+06    -38.4508E+06    -232.115E+06    -38.4555E+06    -232.111E+06    -30.1441E+06    -831.929E+03
             816     24.3309E-03     1.94478E-03     24.2530E-03     56.5819E-03    -28.2671E-03    -28.3159E-03    -28.2545E-03     56.5634E-03    -28.3099E-03     2.46060E-03     57.4223E-03     199.314E+06    -37.4019E+06    -41.4620E+06    -238.711E+06    -41.4673E+06    -238.706E+06    -37.4019E+06    -847.071E+03
             817     24.2701E-03     972.471E-06     24.2506E-03     56.5896E-03    -28.2345E-03    -28.3550E-03    -28.3090E-03     56.5833E-03    -28.2742E-03     1.24638E-03     57.0728E-03     198.861E+06    -42.1577E+06    -44.7823E+06    -242.318E+06    -44.0306E+06    -242.310E+06     -42.917E+06    -860.916E+03
             818     28.7667E-03     16.5352E-03     23.5395E-03     76.1185E-03    -28.3479E-03    -47.7514E-03    -27.8422E-03     56.2092E-03    -28.3479E-03     89.9203E-03     228.869E-03     177.621E+06     191.099E+06     122.094E+06    -7.98210E+06    -7.98065E+06     191.098E+06     122.094E+06     240.545E+03
             819     28.1222E-03     15.5619E-03     23.4241E-03     75.2171E-03    -28.0230E-03    -47.1852E-03    -28.1087E-03     56.1406E-03    -28.0230E-03     87.3062E-03     212.644E-03     166.644E+06     171.811E+06     47.9818E+06    -13.2465E+06    -13.2379E+06     171.802E+06     47.9818E+06     1.03898E+06
             820     27.5369E-03     14.5887E-03     23.3549E-03     61.7933E-03    -27.7618E-03    -34.0343E-03    -27.3946E-03     55.1536E-03    -27.7618E-03     46.5639E-03     152.673E-03     159.630E+06     144.096E+06    -3.65413E+06    -25.2134E+06    -15.0506E+06     144.085E+06    -13.8056E+06     1.22026E+06
             821     27.0077E-03     13.6155E-03     23.3245E-03     57.3883E-03    -27.7612E-03    -29.6254E-03    -27.4059E-03     55.1689E-03    -27.7612E-03     27.2842E-03     124.251E-03     111.612E+06     87.2652E+06    -14.4965E+06    -31.9660E+06    -14.4798E+06     87.2485E+06    -31.9660E+06     970.301E+03
             822     26.5069E-03     12.6423E-03     23.2979E-03     56.9019E-03    -27.9041E-03    -29.0076E-03    -27.7364E-03     55.6307E-03    -27.9041E-03     20.3393E-03     105.056E-03     35.9053E+06     14.3228E+06    -16.1809E+06    -25.0907E+06    -14.0101E+06     12.1519E+06    -25.0907E+06     1.06116E+06
             823     26.0412E-03     11.6697E-03     23.2801E-03     56.5162E-03    -28.0101E-03    -28.5586E-03    -27.8971E-03     55.8548E-03    -28.0101E-03     14.8849E-03     93.6899E-03     27.6737E+06    -12.3812E+06    -16.1873E+06    -41.2577E+06    -14.0456E+06    -39.5317E+06    -16.2489E+06     1.09917E+06
             824     25.6070E-03     10.6973E-03     23.2655E-03     56.5336E-03    -28.0907E-03    -28.4676E-03    -27.9565E-03     56.0225E-03    -28.0907E-03     13.1353E-03     86.0800E-03     64.2426E+06    -8.46047E+06    -14.6810E+06    -75.5697E+06    -14.7093E+06    -75.5414E+06    -8.46047E+06     1.24665E+06
             825     25.2031E-03     9.72455E-03     23.2515E-03     56.5504E-03    -28.1569E-03    -28.3629E-03    -27.9854E-03     56.1729E-03    -28.1569E-03     11.1963E-03     79.1370E-03     93.1345E+06    -2.26859E+06    -16.0879E+06    -101.513E+06    -16.1072E+06    -101.494E+06    -2.26859E+06     1.21010E+06
             826     24.8346E-03     8.75209E-03     23.2413E-03     56.5117E-03    -28.2060E-03    -28.2847E-03    -28.0259E-03     56.2529E-03    -28.2060E-03     9.34833E-03     73.7011E-03     115.423E+06     1.18259E+06    -18.1384E+06    -122.679E+06    -18.1526E+06    -122.665E+06     1.18259E+06     1.21068E+06
             827     24.4995E-03     7.77963E-03     23.2315E-03     56.4940E-03    -28.2232E-03    -28.2650E-03    -28.0428E-03     56.2781E-03    -28.2296E-03     8.52954E-03     69.5788E-03     131.907E+06    -1.10096E+06    -20.9412E+06    -141.796E+06    -20.9525E+06    -141.785E+06    -1.10096E+06     1.11991E+06
             828     24.1999E-03     6.80707E-03     23.2228E-03     56.4695E-03    -28.2150E-03    -28.2551E-03    -28.0517E-03     56.3022E-03    -28.2511E-03     7.50128E-03     66.1269E-03     147.113E+06    -4.68511E+06    -23.9306E+06    -160.470E+06    -23.9374E+06    -160.463E+06    -4.68511E+06     885.227E+03
             829     23.9371E-03     5.83452E-03     23.2151E-03     56.4714E-03    -28.2000E-03    -28.2756E-03    -28.0754E-03     56.3468E-03    -28.2756E-03     6.47262E-03     63.3452E-03     161.509E+06    -9.42052E+06    -27.4064E+06    -179.160E+06    -27.4124E+06    -179.154E+06    -9.42052E+06     891.701E+03
             830     23.7125E-03     4.86215E-03     23.2087E-03     56.4964E-03    -28.1951E-03    -28.3055E-03    -28.1051E-03     56.4065E-03    -28.3055E-03     5.49450E-03     61.1669E-03     179.176E+06    -14.7798E+06    -31.1224E+06    -201.562E+06    -31.1262E+06    -201.558E+06    -14.7798E+06     733.090E+03
             831     23.5270E-03     3.88945E-03     23.2032E-03     56.5324E-03    -28.2152E-03    -28.3210E-03    -28.1545E-03     56.4717E-03    -28.3210E-03     4.50726E-03     59.4953E-03     194.019E+06    -21.1531E+06    -34.9099E+06    -221.673E+06    -34.9125E+06    -221.671E+06    -21.1531E+06     241.470E+03
             832     23.3816E-03     2.91718E-03     23.1989E-03     56.5652E-03    -28.2502E-03    -28.3179E-03    -28.2203E-03     56.5293E-03    -28.3119E-03     3.44128E-03     58.2373E-03     197.658E+06    -30.0429E+06    -39.0449E+06    -232.035E+06    -39.0470E+06    -232.033E+06    -30.0429E+06    -147.206E+03
             833     23.2771E-03     1.94473E-03     23.1957E-03     56.5563E-03    -28.2592E-03    -28.2998E-03    -28.2491E-03     56.5386E-03    -28.2921E-03     2.40915E-03     57.3598E-03     198.745E+06    -37.9456E+06    -42.6153E+06    -238.977E+06    -42.6156E+06    -238.977E+06    -37.9456E+06    -182.792E+03
             834     23.2145E-03     972.227E-06     23.1941E-03     56.5456E-03    -28.2126E-03    -28.3348E-03    -28.3157E-03     56.5389E-03    -28.2250E-03     1.40272E-03     56.9777E-03     198.977E+06    -42.9166E+06    -45.5065E+06    -243.176E+06    -44.8825E+06    -243.176E+06    -43.5408E+06     41.6704E+03
             835     27.9099E-03     16.5354E-03     22.4843E-03     76.2137E-03    -28.3413E-03    -47.8493E-03    -27.8689E-03     56.2334E-03    -28.3413E-03     90.1201E-03     228.715E-03     177.891E+06     190.808E+06     121.707E+06    -8.67047E+06    -8.66921E+06     190.807E+06     121.707E+06    -162.099E+03
             836     27.2452E-03     15.5618E-03     22.3636E-03     75.2986E-03    -28.0115E-03    -47.2773E-03    -28.3052E-03     56.3264E-03    -28.0115E-03     87.0230E-03     212.501E-03     166.820E+06     171.226E+06     47.8978E+06    -14.2016E+06    -14.1983E+06     171.223E+06     47.8978E+06     201.206E+03
             837     26.6478E-03     14.5889E-03     22.2996E-03     61.6463E-03    -27.7423E-03    -33.9084E-03    -27.3973E-03     55.1352E-03    -27.7423E-03     46.3964E-03     152.434E-03     159.792E+06     143.508E+06    -3.92563E+06    -26.2821E+06    -15.6939E+06     143.498E+06    -14.5035E+06     1.06900E+06
             838     26.0987E-03     13.6150E-03     22.2660E-03     57.5707E-03    -27.7329E-03    -29.8432E-03    -27.5743E-03     55.3018E-03    -27.7329E-03     27.5179E-03     124.235E-03     112.796E+06     87.9005E+06    -14.8204E+06    -32.6949E+06    -14.7897E+06     87.8698E+06    -32.6949E+06     1.56807E+06
             839     25.5830E-03     12.6434E-03     22.2404E-03     56.9604E-03    -27.8635E-03    -29.1067E-03    -27.8855E-03     55.7393E-03    -27.8635E-03     20.0383E-03     105.011E-03     37.1602E+06     15.2111E+06    -16.8741E+06    -25.4669E+06    -14.1208E+06     12.4578E+06    -25.4669E+06     1.55768E+06
             840     25.1010E-03     11.6704E-03     22.2230E-03     56.3840E-03    -27.9643E-03    -28.4648E-03    -27.7931E-03     55.7123E-03    -27.9643E-03     14.9752E-03     93.3410E-03     27.7156E+06    -12.5041E+06    -16.6671E+06    -41.2816E+06    -13.9703E+06    -39.7368E+06    -16.7457E+06     1.60113E+06
             841     24.6502E-03     10.6975E-03     22.2081E-03     56.4488E-03    -28.0478E-03    -28.4222E-03    -27.9110E-03     55.9377E-03    -28.0478E-03     13.1216E-03     85.8741E-03     63.9938E+06    -8.73896E+06    -14.2201E+06    -75.2780E+06    -14.2748E+06    -75.2233E+06    -8.73896E+06     1.75870E+06
             842     24.2316E-03     9.72502E-03     22.1945E-03     56.4666E-03    -28.1149E-03    -28.3218E-03    -27.9495E-03     56.0943E-03    -28.1149E-03     11.1134E-03     78.9262E-03     93.0721E+06    -2.63083E+06    -15.6759E+06    -101.505E+06    -15.7154E+06    -101.466E+06    -2.63083E+06     1.79470E+06
             843     23.8480E-03     8.75239E-03     22.1839E-03     56.4082E-03    -28.1639E-03    -28.2259E-03    -27.9736E-03     56.1559E-03    -28.1639E-03     9.21954E-03     73.4860E-03     114.990E+06     526.820E+03    -18.0869E+06    -122.633E+06    -18.1161E+06    -122.603E+06     526.820E+03     1.68318E+06
             844     23.4994E-03     7.77982E-03     22.1742E-03     56.4161E-03    -28.1879E-03    -28.2225E-03    -28.0142E-03     56.2078E-03    -28.1879E-03     8.37429E-03     69.4252E-03     131.212E+06    -1.51305E+06    -20.8054E+06    -141.296E+06    -20.8289E+06    -141.273E+06    -1.51305E+06     1.64809E+06
             845     23.1871E-03     6.80733E-03     22.1653E-03     56.3882E-03    -28.1720E-03    -28.2167E-03    -28.0192E-03     56.2265E-03    -28.2078E-03     7.36665E-03     65.9647E-03     146.357E+06    -5.32320E+06    -23.9708E+06    -160.106E+06    -23.9925E+06    -160.084E+06    -5.32320E+06     1.65736E+06
             846     22.9136E-03     5.83483E-03     22.1583E-03     56.3705E-03    -28.1430E-03    -28.2323E-03    -28.0225E-03     56.2500E-03    -28.2323E-03     6.36153E-03     63.1893E-03     160.778E+06    -10.0358E+06    -27.2313E+06    -178.712E+06    -27.2454E+06    -178.697E+06    -10.0358E+06     1.41885E+06
             847     22.6789E-03     4.86208E-03     22.1516E-03     56.4289E-03    -28.1707E-03    -28.2625E-03    -28.0849E-03     56.3430E-03    -28.2625E-03     5.35669E-03     61.0692E-03     178.538E+06    -14.9906E+06    -30.7554E+06    -200.884E+06    -30.7639E+06    -200.876E+06    -14.9906E+06     1.15968E+06
             848     22.4852E-03     3.88981E-03     22.1462E-03     56.4534E-03    -28.1796E-03    -28.2780E-03    -28.1231E-03     56.3969E-03    -28.2780E-03     4.34729E-03     59.3982E-03     193.575E+06    -20.9503E+06    -34.8314E+06    -221.085E+06    -34.8383E+06    -221.078E+06    -20.9503E+06     1.07164E+06
             849     22.3333E-03     2.91716E-03     22.1420E-03     56.4520E-03    -28.1805E-03    -28.2759E-03    -28.1466E-03     56.4181E-03    -28.2759E-03     3.33968E-03     58.1120E-03     197.644E+06    -29.2290E+06    -39.0174E+06    -231.573E+06    -39.0217E+06    -231.569E+06    -29.2290E+06     754.777E+03
             850     22.2243E-03     1.94474E-03     22.1391E-03     56.4999E-03    -28.2192E-03    -28.2849E-03    -28.2336E-03     56.4837E-03    -28.2544E-03     2.28813E-03     57.3047E-03     198.890E+06    -37.4253E+06    -42.5596E+06    -238.823E+06    -42.5608E+06    -238.822E+06    -37.4253E+06     271.771E+03
             851     22.1579E-03     972.522E-06     22.1366E-03     56.4498E-03    -28.1555E-03    -28.2962E-03    -28.2907E-03     56.4443E-03    -28.1555E-03     1.23590E-03     56.9071E-03     198.947E+06    -42.8555E+06    -45.3373E+06    -243.031E+06    -44.7134E+06    -243.031E+06    -43.4797E+06     187.220E+03
             852     27.0651E-03     16.5354E-03     21.4266E-03     76.3797E-03    -28.3292E-03    -48.0303E-03    -28.0520E-03     56.4014E-03    -28.3292E-03     90.1963E-03     228.412E-03     177.920E+06     191.061E+06     121.723E+06    -8.33588E+06    -8.33403E+06     191.059E+06     121.723E+06     119.528E+03
             853     26.3842E-03     15.5626E-03     21.3057E-03     75.0722E-03    -27.9901E-03    -47.0852E-03    -28.1422E-03     56.1291E-03    -27.9901E-03     86.7530E-03     211.976E-03     166.934E+06     169.996E+06     44.5292E+06    -14.5840E+06    -14.5819E+06     169.994E+06     44.5292E+06    -111.793E+03
             854     25.7699E-03     14.5887E-03     21.2429E-03     61.7852E-03    -27.7113E-03    -34.0917E-03    -27.6248E-03     55.3183E-03    -27.7113E-03     46.3440E-03     152.283E-03     161.245E+06     142.697E+06    -6.93829E+06    -28.0121E+06    -16.4208E+06     142.685E+06    -18.5173E+06     767.061E+03
             855     25.2028E-03     13.6167E-03     21.2077E-03     57.6704E-03    -27.6945E-03    -29.9823E-03    -27.7147E-03     55.4027E-03    -27.6945E-03     27.5334E-03     123.952E-03     113.607E+06     87.6178E+06    -15.5892E+06    -34.0479E+06    -15.5571E+06     87.5857E+06    -34.0479E+06     1.69372E+06
             856     24.6693E-03     12.6432E-03     21.1831E-03     56.7684E-03    -27.8288E-03    -28.9509E-03    -27.7560E-03     55.5734E-03    -27.8288E-03     19.7967E-03     104.694E-03     36.9140E+06     15.0306E+06    -17.0073E+06    -25.2845E+06    -14.4518E+06     12.4752E+06    -25.2845E+06     1.81285E+06
             857     24.1701E-03     11.6706E-03     21.1658E-03     56.4355E-03    -27.9260E-03    -28.5553E-03    -27.8844E-03     55.7645E-03    -27.9260E-03     14.9826E-03     93.1467E-03     27.4889E+06    -12.5327E+06    -16.6378E+06    -41.0696E+06    -14.1459E+06    -39.1884E+06    -16.9058E+06     2.03809E+06
             858     23.7027E-03     10.6981E-03     21.1511E-03     56.4422E-03    -27.9991E-03    -28.4621E-03    -27.9626E-03     55.9427E-03    -27.9991E-03     12.9660E-03     85.6416E-03     63.5735E+06    -9.33846E+06    -14.5126E+06    -75.3247E+06    -14.5889E+06    -75.2484E+06    -9.33846E+06     2.09690E+06
             859     23.2673E-03     9.72536E-03     21.1373E-03     56.4003E-03    -28.0597E-03    -28.3126E-03    -27.9619E-03     56.0496E-03    -28.0597E-03     10.7757E-03     78.6850E-03     92.7882E+06    -3.07641E+06    -15.5906E+06    -101.454E+06    -15.6524E+06    -101.393E+06    -3.07641E+06     2.27526E+06
             860     22.8682E-03     8.75283E-03     21.1268E-03     56.3070E-03    -28.1035E-03    -28.1893E-03    -27.9539E-03     56.0715E-03    -28.1035E-03     8.89636E-03     73.2159E-03     114.613E+06     320.742E+03    -17.6794E+06    -122.225E+06    -17.7298E+06    -122.175E+06     320.742E+03     2.25652E+06
             861     22.5048E-03     7.78028E-03     21.1171E-03     56.2949E-03    -28.1242E-03    -28.1681E-03    -27.9775E-03     56.1043E-03    -28.1242E-03     7.99638E-03     69.1849E-03     131.148E+06    -1.71258E+06    -20.5826E+06    -141.268E+06    -20.6302E+06    -141.221E+06    -1.71258E+06     2.36144E+06
             862     22.1792E-03     6.80769E-03     21.1085E-03     56.2569E-03    -28.1116E-03    -28.1478E-03    -27.9730E-03     56.1113E-03    -28.1408E-03     6.98082E-03     65.7398E-03     145.795E+06    -5.50904E+06    -23.8394E+06    -159.598E+06    -23.8833E+06    -159.554E+06    -5.50904E+06     2.39870E+06
             863     21.8931E-03     5.83501E-03     21.1012E-03     56.2484E-03    -28.0930E-03    -28.1599E-03    -27.9844E-03     56.1399E-03    -28.1599E-03     6.02603E-03     62.9882E-03     159.699E+06    -10.4570E+06    -27.4035E+06    -177.946E+06    -27.4346E+06    -177.915E+06    -10.4570E+06     2.09245E+06
             864     21.6480E-03     4.86261E-03     21.0948E-03     56.2897E-03    -28.1082E-03    -28.1846E-03    -28.0304E-03     56.2120E-03    -28.1846E-03     5.09440E-03     60.8727E-03     177.376E+06    -15.7588E+06    -31.3249E+06    -200.401E+06    -31.3510E+06    -200.375E+06    -15.7588E+06     2.00783E+06
             865     21.4450E-03     3.88996E-03     21.0892E-03     56.3122E-03    -28.1183E-03    -28.1971E-03    -28.0698E-03     56.2613E-03    -28.1946E-03     4.11539E-03     59.2172E-03     192.255E+06    -21.8303E+06    -35.4530E+06    -220.527E+06    -35.4737E+06    -220.507E+06    -21.8303E+06     1.87383E+06
             866     21.2863E-03     2.91749E-03     21.0854E-03     56.3103E-03    -28.1287E-03    -28.1858E-03    -28.1031E-03     56.2799E-03    -28.1810E-03     3.17217E-03     57.9464E-03     196.031E+06    -29.8594E+06    -39.3428E+06    -230.447E+06    -39.3564E+06    -230.434E+06    -29.8594E+06     1.54371E+06
             867     21.1712E-03     1.94499E-03     21.0817E-03     56.3071E-03    -28.1306E-03    -28.1794E-03    -28.1472E-03     56.2923E-03    -28.1481E-03     2.15751E-03     57.1009E-03     197.555E+06    -37.4608E+06    -42.8940E+06    -237.671E+06    -42.9002E+06    -237.664E+06    -37.4608E+06     902.196E+03
             868     21.1025E-03     972.528E-06     21.0800E-03     56.2215E-03    -28.0473E-03    -28.1739E-03    -28.1669E-03     56.2174E-03    -28.0501E-03     1.02869E-03     56.7056E-03     198.311E+06    -43.0686E+06    -46.0196E+06    -242.836E+06    -45.4184E+06    -242.836E+06    -43.6703E+06     296.270E+03
             869     26.2350E-03     16.5368E-03     20.3669E-03     76.3420E-03    -28.3208E-03    -47.9928E-03    -28.0706E-03     56.4198E-03    -28.3208E-03     89.9840E-03     228.221E-03     177.588E+06     190.620E+06     122.227E+06    -8.26247E+06    -8.26104E+06     190.619E+06     122.227E+06     311.694E+03
             870     25.5394E-03     15.5621E-03     20.2505E-03     75.1682E-03    -27.9914E-03    -47.1826E-03    -28.1661E-03     56.1517E-03    -27.9914E-03     86.9620E-03     211.874E-03     166.506E+06     170.275E+06     46.6074E+06    -14.5171E+06    -14.5062E+06     170.264E+06     46.6074E+06     842.522E+03
             871     24.9040E-03     14.5892E-03     20.1833E-03     62.0042E-03    -27.6887E-03    -34.3351E-03    -27.8533E-03     55.5224E-03    -27.6887E-03     46.3690E-03     152.076E-03     161.821E+06     142.595E+06    -5.54332E+06    -29.9538E+06    -16.9308E+06     142.577E+06    -18.5489E+06     866.327E+03
             872     24.3204E-03     13.6165E-03     20.1512E-03     57.5578E-03    -27.6482E-03    -29.9147E-03    -27.7154E-03     55.3585E-03    -27.6482E-03     27.1517E-03     123.611E-03     113.895E+06     86.3093E+06    -16.2640E+06    -36.2174E+06    -16.2279E+06     86.2732E+06    -36.2174E+06     1.27069E+06
             873     23.7676E-03     12.6438E-03     20.1255E-03     56.7615E-03    -27.7844E-03    -28.9882E-03    -27.8174E-03     55.5907E-03    -27.7844E-03     19.5272E-03     104.392E-03     36.7256E+06     14.4316E+06    -16.9051E+06    -25.7843E+06    -14.8209E+06     12.3474E+06    -25.7843E+06     1.94034E+06
             874     23.2501E-03     11.6712E-03     20.1085E-03     56.4960E-03    -27.8678E-03    -28.6696E-03    -28.0473E-03     55.8737E-03    -27.8678E-03     14.4505E-03     92.9374E-03     27.3270E+06    -12.9360E+06    -16.3769E+06    -41.2433E+06    -14.3784E+06    -38.7089E+06    -17.4689E+06     2.18758E+06
             875     22.7639E-03     10.6986E-03     20.0932E-03     56.4736E-03    -27.9235E-03    -28.5658E-03    -28.1095E-03     56.0173E-03    -27.9235E-03     12.3867E-03     85.3563E-03     63.2430E+06    -9.89435E+06    -14.6939E+06    -75.3757E+06    -14.7920E+06    -75.2776E+06    -9.89435E+06     2.36705E+06
             876     22.3118E-03     9.72632E-03     20.0802E-03     56.3164E-03    -27.9656E-03    -28.3229E-03    -28.0155E-03     56.0090E-03    -27.9656E-03     10.0702E-03     78.3112E-03     92.0046E+06    -3.86654E+06    -15.8869E+06    -101.263E+06    -15.9664E+06    -101.184E+06    -3.86654E+06     2.58492E+06
             877     21.8957E-03     8.75368E-03     20.0697E-03     56.1648E-03    -27.9961E-03    -28.1580E-03    -27.9547E-03     55.9616E-03    -27.9961E-03     8.25292E-03     72.8163E-03     113.928E+06    -269.033E+03    -17.8250E+06    -121.956E+06    -17.9090E+06    -121.872E+06    -269.033E+03     2.92400E+06
             878     21.5164E-03     7.78109E-03     20.0601E-03     56.1104E-03    -28.0062E-03    -28.1103E-03    -27.9497E-03     55.9499E-03    -28.0062E-03     7.31081E-03     68.7997E-03     130.860E+06    -2.06238E+06    -20.6499E+06    -141.217E+06    -20.7346E+06    -141.132E+06    -2.06238E+06     3.16127E+06
             879     21.1762E-03     6.80845E-03     20.0519E-03     56.0327E-03    -27.9964E-03    -28.0442E-03    -27.9111E-03     55.9137E-03    -28.0104E-03     6.29605E-03     65.3673E-03     144.761E+06    -6.00392E+06    -23.9555E+06    -158.901E+06    -24.0338E+06    -158.823E+06    -6.00392E+06     3.20469E+06
             880     20.8766E-03     5.83591E-03     20.0443E-03     55.9915E-03    -27.9761E-03    -28.0209E-03    -27.8869E-03     55.9024E-03    -28.0209E-03     5.44302E-03     62.6058E-03     158.594E+06    -10.9962E+06    -27.7018E+06    -177.274E+06    -27.7754E+06    -177.200E+06    -10.9962E+06     3.23965E+06
             881     20.6196E-03     4.86309E-03     20.0379E-03     56.0037E-03    -27.9678E-03    -28.0397E-03    -27.9042E-03     55.9401E-03    -28.0397E-03     4.59052E-03     60.4946E-03     176.163E+06    -16.3952E+06    -31.8015E+06    -199.753E+06    -31.8604E+06    -199.694E+06    -16.3952E+06     3.07667E+06
             882     20.4067E-03     3.89047E-03     20.0324E-03     56.0297E-03    -27.9887E-03    -28.0445E-03    -27.9491E-03     55.9877E-03    -28.0421E-03     3.71609E-03     58.8756E-03     190.430E+06    -22.7666E+06    -35.8794E+06    -219.404E+06    -35.9189E+06    -219.364E+06    -22.7666E+06     2.65191E+06
             883     20.2399E-03     2.91793E-03     20.0284E-03     56.0268E-03    -28.0050E-03    -28.0255E-03    -27.9873E-03     56.0009E-03    -28.0173E-03     2.92230E-03     57.6274E-03     194.169E+06    -30.8989E+06    -39.4885E+06    -229.208E+06    -39.5153E+06    -229.181E+06    -30.8989E+06     2.22630E+06
             884     20.1193E-03     1.94535E-03     20.0251E-03     55.9637E-03    -27.9740E-03    -27.9929E-03    -27.9667E-03     55.9507E-03    -27.9871E-03     2.00394E-03     56.7713E-03     196.042E+06    -38.0225E+06    -42.7186E+06    -236.365E+06    -42.7327E+06    -236.351E+06    -38.0225E+06     1.51240E+06
             885     20.0469E-03     972.665E-06     20.0233E-03     55.9174E-03    -27.9068E-03    -28.0126E-03    -27.9961E-03     55.9141E-03    -27.9199E-03     918.424E-06     56.4178E-03     197.457E+06    -42.9775E+06    -45.5230E+06    -241.692E+06    -44.9243E+06    -241.689E+06    -43.5792E+06     515.404E+03
             886     25.4245E-03     16.5358E-03     19.3125E-03     76.4723E-03    -28.3217E-03    -48.1208E-03    -28.2262E-03     56.5778E-03    -28.3217E-03     89.9804E-03     228.029E-03     177.143E+06     189.872E+06     121.913E+06    -8.60596E+06    -8.60406E+06     189.870E+06     121.913E+06     418.332E+03
             887     24.7079E-03     15.5625E-03     19.1908E-03     75.7045E-03    -27.9883E-03    -47.7134E-03    -28.6593E-03     56.6505E-03    -27.9883E-03     87.3730E-03     212.013E-03     165.687E+06     170.847E+06     50.2968E+06    -14.3009E+06    -14.2885E+06     170.834E+06     50.2968E+06     1.28923E+06
             888     24.0559E-03     14.5903E-03     19.1262E-03     61.9629E-03    -27.6624E-03    -34.3110E-03    -27.9818E-03     55.6337E-03    -27.6624E-03     45.8974E-03     151.788E-03     160.785E+06     142.857E+06    -2.17049E+06    -30.0282E+06    -16.5145E+06     142.839E+06    -15.6663E+06     1.24821E+06
             889     23.4513E-03     13.6170E-03     19.0929E-03     57.6002E-03    -27.5950E-03    -30.0112E-03    -27.8935E-03     55.4825E-03    -27.5950E-03     26.6099E-03     123.214E-03     113.502E+06     85.4709E+06    -16.1933E+06    -36.9453E+06    -16.1621E+06     85.4397E+06    -36.9453E+06     1.14203E+06
             890     22.8799E-03     12.6447E-03     19.0683E-03     56.9638E-03    -27.7030E-03    -29.2735E-03    -28.1966E-03     55.8869E-03    -27.7030E-03     18.7654E-03     104.049E-03     36.9364E+06     13.9465E+06    -17.0058E+06    -26.6628E+06    -15.1534E+06     12.0941E+06    -26.6628E+06     1.89715E+06
             891     22.3423E-03     11.6723E-03     19.0509E-03     56.5408E-03    -27.7516E-03    -28.8312E-03    -28.2879E-03     55.9975E-03    -27.7516E-03     13.4844E-03     92.4879E-03     27.4500E+06    -13.3792E+06    -16.3246E+06    -41.6971E+06    -14.5624E+06    -38.5412E+06    -18.2973E+06     2.35042E+06
             892     21.8372E-03     10.7002E-03     19.0361E-03     56.4007E-03    -27.7802E-03    -28.6394E-03    -28.2655E-03     56.0268E-03    -27.7802E-03     11.1992E-03     84.7879E-03     62.9859E+06    -10.5237E+06    -14.5845E+06    -75.4123E+06    -14.7089E+06    -75.2879E+06    -10.5237E+06     2.68395E+06
             893     21.3659E-03     9.72772E-03     19.0230E-03     56.1897E-03    -27.7936E-03    -28.3694E-03    -28.1296E-03     55.9498E-03    -27.7936E-03     8.83519E-03     77.7256E-03     91.4078E+06    -4.59174E+06    -16.0307E+06    -101.149E+06    -16.1479E+06    -101.032E+06    -4.59174E+06     3.11947E+06
             894     20.9319E-03     8.75524E-03     19.0129E-03     55.9190E-03    -27.7969E-03    -28.1148E-03    -27.9662E-03     55.7703E-03    -27.7969E-03     7.00625E-03     72.1751E-03     113.198E+06    -1.36841E+06    -18.3363E+06    -122.091E+06    -18.4663E+06    -121.961E+06    -1.36841E+06     3.65647E+06
             895     20.5353E-03     7.78263E-03     19.0035E-03     55.7477E-03    -27.7870E-03    -27.9753E-03    -27.8589E-03     55.6314E-03    -27.7870E-03     6.18241E-03     68.1023E-03     129.709E+06    -3.09065E+06    -21.1857E+06    -140.893E+06    -21.3254E+06    -140.753E+06    -3.09065E+06     4.04770E+06
             896     20.1790E-03     6.81003E-03     18.9951E-03     55.6330E-03    -27.7705E-03    -27.8756E-03    -27.7868E-03     55.5484E-03    -27.7747E-03     5.26415E-03     64.6932E-03     143.394E+06    -6.92900E+06    -24.6037E+06    -158.338E+06    -24.7460E+06    -158.196E+06    -6.92900E+06     4.31113E+06
             897     19.8649E-03     5.83710E-03     18.9879E-03     55.5353E-03    -27.7500E-03    -27.7953E-03    -27.7109E-03     55.4726E-03    -27.7717E-03     4.52138E-03     61.9493E-03     157.188E+06    -11.7592E+06    -28.3446E+06    -176.576E+06    -28.4844E+06    -176.436E+06    -11.7592E+06     4.50472E+06
             898     19.5948E-03     4.86436E-03     18.9814E-03     55.5063E-03    -27.7362E-03    -27.7774E-03    -27.6923E-03     55.4623E-03    -27.7773E-03     3.77944E-03     59.8559E-03     174.172E+06    -17.1451E+06    -32.2706E+06    -198.382E+06    -32.3789E+06    -198.273E+06    -17.1451E+06     4.14334E+06
             899     19.3711E-03     3.89153E-03     18.9762E-03     55.4858E-03    -27.7172E-03    -27.7737E-03    -27.6879E-03     55.4565E-03    -27.7737E-03     3.09499E-03     58.2356E-03     188.395E+06    -23.5556E+06    -36.3903E+06    -218.032E+06    -36.4597E+06    -217.962E+06    -23.5556E+06     3.48192E+06
             900     19.1955E-03     2.91858E-03     18.9723E-03     55.4459E-03    -27.6919E-03    -27.7578E-03    -27.6763E-03     55.4270E-03    -27.7545E-03     2.46745E-03     56.9898E-03     191.609E+06    -31.9947E+06    -40.2225E+06    -227.569E+06    -40.2635E+06    -227.528E+06    -31.9947E+06     2.71211E+06
             901     19.0684E-03     1.94571E-03     18.9689E-03     55.4298E-03    -27.6831E-03    -27.7493E-03    -27.6769E-03     55.4203E-03    -27.7460E-03     1.72372E-03     56.2009E-03     193.926E+06    -38.9823E+06    -42.5804E+06    -234.676E+06    -42.5971E+06    -234.659E+06    -38.9823E+06     1.65322E+06
             902     18.9922E-03     972.815E-06     18.9673E-03     55.4742E-03    -27.6650E-03    -27.8118E-03    -27.7756E-03     55.4713E-03    -27.6983E-03     864.306E-06     55.8512E-03     196.126E+06    -42.9530E+06    -44.3584E+06    -239.777E+06    -44.3644E+06    -239.771E+06    -42.9530E+06     874.271E+03
             903     24.6296E-03     16.5353E-03     18.2538E-03     76.7592E-03    -28.3290E-03    -48.4220E-03    -28.6326E-03     56.9697E-03    -28.3290E-03     90.1880E-03     227.913E-03     176.960E+06     189.565E+06     121.359E+06    -8.69889E+06    -8.69590E+06     189.562E+06     121.359E+06     685.962E+03
             904     23.8958E-03     15.5632E-03     18.1327E-03     75.9324E-03    -27.9584E-03    -47.9785E-03    -29.2371E-03     57.1910E-03    -27.9584E-03     87.0001E-03     211.607E-03     165.897E+06     170.620E+06     48.9028E+06    -14.3476E+06    -14.3426E+06     170.615E+06     48.9028E+06     950.863E+03
             905     23.2237E-03     14.5902E-03     18.0684E-03     62.1379E-03    -27.5989E-03    -34.5467E-03    -28.4251E-03     56.0163E-03    -27.5989E-03     45.1262E-03     151.248E-03     160.430E+06     143.032E+06    -2.87925E+06    -28.7638E+06    -16.0710E+06     143.020E+06    -15.5603E+06     1.25483E+06
             906     22.5994E-03     13.6184E-03     18.0353E-03     57.9275E-03    -27.4936E-03    -30.4388E-03    -28.4891E-03     55.9779E-03    -27.4936E-03     25.6095E-03     122.676E-03     112.743E+06     85.3282E+06    -15.4082E+06    -36.3119E+06    -15.3752E+06     85.2952E+06    -36.3119E+06     1.56177E+06
             907     22.0067E-03     12.6463E-03     18.0102E-03     57.1501E-03    -27.5446E-03    -29.6199E-03    -28.6947E-03     56.2248E-03    -27.5446E-03     17.3375E-03     103.385E-03     36.9270E+06     13.6217E+06    -16.4487E+06    -27.3313E+06    -14.4069E+06     11.5799E+06    -27.3313E+06     1.91360E+06
             908     21.4487E-03     11.6748E-03     17.9930E-03     56.5858E-03    -27.5453E-03    -29.0868E-03    -28.6696E-03     56.1686E-03    -27.5453E-03     11.7924E-03     91.7400E-03     28.1242E+06    -13.1474E+06    -16.0652E+06    -42.0969E+06    -14.1533E+06    -38.6549E+06    -18.5012E+06     2.68736E+06
             909     20.9232E-03     10.7025E-03     17.9788E-03     56.2522E-03    -27.5265E-03    -28.7462E-03    -28.4786E-03     55.9845E-03    -27.5265E-03     9.42194E-03     83.8766E-03     62.9781E+06    -11.0266E+06    -14.5958E+06    -75.6816E+06    -14.7870E+06    -75.4905E+06    -11.0266E+06     3.31499E+06
             910     20.4316E-03     9.73047E-03     17.9657E-03     55.9300E-03    -27.4964E-03    -28.4080E-03    -28.2542E-03     55.7761E-03    -27.4964E-03     6.93995E-03     76.7341E-03     91.3038E+06    -4.88073E+06    -15.8533E+06    -101.141E+06    -16.0419E+06    -100.953E+06    -4.88073E+06     3.97427E+06
             911     19.9784E-03     8.75820E-03     17.9563E-03     55.5080E-03    -27.4588E-03    -28.0434E-03    -27.9620E-03     55.4265E-03    -27.4588E-03     5.10598E-03     71.1640E-03     113.107E+06    -1.69417E+06    -18.1206E+06    -122.116E+06    -18.3281E+06    -121.908E+06    -1.69417E+06     4.59255E+06
             912     19.5630E-03     7.78540E-03     17.9471E-03     55.1634E-03    -27.4159E-03    -27.7623E-03    -27.6988E-03     55.0998E-03    -27.4159E-03     4.45619E-03     67.0059E-03     129.155E+06    -3.53836E+06    -21.2380E+06    -140.628E+06    -21.4554E+06    -140.411E+06    -3.53836E+06     5.06349E+06
             913     19.1888E-03     6.81240E-03     17.9388E-03     54.9482E-03    -27.3803E-03    -27.5804E-03    -27.5365E-03     54.9043E-03    -27.3803E-03     3.66172E-03     63.5835E-03     142.816E+06    -7.03443E+06    -24.7150E+06    -157.864E+06    -24.9406E+06    -157.639E+06    -7.03443E+06     5.44958E+06
             914     18.8588E-03     5.83955E-03     17.9319E-03     54.7926E-03    -27.3538E-03    -27.4481E-03    -27.4168E-03     54.7613E-03    -27.3538E-03     3.09502E-03     60.8858E-03     156.024E+06    -12.1258E+06    -28.3500E+06    -175.617E+06    -28.5648E+06    -175.403E+06    -12.1258E+06     5.59188E+06
             915     18.5746E-03     4.86633E-03     17.9258E-03     54.6760E-03    -27.3232E-03    -27.3597E-03    -27.3185E-03     54.6535E-03    -27.3419E-03     2.60407E-03     58.7988E-03     172.343E+06    -17.5550E+06    -32.3166E+06    -196.801E+06    -32.4940E+06    -196.624E+06    -17.5550E+06     5.33284E+06
             916     18.3387E-03     3.89306E-03     17.9207E-03     54.6122E-03    -27.2864E-03    -27.3297E-03    -27.2715E-03     54.5973E-03    -27.3297E-03     2.11787E-03     57.2179E-03     186.294E+06    -23.5771E+06    -36.4905E+06    -215.984E+06    -36.6088E+06    -215.865E+06    -23.5771E+06     4.52625E+06
             917     18.1527E-03     2.91984E-03     17.9163E-03     54.5297E-03    -27.2234E-03    -27.3083E-03    -27.2140E-03     54.5203E-03    -27.3083E-03     1.64587E-03     55.9899E-03     189.243E+06    -31.9398E+06    -40.2562E+06    -225.188E+06    -40.3133E+06    -225.131E+06    -31.9398E+06     3.10576E+06
             918     18.0191E-03     1.94642E-03     17.9136E-03     54.5044E-03    -27.1931E-03    -27.3130E-03    -27.1884E-03     54.4997E-03    -27.3130E-03     1.17108E-03     55.1996E-03     191.518E+06    -39.0570E+06    -42.9362E+06    -232.480E+06    -42.9551E+06    -232.461E+06    -39.0570E+06     1.77412E+06
             919     17.9382E-03     973.130E-06     17.9118E-03     54.6266E-03    -27.2121E-03    -27.4150E-03    -27.3534E-03     54.6246E-03    -27.2717E-03     745.960E-06     54.9566E-03     193.248E+06    -43.6807E+06    -45.3198E+06    -237.742E+06    -45.0454E+06    -237.732E+06    -43.9647E+06     1.25576E+06
             920     23.8543E-03     16.5356E-03     17.1930E-03     76.8288E-03    -28.2946E-03    -48.5261E-03    -29.0427E-03     57.3454E-03    -28.2946E-03     89.7160E-03     227.190E-03     176.337E+06     189.068E+06     121.267E+06    -8.27626E+06    -8.27266E+06     189.064E+06     121.267E+06     810.870E+03
             921     23.1036E-03     15.5636E-03     17.0749E-03     75.7416E-03    -27.8943E-03    -47.8509E-03    -29.5955E-03     57.4862E-03    -27.8943E-03     85.8485E-03     210.976E-03     165.446E+06     170.563E+06     48.5680E+06    -13.7965E+06    -13.7936E+06     170.560E+06     48.5680E+06     709.675E+03
             922     22.4107E-03     14.5923E-03     17.0089E-03     62.6346E-03    -27.4867E-03    -35.1526E-03    -29.3080E-03     56.7899E-03    -27.4867E-03     44.1473E-03     150.774E-03     159.730E+06     142.704E+06    -2.98718E+06    -28.0892E+06    -15.8175E+06     142.697E+06    -15.2521E+06     958.224E+03
             923     21.7659E-03     13.6209E-03     16.9772E-03     58.4437E-03    -27.3033E-03    -31.1445E-03    -29.4610E-03     56.7602E-03    -27.3033E-03     23.9311E-03     121.908E-03     112.799E+06     85.6149E+06    -15.0473E+06    -36.1062E+06    -14.9994E+06     85.5669E+06    -36.1062E+06     1.71417E+06
             924     21.1512E-03     12.6499E-03     16.9514E-03     57.3460E-03    -27.2721E-03    -30.0911E-03    -29.3673E-03     56.6221E-03    -27.2721E-03     15.2098E-03     102.306E-03     37.8467E+06     14.0400E+06    -16.8763E+06    -28.0090E+06    -13.9831E+06     11.1468E+06    -28.0090E+06     2.44323E+06
             925     20.5718E-03     11.6784E-03     16.9355E-03     56.5648E-03    -27.2045E-03    -29.4078E-03    -29.1376E-03     56.2946E-03    -27.2045E-03     9.42798E-03     90.5708E-03     28.7842E+06    -12.8688E+06    -16.6050E+06    -42.4711E+06    -13.9002E+06    -39.3298E+06    -18.7149E+06     3.21476E+06
             926     20.0243E-03     10.7070E-03     16.9214E-03     56.0831E-03    -27.1168E-03    -28.9832E-03    -28.8340E-03     55.9339E-03    -27.1168E-03     6.87265E-03     82.6151E-03     63.3701E+06    -10.6971E+06    -14.0602E+06    -75.6547E+06    -14.3500E+06    -75.3649E+06    -10.6971E+06     4.14109E+06
             927     19.5114E-03     9.73506E-03     16.9092E-03     55.4447E-03    -27.0209E-03    -28.3947E-03    -28.3269E-03     55.3769E-03    -27.0209E-03     4.27874E-03     75.2311E-03     91.7805E+06    -4.93003E+06    -15.6243E+06    -101.551E+06    -15.9094E+06    -101.266E+06    -4.93003E+06     4.89125E+06
             928     19.0366E-03     8.76254E-03     16.9000E-03     54.8696E-03    -26.9285E-03    -27.9317E-03    -27.9050E-03     54.8429E-03    -26.9285E-03     2.58354E-03     69.6927E-03     113.340E+06    -1.45668E+06    -18.0523E+06    -122.178E+06    -18.3544E+06    -121.876E+06    -1.45668E+06     5.58036E+06
             929     18.6014E-03     7.78988E-03     16.8917E-03     54.3774E-03    -26.8312E-03    -27.5575E-03    -27.5390E-03     54.3590E-03    -26.8312E-03     1.96188E-03     65.4905E-03     129.003E+06    -3.14080E+06    -20.8317E+06    -140.070E+06    -21.1444E+06    -139.757E+06    -3.14080E+06     6.06937E+06
             930     18.2078E-03     6.81673E-03     16.8836E-03     53.8974E-03    -26.7498E-03    -27.1576E-03    -27.1464E-03     53.8863E-03    -26.7498E-03     1.38270E-03     61.9346E-03     142.825E+06    -6.75053E+06    -23.8357E+06    -157.346E+06    -24.1363E+06    -157.045E+06    -6.75053E+06     6.31521E+06
             931     17.8599E-03     5.84316E-03     16.8770E-03     53.5991E-03    -26.6934E-03    -26.9091E-03    -26.9013E-03     53.5912E-03    -26.6934E-03     1.08430E-03     59.2522E-03     155.844E+06    -11.5751E+06    -27.3047E+06    -174.679E+06    -27.6019E+06    -174.382E+06    -11.5751E+06     6.59191E+06
             932     17.5598E-03     4.86955E-03     16.8711E-03     53.4232E-03    -26.6501E-03    -26.7773E-03    -26.7658E-03     53.4175E-03    -26.6559E-03     855.341E-06     57.2340E-03     171.397E+06    -16.6728E+06    -31.1525E+06    -194.847E+06    -31.4192E+06    -194.581E+06    -16.6728E+06     6.54336E+06
             933     17.3103E-03     3.89580E-03     16.8662E-03     53.2618E-03    -26.6088E-03    -26.6610E-03    -26.6476E-03     53.2584E-03    -26.6187E-03     665.583E-06     55.6634E-03     184.398E+06    -22.6775E+06    -35.3056E+06    -213.057E+06    -35.4868E+06    -212.876E+06    -22.6775E+06     5.56965E+06
             934     17.1136E-03     2.92190E-03     16.8623E-03     53.1313E-03    -26.5409E-03    -26.5939E-03    -26.5572E-03     53.1293E-03    -26.5755E-03     518.381E-06     54.4773E-03     187.116E+06    -30.7633E+06    -39.4355E+06    -222.055E+06    -39.5292E+06    -221.961E+06    -30.7633E+06     3.97387E+06
             935     16.9715E-03     1.94796E-03     16.8593E-03     53.0507E-03    -26.4751E-03    -26.5773E-03    -26.5089E-03     53.0497E-03    -26.5424E-03     368.269E-06     53.6982E-03     188.819E+06    -38.3121E+06    -43.6857E+06    -229.756E+06    -43.7258E+06    -229.716E+06    -38.3121E+06     2.54189E+06
             936     16.8852E-03     973.879E-06     16.8571E-03     53.0161E-03    -26.3994E-03    -26.6181E-03    -26.5807E-03     53.0154E-03    -26.4361E-03     312.084E-06     53.4170E-03     189.914E+06    -44.7770E+06    -47.9058E+06    -236.231E+06    -47.6382E+06    -236.214E+06     -45.061E+06     1.68949E+06
             937     23.1066E-03     16.5386E-03     16.1367E-03     77.1944E-03    -28.2115E-03    -48.9643E-03    -29.9678E-03     58.1979E-03    -28.2115E-03     88.8722E-03     225.596E-03     175.421E+06     189.109E+06     121.794E+06    -7.10676E+06    -7.10390E+06     189.106E+06     121.794E+06     670.245E+03
             938     22.3329E-03     15.5655E-03     16.0148E-03     75.9257E-03    -27.7508E-03    -48.1720E-03    -30.2681E-03     58.0218E-03    -27.7508E-03     85.1554E-03     210.015E-03     164.531E+06     169.887E+06     47.8036E+06    -13.1204E+06    -13.1161E+06     169.882E+06     47.8036E+06     810.822E+03
             939     21.6196E-03     14.5945E-03     15.9502E-03     63.1985E-03    -27.2782E-03    -35.9297E-03    -30.4760E-03     57.7448E-03    -27.2782E-03     42.6357E-03     150.046E-03     158.725E+06     142.035E+06    -3.57119E+06    -27.1603E+06    -15.5226E+06     142.026E+06    -15.1998E+06     1.12468E+06
             940     20.9518E-03     13.6249E-03     15.9166E-03     58.9247E-03    -26.9996E-03    -31.9350E-03    -30.5872E-03     57.5769E-03    -26.9996E-03     21.3944E-03     120.701E-03     112.149E+06     85.4167E+06    -15.3078E+06    -35.2606E+06    -15.2477E+06     85.3566E+06    -35.2606E+06     1.87965E+06
             941     20.3165E-03     12.6551E-03     15.8937E-03     57.5717E-03    -26.8610E-03    -30.7318E-03    -30.2418E-03     57.0817E-03    -26.8610E-03     12.3325E-03     100.985E-03     38.1182E+06     14.3377E+06    -17.6014E+06    -27.8269E+06    -14.2196E+06     10.9560E+06    -27.8269E+06     2.84626E+06
             942     19.7134E-03     11.6844E-03     15.8775E-03     56.5748E-03    -26.6918E-03    -29.9315E-03    -29.7944E-03     56.4377E-03    -26.6918E-03     6.50808E-03     89.1508E-03     29.4212E+06    -12.5016E+06    -16.8306E+06    -42.7137E+06    -13.6972E+06    -39.8244E+06    -18.5243E+06     3.75249E+06
             943     19.1429E-03     10.7135E-03     15.8641E-03     55.7771E-03    -26.5078E-03    -29.2828E-03    -29.2301E-03     55.7243E-03    -26.5078E-03     3.62231E-03     80.9751E-03     64.1897E+06    -10.4937E+06    -13.8941E+06     -76.287E+06    -14.2801E+06    -75.9010E+06    -10.4937E+06     4.83600E+06
             944     18.6068E-03     9.74181E-03     15.8528E-03     54.8569E-03    -26.3216E-03    -28.5048E-03    -28.4866E-03     54.8387E-03    -26.3216E-03     907.954E-06     73.4218E-03     92.3703E+06    -4.58837E+06    -15.3728E+06    -101.840E+06    -15.7631E+06    -101.450E+06    -4.58837E+06     5.75963E+06
             945     18.1096E-03     8.76940E-03     15.8448E-03     53.9931E-03    -26.1448E-03    -27.8372E-03    -27.8260E-03     53.9819E-03    -26.1448E-03    -663.752E-06     67.7815E-03     113.575E+06    -978.395E+03    -17.5511E+06    -121.927E+06    -17.9402E+06    -121.538E+06    -978.395E+03     6.32272E+06
             946     17.6515E-03     7.79650E-03     15.8363E-03     53.2307E-03    -25.9698E-03    -27.2697E-03    -27.2552E-03     53.2162E-03    -25.9698E-03    -1.21296E-03     63.4601E-03     129.048E+06    -2.68355E+06    -20.1248E+06    -139.558E+06    -20.4952E+06    -139.188E+06    -2.68355E+06     6.63211E+06
             947     17.2378E-03     6.82302E-03     15.8299E-03     52.4971E-03    -25.8198E-03    -26.6849E-03    -26.6690E-03     52.4811E-03    -25.8198E-03    -1.53134E-03     59.8160E-03     142.939E+06    -6.15892E+06    -23.0232E+06    -156.779E+06    -23.4101E+06    -156.393E+06    -6.15892E+06     7.16086E+06
             948     16.8699E-03     5.84890E-03     15.8235E-03     51.9232E-03    -25.7057E-03    -26.2185E-03    -26.2041E-03     51.9088E-03    -25.7057E-03    -1.52992E-03     57.0334E-03     155.627E+06    -10.7048E+06    -26.2256E+06    -173.502E+06    -26.6224E+06    -173.105E+06    -10.7048E+06     7.60441E+06
             949     16.5521E-03     4.87450E-03     15.8181E-03     51.5490E-03    -25.6213E-03    -25.9301E-03    -25.9180E-03     51.5369E-03    -25.6213E-03    -1.43363E-03     54.9679E-03     170.218E+06    -15.9815E+06    -29.7280E+06    -192.652E+06    -30.0742E+06    -192.306E+06    -15.9815E+06     7.47307E+06
             950     16.2869E-03     3.89990E-03     15.8131E-03     51.2558E-03    -25.5472E-03    -25.7163E-03    -25.7079E-03     51.2474E-03    -25.5472E-03    -1.19440E-03     53.3944E-03     182.407E+06    -22.0310E+06    -33.8610E+06    -210.059E+06    -34.1264E+06    -209.794E+06    -22.0310E+06     6.75059E+06
             951     16.0780E-03     2.92501E-03     15.8097E-03     51.0306E-03    -25.4703E-03    -25.5642E-03    -25.5593E-03     51.0257E-03    -25.4703E-03    -874.498E-06     52.2256E-03     184.461E+06    -29.8559E+06    -38.5726E+06    -218.515E+06    -38.7573E+06    -218.330E+06    -29.8559E+06     5.64810E+06
             952     15.9266E-03     1.95017E-03     15.8068E-03     50.8910E-03    -25.3756E-03    -25.5161E-03    -25.5142E-03     50.8890E-03    -25.3756E-03    -555.620E-06     51.4549E-03     185.955E+06    -37.2919E+06    -43.1731E+06    -226.114E+06    -43.2680E+06    -226.019E+06    -37.2919E+06     3.84516E+06
             953     15.8353E-03     975.361E-06     15.8052E-03     50.5977E-03    -25.1652E-03    -25.4338E-03    -25.4329E-03     50.5968E-03    -25.1652E-03    -358.643E-06     50.9408E-03     188.220E+06    -43.3227E+06    -47.0612E+06    -233.381E+06    -46.4079E+06    -233.356E+06    -44.0008E+06     1.68258E+06
             954     22.3792E-03     16.5389E-03     15.0761E-03     78.0634E-03    -28.1186E-03    -49.8992E-03    -31.6243E-03     59.7885E-03    -28.1186E-03     88.0744E-03     224.006E-03     175.339E+06     188.496E+06     121.894E+06    -7.53563E+06    -7.53086E+06     188.491E+06     121.894E+06     113.421E+03
             955     21.5893E-03     15.5691E-03     14.9566E-03     76.9568E-03    -27.5374E-03    -49.4015E-03    -32.0520E-03     59.6073E-03    -27.5374E-03     84.8667E-03     208.803E-03     164.819E+06     169.903E+06     47.3799E+06    -13.0713E+06    -13.0647E+06     169.896E+06     47.3799E+06     1.06094E+06
             956     20.8520E-03     14.5999E-03     14.8878E-03     63.8707E-03    -26.9503E-03    -36.9375E-03    -31.8365E-03     58.7697E-03    -26.9503E-03     41.3387E-03     148.750E-03     158.394E+06     141.960E+06    -3.53611E+06    -26.7503E+06    -14.7227E+06     141.944E+06    -15.5476E+06     1.50268E+06
             957     20.1631E-03     13.6316E-03     14.8570E-03     59.3577E-03    -26.5623E-03    -32.8200E-03    -31.7607E-03     58.2984E-03    -26.5623E-03     18.9874E-03     119.395E-03     110.989E+06     84.4100E+06    -14.5595E+06    -35.3648E+06    -14.4723E+06     84.3228E+06    -35.3648E+06     2.30022E+06
             958     19.5032E-03     12.6621E-03     14.8339E-03     57.9166E-03    -26.3054E-03    -31.6394E-03    -31.3308E-03     57.6080E-03    -26.3054E-03     9.53372E-03     99.7236E-03     37.6857E+06     14.2836E+06    -17.2871E+06    -27.3649E+06    -13.7861E+06     10.7825E+06    -27.3649E+06     3.29956E+06
             959     18.8771E-03     11.6930E-03     14.8195E-03     56.6764E-03    -26.0088E-03    -30.7122E-03    -30.6629E-03     56.6270E-03    -26.0088E-03     3.59347E-03     87.8101E-03     29.8441E+06    -12.2190E+06    -16.7252E+06    -42.5710E+06    -13.5399E+06    -40.0160E+06    -17.9595E+06     4.29050E+06
             960     18.2814E-03     10.7223E-03     14.8069E-03     55.5241E-03    -25.6934E-03    -29.8401E-03    -29.8227E-03     55.5067E-03    -25.6934E-03     211.018E-06     79.2922E-03     65.2265E+06    -10.2978E+06    -13.6642E+06    -77.1058E+06    -14.1275E+06    -76.6426E+06    -10.2978E+06     5.34415E+06
             961     17.7214E-03     9.75113E-03     14.7974E-03     54.2566E-03    -25.3801E-03    -28.8423E-03    -28.8040E-03     54.2182E-03    -25.3801E-03    -2.76825E-03     71.5030E-03     92.9809E+06    -3.98626E+06    -14.7180E+06    -101.835E+06    -15.1802E+06    -101.373E+06    -3.98626E+06     6.31357E+06
             962     17.1995E-03     8.77898E-03     14.7903E-03     52.9573E-03    -25.0826E-03    -27.8618E-03    -27.7941E-03     52.8897E-03    -25.0826E-03    -4.27315E-03     65.6338E-03     113.892E+06    -14.2351E+03    -16.4270E+06    -121.219E+06    -16.8776E+06    -120.769E+06    -14.2351E+03     6.83126E+06
             963     16.7177E-03     7.80569E-03     14.7835E-03     51.7591E-03    -24.8020E-03    -26.9620E-03    -26.8762E-03     51.6733E-03    -24.8020E-03    -4.81191E-03     61.0578E-03     130.011E+06    -1.12594E+06    -18.9034E+06    -139.106E+06    -19.3243E+06    -138.685E+06    -1.12594E+06     7.08605E+06
             964     16.2804E-03     6.83164E-03     14.7777E-03     50.7179E-03    -24.5525E-03    -26.1667E-03    -26.0752E-03     50.6263E-03    -24.5525E-03    -4.95520E-03     57.2658E-03     143.794E+06    -4.45791E+06    -21.7900E+06    -156.129E+06    -22.2512E+06    -155.668E+06    -4.45791E+06     7.85268E+06
             965     15.8911E-03     5.85703E-03     14.7723E-03     49.7612E-03    -24.3423E-03    -25.4173E-03    -25.3369E-03     49.6809E-03    -24.3423E-03    -4.59288E-03     54.2529E-03     155.383E+06    -9.60424E+06    -24.7955E+06    -172.011E+06    -25.2764E+06    -171.530E+06    -9.60424E+06     8.38570E+06
             966     15.5533E-03     4.88155E-03     14.7674E-03     49.0040E-03    -24.1838E-03    -24.8192E-03    -24.7563E-03     48.9411E-03    -24.1838E-03    -4.04067E-03     51.9709E-03     169.417E+06    -15.4048E+06    -28.2093E+06    -190.857E+06    -28.6436E+06    -190.423E+06    -15.4048E+06     8.35743E+06
             967     15.2711E-03     3.90563E-03     14.7632E-03     48.5047E-03    -24.0571E-03    -24.4493E-03    -24.4049E-03     48.4602E-03    -24.0571E-03    -3.36069E-03     50.3488E-03     180.982E+06    -21.1032E+06    -32.1098E+06    -207.332E+06    -32.5016E+06    -206.941E+06    -21.1032E+06     8.22803E+06
             968     15.0475E-03     2.92961E-03     14.7596E-03     48.1110E-03    -23.9313E-03    -24.1816E-03    -24.1553E-03     48.0847E-03    -23.9313E-03    -2.54593E-03     49.1288E-03     182.044E+06    -28.7356E+06    -36.1171E+06    -214.343E+06    -36.4150E+06    -214.045E+06    -28.7356E+06     7.19170E+06
             969     14.8860E-03     1.95315E-03     14.7573E-03     47.7814E-03    -23.7902E-03    -23.9920E-03    -23.9557E-03     47.7697E-03    -23.8148E-03    -1.63377E-03     48.2455E-03     183.304E+06    -35.8858E+06    -39.7533E+06    -221.083E+06    -39.5547E+06    -220.932E+06    -36.2360E+06     5.05385E+06
             970     14.7876E-03     976.821E-06     14.7553E-03     47.5199E-03    -23.6435E-03    -23.8778E-03    -23.7804E-03     47.5152E-03    -23.7362E-03    -1.07801E-03     47.7586E-03     188.062E+06    -39.6699E+06    -42.2031E+06    -228.984E+06    -40.6872E+06    -228.943E+06    -41.2265E+06     1.92293E+06
             971     21.6793E-03     16.5402E-03     14.0148E-03     79.0754E-03    -28.0118E-03    -51.0494E-03    -33.6701E-03     61.6961E-03    -28.0118E-03     87.0678E-03     222.085E-03     175.428E+06     187.871E+06     122.261E+06    -8.24283E+06    -8.23354E+06     187.862E+06     122.261E+06    -717.449E+03
             972     20.8696E-03     15.5730E-03     13.8933E-03     78.1176E-03    -27.2897E-03    -50.8394E-03    -34.3929E-03     61.6711E-03    -27.2897E-03     83.8114E-03     207.620E-03     164.565E+06     169.835E+06     48.9827E+06    -13.1533E+06    -13.1404E+06     169.822E+06     48.9827E+06     481.966E+03
             973     20.1129E-03     14.6059E-03     13.8274E-03     64.7623E-03    -26.5433E-03    -38.2388E-03    -33.5728E-03     60.0962E-03    -26.5433E-03     39.8358E-03     147.304E-03     157.984E+06     141.521E+06    -3.03540E+06    -27.1051E+06    -14.9742E+06     141.494E+06    -15.1399E+06     1.92025E+06
             974     19.3982E-03     13.6379E-03     13.7948E-03     59.9498E-03    -26.0107E-03    -33.9751E-03    -33.1474E-03     59.1221E-03    -26.0107E-03     16.3702E-03     117.739E-03     110.879E+06     83.9512E+06    -14.8535E+06    -35.7521E+06    -14.7195E+06     83.8172E+06    -35.7521E+06     2.94121E+06
             975     18.7162E-03     12.6712E-03     13.7745E-03     58.2550E-03    -25.6170E-03    -32.6745E-03    -32.5114E-03     58.0920E-03    -25.6170E-03     6.26247E-03     98.2302E-03     37.8208E+06     14.3971E+06    -17.9155E+06    -27.0766E+06    -13.9605E+06     10.4420E+06    -27.0766E+06     3.91660E+06
             976     18.0638E-03     11.7020E-03     13.7609E-03     56.8231E-03    -25.1751E-03    -31.6840E-03    -31.6643E-03     56.8035E-03    -25.1751E-03     444.056E-06     86.4847E-03     30.0112E+06    -11.6540E+06    -17.1643E+06    -42.0544E+06    -13.5964E+06    -40.1944E+06    -17.0819E+06     4.72776E+06
             977     17.4433E-03     10.7333E-03     13.7502E-03     55.3926E-03    -24.6992E-03    -30.6931E-03    -30.6362E-03     55.3357E-03    -24.6992E-03    -3.39232E-03     77.7272E-03     66.0157E+06    -9.24744E+06    -13.1618E+06    -77.1055E+06    -13.6577E+06    -76.6096E+06    -9.24744E+06     5.50873E+06
             978     16.8576E-03     9.76266E-03     13.7430E-03     53.6326E-03    -24.2240E-03    -29.3677E-03    -29.2282E-03     53.4932E-03    -24.2240E-03    -6.44092E-03     69.6399E-03     93.9554E+06    -2.84695E+06    -13.9370E+06    -101.820E+06    -14.3921E+06    -101.365E+06    -2.84695E+06     6.29040E+06
             979     16.3090E-03     8.79059E-03     13.7371E-03     51.8720E-03    -23.7731E-03    -28.0838E-03    -27.8744E-03     51.6626E-03    -23.7731E-03    -7.93193E-03     63.5250E-03     114.738E+06     1.89696E+06    -15.2706E+06    -120.454E+06    -15.7260E+06    -119.999E+06     1.89696E+06     6.89437E+06
             980     15.8013E-03     7.81743E-03     13.7320E-03     50.1708E-03    -23.3440E-03    -26.8322E-03    -26.5842E-03     49.9228E-03    -23.3440E-03    -8.50517E-03     58.5569E-03     131.460E+06     1.47115E+06    -17.4361E+06    -138.414E+06    -17.9056E+06    -137.944E+06     1.47115E+06     7.51652E+06
             981     15.3386E-03     6.84291E-03     13.7276E-03     48.5509E-03    -22.9558E-03    -25.5922E-03    -25.3397E-03     48.2983E-03    -22.9558E-03    -8.43741E-03     54.3274E-03     145.356E+06    -2.01847E+06    -19.9774E+06    -155.513E+06    -20.4679E+06    -155.022E+06    -2.01847E+06     8.13126E+06
             982     14.9252E-03     5.86722E-03     13.7236E-03     47.1303E-03    -22.6266E-03    -24.4989E-03    -24.2753E-03     46.9066E-03    -22.6266E-03    -7.78352E-03     51.0138E-03     156.480E+06    -6.98016E+06    -22.7778E+06    -170.750E+06    -23.2889E+06    -170.239E+06    -6.98016E+06     8.67911E+06
             983     14.5653E-03     4.89061E-03     13.7197E-03     45.9525E-03    -22.3634E-03    -23.5862E-03    -23.4107E-03     45.7769E-03    -22.3634E-03    -6.77397E-03     48.4684E-03     170.043E+06    -12.3126E+06    -25.8183E+06    -188.698E+06    -26.3250E+06    -188.191E+06    -12.3126E+06     9.05513E+06
             984     14.2636E-03     3.91329E-03     13.7162E-03     45.0442E-03    -22.1487E-03    -22.8931E-03    -22.7705E-03     44.9216E-03    -22.1487E-03    -5.57973E-03     46.5794E-03     181.179E+06    -18.3703E+06    -28.5065E+06    -204.387E+06    -28.9423E+06    -203.951E+06    -18.3703E+06     8.71175E+06
             985     14.0238E-03     2.93534E-03     13.7132E-03     44.3607E-03    -21.9648E-03    -22.3954E-03    -22.3218E-03     44.2872E-03    -21.9648E-03    -4.25672E-03     45.1926E-03     181.851E+06    -25.8927E+06    -30.6100E+06    -210.034E+06    -30.9587E+06    -209.685E+06    -25.8927E+06     7.85011E+06
             986     13.8500E-03     1.95728E-03     13.7110E-03     43.8164E-03    -21.8099E-03    -22.0067E-03    -21.9240E-03     43.7802E-03    -21.8564E-03    -2.89938E-03     44.1943E-03     183.681E+06    -31.2088E+06    -32.4440E+06    -215.502E+06    -32.2976E+06    -215.298E+06    -31.5590E+06     5.86493E+06
             987     13.7448E-03     978.243E-06     13.7099E-03     43.6814E-03    -21.7188E-03    -21.9630E-03    -21.8352E-03     43.6683E-03    -21.8335E-03    -1.69807E-03     43.8549E-03     189.313E+06    -32.9898E+06    -34.0572E+06    -222.833E+06    -33.0704E+06    -222.754E+06    -34.0556E+06     3.45891E+06
             988     21.0090E-03     16.5431E-03     12.9501E-03     80.3660E-03    -27.8565E-03    -52.5763E-03    -36.0893E-03     63.8790E-03    -27.8565E-03     86.0445E-03     219.246E-03     175.878E+06     188.018E+06     122.379E+06    -8.61222E+06    -8.60645E+06     188.013E+06     122.379E+06    -715.344E+03
             989     20.1806E-03     15.5778E-03     12.8292E-03     78.9418E-03    -26.9825E-03    -51.9884E-03    -36.4747E-03     63.4281E-03    -26.9825E-03     82.2691E-03     205.877E-03     164.157E+06     167.501E+06     47.9024E+06    -15.4850E+06    -15.4752E+06     167.491E+06     47.9024E+06     14.2059E+03
             990     19.4025E-03     14.6129E-03     12.7640E-03     65.8210E-03    -26.0810E-03    -39.7579E-03    -35.5481E-03     61.6112E-03    -26.0810E-03     38.1252E-03     146.398E-03     158.009E+06     140.619E+06    -4.43026E+06    -27.7233E+06    -17.3853E+06     140.588E+06    -14.7374E+06     1.85709E+06
             991     18.6654E-03     13.6485E-03     12.7325E-03     60.6714E-03    -25.3944E-03    -35.3130E-03    -34.6800E-03     60.0385E-03    -25.3944E-03     14.2856E-03     116.784E-03     110.540E+06     84.4147E+06    -16.1278E+06    -33.8037E+06    -16.0017E+06     84.2885E+06    -33.8037E+06     3.00293E+06
             992     17.9576E-03     12.6812E-03     12.7146E-03     58.7145E-03    -24.8437E-03    -33.9063E-03    -33.8209E-03     58.6292E-03    -24.8437E-03     3.90102E-03     97.6157E-03     36.1500E+06     13.8067E+06    -17.6771E+06    -25.6086E+06    -14.6400E+06     10.2650E+06    -25.1040E+06     3.65382E+06
             993     17.2793E-03     11.7144E-03     12.7023E-03     57.0516E-03    -24.2343E-03    -32.8468E-03    -32.8181E-03     57.0229E-03    -24.2343E-03    -2.24655E-03     85.7239E-03     29.8364E+06    -10.4557E+06    -16.2773E+06    -41.3108E+06    -13.5818E+06    -39.8032E+06    -14.6587E+06     4.42096E+06
             994     16.6310E-03     10.7456E-03     12.6934E-03     55.1639E-03    -23.5832E-03    -31.5725E-03    -31.4276E-03     55.0191E-03    -23.5832E-03    -6.56456E-03     76.4509E-03     67.8231E+06    -6.76879E+06    -12.5395E+06    -77.2762E+06    -12.9603E+06    -76.8554E+06    -6.76879E+06     5.06721E+06
             995     16.0179E-03     9.77573E-03     12.6889E-03     53.0661E-03    -22.9273E-03    -30.0957E-03    -29.7996E-03     52.7700E-03    -22.9273E-03    -9.72860E-03     68.1149E-03     95.6496E+06    -480.570E+03    -12.8179E+06    -101.668E+06    -13.2100E+06    -101.276E+06    -480.570E+03     5.88180E+06
             996     15.4414E-03     8.80415E-03     12.6855E-03     50.8003E-03    -22.2912E-03    -28.4937E-03    -28.0837E-03     50.3904E-03    -22.2912E-03    -11.2357E-03     61.6000E-03     116.188E+06     4.46937E+06    -14.1699E+06    -119.908E+06    -14.5905E+06    -119.487E+06     4.46937E+06     6.64181E+06
             997     14.9054E-03     7.83090E-03     12.6825E-03     48.4861E-03    -21.6829E-03    -26.8095E-03    -26.3308E-03     48.0074E-03    -21.6829E-03    -11.8444E-03     56.1101E-03     133.528E+06     5.31592E+06    -15.9364E+06    -137.553E+06    -16.3638E+06    -137.126E+06     5.31592E+06     7.17495E+06
             998     14.4150E-03     6.85589E-03     12.6802E-03     46.2280E-03    -21.1322E-03    -25.0955E-03    -24.6149E-03     45.7475E-03    -21.1322E-03    -11.5485E-03     51.3777E-03     148.313E+06     3.22948E+06    -17.8226E+06    -154.464E+06    -18.2327E+06    -154.054E+06     3.22948E+06     7.41147E+06
             999     13.9748E-03     5.87922E-03     12.6779E-03     44.2200E-03    -20.6548E-03    -23.5591E-03    -23.1313E-03     43.7922E-03    -20.6548E-03    -10.6122E-03     47.5919E-03     160.420E+06    -1.17748E+06    -19.3546E+06    -169.887E+06    -19.7749E+06    -169.467E+06    -1.17748E+06     7.88426E+06
            1000     13.5903E-03     4.90137E-03     12.6757E-03     42.5118E-03    -20.2555E-03    -22.2517E-03    -21.9114E-03     42.1714E-03    -20.2555E-03    -9.23363E-03     44.6392E-03     173.378E+06    -6.44931E+06    -20.9150E+06    -186.596E+06    -21.3695E+06    -186.142E+06    -6.44931E+06     8.62701E+06
            1001     13.2664E-03     3.92229E-03     12.6733E-03     41.0793E-03    -19.9276E-03    -21.1463E-03    -20.9098E-03     40.8428E-03    -19.9276E-03    -7.51750E-03     42.3405E-03     182.973E+06    -13.2953E+06    -23.4813E+06    -201.129E+06    -23.9038E+06    -200.706E+06    -13.2953E+06     8.62566E+06
            1002     13.0083E-03     2.94244E-03     12.6712E-03     39.9799E-03    -19.6772E-03    -20.2983E-03    -20.1557E-03     39.8373E-03    -19.6772E-03    -5.72406E-03     40.6472E-03     182.846E+06    -20.7482E+06    -25.3775E+06    -205.846E+06    -25.7045E+06    -205.519E+06    -20.7482E+06     7.52873E+06
            1003     12.8207E-03     1.96167E-03     12.6697E-03     39.3165E-03    -19.4987E-03    -19.8162E-03    -19.7216E-03     39.2439E-03    -19.5207E-03    -3.99332E-03     39.6401E-03     184.880E+06    -24.3766E+06    -26.0042E+06    -210.061E+06    -26.2060E+06    -209.859E+06    -24.3766E+06     5.90190E+06
            1004     12.7068E-03     981.071E-06     12.6688E-03     38.9346E-03    -19.3107E-03    -19.6225E-03    -19.5764E-03     38.9104E-03    -19.3327E-03    -2.14549E-03     39.1239E-03     188.568E+06    -26.1826E+06    -28.0282E+06    -215.662E+06    -27.9638E+06    -215.539E+06    -26.3699E+06     4.74770E+06
            1005     20.3718E-03     16.5470E-03     11.8831E-03     81.8118E-03    -27.6731E-03    -54.2864E-03    -38.6955E-03     66.2209E-03    -27.6731E-03     84.8559E-03     215.846E-03     175.885E+06     187.880E+06     122.461E+06    -8.66108E+06    -8.65794E+06     187.877E+06     122.461E+06     272.302E+03
            1006     19.5255E-03     15.5834E-03     11.7645E-03     79.9114E-03    -26.6449E-03    -53.3058E-03    -38.3995E-03     65.0051E-03    -26.6449E-03     81.7135E-03     204.174E-03     163.535E+06     166.625E+06     47.6184E+06    -15.7999E+06    -15.7914E+06     166.616E+06     47.6184E+06     918.313E+03
            1007     18.7239E-03     14.6202E-03     11.6976E-03     66.9249E-03    -25.6077E-03    -41.3382E-03    -37.3158E-03     62.9025E-03    -25.6077E-03     37.2408E-03     145.972E-03     157.273E+06     139.638E+06    -5.08927E+06    -27.6658E+06    -18.3200E+06     139.617E+06    -14.4139E+06     1.15904E+06
            1008     17.9632E-03     13.6557E-03     11.6705E-03     61.4392E-03    -24.7800E-03    -36.6936E-03    -36.1914E-03     60.9370E-03    -24.7800E-03     12.7359E-03     116.524E-03     109.437E+06     84.3606E+06    -16.9725E+06    -31.5990E+06    -16.9033E+06     84.2914E+06    -31.5990E+06     1.85360E+06
            1009     17.2295E-03     12.6914E-03     11.6526E-03     59.2722E-03    -24.0770E-03    -35.2324E-03    -35.1663E-03     59.2061E-03    -24.0770E-03     2.86448E-03     97.5608E-03     34.4828E+06     13.8926E+06    -16.5035E+06    -23.3160E+06    -14.7024E+06     10.5810E+06    -21.8054E+06     2.66655E+06
            1010     16.5245E-03     11.7256E-03     11.6435E-03     57.3991E-03    -23.2969E-03    -34.1338E-03    -34.0778E-03     57.3432E-03    -23.2969E-03    -3.66044E-03     85.6329E-03     29.8034E+06    -8.60337E+06    -14.8957E+06    -40.5230E+06    -13.2870E+06    -39.6291E+06    -11.1060E+06     3.26238E+06
            1011     15.8484E-03     10.7584E-03     11.6374E-03     55.1157E-03    -22.4626E-03    -32.6402E-03    -32.4098E-03     54.8853E-03    -22.4626E-03    -8.56340E-03     75.8505E-03     70.2808E+06    -2.47875E+06    -12.0977E+06    -77.0396E+06    -12.3502E+06    -76.7871E+06    -2.47875E+06     3.89134E+06
            1012     15.2056E-03     9.78914E-03     11.6355E-03     52.5574E-03    -21.6131E-03    -30.8995E-03    -30.4593E-03     52.1172E-03    -21.6131E-03    -11.9859E-03     67.0842E-03     98.6427E+06     3.62709E+06    -11.9781E+06    -101.844E+06    -12.2441E+06    -101.578E+06     3.62709E+06     4.78290E+06
            1013     14.5990E-03     8.81820E-03     11.6349E-03     49.7615E-03    -20.7835E-03    -28.9667E-03    -28.3648E-03     49.1595E-03    -20.7835E-03    -13.6372E-03     60.1005E-03     119.518E+06     9.96629E+06    -12.2692E+06    -119.087E+06    -12.5594E+06    -118.797E+06     9.96629E+06     5.42824E+06
            1014     14.0327E-03     7.84493E-03     11.6351E-03     46.8016E-03    -19.9853E-03    -26.8226E-03    -26.1230E-03     46.1020E-03    -19.9853E-03    -14.2376E-03     53.9939E-03     137.789E+06     12.0510E+06    -12.7838E+06    -136.453E+06    -13.0366E+06    -136.200E+06     12.0510E+06     5.36031E+06
            1015     13.5121E-03     6.86947E-03     11.6356E-03     43.9319E-03    -19.2542E-03    -24.6785E-03    -23.9784E-03     43.2317E-03    -19.2542E-03    -13.7496E-03     48.7208E-03     153.279E+06     10.3681E+06    -13.6707E+06    -153.501E+06    -13.8998E+06    -153.272E+06     10.3681E+06     5.51119E+06
            1016     13.0426E-03     5.89207E-03     11.6359E-03     41.2598E-03    -18.6072E-03    -22.6481E-03    -22.0268E-03     40.6386E-03    -18.6072E-03    -12.4941E-03     44.3159E-03     164.981E+06     5.08518E+06    -15.3459E+06    -169.132E+06    -15.6055E+06    -168.872E+06     5.08518E+06     6.24803E+06
            1017     12.6302E-03     4.91263E-03     11.6357E-03     38.9295E-03    -18.0625E-03    -20.8622E-03    -20.3644E-03     38.4317E-03    -18.0625E-03    -10.8083E-03     40.8150E-03     177.155E+06    -866.591E+03    -17.4713E+06    -185.723E+06    -17.8127E+06    -185.382E+06    -866.591E+03     7.53462E+06
            1018     12.2816E-03     3.93188E-03     11.6352E-03     36.9732E-03    -17.6221E-03    -19.3477E-03    -18.9959E-03     36.6214E-03    -17.6221E-03    -8.78546E-03     38.0759E-03     185.634E+06    -5.66574E+06    -19.5516E+06    -197.828E+06    -19.9089E+06    -197.470E+06    -5.66574E+06     7.85895E+06
            1019     12.0022E-03     2.94971E-03     11.6341E-03     35.4797E-03    -17.2823E-03    -18.1942E-03    -17.9833E-03     35.2689E-03    -17.2823E-03    -6.61480E-03     36.0577E-03     185.013E+06    -12.1750E+06    -21.3109E+06    -201.551E+06    -21.5511E+06    -201.311E+06    -12.1750E+06     6.37266E+06
            1020     11.7986E-03     1.96697E-03     11.6335E-03     34.5225E-03    -17.0277E-03    -17.4923E-03    -17.3903E-03     34.4205E-03    -17.0277E-03    -4.46662E-03     34.8246E-03     185.031E+06    -18.0360E+06    -23.2004E+06    -205.583E+06    -23.3493E+06    -205.434E+06    -18.0360E+06     5.16343E+06
            1021     11.6741E-03     983.857E-06     11.6326E-03     33.8307E-03    -16.7911E-03    -17.0379E-03    -17.0031E-03     33.7959E-03    -16.7911E-03    -2.49400E-03     34.1053E-03     185.621E+06    -21.1899E+06    -24.4638E+06    -208.421E+06    -24.3187E+06    -208.327E+06    -21.4285E+06     3.27070E+06
            1022     19.7695E-03     16.5493E-03     10.8146E-03     83.1752E-03    -27.5134E-03    -55.8334E-03    -41.2334E-03     68.5752E-03    -27.5134E-03     82.9893E-03     212.345E-03     175.539E+06     187.382E+06     123.239E+06    -8.61643E+06    -8.60854E+06     187.374E+06     123.239E+06     1.10622E+06
            1023     18.9050E-03     15.5880E-03     10.6963E-03     80.8186E-03    -26.3385E-03    -54.5291E-03    -40.2290E-03     66.5185E-03    -26.3385E-03     80.9816E-03     202.561E-03     163.330E+06     166.873E+06     48.8642E+06    -15.3887E+06    -15.3726E+06     166.857E+06     48.8642E+06     1.67755E+06
            1024     18.0822E-03     14.6264E-03     10.6318E-03     67.6790E-03    -25.1796E-03    -42.5180E-03    -38.6826E-03     63.8436E-03    -25.1796E-03     36.4943E-03     145.131E-03     156.762E+06     140.143E+06    -4.02562E+06    -26.6614E+06    -17.5325E+06     140.132E+06    -13.1433E+06     928.896E+03
            1025     17.2978E-03     13.6649E-03     10.6058E-03     62.0984E-03    -24.2381E-03    -37.8923E-03    -37.4666E-03     61.6727E-03    -24.2381E-03     11.7867E-03     116.160E-03     107.552E+06     84.4063E+06    -16.7856E+06    -28.5043E+06    -16.7571E+06     84.3778E+06    -28.5043E+06     306.301E+03
            1026     16.5379E-03     12.7006E-03     10.5923E-03     59.7832E-03    -23.4088E-03    -36.4120E-03    -36.3634E-03     59.7346E-03    -23.4088E-03     2.50266E-03     97.5534E-03     33.0288E+06     14.2980E+06    -15.5393E+06    -20.4400E+06    -14.9317E+06     10.5999E+06    -17.3495E+06     1.19834E+06
            1027     15.8032E-03     11.7355E-03     10.5838E-03     57.7383E-03    -22.4781E-03    -35.2934E-03    -35.2148E-03     57.6597E-03    -22.4781E-03    -4.26746E-03     85.7027E-03     31.1022E+06    -5.99601E+06    -14.2936E+06    -40.3021E+06    -13.7734E+06    -39.9755E+06    -6.84274E+06     1.88912E+06
            1028     15.0983E-03     10.7697E-03     10.5817E-03     55.2072E-03    -21.4752E-03    -33.7218E-03    -33.4392E-03     54.9247E-03    -21.4752E-03    -9.69065E-03     75.6901E-03     72.6282E+06     2.67318E+06    -13.4431E+06    -76.5784E+06    -13.5438E+06    -76.4776E+06     2.67318E+06     2.27876E+06
            1029     14.4243E-03     9.80152E-03     10.5826E-03     52.0382E-03    -20.4423E-03    -31.5527E-03    -31.0466E-03     51.5322E-03    -20.4423E-03    -12.8866E-03     66.4387E-03     101.238E+06     8.93705E+06    -12.4022E+06    -101.220E+06    -12.5177E+06    -101.105E+06     8.93705E+06     1.82693E+06
            1030     13.7855E-03     8.83084E-03     10.5857E-03     48.6935E-03    -19.4374E-03    -29.2493E-03    -28.5673E-03     48.0116E-03    -19.4374E-03    -14.4726E-03     59.0116E-03     123.094E+06     15.7201E+06    -9.95749E+06    -118.186E+06    -10.0796E+06    -118.064E+06     15.7201E+06     939.798E+03
            1031     13.1865E-03     7.85768E-03     10.5897E-03     45.2703E-03    -18.4767E-03    -26.8019E-03    -26.0106E-03     44.4790E-03    -18.4767E-03    -15.0082E-03     52.4530E-03     143.769E+06     19.2878E+06    -7.90028E+06    -136.119E+06    -7.97653E+06    -136.043E+06     19.2878E+06     1.44737E+06
            1032     12.6328E-03     6.88187E-03     10.5937E-03     41.8228E-03    -17.5856E-03    -24.2360E-03    -23.4433E-03     41.0302E-03    -17.5856E-03    -14.3846E-03     46.6321E-03     160.745E+06     18.6849E+06    -7.67333E+06    -153.601E+06    -7.75344E+06    -153.521E+06     18.6849E+06     2.97020E+06
            1033     12.1305E-03     5.90346E-03     10.5971E-03     38.5920E-03    -16.8015E-03    -21.7889E-03    -21.0841E-03     37.8872E-03    -16.8015E-03    -12.9662E-03     41.6853E-03     174.171E+06     15.9527E+06    -9.39747E+06    -169.474E+06    -9.55122E+06    -169.320E+06     15.9527E+06     4.80514E+06
            1034     11.6871E-03     4.92304E-03     10.5996E-03     35.7287E-03    -16.1265E-03    -19.6005E-03    -19.0374E-03     35.1656E-03    -16.1265E-03    -11.0902E-03     37.6404E-03     185.405E+06     11.0748E+06    -12.2751E+06    -184.861E+06    -12.4950E+06    -184.641E+06     11.0748E+06     6.00934E+06
            1035     11.3096E-03     3.94053E-03     10.6009E-03     33.3237E-03    -15.5536E-03    -17.7685E-03    -17.3682E-03     32.9235E-03    -15.5536E-03    -8.97391E-03     34.4895E-03     190.168E+06     4.79898E+06    -14.7457E+06    -194.365E+06    -14.9230E+06    -194.187E+06     4.79898E+06     5.33329E+06
            1036     11.0065E-03     2.95669E-03     10.6020E-03     31.4279E-03    -15.0962E-03    -16.3301E-03    -16.0887E-03     31.1865E-03    -15.0962E-03    -6.69740E-03     32.1084E-03     188.930E+06    -2.84451E+06    -17.2114E+06    -198.526E+06    -17.3241E+06    -198.413E+06    -2.84451E+06     4.31461E+06
            1037     10.7836E-03     1.97175E-03     10.6018E-03     30.0382E-03    -14.7619E-03    -15.2746E-03    -15.1602E-03     29.9237E-03    -14.7619E-03    -4.43558E-03     30.4802E-03     186.876E+06    -11.0509E+06    -19.0177E+06    -201.751E+06    -19.0935E+06    -201.675E+06    -11.0509E+06     3.17948E+06
            1038     10.6478E-03     985.805E-06     10.6021E-03     29.2516E-03    -14.5347E-03    -14.7160E-03    -14.6754E-03     29.2109E-03    -14.5347E-03    -2.54088E-03     29.7603E-03     184.956E+06    -17.0597E+06    -19.5643E+06    -203.247E+06    -19.2648E+06    -203.222E+06    -17.3842E+06     1.10166E+06
            1039     19.2063E-03     16.5518E-03     9.74265E-03     84.4623E-03    -27.4145E-03    -57.1948E-03    -43.5565E-03     70.8240E-03    -27.4145E-03     80.5989E-03     208.320E-03     174.977E+06     186.521E+06     124.407E+06    -8.56002E+06    -8.54068E+06     186.501E+06     124.407E+06     1.79746E+06
            1040     18.3255E-03     15.5927E-03     9.62766E-03     81.7302E-03    -26.1168E-03    -55.6458E-03    -41.8127E-03     67.8971E-03    -26.1168E-03     80.4410E-03     200.337E-03     163.121E+06     167.632E+06     51.8832E+06    -14.8950E+06    -14.8716E+06     167.608E+06     51.8832E+06     1.98263E+06
            1041     17.4807E-03     14.6321E-03     9.56427E-03     68.1326E-03    -24.8680E-03    -43.2770E-03    -39.5925E-03     64.4480E-03    -24.8680E-03     36.1538E-03     143.510E-03     155.584E+06     141.983E+06    -1.99996E+06    -22.5841E+06    -17.0294E+06     141.973E+06    -7.54410E+06     682.785E+03
            1042     16.6701E-03     13.6693E-03     9.54166E-03     62.4635E-03    -23.8520E-03    -38.6376E-03    -38.2061E-03     62.0320E-03    -23.8520E-03     12.0599E-03     115.324E-03     104.685E+06     85.0128E+06    -15.7377E+06    -23.0892E+06    -16.8178E+06     85.0035E+06    -21.9998E+06    -617.149E+03
            1043     15.8836E-03     12.7073E-03     9.52969E-03     60.2696E-03    -22.9252E-03    -37.3801E-03    -37.3254E-03     60.2148E-03    -22.9252E-03     3.14591E-03     97.6962E-03     33.2762E+06     15.9396E+06    -14.5042E+06    -18.9300E+06    -15.9321E+06     10.1360E+06    -11.6985E+06    -521.864E+03
            1044     15.1204E-03     11.7437E-03     9.52426E-03     57.8369E-03    -21.8864E-03    -35.9826E-03    -35.9183E-03     57.7725E-03    -21.8864E-03    -3.51707E-03     85.6310E-03     35.1600E+06    -917.122E+03    -14.5279E+06    -40.5140E+06    -14.8773E+06    -40.1646E+06    -917.122E+03     140.931E+03
            1045     14.3837E-03     10.7782E-03     9.52477E-03     54.9244E-03    -20.7747E-03    -34.1470E-03    -33.8984E-03     54.6758E-03    -20.7747E-03    -8.99676E-03     75.4455E-03     75.5420E+06     9.14316E+06    -13.0905E+06    -74.9485E+06    -13.2487E+06    -74.7903E+06     9.14316E+06    -929.413E+03
            1046     13.6779E-03     9.81058E-03     9.53080E-03     51.4392E-03    -19.6304E-03    -31.7746E-03    -31.3435E-03     51.0081E-03    -19.6304E-03    -11.8440E-03     66.1609E-03     104.391E+06     15.7471E+06    -9.58191E+06    -98.9603E+06    -9.92008E+06    -98.6221E+06     15.7471E+06    -3.85765E+06
            1047     13.0040E-03     8.83985E-03     9.53734E-03     47.6782E-03    -18.5166E-03    -29.1584E-03    -28.5924E-03     47.1121E-03    -18.5166E-03    -13.0317E-03     58.4356E-03     128.294E+06     21.1823E+06    -6.61316E+06    -118.727E+06    -6.91384E+06    -118.427E+06     21.1823E+06    -5.15063E+06
            1048     12.3694E-03     7.86664E-03     9.54556E-03     43.9646E-03    -17.4612E-03    -26.5105E-03    -25.8513E-03     43.3054E-03    -17.4612E-03    -13.4990E-03     51.6619E-03     150.697E+06     25.4245E+06    -5.71290E+06    -138.386E+06    -5.86088E+06    -138.238E+06     25.4245E+06    -3.37654E+06
            1049     11.7793E-03     6.89057E-03     9.55366E-03     40.2250E-03    -16.4763E-03    -23.7479E-03    -23.0945E-03     39.5715E-03    -16.4763E-03    -12.7985E-03     45.5482E-03     168.408E+06     26.9898E+06    -6.29982E+06    -155.528E+06    -6.34185E+06    -155.486E+06     26.9898E+06    -279.699E+03
            1050     11.2408E-03     5.91175E-03     9.56069E-03     36.6600E-03    -15.5904E-03    -21.0725E-03    -20.4960E-03     36.0836E-03    -15.5904E-03    -11.4129E-03     40.1908E-03     182.354E+06     26.2723E+06    -7.82718E+06    -170.681E+06    -7.88496E+06    -170.623E+06     26.2723E+06     2.04274E+06
            1051     10.7620E-03     4.93031E-03     9.56627E-03     33.4877E-03    -14.7990E-03    -18.6901E-03    -18.2326E-03     33.0302E-03    -14.7990E-03    -9.66207E-03     35.7452E-03     191.948E+06     22.2098E+06    -9.71196E+06    -183.646E+06    -9.78625E+06    -183.571E+06     22.2098E+06     2.69799E+06
            1052     10.3523E-03     3.94692E-03     9.57042E-03     30.7704E-03    -14.0977E-03    -16.6721E-03    -16.3479E-03     30.4462E-03    -14.0977E-03    -7.75323E-03     32.2471E-03     193.319E+06     12.9011E+06    -12.0597E+06    -191.633E+06    -12.1021E+06    -191.591E+06     12.9011E+06     2.12179E+06
            1053     10.0209E-03     2.96189E-03     9.57318E-03     28.5166E-03    -13.5188E-03    -14.9961E-03    -14.7975E-03     28.3180E-03    -13.5188E-03    -5.78839E-03     29.4978E-03     191.226E+06     2.41414E+06    -14.3640E+06    -196.614E+06    -14.3921E+06    -196.586E+06     2.41414E+06     1.10425E+06
            1054     9.77659E-03     1.97523E-03     9.57497E-03     26.8182E-03    -13.0903E-03    -13.7271E-03    -13.6297E-03     26.7209E-03    -13.0903E-03    -3.87241E-03     27.5925E-03     188.195E+06    -7.63747E+06    -15.7744E+06    -199.725E+06    -15.7888E+06    -199.711E+06    -7.63747E+06     211.240E+03
            1055     9.62642E-03     987.957E-06     9.57559E-03     25.8298E-03    -12.8175E-03    -13.0120E-03    -12.9713E-03     25.7961E-03    -12.8245E-03    -2.13283E-03     26.6580E-03     185.773E+06    -15.2228E+06    -17.0838E+06    -201.914E+06    -17.0002E+06    -201.912E+06    -15.3086E+06     144.482E+03
            1056     18.6860E-03     16.5525E-03     8.67078E-03     85.8710E-03    -27.4140E-03    -58.5706E-03    -45.6483E-03     72.9488E-03    -27.4140E-03     78.2787E-03     203.024E-03     174.134E+06     185.747E+06     126.200E+06    -8.02256E+06    -7.99986E+06     185.725E+06     126.200E+06     1.91354E+06
            1057     17.7867E-03     15.5939E-03     8.55555E-03     82.4624E-03    -26.0315E-03    -56.4585E-03    -42.8159E-03     68.8198E-03    -26.0315E-03     80.3473E-03     196.856E-03     162.553E+06     168.921E+06     56.2480E+06    -13.4785E+06    -13.4546E+06     168.897E+06     56.2480E+06     1.93734E+06
            1058     16.9230E-03     14.6348E-03     8.49770E-03     68.3943E-03    -24.7363E-03    -43.6659E-03    -40.0351E-03     64.7635E-03    -24.7363E-03     36.6067E-03     140.944E-03     153.491E+06     143.140E+06     372.759E+03    -18.3813E+06    -16.1511E+06     143.132E+06    -1.84973E+06     556.229E+03
            1059     16.0879E-03     13.6735E-03     8.47686E-03     62.7773E-03    -23.6899E-03    -39.1081E-03    -38.5557E-03     62.2250E-03    -23.6899E-03     13.7710E-03     113.494E-03     102.914E+06     86.7368E+06    -12.7099E+06    -19.0309E+06    -16.7868E+06     86.7151E+06    -14.9324E+06    -689.934E+03
            1060     15.2724E-03     12.7107E-03     8.46661E-03     60.1916E-03    -22.7286E-03    -37.4956E-03    -37.4031E-03     60.0991E-03    -22.7286E-03     4.99736E-03     96.8205E-03     36.6320E+06     20.2604E+06    -11.2270E+06    -19.4411E+06    -16.1755E+06     10.7958E+06    -5.02798E+06    -2.34446E+06
            1061     14.4791E-03     11.7471E-03     8.46471E-03     57.2986E-03    -21.6738E-03    -35.6525E-03    -35.6199E-03     57.2660E-03    -21.6738E-03    -770.190E-06     84.9487E-03     40.5827E+06     4.98629E+06    -12.5113E+06    -40.9818E+06    -13.7983E+06    -39.6948E+06     4.98629E+06    -3.93574E+06
            1062     13.7100E-03     10.7814E-03     8.46910E-03     54.1310E-03    -20.5793E-03    -33.5540E-03    -33.4368E-03     54.0138E-03    -20.5793E-03    -5.52282E-03     75.0358E-03     78.6650E+06     15.9878E+06    -9.17470E+06    -72.1238E+06    -10.1418E+06    -71.1567E+06     15.9878E+06    -6.68127E+06
            1063     12.9689E-03     9.81316E-03     8.47902E-03     50.6654E-03    -19.4697E-03    -31.1820E-03    -30.9699E-03     50.4533E-03    -19.4697E-03    -7.81051E-03     66.2878E-03     109.030E+06     23.5584E+06    -6.54483E+06    -97.3110E+06    -7.70407E+06    -96.1517E+06     23.5584E+06    -9.86770E+06
            1064     12.2588E-03     8.84265E-03     8.49032E-03     46.9556E-03    -18.3722E-03    -28.5953E-03    -28.3216E-03     46.6818E-03    -18.3722E-03    -8.47416E-03     58.7932E-03     135.847E+06     28.3428E+06    -5.60573E+06    -121.208E+06    -6.60828E+06    -120.205E+06     28.3428E+06    -10.2769E+06
            1065     11.5851E-03     7.86893E-03     8.50260E-03     43.2697E-03    -17.3195E-03    -25.9575E-03    -25.6401E-03     42.9523E-03    -17.3195E-03    -8.73230E-03     52.0819E-03     159.742E+06     32.5764E+06    -5.77574E+06    -142.827E+06    -6.33114E+06    -142.272E+06     32.5764E+06    -8.10845E+06
            1066     10.9548E-03     6.89272E-03     8.51460E-03     39.7301E-03    -16.3240E-03    -23.4048E-03    -23.0967E-03     39.4220E-03    -16.3240E-03    -8.20745E-03     46.1326E-03     177.968E+06     35.5957E+06    -6.58177E+06    -159.659E+06    -6.82674E+06    -159.414E+06     35.5957E+06    -5.10512E+06
            1067     10.3761E-03     5.91384E-03     8.52579E-03     36.2828E-03    -15.3705E-03    -20.9114E-03    -20.6423E-03     36.0137E-03    -15.3705E-03    -7.31481E-03     40.7600E-03     188.094E+06     32.7931E+06    -8.10284E+06    -172.357E+06    -8.20041E+06    -172.260E+06     32.7931E+06    -2.69878E+06
            1068     9.85741E-03     4.93257E-03     8.53454E-03     33.0207E-03    -14.4771E-03    -18.5415E-03    -18.3266E-03     32.8058E-03    -14.4771E-03    -6.22445E-03     36.0854E-03     193.154E+06     25.3015E+06    -10.1598E+06    -183.100E+06    -10.2197E+06    -183.040E+06     25.3015E+06    -2.02443E+06
            1069     9.41026E-03     3.94914E-03     8.54151E-03     30.0957E-03    -13.6806E-03    -16.4107E-03    -16.2568E-03     29.9419E-03    -13.6806E-03    -5.00580E-03     32.1736E-03     193.782E+06     14.7740E+06    -11.6791E+06    -190.808E+06    -11.7797E+06    -190.707E+06     14.7740E+06    -2.77390E+06
            1070     9.04615E-03     2.96360E-03     8.54693E-03     27.6612E-03    -13.0115E-03    -14.6454E-03    -14.5499E-03     27.5658E-03    -13.0115E-03    -3.75039E-03     29.0926E-03     192.548E+06     3.61062E+06    -12.4776E+06    -196.432E+06    -12.5570E+06    -196.353E+06     3.61062E+06    -2.95784E+06
            1071     8.77577E-03     1.97688E-03     8.55021E-03     25.7798E-03    -12.4924E-03    -13.2869E-03    -13.2392E-03     25.7322E-03    -12.4924E-03    -2.52524E-03     26.9178E-03     190.701E+06    -5.87439E+06    -14.0320E+06    -200.501E+06    -14.0647E+06    -200.468E+06    -5.87439E+06    -2.18450E+06
            1072     8.60913E-03     988.622E-06     8.55218E-03     24.5153E-03    -12.1053E-03    -12.4098E-03    -12.3866E-03     24.4990E-03    -12.1123E-03    -1.34869E-03     25.6232E-03     188.770E+06    -12.7707E+06    -15.8696E+06    -203.062E+06    -15.8824E+06    -203.050E+06    -12.7707E+06    -527.606E+03
            1073     18.2101E-03     16.5504E-03     7.59551E-03     87.2458E-03    -27.5916E-03    -59.7546E-03    -47.3150E-03     74.8062E-03    -27.5916E-03     76.0077E-03     196.455E-03     174.746E+06     185.647E+06     127.785E+06    -8.73264E+06    -8.72286E+06     185.637E+06     127.785E+06     1.16782E+06
            1074     17.2966E-03     15.5940E-03     7.48320E-03     83.1029E-03    -26.1645E-03    -56.9512E-03    -43.1679E-03     69.3195E-03    -26.1645E-03     81.1157E-03     192.479E-03     162.675E+06     169.099E+06     59.4753E+06    -13.6974E+06    -13.6854E+06     169.087E+06     59.4753E+06     1.30279E+06
            1075     16.4119E-03     14.6330E-03     7.43145E-03     68.6884E-03    -24.8651E-03    -43.8293E-03    -39.9976E-03     64.8567E-03    -24.8651E-03     38.5331E-03     137.355E-03     153.523E+06     144.158E+06     1.70603E+06    -17.3417E+06    -15.9931E+06     144.152E+06     363.938E+03     970.924E+03
            1076     15.5505E-03     13.6713E-03     7.41044E-03     62.6738E-03    -23.8553E-03    -38.8456E-03    -38.0242E-03     61.8524E-03    -23.8553E-03     17.2210E-03     110.559E-03     103.875E+06     89.0379E+06    -10.2599E+06    -18.2060E+06    -16.8143E+06     88.9882E+06    -11.6020E+06    -771.495E+03
            1077     14.7092E-03     12.7090E-03     7.40554E-03     59.2140E-03    -22.9902E-03    -36.2645E-03    -36.0026E-03     58.9522E-03    -22.9902E-03     9.36201E-03     94.9903E-03     40.3849E+06     24.4323E+06    -6.34491E+06    -20.4646E+06    -16.1900E+06     13.7400E+06     72.8418E+03    -4.72894E+06
            1078     13.8836E-03     11.7434E-03     7.40583E-03     56.0354E-03    -22.0830E-03    -33.9821E-03    -33.8489E-03     55.9022E-03    -22.0830E-03     5.11573E-03     83.8266E-03     45.2064E+06     9.41749E+06    -8.85515E+06    -41.8690E+06    -13.8650E+06    -36.8591E+06     9.41749E+06    -9.66646E+06
            1079     13.0806E-03     10.7762E-03     7.41464E-03     52.9289E-03    -21.1862E-03    -31.7569E-03    -31.6806E-03     52.8526E-03    -21.1862E-03     1.54971E-03     74.6675E-03     82.1153E+06     20.4077E+06    -8.28331E+06    -72.1799E+06    -11.2944E+06    -69.1688E+06     20.4077E+06    -12.9188E+06
            1080     12.3021E-03     9.80663E-03     7.42784E-03     49.9196E-03    -20.2990E-03    -29.6364E-03    -29.5404E-03     49.8236E-03    -20.2990E-03     539.802E-06     67.0615E-03     113.859E+06     30.0683E+06    -7.11925E+06    -97.7020E+06    -9.66089E+06    -95.1604E+06     30.0683E+06    -14.6837E+06
            1081     11.5525E-03     8.83488E-03     7.44342E-03     47.0602E-03    -19.3885E-03    -27.6982E-03    -27.5840E-03     46.9461E-03    -19.3885E-03     537.266E-06     60.6325E-03     143.209E+06     34.5273E+06    -7.03224E+06    -124.824E+06    -9.23197E+06    -122.625E+06     34.5273E+06    -15.5814E+06
            1082     10.8370E-03     7.86116E-03     7.45948E-03     44.2257E-03    -18.4747E-03    -25.7612E-03    -25.6425E-03     44.1071E-03    -18.4747E-03     382.391E-06     54.6583E-03     168.359E+06     38.1708E+06    -6.99932E+06    -148.155E+06    -8.59333E+06    -146.561E+06     38.1708E+06    -14.2966E+06
            1083     10.1628E-03     6.88515E-03     7.47506E-03     41.4294E-03    -17.5636E-03    -23.8677E-03    -23.7581E-03     41.3198E-03    -17.5636E-03     275.022E-06     49.3306E-03     187.267E+06     41.8974E+06    -6.76952E+06    -164.885E+06    -7.80795E+06    -163.847E+06     41.8974E+06    -12.0189E+06
            1084     9.53867E-03     5.90739E-03     7.48926E-03     38.5550E-03    -16.6154E-03    -21.9376E-03    -21.8484E-03     38.4658E-03    -16.6154E-03     7.99040E-06     44.3121E-03     195.410E+06      37.261E+06    -7.01913E+06    -176.431E+06    -7.62923E+06    -175.821E+06      37.261E+06    -9.21131E+06
            1085     8.97563E-03     4.92754E-03     7.50209E-03     35.4712E-03    -15.6655E-03    -19.8042E-03    -19.7401E-03     35.4070E-03    -15.6655E-03    -286.869E-06     39.5876E-03     195.778E+06     25.9715E+06    -7.84698E+06    -184.450E+06    -8.21640E+06    -184.081E+06     25.9715E+06    -7.39561E+06
            1086     8.48520E-03     3.94517E-03     7.51228E-03     32.4581E-03    -14.7964E-03    -17.6628E-03    -17.6208E-03     32.4160E-03    -14.7964E-03    -410.090E-06     35.3533E-03     195.008E+06     13.3691E+06    -9.84902E+06    -192.146E+06    -10.1440E+06    -191.851E+06     13.3691E+06    -7.21780E+06
            1087     8.08166E-03     2.96107E-03     7.51966E-03     29.8694E-03    -14.0597E-03    -15.8132E-03    -15.7885E-03     29.8447E-03    -14.0597E-03    -425.173E-06     31.8895E-03     194.017E+06     1.56322E+06    -12.5283E+06    -199.085E+06    -12.7627E+06    -198.850E+06     1.56322E+06    -6.40939E+06
            1088     7.78029E-03     1.97496E-03     7.52545E-03     27.8468E-03    -13.4804E-03    -14.3692E-03    -14.3577E-03     27.8353E-03    -13.4804E-03    -382.833E-06     29.3995E-03     193.034E+06    -6.90962E+06    -14.5912E+06    -203.656E+06    -14.7089E+06    -203.538E+06    -6.90962E+06    -4.36618E+06
            1089     7.59312E-03     988.076E-06     7.52855E-03     26.4166E-03    -13.0227E-03    -13.3938E-03    -13.3639E-03     26.4129E-03    -13.0487E-03    -253.591E-06     27.8577E-03     192.068E+06    -12.9594E+06    -16.3153E+06    -206.675E+06    -16.1975E+06    -206.636E+06    -13.1169E+06    -1.95402E+06
            1090     17.7817E-03     16.5442E-03     6.51749E-03     88.3863E-03    -28.0461E-03    -60.4231E-03    -48.1133E-03     76.0765E-03    -28.0461E-03     74.1234E-03     188.730E-03     175.799E+06     185.964E+06     128.504E+06    -9.74459E+06    -9.73266E+06     185.952E+06     128.504E+06     1.32629E+06
            1091     16.8528E-03     15.5855E-03     6.41166E-03     84.1932E-03    -26.6383E-03    -57.6198E-03    -43.2910E-03     69.8644E-03    -26.6383E-03     83.1686E-03     187.883E-03     164.598E+06     169.173E+06     61.1659E+06    -16.1908E+06    -16.1814E+06     169.164E+06     61.1659E+06     533.727E+03
            1092     15.9508E-03     14.6266E-03     6.36315E-03     68.8924E-03    -25.3765E-03    -43.5837E-03    -39.3699E-03     64.6786E-03    -25.3765E-03     40.9865E-03     132.598E-03     155.505E+06     144.369E+06     1.24752E+06    -19.7778E+06    -18.3246E+06     144.362E+06    -198.030E+03     339.862E+03
            1093     15.0662E-03     13.6641E-03     6.34673E-03     61.2829E-03    -24.4995E-03    -36.7894E-03    -35.5581E-03     60.0515E-03    -24.4995E-03     21.1863E-03     105.823E-03     107.291E+06     91.3475E+06    -10.7723E+06    -19.6863E+06    -18.1806E+06     91.2873E+06    -12.2179E+06    -1.07521E+06
            1094     14.1946E-03     12.6975E-03     6.34505E-03     57.0778E-03    -23.9292E-03    -33.1737E-03    -32.3760E-03     56.2801E-03    -23.9292E-03     16.1487E-03     92.1416E-03     45.5109E+06     27.8227E+06    -2.37088E+06    -22.2566E+06    -18.5065E+06     19.8566E+06     1.84509E+06    -6.86147E+06
            1095     13.3378E-03     11.7294E-03     6.34971E-03     54.2368E-03    -23.4047E-03    -30.8679E-03    -30.0728E-03     53.4417E-03    -23.4047E-03     14.9510E-03     82.6432E-03     49.1581E+06     10.6869E+06    -5.72236E+06    -44.4086E+06    -18.2998E+06    -31.8311E+06     10.6869E+06    -14.6167E+06
            1096     12.4987E-03     10.7586E-03     6.36147E-03     51.9723E-03    -22.9242E-03    -29.0710E-03    -28.3244E-03     51.2257E-03    -22.9242E-03     13.4453E-03     74.9678E-03     85.2058E+06     20.4431E+06    -8.87715E+06    -75.5158E+06    -15.7247E+06    -68.6682E+06     20.4431E+06    -19.5162E+06
            1097     11.6812E-03     9.78625E-03     6.37809E-03     50.4804E-03    -22.4617E-03    -28.0385E-03    -27.1974E-03     49.6394E-03    -22.4617E-03     13.9920E-03     69.2846E-03     118.546E+06     31.3606E+06    -7.51849E+06    -101.717E+06    -12.7625E+06    -96.4732E+06     31.3606E+06    -21.0360E+06
            1098     10.8890E-03     8.81285E-03     6.39563E-03     49.4227E-03    -21.9456E-03    -27.4888E-03    -26.6320E-03     48.5659E-03    -21.9456E-03     14.2333E-03     64.5994E-03     149.558E+06     37.6456E+06    -6.97338E+06    -129.109E+06    -11.1033E+06    -124.979E+06     37.6456E+06    -21.7288E+06
            1099     10.1289E-03     7.83906E-03     6.41436E-03     48.2394E-03    -21.3348E-03    -26.9111E-03    -26.1282E-03     47.4566E-03    -21.3348E-03     13.6184E-03     60.1089E-03     175.809E+06     40.2122E+06    -6.75372E+06    -154.281E+06    -10.1771E+06    -150.858E+06     40.2122E+06    -21.8771E+06
            1100     9.40739E-03     6.86463E-03     6.43240E-03     46.6776E-03    -20.6053E-03    -26.0818E-03    -25.4198E-03     46.0156E-03    -20.6053E-03     12.4187E-03     55.8589E-03     192.771E+06     39.6589E+06    -7.10225E+06    -172.116E+06    -9.61505E+06    -169.603E+06     39.6589E+06    -19.7619E+06
            1101     8.73360E-03     5.88904E-03     6.44941E-03     44.5195E-03    -19.7512E-03    -24.7715E-03    -24.2858E-03     44.0339E-03    -19.7512E-03     10.4152E-03     51.3645E-03     198.140E+06     31.9602E+06    -8.08044E+06    -183.027E+06    -9.75419E+06    -181.353E+06     31.9602E+06    -16.6477E+06
            1102     8.11932E-03     4.91202E-03     6.46493E-03     41.9056E-03    -18.8453E-03    -23.0632E-03    -22.7321E-03     41.5745E-03    -18.8453E-03     8.26424E-03     46.9082E-03     197.234E+06     20.5907E+06    -9.01663E+06    -189.700E+06    -10.0869E+06    -188.629E+06     20.5907E+06    -13.3722E+06
            1103     7.57890E-03     3.93326E-03     6.47837E-03     39.0531E-03    -17.9671E-03    -21.0920E-03    -20.8893E-03     38.8504E-03    -17.9671E-03     6.18937E-03     42.6905E-03     196.336E+06     9.13555E+06    -10.7375E+06    -196.336E+06    -11.2914E+06    -195.782E+06     9.13555E+06    -9.84166E+06
            1104     7.12864E-03     2.95206E-03     6.48867E-03     36.3026E-03    -17.1856E-03    -19.1230E-03    -19.0121E-03     36.1917E-03    -17.1856E-03     4.34777E-03     38.8776E-03     195.586E+06    -2.30899E+06    -14.1170E+06    -203.505E+06    -14.4311E+06    -203.190E+06    -2.30899E+06    -7.66148E+06
            1105     6.78846E-03     1.96939E-03     6.49651E-03     34.0681E-03    -16.5722E-03    -17.4994E-03    -17.4488E-03     34.0175E-03    -16.5722E-03     2.75525E-03     36.0048E-03     194.432E+06    -11.9018E+06    -17.2144E+06    -208.913E+06    -17.3981E+06    -208.730E+06    -11.9018E+06    -5.75579E+06
            1106     6.57533E-03     984.988E-06     6.50113E-03     32.6133E-03    -16.1668E-03    -16.4473E-03    -16.4051E-03     32.5971E-03    -16.1929E-03     1.40130E-03     34.3422E-03     193.788E+06    -16.9043E+06    -18.4531E+06    -211.457E+06    -18.1205E+06    -211.390E+06    -17.3041E+06    -3.22828E+06
            1107     17.4025E-03     16.5300E-03     5.44104E-03     89.7893E-03    -28.8515E-03    -60.9556E-03    -48.7118E-03     77.5455E-03    -28.8515E-03     72.4257E-03     180.257E-03     175.969E+06     186.944E+06     130.330E+06    -9.04703E+06    -9.00923E+06     186.906E+06     130.330E+06     2.58754E+06
            1108     16.4623E-03     15.5732E-03     5.33678E-03     85.1109E-03    -27.4974E-03    -57.7163E-03    -43.1446E-03     70.5393E-03    -27.4974E-03     84.0378E-03     181.794E-03     165.846E+06     170.850E+06     65.3418E+06    -16.2979E+06    -16.2831E+06     170.835E+06     65.3418E+06     835.496E+03
            1109     15.5429E-03     14.6131E-03     5.29517E-03     67.2082E-03    -26.3661E-03    -40.9731E-03    -36.4438E-03     62.6789E-03    -26.3661E-03     42.5212E-03     125.671E-03     157.102E+06     142.603E+06     986.002E+03    -25.1776E+06    -20.8488E+06     142.590E+06    -3.33029E+06     523.014E+03
            1110     14.6348E-03     13.6469E-03     5.28564E-03     58.2069E-03    -25.7976E-03    -32.4118E-03    -30.1134E-03     55.9157E-03    -25.8048E-03     27.7326E-03     100.240E-03     117.749E+06     94.1667E+06    -18.8092E+06    -27.4322E+06    -22.6296E+06     94.1136E+06    -23.5587E+06    -625.449E+03
            1111     13.7351E-03     12.6756E-03     5.28981E-03     54.6126E-03    -25.6132E-03    -29.0068E-03    -26.1828E-03     51.9508E-03    -25.7755E-03     27.6010E-03     89.8914E-03     58.0076E+06     34.6026E+06    -7.82011E+06    -27.0662E+06    -22.8833E+06     29.5885E+06    -6.98890E+06    -8.77051E+06
            1112     12.8430E-03     11.7002E-03     5.29599E-03     53.5417E-03    -25.3930E-03    -28.1887E-03    -24.6381E-03     50.4912E-03    -25.8931E-03     29.3494E-03     82.2844E-03     51.3571E+06     8.40824E+06    -3.67874E+06    -47.5994E+06    -21.7162E+06    -25.8383E+06     4.68459E+06    -19.6326E+06
            1113     11.9674E-03     10.7245E-03     5.31065E-03     53.2829E-03    -25.5497E-03    -27.7685E-03    -24.4525E-03     50.4366E-03    -26.0195E-03     28.6449E-03     76.0202E-03     84.5417E+06     11.3651E+06    -7.29760E+06    -80.6201E+06    -19.3436E+06    -68.5740E+06     11.3651E+06    -26.4573E+06
            1114     11.1094E-03     9.74866E-03     5.32760E-03     54.0287E-03    -26.0079E-03    -28.0260E-03    -25.0088E-03     51.1362E-03    -26.1325E-03     29.4495E-03     72.6565E-03     119.380E+06     22.3343E+06    -7.41088E+06    -108.897E+06    -16.4442E+06    -99.8636E+06     22.3343E+06    -28.3972E+06
            1115     10.2742E-03     8.77443E-03     5.34502E-03     54.9380E-03    -26.1478E-03    -28.7754E-03    -26.0735E-03     52.2361E-03    -26.1478E-03     29.0208E-03     69.9077E-03     150.813E+06     31.0151E+06    -6.22910E+06    -134.772E+06    -13.5275E+06    -127.473E+06     31.0151E+06    -29.3986E+06
            1116     9.46755E-03     7.80126E-03     5.36422E-03     55.6405E-03    -25.9886E-03    -29.6397E-03    -27.2300E-03     53.2308E-03    -25.9886E-03     27.8000E-03     67.4325E-03     180.207E+06     33.5915E+06    -4.96717E+06    -162.630E+06    -10.9792E+06    -156.618E+06     33.5915E+06    -29.7135E+06
            1117     8.69535E-03     6.82919E-03     5.38250E-03     55.6125E-03    -25.6045E-03    -30.0090E-03    -28.0451E-03     53.6487E-03    -25.6045E-03     25.2425E-03     64.8441E-03     196.930E+06     29.9903E+06    -6.07229E+06    -182.376E+06    -10.1686E+06    -178.280E+06     29.9903E+06     -26.277E+06
            1118     7.96769E-03     5.85746E-03     5.40132E-03     54.3888E-03    -25.0044E-03    -29.3879E-03    -27.9445E-03     52.9455E-03    -25.0044E-03     21.5053E-03     61.4486E-03     198.988E+06     20.7636E+06    -8.47336E+06    -191.136E+06    -11.1421E+06    -188.467E+06     20.7636E+06    -21.7579E+06
            1119     7.29560E-03     4.88479E-03     5.41891E-03     52.4770E-03    -24.2873E-03    -28.1927E-03    -27.1673E-03     51.4517E-03    -24.2873E-03     17.7886E-03     57.7792E-03     198.343E+06     9.45212E+06    -11.6884E+06    -198.523E+06    -13.3991E+06    -196.812E+06     9.45212E+06    -17.6024E+06
            1120     6.69593E-03     3.91103E-03     5.43502E-03     50.1785E-03    -23.5371E-03    -26.6423E-03    -25.9810E-03     49.5172E-03    -23.5371E-03     13.9263E-03     54.1090E-03     197.275E+06     154.732E+03    -14.8015E+06    -204.128E+06    -15.6865E+06    -203.243E+06     154.732E+03    -12.5319E+06
            1121     6.18916E-03     2.93574E-03     5.44859E-03     47.6710E-03    -22.8260E-03    -24.8452E-03    -24.4664E-03     47.2923E-03    -22.8260E-03     10.2030E-03     50.5446E-03     196.661E+06    -7.95280E+06    -17.2372E+06    -209.063E+06    -17.5930E+06    -208.707E+06    -7.95280E+06    -8.03100E+06
            1122     5.79932E-03     1.95818E-03     5.45872E-03     45.4383E-03    -22.2484E-03    -23.1904E-03    -23.0143E-03     45.2622E-03    -22.2484E-03     6.67669E-03     47.6380E-03     196.191E+06    -16.3458E+06    -19.8729E+06    -214.264E+06    -20.0321E+06    -214.105E+06    -16.3458E+06    -5.43321E+06
            1123     5.55233E-03     979.372E-06     5.46528E-03     44.0291E-03    -21.8474E-03    -22.1818E-03    -22.1248E-03     43.9721E-03    -21.8474E-03     3.60282E-03     45.8675E-03     195.519E+06    -20.6484E+06    -22.6266E+06    -217.145E+06    -22.4440E+06    -217.085E+06    -20.8907E+06    -2.93127E+06
            1124     17.0766E-03     16.5105E-03     4.36062E-03     91.5468E-03    -30.1034E-03    -61.4835E-03    -48.4163E-03     78.4796E-03    -30.1034E-03     75.8909E-03     175.320E-03     175.910E+06     187.347E+06     128.858E+06    -9.29806E+06    -9.24696E+06     187.296E+06     128.858E+06     3.01382E+06
            1125     16.1273E-03     15.5550E-03     4.25822E-03     85.8670E-03    -28.9054E-03    -57.0416E-03    -41.6307E-03     70.4561E-03    -28.9054E-03     86.4787E-03     174.658E-03     164.931E+06     170.069E+06     68.3097E+06    -17.0603E+06    -16.9577E+06     169.966E+06     68.3097E+06     3.22770E+06
            1126     15.1929E-03     14.5913E-03     4.23315E-03     64.3477E-03    -27.6222E-03    -36.8205E-03    -30.8200E-03     58.8337E-03    -28.1086E-03     45.4716E-03     117.297E-03     156.672E+06     141.055E+06     3.13735E+06    -27.6052E+06    -24.4458E+06     140.817E+06     215.656E+03     5.07322E+06
            1127     14.2574E-03     13.6155E-03     4.22984E-03     55.3309E-03    -25.8988E-03    -29.4659E-03    -23.2113E-03     51.1944E-03    -28.0169E-03     35.6091E-03     93.5629E-03     135.047E+06     100.744E+06    -28.4506E+06    -39.2403E+06    -30.1504E+06     100.447E+06    -37.2439E+06     254.316E+03
            1128     13.3273E-03     12.6348E-03     4.24029E-03     53.5802E-03    -25.0547E-03    -28.5571E-03    -20.2919E-03     48.8175E-03    -28.5571E-03     37.1781E-03     84.7560E-03     81.9864E+06     45.9453E+06    -26.3947E+06    -40.3481E+06    -28.5658E+06     40.8696E+06    -33.1013E+06    -12.6845E+06
            1129     12.4026E-03     11.6535E-03     4.24483E-03     54.2355E-03    -24.8948E-03    -29.3765E-03    -19.8403E-03     49.1811E-03    -29.3765E-03     38.6178E-03     78.8043E-03     54.3520E+06     7.57860E+06    -17.5194E+06    -51.0406E+06    -23.6320E+06    -20.4188E+06    -16.9305E+06    -24.2142E+06
            1130     11.4931E-03     10.6746E-03     4.25970E-03     56.2078E-03    -26.0480E-03    -30.1875E-03    -21.2359E-03     51.3957E-03    -30.1875E-03     38.5559E-03     75.3531E-03     78.5742E+06     495.109E+03    -14.7636E+06    -84.2486E+06    -20.9380E+06    -67.8739E+06    -9.70524E+06    -31.3163E+06
            1131     10.5978E-03     9.69808E-03     4.27334E-03     59.4032E-03    -28.3432E-03    -31.0550E-03    -23.7243E-03     54.6489E-03    -30.9196E-03     39.6751E-03     74.8915E-03     114.438E+06     5.82927E+06    -12.8618E+06    -116.679E+06    -18.2597E+06    -103.711E+06    -1.74035E+06    -35.3873E+06
            1132     9.72117E-03     8.72361E-03     4.28949E-03     62.0926E-03    -29.9534E-03    -32.1151E-03    -26.2544E-03     57.8183E-03    -31.5398E-03     38.8223E-03     74.4469E-03     145.747E+06      11.821E+06    -7.29701E+06    -142.240E+06    -14.8274E+06    -131.825E+06     8.93659E+06    -36.0996E+06
            1133     8.86724E-03     7.75151E-03     4.30604E-03     64.6247E-03    -31.3351E-03    -33.2488E-03    -28.8833E-03     60.8786E-03    -31.9544E-03     37.3529E-03     74.4110E-03     176.774E+06     12.4482E+06    -6.31515E+06    -172.647E+06    -14.1331E+06    -164.829E+06     12.4482E+06    -34.8756E+06
            1134     8.04282E-03     6.78222E-03     4.32302E-03     66.1106E-03    -32.0221E-03    -34.0478E-03    -31.0161E-03     63.1596E-03    -32.1029E-03     33.7493E-03     73.7374E-03     196.587E+06     10.6352E+06    -8.97851E+06    -194.813E+06    -14.4207E+06    -189.371E+06     10.6352E+06    -31.0675E+06
            1135     7.25691E-03     5.81443E-03     4.34225E-03     66.3240E-03    -31.9990E-03    -34.3054E-03    -32.1083E-03     64.1268E-03    -31.9990E-03     29.3342E-03     72.3590E-03     199.786E+06     5.61800E+06    -11.3901E+06    -202.029E+06    -14.6805E+06    -198.739E+06     5.61800E+06    -24.4968E+06
            1136     6.52025E-03     4.84709E-03     4.36112E-03     65.7445E-03    -31.7194E-03    -34.0192E-03    -32.4112E-03     64.1365E-03    -31.7194E-03     25.0382E-03     70.5258E-03     199.439E+06    -3.34359E+06    -14.7728E+06    -208.191E+06    -16.5623E+06    -206.401E+06    -3.34359E+06    -18.2745E+06
            1137     5.84992E-03     3.87930E-03     4.37865E-03     64.6713E-03    -31.3517E-03    -33.3131E-03    -32.2252E-03     63.5834E-03    -31.3517E-03     20.4114E-03     68.3318E-03     198.359E+06    -11.3787E+06    -18.6136E+06    -213.214E+06    -19.5653E+06    -212.263E+06    -11.3787E+06    -13.3354E+06
            1138     5.27084E-03     2.91090E-03     4.39414E-03     63.3597E-03    -30.9458E-03    -32.4119E-03    -31.7667E-03     62.7145E-03    -30.9458E-03     15.4877E-03     66.1393E-03     197.494E+06    -16.4201E+06    -21.7223E+06    -216.475E+06    -22.1280E+06    -216.070E+06    -16.4201E+06    -8.50955E+06
            1139     4.81547E-03     1.94164E-03     4.40668E-03     61.9460E-03    -30.5405E-03    -31.4070E-03    -31.1026E-03     61.6416E-03    -30.5405E-03     10.3486E-03     64.1153E-03     197.335E+06    -20.8753E+06    -24.4328E+06    -219.964E+06    -24.5506E+06    -219.846E+06    -20.8753E+06    -4.56139E+06
            1140     4.51974E-03     971.235E-06     4.41415E-03     60.6908E-03    -30.1470E-03    -30.5450E-03    -30.4185E-03     60.5926E-03    -30.1753E-03     5.60817E-03     62.5598E-03     196.542E+06    -23.7408E+06    -27.8852E+06    -222.317E+06    -26.2522E+06    -222.285E+06    -25.4056E+06    -2.35482E+06
            1141     16.7989E-03     16.4775E-03     3.27074E-03     93.1648E-03    -32.0441E-03    -61.1289E-03    -44.4848E-03     76.5208E-03    -32.0441E-03     91.0737E-03     183.560E-03     174.906E+06     186.992E+06     122.892E+06    -9.70562E+06    -9.57045E+06     186.857E+06     122.892E+06     4.71493E+06
            1142     15.8441E-03     15.5208E-03     3.18432E-03     85.8005E-03    -31.2071E-03    -54.5688E-03    -38.1106E-03     69.3422E-03    -31.2071E-03     89.0989E-03     164.229E-03     163.427E+06     164.854E+06     64.5443E+06    -22.0713E+06    -21.7063E+06     164.489E+06     64.5443E+06     7.13578E+06
            1143     14.8934E-03     14.5511E-03     3.17456E-03     63.4512E-03    -29.3408E-03    -34.1427E-03    -24.2653E-03     55.1908E-03    -30.9577E-03     53.2031E-03     108.239E-03     156.070E+06     142.780E+06     11.2063E+06    -27.4829E+06    -27.0174E+06     142.315E+06     11.2063E+06     8.34027E+06
            1144     13.9394E-03     13.5713E-03     3.18187E-03     58.3345E-03    -27.0412E-03    -31.3355E-03    -18.9957E-03     50.2890E-03    -31.3355E-03     49.2104E-03     89.8823E-03     148.240E+06     112.835E+06    -19.2575E+06    -46.1987E+06    -26.2747E+06     112.404E+06    -38.7503E+06    -822.549E+03
            1145     12.9870E-03     12.5896E-03     3.18830E-03     58.4605E-03    -26.2994E-03    -32.1888E-03    -18.7171E-03     50.8782E-03    -32.1888E-03     48.0649E-03     82.3891E-03     107.610E+06     56.8163E+06    -30.1079E+06    -61.8977E+06    -23.9590E+06     50.6673E+06    -61.8977E+06    -15.3496E+06
            1146     12.0395E-03     11.6077E-03     3.19560E-03     58.9268E-03    -25.5687E-03    -33.3859E-03    -19.1544E-03     52.5125E-03    -33.3859E-03     44.5158E-03     77.0540E-03     66.4302E+06     9.55238E+06    -39.4092E+06    -63.1278E+06    -22.7200E+06    -17.1669E+06    -53.0978E+06    -26.0222E+06
            1147     11.0969E-03     10.6237E-03     3.20579E-03     60.3756E-03    -25.7259E-03    -34.6702E-03    -20.4567E-03     55.1063E-03    -34.6702E-03     41.2331E-03     74.2953E-03     76.0814E+06    -1.74916E+06    -43.9905E+06    -85.5301E+06    -19.8770E+06    -66.0108E+06    -45.3820E+06    -33.0588E+06
            1148     10.1661E-03     9.64461E-03     3.21432E-03     63.9705E-03    -28.0334E-03    -35.9656E-03    -23.1833E-03     59.1204E-03    -35.9656E-03     40.9867E-03     75.0742E-03     107.105E+06    -2.97204E+06    -40.3395E+06    -120.871E+06    -17.2658E+06    -106.578E+06    -40.3395E+06    -38.1553E+06
            1149     9.25142E-03     8.67009E-03     3.22775E-03     68.5556E-03    -31.3797E-03    -37.2051E-03    -27.0945E-03     64.2705E-03    -37.2051E-03     40.3413E-03     77.3559E-03     137.338E+06    -4.29109E+06    -29.6446E+06    -151.178E+06    -16.6220E+06    -140.205E+06    -28.2876E+06    -37.9803E+06
            1150     8.35278E-03     7.69932E-03     3.23875E-03     72.6447E-03    -34.4170E-03    -38.2337E-03    -30.8417E-03     69.0694E-03    -38.2337E-03     38.1431E-03     79.5425E-03     168.229E+06    -6.00318E+06    -22.5349E+06    -181.582E+06    -16.9084E+06    -173.846E+06    -19.3664E+06    -35.3834E+06
            1151     7.47712E-03     6.73218E-03     3.25347E-03     75.2864E-03    -36.1465E-03    -39.1180E-03    -33.5230E-03     72.5622E-03    -39.0172E-03     34.1448E-03     80.5047E-03     191.938E+06    -7.83647E+06    -22.1367E+06    -206.448E+06    -18.0288E+06    -200.911E+06    -17.4810E+06    -32.0319E+06
            1152     6.62988E-03     5.76721E-03     3.27028E-03     77.4186E-03    -37.3955E-03    -39.9967E-03    -35.6558E-03     75.3137E-03    -39.6314E-03     30.6285E-03     81.6405E-03     199.819E+06    -11.3450E+06    -21.3145E+06    -215.925E+06    -19.7580E+06    -212.621E+06    -16.2059E+06    -24.9875E+06
            1153     5.82184E-03     4.80417E-03     3.28842E-03     79.1182E-03    -38.5019E-03    -40.6065E-03    -37.4414E-03     77.5325E-03    -40.0813E-03     26.9651E-03     82.6504E-03     199.449E+06    -16.4126E+06    -21.6774E+06    -218.432E+06    -21.5212E+06    -216.901E+06    -18.1006E+06    -17.0152E+06
            1154     5.06874E-03     3.84231E-03     3.30588E-03     80.2696E-03    -39.3807E-03    -40.8860E-03    -38.7699E-03     79.1594E-03    -40.3864E-03     22.7477E-03     83.1415E-03     198.996E+06    -21.3250E+06    -24.2634E+06    -221.769E+06    -23.4534E+06    -221.081E+06    -22.8229E+06    -11.2372E+06
            1155     4.39687E-03     2.88117E-03     3.32135E-03     81.0419E-03    -39.9909E-03    -41.0484E-03    -39.7886E-03     80.3647E-03    -40.5736E-03     17.7771E-03     83.3397E-03     198.366E+06    -24.6732E+06    -27.0737E+06    -224.224E+06    -26.2417E+06    -223.938E+06    -25.7921E+06    -7.12710E+06
            1156     3.84758E-03     1.92097E-03     3.33373E-03     81.3726E-03    -40.3372E-03    -41.0372E-03    -40.3923E-03     81.0421E-03    -40.6517E-03     12.3270E-03     83.3024E-03     198.102E+06    -26.3639E+06    -28.7744E+06    -225.655E+06    -28.4270E+06    -225.564E+06    -26.8015E+06    -3.83131E+06
            1157     3.47810E-03     960.883E-06     3.34273E-03     81.3290E-03    -40.4826E-03    -40.8519E-03    -40.6021E-03     81.2154E-03    -40.6189E-03     6.93096E-03     83.1888E-03     197.556E+06    -27.5107E+06    -30.5289E+06    -226.548E+06    -28.8708E+06    -226.532E+06    -29.1846E+06    -1.25329E+06
            1158     16.5660E-03     16.4233E-03     2.16969E-03     91.8195E-03    -34.4820E-03    -57.3468E-03    -39.4031E-03     73.8758E-03    -34.4820E-03     95.8259E-03     180.423E-03     173.665E+06     186.161E+06     118.795E+06    -10.0753E+06     -9.4517E+06     185.537E+06     118.795E+06     9.28602E+06
            1159     15.6128E-03     15.4692E-03     2.11283E-03     77.1566E-03    -30.6452E-03    -46.4252E-03    -30.9409E-03     65.2200E-03    -34.1930E-03     70.7860E-03     134.792E-03     162.157E+06     165.768E+06     67.9800E+06    -20.3513E+06    -19.5823E+06     164.999E+06     67.9800E+06     10.2855E+06
            1160     14.6449E-03     14.4901E-03     2.12406E-03     62.2759E-03    -27.4288E-03    -34.7944E-03    -19.3920E-03     53.9184E-03    -34.4738E-03     51.8843E-03     94.5210E-03     154.954E+06     147.859E+06     20.4000E+06    -22.3193E+06    -18.6581E+06     147.538E+06     17.0594E+06     3.06277E+06
            1161     13.6724E-03     13.5062E-03     2.12531E-03     63.0308E-03    -27.8256E-03    -35.2055E-03    -19.5071E-03     54.7122E-03    -35.2055E-03     51.4500E-03     85.5773E-03     153.873E+06     119.906E+06    -7.73201E+06    -48.7724E+06    -12.9303E+06     119.652E+06    -43.3204E+06    -3.54310E+06
            1162     12.7084E-03     12.5281E-03     2.13294E-03     64.4303E-03    -28.2193E-03    -36.2441E-03    -21.1008E-03     57.3117E-03    -36.2441E-03     48.2840E-03     81.4620E-03     126.505E+06     63.2530E+06    -15.3632E+06    -80.9096E+06    -11.2035E+06     59.0934E+06    -80.9096E+06    -11.2305E+06
            1163     11.7466E-03     11.5507E-03     2.13673E-03     65.9428E-03    -28.5074E-03    -37.4838E-03    -22.7771E-03     60.2125E-03    -37.4838E-03     44.0913E-03     79.0498E-03     90.8945E+06     14.7193E+06    -40.4121E+06    -87.4514E+06    -12.7961E+06    -12.8966E+06    -87.4514E+06    -22.4029E+06
            1164     10.7932E-03     10.5777E-03     2.14596E-03     66.7776E-03    -27.9615E-03    -38.8525E-03    -23.8755E-03     62.6916E-03    -38.8525E-03     37.8031E-03     76.3860E-03     87.7011E+06     424.739E+03    -71.2447E+06    -95.3998E+06    -14.1398E+06    -65.9935E+06    -86.0865E+06    -29.9037E+06
            1165     9.83799E-03     9.59954E-03     2.15283E-03     68.8650E-03    -28.5174E-03    -40.3903E-03    -25.0796E-03     65.4272E-03    -40.3903E-03     35.3897E-03     76.1979E-03     104.063E+06    -5.12397E+06    -80.6858E+06    -120.732E+06    -15.6887E+06    -109.066E+06    -81.7869E+06    -32.3635E+06
            1166     8.88967E-03     8.62412E-03     2.15658E-03     73.4838E-03    -31.5182E-03    -41.9990E-03    -28.6188E-03     70.5844E-03    -41.9990E-03     33.6309E-03     79.1747E-03     130.264E+06    -10.0556E+06    -73.5876E+06    -156.863E+06    -18.0059E+06    -148.913E+06    -73.5876E+06    -32.5356E+06
            1167     7.95517E-03     7.65549E-03     2.16293E-03     77.9472E-03    -34.4144E-03    -43.5516E-03    -32.2727E-03     75.8055E-03    -43.5516E-03     29.7933E-03     82.1287E-03     157.646E+06    -14.3082E+06    -61.6424E+06    -188.393E+06    -20.0553E+06    -182.646E+06    -61.6424E+06    -30.4945E+06
            1168     7.03347E-03     6.68899E-03     2.17421E-03     81.6285E-03    -36.6062E-03    -45.0309E-03    -34.9919E-03     80.0142E-03    -45.0309E-03     26.7210E-03     84.6656E-03     183.234E+06    -18.8160E+06    -51.6724E+06    -215.548E+06    -22.6611E+06    -211.703E+06    -51.6724E+06    -26.6552E+06
            1169     6.12862E-03     5.72502E-03     2.18728E-03     85.7742E-03    -39.3194E-03    -46.4654E-03    -38.0148E-03     84.4696E-03    -46.4654E-03     24.7497E-03     88.2404E-03     196.613E+06    -23.6028E+06    -42.9023E+06    -228.875E+06    -25.8911E+06    -226.586E+06    -42.9023E+06    -20.9338E+06
            1170     5.24837E-03     4.76441E-03     2.20132E-03     90.1222E-03    -42.3385E-03    -47.7895E-03    -41.3281E-03     89.1117E-03    -47.7895E-03     22.4140E-03     92.3170E-03     197.673E+06    -28.0800E+06    -35.2823E+06    -229.119E+06    -29.1208E+06    -228.078E+06    -35.2823E+06    -13.7794E+06
            1171     4.40507E-03     3.80716E-03     2.21589E-03     94.1234E-03    -45.2011E-03    -48.9200E-03    -44.4812E-03     93.4035E-03    -48.9200E-03     19.3641E-03     96.0711E-03     196.902E+06    -31.4928E+06    -33.4615E+06    -229.369E+06    -31.8609E+06    -229.001E+06    -33.4615E+06    -7.98057E+06
            1172     3.62006E-03     2.85282E-03     2.22851E-03     97.3356E-03    -47.4838E-03    -49.8503E-03    -47.0344E-03     96.8862E-03    -49.8503E-03     15.5279E-03     99.0413E-03     195.939E+06    -33.1319E+06    -35.4904E+06    -230.238E+06    -33.2554E+06    -230.114E+06    -35.4904E+06    -4.74285E+06
            1173     2.93716E-03     1.90015E-03     2.23972E-03     99.9799E-03    -49.3569E-03    -50.6216E-03    -49.1313E-03     99.7543E-03    -50.6216E-03     11.0014E-03     101.694E-03     195.415E+06    -33.7848E+06    -35.5098E+06    -230.054E+06    -34.2286E+06    -230.005E+06    -35.1144E+06    -2.74342E+06
            1174     2.43914E-03     948.980E-06     2.24696E-03     101.941E-03    -50.7310E-03    -51.2102E-03    -50.7715E-03     101.862E-03    -51.0911E-03     6.18573E-03     103.749E-03     194.213E+06    -35.4483E+06    -36.3875E+06    -230.128E+06    -36.3868E+06    -230.119E+06    -35.4573E+06    -798.380E+03
            1175     16.4350E-03     16.4004E-03     1.06709E-03     93.1894E-03    -34.2808E-03    -58.8563E-03    -43.4351E-03     80.4143E-03    -36.9269E-03     80.7451E-03     149.214E-03     171.241E+06     187.596E+06     124.624E+06    -5.49236E+06    -4.85196E+06     186.956E+06     124.624E+06     9.04795E+06
            1176     15.4623E-03     15.4257E-03     1.06258E-03     66.2871E-03    -27.0789E-03    -39.1315E-03    -24.5409E-03     61.4869E-03    -36.8693E-03     40.3006E-03     100.982E-03     158.341E+06     174.280E+06     76.3145E+06    -5.31912E+06    -4.77325E+06     173.734E+06     76.3145E+06     4.94863E+06
            1177     14.4770E-03     14.4378E-03     1.06511E-03     61.5484E-03    -24.0366E-03    -37.4276E-03    -20.2263E-03     57.7382E-03    -37.4276E-03     32.0802E-03     82.5033E-03     152.192E+06     151.984E+06     20.4982E+06    -13.0395E+06    -4.63028E+06     151.861E+06     12.2119E+06    -2.24499E+06
            1178     13.5047E-03     13.4627E-03     1.06470E-03     63.5695E-03    -25.2808E-03    -38.2821E-03    -22.0834E-03     60.3721E-03    -38.2821E-03     29.3967E-03     78.1135E-03     154.976E+06     119.501E+06    -4.43135E+06    -51.0320E+06    -4.32555E+06     119.396E+06    -51.0320E+06    -2.97728E+06
            1179     12.5308E-03     12.4851E-03     1.06888E-03     65.5789E-03    -26.2116E-03    -39.4047E-03    -23.6636E-03     63.0310E-03    -39.4047E-03     27.3591E-03     76.6993E-03     140.387E+06     65.5579E+06    -4.14087E+06    -93.4883E+06    -3.01760E+06     64.4346E+06    -93.4883E+06    -5.27028E+06
            1180     11.5596E-03     11.5099E-03     1.06989E-03     68.5355E-03    -27.9110E-03    -40.6751E-03    -25.6319E-03     66.2564E-03    -40.6751E-03     26.6109E-03     77.3685E-03     114.959E+06     17.9231E+06    -26.2128E+06    -111.290E+06    -2.40906E+06    -5.88062E+06    -111.290E+06    -12.3775E+06
            1181     10.5906E-03     10.5360E-03     1.07407E-03     71.6933E-03    -29.7194E-03    -42.0458E-03    -28.0467E-03     70.0205E-03    -42.0458E-03     23.1719E-03     78.3949E-03     105.566E+06     19.6773E+03    -72.7483E+06    -116.857E+06    -6.01213E+06    -66.7165E+06    -116.857E+06    -17.5253E+06
            1182     9.62816E-03     9.56698E-03     1.08368E-03     74.8447E-03    -31.3876E-03    -43.4901E-03    -29.9646E-03     73.4216E-03    -43.4901E-03     22.0774E-03     79.9065E-03     111.924E+06    -7.12268E+06    -105.814E+06    -127.560E+06    -11.4056E+06    -113.212E+06    -115.879E+06    -19.0314E+06
            1183     8.66395E-03     8.59647E-03     1.07920E-03     77.2642E-03    -32.1148E-03    -45.1317E-03    -30.9838E-03     76.1332E-03    -45.1317E-03     19.8266E-03     80.9315E-03     128.703E+06    -13.1321E+06    -106.589E+06    -157.073E+06    -16.3110E+06    -153.895E+06    -106.589E+06    -19.0931E+06
            1184     7.70344E-03     7.62704E-03     1.08223E-03     80.2619E-03    -33.1908E-03    -47.0373E-03    -32.5057E-03     79.5768E-03    -47.0373E-03     15.5936E-03     82.6411E-03     150.168E+06    -20.0869E+06    -91.0354E+06    -191.566E+06    -22.4121E+06    -189.241E+06    -91.0354E+06    -17.7869E+06
            1185     6.74821E-03     6.65985E-03     1.08846E-03     85.0992E-03    -35.9605E-03    -49.1093E-03    -35.4256E-03     84.5642E-03    -49.1093E-03     14.3331E-03     86.7512E-03     176.752E+06    -26.9426E+06    -74.1794E+06    -221.885E+06    -28.4882E+06    -220.339E+06    -74.1794E+06    -15.5867E+06
            1186     5.80096E-03     5.69651E-03     1.09588E-03     90.9816E-03    -39.7823E-03    -51.2026E-03    -39.3387E-03     90.5380E-03    -51.2026E-03     13.5854E-03     92.3205E-03     192.713E+06    -32.7999E+06    -59.7677E+06    -237.435E+06    -33.6675E+06    -236.568E+06    -59.7677E+06    -11.8831E+06
            1187     4.86379E-03     4.73688E-03     1.10381E-03     97.2308E-03    -44.0274E-03    -53.2121E-03    -43.6762E-03     96.8796E-03    -53.2121E-03     12.5600E-03     98.5715E-03     194.013E+06    -37.8733E+06    -49.1505E+06    -237.149E+06    -38.2648E+06    -236.758E+06    -49.1505E+06    -7.69684E+06
            1188     3.94207E-03     3.78229E-03     1.11096E-03     103.433E-03    -48.3745E-03    -55.0476E-03    -48.1221E-03     103.180E-03    -55.0476E-03     10.9782E-03     104.823E-03     192.235E+06    -41.5678E+06    -43.9851E+06    -234.987E+06    -41.9318E+06    -234.858E+06    -43.7499E+06    -4.60835E+06
            1189     3.04512E-03     2.83184E-03     1.11958E-03     109.018E-03    -52.3993E-03    -56.6103E-03    -52.2401E-03     108.859E-03    -56.6103E-03     8.91021E-03     110.466E-03     189.861E+06    -42.8031E+06    -45.2152E+06    -233.855E+06    -44.0237E+06    -233.807E+06    -44.0428E+06    -2.42297E+06
            1190     2.19540E-03     1.88507E-03     1.12531E-03     113.622E-03    -55.7682E-03    -57.8492E-03    -55.6880E-03     113.542E-03    -57.8492E-03     6.33386E-03     115.221E-03     188.043E+06    -43.8058E+06    -46.3687E+06    -233.115E+06    -45.4886E+06    -233.103E+06    -44.6979E+06    -1.14581E+06
            1191     1.47091E-03     942.191E-06     1.12954E-03     116.754E-03    -58.0131E-03    -58.7372E-03    -58.1515E-03     116.729E-03    -58.5743E-03     3.40073E-03     118.510E-03     185.782E+06    -46.7319E+06    -47.6021E+06    -232.946E+06    -47.6141E+06    -232.934E+06    -46.7319E+06    -1.25571E+06
            1192     59.1520E-03     971.916E-06     59.1440E-03     56.9469E-03    -28.4267E-03    -28.5214E-03    -28.4840E-03     56.9405E-03    -28.4577E-03     1.36997E-03     57.5538E-03     197.665E+06    -43.3668E+06    -45.1835E+06    -241.934E+06    -45.1870E+06    -241.931E+06    -43.3668E+06    -436.197E+03
            1193     59.1779E-03     1.94450E-03     59.1460E-03     56.9324E-03    -28.4455E-03    -28.4872E-03    -28.4265E-03     56.9135E-03    -28.4872E-03     2.47441E-03     57.8644E-03     197.908E+06    -38.6073E+06    -42.9912E+06    -238.658E+06    -42.9936E+06    -238.656E+06    -38.6073E+06    -630.519E+03
            1194     59.2209E-03     2.91651E-03     59.1491E-03     56.9978E-03    -28.4820E-03    -28.5142E-03    -28.4424E-03     56.9582E-03    -28.5142E-03     3.63185E-03     58.7625E-03     198.869E+06    -29.7791E+06    -39.7853E+06    -233.443E+06    -39.7863E+06    -233.442E+06    -29.7791E+06    -247.921E+03
            1195     59.2812E-03     3.88882E-03     59.1535E-03     57.0164E-03    -28.4703E-03    -28.5441E-03    -28.4047E-03     56.9508E-03    -28.5441E-03     4.70752E-03     60.0593E-03     198.744E+06    -19.7768E+06    -35.7133E+06    -225.994E+06    -35.7136E+06    -225.993E+06    -19.7768E+06     49.9048E+03
            1196     59.3583E-03     4.86086E-03     59.1589E-03     56.8957E-03    -28.3605E-03    -28.5346E-03    -28.2627E-03     56.7979E-03    -28.5346E-03     5.74457E-03     61.6349E-03     187.155E+06    -12.5432E+06    -31.5068E+06    -208.453E+06    -31.5070E+06    -208.453E+06    -12.5432E+06     173.818E+03
            1197     59.4523E-03     5.83352E-03     59.1654E-03     56.7674E-03    -28.2820E-03    -28.4866E-03    -28.1463E-03     56.6317E-03    -28.4866E-03     6.76953E-03     63.7313E-03     169.062E+06    -7.42622E+06    -27.6144E+06    -185.667E+06    -27.6155E+06    -185.666E+06    -7.42622E+06     294.798E+03
            1198     59.5632E-03     6.80591E-03     59.1730E-03     56.7375E-03    -28.2949E-03    -28.4415E-03    -28.1140E-03     56.5566E-03    -28.4415E-03     7.81465E-03     66.5007E-03     153.465E+06    -2.87616E+06    -24.1497E+06    -165.863E+06    -24.1516E+06    -165.861E+06    -2.87616E+06     447.307E+03
            1199     59.6906E-03     7.77833E-03     59.1817E-03     56.6321E-03    -28.2292E-03    -28.3969E-03    -27.9980E-03     56.4008E-03    -28.3969E-03     8.83492E-03     69.8154E-03     137.455E+06     306.135E+03    -21.2452E+06    -146.647E+06    -21.2475E+06    -146.645E+06     306.135E+03     519.624E+03
            1200     59.8347E-03     8.75108E-03     59.1913E-03     56.5889E-03    -28.2176E-03    -28.3469E-03    -27.9429E-03     56.3132E-03    -28.3459E-03     9.64989E-03     73.8351E-03     120.086E+06     1.94187E+06    -18.7802E+06    -127.154E+06    -18.7821E+06    -127.153E+06     1.94187E+06     452.435E+03
            1201     59.9947E-03     9.72363E-03     59.2015E-03     56.6512E-03    -28.2526E-03    -28.3588E-03    -27.9362E-03     56.2529E-03    -28.2769E-03     11.5103E-03     79.3693E-03     96.9984E+06    -1.57295E+06    -16.9164E+06    -105.307E+06    -16.9172E+06    -105.306E+06    -1.57295E+06     134.679E+03
            1202     60.1735E-03     10.6962E-03     59.2152E-03     56.5435E-03    -28.1918E-03    -28.3624E-03    -27.8117E-03     55.9927E-03    -28.1918E-03     13.6163E-03     86.2115E-03     67.7379E+06    -7.98568E+06    -15.6585E+06    -79.2195E+06    -15.6592E+06    -79.2188E+06    -7.98568E+06    -171.884E+03
            1203     60.3685E-03     11.6689E-03     59.2300E-03     56.4749E-03    -28.0863E-03    -28.4311E-03    -27.7098E-03     55.7536E-03    -28.0863E-03     15.5274E-03     93.7216E-03     28.3972E+06    -13.2672E+06    -17.9223E+06    -42.8498E+06    -15.4687E+06    -42.4529E+06    -16.1177E+06    -295.372E+03
            1204     60.5816E-03     12.6418E-03     59.2479E-03     56.8104E-03    -27.9621E-03    -28.8683E-03    -27.6128E-03     55.5548E-03    -27.9621E-03     20.3027E-03     105.210E-03     34.3359E+06     11.9342E+06    -18.6252E+06    -25.2108E+06    -16.1671E+06     9.47613E+06    -25.2108E+06    -456.802E+03
            1205     60.8159E-03     13.6150E-03     59.2723E-03     57.5219E-03    -27.8072E-03    -29.7221E-03    -27.3415E-03     55.1413E-03    -27.8072E-03     28.1070E-03     124.392E-03     109.614E+06     84.0925E+06    -16.8455E+06    -32.4231E+06    -16.8376E+06     84.0846E+06    -32.4231E+06    -21.0025E+03
            1206     61.0748E-03     14.5881E-03     59.3070E-03     61.5820E-03    -27.8038E-03    -33.7807E-03    -27.1636E-03     54.9649E-03    -27.8038E-03     46.8313E-03     152.608E-03     157.964E+06     142.160E+06    -2.73634E+06    -26.1544E+06    -16.7831E+06     142.153E+06    -12.1007E+06     715.550E+03
            1207     61.3765E-03     15.5616E-03     59.3709E-03     74.9749E-03    -28.0595E-03    -46.9172E-03    -27.8619E-03     55.9196E-03    -28.0595E-03     86.8995E-03     212.318E-03     166.330E+06     171.350E+06     51.4663E+06    -14.3981E+06    -14.3950E+06     171.347E+06     51.4663E+06     497.010E+03
            1208     61.7468E-03     16.5355E-03     59.4915E-03     76.3242E-03    -28.3717E-03    -47.9623E-03    -27.7352E-03     56.0970E-03    -28.3717E-03     90.6988E-03     229.232E-03     180.598E+06     193.608E+06     126.234E+06    -8.55270E+06    -8.55229E+06     193.608E+06     126.234E+06    -102.521E+03
            1209     60.2091E-03     972.306E-06     60.2012E-03     56.9149E-03    -28.3551E-03    -28.5616E-03    -28.5251E-03     56.9082E-03    -28.3850E-03     1.37011E-03     57.5202E-03     197.322E+06    -42.3348E+06    -45.3156E+06    -241.129E+06    -44.3682E+06    -241.119E+06    -43.2916E+06    -502.342E+03
            1210     60.2348E-03     1.94429E-03     60.2034E-03     56.9205E-03    -28.4218E-03    -28.5004E-03    -28.4249E-03     56.9015E-03    -28.4782E-03     2.49945E-03     57.8710E-03     198.335E+06    -37.4979E+06    -42.8270E+06    -238.432E+06    -42.8304E+06    -238.429E+06    -37.4979E+06    -559.351E+03
            1211     60.2771E-03     2.91669E-03     60.2065E-03     56.9511E-03    -28.4485E-03    -28.5020E-03    -28.4083E-03     56.9110E-03    -28.5020E-03     3.64536E-03     58.7360E-03     199.112E+06    -29.7168E+06    -39.9073E+06    -233.713E+06    -39.9101E+06    -233.710E+06    -29.7168E+06    -687.414E+03
            1212     60.3365E-03     3.88875E-03     60.2111E-03     56.9429E-03    -28.4187E-03    -28.5238E-03    -28.3521E-03     56.8764E-03    -28.5238E-03     4.74191E-03     59.9866E-03     199.106E+06    -19.9185E+06    -35.8718E+06    -226.501E+06    -35.8726E+06    -226.501E+06    -19.9185E+06    -309.950E+03
            1213     60.4122E-03     4.86122E-03     60.2163E-03     56.8723E-03    -28.3588E-03    -28.5142E-03    -28.2596E-03     56.7731E-03    -28.5142E-03     5.78125E-03     61.5928E-03     187.320E+06    -12.4597E+06    -31.6233E+06    -208.620E+06    -31.6236E+06    -208.620E+06    -12.4597E+06    -65.0651E+03
            1214     60.5046E-03     5.83346E-03     60.2227E-03     56.7824E-03    -28.3129E-03    -28.4721E-03    -28.1748E-03     56.6443E-03    -28.4721E-03     6.83489E-03     63.7365E-03     169.158E+06    -7.24382E+06    -27.6726E+06    -185.678E+06    -27.6727E+06    -185.678E+06    -7.24382E+06     23.1183E+03
            1215     60.6138E-03     6.80599E-03     60.2304E-03     56.6812E-03    -28.2548E-03    -28.4284E-03    -28.0754E-03     56.5018E-03    -28.4284E-03     7.78330E-03     66.4430E-03     153.673E+06    -2.84341E+06    -24.2456E+06    -166.091E+06    -24.2464E+06    -166.090E+06    -2.84341E+06     204.395E+03
            1216     60.7391E-03     7.77861E-03     60.2389E-03     56.6087E-03    -28.2219E-03    -28.3834E-03    -27.9957E-03     56.3825E-03    -28.3834E-03     8.73683E-03     69.7931E-03     137.882E+06     524.759E+03    -21.0433E+06    -146.864E+06    -21.0448E+06    -146.863E+06     524.759E+03     348.776E+03
            1217     60.8807E-03     8.75113E-03     60.2484E-03     56.5940E-03    -28.2349E-03    -28.3356E-03    -27.9583E-03     56.3164E-03    -28.3346E-03     9.67674E-03     73.8506E-03     120.597E+06     2.23501E+06    -18.3745E+06    -127.337E+06    -18.3756E+06    -127.336E+06     2.23501E+06     292.311E+03
            1218     61.0387E-03     9.72366E-03     60.2592E-03     56.6253E-03    -28.2362E-03    -28.3469E-03    -27.9188E-03     56.2271E-03    -28.2661E-03     11.5221E-03     79.3371E-03     97.2153E+06    -1.29944E+06    -16.5946E+06    -105.239E+06    -16.5952E+06    -105.239E+06    -1.29944E+06     179.457E+03
            1219     61.2141E-03     10.6963E-03     60.2723E-03     56.5881E-03    -28.1839E-03    -28.4114E-03    -27.8570E-03     56.0337E-03    -28.1839E-03     13.6621E-03     86.2569E-03     67.8131E+06    -7.71589E+06    -15.6031E+06    -79.1136E+06    -15.6040E+06    -79.1128E+06    -7.71589E+06     55.1625E+03
            1220     61.4065E-03     11.6691E-03     60.2875E-03     56.4914E-03    -28.0815E-03    -28.4486E-03    -27.7152E-03     55.7580E-03    -28.0815E-03     15.6648E-03     93.7086E-03     28.2075E+06    -13.2570E+06    -17.9643E+06    -42.6328E+06    -15.4872E+06    -42.4062E+06    -15.9607E+06     20.0992E+03
            1221     61.6158E-03     12.6422E-03     60.3049E-03     56.8197E-03    -27.9561E-03    -28.8808E-03    -27.6044E-03     55.5433E-03    -27.9561E-03     20.4655E-03     105.147E-03     34.5833E+06     12.0455E+06    -18.8361E+06    -25.3028E+06    -16.3576E+06     9.51009E+06    -25.2459E+06     3.44514E+03
            1222     61.8474E-03     13.6147E-03     60.3303E-03     57.5502E-03    -27.8038E-03    -29.7558E-03    -27.3987E-03     55.1931E-03    -27.8038E-03     28.0239E-03     124.401E-03     110.097E+06     84.0668E+06    -17.7862E+06    -32.6406E+06    -17.7852E+06     84.0658E+06    -32.6406E+06    -105.896E+03
            1223     62.1014E-03     14.5883E-03     60.3637E-03     61.6385E-03    -27.7983E-03    -33.8468E-03    -27.2388E-03     55.0305E-03    -27.7983E-03     46.7548E-03     152.637E-03     158.562E+06     141.530E+06    -5.00530E+06    -26.7338E+06    -18.0588E+06     141.526E+06    -13.6757E+06    -48.2951E+03
            1224     62.4005E-03     15.5617E-03     60.4290E-03     75.1338E-03    -28.0442E-03    -47.0946E-03    -27.8342E-03     55.8734E-03    -28.0442E-03     87.3874E-03     212.525E-03     167.000E+06     171.108E+06     49.0680E+06    -15.0070E+06    -15.0024E+06     171.103E+06     49.0680E+06     163.699E+03
            1225     62.7654E-03     16.5354E-03     60.5481E-03     76.3766E-03    -28.3628E-03    -48.0170E-03    -27.6656E-03     56.0252E-03    -28.3628E-03     90.9060E-03     229.389E-03     180.844E+06     193.844E+06     125.511E+06    -8.56806E+06    -8.56740E+06     193.843E+06     125.511E+06    -69.2973E+03
            1226     61.2666E-03     972.205E-06     61.2589E-03     56.8538E-03    -28.3129E-03    -28.5411E-03    -28.5186E-03     56.8476E-03    -28.3293E-03     1.32292E-03     57.4749E-03     196.906E+06    -42.0220E+06    -45.1060E+06    -240.450E+06    -44.1636E+06    -240.436E+06    -42.9787E+06    -964.791E+03
            1227     61.2916E-03     1.94445E-03     61.2607E-03     56.9056E-03    -28.4210E-03    -28.4843E-03    -28.4262E-03     56.8855E-03    -28.4590E-03     2.53892E-03     57.8488E-03     199.035E+06    -36.1621E+06    -41.9852E+06    -238.030E+06    -41.9936E+06    -238.022E+06    -36.1621E+06    -660.824E+03
            1228     61.3334E-03     2.91653E-03     61.2640E-03     56.8946E-03    -28.4038E-03    -28.4907E-03    -28.3657E-03     56.8534E-03    -28.4875E-03     3.70788E-03     58.6643E-03     200.543E+06    -27.8777E+06    -38.8773E+06    -233.680E+06    -38.8795E+06    -233.677E+06    -27.8777E+06    -414.068E+03
            1229     61.3917E-03     3.88900E-03     61.2684E-03     56.8566E-03    -28.3607E-03    -28.4965E-03    -28.2946E-03     56.7905E-03    -28.4965E-03     4.72097E-03     59.8907E-03     199.894E+06    -19.4418E+06    -35.3340E+06    -226.792E+06    -35.3352E+06    -226.791E+06    -19.4418E+06    -479.060E+03
            1230     61.4661E-03     4.86130E-03     61.2736E-03     56.8499E-03    -28.3680E-03    -28.4844E-03    -28.2685E-03     56.7505E-03    -28.4844E-03     5.78898E-03     61.5599E-03     187.526E+06    -12.5883E+06    -31.3776E+06    -208.794E+06    -31.3787E+06    -208.793E+06    -12.5883E+06    -367.508E+03
            1231     61.5574E-03     5.83370E-03     61.2803E-03     56.7807E-03    -28.3342E-03    -28.4507E-03    -28.1971E-03     56.6435E-03    -28.4507E-03     6.81409E-03     63.7227E-03     169.291E+06    -7.13388E+06    -27.7566E+06    -185.780E+06    -27.7570E+06    -185.779E+06    -7.13388E+06    -182.210E+03
            1232     61.6643E-03     6.80606E-03     61.2876E-03     56.6724E-03    -28.2613E-03    -28.4129E-03    -28.0829E-03     56.4940E-03    -28.4129E-03     7.75891E-03     66.4281E-03     154.047E+06    -2.67941E+06    -24.1745E+06    -166.344E+06    -24.1753E+06    -166.343E+06    -2.67941E+06    -180.198E+03
            1233     61.7878E-03     7.77861E-03     61.2963E-03     56.6254E-03    -28.2505E-03    -28.3701E-03    -28.0220E-03     56.3969E-03    -28.3701E-03     8.77983E-03     69.8165E-03     138.122E+06     501.744E+03    -20.9277E+06    -147.076E+06    -20.9285E+06    -147.075E+06     501.744E+03    -8.70704E+03
            1234     61.9273E-03     8.75107E-03     61.3059E-03     56.5619E-03    -28.2161E-03    -28.3232E-03    -27.9368E-03     56.2825E-03    -28.3232E-03     9.70547E-03     73.8328E-03     120.683E+06     2.32465E+06    -18.3255E+06    -127.349E+06    -18.3260E+06    -127.349E+06     2.32465E+06     214.248E+03
            1235     62.0826E-03     9.72390E-03     61.3163E-03     56.5683E-03    -28.1878E-03    -28.3392E-03    -27.8716E-03     56.1662E-03    -28.2533E-03     11.5661E-03     79.2813E-03     97.7039E+06    -1.19502E+06    -16.4081E+06    -105.592E+06    -16.4097E+06    -105.591E+06    -1.19502E+06     329.543E+03
            1236     62.2557E-03     10.6966E-03     61.3299E-03     56.5935E-03    -28.1723E-03    -28.4288E-03    -27.8774E-03     56.0421E-03    -28.1723E-03     13.6339E-03     86.3067E-03     68.0555E+06    -7.34904E+06    -15.4934E+06    -79.1056E+06    -15.4954E+06    -79.1035E+06    -7.34904E+06     341.609E+03
            1237     62.4447E-03     11.6692E-03     61.3446E-03     56.5160E-03    -28.0748E-03    -28.4835E-03    -27.7602E-03     55.7927E-03    -28.0748E-03     15.5570E-03     93.7969E-03     28.6686E+06    -12.5675E+06    -18.1601E+06    -42.5198E+06    -15.2381E+06    -42.5169E+06    -15.4924E+06     211.189E+03
            1238     62.6511E-03     12.6419E-03     61.3624E-03     56.8417E-03    -27.9522E-03    -28.9096E-03    -27.6153E-03     55.5475E-03    -27.9522E-03     20.5870E-03     105.219E-03     34.4437E+06     12.2619E+06    -18.5017E+06    -24.9063E+06    -15.5774E+06     9.22509E+06    -24.7938E+06     257.519E+03
            1239     62.8796E-03     13.6152E-03     61.3879E-03     57.5003E-03    -27.8007E-03    -29.7102E-03    -27.3616E-03     55.1516E-03    -27.8007E-03     27.9987E-03     124.438E-03     109.499E+06     84.2487E+06    -16.9674E+06    -31.8652E+06    -16.9653E+06     84.2466E+06    -31.8652E+06     337.561E+03
            1240     63.1296E-03     14.5879E-03     61.4210E-03     61.6266E-03    -27.7943E-03    -33.8390E-03    -27.1638E-03     54.9514E-03    -27.7943E-03     46.8725E-03     152.673E-03     158.339E+06     141.639E+06    -4.53865E+06    -26.4772E+06    -17.8684E+06     141.636E+06    -13.1443E+06    -315.620E+03
            1241     63.4246E-03     15.5619E-03     61.4858E-03     75.1987E-03    -28.0292E-03    -47.1682E-03    -27.8104E-03     55.8408E-03    -28.0292E-03     87.6981E-03     212.448E-03     166.843E+06     170.718E+06     48.7091E+06    -15.3396E+06    -15.3343E+06     170.712E+06     48.7091E+06    -673.701E+03
            1242     63.7864E-03     16.5361E-03     61.6057E-03     76.4381E-03    -28.3472E-03    -48.0945E-03    -27.7499E-03     56.0935E-03    -28.3472E-03     90.9441E-03     229.255E-03     180.725E+06     193.725E+06     124.985E+06    -8.61769E+06    -8.61490E+06     193.722E+06     124.985E+06    -244.645E+03
            1243     62.3237E-03     972.196E-06     62.3161E-03     56.7832E-03    -28.2894E-03    -28.4916E-03    -28.4682E-03     56.7762E-03    -28.3058E-03     1.44411E-03     57.4232E-03     195.354E+06    -43.1209E+06    -45.4581E+06    -239.630E+06    -45.3637E+06    -239.622E+06    -43.2235E+06    -216.849E+03
            1244     62.3485E-03     1.94452E-03     62.3181E-03     56.8222E-03    -28.3772E-03    -28.4433E-03    -28.3808E-03     56.8022E-03    -28.4196E-03     2.54718E-03     57.7937E-03     197.480E+06    -37.5307E+06    -43.2417E+06    -237.793E+06    -43.2524E+06    -237.782E+06    -37.5307E+06    -562.870E+03
            1245     62.3896E-03     2.91682E-03     62.3214E-03     56.8215E-03    -28.3683E-03    -28.4530E-03    -28.3316E-03     56.7817E-03    -28.4499E-03     3.64344E-03     58.5934E-03     199.555E+06    -28.8851E+06    -39.8089E+06    -233.661E+06    -39.8125E+06    -233.657E+06    -28.8851E+06    -541.611E+03
            1246     62.4467E-03     3.88909E-03     62.3255E-03     56.8374E-03    -28.3692E-03    -28.4688E-03    -28.3033E-03     56.7715E-03    -28.4688E-03     4.70600E-03     59.8700E-03     199.661E+06    -19.3630E+06    -35.7042E+06    -226.675E+06    -35.7060E+06    -226.673E+06    -19.3630E+06    -546.930E+03
            1247     62.5204E-03     4.86142E-03     62.3311E-03     56.8098E-03    -28.3507E-03    -28.4622E-03    -28.2513E-03     56.7104E-03    -28.4622E-03     5.79028E-03     61.5350E-03     187.660E+06    -12.4785E+06    -31.5167E+06    -208.924E+06    -31.5190E+06    -208.922E+06    -12.4785E+06    -609.145E+03
            1248     62.6099E-03     5.83374E-03     62.3375E-03     56.7133E-03    -28.2908E-03    -28.4265E-03    -28.1542E-03     56.5767E-03    -28.4265E-03     6.79465E-03     63.6519E-03     169.581E+06    -7.14694E+06    -27.5137E+06    -185.981E+06    -27.5158E+06    -185.979E+06    -7.14694E+06    -525.745E+03
            1249     62.7155E-03     6.80631E-03     62.3450E-03     56.6779E-03    -28.2877E-03    -28.3909E-03    -28.1080E-03     56.4982E-03    -28.3909E-03     7.78897E-03     66.4166E-03     154.302E+06    -2.62504E+06    -24.1671E+06    -166.563E+06    -24.1683E+06    -166.562E+06    -2.62504E+06    -316.334E+03
            1250     62.8368E-03     7.77872E-03     62.3535E-03     56.6321E-03    -28.2729E-03    -28.3530E-03    -28.0412E-03     56.4003E-03    -28.3530E-03     8.84266E-03     69.8271E-03     138.112E+06     339.110E+03    -21.3030E+06    -147.311E+06    -21.3041E+06    -147.310E+06     339.110E+03    -137.380E+03
            1251     62.9743E-03     8.75139E-03     62.3633E-03     56.5529E-03    -28.2191E-03    -28.3097E-03    -27.9419E-03     56.2757E-03    -28.3097E-03     9.67306E-03     73.8385E-03     120.755E+06     2.14852E+06    -18.5923E+06    -127.632E+06    -18.5929E+06    -127.631E+06     2.14852E+06     28.8309E+03
            1252     63.1269E-03     9.72392E-03     62.3735E-03     56.5812E-03    -28.1979E-03    -28.3437E-03    -27.8961E-03     56.1792E-03    -28.2434E-03     11.5508E-03     79.2939E-03     97.9436E+06    -1.07850E+06    -16.4112E+06    -105.762E+06    -16.4123E+06    -105.761E+06    -1.07850E+06     204.807E+03
            1253     63.2977E-03     10.6965E-03     62.3874E-03     56.5799E-03    -28.1638E-03    -28.4251E-03    -27.8763E-03     56.0311E-03    -28.1638E-03     13.6067E-03     86.3129E-03     68.5967E+06    -7.18430E+06    -14.9257E+06    -79.3062E+06    -14.9276E+06    -79.3043E+06    -7.18430E+06     297.805E+03
            1254     63.4837E-03     11.6693E-03     62.4020E-03     56.5216E-03    -28.0673E-03    -28.4956E-03    -27.7768E-03     55.8029E-03    -28.0673E-03     15.5022E-03     93.8376E-03     29.4129E+06    -12.1062E+06    -17.5683E+06    -42.6018E+06    -14.3868E+06    -42.5896E+06    -15.2999E+06     314.610E+03
            1255     63.6871E-03     12.6423E-03     62.4197E-03     56.8011E-03    -27.9448E-03    -28.8751E-03    -27.5633E-03     55.4893E-03    -27.9448E-03     20.7009E-03     105.199E-03     34.0038E+06     11.8730E+06    -18.1447E+06    -24.9702E+06    -14.9609E+06     8.63368E+06    -24.9146E+06     360.336E+03
            1256     63.9123E-03     13.6148E-03     62.4453E-03     57.3244E-03    -27.7868E-03    -29.5477E-03    -27.1886E-03     54.9653E-03    -27.7868E-03     28.0186E-03     124.270E-03     108.300E+06     83.6836E+06    -15.6107E+06    -31.6431E+06    -15.6086E+06     83.6815E+06    -31.6431E+06     342.562E+03
            1257     64.1586E-03     14.5889E-03     62.4779E-03     61.6544E-03    -27.7838E-03    -33.8756E-03    -27.2008E-03     54.9795E-03    -27.7838E-03     46.9126E-03     152.649E-03     157.336E+06     142.585E+06    -1.83506E+06    -25.0048E+06    -15.7386E+06     142.582E+06    -11.0987E+06     160.208E+03
            1258     64.4504E-03     15.5624E-03     62.5433E-03     75.2300E-03    -28.0288E-03    -47.1949E-03    -27.9107E-03     55.9458E-03    -28.0288E-03     87.5745E-03     212.398E-03     166.391E+06     171.547E+06     50.8675E+06    -14.2654E+06    -14.2612E+06     171.542E+06     50.8675E+06    -348.533E+03
            1259     64.8082E-03     16.5355E-03     62.6632E-03     76.4787E-03    -28.3418E-03    -48.1309E-03    -27.7620E-03     56.1098E-03    -28.3418E-03     91.0688E-03     229.234E-03     180.497E+06     193.324E+06     125.331E+06    -8.69365E+06    -8.68987E+06     193.320E+06     125.331E+06    -598.536E+03
            1260     63.3809E-03     972.438E-06     63.3734E-03     56.7220E-03    -28.2462E-03    -28.4751E-03    -28.4532E-03     56.7151E-03    -28.2612E-03     1.41405E-03     57.3249E-03     193.735E+06    -44.2671E+06    -46.5692E+06    -239.138E+06    -46.4688E+06    -239.136E+06    -44.3696E+06     214.157E+03
            1261     63.4054E-03     1.94447E-03     63.3755E-03     56.7644E-03    -28.3495E-03    -28.4143E-03    -28.3510E-03     56.7453E-03    -28.3938E-03     2.49307E-03     57.7575E-03     196.472E+06    -37.9992E+06    -43.8608E+06    -237.329E+06    -43.8653E+06    -237.324E+06    -37.9992E+06    -216.895E+03
            1262     63.4456E-03     2.91683E-03     63.3785E-03     56.7792E-03    -28.3577E-03    -28.4215E-03    -28.3191E-03     56.7406E-03    -28.4215E-03     3.58348E-03     58.5736E-03     198.022E+06    -30.2888E+06    -40.6296E+06    -233.267E+06    -40.6382E+06    -233.259E+06    -30.2888E+06    -1.05730E+06
            1263     63.5022E-03     3.88915E-03     63.3830E-03     56.7998E-03    -28.3545E-03    -28.4458E-03    -28.2882E-03     56.7335E-03    -28.4458E-03     4.71550E-03     59.8340E-03     198.928E+06    -20.0955E+06    -36.1882E+06    -226.559E+06    -36.1960E+06    -226.551E+06    -20.0955E+06    -1.07917E+06
            1264     63.5744E-03     4.86146E-03     63.3883E-03     56.7478E-03    -28.3089E-03    -28.4412E-03    -28.2098E-03     56.6488E-03    -28.4412E-03     5.78023E-03     61.4664E-03     187.600E+06    -12.3886E+06    -31.6782E+06    -208.882E+06    -31.6838E+06    -208.876E+06    -12.3886E+06    -941.228E+03
            1265     63.6627E-03     5.83402E-03     63.3948E-03     56.6667E-03    -28.2659E-03    -28.4035E-03    -28.1298E-03     56.5306E-03    -28.4035E-03     6.77449E-03     63.5910E-03     169.601E+06    -7.28619E+06    -27.7773E+06    -186.191E+06    -27.7822E+06    -186.186E+06    -7.28619E+06     -832.32E+03
            1266     63.7665E-03     6.80641E-03     63.4022E-03     56.6548E-03    -28.2863E-03    -28.3699E-03    -28.1067E-03     56.4752E-03    -28.3699E-03     7.78734E-03     66.3849E-03     154.508E+06    -2.54197E+06    -24.3920E+06    -166.808E+06    -24.3940E+06    -166.805E+06    -2.54197E+06    -438.667E+03
            1267     63.8863E-03     7.77892E-03     63.4109E-03     56.6286E-03    -28.2874E-03    -28.3368E-03    -28.0587E-03     56.3999E-03    -28.3368E-03     8.78796E-03     69.8173E-03     138.536E+06     648.002E+03    -21.2025E+06    -147.512E+06    -21.2040E+06    -147.510E+06     648.002E+03    -319.554E+03
            1268     64.0214E-03     8.75132E-03     63.4204E-03     56.5741E-03    -28.2529E-03    -28.2974E-03    -27.9752E-03     56.2964E-03    -28.2974E-03     9.68205E-03     73.8491E-03     121.319E+06     2.25260E+06    -18.2771E+06    -128.021E+06    -18.2778E+06    -128.020E+06     2.25260E+06    -228.985E+03
            1269     64.1720E-03     9.72398E-03     63.4310E-03     56.6015E-03    -28.2170E-03    -28.3445E-03    -27.9197E-03     56.1932E-03    -28.2336E-03     11.6450E-03     79.3003E-03     98.2519E+06    -1.03372E+06    -16.0673E+06    -105.915E+06    -16.0675E+06    -105.915E+06    -1.03372E+06    -85.7527E+03
            1270     64.3400E-03     10.6967E-03     63.4446E-03     56.5772E-03    -28.1558E-03    -28.4332E-03    -27.8782E-03     56.0222E-03    -28.1558E-03     13.6840E-03     86.2582E-03     68.8413E+06    -7.21536E+06    -14.7507E+06    -79.4979E+06    -14.7512E+06    -79.4974E+06    -7.21536E+06     40.4803E+03
            1271     64.5235E-03     11.6694E-03     63.4595E-03     56.5104E-03    -28.0605E-03    -28.4926E-03    -27.7726E-03     55.7905E-03    -28.0605E-03     15.5185E-03     93.8292E-03     29.7214E+06    -12.1058E+06    -17.5464E+06    -42.8642E+06    -14.2965E+06    -42.8449E+06    -15.3750E+06     298.599E+03
            1272     64.7237E-03     12.6420E-03     63.4770E-03     56.7382E-03    -27.9375E-03    -28.8152E-03    -27.5250E-03     55.4481E-03    -27.9375E-03     20.5295E-03     105.133E-03     33.7687E+06     11.9517E+06    -17.7830E+06    -24.6727E+06    -14.5317E+06     8.65767E+06    -24.6299E+06     244.052E+03
            1273     64.9457E-03     13.6159E-03     63.5023E-03     57.2921E-03    -27.7764E-03    -29.5249E-03    -27.2456E-03     55.0128E-03    -27.7764E-03     27.5584E-03     124.281E-03     108.488E+06     83.7971E+06    -15.1264E+06    -32.0881E+06    -15.1246E+06     83.7954E+06    -32.0881E+06    -178.636E+03
            1274     65.1884E-03     14.5888E-03     63.5350E-03     61.6523E-03    -27.7801E-03    -33.8805E-03    -27.2852E-03     55.0571E-03    -27.7801E-03     46.5357E-03     152.740E-03     157.464E+06     142.414E+06    -1.93407E+06    -25.4633E+06    -15.3446E+06     142.412E+06    -12.0501E+06     216.195E+03
            1275     65.4775E-03     15.5616E-03     63.6014E-03     75.0047E-03    -28.0307E-03    -46.9672E-03    -27.8292E-03     55.8668E-03    -28.0307E-03     87.1147E-03     212.483E-03     165.706E+06     171.812E+06     51.1212E+06    -13.0809E+06    -13.0788E+06     171.810E+06     51.1212E+06     292.270E+03
            1276     65.8300E-03     16.5367E-03     63.7191E-03     76.5314E-03    -28.3416E-03    -48.1749E-03    -27.7985E-03     56.1550E-03    -28.3416E-03     91.1798E-03     229.480E-03     179.668E+06     193.583E+06     125.850E+06    -7.43758E+06    -7.43483E+06     193.581E+06     125.850E+06    -129.063E+03
            1277     64.4381E-03     972.065E-06     64.4307E-03     56.7479E-03    -28.2949E-03    -28.4537E-03    -28.3903E-03     56.7417E-03    -28.3522E-03     1.22291E-03     57.2958E-03     194.871E+06    -42.8052E+06    -45.1310E+06    -238.827E+06    -44.6472E+06    -238.826E+06    -43.2904E+06    -341.283E+03
            1278     64.4620E-03     1.94467E-03     64.4326E-03     56.7111E-03    -28.3188E-03    -28.3930E-03    -28.2997E-03     56.6920E-03    -28.3930E-03     2.49347E-03     57.6553E-03     197.377E+06    -36.8797E+06    -42.1021E+06    -236.808E+06    -42.1075E+06    -236.803E+06    -36.8797E+06    -759.663E+03
            1279     64.5019E-03     2.91686E-03     64.4359E-03     56.7629E-03    -28.3527E-03    -28.4104E-03    -28.3136E-03     56.7238E-03    -28.4104E-03     3.60055E-03     58.5514E-03     198.854E+06    -28.6454E+06    -38.4588E+06    -232.212E+06    -38.4697E+06    -232.201E+06    -28.6454E+06    -1.21086E+06
            1280     64.5573E-03     3.88919E-03     64.4400E-03     56.7531E-03    -28.3259E-03    -28.4279E-03    -28.2593E-03     56.6866E-03    -28.4279E-03     4.72660E-03     59.7783E-03     199.540E+06    -19.8445E+06    -34.9120E+06    -226.477E+06    -34.9250E+06    -226.464E+06    -19.8445E+06    -1.48829E+06
            1281     64.6288E-03     4.86168E-03     64.4456E-03     56.7196E-03    -28.2989E-03    -28.4221E-03    -28.2005E-03     56.6212E-03    -28.4221E-03     5.75949E-03     61.4225E-03     187.988E+06    -12.3232E+06    -31.0810E+06    -208.977E+06    -31.0910E+06    -208.967E+06    -12.3232E+06    -1.26049E+06
            1282     64.7155E-03     5.83399E-03     64.4520E-03     56.6639E-03    -28.2764E-03    -28.3902E-03    -28.1419E-03     56.5294E-03    -28.3902E-03     6.73669E-03     63.5868E-03     170.127E+06    -6.66828E+06    -27.4857E+06    -186.238E+06    -27.4909E+06    -186.233E+06    -6.66828E+06    -874.946E+03
            1283     64.8180E-03     6.80655E-03     64.4596E-03     56.6107E-03    -28.2595E-03    -28.3547E-03    -28.0799E-03     56.4310E-03    -28.3547E-03     7.77997E-03     66.3366E-03     154.938E+06    -2.51901E+06    -24.1127E+06    -167.119E+06    -24.1162E+06    -167.115E+06    -2.51901E+06    -700.677E+03
            1284     64.9358E-03     7.77899E-03     64.4682E-03     56.5913E-03    -28.2686E-03    -28.3193E-03    -28.0375E-03     56.3601E-03    -28.3193E-03     8.83193E-03     69.7512E-03     138.711E+06     469.632E+03    -21.1909E+06    -147.789E+06    -21.1929E+06    -147.787E+06     469.632E+03    -476.582E+03
            1285     65.0691E-03     8.75162E-03     64.4778E-03     56.5913E-03    -28.2665E-03    -28.3001E-03    -28.0039E-03     56.3108E-03    -28.2822E-03     9.73322E-03     73.8277E-03     121.027E+06     2.20089E+06    -18.6514E+06    -127.895E+06    -18.6529E+06    -127.893E+06     2.20089E+06    -369.095E+03
            1286     65.2172E-03     9.72418E-03     64.4882E-03     56.6057E-03    -28.2168E-03    -28.3454E-03    -27.9328E-03     56.1997E-03    -28.2234E-03     11.6213E-03     79.3060E-03     98.3436E+06    -1.15292E+06    -16.4570E+06    -106.227E+06    -16.4593E+06    -106.225E+06    -1.15292E+06    -400.443E+03
            1287     65.3830E-03     10.6968E-03     64.5021E-03     56.5758E-03    -28.1487E-03    -28.4357E-03    -27.8792E-03     56.0194E-03    -28.1487E-03     13.6967E-03     86.2186E-03     69.1726E+06    -7.11092E+06    -14.9742E+06    -79.8693E+06    -14.9757E+06    -79.8678E+06    -7.11092E+06    -262.285E+03
            1288     65.5636E-03     11.6694E-03     64.5167E-03     56.5438E-03    -28.0552E-03    -28.5302E-03    -27.8117E-03     55.8252E-03    -28.0552E-03     15.5201E-03     93.8200E-03     29.6767E+06    -12.0460E+06    -17.6554E+06    -42.9609E+06    -14.4647E+06    -42.9483E+06    -15.2493E+06    -12.1717E+03
            1289     65.7611E-03     12.6425E-03     64.5344E-03     56.7863E-03    -27.9374E-03    -28.8612E-03    -27.6000E-03     55.5251E-03    -27.9374E-03     20.3217E-03     105.151E-03     34.1457E+06     12.5189E+06    -17.8717E+06    -24.3943E+06    -14.6793E+06     9.06258E+06    -24.1304E+06     111.608E+03
            1290     65.9795E-03     13.6148E-03     64.5595E-03     57.5184E-03    -27.7847E-03    -29.7405E-03    -27.4364E-03     55.2142E-03    -27.7847E-03     27.7294E-03     124.408E-03     109.111E+06     84.2391E+06    -15.9257E+06    -31.9358E+06    -15.9230E+06     84.2364E+06    -31.9358E+06    -1.98830E+03
            1291     66.2197E-03     14.5879E-03     64.5929E-03     61.5714E-03    -27.7875E-03    -33.7930E-03    -27.2318E-03     55.0103E-03    -27.7875E-03     46.4458E-03     152.690E-03     158.000E+06     141.871E+06    -3.58414E+06    -26.1884E+06    -16.4313E+06     141.866E+06    -13.3355E+06    -233.680E+03
            1292     66.5043E-03     15.5625E-03     64.6578E-03     75.0302E-03    -28.0319E-03    -46.9968E-03    -27.8278E-03     55.8612E-03    -28.0319E-03     87.1871E-03     212.392E-03     166.228E+06     171.204E+06     49.8204E+06    -14.0486E+06    -14.0436E+06     171.199E+06     49.8204E+06    -125.336E+03
            1293     66.8543E-03     16.5352E-03     64.7772E-03     76.6166E-03    -28.3495E-03    -48.2600E-03    -27.8684E-03     56.2250E-03    -28.3495E-03     91.2631E-03     229.494E-03     180.279E+06     193.393E+06     125.410E+06    -8.33633E+06    -8.33378E+06     193.391E+06     125.410E+06     500.013E+03
            1294     65.4947E-03     972.280E-06     65.4875E-03     56.7561E-03    -28.2912E-03    -28.4655E-03    -28.4167E-03     56.7496E-03    -28.3335E-03     1.25588E-03     57.2982E-03     196.588E+06    -40.1168E+06    -41.5663E+06    -237.423E+06    -41.0907E+06    -237.414E+06    -40.6021E+06    -1.12952E+06
            1295     65.5189E-03     1.94446E-03     65.4900E-03     56.7073E-03    -28.2890E-03    -28.4190E-03    -28.3004E-03     56.6881E-03    -28.3884E-03     2.51161E-03     57.6027E-03     198.770E+06    -35.1216E+06    -39.0988E+06    -235.840E+06    -39.1163E+06    -235.822E+06    -35.1216E+06    -1.72737E+06
            1296     65.5578E-03     2.91694E-03     65.4929E-03     56.7034E-03    -28.3048E-03    -28.3992E-03    -28.2654E-03     56.6640E-03    -28.3992E-03     3.60614E-03     58.4505E-03     200.675E+06    -27.0939E+06    -35.9626E+06    -232.043E+06    -35.9765E+06    -232.029E+06    -27.0939E+06    -1.60020E+06
            1297     65.6128E-03     3.88933E-03     65.4974E-03     56.7479E-03    -28.3371E-03    -28.4124E-03    -28.2710E-03     56.6818E-03    -28.4124E-03     4.71587E-03     59.7618E-03     201.017E+06    -18.2514E+06    -32.7531E+06    -226.110E+06    -32.7631E+06    -226.100E+06    -18.2514E+06    -1.19184E+06
            1298     65.6828E-03     4.86162E-03     65.5026E-03     56.7246E-03    -28.3163E-03    -28.4097E-03    -28.2181E-03     56.6264E-03    -28.4097E-03     5.74962E-03     61.4193E-03     188.978E+06    -11.7448E+06    -29.7979E+06    -209.096E+06    -29.8047E+06    -209.089E+06    -11.7448E+06    -904.573E+03
            1299     65.7687E-03     5.83417E-03     65.5094E-03     56.6452E-03    -28.2687E-03    -28.3796E-03    -28.1341E-03     56.5106E-03    -28.3796E-03     6.74112E-03     63.5645E-03     171.000E+06    -6.19931E+06    -26.4741E+06    -186.420E+06    -26.4773E+06    -186.416E+06    -6.19931E+06    -689.513E+03
            1300     65.8693E-03     6.80653E-03     65.5167E-03     56.5896E-03    -28.2494E-03    -28.3458E-03    -28.0709E-03     56.4111E-03    -28.3458E-03     7.75507E-03     66.3188E-03     155.940E+06    -1.77164E+06    -23.4753E+06    -167.424E+06    -23.4776E+06    -167.421E+06    -1.77164E+06    -502.473E+03
            1301     65.9856E-03     7.77927E-03     65.5255E-03     56.5822E-03    -28.2688E-03    -28.3112E-03    -28.0413E-03     56.3530E-03    -28.3094E-03     8.79671E-03     69.7453E-03     139.237E+06     840.844E+03    -21.0263E+06    -148.027E+06    -21.0280E+06    -148.026E+06     840.844E+03    -412.141E+03
            1302     66.1168E-03     8.75167E-03     65.5351E-03     56.5875E-03    -28.2698E-03    -28.2925E-03    -28.0129E-03     56.3110E-03    -28.2728E-03     9.66435E-03     73.8296E-03     120.997E+06     2.49999E+06    -18.6952E+06    -127.692E+06    -18.6978E+06    -127.690E+06     2.49999E+06    -517.483E+03
            1303     66.2631E-03     9.72412E-03     65.5457E-03     56.6154E-03    -28.2169E-03    -28.3549E-03    -27.9528E-03     56.2149E-03    -28.2184E-03     11.5448E-03     79.3021E-03     98.4502E+06    -783.147E+03    -16.7402E+06    -106.218E+06    -16.7430E+06    -106.215E+06    -783.147E+03    -475.041E+03
            1304     66.4260E-03     10.6968E-03     65.5591E-03     56.5849E-03    -28.1454E-03    -28.4487E-03    -27.8964E-03     56.0326E-03    -28.1454E-03     13.6466E-03     86.2287E-03     69.1441E+06    -7.15922E+06    -15.7339E+06    -80.1786E+06    -15.7362E+06    -80.1763E+06    -7.15922E+06    -357.714E+03
            1305     66.6046E-03     11.6696E-03     65.5744E-03     56.5584E-03    -28.0533E-03    -28.5462E-03    -27.8272E-03     55.8394E-03    -28.0533E-03     15.5254E-03     93.7681E-03     29.0948E+06    -12.5400E+06    -17.8009E+06    -43.1405E+06    -15.2516E+06    -43.1333E+06    -15.0965E+06    -299.001E+03
            1306     66.7989E-03     12.6419E-03     65.5917E-03     56.8343E-03    -27.9378E-03    -28.9092E-03    -27.6509E-03     55.5760E-03    -27.9378E-03     20.3187E-03     105.188E-03     33.7946E+06     11.9367E+06    -18.0127E+06    -24.6920E+06    -15.4613E+06     8.74064E+06    -24.0474E+06     3.63575E+03
            1307     67.0146E-03     13.6156E-03     65.6169E-03     57.5138E-03    -27.7869E-03    -29.7347E-03    -27.3528E-03     55.1319E-03    -27.7869E-03     28.1249E-03     124.239E-03     108.670E+06     84.1348E+06    -16.1229E+06    -31.2541E+06    -16.1214E+06     84.1333E+06    -31.2541E+06     294.285E+03
            1308     67.2522E-03     14.5885E-03     65.6509E-03     61.5776E-03    -27.7930E-03    -33.7927E-03    -27.2955E-03     55.0804E-03    -27.7930E-03     46.4966E-03     152.515E-03     157.803E+06     142.566E+06    -2.18118E+06    -25.5543E+06    -16.4538E+06     142.562E+06    -11.2777E+06    -294.181E+03
            1309     67.5310E-03     15.5616E-03     65.7135E-03     75.4429E-03    -28.0423E-03    -47.3987E-03    -28.0929E-03     56.1371E-03    -28.0423E-03     87.6116E-03     212.629E-03     166.459E+06     171.112E+06     50.6916E+06    -14.8807E+06    -14.8760E+06     171.107E+06     50.6916E+06    -110.274E+03
            1310     67.8817E-03     16.5356E-03     65.8369E-03     76.5277E-03    -28.3565E-03    -48.1680E-03    -27.7051E-03     56.0648E-03    -28.3565E-03     91.2154E-03     229.314E-03     180.479E+06     192.765E+06     124.826E+06    -9.26439E+06    -9.26238E+06     192.763E+06     124.826E+06     616.745E+03
            1311     66.5526E-03     972.401E-06     66.5455E-03     56.6507E-03    -28.2296E-03    -28.4220E-03    -28.4019E-03     56.6446E-03    -28.2437E-03     1.30286E-03     57.1763E-03     197.341E+06    -36.8165E+06    -38.2664E+06    -234.875E+06    -38.2775E+06    -234.864E+06    -36.8165E+06    -1.30418E+06
            1312     66.5753E-03     1.94456E-03     66.5469E-03     56.6928E-03    -28.2909E-03    -28.4018E-03    -28.3241E-03     56.6726E-03    -28.3484E-03     2.53826E-03     57.5574E-03     199.698E+06    -33.1259E+06    -37.2060E+06    -234.823E+06    -37.2218E+06    -234.807E+06    -33.1259E+06    -1.63997E+06
            1313     66.6141E-03     2.91698E-03     66.5502E-03     56.7117E-03    -28.3109E-03    -28.4011E-03    -28.2930E-03     56.6711E-03    -28.3784E-03     3.68089E-03     58.4302E-03     201.453E+06    -26.4144E+06    -35.5326E+06    -232.254E+06    -35.5437E+06    -232.243E+06    -26.4144E+06    -1.36835E+06
            1314     66.6680E-03     3.88936E-03     66.5545E-03     56.7383E-03    -28.3373E-03    -28.4024E-03    -28.2718E-03     56.6728E-03    -28.4024E-03     4.69275E-03     59.7422E-03     201.659E+06    -17.5695E+06    -32.6659E+06    -226.335E+06    -32.6699E+06    -226.331E+06    -17.5695E+06     -612.48E+03
            1315     66.7374E-03     4.86177E-03     66.5600E-03     56.7005E-03    -28.3034E-03    -28.3998E-03    -28.2055E-03     56.6026E-03    -28.3998E-03     5.74232E-03     61.4075E-03     189.284E+06    -11.3355E+06    -29.5171E+06    -209.050E+06    -29.5181E+06    -209.049E+06    -11.3355E+06    -324.368E+03
            1316     66.8216E-03     5.83411E-03     66.5664E-03     56.6248E-03    -28.2618E-03    -28.3677E-03    -28.1273E-03     56.4903E-03    -28.3677E-03     6.73804E-03     63.5508E-03     171.263E+06    -6.54095E+06    -26.6869E+06    -186.972E+06    -26.6883E+06    -186.970E+06    -6.54095E+06    -258.440E+03
            1317     66.9211E-03     6.80677E-03     66.5741E-03     56.6192E-03    -28.2808E-03    -28.3457E-03    -28.1099E-03     56.4417E-03    -28.3391E-03     7.73785E-03     66.3534E-03     155.983E+06    -1.74437E+06    -23.8788E+06    -167.607E+06    -23.8793E+06    -167.607E+06    -1.74437E+06    -74.6153E+03
            1318     67.0355E-03     7.77902E-03     66.5826E-03     56.6106E-03    -28.2940E-03    -28.3162E-03    -28.0732E-03     56.3814E-03    -28.3077E-03     8.79550E-03     69.7848E-03     139.194E+06     1.05225E+06    -21.0411E+06    -147.865E+06    -21.0421E+06    -147.864E+06     1.05225E+06    -260.568E+03
            1319     67.1652E-03     8.75164E-03     66.5926E-03     56.5578E-03    -28.2611E-03    -28.2726E-03    -27.9858E-03     56.2807E-03    -28.2708E-03     9.67309E-03     73.8046E-03     121.231E+06     2.41375E+06    -18.6065E+06    -127.950E+06    -18.6080E+06    -127.948E+06     2.41375E+06    -287.854E+03
            1320     67.3090E-03     9.72435E-03     66.6029E-03     56.6249E-03    -28.2117E-03    -28.3714E-03    -27.9664E-03     56.2236E-03    -28.2153E-03     11.5562E-03     79.2871E-03     98.3037E+06    -702.387E+03    -17.1540E+06    -106.183E+06    -17.1549E+06    -106.182E+06    -702.387E+03    -115.989E+03
            1321     67.4701E-03     10.6968E-03     66.6168E-03     56.6101E-03    -28.1450E-03    -28.4734E-03    -27.9250E-03     56.0617E-03    -28.1450E-03     13.6056E-03     86.2730E-03     68.9229E+06    -6.94068E+06    -16.3726E+06    -80.0855E+06    -16.3735E+06    -80.0846E+06    -6.94068E+06    -130.783E+03
            1322     67.6456E-03     11.6694E-03     66.6314E-03     56.4732E-03    -28.0499E-03    -28.4617E-03    -27.7362E-03     55.7477E-03    -28.0499E-03     15.5647E-03     93.6595E-03     29.0212E+06    -13.1320E+06    -18.5473E+06    -43.8158E+06    -16.2296E+06    -43.8109E+06    -15.4545E+06    -142.740E+03
            1323     67.8379E-03     12.6427E-03     66.6494E-03     56.8372E-03    -27.9295E-03    -28.9217E-03    -27.6388E-03     55.5544E-03    -27.9295E-03     20.5323E-03     105.101E-03     33.8184E+06     11.2791E+06    -18.8123E+06    -25.3116E+06    -16.4921E+06     8.33482E+06    -24.6875E+06    -167.472E+03
            1324     68.0499E-03     13.6148E-03     66.6740E-03     57.4261E-03    -27.7809E-03    -29.6558E-03    -27.3336E-03     55.1038E-03    -27.7809E-03     27.8001E-03     124.252E-03     108.919E+06     84.1701E+06    -16.7534E+06    -31.1912E+06    -16.7516E+06     84.1683E+06    -31.1912E+06    -100.023E+03
            1325     68.2844E-03     14.5891E-03     66.7077E-03     61.6832E-03    -27.7916E-03    -33.9005E-03    -27.3664E-03     55.1491E-03    -27.7916E-03     46.5350E-03     152.613E-03     157.934E+06     142.547E+06    -2.23138E+06    -25.7237E+06    -17.1584E+06     142.544E+06    -10.7940E+06     297.014E+03
            1326     68.5619E-03     15.5618E-03     66.7725E-03     75.4894E-03    -28.0456E-03    -47.4402E-03    -28.1105E-03     56.1596E-03    -28.0456E-03     87.7293E-03     212.956E-03     166.360E+06     170.834E+06     50.8635E+06    -15.2630E+06    -15.2595E+06     170.831E+06     50.8635E+06     364.651E+03
            1327     68.9061E-03     16.5352E-03     66.8928E-03     76.4019E-03    -28.3553E-03    -48.0343E-03    -27.6094E-03     55.9770E-03    -28.3553E-03     91.0435E-03     229.487E-03     179.895E+06     192.703E+06     125.115E+06    -8.64297E+06    -8.64140E+06     192.702E+06     125.115E+06     5.95680E+03
            1328     67.6092E-03     972.296E-06     67.6022E-03     56.5169E-03    -28.1967E-03    -28.3210E-03    -28.2996E-03     56.5112E-03    -28.2125E-03     1.30457E-03     57.1485E-03     194.097E+06    -38.6880E+06    -41.0540E+06    -233.953E+06    -41.0588E+06    -233.949E+06    -38.6880E+06    -371.582E+03
            1329     67.6322E-03     1.94496E-03     67.6043E-03     56.6119E-03    -28.2842E-03    -28.3277E-03    -28.2923E-03     56.5922E-03    -28.3000E-03     2.48702E-03     57.5422E-03     197.947E+06    -33.0530E+06    -39.1858E+06    -233.982E+06    -39.1903E+06    -233.978E+06    -33.0530E+06    -530.446E+03
            1330     67.6703E-03     2.91704E-03     67.6074E-03     56.7411E-03    -28.3497E-03    -28.3918E-03    -28.3447E-03     56.7004E-03    -28.3560E-03     3.69110E-03     58.4782E-03     201.261E+06    -25.7137E+06    -37.2725E+06    -232.482E+06    -37.2762E+06    -232.478E+06    -25.7137E+06    -173.204E+03
            1331     67.7235E-03     3.88932E-03     67.6117E-03     56.7321E-03    -28.3308E-03    -28.4026E-03    -28.2735E-03     56.6667E-03    -28.3945E-03     4.68789E-03     59.7441E-03     201.432E+06    -17.3868E+06    -34.2962E+06    -226.726E+06    -34.2968E+06    -226.726E+06    -17.3868E+06    -64.0367E+03
            1332     67.7917E-03     4.86176E-03     67.6171E-03     56.6665E-03    -28.2767E-03    -28.3926E-03    -28.1791E-03     56.5689E-03    -28.3926E-03     5.72811E-03     61.3885E-03     189.182E+06    -11.1020E+06    -30.5036E+06    -209.232E+06    -30.5049E+06    -209.230E+06    -11.1020E+06     93.5715E+03
            1333     67.8749E-03     5.83432E-03     67.6237E-03     56.6358E-03    -28.2804E-03    -28.3609E-03    -28.1455E-03     56.5009E-03    -28.3609E-03     6.74746E-03     63.5687E-03     171.343E+06    -6.48973E+06    -27.3791E+06    -187.309E+06    -27.3814E+06    -187.306E+06    -6.48973E+06     443.029E+03
            1334     67.9728E-03     6.80659E-03     67.6312E-03     56.6248E-03    -28.2935E-03    -28.3389E-03    -28.1198E-03     56.4445E-03    -28.3322E-03     7.79818E-03     66.3629E-03     155.398E+06    -2.22006E+06    -24.5448E+06    -167.567E+06    -24.5461E+06    -167.566E+06    -2.22006E+06     317.808E+03
            1335     68.0860E-03     7.77922E-03     67.6401E-03     56.5933E-03    -28.2799E-03    -28.3120E-03    -28.0559E-03     56.3602E-03    -28.3027E-03     8.87087E-03     69.7752E-03     138.660E+06     821.594E+03    -21.7990E+06    -147.752E+06    -21.7994E+06    -147.752E+06     821.594E+03     61.9461E+03
            1336     68.2133E-03     8.75175E-03     67.6496E-03     56.5917E-03    -28.2600E-03    -28.3073E-03    -28.0181E-03     56.3106E-03    -28.2682E-03     9.74625E-03     73.8347E-03     120.978E+06     2.10083E+06    -19.5564E+06    -128.240E+06    -19.5569E+06    -128.239E+06     2.10083E+06     138.625E+03
            1337     68.3556E-03     9.72420E-03     67.6604E-03     56.6275E-03    -28.2111E-03    -28.3735E-03    -27.9683E-03     56.2245E-03    -28.2132E-03     11.5844E-03     79.3164E-03     98.1456E+06    -979.875E+03    -17.6560E+06    -106.382E+06    -17.6563E+06    -106.381E+06    -979.875E+03     144.171E+03
            1338     68.5142E-03     10.6968E-03     67.6741E-03     56.5767E-03    -28.1423E-03    -28.4394E-03    -27.8898E-03     56.0271E-03    -28.1423E-03     13.6156E-03     86.2436E-03     69.1502E+06    -6.76683E+06    -16.4311E+06    -80.2332E+06    -16.4318E+06    -80.2325E+06    -6.76683E+06     118.565E+03
            1339     68.6873E-03     11.6696E-03     67.6888E-03     56.4662E-03    -28.0475E-03    -28.4594E-03    -27.7499E-03     55.7567E-03    -28.0475E-03     15.4066E-03     93.7191E-03     29.2287E+06    -12.9768E+06    -18.6249E+06    -43.9353E+06    -16.2638E+06    -43.9338E+06    -15.3395E+06     127.646E+03
            1340     68.8765E-03     12.6424E-03     67.7063E-03     56.7677E-03    -27.9260E-03    -28.8594E-03    -27.5664E-03     55.4748E-03    -27.9260E-03     20.5293E-03     105.025E-03     33.9162E+06     11.2614E+06    -19.2101E+06    -25.2693E+06    -16.8462E+06     8.31266E+06    -24.6844E+06    -40.0821E+03
            1341     69.0874E-03     13.6158E-03     67.7324E-03     57.5227E-03    -27.7795E-03    -29.7525E-03    -27.4605E-03     55.2307E-03    -27.7795E-03     27.7304E-03     124.393E-03     109.544E+06     84.0478E+06    -18.2012E+06    -31.4767E+06    -18.1991E+06     84.0458E+06    -31.4767E+06    -58.1055E+03
            1342     69.3164E-03     14.5881E-03     67.7639E-03     61.8292E-03    -27.7915E-03    -34.0449E-03    -27.4542E-03     55.2385E-03    -27.7915E-03     46.5924E-03     152.897E-03     158.433E+06     142.129E+06    -4.31763E+06    -25.9126E+06    -18.1087E+06     142.126E+06    -12.1188E+06     262.509E+03
            1343     69.5936E-03     15.5620E-03     67.8314E-03     75.0781E-03    -28.0452E-03    -47.0289E-03    -27.8894E-03     55.9386E-03    -28.0452E-03     87.1754E-03     212.762E-03     166.346E+06     170.733E+06     50.4188E+06    -14.9330E+06    -14.9285E+06     170.729E+06     50.4188E+06    -122.307E+03
            1344     69.9320E-03     16.5363E-03     67.9487E-03     76.2886E-03    -28.3586E-03    -47.9168E-03    -27.7060E-03     56.0777E-03    -28.3586E-03     90.6111E-03     229.471E-03     180.275E+06     192.923E+06     125.748E+06    -8.77932E+06    -8.77701E+06     192.921E+06     125.748E+06    -538.365E+03
            1345     68.6662E-03     972.507E-06     68.6593E-03     56.4576E-03    -28.1457E-03    -28.3131E-03    -28.3055E-03     56.4517E-03    -28.1474E-03     1.24888E-03     57.2970E-03     187.118E+06    -45.4420E+06    -48.1366E+06    -233.890E+06    -47.2507E+06    -233.887E+06    -46.3308E+06     81.9149E+03
            1346     68.6887E-03     1.94462E-03     68.6612E-03     56.5728E-03    -28.2621E-03    -28.3113E-03    -28.2738E-03     56.5537E-03    -28.2804E-03     2.47020E-03     57.6765E-03     192.573E+06    -38.2124E+06    -45.2441E+06    -234.179E+06    -45.2461E+06    -234.177E+06    -38.2124E+06     258.646E+03
            1347     68.7266E-03     2.91718E-03     68.6646E-03     56.6460E-03    -28.2891E-03    -28.3574E-03    -28.2622E-03     56.6060E-03    -28.3443E-03     3.63954E-03     58.4515E-03     198.692E+06    -27.5866E+06    -41.3839E+06    -232.802E+06    -41.3854E+06    -232.800E+06    -27.5866E+06     485.513E+03
            1348     68.7790E-03     3.88944E-03     68.6689E-03     56.7017E-03    -28.3142E-03    -28.3890E-03    -28.2570E-03     56.6359E-03    -28.3803E-03     4.70454E-03     59.7304E-03     200.150E+06    -17.7715E+06    -36.7632E+06    -226.728E+06    -36.7641E+06    -226.727E+06    -17.7715E+06     273.865E+03
            1349     68.8461E-03     4.86183E-03     68.6742E-03     56.7007E-03    -28.3157E-03    -28.3877E-03    -28.2186E-03     56.6030E-03    -28.3872E-03     5.73471E-03     61.4241E-03     189.012E+06    -11.0757E+06    -32.4804E+06    -209.872E+06    -32.4828E+06    -209.869E+06    -11.0757E+06     513.150E+03
            1350     68.9282E-03     5.83420E-03     68.6809E-03     56.6331E-03    -28.2771E-03    -28.3613E-03    -28.1417E-03     56.4977E-03    -28.3613E-03     6.75673E-03     63.5769E-03     171.317E+06    -6.15802E+06    -28.6000E+06    -187.581E+06    -28.6044E+06    -187.577E+06    -6.15802E+06     827.010E+03
            1351     69.0249E-03     6.80678E-03     68.6885E-03     56.5948E-03    -28.2726E-03    -28.3300E-03    -28.0928E-03     56.4148E-03    -28.3297E-03     7.78972E-03     66.3521E-03     155.160E+06    -2.01370E+06    -25.2705E+06    -167.483E+06    -25.2745E+06    -167.479E+06    -2.01370E+06     709.157E+03
            1352     69.1362E-03     7.77924E-03     68.6971E-03     56.6043E-03    -28.2838E-03    -28.3199E-03    -28.0720E-03     56.3732E-03    -28.3006E-03     8.83267E-03     69.8078E-03     138.570E+06     1.03228E+06    -22.4807E+06    -147.783E+06    -22.4828E+06    -147.781E+06     1.03228E+06     454.641E+03
            1353     69.2622E-03     8.75176E-03     68.7071E-03     56.6113E-03    -28.2628E-03    -28.3238E-03    -28.0370E-03     56.3300E-03    -28.2683E-03     9.75011E-03     73.8694E-03     120.852E+06     2.35920E+06    -19.8355E+06    -128.051E+06    -19.8364E+06    -128.050E+06     2.35920E+06     211.348E+03
            1354     69.4024E-03     9.72417E-03     68.7178E-03     56.6081E-03    -28.2067E-03    -28.3587E-03    -27.9516E-03     56.2065E-03    -28.2122E-03     11.5704E-03     79.3233E-03      98.265E+06    -1.26566E+06    -17.7255E+06    -106.704E+06    -17.7258E+06    -106.703E+06    -1.26566E+06     67.2120E+03
            1355     69.5586E-03     10.6970E-03     68.7312E-03     56.5746E-03    -28.1411E-03    -28.4425E-03    -27.8950E-03     56.0271E-03    -28.1411E-03     13.5869E-03     86.2621E-03     69.3828E+06    -6.83415E+06    -16.3423E+06    -80.4775E+06    -16.3430E+06    -80.4767E+06    -6.83415E+06     135.384E+03
            1356     69.7297E-03     11.6695E-03     68.7463E-03     56.5607E-03    -28.0522E-03    -28.5550E-03    -27.8532E-03     55.8590E-03    -28.0522E-03     15.3501E-03     93.8572E-03     29.4743E+06    -12.1446E+06    -17.9595E+06    -43.4663E+06    -15.5152E+06    -43.4646E+06    -14.5907E+06     150.431E+03
            1357     69.9162E-03     12.6422E-03     68.7637E-03     56.7898E-03    -27.9358E-03    -28.8745E-03    -27.6161E-03     55.5314E-03    -27.9358E-03     20.2636E-03     105.158E-03     33.8195E+06     11.5117E+06    -18.4675E+06    -25.1193E+06    -16.0207E+06     8.23479E+06    -24.2892E+06     255.678E+03
            1358     70.1237E-03     13.6154E-03     68.7892E-03     57.4825E-03    -27.7869E-03    -29.7032E-03    -27.3961E-03     55.1754E-03    -27.7869E-03     27.7533E-03     124.305E-03     108.869E+06     83.9101E+06    -17.1783E+06    -31.2341E+06    -17.1765E+06     83.9083E+06    -31.2341E+06     269.932E+03
            1359     70.3523E-03     14.5884E-03     68.8231E-03     61.7782E-03    -27.7985E-03    -33.9854E-03    -27.4166E-03     55.2094E-03    -27.7985E-03     46.5957E-03     152.873E-03     157.724E+06     142.197E+06    -2.92680E+06    -25.5096E+06    -17.2735E+06     142.195E+06    -11.1609E+06    -301.996E+03
            1360     70.6226E-03     15.5615E-03     68.8868E-03     75.1937E-03    -28.0558E-03    -47.1308E-03    -27.9822E-03     56.0451E-03    -28.0558E-03     87.2472E-03     212.725E-03     166.054E+06     170.904E+06     51.4302E+06    -14.6739E+06    -14.6703E+06     170.901E+06     51.4302E+06    -722.852E+03
            1361     70.9607E-03     16.5351E-03     69.0073E-03     76.3648E-03    -28.3687E-03    -47.9832E-03    -27.7547E-03     56.1362E-03    -28.3687E-03     90.6903E-03     229.312E-03     180.049E+06     192.755E+06     125.995E+06    -8.61861E+06    -8.61669E+06     192.753E+06     125.995E+06    -467.244E+03
            1362     69.7230E-03     972.349E-06     69.7162E-03     56.4750E-03    -28.1509E-03    -28.3263E-03    -28.3099E-03     56.4685E-03    -28.1608E-03     1.30845E-03     57.4258E-03     182.317E+06    -50.0131E+06    -53.5300E+06    -234.062E+06    -52.6428E+06    -234.060E+06    -50.9019E+06     260.917E+03
            1363     69.7455E-03     1.94478E-03     69.7184E-03     56.5523E-03    -28.2438E-03    -28.3088E-03    -28.2502E-03     56.5329E-03    -28.2829E-03     2.50993E-03     57.7562E-03     187.987E+06    -43.2858E+06    -50.2113E+06    -234.619E+06    -50.2132E+06    -234.617E+06    -43.2858E+06     350.988E+03
            1364     69.7825E-03     2.91696E-03     69.7215E-03     56.5767E-03    -28.2457E-03    -28.3307E-03    -28.2063E-03     56.5373E-03    -28.3307E-03     3.61393E-03     58.5025E-03     193.872E+06    -32.7949E+06    -45.8266E+06    -232.836E+06    -45.8274E+06    -232.835E+06    -32.7949E+06     40.6317E+03
            1365     69.8345E-03     3.88962E-03     69.7261E-03     56.6454E-03    -28.2801E-03    -28.3671E-03    -28.2157E-03     56.5804E-03    -28.3665E-03     4.67196E-03     59.7392E-03     197.002E+06    -20.9584E+06    -40.5135E+06    -226.985E+06    -40.5146E+06    -226.984E+06    -20.9584E+06    -2.45401E+03
            1366     69.9008E-03     4.86185E-03     69.7315E-03     56.7129E-03    -28.3290E-03    -28.3869E-03    -28.2329E-03     56.6162E-03    -28.3863E-03     5.70621E-03     61.4492E-03     188.359E+06    -11.7688E+06    -35.2067E+06    -210.744E+06    -35.2091E+06    -210.741E+06    -11.7688E+06     356.722E+03
            1367     69.9817E-03     5.83425E-03     69.7381E-03     56.6509E-03    -28.2884E-03    -28.3673E-03    -28.1549E-03     56.5173E-03    -28.3673E-03     6.71345E-03     63.6083E-03     170.945E+06    -6.08463E+06    -30.5676E+06    -187.941E+06    -30.5714E+06    -187.937E+06    -6.08463E+06     756.231E+03
            1368     70.0770E-03     6.80671E-03     69.7456E-03     56.6134E-03    -28.2823E-03    -28.3375E-03    -28.1050E-03     56.4358E-03    -28.3372E-03     7.73643E-03     66.3772E-03     154.629E+06    -1.86927E+06    -26.4894E+06    -167.328E+06    -26.4931E+06    -167.324E+06    -1.86927E+06     667.118E+03
            1369     70.1870E-03     7.77920E-03     69.7546E-03     56.6387E-03    -28.3062E-03    -28.3314E-03    -28.0988E-03     56.4089E-03    -28.3089E-03     8.81173E-03     69.8433E-03     138.350E+06     1.22601E+06    -22.6774E+06    -147.514E+06    -22.6792E+06    -147.513E+06     1.22601E+06     331.706E+03
            1370     70.3112E-03     8.75156E-03     69.7644E-03     56.5713E-03    -28.2499E-03    -28.2964E-03    -27.9955E-03     56.2948E-03    -28.2743E-03     9.66419E-03     73.8583E-03     120.910E+06     2.45962E+06    -19.5322E+06    -127.937E+06    -19.5334E+06    -127.936E+06     2.45962E+06    -100.729E+03
            1371     70.4493E-03     9.72434E-03     69.7750E-03     56.6049E-03    -28.1918E-03    -28.3720E-03    -27.9474E-03     56.2047E-03    -28.2162E-03     11.5351E-03     79.3006E-03     98.6477E+06    -1.05590E+06    -17.0221E+06    -106.691E+06    -17.0231E+06    -106.690E+06    -1.05590E+06    -218.391E+03
            1372     70.6037E-03     10.6967E-03     69.7886E-03     56.6481E-03    -28.1474E-03    -28.5141E-03    -27.9707E-03     56.1047E-03    -28.1474E-03     13.5516E-03     86.3326E-03     69.7125E+06    -6.77471E+06    -15.5114E+06    -80.4373E+06    -15.5119E+06    -80.4367E+06    -6.77471E+06    -100.418E+03
            1373     70.7723E-03     11.6695E-03     69.8036E-03     56.5752E-03    -28.0603E-03    -28.5589E-03    -27.8575E-03     55.8737E-03    -28.0603E-03     15.3349E-03     93.8377E-03     29.9487E+06    -12.0608E+06    -17.6752E+06    -43.7063E+06    -14.9590E+06    -43.7050E+06    -14.7783E+06    -8.65246E+03
            1374     70.9566E-03     12.6422E-03     69.8212E-03     56.8692E-03    -27.9450E-03    -28.9364E-03    -27.6720E-03     55.6047E-03    -27.9450E-03     20.3493E-03     105.195E-03     33.6317E+06     11.7382E+06    -17.4895E+06    -25.0113E+06    -14.7708E+06     8.08014E+06    -24.0720E+06     68.4803E+03
            1375     71.1610E-03     13.6147E-03     69.8465E-03     57.4069E-03    -27.7926E-03    -29.6173E-03    -27.2535E-03     55.0431E-03    -27.7926E-03     28.0110E-03     124.171E-03     107.763E+06     83.9339E+06    -15.1280E+06    -30.6685E+06    -15.1251E+06     83.9310E+06    -30.6685E+06    -71.1290E+03
            1376     71.3866E-03     14.5886E-03     69.8801E-03     61.6191E-03    -27.7980E-03    -33.8249E-03    -27.1800E-03     54.9742E-03    -27.7980E-03     46.8887E-03     152.644E-03     156.187E+06     142.386E+06    -227.222E+03    -24.3799E+06    -15.4187E+06     142.383E+06    -9.18528E+06    -183.997E+03
            1377     71.6553E-03     15.5622E-03     69.9449E-03     75.4064E-03    -28.0537E-03    -47.3493E-03    -28.0687E-03     56.1259E-03    -28.0537E-03     87.6800E-03     212.604E-03     165.061E+06     171.194E+06     53.2173E+06    -13.6831E+06    -13.6800E+06     171.191E+06     53.2173E+06    -10.2534E+03
            1378     71.9896E-03     16.5357E-03     70.0647E-03     76.5702E-03    -28.3644E-03    -48.2000E-03    -27.8689E-03     56.2391E-03    -28.3644E-03     91.0450E-03     229.233E-03     179.525E+06     192.453E+06     126.060E+06    -8.25283E+06    -8.25174E+06     192.452E+06     126.060E+06    -135.162E+03
            1379     70.7800E-03     972.318E-06     70.7734E-03     56.5260E-03    -28.1764E-03    -28.3508E-03    -28.3240E-03     56.5193E-03    -28.1964E-03     1.37318E-03     57.4359E-03     182.150E+06    -51.3737E+06    -54.1721E+06    -234.901E+06    -54.1737E+06    -234.900E+06    -51.3737E+06     500.492E+03
            1380     70.8022E-03     1.94461E-03     70.7754E-03     56.5491E-03    -28.2544E-03    -28.2944E-03    -28.2353E-03     56.5300E-03    -28.2944E-03     2.49572E-03     57.8163E-03     186.322E+06    -45.3453E+06    -51.2784E+06    -234.554E+06    -51.2799E+06    -234.552E+06    -45.3453E+06     269.172E+03
            1381     70.8387E-03     2.91717E-03     70.7786E-03     56.6171E-03    -28.2886E-03    -28.3282E-03    -28.2497E-03     56.5782E-03    -28.3282E-03     3.58796E-03     58.6320E-03     190.229E+06    -36.7598E+06    -47.8726E+06    -232.281E+06    -47.8739E+06     -232.28E+06    -36.7598E+06    -252.805E+03
            1382     70.8898E-03     3.88926E-03     70.7831E-03     56.6584E-03    -28.2901E-03    -28.3699E-03    -28.2255E-03     56.5938E-03    -28.3699E-03     4.65871E-03     59.8434E-03     193.439E+06    -25.2190E+06    -43.5033E+06    -227.121E+06    -43.5052E+06    -227.119E+06    -25.2190E+06    -558.314E+03
            1383     70.9555E-03     4.86184E-03     70.7887E-03     56.6741E-03    -28.2814E-03    -28.3944E-03    -28.1858E-03     56.5785E-03    -28.3944E-03     5.67156E-03     61.4445E-03     186.424E+06    -14.3883E+06    -38.3683E+06    -211.624E+06    -38.3708E+06    -211.622E+06    -14.3883E+06    -314.019E+03
            1384     71.0354E-03     5.83420E-03     70.7954E-03     56.6849E-03    -28.3077E-03    -28.3801E-03    -28.1763E-03     56.5536E-03    -28.3801E-03     6.66077E-03     63.6391E-03     169.865E+06    -6.69975E+06    -32.7650E+06    -188.084E+06    -32.7691E+06    -188.080E+06    -6.69975E+06    -89.8578E+03
            1385     71.1293E-03     6.80657E-03     70.8028E-03     56.6794E-03    -28.3297E-03    -28.3548E-03    -28.1527E-03     56.5025E-03    -28.3548E-03     7.72539E-03     66.4514E-03     153.953E+06    -1.82747E+06    -27.2395E+06    -166.905E+06    -27.2455E+06    -166.899E+06    -1.82747E+06    -374.317E+03
            1386     71.2379E-03     7.77900E-03     70.8119E-03     56.6334E-03    -28.2997E-03    -28.3318E-03    -28.0765E-03     56.4043E-03    -28.3260E-03     8.79666E-03     69.8417E-03     138.287E+06     1.17637E+06    -22.6228E+06    -147.464E+06    -22.6294E+06    -147.458E+06     1.17637E+06    -613.636E+03
            1387     71.3604E-03     8.75160E-03     70.8217E-03     56.5951E-03    -28.2503E-03    -28.3220E-03    -28.0117E-03     56.3243E-03    -28.2898E-03     9.56804E-03     73.8902E-03     121.074E+06     2.71604E+06    -18.9143E+06    -127.715E+06    -18.9208E+06    -127.709E+06     2.71604E+06    -724.943E+03
            1388     71.4966E-03     9.72405E-03     70.8322E-03     56.6471E-03    -28.2137E-03    -28.3950E-03    -27.9804E-03     56.2514E-03    -28.2326E-03     11.4634E-03     79.3554E-03     98.9801E+06    -793.619E+03    -16.4006E+06    -106.626E+06    -16.4070E+06    -106.619E+06    -793.619E+03    -696.339E+03
            1389     71.6494E-03     10.6968E-03     70.8464E-03     56.6400E-03    -28.1625E-03    -28.4917E-03    -27.9521E-03     56.1004E-03    -28.1625E-03     13.5039E-03     86.3132E-03     70.2036E+06    -6.66263E+06    -14.8136E+06    -80.5780E+06    -14.8216E+06    -80.5700E+06    -6.66263E+06    -613.103E+03
            1390     71.8152E-03     11.6691E-03     70.8608E-03     56.5145E-03    -28.0709E-03    -28.4854E-03    -27.7868E-03     55.8159E-03    -28.0709E-03     15.2870E-03     93.7825E-03     30.9889E+06    -11.4027E+06    -17.1299E+06    -44.0747E+06    -13.9882E+06    -44.0563E+06    -14.5628E+06    -485.140E+03
            1391     71.9973E-03     12.6422E-03     70.8787E-03     56.7029E-03    -27.9438E-03    -28.7673E-03    -27.4792E-03     55.4149E-03    -27.9438E-03     20.4716E-03     104.982E-03     34.1084E+06     12.0904E+06    -17.0490E+06    -25.3903E+06    -13.9011E+06     7.60373E+06    -24.0515E+06    -362.690E+03
            1392     72.1993E-03     13.6155E-03     70.9039E-03     57.3292E-03    -27.7829E-03    -29.5485E-03    -27.1831E-03     54.9638E-03    -27.7829E-03     28.0405E-03     124.072E-03     107.455E+06     83.8279E+06    -14.7022E+06    -30.5493E+06    -14.7002E+06     83.8259E+06    -30.5493E+06    -358.590E+03
            1393     72.4213E-03     14.5887E-03     70.9367E-03     61.6603E-03    -27.7764E-03    -33.8881E-03    -27.1864E-03     54.9586E-03    -27.7764E-03     47.0120E-03     152.591E-03      155.96E+06     141.776E+06    -1.61335E+06    -24.1706E+06    -15.3241E+06     141.774E+06    -10.4581E+06     144.247E+03
            1394     72.6883E-03     15.5623E-03     71.0029E-03     75.2467E-03    -28.0268E-03    -47.2221E-03    -27.9649E-03     55.9894E-03    -28.0268E-03     87.5872E-03     212.357E-03     165.221E+06     171.138E+06     51.8681E+06    -13.4102E+06    -13.4075E+06     171.135E+06     51.8681E+06     690.836E+03
            1395     73.0190E-03     16.5361E-03     71.1219E-03     76.5135E-03    -28.3500E-03    -48.1817E-03    -27.9865E-03     56.3182E-03    -28.3500E-03     90.7375E-03     229.125E-03     179.781E+06     193.057E+06     126.044E+06    -7.99655E+06    -7.99407E+06     193.055E+06     126.044E+06     477.778E+03
            1396     71.8370E-03     972.300E-06     71.8304E-03     56.5844E-03    -28.2205E-03    -28.3638E-03    -28.3463E-03     56.5784E-03    -28.2320E-03     1.27364E-03     57.4397E-03     183.212E+06    -52.0068E+06    -53.0000E+06    -235.711E+06    -52.8214E+06    -235.710E+06    -52.1861E+06     154.128E+03
            1397     71.8588E-03     1.94472E-03     71.8325E-03     56.6096E-03    -28.2942E-03    -28.3152E-03    -28.2752E-03     56.5907E-03    -28.3152E-03     2.47290E-03     57.8585E-03     185.548E+06    -46.7252E+06    -51.2019E+06    -234.452E+06    -51.1530E+06    -234.451E+06    -46.7745E+06     167.775E+03
            1398     71.8950E-03     2.91684E-03     71.8358E-03     56.6746E-03    -28.3194E-03    -28.3562E-03    -28.2808E-03     56.6361E-03    -28.3562E-03     3.57765E-03     58.6835E-03     189.086E+06    -37.4030E+06    -48.1008E+06    -231.591E+06    -48.1020E+06    -231.590E+06    -37.4030E+06    -249.145E+03
            1399     71.9455E-03     3.88936E-03     71.8403E-03     56.7193E-03    -28.3205E-03    -28.3996E-03    -28.2561E-03     56.6548E-03    -28.3996E-03     4.64964E-03     59.8978E-03     192.700E+06    -25.8293E+06    -43.9976E+06    -226.936E+06    -44.0002E+06    -226.933E+06    -25.8293E+06    -669.156E+03
            1400     72.0101E-03     4.86156E-03     71.8458E-03     56.7360E-03    -28.3139E-03    -28.4228E-03    -28.2180E-03     56.6402E-03    -28.4228E-03     5.68481E-03     61.5014E-03     185.449E+06    -15.1198E+06    -38.8905E+06    -211.292E+06    -38.9030E+06    -211.280E+06    -15.1198E+06    -1.18981E+06
            1401     72.0891E-03     5.83407E-03     71.8527E-03     56.7224E-03    -28.3194E-03    -28.4057E-03    -28.1885E-03     56.5916E-03    -28.4057E-03     6.64983E-03     63.6763E-03     168.908E+06    -7.47436E+06    -32.8730E+06    -187.636E+06    -32.9043E+06    -187.605E+06    -7.47436E+06    -1.89980E+06
            1402     72.1819E-03     6.80640E-03     71.8603E-03     56.7029E-03    -28.3293E-03    -28.3785E-03    -28.1548E-03     56.5284E-03    -28.3785E-03     7.67452E-03     66.4809E-03     153.444E+06    -2.38905E+06    -27.2367E+06    -166.738E+06    -27.2726E+06    -166.702E+06    -2.38905E+06    -2.05475E+06
            1403     72.2889E-03     7.77882E-03     71.8692E-03     56.6564E-03    -28.3059E-03    -28.3479E-03    -28.0799E-03     56.4304E-03    -28.3479E-03     8.73681E-03     69.8684E-03     137.955E+06     643.531E+03    -22.7404E+06    -147.507E+06    -22.7715E+06    -147.476E+06     643.531E+03    -1.87004E+06
            1404     72.4099E-03     8.75134E-03     71.8791E-03     56.6535E-03    -28.2893E-03    -28.3421E-03    -28.0483E-03     56.3817E-03    -28.3114E-03     9.58900E-03     73.9376E-03     120.696E+06     2.08020E+06    -19.1304E+06    -127.815E+06    -19.1582E+06    -127.788E+06     2.08020E+06    -1.65165E+06
            1405     72.5445E-03     9.72375E-03     71.8898E-03     56.6789E-03    -28.2549E-03    -28.3868E-03    -27.9939E-03     56.2860E-03    -28.2549E-03     11.4378E-03     79.4104E-03     98.9138E+06    -1.13745E+06    -16.3187E+06    -106.735E+06    -16.3431E+06    -106.711E+06    -1.13745E+06    -1.42300E+06
            1406     72.6947E-03     10.6963E-03     71.9034E-03     56.5346E-03    -28.1767E-03    -28.3680E-03    -27.8249E-03     55.9915E-03    -28.1767E-03     13.5216E-03     86.1990E-03     70.6961E+06    -7.11162E+06    -14.4150E+06    -81.1554E+06    -14.4397E+06    -81.1307E+06    -7.11162E+06    -1.24453E+06
            1407     72.8592E-03     11.6693E-03     71.9187E-03     56.4043E-03    -28.0734E-03    -28.3686E-03    -27.6650E-03     55.7007E-03    -28.0734E-03     15.3327E-03     93.6359E-03     31.4465E+06    -11.6022E+06    -16.9164E+06    -44.4364E+06    -13.6128E+06    -44.3978E+06    -14.9443E+06    -913.500E+03
            1408     73.0378E-03     12.6422E-03     71.9354E-03     56.6557E-03    -27.9428E-03    -28.7233E-03    -27.4703E-03     55.4027E-03    -27.9428E-03     20.2071E-03     104.924E-03     34.3930E+06     12.1008E+06    -17.5059E+06    -25.5814E+06    -14.1893E+06     7.55778E+06    -24.3549E+06    -407.711E+03
            1409     73.2379E-03     13.6156E-03     71.9611E-03     57.3079E-03    -27.7847E-03    -29.5292E-03    -27.2401E-03     55.0188E-03    -27.7847E-03     27.5850E-03     124.170E-03     107.563E+06     83.4651E+06    -15.2905E+06    -30.9610E+06    -15.2900E+06     83.4646E+06    -30.9610E+06    -89.2979E+03
            1410     73.4576E-03     14.5887E-03     71.9943E-03     61.5784E-03    -27.7770E-03    -33.8073E-03    -27.2246E-03     54.9957E-03    -27.7770E-03     46.5262E-03     152.566E-03     155.954E+06     141.041E+06    -2.67103E+06    -24.7130E+06    -15.8905E+06     141.040E+06    -11.4925E+06     256.592E+03
            1411     73.7209E-03     15.5622E-03     72.0596E-03     75.2013E-03    -28.0214E-03    -47.1861E-03    -27.9450E-03     55.9602E-03    -28.0214E-03     87.4649E-03     212.408E-03     165.360E+06     170.378E+06     50.0706E+06    -14.1552E+06    -14.1509E+06     170.374E+06     50.0706E+06     838.333E+03
            1412     74.0499E-03     16.5359E-03     72.1800E-03     76.4381E-03    -28.3484E-03    -48.1151E-03    -27.8977E-03     56.2207E-03    -28.3484E-03     90.7002E-03     229.167E-03     180.257E+06     193.418E+06     125.076E+06    -8.37172E+06    -8.36685E+06     193.414E+06     125.076E+06     959.492E+03
            1413     72.8940E-03     972.267E-06     72.8875E-03     56.7022E-03    -28.2828E-03    -28.4198E-03    -28.4128E-03     56.6965E-03    -28.2841E-03     1.26667E-03     57.5120E-03     185.539E+06    -49.9383E+06    -51.5646E+06    -236.277E+06    -51.1865E+06    -236.277E+06    -50.3171E+06    -251.811E+03
            1414     72.9156E-03     1.94445E-03     72.8897E-03     56.7229E-03    -28.3447E-03    -28.3785E-03    -28.3271E-03     56.7042E-03    -28.3774E-03     2.44357E-03     57.8374E-03     187.910E+06    -43.7279E+06    -49.0718E+06    -234.232E+06    -49.0228E+06    -234.232E+06    -43.7772E+06    -36.2876E+03
            1415     72.9514E-03     2.91688E-03     72.8931E-03     56.7657E-03    -28.3499E-03    -28.4163E-03    -28.3117E-03     56.7275E-03    -28.4163E-03     3.57164E-03     58.6650E-03     191.769E+06    -33.8781E+06    -45.8415E+06    -231.319E+06    -45.8421E+06    -231.319E+06    -33.8781E+06    -187.671E+03
            1416     73.0011E-03     3.88906E-03     72.8974E-03     56.8255E-03    -28.3717E-03    -28.4549E-03    -28.3089E-03     56.7627E-03    -28.4549E-03     4.59771E-03     59.9119E-03     194.806E+06    -22.2957E+06    -41.4742E+06    -225.957E+06    -41.4808E+06    -225.951E+06    -22.2957E+06    -891.532E+03
            1417     73.0651E-03     4.86150E-03     72.9032E-03     56.8365E-03    -28.3707E-03    -28.4659E-03    -28.2752E-03     56.7411E-03    -28.4659E-03     5.67306E-03     61.5659E-03     185.661E+06    -13.8494E+06    -36.0721E+06    -209.615E+06    -36.1090E+06    -209.578E+06    -13.8494E+06    -2.26068E+06
            1418     73.1429E-03     5.83365E-03     72.9099E-03     56.7725E-03    -28.3364E-03    -28.4375E-03    -28.2040E-03     56.6401E-03    -28.4375E-03     6.69298E-03     63.7158E-03     168.305E+06    -8.40498E+06    -31.0370E+06    -186.869E+06    -31.1091E+06    -186.797E+06    -8.40498E+06    -3.31128E+06
            1419     73.2346E-03     6.80615E-03     72.9176E-03     56.7195E-03    -28.3167E-03    -28.4063E-03    -28.1426E-03     56.5454E-03    -28.4063E-03     7.67023E-03     66.4816E-03     152.970E+06    -3.55197E+06    -26.7900E+06    -166.806E+06    -26.8696E+06    -166.726E+06    -3.55197E+06    -3.30919E+06
            1420     73.3402E-03     7.77864E-03     72.9265E-03     56.6999E-03    -28.3228E-03    -28.3734E-03    -28.0971E-03     56.4742E-03    -28.3734E-03     8.73138E-03     69.9024E-03     137.329E+06    -124.373E+03    -22.7567E+06    -147.362E+06    -22.8373E+06    -147.281E+06    -124.373E+03    -3.10037E+06
            1421     73.4596E-03     8.75101E-03     72.9365E-03     56.6473E-03    -28.2878E-03    -28.3371E-03    -28.0144E-03     56.3696E-03    -28.3328E-03     9.68910E-03     73.9192E-03     120.553E+06     1.26865E+06    -19.1987E+06    -128.207E+06    -19.2726E+06    -128.133E+06     1.26865E+06    -2.77534E+06
            1422     73.5924E-03     9.72362E-03     72.9472E-03     56.6099E-03    -28.2371E-03    -28.3340E-03    -27.9034E-03     56.2093E-03    -28.2671E-03     11.5458E-03     79.3082E-03     98.8732E+06    -2.04236E+06    -16.4035E+06    -107.282E+06    -16.4568E+06    -107.229E+06    -2.04236E+06    -2.17274E+06
            1423     73.7408E-03     10.6963E-03     72.9609E-03     56.4988E-03    -28.1824E-03    -28.3257E-03    -27.7821E-03     55.9552E-03    -28.1824E-03     13.5251E-03     86.1302E-03     70.4000E+06    -7.78778E+06    -14.8216E+06    -81.4269E+06    -14.8620E+06    -81.3865E+06    -7.78778E+06    -1.63145E+06
            1424     73.9025E-03     11.6693E-03     72.9754E-03     56.3821E-03    -28.0754E-03    -28.3462E-03    -27.6492E-03     55.6851E-03    -28.0754E-03     15.2573E-03     93.5577E-03     31.4181E+06    -12.3982E+06    -18.1026E+06    -45.1814E+06    -14.5335E+06    -45.1204E+06    -16.0283E+06    -1.12570E+06
            1425     74.0800E-03     12.6422E-03     72.9933E-03     56.7553E-03    -27.9482E-03    -28.8227E-03    -27.5721E-03     55.5048E-03    -27.9482E-03     20.2062E-03     104.945E-03     34.5641E+06     11.6393E+06    -18.3035E+06    -26.1718E+06    -14.7159E+06     7.10344E+06    -25.2236E+06    -396.776E+03
            1426     74.2765E-03     13.6146E-03     73.0180E-03     57.4721E-03    -27.7970E-03    -29.6859E-03    -27.3746E-03     55.1608E-03    -27.7970E-03     27.7532E-03     124.287E-03     107.794E+06     82.9802E+06    -15.6803E+06    -31.8977E+06    -15.6786E+06     82.9785E+06    -31.8977E+06     282.918E+03
            1427     74.4942E-03     14.5882E-03     73.0518E-03     61.5996E-03    -27.8024E-03    -33.8073E-03    -27.2560E-03     55.0482E-03    -27.8024E-03     46.4878E-03     152.588E-03     155.881E+06     140.558E+06    -1.98169E+06    -25.7947E+06    -16.4913E+06     140.552E+06    -11.2790E+06     807.464E+03
            1428     74.7543E-03     15.5618E-03     73.1166E-03     75.2617E-03    -28.0476E-03    -47.2152E-03    -27.9058E-03     55.9522E-03    -28.0476E-03     87.5639E-03     212.568E-03     165.024E+06     169.869E+06     50.5738E+06    -14.7833E+06    -14.7758E+06     169.862E+06     50.5738E+06     1.07664E+06
            1429     75.0812E-03     16.5355E-03     73.2378E-03     76.3815E-03    -28.3585E-03    -48.0254E-03    -27.7212E-03     56.0773E-03    -28.3585E-03     90.7697E-03     229.256E-03     180.687E+06     193.507E+06     124.613E+06    -8.88682E+06    -8.88312E+06     193.503E+06     124.613E+06     719.778E+03
            1430     73.9514E-03     972.206E-06     73.9450E-03     56.8508E-03    -28.3615E-03    -28.4894E-03    -28.4778E-03     56.8451E-03    -28.3674E-03     1.25994E-03     57.5547E-03     188.825E+06    -46.0062E+06    -49.0171E+06    -236.314E+06    -48.8188E+06    -236.312E+06    -46.2057E+06     57.7084E+03
            1431     73.9725E-03     1.94441E-03     73.9469E-03     56.8848E-03    -28.4215E-03    -28.4634E-03    -28.4046E-03     56.8668E-03    -28.4622E-03     2.41644E-03     57.8673E-03     192.314E+06    -38.7985E+06    -46.1180E+06    -234.648E+06    -46.1191E+06    -234.647E+06    -38.7985E+06     254.301E+03
            1432     74.0078E-03     2.91661E-03     73.9503E-03     56.9155E-03    -28.4185E-03    -28.4961E-03    -28.3810E-03     56.8779E-03    -28.4961E-03     3.53704E-03     58.6701E-03     195.372E+06    -29.2165E+06    -42.2999E+06    -230.781E+06    -42.3007E+06    -230.780E+06    -29.2165E+06     54.7674E+03
            1433     74.0571E-03     3.88891E-03     73.9550E-03     56.9317E-03    -28.4179E-03    -28.5145E-03    -28.3553E-03     56.8691E-03    -28.5145E-03     4.59303E-03     59.9465E-03     195.559E+06    -20.4529E+06    -37.9064E+06    -224.141E+06    -37.9196E+06    -224.128E+06    -20.4529E+06    -1.24319E+06
            1434     74.1201E-03     4.86104E-03     73.9605E-03     56.8794E-03    -28.3754E-03    -28.5046E-03    -28.2793E-03     56.7832E-03    -28.5046E-03     5.69082E-03     61.6012E-03     184.190E+06    -14.5342E+06    -33.6658E+06    -207.535E+06    -33.7171E+06    -207.484E+06    -14.5342E+06    -2.85665E+06
            1435     74.1971E-03     5.83361E-03     73.9674E-03     56.7886E-03    -28.3233E-03    -28.4667E-03    -28.1893E-03     56.6546E-03    -28.4667E-03     6.73395E-03     63.7233E-03     167.117E+06    -9.59254E+06    -29.8510E+06    -185.907E+06    -29.9497E+06    -185.808E+06    -9.59254E+06    -3.87076E+06
            1436     74.2875E-03     6.80592E-03     73.9750E-03     56.7505E-03    -28.3249E-03    -28.4292E-03    -28.1463E-03     56.5718E-03    -28.4292E-03     7.76690E-03     66.4953E-03     152.160E+06    -4.90126E+06    -26.2041E+06    -166.583E+06    -26.3288E+06    -166.459E+06    -4.90126E+06    -4.15254E+06
            1437     74.3917E-03     7.77829E-03     73.9839E-03     56.7064E-03    -28.3115E-03    -28.3932E-03    -28.0802E-03     56.4751E-03    -28.3932E-03     8.84183E-03     69.9061E-03     136.567E+06    -1.18055E+06    -22.6863E+06    -147.217E+06    -22.8129E+06    -147.091E+06    -1.18055E+06    -3.95654E+06
            1438     74.5095E-03     8.75092E-03     73.9938E-03     56.6069E-03    -28.2357E-03    -28.3483E-03    -27.9555E-03     56.3267E-03    -28.3483E-03     9.72656E-03     73.8721E-03     120.295E+06     572.562E+03    -19.5469E+06    -128.513E+06    -19.6657E+06    -128.394E+06     572.562E+03    -3.58366E+06
            1439     74.6406E-03     9.72360E-03     74.0045E-03     56.5629E-03    -28.2083E-03    -28.3135E-03    -27.8511E-03     56.1676E-03    -28.2753E-03     11.4730E-03     79.2446E-03     98.6768E+06    -3.02910E+06    -17.1756E+06    -107.989E+06    -17.2762E+06    -107.888E+06    -3.02910E+06    -2.97702E+06
            1440     74.7869E-03     10.6965E-03     74.0180E-03     56.5336E-03    -28.1906E-03    -28.3534E-03    -27.8204E-03     56.0006E-03    -28.1906E-03     13.3970E-03     86.1511E-03     70.2947E+06    -8.39968E+06    -15.5203E+06    -81.9756E+06    -15.5907E+06    -81.9051E+06    -8.39968E+06    -2.12673E+06
            1441     74.9469E-03     11.6689E-03     74.0330E-03     56.4433E-03    -28.0868E-03    -28.3979E-03    -27.7089E-03     55.7543E-03    -28.0868E-03     15.1783E-03     93.5998E-03     31.7535E+06    -12.4776E+06    -18.5838E+06    -45.6876E+06    -14.8212E+06    -45.6002E+06    -16.3277E+06    -1.36559E+06
            1442     75.1214E-03     12.6420E-03     74.0501E-03     56.7226E-03    -27.9567E-03    -28.7815E-03    -27.5136E-03     55.4548E-03    -27.9567E-03     20.3060E-03     104.918E-03     34.3137E+06     10.7358E+06    -18.7158E+06    -26.9378E+06    -14.9222E+06     5.97824E+06    -25.9738E+06    -751.486E+03
            1443     75.3169E-03     13.6154E-03     74.0760E-03     57.5458E-03    -27.8032E-03    -29.7532E-03    -27.4206E-03     55.2131E-03    -27.8032E-03     27.9301E-03     124.226E-03     107.235E+06     81.7693E+06    -15.9674E+06    -32.7437E+06    -15.9571E+06     81.7590E+06    -32.7437E+06     413.918E+03
            1444     75.5310E-03     14.5881E-03     74.1088E-03     61.7381E-03    -27.8059E-03    -33.9433E-03    -27.4239E-03     55.2187E-03    -27.8059E-03     46.4607E-03     152.602E-03     156.555E+06     139.915E+06    -4.04756E+06    -26.6759E+06    -17.1441E+06     139.901E+06    -13.5658E+06     1.44262E+06
            1445     75.7892E-03     15.5615E-03     74.1744E-03     75.2564E-03    -28.0587E-03    -47.1887E-03    -27.8764E-03     55.9441E-03    -28.0587E-03     87.5041E-03     212.600E-03     165.965E+06     170.120E+06     49.3380E+06    -14.9734E+06    -14.9639E+06     170.111E+06     49.3380E+06     1.21716E+06
            1446     76.1124E-03     16.5356E-03     74.2945E-03     76.3498E-03    -28.3723E-03    -47.9697E-03    -27.6089E-03     55.9890E-03    -28.3723E-03     90.8310E-03     229.294E-03     181.059E+06     194.124E+06     125.151E+06    -8.74834E+06    -8.74660E+06     194.122E+06     125.151E+06     480.240E+03
            1447     75.0086E-03     972.128E-06     75.0023E-03     56.9990E-03    -28.4359E-03    -28.5637E-03    -28.5518E-03     56.9932E-03    -28.4419E-03     1.26570E-03     57.4803E-03     193.379E+06    -41.9399E+06    -46.3012E+06    -237.456E+06    -45.4265E+06    -237.445E+06    -42.8261E+06     1.22398E+06
            1448     75.0298E-03     1.94430E-03     75.0046E-03     57.0428E-03    -28.5078E-03    -28.5356E-03    -28.4901E-03     57.0251E-03    -28.5356E-03     2.40625E-03     57.8994E-03     195.078E+06    -36.3142E+06    -43.6857E+06    -234.955E+06    -43.6954E+06    -234.945E+06    -36.3142E+06     987.619E+03
            1449     75.0644E-03     2.91637E-03     75.0077E-03     57.0229E-03    -28.4677E-03    -28.5547E-03    -28.4295E-03     56.9848E-03    -28.5547E-03     3.55225E-03     58.7087E-03     195.434E+06    -29.3929E+06    -40.1902E+06    -229.984E+06    -40.1916E+06    -229.983E+06    -29.3929E+06    -38.9489E+03
            1450     75.1131E-03     3.88860E-03     75.0124E-03     56.9770E-03    -28.4230E-03    -28.5548E-03    -28.3581E-03     56.9121E-03    -28.5548E-03     4.67946E-03     59.9649E-03     193.653E+06    -21.8129E+06    -36.2177E+06    -222.256E+06    -36.2305E+06    -222.243E+06    -21.8129E+06    -1.28581E+06
            1451     75.1752E-03     4.86101E-03     75.0179E-03     56.9162E-03    -28.3828E-03    -28.5349E-03    -28.2861E-03     56.8195E-03    -28.5349E-03     5.71384E-03     61.6245E-03     181.665E+06    -15.7796E+06    -32.5756E+06    -205.253E+06    -32.6309E+06    -205.198E+06    -15.7796E+06    -2.90571E+06
            1452     75.2511E-03     5.83325E-03     75.0247E-03     56.8010E-03    -28.3139E-03    -28.4911E-03    -28.1796E-03     56.6667E-03    -28.4911E-03     6.73883E-03     63.7283E-03     165.255E+06    -10.7610E+06    -29.2967E+06    -184.491E+06    -29.4070E+06    -184.381E+06    -10.7610E+06    -4.09003E+06
            1453     75.3405E-03     6.80581E-03     75.0325E-03     56.7313E-03    -28.2915E-03    -28.4455E-03    -28.1105E-03     56.5503E-03    -28.4455E-03     7.81387E-03     66.4778E-03     150.629E+06    -6.23422E+06    -26.1109E+06    -165.811E+06    -26.2683E+06    -165.654E+06    -6.23422E+06    -4.65075E+06
            1454     75.4434E-03     7.77832E-03     75.0413E-03     56.6893E-03    -28.2856E-03    -28.4036E-03    -28.0528E-03     56.4564E-03    -28.4036E-03     8.87143E-03     69.8964E-03     135.516E+06    -2.67844E+06    -23.0887E+06    -147.234E+06    -23.2601E+06    -147.063E+06    -2.67844E+06    -4.59030E+06
            1455     75.5596E-03     8.75083E-03     75.0511E-03     56.6208E-03    -28.2406E-03    -28.3583E-03    -27.9638E-03     56.3441E-03    -28.3583E-03     9.67085E-03     73.9064E-03     119.466E+06    -612.005E+03    -20.3182E+06    -128.705E+06    -20.4779E+06    -128.545E+06    -612.005E+03    -4.14126E+06
            1456     75.6889E-03     9.72343E-03     75.0617E-03     56.6240E-03    -28.2258E-03    -28.3573E-03    -27.9031E-03     56.2319E-03    -28.2879E-03     11.4251E-03     79.2974E-03     98.1452E+06    -4.10400E+06    -17.8083E+06    -108.340E+06    -17.9623E+06    -108.186E+06    -4.10400E+06    -3.71740E+06
            1457     75.8335E-03     10.6959E-03     75.0754E-03     56.5569E-03    -28.2037E-03    -28.3630E-03    -27.8341E-03     56.0281E-03    -28.2037E-03     13.3489E-03     86.1682E-03     70.1792E+06    -9.77818E+06    -16.0748E+06    -82.8855E+06    -16.2115E+06    -82.7488E+06    -9.77818E+06    -2.96620E+06
            1458     75.9915E-03     11.6691E-03     75.0902E-03     56.4796E-03    -28.1009E-03    -28.4172E-03    -27.7343E-03     55.7967E-03    -28.1009E-03     15.1134E-03     93.6333E-03     32.0487E+06    -13.0827E+06    -19.0685E+06    -46.4783E+06    -15.1364E+06    -46.3164E+06    -17.1767E+06    -1.93547E+06
            1459     76.1640E-03     12.6417E-03     75.1075E-03     56.7800E-03    -27.9727E-03    -28.8176E-03    -27.5805E-03     55.5429E-03    -27.9727E-03     20.0959E-03     105.050E-03     34.5829E+06     10.1971E+06    -19.4270E+06    -27.7972E+06    -15.4289E+06     5.09720E+06    -26.6954E+06    -984.675E+03
            1460     76.3565E-03     13.6146E-03     75.1329E-03     57.4721E-03    -27.8181E-03    -29.6604E-03    -27.3327E-03     55.1444E-03    -27.8181E-03     27.8212E-03     124.199E-03     105.975E+06     79.7796E+06    -16.5276E+06    -33.5720E+06    -16.5184E+06     79.7704E+06    -33.5720E+06     234.926E+03
            1461     76.5697E-03     14.5878E-03     75.1672E-03     61.6397E-03    -27.8013E-03    -33.8431E-03    -27.3103E-03     55.1070E-03    -27.8013E-03     46.5104E-03     152.507E-03     156.228E+06     139.254E+06    -5.84033E+06    -26.1224E+06    -16.3370E+06     139.244E+06    -15.6164E+06     1.10562E+06
            1462     76.8234E-03     15.5611E-03     75.2309E-03     75.3411E-03    -28.0471E-03    -47.2772E-03    -27.9055E-03     55.9694E-03    -28.0471E-03     87.6743E-03     212.564E-03     166.542E+06     170.566E+06     47.1875E+06    -14.0771E+06    -14.0671E+06     170.556E+06     47.1875E+06     1.28028E+06
            1463     77.1450E-03     16.5351E-03     75.3521E-03     76.4382E-03    -28.3729E-03    -48.0637E-03    -27.5771E-03     55.9517E-03    -28.3729E-03     91.1661E-03     229.411E-03     180.915E+06     194.412E+06     125.076E+06    -8.36219E+06    -8.35676E+06     194.407E+06     125.076E+06      823.28E+03
            1464     76.0662E-03     972.113E-06     76.0600E-03     57.1158E-03    -28.4488E-03    -28.6679E-03    -28.6614E-03     57.1094E-03    -28.4489E-03     1.36245E-03     57.4299E-03     196.412E+06    -42.0556E+06    -46.2274E+06    -240.513E+06    -44.8276E+06    -240.477E+06    -43.4909E+06     2.30790E+06
            1465     76.0870E-03     1.94407E-03     76.0621E-03     57.1008E-03    -28.5176E-03    -28.5845E-03    -28.5155E-03     57.0826E-03    -28.5683E-03     2.44146E-03     57.8891E-03     193.342E+06    -38.2001E+06    -43.3186E+06    -234.044E+06    -42.7799E+06    -234.033E+06    -38.7492E+06     900.288E+03
            1466     76.1212E-03     2.91632E-03     76.0653E-03     57.0400E-03    -28.4659E-03    -28.5730E-03    -28.4264E-03     57.0005E-03    -28.5730E-03     3.61604E-03     58.7244E-03     192.690E+06    -32.2729E+06    -39.9851E+06    -228.691E+06    -39.9876E+06    -228.689E+06    -32.2729E+06    -470.742E+03
            1467     76.1691E-03     3.88857E-03     76.0697E-03     57.0135E-03    -28.4462E-03    -28.5677E-03    -28.3783E-03     56.9457E-03    -28.5677E-03     4.78618E-03     60.0092E-03     190.488E+06    -24.1905E+06    -36.7521E+06    -220.634E+06    -36.7678E+06    -220.618E+06    -24.1905E+06    -1.53625E+06
            1468     76.2306E-03     4.86073E-03     76.0755E-03     56.9499E-03    -28.4027E-03    -28.5493E-03    -28.3045E-03     56.8517E-03    -28.5493E-03     5.76680E-03     61.6528E-03     178.183E+06    -17.5470E+06    -33.1681E+06    -203.021E+06    -33.2299E+06    -202.959E+06    -17.5470E+06    -3.04451E+06
            1469     76.3053E-03     5.83319E-03     76.0820E-03     56.8357E-03    -28.3327E-03    -28.5069E-03    -28.1974E-03     56.7004E-03    -28.5069E-03     6.76161E-03     63.7651E-03     162.389E+06    -12.1637E+06    -29.6968E+06    -182.598E+06    -29.8254E+06    -182.469E+06    -12.1637E+06    -4.36289E+06
            1470     76.3936E-03     6.80557E-03     76.0898E-03     56.7266E-03    -28.2727E-03    -28.4595E-03    -28.0922E-03     56.5461E-03    -28.4595E-03     7.80687E-03     66.5032E-03     148.764E+06    -7.50328E+06    -26.2869E+06    -164.763E+06    -26.4788E+06    -164.571E+06    -7.50328E+06    -5.09664E+06
            1471     76.4951E-03     7.77812E-03     76.0987E-03     56.6725E-03    -28.2598E-03    -28.4111E-03    -28.0264E-03     56.4391E-03    -28.4111E-03     8.87464E-03     69.8832E-03     134.492E+06    -4.24719E+06    -23.1459E+06    -147.182E+06    -23.3729E+06    -146.955E+06    -4.24719E+06    -5.28945E+06
            1472     76.6100E-03     8.75066E-03     76.1086E-03     56.6515E-03    -28.2661E-03    -28.3632E-03    -27.9878E-03     56.3733E-03    -28.3632E-03     9.70140E-03     73.9452E-03     118.705E+06    -2.11309E+06    -20.1174E+06    -128.788E+06    -20.3451E+06    -128.560E+06    -2.11309E+06    -4.94572E+06
            1473     76.7375E-03     9.72323E-03     76.1190E-03     56.6435E-03    -28.2545E-03    -28.3472E-03    -27.9089E-03     56.2453E-03    -28.2947E-03     11.5030E-03     79.3344E-03     97.7050E+06    -5.26749E+06    -17.6376E+06    -108.529E+06    -17.8515E+06    -108.315E+06    -5.26749E+06    -4.38388E+06
            1474     76.8805E-03     10.6960E-03     76.1328E-03     56.6017E-03    -28.2099E-03    -28.4006E-03    -27.8612E-03     56.0623E-03    -28.2099E-03     13.4902E-03     86.1965E-03     70.0211E+06    -11.3980E+06    -16.2756E+06    -83.6995E+06    -16.4828E+06    -83.4923E+06    -11.3980E+06    -3.70035E+06
            1475     77.0361E-03     11.6685E-03     76.1473E-03     56.5601E-03    -28.1106E-03    -28.4915E-03    -27.7965E-03     55.8650E-03    -28.1106E-03     15.2561E-03     93.7548E-03     32.2363E+06    -14.5240E+06    -19.8444E+06    -47.6958E+06    -15.8048E+06    -47.3920E+06    -18.8673E+06    -2.68133E+06
            1476     77.2071E-03     12.6414E-03     76.1652E-03     56.8726E-03    -27.9866E-03    -28.8972E-03    -27.6356E-03     55.6110E-03    -27.9866E-03     20.3145E-03     105.201E-03     34.5133E+06     9.11008E+06    -19.8308E+06    -29.0702E+06    -15.6845E+06     3.81227E+06    -27.9186E+06    -1.15218E+06
            1477     77.3970E-03     13.6143E-03     76.1903E-03     57.3690E-03    -27.8272E-03    -29.5464E-03    -27.1808E-03     55.0034E-03    -27.8272E-03     27.9989E-03     124.262E-03     105.180E+06     78.2877E+06    -16.3810E+06    -34.6713E+06    -16.3794E+06     78.2861E+06    -34.6713E+06    -78.5852E+03
            1478     77.6075E-03     14.5882E-03     76.2241E-03     61.5587E-03    -27.7996E-03    -33.7669E-03    -27.1123E-03     54.9041E-03    -27.7996E-03     46.8917E-03     152.497E-03     155.989E+06     138.083E+06    -6.69731E+06    -27.1029E+06    -16.8978E+06     138.080E+06    -16.8998E+06     487.450E+03
            1479     77.8599E-03     15.5620E-03     76.2888E-03     75.2188E-03    -28.0344E-03    -47.1741E-03    -27.9023E-03     55.9471E-03    -28.0344E-03     87.4993E-03     212.460E-03     167.238E+06     170.563E+06     45.6911E+06    -14.7358E+06    -14.7289E+06     170.556E+06     45.6911E+06     1.04701E+06
            1480     78.1778E-03     16.5356E-03     76.4091E-03     76.3002E-03    -28.3612E-03    -47.9366E-03    -27.5602E-03     55.9239E-03    -28.3612E-03     90.9284E-03     229.423E-03     181.650E+06     195.138E+06     124.457E+06    -8.53711E+06    -8.53202E+06     195.133E+06     124.457E+06     805.301E+03
            1481     77.1240E-03     972.055E-06     77.1179E-03     57.1113E-03    -28.4619E-03    -28.6502E-03    -28.6166E-03     57.1044E-03    -28.4885E-03     1.44425E-03     57.4260E-03     195.163E+06    -45.9033E+06    -48.5534E+06    -242.376E+06    -46.7562E+06    -242.349E+06    -47.7280E+06     956.396E+03
            1482     77.1443E-03     1.94414E-03     77.1198E-03     57.0566E-03    -28.4822E-03    -28.5748E-03    -28.4944E-03     57.0375E-03    -28.5434E-03     2.50398E-03     57.8390E-03     188.404E+06    -43.1755E+06    -45.9897E+06    -232.968E+06    -45.0679E+06    -232.965E+06    -44.1004E+06    -78.4959E+03
            1483     77.1779E-03     2.91633E-03     77.1228E-03     57.0714E-03    -28.4925E-03    -28.5776E-03    -28.4678E-03     57.0314E-03    -28.5623E-03     3.64778E-03     58.7566E-03     187.935E+06    -35.8341E+06    -42.7696E+06    -227.120E+06    -42.7814E+06    -227.108E+06    -35.8341E+06    -1.23113E+06
            1484     77.2254E-03     3.88849E-03     77.1275E-03     57.0278E-03    -28.4578E-03    -28.5698E-03    -28.3906E-03     56.9606E-03    -28.5698E-03     4.76471E-03     60.0282E-03     186.339E+06    -26.9003E+06    -38.9724E+06    -218.972E+06    -39.0105E+06    -218.934E+06    -26.9003E+06    -2.43597E+06
            1485     77.2860E-03     4.86082E-03     77.1330E-03     56.9338E-03    -28.3871E-03    -28.5491E-03    -28.2872E-03     56.8339E-03    -28.5491E-03     5.80986E-03     61.6479E-03     173.919E+06    -19.8034E+06    -34.8861E+06    -200.765E+06    -34.9793E+06    -200.672E+06    -19.8034E+06    -3.76624E+06
            1486     77.3598E-03     5.83304E-03     77.1396E-03     56.8444E-03    -28.3412E-03    -28.5070E-03    -28.2029E-03     56.7061E-03    -28.5070E-03     6.84080E-03     63.7993E-03     158.918E+06    -13.9319E+06    -30.7599E+06    -180.589E+06    -30.9490E+06    -180.400E+06    -13.9319E+06    -5.19517E+06
            1487     77.4468E-03     6.80548E-03     77.1472E-03     56.7583E-03    -28.3023E-03    -28.4604E-03    -28.1185E-03     56.5746E-03    -28.4604E-03     7.87864E-03     66.5417E-03     146.270E+06    -9.42999E+06    -26.7339E+06     -163.58E+06    -27.0091E+06    -163.305E+06    -9.42999E+06    -6.08011E+06
            1488     77.5470E-03     7.77802E-03     77.1560E-03     56.6780E-03    -28.2613E-03    -28.4130E-03    -28.0229E-03     56.4396E-03    -28.4130E-03     8.96953E-03     69.8990E-03     132.925E+06    -5.96381E+06    -23.1685E+06    -146.650E+06    -23.4882E+06    -146.330E+06    -5.96381E+06    -6.22939E+06
            1489     77.6606E-03     8.75061E-03     77.1660E-03     56.6264E-03    -28.2385E-03    -28.3626E-03    -27.9524E-03     56.3404E-03    -28.3626E-03     9.83143E-03     73.9173E-03     117.870E+06    -3.69050E+06    -19.9450E+06    -128.843E+06    -20.2830E+06    -128.505E+06    -3.69050E+06    -6.02149E+06
            1490     77.7866E-03     9.72319E-03     77.1765E-03     56.6300E-03    -28.2426E-03    -28.3452E-03    -27.8951E-03     56.2298E-03    -28.2925E-03     11.5464E-03     79.3486E-03     97.5467E+06    -6.57533E+06    -17.3798E+06    -109.034E+06    -17.7142E+06    -108.700E+06    -6.57533E+06    -5.47854E+06
            1491     77.9275E-03     10.6959E-03     77.1900E-03     56.6011E-03    -28.2086E-03    -28.4015E-03    -27.8493E-03     56.0489E-03    -28.2086E-03     13.6387E-03     86.2345E-03     70.7626E+06    -12.2410E+06    -15.5376E+06    -84.5587E+06    -15.8377E+06    -84.2586E+06    -12.2410E+06    -4.50507E+06
            1492     78.0820E-03     11.6687E-03     77.2052E-03     56.5818E-03    -28.1085E-03    -28.5178E-03    -27.7976E-03     55.8616E-03    -28.1085E-03     15.5432E-03     93.8092E-03     33.8700E+06    -14.4701E+06    -19.8288E+06    -48.9440E+06    -14.9528E+06    -48.5356E+06    -19.7544E+06    -3.24756E+06
            1493     78.2501E-03     12.6414E-03     77.2222E-03     56.8322E-03    -27.9822E-03    -28.8673E-03    -27.5764E-03     55.5414E-03    -27.9822E-03     20.5332E-03     105.175E-03      34.955E+06     8.48802E+06    -20.1015E+06    -30.4520E+06    -15.0728E+06     2.08511E+06    -29.0778E+06    -1.85061E+06
            1494     78.4386E-03     13.6147E-03     77.2480E-03     57.3374E-03    -27.8204E-03    -29.5242E-03    -27.2022E-03     55.0154E-03    -27.8204E-03     27.8052E-03     124.299E-03     104.601E+06     77.1440E+06    -15.7800E+06    -35.7827E+06    -15.7618E+06     77.1259E+06    -35.7827E+06    -415.116E+03
            1495     78.6448E-03     14.5881E-03     77.2800E-03     61.7376E-03    -27.8034E-03    -33.9452E-03    -27.2597E-03     55.0521E-03    -27.8034E-03     46.9245E-03     152.707E-03     155.597E+06     137.693E+06    -5.65158E+06    -27.7796E+06    -16.7448E+06     137.685E+06    -16.6781E+06     853.913E+03
            1496     78.8973E-03     15.5611E-03     77.3475E-03     74.9367E-03    -28.0425E-03    -46.8954E-03    -27.8258E-03     55.8671E-03    -28.0425E-03     86.9764E-03     212.428E-03     167.029E+06     170.339E+06     45.7427E+06    -15.1409E+06    -15.1328E+06     170.331E+06     45.7427E+06     790.525E+03
            1497     79.2098E-03     16.5353E-03     77.4647E-03     76.0830E-03    -28.3615E-03    -47.7124E-03    -27.4618E-03     55.8325E-03    -28.3615E-03     90.6109E-03     229.321E-03     182.038E+06     195.346E+06     123.731E+06    -8.83083E+06    -8.82978E+06     195.345E+06     123.731E+06     175.020E+03
            1498     78.1813E-03     972.009E-06     78.1752E-03     57.0502E-03    -28.4450E-03    -28.6075E-03    -28.5621E-03     57.0433E-03    -28.4834E-03     1.33736E-03     57.3824E-03     193.993E+06    -46.7688E+06    -48.6836E+06    -241.710E+06    -47.4237E+06    -241.695E+06    -48.0443E+06    -1.46468E+06
            1499     78.2017E-03     1.94435E-03     78.1775E-03     57.0274E-03    -28.4796E-03    -28.5474E-03    -28.4889E-03     57.0073E-03    -28.5180E-03     2.57473E-03     57.8168E-03     186.470E+06    -44.6290E+06    -47.1701E+06    -232.354E+06    -46.8006E+06    -232.348E+06    -45.0048E+06    -920.148E+03
            1500     78.2350E-03     2.91628E-03     78.1806E-03     57.1039E-03    -28.5282E-03    -28.5754E-03    -28.5172E-03     57.0636E-03    -28.5461E-03     3.66727E-03     58.8023E-03     184.158E+06    -37.4693E+06    -44.5191E+06    -225.026E+06    -44.5490E+06    -224.996E+06    -37.4693E+06    -2.03852E+06
            1501     78.2816E-03     3.88839E-03     78.1850E-03     57.0217E-03    -28.4572E-03    -28.5662E-03    -28.3907E-03     56.9552E-03    -28.5662E-03     4.74213E-03     60.0284E-03     182.490E+06    -28.4566E+06    -40.6891E+06    -216.748E+06    -40.7848E+06    -216.652E+06    -28.4566E+06    -3.89019E+06
            1502     78.3413E-03     4.86070E-03     78.1904E-03     56.8915E-03    -28.3526E-03    -28.5410E-03    -28.2514E-03     56.7903E-03    -28.5410E-03     5.83758E-03     61.6119E-03     170.209E+06    -21.6427E+06    -35.9078E+06    -198.531E+06    -36.0977E+06    -198.341E+06    -21.6427E+06    -5.37023E+06
            1503     78.4143E-03     5.83318E-03     78.1971E-03     56.8209E-03    -28.3291E-03    -28.4958E-03    -28.1892E-03     56.6810E-03    -28.4958E-03     6.88331E-03     63.7823E-03     155.769E+06    -15.5544E+06    -31.2562E+06    -178.572E+06    -31.5612E+06    -178.267E+06    -15.5544E+06    -6.58569E+06
            1504     78.5001E-03     6.80558E-03     78.2046E-03     56.7739E-03    -28.3260E-03    -28.4530E-03    -28.1423E-03     56.5903E-03    -28.4530E-03     7.87728E-03     66.5414E-03     143.813E+06    -10.7018E+06    -27.1683E+06    -162.039E+06    -27.5866E+06    -161.620E+06    -10.7018E+06    -7.42862E+06
            1505     78.5993E-03     7.77797E-03     78.2135E-03     56.6951E-03    -28.2811E-03    -28.4098E-03    -28.0426E-03     56.4566E-03    -28.4098E-03     8.97413E-03     69.9297E-03     131.388E+06    -7.26036E+06    -23.3204E+06    -145.939E+06    -23.8217E+06    -145.437E+06    -7.26036E+06    -7.75889E+06
            1506     78.7110E-03     8.75055E-03     78.2231E-03     56.6023E-03    -28.2173E-03    -28.3591E-03    -27.9300E-03     56.3150E-03    -28.3591E-03     9.85028E-03     73.8960E-03     117.092E+06    -5.06705E+06    -19.6701E+06    -128.772E+06    -20.2226E+06    -128.220E+06    -5.06705E+06    -7.66479E+06
            1507     78.8360E-03     9.72330E-03     78.2341E-03     56.6201E-03    -28.2177E-03    -28.3633E-03    -27.8916E-03     56.2189E-03    -28.2883E-03     11.5648E-03     79.3244E-03     97.6953E+06    -7.81320E+06    -16.6340E+06    -109.568E+06    -17.1862E+06    -109.016E+06    -7.81320E+06    -7.08554E+06
            1508     78.9750E-03     10.6958E-03     78.2474E-03     56.5609E-03    -28.2038E-03    -28.3692E-03    -27.8212E-03     56.0129E-03    -28.2038E-03     13.5827E-03     86.2452E-03     71.8791E+06    -12.2583E+06    -15.5023E+06    -85.6888E+06    -14.9895E+06    -85.1874E+06    -13.2724E+06    -5.89117E+06
            1509     79.1274E-03     11.6688E-03     78.2622E-03     56.4832E-03    -28.0979E-03    -28.4265E-03    -27.7008E-03     55.7574E-03    -28.0979E-03     15.5735E-03     93.7347E-03     36.6446E+06    -12.9609E+06    -20.9431E+06    -50.8747E+06    -13.6281E+06    -50.2467E+06    -20.9039E+06    -4.37607E+06
            1510     79.2942E-03     12.6416E-03     78.2800E-03     56.7777E-03    -27.9691E-03    -28.8234E-03    -27.5532E-03     55.5074E-03    -27.9691E-03     20.4075E-03     105.114E-03     36.2386E+06     8.97240E+06    -19.9478E+06    -31.6246E+06    -13.3656E+06     519.368E+03    -29.7537E+06    -2.80317E+06
            1511     79.4794E-03     13.6147E-03     78.3046E-03     57.5220E-03    -27.8140E-03    -29.7157E-03    -27.3934E-03     55.1997E-03    -27.8140E-03     27.8254E-03     124.412E-03     102.717E+06     75.2704E+06    -14.2267E+06    -36.4630E+06    -14.1787E+06     75.2224E+06    -36.4630E+06    -659.831E+03
            1512     79.6851E-03     14.5876E-03     78.3385E-03     61.8556E-03    -27.8103E-03    -34.0578E-03    -27.3234E-03     55.1212E-03    -27.8103E-03     47.1480E-03     152.872E-03     153.203E+06     136.422E+06    -3.79772E+06    -27.0616E+06    -14.6164E+06     136.407E+06    -16.2281E+06     1.38211E+06
            1513     79.9335E-03     15.5613E-03     78.4041E-03     74.9638E-03    -28.0590E-03    -46.9157E-03    -27.7464E-03     55.7944E-03    -28.0590E-03     87.1988E-03     212.527E-03     165.892E+06     171.068E+06     47.3240E+06    -13.1642E+06    -13.1491E+06     171.052E+06     47.3240E+06     1.23151E+06
            1514     80.2442E-03     16.5354E-03     78.5220E-03     76.2429E-03    -28.3704E-03    -47.8617E-03    -27.5233E-03     55.9045E-03    -28.3704E-03     90.8905E-03     229.375E-03     182.007E+06     195.958E+06     124.343E+06    -8.13669E+06    -8.13461E+06     195.956E+06     124.343E+06     270.277E+03
            1515     79.2387E-03     972.179E-06     79.2328E-03     56.9979E-03    -28.3692E-03    -28.6292E-03    -28.6107E-03     56.9911E-03    -28.3810E-03     1.31392E-03     57.3512E-03     188.961E+06    -50.0242E+06    -52.0573E+06    -239.986E+06    -52.0746E+06    -239.969E+06    -50.0242E+06    -1.69159E+06
            1516     79.2588E-03     1.94417E-03     79.2350E-03     57.0473E-03    -28.4661E-03    -28.5808E-03    -28.5085E-03     57.0271E-03    -28.5182E-03     2.57845E-03     57.8755E-03     184.009E+06    -45.3549E+06    -49.7470E+06    -231.514E+06    -49.7681E+06    -231.493E+06    -45.3549E+06    -1.79021E+06
            1517     79.2920E-03     2.91637E-03     79.2383E-03     57.0104E-03    -28.4638E-03    -28.5483E-03    -28.4371E-03     56.9696E-03    -28.5342E-03     3.68675E-03     58.7148E-03     180.071E+06    -38.1820E+06    -45.8032E+06    -221.930E+06    -45.8823E+06    -221.851E+06    -38.1820E+06    -3.31079E+06
            1518     79.3379E-03     3.88851E-03     79.2425E-03     56.9929E-03    -28.4545E-03    -28.5407E-03    -28.3872E-03     56.9256E-03    -28.5407E-03     4.76811E-03     59.9984E-03     178.292E+06    -29.7434E+06    -41.2927E+06    -213.522E+06    -41.4840E+06    -213.331E+06    -29.7434E+06    -5.56304E+06
            1519     79.3968E-03     4.86079E-03     79.2479E-03     56.9108E-03    -28.3883E-03    -28.5243E-03    -28.2868E-03     56.8093E-03    -28.5243E-03     5.85182E-03     61.6311E-03     166.481E+06    -23.2450E+06    -36.6797E+06    -196.034E+06    -37.0192E+06    -195.694E+06    -23.2450E+06    -7.19681E+06
            1520     79.4689E-03     5.83313E-03     79.2545E-03     56.8135E-03    -28.3324E-03    -28.4854E-03    -28.1928E-03     56.6739E-03    -28.4854E-03     6.87466E-03     63.7634E-03     152.219E+06    -17.2843E+06    -32.2015E+06    -176.404E+06    -32.7003E+06    -175.905E+06    -17.2843E+06    -8.35745E+06
            1521     79.5538E-03     6.80547E-03     79.2622E-03     56.7396E-03    -28.3011E-03    -28.4445E-03    -28.1194E-03     56.5580E-03    -28.4445E-03     7.83466E-03     66.5154E-03     141.021E+06    -12.1720E+06    -27.8650E+06    -160.382E+06    -28.5247E+06    -159.723E+06    -12.1720E+06    -9.21913E+06
            1522     79.6514E-03     7.77800E-03     79.2707E-03     56.6879E-03    -28.2835E-03    -28.4003E-03    -28.0437E-03     56.4480E-03    -28.4003E-03     8.99318E-03     69.9315E-03     129.394E+06     -8.8525E+06    -23.4591E+06    -144.927E+06    -24.2835E+06    -144.103E+06     -8.8525E+06    -9.86200E+06
            1523     79.7621E-03     8.75054E-03     79.2807E-03     56.6218E-03    -28.2458E-03    -28.3500E-03    -27.9569E-03     56.3329E-03    -28.3500E-03     9.88202E-03     73.9308E-03     115.858E+06    -6.90773E+06    -19.3158E+06    -128.464E+06    -20.2400E+06    -127.540E+06    -6.90773E+06    -9.91247E+06
            1524     79.8850E-03     9.72310E-03     79.2911E-03     56.5976E-03    -28.2234E-03    -28.3346E-03    -27.8699E-03     56.1909E-03    -28.2813E-03     11.6268E-03     79.3235E-03      97.799E+06    -9.50968E+06    -15.9313E+06    -110.300E+06    -16.8466E+06    -109.384E+06    -9.50968E+06    -9.17523E+06
            1525     80.0229E-03     10.6959E-03     79.3048E-03     56.5763E-03    -28.1971E-03    -28.3923E-03    -27.8452E-03     56.0292E-03    -28.1971E-03     13.5838E-03     86.2999E-03     72.9080E+06    -12.5466E+06    -15.9041E+06    -87.0468E+06    -14.4096E+06    -86.1632E+06    -14.9246E+06    -7.90557E+06
            1526     80.1730E-03     11.6686E-03     79.3194E-03     56.4368E-03    -28.0915E-03    -28.3868E-03    -27.6733E-03     55.7233E-03    -28.0915E-03     15.4262E-03     93.7623E-03     39.0427E+06    -11.8505E+06    -22.5713E+06    -53.0043E+06    -12.9547E+06    -51.9000E+06    -22.5713E+06    -6.18646E+06
            1527     80.3381E-03     12.6419E-03     79.3372E-03     56.6783E-03    -27.9592E-03    -28.7293E-03    -27.4587E-03     55.4077E-03    -27.9592E-03     20.3776E-03     105.040E-03     37.1583E+06     8.21284E+06    -20.2769E+06    -33.7067E+06    -12.5119E+06    -2.02627E+06    -31.2326E+06    -3.87126E+06
            1528     80.5214E-03     13.6147E-03     79.3621E-03     57.6261E-03    -27.8044E-03    -29.8257E-03    -27.4386E-03     55.2390E-03    -27.8044E-03     28.2092E-03     124.466E-03     100.557E+06     72.6008E+06    -13.2222E+06    -37.4485E+06    -13.1368E+06     72.5154E+06    -37.4485E+06    -1.16188E+06
            1529     80.7251E-03     14.5879E-03     79.3960E-03     61.6939E-03    -27.7990E-03    -33.9052E-03    -27.2705E-03     55.0592E-03    -27.7990E-03     46.8953E-03     152.905E-03     151.712E+06     134.515E+06    -4.62431E+06    -27.1288E+06    -13.8462E+06     134.503E+06    -17.8948E+06     1.08391E+06
            1530     80.9700E-03     15.5618E-03     79.4605E-03     74.9576E-03    -28.0463E-03    -46.9227E-03    -27.7028E-03     55.7378E-03    -28.0463E-03     87.1780E-03     212.496E-03     165.920E+06     171.475E+06     46.1513E+06    -12.1598E+06    -12.1369E+06     171.452E+06     46.1513E+06     1.95677E+06
            1531     81.2799E-03     16.5355E-03     79.5802E-03     76.4111E-03    -28.3657E-03    -48.0455E-03    -27.6724E-03     56.0380E-03    -28.3657E-03     90.9917E-03     229.255E-03       182.5E+06     197.360E+06     124.701E+06    -7.32658E+06    -7.31213E+06     197.345E+06     124.701E+06     1.46279E+06
            1532     80.2965E-03     972.265E-06     80.2907E-03     56.9852E-03    -28.3524E-03    -28.6316E-03    -28.5994E-03     56.9784E-03    -28.3777E-03     1.45716E-03     57.3876E-03     180.244E+06    -55.8118E+06    -58.4051E+06    -237.328E+06    -58.4209E+06    -237.312E+06    -55.8118E+06    -1.27622E+06
            1533     80.3160E-03     1.94408E-03     80.2925E-03     56.9868E-03    -28.4271E-03    -28.5610E-03    -28.4558E-03     56.9669E-03    -28.5124E-03     2.53206E-03     57.8186E-03     177.216E+06    -48.9783E+06    -54.2869E+06    -228.788E+06    -54.3713E+06    -228.704E+06    -48.9783E+06    -3.38308E+06
            1534     80.3486E-03     2.91636E-03     80.2957E-03     56.9030E-03    -28.3967E-03    -28.5096E-03    -28.3549E-03     56.8612E-03    -28.5096E-03     3.72914E-03     58.6057E-03     172.899E+06    -41.6361E+06    -49.3717E+06    -218.264E+06    -49.5705E+06    -218.066E+06    -41.6361E+06    -5.53742E+06
            1535     80.3942E-03     3.88866E-03     80.3001E-03     56.9247E-03    -28.4195E-03    -28.5073E-03    -28.3524E-03     56.8576E-03    -28.5073E-03     4.76274E-03     59.9202E-03     171.633E+06    -32.6809E+06    -44.1815E+06    -209.766E+06    -44.5444E+06    -209.403E+06    -32.6809E+06    -7.53384E+06
            1536     80.4524E-03     4.86081E-03     80.3054E-03     56.9227E-03    -28.4235E-03    -28.5004E-03    -28.3216E-03     56.8208E-03    -28.5004E-03     5.85732E-03     61.6362E-03     161.226E+06    -25.3819E+06    -38.8569E+06    -192.919E+06    -39.4430E+06    -192.333E+06    -25.3819E+06    -9.28330E+06
            1537     80.5236E-03     5.83305E-03     80.3121E-03     56.8108E-03    -28.3447E-03    -28.4699E-03    -28.2034E-03     56.6695E-03    -28.4699E-03     6.91898E-03     63.7495E-03     147.901E+06    -19.4118E+06    -33.6694E+06    -173.922E+06    -34.4994E+06    -173.092E+06    -19.4118E+06    -10.6113E+06
            1538     80.6074E-03     6.80556E-03     80.3195E-03     56.7134E-03    -28.2889E-03    -28.4306E-03    -28.1058E-03     56.5303E-03    -28.4306E-03     7.86318E-03     66.4918E-03     137.596E+06    -14.3108E+06    -28.5652E+06    -158.478E+06    -29.6594E+06    -157.384E+06    -14.3108E+06    -11.7209E+06
            1539     80.7038E-03     7.77806E-03     80.3282E-03     56.6715E-03    -28.2815E-03    -28.3870E-03    -28.0425E-03     56.4325E-03    -28.3870E-03     8.97948E-03     69.9268E-03     126.729E+06    -10.7270E+06    -23.6250E+06    -143.410E+06    -24.9712E+06    -142.064E+06    -10.7270E+06    -12.5076E+06
            1540     80.8133E-03     8.75058E-03     80.3381E-03     56.6037E-03    -28.2399E-03    -28.3386E-03    -27.9515E-03     56.3153E-03    -28.3386E-03     9.87085E-03     73.9257E-03     114.421E+06    -8.82152E+06    -19.3087E+06    -128.120E+06    -20.7911E+06    -126.637E+06    -8.82152E+06    -12.5212E+06
            1541     80.9346E-03     9.72325E-03     80.3484E-03     56.5994E-03    -28.2196E-03    -28.3388E-03    -27.8797E-03     56.1921E-03    -28.2714E-03     11.6403E-03     79.3492E-03     97.5090E+06    -11.3499E+06    -16.1361E+06    -111.113E+06    -17.3939E+06    -109.624E+06    -11.5806E+06    -11.7227E+06
            1542     81.0707E-03     10.6959E-03     80.3620E-03     56.5724E-03    -28.1889E-03    -28.3946E-03    -27.8397E-03     56.0175E-03    -28.1889E-03     13.6751E-03     86.2988E-03     73.7245E+06    -12.9953E+06    -16.9590E+06    -88.5299E+06    -14.6282E+06    -87.0384E+06    -16.8175E+06    -10.3826E+06
            1543     81.2196E-03     11.6686E-03     80.3770E-03     56.4499E-03    -28.0851E-03    -28.4078E-03    -27.7001E-03     55.7422E-03    -28.0851E-03     15.3889E-03     93.7867E-03     41.4472E+06    -11.2153E+06    -24.3689E+06    -55.5788E+06    -12.9737E+06    -53.8204E+06    -24.3689E+06    -8.22933E+06
            1544     81.3815E-03     12.6415E-03     80.3937E-03     56.7056E-03    -27.9542E-03    -28.7634E-03    -27.4889E-03     55.4310E-03    -27.9542E-03     20.3700E-03     105.121E-03     38.3450E+06     6.65400E+06    -21.5012E+06    -36.8912E+06    -12.7660E+06    -5.37982E+06    -33.5926E+06    -5.20040E+06
            1545     81.5641E-03     13.6152E-03     80.4197E-03     57.4765E-03    -27.7970E-03    -29.6846E-03    -27.2905E-03     55.0824E-03    -27.7970E-03     28.2226E-03     124.281E-03     99.0798E+06     69.3201E+06    -13.6877E+06    -39.5677E+06    -13.5120E+06     69.1443E+06    -39.5677E+06    -1.78116E+06
            1546     81.7656E-03     14.5879E-03     80.4537E-03     61.5391E-03    -27.7826E-03    -33.7632E-03    -27.2111E-03     54.9869E-03    -27.7826E-03     46.5929E-03     152.662E-03     150.931E+06     132.409E+06    -6.19781E+06    -28.2090E+06    -14.4087E+06     132.398E+06    -19.9865E+06     943.131E+03
            1547     82.0070E-03     15.5615E-03     80.5170E-03     75.1051E-03    -28.0177E-03    -47.0808E-03    -27.8372E-03     55.8616E-03    -28.0177E-03     87.2829E-03     212.543E-03     166.478E+06     170.690E+06     43.3013E+06    -13.1246E+06    -13.0903E+06     170.656E+06     43.3013E+06     2.48013E+06
            1548     82.3159E-03     16.5358E-03     80.6379E-03     76.4342E-03    -28.3485E-03    -48.0771E-03    -27.7079E-03     56.0651E-03    -28.3485E-03     90.9584E-03     229.133E-03     183.917E+06     198.542E+06     123.642E+06    -7.91829E+06    -7.88948E+06     198.513E+06     123.642E+06     2.31308E+06
            1549     81.3539E-03     971.819E-06     81.3481E-03     56.9970E-03    -28.3995E-03    -28.5982E-03    -28.5143E-03     56.9900E-03    -28.4765E-03     1.43272E-03     57.3971E-03     175.006E+06    -57.4183E+06    -59.2518E+06    -233.329E+06    -59.0046E+06    -233.294E+06    -57.7006E+06    -1.75381E+06
            1550     81.3734E-03     1.94433E-03     81.3502E-03     56.8806E-03    -28.3929E-03    -28.4903E-03    -28.3731E-03     56.8608E-03    -28.4903E-03     2.53277E-03     57.6771E-03     169.463E+06    -52.1226E+06    -56.0483E+06    -223.510E+06    -56.2343E+06    -223.324E+06    -52.1226E+06    -5.17105E+06
            1551     81.4054E-03     2.91642E-03     81.3532E-03     56.8967E-03    -28.4156E-03    -28.4844E-03    -28.3747E-03     56.8558E-03    -28.4844E-03     3.68931E-03     58.6001E-03     166.327E+06    -43.9586E+06    -51.6501E+06    -213.981E+06    -52.0435E+06    -213.588E+06    -43.9586E+06    -7.83014E+06
            1552     81.4505E-03     3.88861E-03     81.3576E-03     56.8743E-03    -28.3842E-03    -28.4915E-03    -28.3173E-03     56.8073E-03    -28.4915E-03     4.75297E-03     59.8767E-03     165.567E+06    -34.4271E+06    -46.5263E+06    -205.704E+06    -47.1642E+06    -205.066E+06    -34.4271E+06    -9.87404E+06
            1553     81.5080E-03     4.86092E-03     81.3629E-03     56.8477E-03    -28.3696E-03    -28.4783E-03    -28.2674E-03     56.7455E-03    -28.4783E-03     5.86359E-03     61.5766E-03     155.569E+06    -27.3661E+06    -40.7945E+06    -189.214E+06    -41.7938E+06    -188.215E+06    -27.3661E+06    -11.9234E+06
            1554     81.5785E-03     5.83323E-03     81.3696E-03     56.7788E-03    -28.3376E-03    -28.4448E-03    -28.1972E-03     56.6384E-03    -28.4448E-03     6.89570E-03     63.7273E-03     143.181E+06    -21.6409E+06    -34.9482E+06    -171.010E+06    -36.3458E+06    -169.612E+06    -21.6409E+06    -13.5366E+06
            1555     81.6609E-03     6.80555E-03     81.3769E-03     56.7334E-03    -28.3278E-03    -28.4104E-03    -28.1426E-03     56.5482E-03    -28.4104E-03     7.90467E-03     66.5066E-03     133.541E+06    -16.5317E+06    -29.3353E+06    -156.012E+06    -31.1268E+06    -154.221E+06    -16.5317E+06    -14.7899E+06
            1556     81.7565E-03     7.77796E-03     81.3857E-03     56.6801E-03    -28.3003E-03    -28.3739E-03    -28.0629E-03     56.4428E-03    -28.3739E-03     8.95728E-03     69.9353E-03     123.720E+06    -12.7732E+06    -24.2678E+06    -141.839E+06    -26.3849E+06    -139.721E+06    -12.7732E+06    -15.5087E+06
            1557     81.8643E-03     8.75054E-03     81.3953E-03     56.5862E-03    -28.2301E-03    -28.3297E-03    -27.9457E-03     56.3017E-03    -28.3297E-03     9.79911E-03     73.9155E-03     112.837E+06    -10.9075E+06    -19.8934E+06    -127.960E+06    -22.1669E+06    -125.686E+06    -10.9075E+06    -15.4123E+06
            1558     81.9846E-03     9.72318E-03     81.4060E-03     56.5847E-03    -28.2109E-03    -28.3332E-03    -27.8775E-03     56.1800E-03    -28.2620E-03     11.6076E-03     79.3281E-03     96.8306E+06    -12.6233E+06    -17.3403E+06    -111.707E+06    -18.4620E+06    -109.384E+06    -13.8243E+06    -14.6191E+06
            1559     82.1189E-03     10.6958E-03     81.4194E-03     56.5020E-03    -28.1773E-03    -28.3341E-03    -27.7813E-03     55.9492E-03    -28.1773E-03     13.6361E-03     86.2065E-03     74.4038E+06    -13.4805E+06    -19.3983E+06    -90.5526E+06    -15.7799E+06    -88.2533E+06    -19.3983E+06    -13.0184E+06
            1560     82.2660E-03     11.6689E-03     81.4342E-03     56.4687E-03    -28.0736E-03    -28.4370E-03    -27.7263E-03     55.7580E-03    -28.0736E-03     15.4276E-03     93.7479E-03     43.8087E+06    -11.6936E+06    -27.2119E+06    -59.0592E+06    -14.3824E+06    -56.3704E+06    -27.2119E+06    -10.4446E+06
            1561     82.4265E-03     12.6418E-03     81.4513E-03     56.8896E-03    -27.9532E-03    -28.9518E-03    -27.6790E-03     55.6168E-03    -27.9532E-03     20.4096E-03     105.316E-03     39.4401E+06     5.16045E+06    -23.3568E+06    -39.6791E+06    -13.7484E+06    -8.21908E+06    -35.9080E+06    -6.95347E+06
            1562     82.6063E-03     13.6141E-03     81.4767E-03     57.3140E-03    -27.7976E-03    -29.5255E-03    -27.1721E-03     54.9606E-03    -27.7976E-03     27.9388E-03     124.223E-03     96.7586E+06     64.6472E+06    -14.5941E+06    -42.4121E+06    -14.2288E+06     64.2819E+06    -42.4121E+06    -2.55871E+06
            1563     82.8056E-03     14.5886E-03     81.5103E-03     61.3843E-03    -27.7697E-03    -33.6232E-03    -27.0193E-03     54.7804E-03    -27.7697E-03     46.6185E-03     152.326E-03     149.433E+06     128.743E+06    -7.86940E+06    -30.4729E+06    -15.1858E+06     128.723E+06    -23.1363E+06     1.18561E+06
            1564     83.0462E-03     15.5621E-03     81.5750E-03     75.2527E-03    -28.0022E-03    -47.2415E-03    -28.0068E-03     56.0180E-03    -28.0022E-03     87.4906E-03     212.550E-03     167.305E+06     170.108E+06     41.0086E+06    -14.2046E+06    -14.1582E+06     170.061E+06     41.0086E+06     2.91393E+06
            1565     83.3515E-03     16.5351E-03     81.6949E-03     76.4219E-03    -28.3432E-03    -48.0720E-03    -27.7696E-03     56.1195E-03    -28.3432E-03     90.8905E-03     229.215E-03     185.900E+06     200.073E+06     123.113E+06    -8.85218E+06    -8.81957E+06     200.040E+06     123.113E+06     2.45045E+06
            1566     82.4114E-03     972.147E-06     82.4056E-03     56.9528E-03    -28.3828E-03    -28.5713E-03    -28.5133E-03     56.9465E-03    -28.4344E-03     1.34316E-03     57.2637E-03     171.266E+06    -56.5424E+06    -57.8458E+06    -228.455E+06    -57.5716E+06    -228.400E+06    -56.8715E+06    -1.94902E+06
            1567     82.4305E-03     1.94420E-03     82.4076E-03     56.8974E-03    -28.3963E-03    -28.5030E-03    -28.4112E-03     56.8773E-03    -28.4680E-03     2.54240E-03     57.6930E-03     162.117E+06    -53.0108E+06    -55.8494E+06    -216.518E+06    -56.0752E+06    -216.245E+06    -53.0576E+06    -6.21469E+06
            1568     82.4625E-03     2.91636E-03     82.4109E-03     56.8943E-03    -28.4183E-03    -28.4784E-03    -28.3790E-03     56.8550E-03    -28.4784E-03     3.63024E-03     58.5916E-03     159.897E+06    -45.0909E+06    -52.5123E+06    -208.555E+06    -53.1154E+06    -207.952E+06    -45.0909E+06    -9.54901E+06
            1569     82.5067E-03     3.88857E-03     82.4150E-03     56.8478E-03    -28.3648E-03    -28.4845E-03    -28.2988E-03     56.7818E-03    -28.4845E-03     4.70496E-03     59.8478E-03     159.185E+06    -36.0124E+06    -47.4135E+06    -200.585E+06    -48.4146E+06    -199.584E+06    -36.0124E+06    -12.1627E+06
            1570     82.5638E-03     4.86088E-03     82.4205E-03     56.7868E-03    -28.3219E-03    -28.4661E-03    -28.2213E-03     56.6861E-03    -28.4661E-03     5.82632E-03     61.5227E-03     149.677E+06    -29.1626E+06    -41.7432E+06    -184.733E+06    -43.3002E+06    -183.176E+06    -29.1626E+06    -14.6145E+06
            1571     82.6331E-03     5.83324E-03     82.4269E-03     56.7452E-03    -28.3204E-03    -28.4290E-03    -28.1837E-03     56.6085E-03    -28.4290E-03     6.79879E-03     63.7062E-03     138.163E+06    -23.5913E+06    -35.9128E+06    -167.502E+06    -38.1149E+06    -165.300E+06    -23.5913E+06    -16.7055E+06
            1572     82.7151E-03     6.80562E-03     82.4346E-03     56.7102E-03    -28.3174E-03    -28.3952E-03    -28.1345E-03     56.5272E-03    -28.3952E-03     7.85534E-03     66.4784E-03     129.466E+06    -18.7341E+06    -30.2219E+06    -153.559E+06    -32.9575E+06    -150.824E+06    -18.7341E+06    -18.0321E+06
            1573     82.8090E-03     7.77806E-03     82.4429E-03     56.6823E-03    -28.3113E-03    -28.3628E-03    -28.0749E-03     56.4453E-03    -28.3624E-03     8.94933E-03     69.9138E-03     120.625E+06    -14.8657E+06    -25.0649E+06    -140.266E+06    -28.1633E+06    -137.167E+06    -14.8657E+06    -18.5433E+06
            1574     82.9158E-03     8.75046E-03     82.4528E-03     56.6233E-03    -28.2739E-03    -28.3233E-03    -27.9912E-03     56.3402E-03    -28.3228E-03     9.78151E-03     73.9419E-03     110.846E+06    -13.0248E+06    -20.5193E+06    -127.414E+06    -23.8767E+06    -124.057E+06    -13.0248E+06    -18.5387E+06
            1575     83.0345E-03     9.72310E-03     82.4632E-03     56.5622E-03    -28.2242E-03    -28.2973E-03    -27.8649E-03     56.1613E-03    -28.2556E-03     11.5479E-03     79.3151E-03     96.2216E+06    -14.0353E+06    -19.1229E+06    -112.695E+06    -20.0945E+06    -109.259E+06    -16.5003E+06    -17.7526E+06
            1576     83.1673E-03     10.6960E-03     82.4766E-03     56.4832E-03    -28.1719E-03    -28.3216E-03    -27.7824E-03     55.9440E-03    -28.1719E-03     13.4705E-03     86.1971E-03     75.3037E+06    -13.9479E+06    -22.0848E+06    -92.8774E+06    -17.3031E+06    -89.5222E+06    -22.0848E+06    -15.8310E+06
            1577     83.3122E-03     11.6687E-03     82.4910E-03     56.5052E-03    -28.0717E-03    -28.4755E-03    -27.7637E-03     55.7934E-03    -28.0717E-03     15.4227E-03     93.7836E-03     46.5494E+06    -11.8133E+06    -29.7564E+06    -62.5066E+06    -15.5910E+06    -58.7290E+06    -29.7564E+06    -12.8362E+06
            1578     83.4719E-03     12.6414E-03     82.5091E-03     56.8526E-03    -27.9498E-03    -28.9177E-03    -27.6405E-03     55.5754E-03    -27.9498E-03     20.4668E-03     105.231E-03     40.9660E+06     3.27503E+06    -26.0213E+06    -43.3180E+06    -15.1209E+06    -11.9902E+06    -38.9531E+06    -8.99165E+06
            1579     83.6494E-03     13.6147E-03     82.5341E-03     57.3367E-03    -27.7964E-03    -29.5478E-03    -27.2531E-03     55.0420E-03    -27.7964E-03     27.6324E-03     124.311E-03     94.5844E+06     59.5992E+06    -16.3071E+06    -45.6229E+06    -15.5446E+06     58.8367E+06    -45.6229E+06    -3.95514E+06
            1580     83.8452E-03     14.5879E-03     82.5664E-03     61.4548E-03    -27.7650E-03    -33.6963E-03    -27.0947E-03     54.8531E-03    -27.7650E-03     46.5110E-03     152.483E-03     148.189E+06     124.671E+06    -11.1369E+06    -32.6601E+06    -16.2350E+06     124.629E+06    -27.5208E+06     1.14966E+06
            1581     84.0856E-03     15.5619E-03     82.6330E-03     75.1175E-03    -27.9990E-03    -47.1243E-03    -27.8523E-03     55.8456E-03    -27.9990E-03     87.4777E-03     212.435E-03     168.180E+06     169.264E+06     37.2822E+06    -14.9426E+06    -14.8856E+06     169.207E+06     37.2822E+06     3.16847E+06
            1582     84.3884E-03     16.5357E-03     82.7525E-03     76.2945E-03    -28.3438E-03    -47.9627E-03    -27.6879E-03     56.0196E-03    -28.3438E-03     90.7142E-03     229.091E-03     187.243E+06     201.644E+06     122.429E+06    -9.02555E+06    -8.99909E+06     201.618E+06     122.429E+06     2.15728E+06
            1583     83.4691E-03     972.212E-06     83.4634E-03     56.9138E-03    -28.3677E-03    -28.5468E-03    -28.5410E-03     56.9080E-03    -28.3677E-03     1.30421E-03     57.1749E-03     164.926E+06    -57.8827E+06    -59.2961E+06    -223.507E+06    -58.6345E+06    -223.422E+06    -58.6294E+06    -2.72025E+06
            1584     83.4878E-03     1.94414E-03     83.4652E-03     56.9135E-03    -28.4275E-03    -28.4870E-03    -28.4433E-03     56.8935E-03    -28.4511E-03     2.52045E-03     57.7084E-03     152.993E+06    -54.2777E+06    -56.4324E+06    -208.326E+06    -56.7287E+06    -207.983E+06    -54.3245E+06    -6.85851E+06
            1585     83.5195E-03     2.91633E-03     83.4686E-03     56.8661E-03    -28.3976E-03    -28.4701E-03    -28.3574E-03     56.8259E-03    -28.4701E-03     3.67238E-03     58.5619E-03     151.653E+06    -46.8860E+06    -53.2856E+06    -201.625E+06    -54.1270E+06    -200.783E+06    -46.8860E+06    -10.8832E+06
            1586     83.5631E-03     3.88852E-03     83.4726E-03     56.8497E-03    -28.3780E-03    -28.4748E-03    -28.3118E-03     56.7836E-03    -28.4748E-03     4.71108E-03     59.8410E-03     151.213E+06    -38.3064E+06    -48.4253E+06    -194.318E+06    -49.8790E+06    -192.865E+06    -38.3064E+06    -14.3200E+06
            1587     83.6193E-03     4.86082E-03     83.4779E-03     56.8149E-03    -28.3537E-03    -28.4637E-03    -28.2540E-03     56.7152E-03    -28.4637E-03     5.79927E-03     61.5407E-03     142.825E+06    -31.1836E+06    -42.6296E+06    -179.386E+06    -44.8864E+06    -177.129E+06    -31.1836E+06    -17.1676E+06
            1588     83.6882E-03     5.83311E-03     83.4847E-03     56.7259E-03    -28.2996E-03    -28.4303E-03    -28.1656E-03     56.5919E-03    -28.4303E-03     6.73145E-03     63.6830E-03     132.508E+06    -25.3615E+06    -36.6872E+06    -163.168E+06    -39.8585E+06    -159.997E+06    -25.3615E+06    -19.6157E+06
            1589     83.7688E-03     6.80548E-03     83.4919E-03     56.6716E-03    -28.2821E-03    -28.3926E-03    -28.1038E-03     56.4933E-03    -28.3926E-03     7.75235E-03     66.4379E-03     125.107E+06    -20.8627E+06    -30.9389E+06    -150.700E+06    -34.8928E+06    -146.746E+06    -20.8627E+06    -21.2457E+06
            1590     83.8619E-03     7.77800E-03     83.5004E-03     56.6608E-03    -28.2967E-03    -28.3568E-03    -28.0646E-03     56.4283E-03    -28.3563E-03     8.86224E-03     69.8690E-03     117.543E+06    -17.4271E+06    -25.4840E+06    -138.783E+06    -29.9552E+06    -134.312E+06    -17.4271E+06    -21.9265E+06
            1591     83.9673E-03     8.75047E-03     83.5101E-03     56.6095E-03    -28.2671E-03    -28.3170E-03    -27.9898E-03     56.3317E-03    -28.3165E-03     9.69061E-03     73.9056E-03     108.845E+06    -15.5648E+06    -20.7209E+06    -126.874E+06    -25.4712E+06    -122.124E+06    -15.5648E+06    -21.8534E+06
            1592     84.0845E-03     9.72302E-03     83.5204E-03     56.5927E-03    -28.2205E-03    -28.3333E-03    -27.9062E-03     56.1974E-03    -28.2522E-03     11.4666E-03     79.3208E-03     95.5082E+06    -15.5450E+06    -20.7691E+06    -113.523E+06    -21.8856E+06    -108.695E+06    -19.2565E+06    -20.9542E+06
            1593     84.2157E-03     10.6957E-03     83.5338E-03     56.5618E-03    -28.1743E-03    -28.4001E-03    -27.8657E-03     56.0274E-03    -28.1743E-03     13.4241E-03     86.2633E-03     76.2940E+06    -14.2463E+06    -25.1119E+06    -95.2502E+06    -18.9774E+06    -90.5190E+06    -25.1119E+06    -18.9009E+06
            1594     84.3594E-03     11.6684E-03     83.5485E-03     56.4906E-03    -28.0763E-03    -28.4568E-03    -27.7444E-03     55.7782E-03    -28.0763E-03     15.4180E-03     93.7949E-03     49.9593E+06    -11.8292E+06    -33.0672E+06    -66.7945E+06    -17.0188E+06    -61.6049E+06    -33.0672E+06    -15.6503E+06
            1595     84.5169E-03     12.6415E-03     83.5661E-03     56.7056E-03    -27.9487E-03    -28.7690E-03    -27.5097E-03     55.4463E-03    -27.9487E-03     20.3164E-03     105.076E-03     42.9179E+06     1.07751E+06    -28.8464E+06    -47.7898E+06    -16.3223E+06    -16.7373E+06    -42.4992E+06    -11.1299E+06
            1596     84.6926E-03     13.6146E-03     83.5911E-03     57.4181E-03    -27.7943E-03    -29.6288E-03    -27.3552E-03     55.1446E-03    -27.7943E-03     27.5233E-03     124.318E-03     92.4752E+06     53.9426E+06    -18.4298E+06    -49.4048E+06    -17.1163E+06     52.6292E+06    -49.4048E+06    -5.46667E+06
            1597     84.8870E-03     14.5877E-03     83.6242E-03     61.6999E-03    -27.7674E-03    -33.9365E-03    -27.3663E-03     55.1297E-03    -27.7674E-03     46.5383E-03     152.695E-03     146.916E+06     120.328E+06    -14.7246E+06    -34.9483E+06    -17.5700E+06     120.272E+06    -32.0469E+06     288.521E+03
            1598     85.1237E-03     15.5612E-03     83.6893E-03     75.0045E-03    -27.9973E-03    -47.0065E-03    -27.6884E-03     55.6864E-03    -27.9973E-03     87.3705E-03     212.300E-03     168.867E+06     168.466E+06     32.6948E+06    -15.3041E+06    -15.2594E+06     168.421E+06     32.6948E+06     2.74472E+06
            1599     85.4257E-03     16.5356E-03     83.8100E-03     76.1304E-03    -28.3409E-03    -47.7915E-03    -27.4223E-03     55.7611E-03    -28.3409E-03     90.6978E-03     228.973E-03     188.368E+06     202.879E+06     120.653E+06    -9.09089E+06    -9.07370E+06     202.862E+06     120.653E+06     1.57957E+06
            1600     84.5264E-03     971.977E-06     84.5208E-03     56.9201E-03    -28.4063E-03    -28.5156E-03    -28.4758E-03     56.9136E-03    -28.4397E-03     1.27957E-03     57.1871E-03     157.497E+06    -58.4011E+06    -60.1880E+06    -216.782E+06    -59.1663E+06    -216.644E+06    -59.5601E+06    -4.28620E+06
            1601     84.5453E-03     1.94425E-03     84.5230E-03     56.8344E-03    -28.3970E-03    -28.4389E-03    -28.3807E-03     56.8140E-03    -28.4348E-03     2.57706E-03     57.6298E-03     143.611E+06    -55.7498E+06    -57.7292E+06    -200.336E+06    -57.7508E+06    -199.856E+06    -56.2090E+06    -7.84722E+06
            1602     84.5762E-03     2.91632E-03     84.5260E-03     56.8684E-03    -28.4165E-03    -28.4536E-03    -28.3810E-03     56.8283E-03    -28.4489E-03     3.66040E-03     58.5619E-03     142.200E+06    -48.2518E+06    -53.6154E+06    -193.043E+06    -54.7748E+06    -191.884E+06    -48.2518E+06    -12.3802E+06
            1603     84.6196E-03     3.88859E-03     84.5302E-03     56.8807E-03    -28.4129E-03    -28.4694E-03    -28.3477E-03     56.8141E-03    -28.4680E-03     4.73157E-03     59.8765E-03     143.121E+06    -39.5897E+06    -48.7166E+06    -187.051E+06    -50.7556E+06    -185.012E+06    -39.5897E+06    -16.4659E+06
            1604     84.6753E-03     4.86064E-03     84.5356E-03     56.8401E-03    -28.3768E-03    -28.4645E-03    -28.2769E-03     56.7402E-03    -28.4645E-03     5.80720E-03     61.5665E-03     135.751E+06    -32.7391E+06    -42.8962E+06    -173.282E+06    -45.9950E+06    -170.183E+06    -32.7391E+06    -19.6212E+06
            1605     84.7430E-03     5.83294E-03     84.5420E-03     56.7369E-03    -28.3059E-03    -28.4335E-03    -28.1709E-03     56.6019E-03    -28.4335E-03     6.75700E-03     63.6927E-03     126.471E+06    -27.1642E+06    -36.9505E+06    -158.242E+06    -41.2231E+06    -153.969E+06    -27.1642E+06    -22.2129E+06
            1606     84.8228E-03     6.80540E-03     84.5494E-03     56.6857E-03    -28.2932E-03    -28.3954E-03    -28.1141E-03     56.5066E-03    -28.3954E-03     7.77134E-03     66.4642E-03     120.230E+06    -23.0035E+06    -31.0466E+06    -147.042E+06    -36.4506E+06    -141.638E+06    -23.0035E+06    -24.3147E+06
            1607     84.9149E-03     7.77771E-03     84.5580E-03     56.6479E-03    -28.2845E-03    -28.3573E-03    -28.0517E-03     56.4151E-03    -28.3573E-03     8.86578E-03     69.8403E-03     114.211E+06    -20.1023E+06    -25.5498E+06    -136.933E+06    -31.7391E+06    -130.744E+06    -20.1023E+06    -25.4254E+06
            1608     85.0190E-03     8.75028E-03     84.5676E-03     56.5809E-03    -28.2410E-03    -28.3163E-03    -27.9667E-03     56.3067E-03    -28.3163E-03     9.62677E-03     73.8645E-03     107.127E+06    -17.9210E+06    -21.0449E+06    -126.569E+06    -27.1793E+06    -120.032E+06    -18.3239E+06    -25.3915E+06
            1609     85.1347E-03     9.72299E-03     84.5777E-03     56.6175E-03    -28.2157E-03    -28.3640E-03    -27.9322E-03     56.2237E-03    -28.2537E-03     11.4361E-03     79.3128E-03     95.3047E+06    -16.3165E+06    -22.3395E+06    -114.395E+06    -23.3397E+06    -107.819E+06    -21.8914E+06    -24.3950E+06
            1610     85.2647E-03     10.6955E-03     84.5912E-03     56.6060E-03    -28.1778E-03    -28.4417E-03    -27.9028E-03     56.0671E-03    -28.1778E-03     13.4866E-03     86.2929E-03     78.1055E+06    -13.8863E+06    -28.2161E+06    -97.9793E+06    -20.4128E+06    -91.4527E+06    -28.2161E+06    -22.4048E+06
            1611     85.4065E-03     11.6682E-03     84.6057E-03     56.4713E-03    -28.0807E-03    -28.4368E-03    -27.7277E-03     55.7622E-03    -28.0807E-03     15.3868E-03     93.7720E-03     54.5060E+06    -10.9962E+06    -36.4805E+06    -71.5986E+06    -17.9704E+06    -64.6244E+06    -36.4805E+06    -19.0147E+06
            1612     85.5622E-03     12.6411E-03     84.6232E-03     56.6998E-03    -27.9516E-03    -28.7644E-03    -27.5039E-03     55.4393E-03    -27.9516E-03     20.3091E-03     104.999E-03     45.8148E+06    -522.323E+03    -31.8394E+06    -52.7305E+06    -16.7941E+06    -22.0879E+06    -46.2102E+06    -13.7911E+06
            1613     85.7360E-03     13.6144E-03     84.6481E-03     57.4584E-03    -27.7953E-03    -29.6702E-03    -27.3604E-03     55.1486E-03    -27.7953E-03     27.7376E-03     124.225E-03     89.8504E+06     48.1156E+06    -19.2297E+06    -53.1524E+06    -16.7588E+06     45.6447E+06    -53.1524E+06    -7.08398E+06
            1614     85.9289E-03     14.5877E-03     84.6816E-03     61.6889E-03    -27.7435E-03    -33.9548E-03    -27.3328E-03     55.0669E-03    -27.7435E-03     46.7503E-03     152.507E-03     145.611E+06     115.281E+06    -15.6525E+06    -40.1345E+06    -16.6784E+06     115.215E+06    -39.0426E+06    -1.47239E+06
            1615     86.1637E-03     15.5608E-03     84.7469E-03     75.0648E-03    -27.9691E-03    -47.0974E-03    -27.7576E-03     55.7250E-03    -27.9691E-03     87.5079E-03     212.253E-03     170.124E+06     167.506E+06     29.4827E+06    -18.2368E+06    -14.3810E+06     167.489E+06     25.6445E+06     1.11764E+06
            1616     86.4616E-03     16.5353E-03     84.8658E-03     76.2333E-03    -28.3418E-03    -47.8859E-03    -27.3882E-03     55.7356E-03    -28.3418E-03     91.1013E-03     229.237E-03     188.917E+06     204.129E+06     119.337E+06    -8.32352E+06    -8.31290E+06     204.118E+06     119.337E+06     1.25358E+06
            1617     85.5838E-03     972.036E-06     85.5783E-03     56.9129E-03    -28.3713E-03    -28.5432E-03    -28.5032E-03     56.9062E-03    -28.4047E-03     1.29405E-03     57.1803E-03     149.157E+06    -57.9103E+06    -59.7166E+06    -207.959E+06    -58.7223E+06    -207.738E+06    -59.1260E+06    -5.29531E+06
            1618     85.6025E-03     1.94423E-03     85.5805E-03     56.8307E-03    -28.3689E-03    -28.4631E-03    -28.3819E-03     56.8108E-03    -28.4302E-03     2.55129E-03     57.6261E-03     134.868E+06    -55.8412E+06    -57.1934E+06    -191.378E+06    -57.4502E+06    -190.662E+06    -56.3004E+06    -9.33063E+06
            1619     85.6334E-03     2.91640E-03     85.5837E-03     56.8635E-03    -28.4159E-03    -28.4496E-03    -28.3806E-03     56.8236E-03    -28.4450E-03     3.64181E-03     58.5583E-03     132.962E+06    -48.5206E+06    -52.9882E+06    -183.640E+06    -54.5698E+06    -182.059E+06    -48.5206E+06    -14.0402E+06
            1620     85.6762E-03     3.88833E-03     85.5879E-03     56.8976E-03    -28.4272E-03    -28.4705E-03    -28.3616E-03     56.8306E-03    -28.4691E-03     4.75047E-03     59.9007E-03     135.346E+06    -39.6263E+06    -47.9367E+06    -178.932E+06    -50.6295E+06    -176.239E+06    -39.6263E+06    -18.4000E+06
            1621     85.7311E-03     4.86069E-03     85.5932E-03     56.8223E-03    -28.3578E-03    -28.4648E-03    -28.2583E-03     56.7227E-03    -28.4648E-03     5.79623E-03     61.5477E-03     129.054E+06    -33.3116E+06    -42.1061E+06    -166.538E+06    -46.2034E+06    -162.440E+06    -33.3116E+06    -21.9593E+06
            1622     85.7981E-03     5.83296E-03     85.5996E-03     56.7550E-03    -28.3252E-03    -28.4330E-03    -28.1882E-03     56.6180E-03    -28.4330E-03     6.80486E-03     63.7068E-03     121.045E+06    -27.9805E+06    -35.7421E+06    -152.716E+06    -41.3857E+06    -147.073E+06    -27.9805E+06    -24.9010E+06
            1623     85.8768E-03     6.80517E-03     85.6068E-03     56.7272E-03    -28.3321E-03    -28.3999E-03    -28.1511E-03     56.5463E-03    -28.3999E-03     7.82032E-03     66.5066E-03     116.097E+06    -23.8381E+06    -29.6969E+06    -142.745E+06    -36.7204E+06    -135.721E+06    -23.8381E+06    -27.1698E+06
            1624     85.9680E-03     7.77769E-03     85.6154E-03     56.6562E-03    -28.2893E-03    -28.3642E-03    -28.0579E-03     56.4249E-03    -28.3642E-03     8.83882E-03     69.8671E-03     111.664E+06    -21.1933E+06    -24.4710E+06    -134.452E+06    -32.3933E+06    -126.386E+06    -21.3368E+06    -28.6076E+06
            1625     86.0710E-03     8.75016E-03     85.6250E-03     56.5995E-03    -28.2544E-03    -28.3221E-03    -27.9780E-03     56.3231E-03    -28.3221E-03     9.66303E-03     73.8675E-03     106.082E+06    -18.5493E+06    -21.2176E+06    -125.931E+06    -28.1795E+06    -117.272E+06    -20.2462E+06    -29.0188E+06
            1626     86.1854E-03     9.72259E-03     85.6352E-03     56.6040E-03    -28.2401E-03    -28.3248E-03    -27.9115E-03     56.2096E-03    -28.2590E-03     11.4527E-03     79.3016E-03     96.1956E+06    -15.3605E+06    -23.9958E+06    -115.424E+06    -24.1715E+06    -106.613E+06    -23.9958E+06    -28.2797E+06
            1627     86.3139E-03     10.6954E-03     85.6487E-03     56.5615E-03    -28.1797E-03    -28.3936E-03    -27.8483E-03     56.0163E-03    -28.1797E-03     13.5517E-03     86.2217E-03     81.3880E+06    -11.9537E+06    -30.5028E+06    -100.795E+06    -20.7211E+06    -92.0274E+06    -30.5028E+06    -26.4153E+06
            1628     86.4540E-03     11.6681E-03     85.6630E-03     56.4937E-03    -28.0803E-03    -28.4590E-03    -27.7515E-03     55.7863E-03    -28.0803E-03     15.3902E-03     93.7512E-03     60.3920E+06    -8.95737E+06     -39.277E+06    -76.7501E+06    -18.2738E+06    -67.4337E+06     -39.277E+06    -23.0443E+06
            1629     86.6076E-03     12.6412E-03     85.6801E-03     56.7454E-03    -27.9527E-03    -28.8072E-03    -27.5378E-03     55.4761E-03    -27.9527E-03     20.3476E-03     105.023E-03     50.2476E+06    -472.966E+03    -35.1526E+06    -57.8005E+06    -16.2269E+06    -27.7385E+06    -49.4607E+06    -17.6520E+06
            1630     86.7801E-03     13.6143E-03     85.7056E-03     57.4125E-03    -27.7942E-03    -29.6220E-03    -27.2719E-03     55.0625E-03    -27.7942E-03     27.9608E-03     124.211E-03     87.1547E+06     42.5083E+06    -20.0993E+06    -56.6407E+06    -14.8976E+06     37.3066E+06    -56.6407E+06    -9.97833E+06
            1631     86.9710E-03     14.5874E-03     85.7390E-03     61.5231E-03    -27.7217E-03    -33.8090E-03    -27.1428E-03     54.8569E-03    -27.7217E-03     46.8352E-03     152.369E-03     142.866E+06     110.136E+06    -15.1231E+06    -43.6690E+06    -14.9278E+06     109.941E+06    -43.6690E+06    -3.26939E+06
            1632     87.2032E-03     15.5620E-03     85.8034E-03     75.1265E-03    -27.9391E-03    -47.1975E-03    -27.8115E-03     55.7405E-03    -27.9391E-03     87.7177E-03     212.289E-03     170.535E+06     166.484E+06     27.4058E+06    -20.1237E+06    -13.8059E+06     166.479E+06     21.0931E+06    -355.379E+03
            1633     87.5005E-03     16.5349E-03     85.9240E-03     76.2782E-03    -28.3309E-03    -47.9656E-03    -27.4644E-03     55.7769E-03    -28.3309E-03     91.1826E-03     229.242E-03     189.247E+06     204.279E+06     117.618E+06     -8.5395E+06    -8.53298E+06     204.273E+06     117.618E+06     827.041E+03
            1634     86.6418E-03     972.228E-06     86.6363E-03     56.9231E-03    -28.3465E-03    -28.5775E-03    -28.5714E-03     56.9169E-03    -28.3465E-03     1.35122E-03     57.1875E-03     139.153E+06    -57.4917E+06    -59.2116E+06    -197.493E+06    -58.5241E+06    -197.192E+06    -58.4807E+06    -5.69260E+06
            1635     86.6598E-03     1.94398E-03     86.6380E-03     56.8967E-03    -28.4149E-03    -28.4837E-03    -28.4346E-03     56.8774E-03    -28.4447E-03     2.49030E-03     57.6917E-03     124.604E+06    -55.4764E+06    -56.5730E+06    -180.622E+06    -57.3782E+06    -179.585E+06    -55.7088E+06    -10.8183E+06
            1636     86.6904E-03     2.91622E-03     86.6414E-03     56.8526E-03    -28.3919E-03    -28.4629E-03    -28.3514E-03     56.8121E-03    -28.4629E-03     3.67210E-03     58.5460E-03     123.525E+06    -48.3262E+06    -52.5461E+06    -173.889E+06    -54.6627E+06    -171.772E+06    -48.3262E+06    -15.6704E+06
            1637     86.7330E-03     3.88848E-03     86.6458E-03     56.8701E-03    -28.3954E-03    -28.4765E-03    -28.3290E-03     56.8037E-03    -28.4765E-03     4.73252E-03     59.8674E-03     127.276E+06    -39.1749E+06    -46.8878E+06    -170.129E+06    -50.3790E+06    -166.638E+06    -39.1749E+06    -20.2209E+06
            1638     86.7870E-03     4.86050E-03     86.6508E-03     56.8259E-03    -28.3613E-03    -28.4670E-03    -28.2636E-03     56.7282E-03    -28.4670E-03     5.74214E-03     61.5546E-03     122.659E+06    -32.8568E+06    -40.2459E+06    -159.038E+06    -45.6015E+06    -153.682E+06    -32.8568E+06    -24.3714E+06
            1639     86.8533E-03     5.83283E-03     86.6572E-03     56.7500E-03    -28.3206E-03    -28.4339E-03    -28.1834E-03     56.6129E-03    -28.4339E-03     6.80439E-03     63.7010E-03     115.984E+06    -28.1445E+06    -33.7435E+06    -146.822E+06    -41.0226E+06    -139.543E+06    -28.1445E+06    -27.6123E+06
            1640     86.9313E-03     6.80523E-03     86.6646E-03     56.7344E-03    -28.3388E-03    -28.4010E-03    -28.1565E-03     56.5521E-03    -28.4010E-03     7.85238E-03     66.4990E-03     112.125E+06    -24.1770E+06    -27.8098E+06    -138.061E+06    -36.6355E+06    -129.144E+06    -24.2677E+06    -29.9590E+06
            1641     87.0212E-03     7.77740E-03     86.6730E-03     56.6890E-03    -28.3163E-03    -28.3682E-03    -28.0865E-03     56.4593E-03    -28.3682E-03     8.81356E-03     69.9173E-03     109.217E+06    -21.2023E+06    -22.9781E+06    -131.289E+06    -32.3891E+06    -121.084E+06    -21.9963E+06    -31.6906E+06
            1642     87.1228E-03     8.74999E-03     86.6823E-03     56.5841E-03    -28.2318E-03    -28.3252E-03    -27.9518E-03     56.3041E-03    -28.3252E-03     9.71966E-03     73.8507E-03     105.371E+06    -17.3120E+06    -21.4324E+06    -124.644E+06    -28.3242E+06    -113.632E+06    -21.4324E+06    -32.4968E+06
            1643     87.2363E-03     9.72261E-03     86.6928E-03     56.5833E-03    -28.2025E-03    -28.3393E-03    -27.8831E-03     56.1832E-03    -28.2586E-03     11.5453E-03     79.2630E-03     97.4397E+06    -13.0177E+06    -25.5895E+06    -115.958E+06    -24.4613E+06    -104.515E+06    -25.5895E+06    -32.2938E+06
            1644     87.3626E-03     10.6953E-03     86.7055E-03     56.5467E-03    -28.1772E-03    -28.3791E-03    -27.8328E-03     56.0004E-03    -28.1772E-03     13.5628E-03     86.2141E-03     85.1214E+06    -9.59965E+06    -32.6317E+06    -103.636E+06    -21.1987E+06    -92.0372E+06    -32.6317E+06    -30.8365E+06
            1645     87.5021E-03     11.6682E-03     86.7207E-03     56.4881E-03    -28.0769E-03    -28.4527E-03    -27.7445E-03     55.7799E-03    -28.0769E-03     15.3984E-03     93.7245E-03     67.1659E+06    -6.08372E+06    -41.7271E+06    -81.9630E+06    -18.3933E+06    -69.6534E+06    -41.7271E+06    -27.7121E+06
            1646     87.6536E-03     12.6409E-03     86.7373E-03     56.7577E-03    -27.9519E-03    -28.8155E-03    -27.5532E-03     55.4953E-03    -27.9519E-03     20.3006E-03     105.101E-03     55.8443E+06     833.603E+03    -40.2299E+06    -62.6010E+06    -16.2547E+06    -33.3408E+06    -52.4018E+06    -22.4309E+06
            1647     87.8243E-03     13.6141E-03     86.7627E-03     57.3642E-03    -27.7924E-03    -29.5728E-03    -27.2327E-03     55.0240E-03    -27.7924E-03     27.8804E-03     124.219E-03     85.3232E+06     36.5114E+06    -24.3810E+06    -60.8841E+06    -15.2053E+06     27.3357E+06    -60.8841E+06    -13.8771E+06
            1648     88.0129E-03     14.5882E-03     86.7955E-03     61.4065E-03    -27.7119E-03    -33.6966E-03    -27.1323E-03     54.8422E-03    -27.7119E-03     46.4907E-03     152.377E-03     140.431E+06     104.322E+06    -15.4146E+06    -48.0763E+06    -14.9316E+06     103.839E+06    -48.0763E+06    -5.18222E+06
            1649     88.2439E-03     15.5611E-03     86.8610E-03     74.9685E-03    -27.9116E-03    -47.0756E-03    -27.6276E-03     55.5205E-03    -27.9116E-03     87.5775E-03     212.242E-03     170.492E+06     164.480E+06     23.9869E+06    -22.3913E+06    -14.0449E+06     164.465E+06     15.6563E+06    -704.395E+03
            1650     88.5388E-03     16.5359E-03     86.9810E-03     76.1729E-03    -28.3048E-03    -47.9101E-03    -27.3281E-03     55.5908E-03    -28.3048E-03     91.1543E-03     229.037E-03     189.644E+06     203.442E+06     114.197E+06    -9.52884E+06    -9.52302E+06     203.436E+06     114.197E+06     364.736E+03
            1651     87.6994E-03     971.886E-06     87.6940E-03     56.9990E-03    -28.4164E-03    -28.5836E-03    -28.5434E-03     56.9927E-03    -28.4503E-03     1.34489E-03     57.2646E-03     130.272E+06    -54.0745E+06    -56.8939E+06    -185.719E+06    -55.3593E+06    -185.330E+06    -55.9986E+06    -6.13913E+06
            1652     87.7176E-03     1.94420E-03     87.6960E-03     56.9153E-03    -28.4331E-03    -28.4848E-03    -28.4230E-03     56.8958E-03    -28.4754E-03     2.50441E-03     57.7089E-03     115.889E+06    -52.3581E+06    -54.0581E+06    -169.085E+06    -55.0934E+06    -167.818E+06    -52.5905E+06    -11.6282E+06
            1653     87.7475E-03     2.91606E-03     87.6990E-03     56.9055E-03    -28.4218E-03    -28.4855E-03    -28.3815E-03     56.8651E-03    -28.4855E-03     3.66628E-03     58.5981E-03     115.362E+06    -45.5769E+06    -50.1627E+06    -163.151E+06    -52.7955E+06    -160.519E+06    -45.5769E+06    -16.8127E+06
            1654     87.7895E-03     3.88824E-03     87.7033E-03     56.8538E-03    -28.3650E-03    -28.4913E-03    -28.2988E-03     56.7876E-03    -28.4913E-03     4.72189E-03     59.8558E-03     119.415E+06    -37.4492E+06    -44.5120E+06    -160.238E+06    -48.9759E+06    -155.774E+06    -37.4492E+06    -22.0741E+06
            1655     87.8432E-03     4.86053E-03     87.7086E-03     56.8217E-03    -28.3504E-03    -28.4751E-03    -28.2530E-03     56.7242E-03    -28.4751E-03     5.73560E-03     61.5531E-03     116.625E+06    -31.4300E+06    -37.3801E+06    -150.909E+06    -44.1991E+06    -144.090E+06    -31.4300E+06    -26.7189E+06
            1656     87.9085E-03     5.83273E-03     87.7148E-03     56.7688E-03    -28.3312E-03    -28.4408E-03    -28.1942E-03     56.6317E-03    -28.4408E-03     6.80219E-03     63.7178E-03     111.584E+06    -26.9818E+06    -30.4191E+06    -140.237E+06    -39.5619E+06    -131.094E+06    -26.9818E+06    -30.2093E+06
            1657     87.9858E-03     6.80502E-03     87.7222E-03     56.7071E-03    -28.3028E-03    -28.4052E-03    -28.1207E-03     56.5250E-03    -28.4052E-03     7.84427E-03     66.4689E-03     109.473E+06    -22.8797E+06    -24.7664E+06    -133.276E+06    -35.1419E+06    -122.275E+06    -23.5059E+06    -32.7775E+06
            1658     88.0746E-03     7.77756E-03     87.7305E-03     56.6695E-03    -28.2927E-03    -28.3685E-03    -28.0616E-03     56.4384E-03    -28.3685E-03     8.83629E-03     69.8761E-03     107.520E+06    -18.6865E+06    -21.4796E+06    -127.558E+06    -31.1464E+06    -115.098E+06    -21.4796E+06    -34.6048E+06
            1659     88.1750E-03     8.74983E-03     87.7398E-03     56.5857E-03    -28.2336E-03    -28.3247E-03    -27.9559E-03     56.3081E-03    -28.3247E-03     9.68298E-03     73.8534E-03     104.857E+06    -14.0780E+06    -21.3301E+06    -122.330E+06    -27.6285E+06    -108.779E+06    -21.3301E+06    -35.7654E+06
            1660     88.2868E-03     9.72267E-03     87.7498E-03     56.5707E-03    -28.1953E-03    -28.3320E-03    -27.8691E-03     56.1695E-03    -28.2569E-03     11.5437E-03     79.2479E-03     99.0123E+06    -10.0068E+06    -26.2765E+06    -115.957E+06    -24.2738E+06    -101.690E+06    -26.2765E+06    -36.1139E+06
            1661     88.4127E-03     10.6952E-03     87.7634E-03     56.5604E-03    -28.1753E-03    -28.3944E-03    -27.8504E-03     56.0165E-03    -28.1753E-03     13.5426E-03     86.2354E-03     89.1409E+06    -6.09880E+06    -33.7304E+06    -105.533E+06    -21.0581E+06     -90.574E+06    -33.7304E+06    -35.4623E+06
            1662     88.5492E-03     11.6679E-03     87.7771E-03     56.4559E-03    -28.0748E-03    -28.4231E-03    -27.7112E-03     55.7439E-03    -28.0748E-03     15.4173E-03     93.6973E-03     74.7981E+06    -2.11209E+06    -43.4890E+06    -87.0724E+06    -17.8930E+06    -71.2915E+06    -43.4890E+06    -32.8909E+06
            1663     88.7005E-03     12.6411E-03     87.7951E-03     56.7246E-03    -27.9466E-03    -28.7899E-03    -27.5278E-03     55.4624E-03    -27.9466E-03     20.3303E-03     105.083E-03     63.0880E+06     3.21202E+06    -45.5867E+06    -67.9691E+06    -15.8361E+06    -39.1904E+06    -55.3173E+06    -27.2662E+06
            1664     88.8679E-03     13.6142E-03     87.8189E-03     57.5407E-03    -27.7872E-03    -29.7580E-03    -27.4172E-03     55.1999E-03    -27.7872E-03     27.9296E-03     124.318E-03     85.4988E+06     31.7400E+06    -29.1351E+06    -65.6808E+06    -15.0953E+06     17.7002E+06    -65.6808E+06    -18.0247E+06
            1665     89.0560E-03     14.5870E-03     87.8532E-03     61.3860E-03    -27.6879E-03    -33.7015E-03    -27.1876E-03     54.8721E-03    -27.6879E-03     46.3340E-03     152.486E-03     139.081E+06     95.8979E+06    -16.3079E+06    -57.7886E+06    -15.1229E+06     94.7129E+06    -57.7886E+06    -7.71887E+06
            1666     89.2835E-03     15.5615E-03     87.9169E-03     74.6952E-03    -27.8631E-03    -46.8499E-03    -27.3902E-03     55.2355E-03    -27.8631E-03     87.3260E-03     212.139E-03     171.528E+06     160.937E+06     19.5161E+06    -28.7332E+06    -14.0327E+06     160.902E+06     4.85048E+06    -1.41716E+06
            1667     89.5772E-03     16.5360E-03     88.0377E-03     76.0770E-03    -28.2747E-03    -47.8431E-03    -27.1495E-03     55.3833E-03    -28.2747E-03     91.2705E-03     228.904E-03     189.691E+06     203.323E+06     110.383E+06    -8.88034E+06    -8.87649E+06     203.319E+06     110.383E+06    -169.889E+03
            1668     88.7571E-03     971.961E-06     88.7518E-03     57.0942E-03    -28.4439E-03    -28.6516E-03    -28.6115E-03     57.0881E-03    -28.4778E-03     1.30835E-03     57.3574E-03     121.479E+06    -49.5486E+06    -53.6565E+06    -173.016E+06    -51.6786E+06    -172.511E+06    -52.0315E+06    -7.05885E+06
            1669     88.7752E-03     1.94391E-03     88.7539E-03     56.9452E-03    -28.4324E-03    -28.5145E-03    -28.4152E-03     56.9263E-03    -28.5129E-03     2.48137E-03     57.7373E-03     108.286E+06    -47.7770E+06    -49.8546E+06    -157.083E+06    -50.5592E+06    -155.588E+06    -48.5681E+06    -12.2210E+06
            1670     88.8049E-03     2.91615E-03     88.7570E-03     56.9127E-03    -28.4079E-03    -28.5062E-03    -28.3682E-03     56.8730E-03    -28.5062E-03     3.63076E-03     58.6087E-03     108.575E+06    -41.0884E+06    -45.1240E+06    -151.614E+06    -48.1540E+06    -148.584E+06    -41.0884E+06    -17.4812E+06
            1671     88.8463E-03     3.88815E-03     88.7612E-03     56.8729E-03    -28.3707E-03    -28.5038E-03    -28.3036E-03     56.8058E-03    -28.5038E-03     4.75042E-03     59.8832E-03     112.516E+06    -33.5013E+06    -39.8595E+06    -149.060E+06    -45.1050E+06    -143.814E+06    -33.5013E+06    -23.1270E+06
            1672     88.8992E-03     4.86042E-03     88.7662E-03     56.8286E-03    -28.3464E-03    -28.4846E-03    -28.2466E-03     56.7288E-03    -28.4846E-03     5.80372E-03     61.5556E-03     110.729E+06    -28.3989E+06    -33.1366E+06    -141.403E+06    -41.5006E+06    -133.039E+06    -28.3989E+06    -28.6150E+06
            1673     88.9642E-03     5.83265E-03     88.7728E-03     56.7751E-03    -28.3305E-03    -28.4478E-03    -28.1934E-03     56.6381E-03    -28.4478E-03     6.80717E-03     63.7171E-03     108.066E+06    -24.2463E+06    -26.1159E+06    -133.229E+06    -37.0290E+06    -121.929E+06    -24.6329E+06    -32.8659E+06
            1674     89.0403E-03     6.80497E-03     88.7799E-03     56.6867E-03    -28.2782E-03    -28.4094E-03    -28.0963E-03     56.5048E-03    -28.4094E-03     7.83285E-03     66.4436E-03     107.603E+06    -19.4739E+06    -22.0457E+06    -128.326E+06    -32.7982E+06    -115.184E+06    -21.8628E+06    -35.3705E+06
            1675     89.1281E-03     7.77735E-03     88.7882E-03     56.6265E-03    -28.2505E-03    -28.3675E-03    -28.0196E-03     56.3956E-03    -28.3675E-03     8.83050E-03     69.8125E-03     106.026E+06    -14.7621E+06    -20.3154E+06    -123.439E+06    -29.4437E+06    -108.757E+06    -20.3154E+06    -37.0868E+06
            1676     89.2275E-03     8.75008E-03     88.7974E-03     56.6143E-03    -28.2643E-03    -28.3243E-03    -27.9900E-03     56.3400E-03    -28.3243E-03     9.62815E-03     73.8770E-03     104.452E+06    -9.89955E+06    -20.0405E+06    -119.010E+06    -26.1304E+06    -102.779E+06    -20.0405E+06    -38.7696E+06
            1677     89.3379E-03     9.72226E-03     88.8073E-03     56.5835E-03    -28.2445E-03    -28.2967E-03    -27.8863E-03     56.1869E-03    -28.2583E-03     11.4755E-03     79.2844E-03     101.060E+06    -5.38682E+06    -25.5460E+06    -114.774E+06    -22.7945E+06    -97.3659E+06    -25.5460E+06    -39.9639E+06
            1678     89.4620E-03     10.6953E-03     88.8204E-03     56.5130E-03    -28.1736E-03    -28.3484E-03    -27.7985E-03     55.9632E-03    -28.1736E-03     13.6021E-03     86.1532E-03     93.6047E+06    -1.20959E+06    -33.7476E+06    -106.495E+06    -19.6644E+06    -88.0398E+06    -33.7476E+06    -39.9618E+06
            1679     89.5980E-03     11.6679E-03     88.8350E-03     56.4467E-03    -28.0733E-03    -28.4189E-03    -27.7151E-03     55.7429E-03    -28.0733E-03     15.3490E-03     93.6942E-03     82.3384E+06     2.28133E+06    -44.2488E+06    -91.7199E+06    -17.2517E+06    -72.1869E+06    -44.2488E+06    -38.0389E+06
            1680     89.7458E-03     12.6410E-03     88.8511E-03     56.8113E-03    -27.9470E-03    -28.8819E-03    -27.6218E-03     55.5512E-03    -27.9470E-03     20.2881E-03     105.129E-03     71.5265E+06     6.54470E+06    -50.5609E+06    -73.1165E+06    -15.0105E+06    -44.7457E+06    -57.3766E+06    -32.6493E+06
            1681     89.9137E-03     13.6141E-03     88.8771E-03     57.4953E-03    -27.7896E-03    -29.7124E-03    -27.3677E-03     55.1505E-03    -27.7896E-03     27.9504E-03     124.299E-03     84.8939E+06     26.8447E+06    -34.1311E+06    -68.7359E+06    -13.6967E+06     6.41026E+06    -68.7359E+06    -22.5812E+06
            1682     90.0985E-03     14.5874E-03     88.9098E-03     61.3762E-03    -27.6544E-03    -33.7246E-03    -27.1250E-03     54.7765E-03    -27.6544E-03     46.5788E-03     152.351E-03     135.484E+06     85.9303E+06    -16.2173E+06    -66.2239E+06    -13.6762E+06     83.3893E+06    -66.2239E+06    -10.7827E+06
            1683     90.3239E-03     15.5611E-03     88.9734E-03     74.8211E-03    -27.8150E-03    -47.0132E-03    -27.6118E-03     55.4196E-03    -27.8150E-03     87.4535E-03     212.313E-03     172.076E+06     157.455E+06     17.6618E+06    -34.4407E+06    -12.1089E+06     157.340E+06    -4.55574E+06    -3.19940E+06
            1684     90.6157E-03     16.5356E-03     89.0943E-03     75.9139E-03    -28.2593E-03    -47.6928E-03    -27.0301E-03     55.2511E-03    -28.2593E-03     91.2199E-03     228.989E-03     188.509E+06     202.911E+06     107.458E+06    -7.19461E+06    -7.18939E+06     202.905E+06     107.458E+06    -455.545E+03
            1685     89.8155E-03     971.907E-06     89.8103E-03     57.0905E-03    -28.4540E-03    -28.6383E-03    -28.6318E-03     57.0841E-03    -28.4540E-03     1.34162E-03     57.3532E-03     113.969E+06    -43.7215E+06    -46.7674E+06    -159.174E+06    -45.7853E+06    -158.563E+06    -45.3138E+06    -7.60398E+06
            1686     89.8329E-03     1.94390E-03     89.8119E-03     57.0050E-03    -28.4718E-03    -28.5337E-03    -28.4677E-03     56.9849E-03    -28.5177E-03     2.55272E-03     57.7956E-03     101.723E+06    -42.0749E+06    -43.6975E+06    -144.596E+06    -44.3319E+06    -142.780E+06    -43.2567E+06    -13.0750E+06
            1687     89.8623E-03     2.91594E-03     89.8150E-03     56.9038E-03    -28.3891E-03    -28.5148E-03    -28.3492E-03     56.8639E-03    -28.5148E-03     3.65017E-03     58.5986E-03     103.088E+06    -35.6081E+06    -38.3421E+06    -140.030E+06    -41.6456E+06    -136.422E+06    -35.9119E+06    -18.6347E+06
            1688     89.9032E-03     3.88828E-03     89.8191E-03     56.8878E-03    -28.3790E-03    -28.5102E-03    -28.3116E-03     56.8205E-03    -28.5102E-03     4.75520E-03     59.8878E-03     107.668E+06    -27.5625E+06    -32.2047E+06    -137.468E+06    -38.0063E+06    -131.667E+06    -27.5625E+06    -23.8481E+06
            1689     89.9557E-03     4.86035E-03     89.8243E-03     56.8603E-03    -28.3702E-03    -28.4927E-03    -28.2694E-03     56.7594E-03    -28.4927E-03     5.83819E-03     61.5804E-03     105.821E+06    -22.3521E+06    -25.8464E+06    -129.860E+06    -35.0140E+06    -120.693E+06    -22.3521E+06    -29.1901E+06
            1690     90.0196E-03     5.83262E-03     89.8304E-03     56.7530E-03    -28.3016E-03    -28.4545E-03    -28.1646E-03     56.6160E-03    -28.4545E-03     6.80389E-03     63.6924E-03     104.693E+06    -19.2016E+06    -20.8657E+06    -124.716E+06    -32.8310E+06    -111.928E+06    -20.0242E+06    -34.2236E+06
            1691     90.0948E-03     6.80496E-03     89.8375E-03     56.6829E-03    -28.2727E-03    -28.4106E-03    -28.0911E-03     56.5014E-03    -28.4106E-03     7.82610E-03     66.4187E-03     105.769E+06    -15.0195E+06    -19.0553E+06    -122.727E+06    -30.2790E+06    -107.467E+06    -19.0553E+06    -37.4964E+06
            1692     90.1817E-03     7.77749E-03     89.8457E-03     56.6440E-03    -28.2670E-03    -28.3673E-03    -28.0342E-03     56.4112E-03    -28.3673E-03     8.86530E-03     69.8058E-03     105.126E+06    -9.59035E+06    -17.9180E+06    -118.609E+06    -26.7075E+06    -101.492E+06    -17.9180E+06    -39.6119E+06
            1693     90.2800E-03     8.74973E-03     89.8550E-03     56.5755E-03    -28.2269E-03    -28.3218E-03    -27.9484E-03     56.2970E-03    -28.3218E-03     9.69550E-03     73.8080E-03     104.583E+06    -4.55471E+06    -17.9113E+06    -115.123E+06    -23.3311E+06    -96.3468E+06    -17.9113E+06    -41.4849E+06
            1694     90.3892E-03     9.72259E-03     89.8648E-03     56.5793E-03    -28.2029E-03    -28.3374E-03    -27.8854E-03     56.1779E-03    -28.2535E-03     11.5483E-03     79.2377E-03     102.328E+06    -87.7475E+03    -23.7440E+06    -111.942E+06    -20.6628E+06    -91.3673E+06    -23.7440E+06    -43.2850E+06
            1695     90.5118E-03     10.6950E-03     89.8777E-03     56.5206E-03    -28.1695E-03    -28.3615E-03    -27.8077E-03     55.9668E-03    -28.1695E-03     13.6525E-03     86.1090E-03     97.5727E+06     3.73480E+06    -32.8378E+06    -106.621E+06    -18.4113E+06    -84.4745E+06    -32.8378E+06    -44.1390E+06
            1696     90.6462E-03     11.6682E-03     89.8920E-03     56.4774E-03    -28.0739E-03    -28.4474E-03    -27.7419E-03     55.7718E-03    -28.0739E-03     15.3753E-03     93.6908E-03     89.3087E+06     6.94593E+06    -43.7918E+06    -95.3275E+06    -16.2566E+06    -72.1250E+06    -43.7918E+06    -42.7593E+06
            1697     90.7928E-03     12.6407E-03     89.9086E-03     56.8467E-03    -27.9487E-03    -28.9171E-03    -27.6194E-03     55.5490E-03    -27.9487E-03     20.5495E-03     105.082E-03     79.4168E+06     9.78063E+06    -55.6725E+06    -76.9772E+06    -14.7648E+06    -49.6900E+06    -58.4143E+06    -37.8753E+06
            1698     90.9585E-03     13.6136E-03     89.9340E-03     57.3727E-03    -27.7895E-03    -29.5916E-03    -27.2520E-03     55.0331E-03    -27.7895E-03     27.9408E-03     124.119E-03     84.6693E+06     21.8729E+06    -42.1635E+06    -71.3618E+06    -13.8992E+06    -6.39136E+06    -71.3618E+06    -27.6975E+06
            1699     91.1406E-03     14.5881E-03     89.9656E-03     61.3002E-03    -27.6156E-03    -33.6898E-03    -27.0898E-03     54.7002E-03    -27.6156E-03     46.4654E-03     152.132E-03     133.289E+06     76.8493E+06    -18.5792E+06    -74.6039E+06    -13.1827E+06     71.4529E+06    -74.6039E+06    -14.8950E+06
            1700     91.3666E-03     15.5618E-03     90.0316E-03     74.9250E-03    -27.7461E-03    -47.1921E-03    -27.6562E-03     55.3892E-03    -27.7461E-03     87.8311E-03     212.334E-03     174.252E+06     152.224E+06     11.8866E+06    -42.6088E+06    -12.7334E+06     151.917E+06    -17.6816E+06    -5.44398E+06
            1701     91.6540E-03     16.5352E-03     90.1501E-03     75.8808E-03    -28.2168E-03    -47.6952E-03    -26.9311E-03     55.1166E-03    -28.2168E-03     91.3934E-03     228.951E-03     189.263E+06     200.916E+06     101.185E+06    -8.72735E+06    -8.71289E+06     200.901E+06     101.185E+06    -846.121E+03
            1702     90.8733E-03     972.143E-06     90.8681E-03     57.0248E-03    -28.4558E-03    -28.5702E-03    -28.5471E-03     57.0180E-03    -28.4721E-03     1.36368E-03     57.2901E-03     108.533E+06    -34.8888E+06    -36.6668E+06    -144.297E+06    -35.9959E+06    -143.516E+06    -36.3407E+06    -8.57117E+06
            1703     90.8910E-03     1.94406E-03     90.8702E-03     56.9623E-03    -28.4580E-03    -28.5043E-03    -28.4522E-03     56.9421E-03    -28.4899E-03     2.56837E-03     57.7515E-03     98.4936E+06    -32.2887E+06    -33.6651E+06    -131.461E+06    -34.4954E+06    -129.254E+06    -33.6651E+06    -14.1364E+06
            1704     90.9195E-03     2.91609E-03     90.8728E-03     56.9423E-03    -28.4324E-03    -28.5105E-03    -28.4097E-03     56.9003E-03    -28.4912E-03     3.72993E-03     58.6432E-03     99.2986E+06    -27.7423E+06    -29.1500E+06    -127.733E+06    -32.7471E+06    -123.479E+06    -28.3997E+06    -19.9388E+06
            1705     90.9600E-03     3.88816E-03     90.8769E-03     56.9258E-03    -28.4040E-03    -28.5235E-03    -28.3539E-03     56.8564E-03    -28.5042E-03     4.84155E-03     59.9303E-03     104.378E+06    -20.7805E+06    -23.0014E+06    -126.246E+06    -29.7472E+06    -119.481E+06    -20.7991E+06    -25.3242E+06
            1706     91.0120E-03     4.86041E-03     90.8821E-03     56.8502E-03    -28.3543E-03    -28.4986E-03    -28.2532E-03     56.7491E-03    -28.4986E-03     5.84085E-03     61.5713E-03     104.140E+06    -13.5210E+06    -15.6603E+06    -118.710E+06    -25.4315E+06    -108.792E+06    -13.6685E+06    -30.1931E+06
            1707     91.0751E-03     5.83267E-03     90.8882E-03     56.7654E-03    -28.2986E-03    -28.4689E-03    -28.1619E-03     56.6286E-03    -28.4689E-03     6.80048E-03     63.7000E-03     104.797E+06    -8.98224E+06    -10.5259E+06    -114.541E+06    -22.4528E+06    -102.031E+06    -9.56562E+06    -33.8938E+06
            1708     91.1496E-03     6.80509E-03     90.8952E-03     56.7097E-03    -28.2831E-03    -28.4212E-03    -28.0991E-03     56.5257E-03    -28.4212E-03     7.87372E-03     66.4087E-03     105.277E+06    -5.84894E+06    -10.6693E+06    -113.415E+06    -21.6246E+06    -98.0596E+06    -10.2488E+06    -37.4039E+06
            1709     91.2355E-03     7.77735E-03     90.9035E-03     56.6327E-03    -28.2518E-03    -28.3639E-03    -28.0124E-03     56.3934E-03    -28.3639E-03     8.98742E-03     69.7525E-03     105.053E+06    -1.95850E+06    -12.3710E+06    -111.809E+06    -20.6856E+06    -93.0816E+06    -12.3710E+06    -41.2775E+06
            1710     91.3326E-03     8.75007E-03     90.9125E-03     56.5366E-03    -28.1949E-03    -28.3122E-03    -27.9088E-03     56.2505E-03    -28.3122E-03     9.82339E-03     73.7305E-03     105.703E+06     2.36122E+06    -13.6947E+06    -110.410E+06    -18.5810E+06    -89.4679E+06    -13.6947E+06    -43.8296E+06
            1711     91.4405E-03     9.72261E-03     90.9222E-03     56.5458E-03    -28.1825E-03    -28.3275E-03    -27.8555E-03     56.1342E-03    -28.2429E-03     11.6901E-03     79.1528E-03     103.459E+06     6.32518E+06    -19.6349E+06    -107.442E+06    -16.6289E+06    -84.4875E+06    -19.6349E+06    -45.6299E+06
            1712     91.5621E-03     10.6955E-03     90.9352E-03     56.5460E-03    -28.1598E-03    -28.3970E-03    -27.8318E-03     55.9808E-03    -28.1598E-03     13.7972E-03     86.0961E-03     100.646E+06     9.51873E+06    -29.6490E+06    -104.602E+06    -15.4552E+06    -79.6283E+06    -29.6490E+06    -47.1685E+06
            1713     91.6943E-03     11.6679E-03     90.9489E-03     56.4860E-03    -28.0665E-03    -28.4616E-03    -27.7226E-03     55.7470E-03    -28.0665E-03     15.7175E-03     93.6148E-03     94.2521E+06     11.0965E+06    -41.7711E+06    -97.0987E+06    -15.0589E+06    -70.9433E+06    -41.7711E+06    -46.2705E+06
            1714     91.8404E-03     12.6412E-03     90.9662E-03     56.7286E-03    -27.9386E-03    -28.8097E-03    -27.5047E-03     55.4236E-03    -27.9386E-03     20.6554E-03     104.928E-03     85.3424E+06     12.2305E+06    -57.0960E+06    -81.0128E+06    -14.9227E+06    -53.4042E+06    -57.5514E+06    -42.0350E+06
            1715     92.0030E-03     13.6150E-03     90.9901E-03     57.4370E-03    -27.7717E-03    -29.6731E-03    -27.3086E-03     55.0725E-03    -27.7717E-03     28.0673E-03     124.086E-03     86.9826E+06     19.2477E+06    -49.5774E+06    -76.0093E+06    -14.3783E+06    -18.2088E+06    -73.7518E+06    -33.2895E+06
            1716     92.1848E-03     14.5872E-03     91.0234E-03     61.4068E-03    -27.5634E-03    -33.8489E-03    -27.2101E-03     54.7680E-03    -27.5634E-03     46.7250E-03     152.254E-03     133.939E+06     67.9077E+06    -24.5515E+06    -85.3816E+06    -14.1147E+06     57.4709E+06    -85.3816E+06    -19.7765E+06
            1717     92.4063E-03     15.5618E-03     91.0865E-03     74.7012E-03    -27.6529E-03    -47.0531E-03    -27.4139E-03     55.0620E-03    -27.6529E-03     87.8010E-03     212.063E-03     175.954E+06     144.423E+06     3.24643E+06    -51.1588E+06    -13.3988E+06     143.774E+06    -33.8646E+06    -7.72449E+06
            1718     92.6957E-03     16.5373E-03     91.2086E-03     75.5344E-03    -28.1386E-03    -47.4130E-03    -26.6806E-03     54.8020E-03    -28.1386E-03     90.9497E-03     228.304E-03     189.189E+06     197.911E+06     92.7773E+06    -9.28159E+06    -9.25076E+06     197.880E+06     92.7773E+06    -1.95389E+06
            1719     91.9312E-03     971.843E-06     91.9260E-03     57.0169E-03    -28.4057E-03    -28.6123E-03    -28.5601E-03     57.0110E-03    -28.4519E-03     1.28444E-03     57.2749E-03     106.453E+06    -20.9961E+06    -22.2412E+06    -128.063E+06    -22.3944E+06    -127.256E+06    -21.6498E+06    -8.46563E+06
            1720     91.9487E-03     1.94416E-03     91.9281E-03     56.8810E-03    -28.4080E-03    -28.4745E-03    -28.3884E-03     56.8614E-03    -28.4745E-03     2.50919E-03     57.6682E-03     96.9018E+06    -19.2506E+06    -21.3329E+06    -117.173E+06    -22.0798E+06    -114.609E+06    -21.0675E+06    -14.9914E+06
            1721     91.9770E-03     2.91635E-03     91.9307E-03     56.9274E-03    -28.4410E-03    -28.4885E-03    -28.4176E-03     56.8847E-03    -28.4693E-03     3.76362E-03     58.6312E-03     99.0423E+06    -14.9745E+06    -17.4060E+06    -115.198E+06    -20.7343E+06    -110.685E+06    -16.1593E+06    -20.6092E+06
            1722     92.0172E-03     3.88831E-03     91.9350E-03     56.9306E-03    -28.4279E-03    -28.5047E-03    -28.3754E-03     56.8588E-03    -28.4854E-03     4.91927E-03     59.9317E-03     103.183E+06    -9.01295E+06    -11.6275E+06    -113.469E+06    -18.4273E+06    -105.894E+06    -9.78733E+06    -26.3883E+06
            1723     92.0682E-03     4.86048E-03     91.9398E-03     56.8087E-03    -28.3359E-03    -28.4752E-03    -28.2314E-03     56.7042E-03    -28.4752E-03     5.94010E-03     61.5276E-03     103.794E+06    -3.72786E+06    -5.37542E+06    -108.331E+06    -15.4453E+06    -97.2073E+06    -4.78193E+06    -32.1052E+06
            1724     92.1311E-03     5.83291E-03     91.9462E-03     56.7422E-03    -28.2871E-03    -28.4568E-03    -28.1455E-03     56.6007E-03    -28.4568E-03     6.91374E-03     63.6587E-03     107.190E+06     1.21289E+06    -101.327E+03    -106.626E+06    -11.7502E+06    -94.0836E+06     319.117E+03    -34.4838E+06
            1725     92.2043E-03     6.80521E-03     91.9528E-03     56.6764E-03    -28.2525E-03    -28.4171E-03    -28.0626E-03     56.4865E-03    -28.4171E-03     7.99723E-03     66.3409E-03     106.446E+06     6.07323E+06     1.43692E+06    -102.584E+06    -8.77760E+06    -88.1540E+06     1.85737E+06    -36.6936E+06
            1726     92.2894E-03     7.77789E-03     91.9610E-03     56.5830E-03    -28.2075E-03    -28.3566E-03    -27.9604E-03     56.3359E-03    -28.3566E-03     9.12525E-03     69.6750E-03     106.023E+06     9.22072E+06    -631.768E+03    -101.355E+06    -8.42289E+06    -83.7112E+06    -631.768E+03    -40.4043E+06
            1727     92.3851E-03     8.75033E-03     91.9698E-03     56.5034E-03    -28.1917E-03    -28.2958E-03    -27.8926E-03     56.2043E-03    -28.2958E-03     10.0392E-03     73.6751E-03     107.119E+06     12.2640E+06    -4.75503E+06    -102.270E+06    -8.97978E+06    -81.0263E+06    -4.75503E+06    -44.4253E+06
            1728     92.4921E-03     9.72301E-03     91.9797E-03     56.4853E-03    -28.1826E-03    -28.2918E-03    -27.8194E-03     56.0525E-03    -28.2222E-03     11.9783E-03     79.0499E-03     105.909E+06     15.2445E+06    -12.3974E+06    -101.585E+06    -8.64147E+06    -77.6986E+06    -12.3974E+06    -47.1066E+06
            1729     92.6119E-03     10.6957E-03     91.9922E-03     56.4829E-03    -28.1421E-03    -28.3623E-03    -27.7709E-03     55.8915E-03    -28.1421E-03     14.1031E-03     86.0080E-03     101.771E+06     15.4212E+06    -22.7529E+06    -99.7571E+06    -9.58437E+06    -74.7515E+06    -22.7529E+06    -47.4631E+06
            1730     92.7435E-03     11.6689E-03     92.0064E-03     56.4734E-03    -28.0445E-03    -28.4701E-03    -27.7087E-03     55.7121E-03    -28.0445E-03     15.9602E-03     93.5006E-03     96.0019E+06     15.2561E+06    -36.0054E+06    -94.8665E+06    -11.7774E+06     -67.833E+06    -36.0054E+06    -47.3187E+06
            1731     92.8867E-03     12.6417E-03     92.0225E-03     56.7992E-03    -27.9160E-03    -28.9028E-03    -27.5907E-03     55.4871E-03    -27.9160E-03     20.7561E-03     104.904E-03     90.6093E+06     16.5587E+06    -53.6775E+06    -84.0881E+06    -12.8212E+06    -54.7082E+06    -53.6775E+06    -45.6563E+06
            1732     93.0487E-03     13.6143E-03     92.0474E-03     57.4096E-03    -27.7474E-03    -29.6694E-03    -27.2987E-03     55.0390E-03    -27.7474E-03     28.0847E-03     124.018E-03     91.2919E+06     20.5333E+06    -53.8904E+06    -80.3036E+06    -12.5365E+06    -27.6446E+06    -73.4796E+06    -38.9010E+06
            1733     93.2279E-03     14.5893E-03     92.0793E-03     61.4783E-03    -27.5103E-03    -33.9711E-03    -27.2466E-03     54.7539E-03    -27.5103E-03     47.0644E-03     152.118E-03     132.044E+06     59.2808E+06    -29.2349E+06    -92.1971E+06    -11.5339E+06     41.5798E+06    -92.1971E+06    -25.5427E+06
            1734     93.4491E-03     15.5620E-03     92.1442E-03     74.6086E-03    -27.5611E-03    -47.0375E-03    -27.4423E-03     55.0133E-03    -27.5611E-03     87.7101E-03     211.903E-03     172.234E+06     133.691E+06    -3.35212E+06    -55.2970E+06    -10.3316E+06     132.099E+06    -46.7251E+06    -10.9038E+06
            1735     93.7326E-03     16.5366E-03     92.2623E-03     75.2511E-03    -28.0526E-03    -47.1958E-03    -26.4007E-03     54.4559E-03    -28.0526E-03     90.9423E-03     228.143E-03     186.452E+06     194.235E+06     84.6972E+06    -6.77192E+06    -6.71097E+06     194.174E+06     84.6972E+06    -2.55764E+06
            1736     92.9897E-03     972.170E-06     92.9846E-03     56.9544E-03    -28.3934E-03    -28.5606E-03    -28.5008E-03     56.9489E-03    -28.4478E-03     1.14581E-03     57.2032E-03     103.058E+06    -7.87267E+06    -9.42487E+06    -111.693E+06    -9.09440E+06    -110.736E+06    -9.15952E+06    -8.60881E+06
            1737     93.0060E-03     1.94419E-03     92.9857E-03     56.8842E-03    -28.4175E-03    -28.4685E-03    -28.3993E-03     56.8637E-03    -28.4663E-03     2.54886E-03     57.6683E-03     96.8151E+06    -3.80486E+06    -6.52984E+06    -101.948E+06    -7.75898E+06    -99.3088E+06    -5.21512E+06    -15.4027E+06
            1738     93.0349E-03     2.91633E-03     92.9892E-03     56.8549E-03    -28.3926E-03    -28.4640E-03    -28.3496E-03     56.8119E-03    -28.4640E-03     3.78732E-03     58.5466E-03     102.044E+06     1.52080E+06    -2.11679E+06    -102.289E+06    -5.50478E+06    -97.5598E+06     179.292E+03    -21.2302E+06
            1739     93.0743E-03     3.88863E-03     92.9930E-03     56.7863E-03    -28.3456E-03    -28.4421E-03    -28.2720E-03     56.7127E-03    -28.4421E-03     4.96371E-03     59.7538E-03     104.247E+06     6.64056E+06     2.81292E+06    -99.4613E+06    -2.51461E+06    -91.5529E+06     4.05963E+06    -27.3224E+06
            1740     93.1251E-03     4.86095E-03     92.9981E-03     56.7254E-03    -28.3096E-03    -28.4181E-03    -28.2015E-03     56.6172E-03    -28.4181E-03     6.04377E-03     61.4132E-03     105.087E+06     9.52356E+06     7.06541E+06    -96.7575E+06    -1.25115E+06    -86.2195E+06     7.30218E+06    -31.6436E+06
            1741     93.1863E-03     5.83321E-03     93.0035E-03     56.6174E-03    -28.2245E-03    -28.3955E-03    -28.0744E-03     56.4673E-03    -28.3955E-03     7.10328E-03     63.4937E-03     109.369E+06     12.5326E+06     9.90355E+06    -98.1080E+06    -544.845E+03    -85.2673E+06     10.1403E+06    -35.2255E+06
            1742     93.2594E-03     6.80586E-03     93.0108E-03     56.4948E-03    -28.1493E-03    -28.3432E-03    -27.9452E-03     56.2907E-03    -28.3432E-03     8.27951E-03     66.0877E-03     108.336E+06     16.5901E+06     10.3956E+06    -94.6838E+06     1.72251E+06    -79.8162E+06     10.3956E+06    -37.8497E+06
            1743     93.3429E-03     7.77832E-03     93.0182E-03     56.4369E-03    -28.1457E-03    -28.2877E-03    -27.8783E-03     56.1696E-03    -28.2877E-03     9.46908E-03     69.4204E-03     106.918E+06     20.1993E+06     9.62270E+06    -91.5728E+06     3.77119E+06    -75.1447E+06     9.62270E+06    -39.5342E+06
            1744     93.4383E-03     8.75114E-03     93.0275E-03     56.3590E-03    -28.1377E-03    -28.2248E-03    -27.8106E-03     56.0318E-03    -28.2248E-03     10.4822E-03     73.3886E-03     106.648E+06     23.4296E+06     5.66761E+06    -90.9106E+06     3.63735E+06    -71.1184E+06     5.66761E+06    -43.1722E+06
            1745     93.5435E-03     9.72388E-03     93.0367E-03     56.3905E-03    -28.1162E-03    -28.2741E-03    -27.7730E-03     55.9216E-03    -28.1485E-03     12.4626E-03     78.7902E-03     106.398E+06     23.4632E+06    -3.71923E+06    -93.7805E+06     1.24305E+06    -71.5604E+06    -3.71923E+06    -45.9107E+06
            1746     93.6627E-03     10.6968E-03     93.0499E-03     56.4672E-03    -28.0693E-03    -28.4109E-03    -27.7808E-03     55.8371E-03    -28.0693E-03     14.5605E-03     85.7509E-03     101.993E+06     21.7286E+06    -15.1269E+06    -93.3964E+06    -1.51478E+06    -70.1530E+06    -15.1269E+06    -46.1683E+06
            1747     93.7920E-03     11.6695E-03     93.0632E-03     56.4875E-03    -27.9764E-03    -28.5300E-03    -27.7339E-03     55.6913E-03    -27.9764E-03     16.3247E-03     93.3024E-03     97.0697E+06     22.4047E+06    -28.3441E+06    -88.9502E+06    -3.78940E+06    -62.7561E+06    -28.3441E+06    -47.1252E+06
            1748     93.9348E-03     12.6425E-03     93.0802E-03     56.8173E-03    -27.8563E-03    -28.9688E-03    -27.5902E-03     55.4387E-03    -27.8563E-03     21.2636E-03     104.644E-03     94.5582E+06     23.3987E+06    -47.0243E+06    -82.9189E+06    -5.95173E+06    -53.5685E+06    -47.0243E+06    -47.4558E+06
            1749     94.0942E-03     13.6160E-03     93.1038E-03     57.5742E-03    -27.6965E-03    -29.8832E-03    -27.4413E-03     55.1323E-03    -27.6965E-03     28.5995E-03     123.908E-03     95.4677E+06     24.3273E+06    -55.4680E+06    -81.2530E+06    -8.15770E+06    -33.8417E+06    -70.3943E+06    -42.8838E+06
            1750     94.2713E-03     14.5885E-03     93.1357E-03     61.5446E-03    -27.4652E-03    -34.0791E-03    -27.2325E-03     54.6980E-03    -27.4652E-03     47.4468E-03     152.034E-03     127.071E+06     51.2061E+06    -35.2623E+06    -93.6356E+06    -9.90838E+06     25.8522E+06    -93.6356E+06    -31.3690E+06
            1751     94.4916E-03     15.5634E-03     93.2011E-03     74.4777E-03    -27.4600E-03    -47.0088E-03    -27.2998E-03     54.7686E-03    -27.4600E-03     87.9370E-03     211.619E-03     165.303E+06     119.524E+06    -11.3793E+06    -60.6472E+06    -9.99816E+06     116.029E+06    -58.5331E+06    -15.0155E+06
            1752     94.7722E-03     16.5385E-03     93.3180E-03     75.1426E-03    -27.9308E-03    -47.1871E-03    -26.2495E-03     54.2050E-03    -27.9308E-03     91.2184E-03     227.891E-03     185.395E+06     188.518E+06     76.7474E+06    -10.6043E+06    -6.77896E+06     188.400E+06     73.0406E+06    -2.96450E+06
            1753     94.0470E-03     972.113E-06     94.0419E-03     56.7837E-03    -28.2981E-03    -28.4848E-03    -28.4531E-03     56.7765E-03    -28.3226E-03     1.28401E-03     57.0326E-03     98.3137E+06     5.30780E+06     3.18969E+06    -94.0459E+06     3.81688E+06    -92.8258E+06     3.46051E+06    -10.0898E+06
            1754     94.0644E-03     1.94437E-03     94.0443E-03     56.7742E-03    -28.3614E-03    -28.4140E-03    -28.3679E-03     56.7518E-03    -28.3852E-03     2.70097E-03     57.5500E-03     94.1403E+06     8.43820E+06     5.20406E+06    -87.2747E+06     4.53995E+06    -84.4258E+06     6.25344E+06    -15.9648E+06
            1755     94.0920E-03     2.91654E-03     94.0468E-03     56.6684E-03    -28.2845E-03    -28.3847E-03    -28.2379E-03     56.6218E-03    -28.3847E-03     3.91702E-03     58.3337E-03     100.177E+06     14.1793E+06     10.5075E+06    -87.7791E+06     7.47558E+06    -82.1248E+06     11.5569E+06    -22.8145E+06
            1756     94.1312E-03     3.88900E-03     94.0509E-03     56.5395E-03    -28.1919E-03    -28.3477E-03    -28.1124E-03     56.4599E-03    -28.3477E-03     5.15592E-03     59.4661E-03     104.161E+06     18.9511E+06     15.1853E+06    -87.0362E+06     10.4922E+06    -78.5774E+06     15.1853E+06    -28.6404E+06
            1757     94.1812E-03     4.86148E-03     94.0557E-03     56.4567E-03    -28.1422E-03    -28.3154E-03    -28.0244E-03     56.3389E-03    -28.3154E-03     6.27793E-03     61.0684E-03     108.096E+06     23.3615E+06     19.3053E+06    -86.6894E+06     13.1395E+06    -76.7042E+06     19.5420E+06    -31.5312E+06
            1758     94.2423E-03     5.83405E-03     94.0616E-03     56.3560E-03    -28.0812E-03    -28.2767E-03    -27.9151E-03     56.1898E-03    -28.2767E-03     7.45191E-03     63.1392E-03     112.015E+06     27.9774E+06     23.0129E+06    -86.4183E+06     15.4981E+06    -74.1759E+06     23.2497E+06    -35.1608E+06
            1759     94.3136E-03     6.80676E-03     94.0676E-03     56.2411E-03    -28.0263E-03    -28.2135E-03    -27.7959E-03     56.0108E-03    -28.2135E-03     8.76642E-03     65.7163E-03     113.357E+06     30.8250E+06     22.1632E+06    -86.5931E+06     16.4544E+06    -72.2225E+06     22.1632E+06    -38.4040E+06
            1760     94.3973E-03     7.77971E-03     94.0762E-03     56.1587E-03    -28.0090E-03    -28.1462E-03    -27.7040E-03     55.8538E-03    -28.1462E-03     10.0879E-03     68.9470E-03     111.019E+06     33.3554E+06     19.8062E+06    -83.7901E+06     17.2825E+06    -67.7171E+06     19.8062E+06    -40.2167E+06
            1761     94.4905E-03     8.75250E-03     94.0843E-03     56.1466E-03    -28.0258E-03    -28.1172E-03    -27.6844E-03     55.7735E-03    -28.0854E-03     11.1694E-03     72.9187E-03     107.752E+06     34.4798E+06     17.4643E+06    -80.7339E+06     17.0168E+06    -63.2709E+06     17.4643E+06    -41.2300E+06
            1762     94.5956E-03     9.72544E-03     94.0943E-03     56.2758E-03    -28.0099E-03    -28.2661E-03    -27.7354E-03     55.7533E-03    -28.0181E-03     13.1562E-03     78.4079E-03     106.571E+06     32.8475E+06     8.30334E+06    -83.6628E+06     14.2864E+06    -65.1017E+06     8.30334E+06    -42.5353E+06
            1763     94.7126E-03     10.6982E-03     94.1065E-03     56.4044E-03    -27.9354E-03    -28.4824E-03    -27.7767E-03     55.6987E-03    -27.9354E-03     15.3882E-03     85.3020E-03     104.133E+06     31.9825E+06    -5.44577E+06    -85.4710E+06     11.0092E+06    -64.4976E+06    -5.44577E+06    -44.8770E+06
            1764     94.8418E-03     11.6712E-03     94.1210E-03     56.4408E-03    -27.8561E-03    -28.5982E-03    -27.7113E-03     55.5539E-03    -27.8561E-03     17.2306E-03     92.8856E-03     98.2180E+06     31.1610E+06    -18.7655E+06    -81.6114E+06     7.45988E+06    -57.9103E+06    -18.7655E+06    -45.8155E+06
            1765     94.9818E-03     12.6442E-03     94.1364E-03     56.8038E-03    -27.7565E-03    -29.0533E-03    -27.5899E-03     55.3405E-03    -27.7565E-03     21.9461E-03     104.254E-03     92.8402E+06     28.4798E+06    -36.5832E+06    -76.9389E+06     2.07355E+06    -50.5327E+06    -36.5832E+06    -45.5507E+06
            1766     95.1404E-03     13.6174E-03     94.1608E-03     57.7572E-03    -27.6011E-03    -30.1589E-03    -27.5760E-03     55.1744E-03    -27.6011E-03     29.4553E-03     123.684E-03     94.8443E+06     27.0741E+06    -53.1524E+06    -77.3526E+06    -3.44233E+06    -36.6214E+06    -63.3672E+06    -43.7006E+06
            1767     95.3162E-03     14.5908E-03     94.1928E-03     61.6231E-03    -27.3778E-03    -34.2437E-03    -27.3568E-03     54.7362E-03    -27.3778E-03     47.8163E-03     151.894E-03     121.544E+06     44.5073E+06    -39.8058E+06    -92.4671E+06    -7.59116E+06     12.2926E+06    -92.4671E+06    -34.8761E+06
            1768     95.5318E-03     15.5649E-03     94.2553E-03     74.4291E-03    -27.3183E-03    -47.1143E-03    -27.1955E-03     54.5103E-03    -27.3183E-03     88.2212E-03     211.376E-03     158.702E+06     103.145E+06    -16.1030E+06    -72.7304E+06    -10.2058E+06     97.2482E+06    -72.7304E+06    -18.5259E+06
            1769     95.8134E-03     16.5397E-03     94.3751E-03     74.8951E-03    -27.7646E-03    -47.1113E-03    -26.0414E-03     53.8252E-03    -27.7646E-03     91.2010E-03     227.282E-03     184.685E+06     179.883E+06     72.0590E+06    -22.2399E+06    -7.76506E+06     179.589E+06     57.8781E+06    -4.51835E+06
            1770     95.1054E-03     972.529E-06     95.1004E-03     56.4394E-03    -28.0781E-03    -28.3615E-03    -28.3527E-03     56.4305E-03    -28.0781E-03     1.55472E-03     56.6866E-03     96.6379E+06     22.5041E+06     20.7695E+06    -74.9872E+06     20.8156E+06    -73.8491E+06     21.3198E+06     -9.5044E+06
            1771     95.1219E-03     1.94464E-03     95.1020E-03     56.4164E-03    -28.1755E-03    -28.2415E-03    -28.1884E-03     56.3902E-03    -28.2023E-03     2.90682E-03     57.1742E-03     94.8478E+06     25.6938E+06     21.5724E+06    -71.1337E+06     22.2660E+06    -67.7059E+06     21.5724E+06    -17.4708E+06
            1772     95.1495E-03     2.91721E-03     95.1047E-03     56.2983E-03    -28.1095E-03    -28.1888E-03    -28.0541E-03     56.2429E-03    -28.1888E-03     4.25030E-03     57.9255E-03     100.211E+06     30.5664E+06     24.9286E+06    -72.3386E+06     24.0083E+06    -65.7804E+06     24.9286E+06    -24.9202E+06
            1773     95.1878E-03     3.88972E-03     95.1083E-03     56.1483E-03    -27.9850E-03    -28.1625E-03    -27.8909E-03     56.0542E-03    -28.1625E-03     5.58236E-03     59.0261E-03     107.861E+06     34.5488E+06     30.0353E+06    -75.4911E+06     25.8545E+06    -66.7968E+06     30.0353E+06    -29.6718E+06
            1774     95.2374E-03     4.86248E-03     95.1132E-03     55.9476E-03    -27.8432E-03    -28.1043E-03    -27.7000E-03     55.8045E-03    -28.1043E-03     6.86958E-03     60.4573E-03     112.988E+06     39.0738E+06     32.0267E+06    -77.2066E+06     28.3699E+06    -66.5027E+06     32.0267E+06    -33.5174E+06
            1775     95.2973E-03     5.83555E-03     95.1184E-03     55.8585E-03    -27.8208E-03    -28.0382E-03    -27.6164E-03     55.6541E-03    -28.0382E-03     8.21765E-03     62.4616E-03     115.465E+06     43.2773E+06     34.3994E+06    -76.3315E+06      30.927E+06    -63.9813E+06     34.3994E+06    -36.3949E+06
            1776     95.3686E-03     6.80846E-03     95.1253E-03     55.8167E-03    -27.8327E-03    -27.9809E-03    -27.5539E-03     55.5379E-03    -27.9809E-03     9.59420E-03     65.0513E-03     118.770E+06     46.3608E+06     35.5623E+06    -77.3871E+06     32.8259E+06    -63.8522E+06     35.5623E+06    -38.5942E+06
            1777     95.4501E-03     7.78154E-03     95.1324E-03     55.7472E-03    -27.8128E-03    -27.9245E-03    -27.4621E-03     55.3752E-03    -27.9033E-03     11.0759E-03     68.2100E-03     116.341E+06     47.6226E+06     31.6961E+06    -75.8411E+06     32.8416E+06    -61.0600E+06     31.6961E+06    -40.0336E+06
            1778     95.5435E-03     8.75484E-03     95.1415E-03     55.7951E-03    -27.8208E-03    -27.9743E-03    -27.4867E-03     55.3313E-03    -27.8445E-03     12.3869E-03     72.1366E-03     112.676E+06     46.4709E+06     28.8056E+06    -73.9774E+06     31.5844E+06    -59.0908E+06     28.8056E+06    -39.5809E+06
            1779     95.6469E-03     9.72773E-03     95.1509E-03     56.0168E-03    -27.7877E-03    -28.2426E-03    -27.5986E-03     55.3728E-03    -27.7877E-03     14.5576E-03     77.5986E-03     109.622E+06     45.7081E+06     21.3756E+06    -73.8501E+06     30.1389E+06    -58.2809E+06     21.3756E+06    -40.1740E+06
            1780     95.7637E-03     10.7009E-03     95.1639E-03     56.2149E-03    -27.7131E-03    -28.5174E-03    -27.6681E-03     55.3656E-03    -27.7131E-03     16.8423E-03     84.4934E-03     105.639E+06     42.9177E+06     7.38848E+06    -75.7640E+06     25.9494E+06    -58.7957E+06     7.38848E+06    -41.3443E+06
            1781     95.8905E-03     11.6739E-03     95.1773E-03     56.3711E-03    -27.6480E-03    -28.7415E-03    -27.7069E-03     55.3365E-03    -27.6480E-03     18.6043E-03     92.1060E-03     96.7602E+06     37.4381E+06    -7.38354E+06    -73.3070E+06     18.6593E+06    -54.5282E+06    -7.38354E+06    -41.2709E+06
            1782     96.0302E-03     12.6470E-03     95.1938E-03     56.9473E-03    -27.5770E-03    -29.3775E-03    -27.7477E-03     55.3175E-03    -27.5770E-03     23.2344E-03     103.750E-03     88.9844E+06     33.3899E+06    -24.3853E+06    -68.3733E+06     11.4776E+06    -46.4610E+06    -24.3853E+06    -41.6329E+06
            1783     96.1865E-03     13.6198E-03     95.2174E-03     57.8648E-03    -27.4336E-03    -30.4283E-03    -27.6266E-03     55.0631E-03    -27.4336E-03     30.7068E-03     123.069E-03     91.7668E+06     31.2976E+06    -45.7020E+06    -69.6124E+06     5.15066E+06    -35.8557E+06    -53.3117E+06    -41.5725E+06
            1784     96.3610E-03     14.5931E-03     95.2496E-03     61.7767E-03    -27.2251E-03    -34.5478E-03    -27.4657E-03     54.6946E-03    -27.2251E-03     48.7551E-03     151.283E-03     111.740E+06     38.5057E+06    -39.5192E+06    -86.3535E+06    -1.58508E+06     571.583E+03    -86.3535E+06    -34.8315E+06
            1785     96.5743E-03     15.5667E-03     95.3115E-03     74.7230E-03    -27.1326E-03    -47.6262E-03    -27.5148E-03     54.6116E-03    -27.1326E-03     88.9196E-03     211.186E-03     149.366E+06     87.8157E+06    -15.9925E+06    -81.1687E+06    -7.30823E+06     79.1314E+06    -81.1687E+06    -19.9447E+06
            1786     96.8525E-03     16.5428E-03     95.4293E-03     74.7855E-03    -27.5514E-03    -47.2518E-03    -26.0264E-03     53.5602E-03    -27.5514E-03     91.5158E-03     227.005E-03     182.442E+06     170.317E+06     69.5826E+06    -33.6651E+06    -7.24592E+06     169.850E+06     43.6309E+06    -6.34634E+06
            1787     96.1627E-03     972.595E-06     96.1578E-03     55.7815E-03    -27.7798E-03    -28.0018E-03    -27.9542E-03     55.7708E-03    -27.8167E-03     1.78092E-03     56.0201E-03     94.3574E+06     40.4372E+06     36.7642E+06    -55.6796E+06     38.7600E+06     -54.282E+06     37.0438E+06    -9.97056E+06
            1788     96.1793E-03     1.94550E-03     96.1596E-03     55.6536E-03    -27.7888E-03    -27.8647E-03    -27.7689E-03     55.6213E-03    -27.8522E-03     3.17964E-03     56.3818E-03     93.3790E+06     43.3818E+06     37.8590E+06    -52.6198E+06     39.1429E+06    -48.3809E+06     37.8590E+06    -19.2474E+06
            1789     96.2060E-03     2.91826E-03     96.1618E-03     55.5201E-03    -27.7103E-03    -27.8099E-03    -27.6395E-03     55.4493E-03    -27.8099E-03     4.77236E-03     57.0853E-03     100.293E+06     46.4424E+06     39.1096E+06    -57.3053E+06     39.3347E+06    -50.1976E+06     39.1096E+06    -26.1160E+06
            1790     96.2443E-03     3.89125E-03     96.1656E-03     55.3280E-03    -27.5666E-03    -27.7612E-03    -27.4442E-03     55.2056E-03    -27.7612E-03     6.29989E-03     58.0917E-03     109.863E+06     50.5492E+06     42.1737E+06    -63.2159E+06     41.0395E+06    -53.7063E+06     42.1737E+06    -31.4023E+06
            1791     96.2925E-03     4.86458E-03     96.1696E-03     55.1520E-03    -27.4603E-03    -27.6911E-03    -27.2707E-03     54.9624E-03    -27.6911E-03     7.83636E-03     59.4856E-03     116.812E+06     55.2693E+06     43.9105E+06    -66.7391E+06     43.5974E+06    -55.0672E+06     43.9105E+06    -35.8055E+06
            1792     96.3523E-03     5.83790E-03     96.1753E-03     55.0321E-03    -27.4210E-03    -27.6113E-03    -27.1451E-03     54.7562E-03    -27.6113E-03     9.45111E-03     61.3432E-03     120.405E+06     58.4891E+06     44.5850E+06    -68.2283E+06     45.5725E+06    -55.3117E+06     44.5850E+06    -38.3372E+06
            1793     96.4222E-03     6.81146E-03     96.1814E-03     55.0251E-03    -27.4509E-03    -27.5731E-03    -27.0990E-03     54.6476E-03    -27.5474E-03     11.0617E-03     63.8304E-03     123.348E+06     60.1143E+06     45.9570E+06    -69.6582E+06     46.7240E+06    -56.2679E+06     45.9570E+06    -39.4453E+06
            1794     96.5035E-03     7.78502E-03     96.1890E-03     55.0869E-03    -27.4619E-03    -27.6194E-03    -27.1019E-03     54.5849E-03    -27.4773E-03     12.7680E-03     66.9955E-03     121.399E+06     59.5218E+06     42.9457E+06    -69.2924E+06     46.3872E+06    -56.1578E+06     42.9457E+06    -38.9203E+06
            1795     96.5954E-03     8.75842E-03     96.1975E-03     55.1969E-03    -27.4227E-03    -27.7748E-03    -27.1380E-03     54.5601E-03    -27.4227E-03     14.4056E-03     70.7937E-03     118.379E+06     59.0496E+06     39.4797E+06    -67.8854E+06     45.5747E+06    -54.4105E+06     39.4797E+06    -39.0495E+06
            1796     96.6984E-03     9.73210E-03     96.2075E-03     55.5328E-03    -27.3784E-03    -28.1537E-03    -27.2956E-03     54.6747E-03    -27.3784E-03     16.7389E-03     76.1604E-03     114.917E+06     57.0661E+06     33.4317E+06     -67.761E+06     43.7163E+06    -54.4112E+06     33.4317E+06    -38.4250E+06
            1797     96.8134E-03     10.7053E-03     96.2197E-03     55.9460E-03    -27.3280E-03    -28.6197E-03    -27.5299E-03     54.8563E-03    -27.3280E-03     19.0178E-03     83.1521E-03     108.058E+06     51.7342E+06     20.9418E+06    -68.2003E+06     39.3206E+06    -55.7867E+06     20.9418E+06    -36.3551E+06
            1798     96.9401E-03     11.6784E-03     96.2341E-03     56.3362E-03    -27.2892E-03    -29.0615E-03    -27.7510E-03     55.0257E-03    -27.2892E-03     20.9137E-03     90.8067E-03     97.8614E+06     47.1274E+06     6.52081E+06    -64.1874E+06     33.7037E+06    -50.7638E+06     6.52081E+06    -35.8974E+06
            1799     97.0782E-03     12.6512E-03     96.2503E-03     57.0958E-03    -27.2485E-03    -29.8498E-03    -27.8973E-03     55.1434E-03    -27.2485E-03     25.5232E-03     102.604E-03     88.0946E+06     42.6541E+06    -10.6858E+06    -58.3070E+06     26.5822E+06    -42.2351E+06    -10.6858E+06    -36.4607E+06
            1800     97.2334E-03     13.6243E-03     96.2742E-03     58.0961E-03    -27.1464E-03    -30.9425E-03    -27.8204E-03     54.9740E-03    -27.1464E-03     32.5542E-03     121.964E-03     85.4515E+06     35.2215E+06    -35.8840E+06    -58.4364E+06     16.5586E+06    -34.6094E+06    -41.0482E+06    -35.6874E+06
            1801     97.4056E-03     14.5976E-03     96.3055E-03     62.1952E-03    -26.9770E-03    -35.2126E-03    -27.7559E-03     54.7384E-03    -26.9770E-03     50.3573E-03     150.529E-03     99.4166E+06     32.7009E+06    -35.9452E+06    -77.4456E+06     4.92952E+06    -8.17379E+06    -77.4456E+06    -30.5557E+06
            1802     97.6177E-03     15.5719E-03     96.3677E-03     75.1208E-03    -26.8547E-03    -48.2965E-03    -28.0028E-03     54.8271E-03    -26.8547E-03     89.8731E-03     210.757E-03     140.613E+06     74.5012E+06    -14.3821E+06    -86.3929E+06    -3.86532E+06     63.9845E+06    -86.3929E+06    -19.2888E+06
            1803     97.8930E-03     16.5451E-03     96.4847E-03     74.6811E-03    -27.2592E-03    -47.4427E-03    -26.1673E-03     53.4057E-03    -27.2592E-03     91.7443E-03     226.565E-03     178.118E+06     160.130E+06     66.5118E+06    -41.7712E+06    -5.47195E+06     159.505E+06     30.8373E+06    -7.19663E+06
            1804     97.2193E-03     973.173E-06     97.2144E-03     54.5527E-03    -27.1972E-03    -27.3560E-03    -27.3033E-03     54.5369E-03    -27.2342E-03     2.10279E-03     54.7786E-03     90.5337E+06     57.7070E+06     53.4699E+06    -34.8536E+06     55.9541E+06    -33.1007E+06     53.4699E+06    -11.5250E+06
            1805     97.2353E-03     1.94659E-03     97.2158E-03     54.3510E-03    -27.1253E-03    -27.2255E-03    -27.0866E-03     54.3045E-03    -27.2177E-03     3.76646E-03     55.0391E-03     89.0163E+06     58.4088E+06     52.6739E+06    -33.3304E+06     53.8509E+06    -28.7725E+06     52.6739E+06    -19.6584E+06
            1806     97.2623E-03     2.92013E-03     97.2185E-03     54.1629E-03    -27.0086E-03    -27.1546E-03    -26.9115E-03     54.0658E-03    -27.1546E-03     5.51188E-03     55.6308E-03     99.5656E+06     61.6031E+06     53.4873E+06    -41.7601E+06     54.0850E+06    -34.2420E+06     53.4873E+06    -26.7928E+06
            1807     97.2991E-03     3.89401E-03     97.2211E-03     53.9599E-03    -26.8933E-03    -27.0672E-03    -26.7209E-03     53.7875E-03    -27.0672E-03     7.35734E-03     56.5216E-03     108.772E+06     65.4456E+06     52.4127E+06     -49.222E+06     54.7061E+06    -38.4824E+06     52.4127E+06    -33.3060E+06
            1808     97.3472E-03     4.86781E-03     97.2255E-03     53.8197E-03    -26.8355E-03    -26.9835E-03    -26.5612E-03     53.5453E-03    -26.9835E-03     9.28353E-03     57.8318E-03     117.660E+06     68.5047E+06     52.3062E+06    -56.3935E+06     55.5468E+06    -43.4356E+06     52.3062E+06    -38.0774E+06
            1809     97.4055E-03     5.84193E-03     97.2301E-03     53.7195E-03    -26.7977E-03    -26.9214E-03    -26.4130E-03     53.3139E-03    -26.9005E-03     11.2819E-03     59.5592E-03     122.707E+06     70.1227E+06     51.8797E+06    -60.6610E+06     56.5036E+06    -47.0420E+06     51.8797E+06    -39.9353E+06
            1810     97.4754E-03     6.81624E-03     97.2368E-03     53.7395E-03    -26.7899E-03    -26.9517E-03    -26.3483E-03     53.1743E-03    -26.8281E-03     13.3257E-03     61.8812E-03     125.674E+06     69.5656E+06     51.9376E+06    -63.9541E+06     56.3869E+06    -50.7755E+06     51.9376E+06    -39.7757E+06
            1811     97.5556E-03     7.79037E-03     97.2440E-03     53.9507E-03    -26.7606E-03    -27.1906E-03    -26.4324E-03     53.1925E-03    -26.7606E-03     15.4589E-03     64.9720E-03     124.945E+06     68.3584E+06     49.6817E+06    -64.7970E+06     55.9103E+06    -52.3489E+06     49.6817E+06    -38.7444E+06
            1812     97.6469E-03     8.76460E-03     97.2528E-03     54.2722E-03    -26.7115E-03    -27.5574E-03    -26.5976E-03     53.3124E-03    -26.7115E-03     17.4780E-03     68.7019E-03     119.219E+06     66.5761E+06     46.1148E+06    -61.5218E+06     54.2347E+06    -49.1804E+06     46.1148E+06    -37.7250E+06
            1813     97.7489E-03     9.73844E-03     97.2625E-03     54.8483E-03    -26.6952E-03    -28.1450E-03    -26.8840E-03     53.5872E-03    -26.6952E-03     20.1129E-03     74.0131E-03     117.395E+06     61.9290E+06     40.2348E+06    -64.7687E+06     50.7465E+06    -53.5863E+06     40.2348E+06    -35.8314E+06
            1814     97.8642E-03     10.7122E-03     97.2762E-03     55.5505E-03    -26.6816E-03    -28.8719E-03    -27.3167E-03     53.9953E-03    -26.6816E-03     22.5733E-03     81.0196E-03     110.509E+06     57.5244E+06     28.6226E+06    -64.4210E+06     47.5141E+06    -54.4107E+06     28.6226E+06    -33.4439E+06
            1815     97.9894E-03     11.6854E-03     97.2901E-03     56.2551E-03    -26.6990E-03    -29.5715E-03    -27.7677E-03     54.4513E-03    -26.6990E-03     24.5065E-03     88.7956E-03     98.8881E+06     54.0437E+06     17.5092E+06    -57.7281E+06     43.5738E+06    -47.2582E+06     17.5092E+06    -32.4858E+06
            1816     98.1272E-03     12.6585E-03     97.3073E-03     57.3573E-03    -26.7296E-03    -30.6265E-03    -28.1669E-03     54.8977E-03    -26.7296E-03     28.8175E-03     100.762E-03     87.1402E+06     47.9309E+06     3.11868E+06    -51.8184E+06     37.2357E+06    -41.1232E+06     3.11868E+06    -30.5481E+06
            1817     98.2807E-03     13.6311E-03     97.3309E-03     58.6196E-03    -26.7103E-03    -31.8950E-03    -28.3495E-03     55.0741E-03    -26.7103E-03     34.9854E-03     120.535E-03     76.3798E+06     36.1666E+06    -23.3263E+06    -47.5227E+06     26.2937E+06    -36.0746E+06    -24.9016E+06    -25.9218E+06
            1818     98.4513E-03     14.6039E-03     97.3621E-03     63.0122E-03    -26.6093E-03    -36.3969E-03    -28.4896E-03     55.1049E-03    -26.6093E-03     52.4114E-03     149.599E-03     85.1819E+06     28.0919E+06    -26.9092E+06    -65.2471E+06     11.9065E+06    -11.8670E+06    -64.1039E+06    -21.7521E+06
            1819     98.6618E-03     15.5761E-03     97.4245E-03     75.5701E-03    -26.4809E-03    -49.0899E-03    -28.4530E-03     54.9333E-03    -26.4809E-03     91.1064E-03     210.135E-03     131.941E+06     63.5610E+06    -9.86217E+06    -87.8032E+06    -205.072E+03     53.9039E+06    -87.8032E+06    -15.9305E+06
            1820     98.9340E-03     16.5519E-03     97.5395E-03     74.5654E-03    -26.8846E-03    -47.6770E-03    -26.3328E-03     53.2211E-03    -26.8846E-03     91.8979E-03     226.144E-03     172.904E+06     149.786E+06     63.4438E+06     -47.602E+06    -4.61972E+06     149.125E+06     21.1223E+06    -6.99580E+06
            1821     98.2739E-03     974.429E-06     98.2691E-03     52.4099E-03    -26.1189E-03    -26.2916E-03    -26.2365E-03     52.3883E-03    -26.1524E-03     2.36499E-03     52.6174E-03     80.2144E+06     67.8711E+06     65.7198E+06    -13.3884E+06     65.7374E+06    -11.3001E+06     65.7650E+06    -11.9734E+06
            1822     98.2900E-03     1.94864E-03     98.2707E-03     52.2254E-03    -26.0651E-03    -26.1599E-03    -26.0040E-03     52.1565E-03    -26.1521E-03     4.49230E-03     52.8526E-03     82.9673E+06     71.1614E+06     65.2198E+06    -14.5788E+06     66.1810E+06    -9.59834E+06     65.2198E+06    -19.7396E+06
            1823     98.3158E-03     2.92332E-03     98.2723E-03     52.0359E-03    -25.9649E-03    -26.0709E-03    -25.8171E-03     51.8881E-03    -26.0709E-03     6.63774E-03     53.3588E-03     94.6523E+06     74.4156E+06     63.4631E+06    -25.1857E+06     65.9556E+06    -16.7257E+06     63.4631E+06    -27.5701E+06
            1824     98.3525E-03     3.89794E-03     98.2753E-03     51.8306E-03    -25.8631E-03    -25.9671E-03    -25.5972E-03     51.5647E-03    -25.9671E-03     8.91489E-03     54.1216E-03     104.483E+06     76.9290E+06     60.0304E+06    -34.8968E+06     65.2865E+06    -23.2543E+06     60.0304E+06    -34.0444E+06
            1825     98.3996E-03     4.87312E-03     98.2789E-03     51.6874E-03    -25.7865E-03    -25.8998E-03    -25.3965E-03     51.2572E-03    -25.8596E-03     11.3492E-03     55.2567E-03     113.333E+06     77.3436E+06     56.3589E+06    -44.9792E+06     63.6034E+06    -31.2389E+06     56.3589E+06    -38.6032E+06
            1826     98.4576E-03     5.84835E-03     98.2837E-03     51.6652E-03    -25.7408E-03    -25.9231E-03    -25.2620E-03     51.0258E-03    -25.7625E-03     13.8501E-03     56.8361E-03     119.555E+06     75.3919E+06     52.6363E+06    -53.8696E+06     61.2890E+06    -39.7666E+06     52.6363E+06    -40.2639E+06
            1827     98.5265E-03     6.82358E-03     98.2899E-03     51.7967E-03    -25.6806E-03    -26.1144E-03    -25.2068E-03     50.8892E-03    -25.6806E-03     16.5124E-03     58.9740E-03     122.198E+06     73.0873E+06     50.5689E+06    -58.7531E+06     59.6751E+06    -45.3409E+06     50.5689E+06    -39.8017E+06
            1828     98.6064E-03     7.79911E-03     98.2975E-03     52.2097E-03    -25.6173E-03    -26.5919E-03    -25.3692E-03     50.9870E-03    -25.6173E-03     19.2727E-03     61.9117E-03     122.295E+06     70.3779E+06     47.6713E+06    -61.6338E+06     57.9924E+06    -49.2483E+06     47.6713E+06    -38.3919E+06
            1829     98.6972E-03     8.77407E-03     98.3064E-03     52.8403E-03    -25.5849E-03    -27.2574E-03    -25.7223E-03     51.3051E-03    -25.5849E-03     21.7625E-03     65.5986E-03     114.418E+06     65.3735E+06     43.6776E+06    -58.3161E+06     54.5707E+06    -47.5132E+06     43.6776E+06    -34.8629E+06
            1830     98.7992E-03     9.74884E-03     98.3170E-03     53.8307E-03    -25.6118E-03    -28.2191E-03    -26.2345E-03     51.8461E-03    -25.6118E-03     24.9642E-03     70.8890E-03     112.629E+06     59.9010E+06     39.6885E+06    -61.4236E+06     50.3286E+06    -51.8513E+06     39.6885E+06    -32.6555E+06
            1831     98.9135E-03     10.7229E-03     98.3306E-03     55.0386E-03    -25.6500E-03    -29.3844E-03    -26.9859E-03     52.6400E-03    -25.6500E-03     27.8668E-03     77.9012E-03     106.304E+06     53.6071E+06     26.9272E+06    -63.2377E+06     45.0753E+06    -54.7059E+06     26.9272E+06    -30.3737E+06
            1832     99.0391E-03     11.6964E-03     98.3460E-03     56.2299E-03    -25.7498E-03    -30.4823E-03    -27.8152E-03     53.5628E-03    -25.7498E-03     29.7734E-03     85.9158E-03     89.2324E+06     46.6952E+06     17.7234E+06    -53.3670E+06     38.1129E+06    -44.7848E+06     17.7234E+06    -27.8957E+06
            1833     99.1760E-03     12.6688E-03     98.3635E-03     57.8796E-03    -25.8982E-03    -31.9777E-03    -28.6255E-03     54.5274E-03    -25.8982E-03     33.8447E-03     98.0951E-03     78.8980E+06     38.0505E+06     5.99634E+06    -51.4471E+06     30.3532E+06    -43.7499E+06     5.99634E+06    -24.9604E+06
            1834     99.3289E-03     13.6409E-03     98.3878E-03     59.7960E-03    -26.0187E-03    -33.7632E-03    -29.3905E-03     55.4233E-03    -26.0187E-03     39.3734E-03     118.577E-03     66.5824E+06     27.8421E+06    -17.1872E+06    -46.3512E+06     23.0206E+06    -41.5298E+06    -17.1872E+06    -18.2283E+06
            1835     99.4977E-03     14.6124E-03     98.4189E-03     64.3746E-03    -26.0839E-03    -38.2820E-03    -29.6859E-03     55.7785E-03    -26.0839E-03     55.6575E-03     148.342E-03     64.9749E+06     21.5150E+06    -15.7380E+06    -49.5822E+06     14.3770E+06    -13.0482E+06    -45.1340E+06    -12.6745E+06
            1836     99.7072E-03     15.5852E-03     98.4816E-03     76.2257E-03    -26.0628E-03    -50.1625E-03    -29.2917E-03     55.3550E-03    -26.0628E-03     92.4411E-03     209.205E-03     109.344E+06     55.6386E+06    -2.64196E+06    -68.9607E+06     3.62360E+06     49.3730E+06    -68.9607E+06    -9.51056E+06
            1837     99.9740E-03     16.5585E-03     98.5932E-03     74.6533E-03    -26.4839E-03    -48.1923E-03    -27.0354E-03     53.4964E-03    -26.4839E-03     91.8175E-03     226.083E-03     159.828E+06     142.256E+06     63.5448E+06    -39.9780E+06    -2.69331E+06     141.894E+06     26.6220E+06    -4.80282E+06
            1838     99.3266E-03     975.567E-06     99.3218E-03     49.2476E-03    -24.5090E-03    -24.7381E-03    -24.6725E-03     49.2154E-03    -24.5425E-03     2.80000E-03     49.4292E-03     68.7363E+06     78.8268E+06     76.2216E+06     8.86298E+06     76.3163E+06     11.0860E+06     76.5091E+06    -11.3007E+06
            1839     99.3416E-03     1.95183E-03     99.3224E-03     49.0504E-03    -24.4944E-03    -24.5556E-03    -24.3925E-03     48.9470E-03    -24.5541E-03     5.30353E-03     49.5886E-03     73.9560E+06     81.6730E+06     73.5041E+06     4.03527E+06     75.8600E+06     9.84826E+06     73.5041E+06    -20.2055E+06
            1840     99.3675E-03     2.92785E-03     99.3244E-03     48.8543E-03    -24.4015E-03    -24.4513E-03    -24.1737E-03     48.6265E-03    -24.4513E-03     7.97565E-03     49.9775E-03     85.9970E+06     84.0966E+06     69.2553E+06    -8.32099E+06     74.5917E+06     1.18389E+06     69.2553E+06    -28.0224E+06
            1841     99.4033E-03     3.90437E-03     99.3266E-03     48.6846E-03    -24.2934E-03    -24.3894E-03    -23.9333E-03     48.2672E-03    -24.3322E-03     10.8176E-03     50.6320E-03     97.1340E+06     84.6295E+06     63.5919E+06    -21.2636E+06     72.3218E+06    -8.95581E+06     63.5919E+06    -33.9212E+06
            1842     99.4498E-03     4.88094E-03     99.3300E-03     48.6147E-03    -24.1935E-03    -24.4157E-03    -23.7170E-03     47.9311E-03    -24.2086E-03     13.8510E-03     51.6269E-03     105.662E+06     82.3063E+06     57.4594E+06    -33.5455E+06     68.8339E+06    -20.0731E+06     57.4594E+06    -37.0985E+06
            1843     99.5069E-03     5.85774E-03     99.3344E-03     48.7048E-03    -24.0955E-03    -24.6045E-03    -23.5809E-03     47.6812E-03    -24.0955E-03     16.9783E-03     53.0313E-03     112.521E+06     77.2900E+06     50.6785E+06    -46.1318E+06     64.0676E+06    -32.9094E+06     50.6785E+06    -38.1329E+06
            1844     99.5751E-03     6.83485E-03     99.3403E-03     49.0884E-03    -24.0006E-03    -25.0897E-03    -23.6265E-03     47.6252E-03    -24.0006E-03     20.3755E-03     55.0645E-03     112.951E+06     71.1469E+06     43.9554E+06    -52.8711E+06     58.3473E+06    -40.0715E+06     43.9554E+06    -37.7214E+06
            1845     99.6545E-03     7.81147E-03     99.3479E-03     49.8329E-03    -23.9612E-03    -25.8711E-03    -23.9055E-03     47.8673E-03    -23.9612E-03     23.8303E-03     57.9157E-03     112.579E+06     63.4936E+06     39.5057E+06    -59.0680E+06     52.2332E+06    -47.8076E+06     39.5057E+06    -35.2975E+06
            1846     99.7454E-03     8.78805E-03     99.3575E-03     50.8585E-03    -23.9594E-03    -26.8994E-03    -24.4377E-03     48.3967E-03    -23.9594E-03     26.9801E-03     61.5515E-03     104.210E+06     55.2376E+06     33.9514E+06    -57.9302E+06     46.1058E+06    -48.7984E+06     33.9514E+06    -30.8052E+06
            1847     99.8470E-03     9.76378E-03     99.3684E-03     52.4206E-03    -24.0508E-03    -28.3730E-03    -25.2884E-03     49.3360E-03    -24.0508E-03     30.7180E-03     66.9259E-03     98.2707E+06     47.0573E+06     31.3298E+06    -57.8879E+06     38.7603E+06    -50.3929E+06     32.1319E+06    -26.8211E+06
            1848     99.9618E-03     10.7388E-03     99.3833E-03     54.3508E-03    -24.1875E-03    -30.1582E-03    -26.5147E-03     50.7073E-03    -24.1875E-03     34.1433E-03     74.1435E-03     92.7748E+06     37.5873E+06     20.5751E+06    -62.0911E+06     30.4345E+06    -55.7405E+06     21.3772E+06    -24.2242E+06
            1849     100.088E-03     11.7122E-03     99.4000E-03     56.2128E-03    -24.3989E-03    -31.8100E-03    -27.8785E-03     52.2813E-03    -24.3989E-03     36.2118E-03     82.5094E-03     73.2016E+06     29.7136E+06     11.7372E+06    -50.6175E+06     22.3504E+06    -44.5811E+06     13.0640E+06    -20.9033E+06
            1850     100.225E-03     12.6847E-03     99.4188E-03     58.6594E-03    -24.6989E-03    -33.9664E-03    -29.3569E-03     54.0499E-03    -24.6989E-03     40.1415E-03     95.1429E-03     65.0098E+06     21.2885E+06     2.43784E+06    -50.6221E+06     14.5839E+06    -45.2442E+06     3.76462E+06    -18.6280E+06
            1851     100.378E-03     13.6557E-03     99.4451E-03     61.4130E-03    -24.9892E-03    -36.4284E-03    -30.8506E-03     55.8352E-03    -24.9892E-03     45.3039E-03     116.285E-03     56.7441E+06     11.4297E+06    -20.6364E+06    -52.4253E+06     7.97252E+06    -48.9681E+06    -20.6364E+06    -14.3359E+06
            1852     100.547E-03     14.6250E-03     99.4781E-03     66.2140E-03    -25.2943E-03    -40.9176E-03    -31.5236E-03     56.8199E-03    -25.2943E-03     59.7286E-03     146.910E-03     47.7441E+06     10.8456E+06    -18.5977E+06    -42.4170E+06     1.48691E+06    -16.3345E+06    -35.3216E+06    -6.86784E+06
            1853     100.753E-03     15.5951E-03     99.5385E-03     77.5837E-03    -25.5055E-03    -52.0785E-03    -31.1490E-03     56.6542E-03    -25.5055E-03     94.1109E-03     208.676E-03     86.9633E+06     52.1957E+06    -7.25616E+06    -44.9358E+06    -5.16415E+06     50.1037E+06    -44.9358E+06    -4.52883E+06
            1854     101.018E-03     16.5681E-03     99.6503E-03     75.3260E-03    -26.0262E-03    -49.3355E-03    -28.7451E-03     54.7356E-03    -26.0262E-03     91.4688E-03     227.080E-03     147.800E+06     137.868E+06     61.3511E+06    -27.5398E+06    -6.39814E+06     137.682E+06     40.3953E+06    -4.04659E+06
            1855     100.375E-03     978.158E-06     100.370E-03     44.8685E-03    -22.3139E-03    -22.5541E-03    -22.5044E-03     44.8188E-03    -22.3139E-03     3.37974E-03     45.0159E-03     58.3383E+06     90.0636E+06     85.0378E+06     29.5693E+06     87.1692E+06     32.0631E+06     85.4384E+06    -10.0736E+06
            1856     100.390E-03     1.95584E-03     100.371E-03     44.7190E-03    -22.3262E-03    -22.3932E-03    -22.2199E-03     44.5587E-03    -22.3393E-03     6.28562E-03     45.1519E-03     61.8991E+06     90.3560E+06     78.2650E+06     23.4341E+06     83.8299E+06     29.9601E+06     78.2650E+06    -19.5592E+06
            1857     100.415E-03     2.93430E-03     100.372E-03     44.5163E-03    -22.2057E-03    -22.3106E-03    -21.9341E-03     44.1620E-03    -22.2278E-03     9.46766E-03     45.4102E-03     74.1338E+06     89.5291E+06     70.4032E+06     7.91462E+06     79.2488E+06     18.1949E+06     70.4032E+06    -26.8821E+06
            1858     100.450E-03     3.91287E-03     100.374E-03     44.4199E-03    -22.0764E-03    -22.3427E-03    -21.6835E-03     43.7698E-03    -22.0855E-03     12.8557E-03     45.9542E-03     84.4072E+06     85.8464E+06     59.8886E+06    -8.26911E+06     73.2809E+06     4.29643E+06     59.8886E+06    -31.8774E+06
            1859     100.496E-03     4.89170E-03     100.377E-03     44.4683E-03    -21.9408E-03    -22.5240E-03    -21.4605E-03     43.4049E-03    -21.9408E-03     16.4905E-03     46.8110E-03     91.5844E+06     78.2822E+06     48.0882E+06    -24.3167E+06     65.7937E+06    -11.8282E+06     48.0882E+06    -33.4834E+06
            1860     100.552E-03     5.87088E-03     100.381E-03     44.8201E-03    -21.8178E-03    -23.0001E-03    -21.4014E-03     43.2214E-03    -21.8178E-03     20.3113E-03     48.1601E-03     95.1532E+06     67.9658E+06     36.8885E+06    -38.5770E+06     56.5812E+06    -27.1924E+06     36.8885E+06    -32.8529E+06
            1861     100.620E-03     6.84973E-03     100.387E-03     45.5841E-03    -21.7357E-03    -23.8568E-03    -21.5885E-03     43.3158E-03    -21.7357E-03     24.4148E-03     50.1931E-03     91.6733E+06     54.9082E+06     26.2608E+06    -47.5636E+06     44.9678E+06    -37.6232E+06     26.2608E+06    -30.3076E+06
            1862     100.700E-03     7.82858E-03     100.395E-03     46.7979E-03    -21.7362E-03    -25.0668E-03    -22.0535E-03     43.7846E-03    -21.7362E-03     28.5612E-03     53.0859E-03     88.0384E+06     40.7144E+06     20.1087E+06    -55.5882E+06     32.3643E+06    -47.2381E+06     20.1087E+06    -27.0617E+06
            1863     100.790E-03     8.80662E-03     100.405E-03     48.4323E-03    -21.8090E-03    -26.6239E-03    -22.9073E-03     44.7157E-03    -21.8090E-03     32.3569E-03     56.9048E-03     80.3941E+06     27.9220E+06     14.6371E+06    -58.1101E+06     20.6478E+06    -51.3922E+06     15.1933E+06    -22.9947E+06
            1864     100.893E-03     9.78386E-03     100.417E-03     50.7534E-03    -22.0056E-03    -28.7450E-03    -24.2263E-03     46.2346E-03    -22.0056E-03     36.6153E-03     62.6139E-03     73.3838E+06     21.6248E+06     10.8144E+06    -56.2008E+06     11.2249E+06    -51.0219E+06     16.0353E+06    -18.6364E+06
            1865     101.009E-03     10.7593E-03     100.434E-03     53.5140E-03    -22.2980E-03    -31.2056E-03    -26.0418E-03     48.3502E-03    -22.2980E-03     40.3984E-03     70.3107E-03     71.6133E+06     16.7476E+06     3.47957E+06    -60.2788E+06     3.82485E+06    -56.0763E+06     12.1998E+06    -16.3667E+06
            1866     101.136E-03     11.7332E-03     100.453E-03     56.1603E-03    -22.6741E-03    -33.4800E-03    -28.1137E-03     50.7940E-03    -22.6741E-03     42.4351E-03     79.3027E-03     56.5628E+06     10.9804E+06    -1.93104E+06    -50.7812E+06    -2.21893E+06    -45.9455E+06     6.43259E+06    -14.4583E+06
            1867     101.274E-03     12.7047E-03     100.474E-03     59.5826E-03    -23.1751E-03    -36.4124E-03    -30.4536E-03     53.6238E-03    -23.1751E-03     46.2439E-03     92.7253E-03     49.9943E+06     5.62617E+06    -5.71220E+06    -48.8964E+06    -6.10636E+06    -43.8421E+06     966.024E+03    -14.0022E+06
            1868     101.429E-03     13.6741E-03     100.503E-03     63.0778E-03    -23.6976E-03    -39.3887E-03    -32.6827E-03     56.3718E-03    -23.6976E-03     50.6562E-03     114.714E-03     49.1621E+06    -4.75387E+06    -24.6193E+06    -59.6122E+06    -9.74534E+06    -56.9909E+06    -22.2491E+06    -10.2963E+06
            1869     101.598E-03     14.6422E-03     100.538E-03     68.2765E-03    -24.2501E-03    -44.0293E-03    -34.0195E-03     58.2667E-03    -24.2501E-03     63.3878E-03     146.259E-03     42.0975E+06     2.48820E+06    -26.7182E+06    -44.7955E+06    -14.3422E+06    -21.5485E+06    -33.1347E+06    -3.10831E+06
            1870     101.803E-03     15.6096E-03     100.599E-03     79.3047E-03    -24.7422E-03    -54.5635E-03    -34.1436E-03     58.8848E-03    -24.7422E-03     95.1199E-03     209.249E-03     81.8917E+06     56.8190E+06    -16.3130E+06    -30.9610E+06    -15.9648E+06     56.4707E+06    -30.9610E+06    -4.49182E+06
            1871     102.063E-03     16.5785E-03     100.707E-03     76.8385E-03    -25.5103E-03    -51.3281E-03    -32.1934E-03     57.7038E-03    -25.5103E-03     89.7796E-03     229.627E-03     145.211E+06     136.134E+06     62.0561E+06    -19.7617E+06    -11.0406E+06     135.644E+06     53.8247E+06    -7.59288E+06
            1872     101.419E-03     980.639E-06     101.414E-03     39.1614E-03    -19.5094E-03    -19.6531E-03    -19.5729E-03     39.0874E-03    -19.5156E-03     3.83458E-03     39.2718E-03     41.1945E+06     92.4270E+06     85.0253E+06     48.2958E+06     88.9324E+06      51.632E+06     85.1836E+06    -10.1764E+06
            1873     101.433E-03     1.96168E-03     101.414E-03     39.0573E-03    -19.4565E-03    -19.6019E-03    -19.3612E-03     38.8228E-03    -19.4627E-03     7.12132E-03     39.3762E-03     44.4907E+06     90.8392E+06     75.6707E+06     40.9156E+06     83.6247E+06     48.1301E+06     75.6707E+06    -17.3974E+06
            1874     101.457E-03     2.94268E-03     101.415E-03     38.9903E-03    -19.3416E-03    -19.6488E-03    -19.1215E-03     38.4629E-03    -19.3416E-03     10.8076E-03     39.6396E-03     55.6210E+06     86.1135E+06     62.0522E+06     22.8663E+06     75.6588E+06     33.3210E+06     62.0522E+06    -23.3963E+06
            1875     101.492E-03     3.92397E-03     101.416E-03     39.0226E-03    -19.1935E-03    -19.8274E-03    -18.8589E-03     38.0540E-03    -19.1935E-03     14.7128E-03     40.1094E-03     63.5429E+06     75.8836E+06     44.9511E+06     3.17554E+06     64.7819E+06     14.2772E+06     44.9511E+06    -26.1028E+06
            1876     101.537E-03     4.90566E-03     101.418E-03     39.3577E-03    -19.0509E-03    -20.3082E-03    -18.7355E-03     37.7849E-03    -19.0509E-03     18.8534E-03     40.9953E-03     67.3761E+06     60.5967E+06     26.7522E+06    -16.6544E+06     50.8657E+06    -6.92346E+06     26.7522E+06    -25.5449E+06
            1877     101.593E-03     5.88719E-03     101.422E-03     40.1441E-03    -18.9591E-03    -21.1879E-03    -18.8445E-03     37.8007E-03    -18.9591E-03     23.2607E-03     42.4800E-03     66.0062E+06     42.6060E+06     11.6499E+06    -32.9723E+06     34.9640E+06    -25.3302E+06     11.6499E+06    -22.6550E+06
            1878     101.661E-03     6.86873E-03     101.428E-03     41.4409E-03    -18.9508E-03    -22.4940E-03    -19.2384E-03     38.1853E-03    -18.9508E-03     27.8840E-03     44.7261E-03     60.8084E+06     24.1980E+06     2.56480E+06    -44.2156E+06     18.9033E+06    -38.9209E+06     2.56480E+06    -17.9733E+06
            1879     101.740E-03     7.84950E-03     101.437E-03     43.3451E-03    -19.0537E-03    -24.2931E-03    -20.0549E-03     39.1068E-03    -19.0537E-03     32.5982E-03     47.9847E-03     56.7912E+06     10.6318E+06    -3.60163E+06    -51.6993E+06     3.18984E+06    -48.0941E+06     235.122E+03    -13.4819E+06
            1880     101.832E-03     8.82938E-03     101.449E-03     45.8050E-03    -19.2743E-03    -26.5255E-03    -21.4143E-03     40.6939E-03    -19.2743E-03     36.9309E-03     52.3568E-03     54.7444E+06     3.57330E+06    -9.76551E+06    -55.7657E+06    -10.2471E+06    -52.8445E+06     1.13375E+06    -11.0729E+06
            1881     101.936E-03     9.80745E-03     101.463E-03     48.9852E-03    -19.6205E-03    -29.3517E-03    -23.2943E-03     42.9278E-03    -19.6205E-03     41.7262E-03     58.6503E-03     53.4897E+06     4.22544E+06    -15.6269E+06    -54.5824E+06    -18.7941E+06    -51.4151E+06     4.22544E+06    -10.3563E+06
            1882     102.054E-03     10.7838E-03     101.482E-03     52.7258E-03    -20.1036E-03    -32.6066E-03    -25.8580E-03     45.9772E-03    -20.1036E-03     45.9700E-03     67.0898E-03     56.9167E+06     5.21079E+06    -20.1397E+06    -58.8367E+06    -22.9447E+06    -56.0317E+06     5.21079E+06    -9.74383E+06
            1883     102.183E-03     11.7570E-03     101.505E-03     56.3294E-03    -20.7015E-03    -35.6237E-03    -28.8531E-03     49.5588E-03    -20.7015E-03     47.9609E-03     77.0803E-03     48.7838E+06     3.53367E+06    -17.1402E+06    -51.7813E+06    -24.3930E+06    -44.5285E+06     3.53367E+06    -10.4708E+06
            1884     102.324E-03     12.7277E-03     101.529E-03     60.5924E-03    -21.4444E-03    -39.1482E-03    -31.9592E-03     53.4035E-03    -21.4444E-03     51.5590E-03     91.3150E-03     44.3736E+06         521.219    -15.8741E+06    -49.8589E+06    -24.2139E+06    -41.5191E+06         521.219    -12.1545E+06
            1885     102.481E-03     13.6953E-03     101.562E-03     64.9568E-03    -22.2454E-03    -42.7140E-03    -35.1093E-03     57.3521E-03    -22.2454E-03     55.1482E-03     114.293E-03     49.1259E+06    -12.0330E+06    -29.8319E+06    -67.3842E+06    -22.5808E+06    -64.5978E+06    -22.0705E+06     -9.9225E+06
            1886     102.651E-03     14.6600E-03     101.599E-03     70.6611E-03    -23.0825E-03    -47.5863E-03    -37.3908E-03     60.4656E-03    -23.0825E-03     65.9534E-03     147.168E-03     44.7127E+06     2.46813E+06    -27.2378E+06    -46.8746E+06    -17.1326E+06    -24.3523E+06    -30.1593E+06    -6.33302E+06
            1887     102.856E-03     15.6240E-03     101.662E-03     81.2332E-03    -23.9225E-03    -57.3125E-03    -38.2688E-03     62.1894E-03    -23.9225E-03     94.4719E-03     211.396E-03     79.8149E+06     66.2243E+06    -10.3393E+06    -16.3644E+06    -10.0545E+06     64.9096E+06    -15.3346E+06    -8.58001E+06
            1888     103.112E-03     16.5890E-03     101.769E-03     79.5245E-03    -25.0568E-03    -54.4484E-03    -37.4525E-03     62.5285E-03    -25.0568E-03     87.0436E-03     233.511E-03     137.721E+06     134.661E+06     71.7513E+06    -7.30415E+06    -4.45462E+06     133.012E+06     70.5509E+06    -9.53758E+06
            1889     102.455E-03     984.066E-06     102.450E-03     32.4028E-03    -16.1662E-03    -16.2383E-03    -16.1297E-03     32.3004E-03    -16.1724E-03     4.05828E-03     32.4762E-03     24.1760E+06     91.2262E+06     81.3738E+06     64.6082E+06     85.0535E+06     70.1458E+06     82.0088E+06    -9.54612E+06
            1890     102.469E-03     1.96832E-03     102.450E-03     32.3349E-03    -16.0462E-03    -16.2894E-03    -15.9580E-03     32.0098E-03    -16.0524E-03     7.63591E-03     32.5382E-03     30.9168E+06     86.7813E+06     67.5550E+06     52.4545E+06     77.6714E+06     62.1931E+06     66.9263E+06    -14.1559E+06
            1891     102.493E-03     2.95261E-03     102.450E-03     32.4404E-03    -15.9194E-03    -16.5197E-03    -15.7937E-03     31.7143E-03    -15.9194E-03     11.5520E-03     32.8443E-03     37.2010E+06     73.8198E+06     48.2529E+06     32.1878E+06     64.9769E+06     42.8241E+06     46.4595E+06    -16.2034E+06
            1892     102.527E-03     3.93733E-03     102.451E-03     32.8109E-03    -15.7959E-03    -17.0127E-03    -15.6844E-03     31.4827E-03    -15.7959E-03     15.8012E-03     33.4769E-03     39.2712E+06     53.3554E+06     26.3961E+06     8.71947E+06     46.9806E+06     18.3437E+06     23.1467E+06    -14.6838E+06
            1893     102.572E-03     4.92184E-03     102.453E-03     33.6372E-03    -15.7203E-03    -17.9167E-03    -15.7779E-03     31.4984E-03    -15.7203E-03     20.3256E-03     34.6406E-03      37.213E+06     29.4169E+06     3.90607E+06    -12.7409E+06     25.4500E+06    -6.68339E+06     1.81541E+06    -11.0498E+06
            1894     102.628E-03     5.90629E-03     102.458E-03     35.0108E-03    -15.7308E-03    -19.2809E-03    -16.1400E-03     31.8699E-03    -15.7308E-03     25.1464E-03     36.4950E-03     33.3728E+06     6.63458E+06    -13.0109E+06    -31.1110E+06     3.39546E+06    -27.8661E+06    -13.0168E+06    -6.17416E+06
            1895     102.696E-03     6.89001E-03     102.464E-03     37.0331E-03    -15.8589E-03    -21.1768E-03    -16.8976E-03     32.7538E-03    -15.8589E-03     30.2149E-03     39.2700E-03     32.8696E+06    -8.92644E+06    -21.6912E+06    -45.8944E+06    -16.2324E+06    -42.2791E+06    -18.0005E+06    -1.86649E+06
            1896     102.776E-03     7.87296E-03     102.474E-03     39.7778E-03    -16.1271E-03    -23.6598E-03    -18.1934E-03     34.3114E-03    -16.1271E-03     35.4746E-03     43.1843E-03     36.3998E+06    -11.9285E+06    -28.5811E+06    -52.4423E+06    -29.6168E+06    -49.6368E+06    -13.6984E+06     166.887E+03
            1897     102.869E-03     8.85412E-03     102.488E-03     43.1215E-03    -16.5331E-03    -26.5899E-03    -20.1014E-03     36.6331E-03    -16.5331E-03     40.4130E-03     48.2849E-03     43.1574E+06    -5.26991E+06    -34.4937E+06    -52.7774E+06    -36.0268E+06    -51.2443E+06    -5.26991E+06    -956.735E+03
            1898     102.976E-03     9.83332E-03     102.505E-03     47.3003E-03    -17.0739E-03    -30.2125E-03    -22.6881E-03     39.7760E-03    -17.0739E-03     45.8227E-03     55.4752E-03     48.6458E+06     2.21925E+06    -36.6234E+06    -50.9209E+06    -38.2160E+06    -49.3283E+06     2.21925E+06    -3.64632E+06
            1899     103.096E-03     10.8096E-03     102.528E-03     52.1019E-03    -17.7732E-03    -34.3182E-03    -26.0596E-03     43.8433E-03    -17.7732E-03     50.7529E-03     64.8399E-03     55.0690E+06     5.56360E+06    -34.3736E+06    -56.5064E+06    -37.2026E+06    -53.6774E+06     5.56360E+06    -6.98375E+06
            1900     103.230E-03     11.7825E-03     102.556E-03     56.7634E-03    -18.6219E-03    -38.1417E-03    -29.9869E-03     48.6086E-03    -18.6219E-03     53.1153E-03     75.8731E-03     49.4404E+06     6.18102E+06    -23.4099E+06    -50.7442E+06    -33.5133E+06    -40.6409E+06     6.18102E+06    -9.94042E+06
            1901     103.374E-03     12.7510E-03     102.584E-03     61.9120E-03    -19.6456E-03    -42.2656E-03    -33.9798E-03     53.6261E-03    -19.6456E-03     56.3569E-03     91.1823E-03     47.5490E+06     4.58865E+06    -17.8691E+06    -49.9383E+06    -29.1221E+06    -38.6853E+06     4.58865E+06    -12.3639E+06
            1902     103.535E-03     13.7167E-03     102.622E-03     67.4071E-03    -20.7410E-03    -46.6719E-03    -38.2001E-03     58.9353E-03    -20.7410E-03     59.7835E-03     115.053E-03     57.1719E+06    -5.65361E+06    -30.7847E+06    -71.0679E+06    -23.2620E+06    -65.4526E+06    -18.7917E+06    -15.7740E+06
            1903     103.708E-03     14.6780E-03     102.664E-03     73.9107E-03    -21.9187E-03    -52.0035E-03    -41.7499E-03     63.6572E-03    -21.9187E-03     68.6565E-03     149.733E-03     53.6538E+06     10.5313E+06    -24.6414E+06    -49.2470E+06    -14.1923E+06    -23.6048E+06    -25.5600E+06    -17.4742E+06
            1904     103.912E-03     15.6374E-03     102.729E-03     84.3282E-03    -23.1823E-03    -61.1449E-03    -43.6362E-03     66.8195E-03    -23.1823E-03     93.8406E-03     214.992E-03     77.1063E+06     70.3493E+06    -277.437E+03    -11.4731E+06    -6.31699E+06     66.1118E+06    -1.19602E+06    -14.3398E+06
            1905     104.167E-03     16.5960E-03     102.837E-03     83.0905E-03    -24.7135E-03    -58.3774E-03    -43.3372E-03     68.0503E-03    -24.7135E-03     84.6707E-03     237.201E-03     130.391E+06     131.098E+06     78.7169E+06    -3.93111E+06    -3.28528E+06     126.663E+06     82.5063E+06    -7.31124E+06
            1906     103.484E-03     987.795E-06     103.480E-03     24.9313E-03    -12.3725E-03    -12.5592E-03    -12.4301E-03     24.8023E-03    -12.3725E-03     3.98102E-03     24.9687E-03     24.4118E+06     88.4851E+06     68.5150E+06     62.3141E+06     69.8369E+06     82.5570E+06     66.9204E+06    -5.19557E+06
            1907     103.498E-03     1.97554E-03     103.479E-03     24.9977E-03    -12.3016E-03    -12.6962E-03    -12.2777E-03     24.5792E-03    -12.3016E-03     7.61010E-03     25.0968E-03     30.7409E+06     77.1031E+06     50.3911E+06     43.7147E+06     56.2126E+06     70.0928E+06     44.9036E+06    -6.51866E+06
            1908     103.522E-03     2.96378E-03     103.479E-03     25.4020E-03    -12.2135E-03    -13.1888E-03    -12.2693E-03     24.4826E-03    -12.2135E-03     11.5296E-03     25.5984E-03     29.9619E+06     52.7226E+06     27.9038E+06     19.7204E+06     37.3075E+06     43.3188E+06     19.7204E+06    -3.73013E+06
            1909     103.555E-03     3.95152E-03     103.480E-03     26.2901E-03    -12.1830E-03    -14.1067E-03    -12.4454E-03     24.6289E-03    -12.1830E-03     15.8293E-03     26.6272E-03     28.8035E+06     27.3250E+06     2.70610E+06    -3.96645E+06     15.3134E+06     14.7177E+06    -3.96645E+06     2.28520E+06
            1910     103.600E-03     4.93922E-03     103.482E-03     27.7339E-03    -12.2428E-03    -15.4899E-03    -12.8378E-03     25.0819E-03    -12.2428E-03     20.5624E-03     28.2835E-03     28.5282E+06     4.20227E+06    -19.3511E+06    -26.7740E+06    -7.89133E+06    -12.3338E+06    -21.6977E+06     8.82587E+06
            1911     103.656E-03     5.92613E-03     103.487E-03     29.8467E-03    -12.4200E-03    -17.4256E-03    -13.5776E-03     25.9986E-03    -12.4200E-03     25.7093E-03     30.7591E-03     29.9841E+06    -14.7864E+06    -29.2245E+06    -47.6713E+06    -29.2918E+06    -33.1601E+06    -29.2303E+06     13.7064E+06
            1912     103.725E-03     6.91231E-03     103.495E-03     32.7160E-03    -12.7293E-03    -19.9880E-03    -14.7939E-03     27.5218E-03    -12.7293E-03     31.3078E-03     34.2760E-03     32.5885E+06    -23.1475E+06    -32.5407E+06    -59.0433E+06    -44.2704E+06    -43.9639E+06    -26.4973E+06     14.0978E+06
            1913     103.807E-03     7.89667E-03     103.507E-03     36.3289E-03    -13.1736E-03    -23.1648E-03    -16.5727E-03     29.7368E-03    -13.1736E-03     37.2639E-03     38.9666E-03     36.9626E+06    -17.9577E+06    -38.8123E+06    -59.4742E+06    -51.1157E+06    -47.1709E+06    -17.9577E+06     9.54700E+06
            1914     103.903E-03     8.87931E-03     103.523E-03     40.5553E-03    -13.7641E-03    -26.8003E-03    -19.0236E-03     32.7786E-03    -13.7641E-03     42.9876E-03     44.8695E-03     43.8020E+06    -6.75224E+06    -44.6094E+06    -53.9818E+06    -51.2499E+06    -47.3412E+06    -6.75224E+06     3.80579E+06
            1915     104.012E-03     9.85914E-03     103.544E-03     45.7906E-03    -14.5130E-03    -31.2766E-03    -22.3228E-03     36.8368E-03    -14.5130E-03     49.3377E-03     53.0426E-03     50.4503E+06     3.92868E+06    -42.2310E+06    -49.6772E+06    -47.1724E+06    -44.7357E+06     3.92868E+06    -1.43703E+06
            1916     104.137E-03     10.8354E-03     103.572E-03     51.6813E-03    -15.4381E-03    -36.2413E-03    -26.4712E-03     41.9113E-03    -15.4381E-03     55.2016E-03     63.4014E-03     56.3023E+06     9.21440E+06    -34.1381E+06    -53.8231E+06    -41.0858E+06    -46.8754E+06     9.21440E+06    -8.17246E+06
            1917     104.275E-03     11.8075E-03     103.605E-03     57.3467E-03    -16.5306E-03    -40.8029E-03    -31.1708E-03     47.7146E-03    -16.5306E-03     58.3078E-03     75.2558E-03     51.5465E+06     9.53944E+06    -20.9320E+06    -49.5969E+06    -33.7008E+06    -36.8281E+06     9.53944E+06    -13.0718E+06
            1918     104.425E-03     12.7750E-03     103.641E-03     63.6496E-03    -17.8387E-03    -45.7946E-03    -36.2509E-03     54.1060E-03    -17.8387E-03     61.7167E-03     91.7906E-03     51.2722E+06     9.66945E+06    -12.4943E+06    -48.8328E+06    -26.0815E+06    -35.2455E+06     9.66945E+06    -15.7287E+06
            1919     104.589E-03     13.7373E-03     103.683E-03     70.5801E-03    -19.2570E-03    -51.3257E-03    -41.7304E-03     60.9847E-03    -19.2570E-03     65.6056E-03     116.878E-03     61.1852E+06     1.88061E+06    -24.1014E+06    -67.9563E+06    -20.1835E+06    -57.8232E+06    -12.1703E+06    -21.7243E+06
            1920     104.769E-03     14.6949E-03     103.733E-03     78.1744E-03    -20.8070E-03    -57.3693E-03    -46.6577E-03     67.4628E-03    -20.8070E-03     73.0859E-03     153.416E-03     59.8702E+06     14.5225E+06    -21.1949E+06    -53.4896E+06    -17.0503E+06    -21.9168E+06    -21.1949E+06    -25.4769E+06
            1921     104.974E-03     15.6482E-03     103.801E-03     88.9021E-03    -22.4965E-03    -66.3995E-03    -49.7885E-03     72.2911E-03    -22.4965E-03     95.3333E-03     218.507E-03     76.9755E+06     63.8687E+06     1.19776E+06    -21.7442E+06    -15.0792E+06     57.2037E+06     1.19776E+06    -18.2389E+06
            1922     105.230E-03     16.6006E-03     103.912E-03     87.2371E-03    -24.4104E-03    -62.8234E-03    -49.0833E-03     73.4970E-03    -24.4104E-03     83.7278E-03     239.181E-03     127.481E+06     125.042E+06     76.6507E+06    -10.9367E+06    -10.2541E+06     116.973E+06     84.0372E+06    -7.34552E+06
            1923     104.506E-03     991.524E-06     104.501E-03     17.3140E-03    -8.52560E-03    -8.78847E-03    -8.63801E-03     17.1636E-03    -8.52560E-03     3.62135E-03     17.3265E-03     47.4362E+06     84.7525E+06     39.5591E+06     35.4092E+06     38.9608E+06     84.2837E+06     36.4762E+06     986.003E+03
            1924     104.519E-03     1.98327E-03     104.500E-03     17.7651E-03    -8.56776E-03    -9.19749E-03    -8.71717E-03     17.2847E-03    -8.56776E-03     6.89034E-03     17.7992E-03     49.2316E+06     68.9688E+06     24.5532E+06     16.3959E+06     24.5375E+06     66.5391E+06     18.8412E+06     7.34686E+06
            1925     104.543E-03     2.97438E-03     104.500E-03     18.6614E-03    -8.62664E-03    -10.0353E-03    -8.98260E-03     17.6086E-03    -8.62664E-03     10.5981E-03     18.7409E-03     46.7152E+06     41.6456E+06     3.85632E+06    -10.3149E+06     3.29961E+06     34.4210E+06    -2.53364E+06     14.6863E+06
            1926     104.577E-03     3.96551E-03     104.501E-03     20.0649E-03    -8.74086E-03    -11.3258E-03    -9.43378E-03     18.1729E-03    -8.74086E-03     14.7796E-03     20.2345E-03     49.8572E+06     17.7211E+06    -20.7604E+06    -38.0491E+06    -19.9392E+06     3.03432E+06    -24.1835E+06     23.2160E+06
            1927     104.622E-03     4.95573E-03     104.504E-03     22.1429E-03    -8.95795E-03    -13.1850E-03    -10.1667E-03     19.1246E-03    -8.95795E-03     19.6199E-03     22.4815E-03     55.0114E+06    -165.257E+03    -36.1951E+06    -62.2039E+06    -40.5641E+06    -21.5492E+06    -36.4510E+06     29.2160E+06
            1928     104.679E-03     5.94524E-03     104.510E-03     25.0013E-03    -9.30983E-03    -15.6916E-03    -11.3005E-03     20.6102E-03    -9.30983E-03     25.1503E-03     25.6581E-03     54.2745E+06    -14.7555E+06    -35.0608E+06    -75.4266E+06    -52.9631E+06     -37.219E+06    -35.0608E+06     29.1322E+06
            1929     104.749E-03     6.93306E-03     104.520E-03     28.6288E-03    -9.78151E-03    -18.8492E-03    -12.9034E-03     22.6831E-03    -9.78151E-03     31.3473E-03     29.8861E-03     49.5219E+06    -20.5308E+06    -29.6343E+06    -73.9181E+06    -56.7686E+06    -41.4096E+06    -25.9050E+06     23.3909E+06
            1930     104.834E-03     7.91940E-03     104.534E-03     33.0494E-03    -10.3836E-03    -22.6637E-03    -15.0895E-03     25.4752E-03    -10.3836E-03     38.1284E-03     35.3335E-03     45.9176E+06    -14.0221E+06    -31.4661E+06    -64.9721E+06    -55.8945E+06    -40.5436E+06    -14.0221E+06     14.6283E+06
            1931     104.933E-03     8.90307E-03     104.554E-03     38.1907E-03    -11.1404E-03    -27.0508E-03    -18.0540E-03     29.1938E-03    -11.1404E-03     44.9366E-03     42.0942E-03     47.1963E+06    -2.59128E+06    -37.7374E+06    -55.3173E+06    -52.5521E+06    -40.5026E+06    -2.59128E+06     5.34371E+06
            1932     105.045E-03     9.88359E-03     104.579E-03     44.4302E-03    -12.0668E-03    -32.3669E-03    -21.9029E-03     33.9662E-03    -12.0668E-03     52.6387E-03     51.1421E-03     50.3417E+06     6.85750E+06    -35.6529E+06    -48.5606E+06    -46.4172E+06    -37.7962E+06     6.85750E+06    -2.88607E+06
            1933     105.176E-03     10.8601E-03     104.613E-03     51.4325E-03    -13.1911E-03    -38.2436E-03    -26.7321E-03     39.9210E-03    -13.1911E-03     59.9104E-03     62.4477E-03     55.1713E+06     12.5458E+06    -27.0887E+06    -50.0746E+06    -39.3822E+06    -37.7810E+06     12.5458E+06    -10.5905E+06
            1934     105.320E-03     11.8316E-03     104.653E-03     58.1444E-03    -14.5133E-03    -43.6190E-03    -32.2377E-03     46.7632E-03    -14.5133E-03     64.0268E-03     75.1783E-03     55.0871E+06     13.1786E+06    -14.5907E+06    -49.7065E+06    -32.7037E+06    -31.5936E+06     13.1786E+06    -17.0983E+06
            1935     105.475E-03     12.7978E-03     104.696E-03     65.6348E-03    -16.0770E-03    -49.5449E-03    -38.2853E-03     54.3752E-03    -16.0770E-03     68.3444E-03     92.6867E-03     56.9369E+06     12.9742E+06    -5.72639E+06    -50.8911E+06    -25.2249E+06    -31.3926E+06     12.9742E+06    -21.2149E+06
            1936     105.647E-03     13.7579E-03     104.748E-03     74.3635E-03    -17.8069E-03    -56.5576E-03    -45.2567E-03     63.0625E-03    -17.8069E-03     73.4341E-03     119.339E-03     62.4406E+06     6.32906E+06    -15.1363E+06    -63.9131E+06    -18.9372E+06    -48.1337E+06    -5.64945E+06    -26.1781E+06
            1937     105.833E-03     14.7113E-03     104.805E-03     83.3355E-03    -19.7279E-03    -63.6050E-03    -51.7679E-03     71.4984E-03    -19.7279E-03     79.9678E-03     157.891E-03     55.6465E+06     12.8047E+06    -15.7691E+06    -50.6492E+06    -15.7832E+06    -22.0612E+06    -15.7691E+06    -26.7517E+06
            1938     106.043E-03     15.6597E-03     104.881E-03     94.1099E-03    -21.7921E-03    -72.3190E-03    -55.7167E-03     77.5076E-03    -21.7921E-03     99.2506E-03     221.291E-03     69.0900E+06     54.4762E+06     635.853E+03    -23.0714E+06    -14.6304E+06     46.0353E+06     635.853E+03    -19.1717E+06
            1939     106.298E-03     16.6058E-03     104.993E-03     91.8706E-03    -24.0628E-03    -67.8100E-03    -54.8275E-03     78.8882E-03    -24.0628E-03     83.7940E-03     238.972E-03     121.168E+06     119.043E+06     71.1539E+06    -11.7102E+06    -10.4503E+06     107.139E+06     81.7981E+06    -10.4739E+06
            1940     105.520E-03     995.164E-06     105.515E-03     10.5610E-03    -5.13779E-03    -5.42315E-03    -5.27160E-03     10.4094E-03    -5.13779E-03     2.86495E-03     10.5701E-03     76.1441E+06     72.7658E+06     3.88791E+06    -8.47638E+06    -3.75438E+06     68.8970E+06     3.03471E+06     14.0024E+06
            1941     105.533E-03     1.98966E-03     105.514E-03     11.4132E-03    -5.30889E-03    -6.10435E-03    -5.62395E-03     10.9328E-03    -5.30889E-03     5.55353E-03     11.4404E-03     80.6049E+06     57.8752E+06    -10.5453E+06    -30.3712E+06    -19.6795E+06     48.0366E+06    -11.3985E+06     26.5932E+06
            1942     105.557E-03     2.98402E-03     105.515E-03     12.7302E-03    -5.52114E-03    -7.20958E-03    -6.14037E-03     11.6610E-03    -5.52114E-03     8.85132E-03     12.8016E-03     82.1666E+06     35.8237E+06    -26.3544E+06    -56.6450E+06    -37.5015E+06     16.6801E+06    -26.3544E+06     36.7973E+06
            1943     105.591E-03     3.97736E-03     105.516E-03     14.6417E-03    -5.79454E-03    -8.84794E-03    -6.87153E-03     12.6653E-03    -5.79454E-03     12.9277E-03     14.8074E-03     83.1271E+06     15.0147E+06    -38.1625E+06    -80.3487E+06    -52.8375E+06    -12.4965E+06    -38.1625E+06     43.1437E+06
            1944     105.638E-03     4.97012E-03     105.521E-03     17.2931E-03    -6.15697E-03    -11.1365E-03    -7.90681E-03     14.0633E-03    -6.15697E-03     17.9508E-03     17.6372E-03     79.4447E+06     942.619E+03    -40.5514E+06    -90.1930E+06    -60.6967E+06    -28.5537E+06    -40.5514E+06     42.6027E+06
            1945     105.696E-03     5.96138E-03     105.528E-03     20.7096E-03    -6.62654E-03    -14.0855E-03    -9.31177E-03     15.9358E-03    -6.62654E-03     23.8711E-03     21.3713E-03     67.1715E+06    -11.4234E+06    -35.0159E+06    -86.9386E+06    -61.3014E+06    -37.0607E+06    -35.0159E+06     35.7477E+06
            1946     105.769E-03     6.95139E-03     105.541E-03     24.8737E-03    -7.20013E-03    -17.6774E-03    -11.1298E-03     18.3260E-03    -7.20013E-03     30.6484E-03     26.1045E-03     55.4849E+06    -16.8532E+06    -26.3072E+06    -76.3023E+06    -58.7072E+06    -35.8248E+06    -24.9306E+06     26.5538E+06
            1947     105.856E-03     7.93912E-03     105.558E-03     29.9674E-03    -7.91030E-03    -22.0553E-03    -13.5844E-03     21.4965E-03    -7.91030E-03     38.3616E-03     32.1703E-03     47.8820E+06    -11.1740E+06    -24.1192E+06    -63.3556E+06    -54.5587E+06    -32.2742E+06    -11.8159E+06     16.2921E+06
            1948     105.959E-03     8.92435E-03     105.582E-03     35.8944E-03    -8.77707E-03    -27.1138E-03    -16.8619E-03     25.6426E-03    -8.77707E-03     46.4547E-03     39.6224E-03     45.5254E+06     303.941E+03    -28.0742E+06    -51.5451E+06    -49.0535E+06    -30.5658E+06     303.941E+03     5.39890E+06
            1949     106.076E-03     9.90591E-03     105.612E-03     43.1198E-03    -9.82367E-03    -33.2823E-03    -21.1183E-03     30.9557E-03    -9.82367E-03     55.8456E-03     49.5054E-03     48.4181E+06     9.19964E+06    -26.1574E+06    -45.7149E+06    -43.1291E+06    -28.7432E+06     9.19964E+06    -4.72078E+06
            1950     106.212E-03     10.8831E-03     105.653E-03     51.2466E-03    -11.0927E-03    -40.1449E-03    -26.5314E-03     37.6331E-03    -11.0927E-03     64.9803E-03     61.7613E-03     53.8236E+06     15.1892E+06    -18.9517E+06    -46.5177E+06    -36.5083E+06    -28.9611E+06     15.1892E+06    -12.7963E+06
            1951     106.363E-03     11.8547E-03     105.700E-03     59.0451E-03    -12.5978E-03    -46.4511E-03    -32.8387E-03     45.4327E-03    -12.5978E-03     70.5732E-03     75.3683E-03     55.6234E+06     16.5633E+06    -9.23710E+06    -46.8943E+06    -31.2221E+06    -24.9093E+06     16.5633E+06    -18.4957E+06
            1952     106.526E-03     12.8198E-03     105.752E-03     67.8204E-03    -14.3635E-03    -53.4587E-03    -39.8579E-03     54.2196E-03    -14.3635E-03     76.4432E-03     93.8782E-03     59.3238E+06     14.4792E+06    -1.04269E+06    -50.8220E+06    -27.7183E+06    -24.1463E+06     14.4792E+06    -24.4039E+06
            1953     106.706E-03     13.7786E-03     105.813E-03     78.4957E-03    -16.3505E-03    -62.1485E-03    -48.2250E-03     64.5723E-03    -16.3505E-03     83.8582E-03     122.030E-03     66.9276E+06     9.44682E+06    -9.16455E+06    -64.5326E+06    -22.4825E+06    -38.5599E+06    -3.20792E+06    -32.1300E+06
            1954     106.903E-03     14.7280E-03     105.884E-03     88.8603E-03    -18.5947E-03    -70.2666E-03    -56.3092E-03     74.9029E-03    -18.5947E-03     89.9311E-03     162.207E-03     58.8790E+06     12.5656E+06    -14.5723E+06    -54.5193E+06    -15.2054E+06    -26.7482E+06    -14.5723E+06    -31.6333E+06
            1955     107.116E-03     15.6712E-03     105.964E-03     99.8079E-03    -20.9986E-03    -78.7932E-03    -61.3400E-03     82.3547E-03    -20.9986E-03     105.751E-03     224.075E-03     63.8550E+06     48.8895E+06     524.907E+03    -22.6989E+06    -9.25805E+06     35.4487E+06     524.907E+03    -21.0560E+06
            1956     107.373E-03     16.6136E-03     106.080E-03     97.5512E-03    -23.6387E-03    -73.9050E-03    -61.2718E-03     84.9180E-03    -23.6387E-03     84.8124E-03     237.241E-03     111.369E+06     114.491E+06     65.2240E+06    -7.31861E+06    -5.81490E+06     97.6017E+06     80.6100E+06    -10.9355E+06
            1957     106.527E-03     997.492E-06     106.523E-03     5.54185E-03    -2.64717E-03    -2.89460E-03    -2.77084E-03     5.41808E-03    -2.64717E-03     1.87347E-03     5.56493E-03     100.620E+06     39.3090E+06    -45.8362E+06    -70.9817E+06    -58.2128E+06     26.5400E+06    -45.8362E+06     33.6607E+06
            1958     106.542E-03     1.99457E-03     106.523E-03     6.55425E-03    -2.90933E-03    -3.64471E-03    -3.23521E-03     6.14475E-03    -2.90933E-03     3.90892E-03     6.61846E-03     113.834E+06     39.6011E+06    -44.7820E+06    -89.5508E+06    -66.9048E+06     16.9551E+06    -44.7820E+06     48.5105E+06
            1959     106.566E-03     2.99078E-03     106.524E-03     8.10311E-03    -3.20531E-03    -4.89784E-03    -3.91444E-03     7.11971E-03    -3.20531E-03     6.78164E-03     8.24447E-03     111.841E+06     25.6445E+06    -47.7209E+06    -102.625E+06    -72.9482E+06    -4.03210E+06    -47.7209E+06     53.6146E+06
            1960     106.602E-03     3.98649E-03     106.527E-03     10.3760E-03    -3.57023E-03    -6.80444E-03    -4.84962E-03     8.42118E-03    -3.57023E-03     10.8293E-03     10.6504E-03     97.5826E+06     8.81206E+06    -46.0721E+06    -103.730E+06    -70.3839E+06    -24.5336E+06    -46.0721E+06     51.2975E+06
            1961     106.649E-03     4.98087E-03     106.532E-03     13.3756E-03    -3.99936E-03    -9.37633E-03    -6.05133E-03     10.0506E-03    -3.99936E-03     16.0092E-03     13.8551E-03     83.0383E+06     275.266E+03    -40.6540E+06    -95.2109E+06    -63.3090E+06    -31.6267E+06    -40.6540E+06     45.0053E+06
            1962     106.710E-03     5.97421E-03     106.542E-03     17.0791E-03    -4.51188E-03    -12.5686E-03    -7.54777E-03     12.0583E-03    -4.51188E-03     22.1869E-03     17.8750E-03     67.9165E+06    -7.47844E+06    -33.8696E+06    -84.3928E+06    -57.5643E+06    -34.3070E+06    -33.8696E+06     36.6517E+06
            1963     106.784E-03     6.96568E-03     106.556E-03     21.6027E-03    -5.13037E-03    -16.4747E-03    -9.44452E-03     14.5725E-03    -5.13037E-03     29.4999E-03     22.9358E-03     54.6276E+06    -11.6016E+06    -23.2010E+06    -70.8142E+06    -52.8435E+06    -29.5723E+06    -23.2010E+06     27.0100E+06
            1964     106.874E-03     7.95540E-03     106.577E-03     27.1710E-03    -5.87777E-03    -21.2976E-03    -11.9684E-03     17.8418E-03    -5.87777E-03     38.1687E-03     29.4192E-03     44.3961E+06    -7.79141E+06    -17.1049E+06    -55.7478E+06    -47.6049E+06    -22.7934E+06    -10.2459E+06     16.0447E+06
            1965     106.980E-03     8.94209E-03     106.606E-03     33.6723E-03    -6.78041E-03    -26.8946E-03    -15.3290E-03     22.1068E-03    -6.78041E-03     47.5539E-03     37.3340E-03     40.4259E+06     2.60206E+06    -17.1864E+06    -43.3373E+06    -41.2945E+06    -19.2292E+06     2.60206E+06     4.11370E+06
            1966     107.103E-03     9.92544E-03     106.642E-03     41.7820E-03    -7.87877E-03    -33.8923E-03    -19.8409E-03     27.7306E-03    -7.87877E-03     58.7865E-03     47.9657E-03     44.7518E+06     13.3535E+06    -15.7628E+06    -38.0161E+06    -34.5897E+06    -19.1892E+06     13.3535E+06    -5.88951E+06
            1967     107.245E-03     10.9038E-03     106.689E-03     50.9566E-03    -9.20978E-03    -41.7450E-03    -25.6814E-03     34.8931E-03    -9.20978E-03     70.0600E-03     61.0707E-03     51.0862E+06     19.0795E+06    -11.0041E+06    -39.6598E+06    -29.8524E+06    -20.8115E+06     19.0795E+06    -13.2004E+06
            1968     107.404E-03     11.8762E-03     106.746E-03     59.7261E-03    -10.7993E-03    -48.9385E-03    -32.5403E-03     43.3279E-03    -10.7993E-03     77.6103E-03     75.3302E-03     53.6125E+06     19.9370E+06    -3.79568E+06    -41.2956E+06    -26.2952E+06    -18.7962E+06     19.9370E+06    -18.2181E+06
            1969     107.576E-03     12.8419E-03     106.807E-03     70.0867E-03    -12.6895E-03    -57.3944E-03    -40.6482E-03     53.3405E-03    -12.6895E-03     85.9815E-03     95.1251E-03     56.3104E+06     18.5640E+06     4.90396E+06    -42.9908E+06    -23.7899E+06     -14.297E+06     18.5640E+06    -23.2871E+06
            1970     107.766E-03     13.7988E-03     106.879E-03     82.6309E-03    -14.8681E-03    -67.7632E-03    -50.2428E-03     65.1105E-03    -14.8681E-03     96.3207E-03     124.522E-03     67.7069E+06     15.3446E+06    -1.43358E+06    -58.8472E+06    -23.2626E+06    -24.0641E+06     2.39054E+06    -34.3890E+06
            1971     107.976E-03     14.7474E-03     106.964E-03     94.1337E-03    -17.3447E-03    -76.8042E-03    -59.6604E-03     76.9899E-03    -17.3447E-03     102.503E-03     165.316E-03     71.7786E+06     15.0344E+06    -16.0441E+06    -66.6771E+06    -20.0657E+06    -31.5770E+06    -16.0441E+06    -40.2189E+06
            1972     108.197E-03     15.6875E-03     107.054E-03     106.577E-03    -20.0865E-03    -86.4789E-03    -67.2489E-03     87.3465E-03    -20.0865E-03     115.518E-03     227.076E-03     69.7522E+06     42.6576E+06    -1.55219E+06    -36.8961E+06    -13.0800E+06     18.8415E+06    -1.55219E+06    -27.7447E+06
            1973     108.456E-03     16.6217E-03     107.175E-03     105.180E-03    -23.1638E-03    -82.0144E-03    -69.3210E-03     92.4870E-03    -23.1638E-03     87.4318E-03     234.942E-03     104.012E+06     108.196E+06     61.7674E+06    -8.27217E+06    -6.15244E+06     85.7331E+06     82.1109E+06    -10.7432E+06
            1974     107.531E-03     998.729E-06     107.526E-03     2.68472E-03    -1.27480E-03    -1.40989E-03    -1.32783E-03     2.61252E-03    -1.28465E-03     995.833E-06     2.70525E-03     113.289E+06    -19.2790E+06    -121.289E+06    -139.825E+06    -123.821E+06    -31.4482E+06    -125.123E+06     33.1067E+06
            1975     107.546E-03     1.99707E-03     107.527E-03     3.46613E-03    -1.48305E-03    -1.98301E-03    -1.69191E-03     3.17503E-03    -1.48305E-03     2.38323E-03     3.55065E-03     119.491E+06     3.76585E+06    -94.0988E+06    -126.952E+06    -102.630E+06    -19.9897E+06    -94.6645E+06     49.2198E+06
            1976     107.571E-03     2.99498E-03     107.529E-03     5.01874E-03    -1.77719E-03    -3.24150E-03    -2.36757E-03     4.14481E-03    -1.77719E-03     5.00609E-03     5.23964E-03     108.533E+06     9.21791E+06    -68.2332E+06    -113.266E+06    -82.4084E+06    -21.6400E+06    -68.2332E+06     52.9262E+06
            1977     107.607E-03     3.99187E-03     107.533E-03     7.40131E-03    -2.12590E-03    -5.27505E-03    -3.36448E-03     5.49074E-03    -2.12590E-03     9.01799E-03     7.80684E-03     89.9050E+06     1.08943E+06    -54.8730E+06    -102.144E+06    -69.4580E+06    -31.5963E+06    -54.8730E+06     47.8940E+06
            1978     107.656E-03     4.98801E-03     107.541E-03     10.4435E-03    -2.53111E-03    -7.91250E-03    -4.56892E-03     7.09995E-03    -2.53111E-03     14.1286E-03     11.0669E-03      76.221E+06    -3.76455E+06    -47.8988E+06    -91.5508E+06    -61.3229E+06    -33.9924E+06    -47.8988E+06     41.6980E+06
            1979     107.719E-03     5.98271E-03     107.552E-03     14.2034E-03    -3.02863E-03    -11.1733E-03    -6.01261E-03     9.04266E-03    -3.02863E-03     20.3938E-03     15.1265E-03     60.4482E+06    -6.54401E+06    -37.4055E+06    -75.8595E+06    -52.8940E+06    -29.5095E+06    -37.4055E+06     32.5345E+06
            1980     107.795E-03     6.97611E-03     107.569E-03     18.9145E-03    -3.63327E-03    -15.2811E-03    -7.85802E-03     11.4914E-03    -3.63327E-03     28.1587E-03     20.3428E-03     43.0383E+06    -8.60114E+06    -22.8883E+06    -56.5699E+06    -41.6968E+06    -23.4743E+06    -22.8883E+06     21.8928E+06
            1981     107.888E-03     7.96721E-03     107.593E-03     24.7552E-03    -4.35618E-03    -20.4010E-03    -10.2915E-03     14.6457E-03    -4.35618E-03     37.6066E-03     27.0380E-03     32.9602E+06    -3.30043E+06    -10.1751E+06    -39.1336E+06    -31.3981E+06    -14.5423E+06    -6.66869E+06     13.2665E+06
            1982     107.998E-03     8.95607E-03     107.626E-03     31.6343E-03    -5.23010E-03    -26.4063E-03    -13.5570E-03     18.7849E-03    -5.23010E-03     48.1431E-03     35.2274E-03     32.1137E+06     7.58053E+06    -6.11472E+06    -28.5980E+06    -26.3458E+06    -8.36684E+06     7.58053E+06     4.24086E+06
            1983     108.125E-03     9.94114E-03     107.668E-03     40.4348E-03    -6.29989E-03    -34.1379E-03    -18.0813E-03     24.3781E-03    -6.29989E-03     61.2374E-03     46.4058E-03     39.4593E+06     17.4026E+06    -7.21676E+06    -27.9438E+06    -24.8948E+06    -10.2657E+06     17.4026E+06    -4.72210E+06
            1984     108.275E-03     10.9216E-03     107.723E-03     50.4308E-03    -7.60185E-03    -42.8374E-03    -24.0123E-03     31.6058E-03    -7.60185E-03     74.7464E-03     60.0591E-03     47.4186E+06     23.2443E+06    -3.64081E+06    -31.2312E+06    -22.3394E+06    -12.5326E+06     23.2443E+06    -12.2948E+06
            1985     108.442E-03     11.8958E-03     107.788E-03     60.1378E-03    -9.18210E-03    -50.9634E-03    -31.2687E-03     40.4430E-03    -9.18210E-03     84.6566E-03     74.8963E-03     52.2476E+06     25.4191E+06     4.13474E+06    -33.9302E+06    -17.5956E+06    -12.1999E+06     25.4191E+06    -18.6976E+06
            1986     108.624E-03     12.8628E-03     107.859E-03     72.0997E-03    -11.1058E-03    -60.9892E-03    -40.3266E-03     51.4371E-03    -11.1058E-03     96.2333E-03     95.9119E-03     54.2301E+06     26.2922E+06     13.0419E+06    -33.1820E+06    -12.4028E+06    -7.73735E+06     26.2922E+06    -22.6909E+06
            1987     108.827E-03     13.8207E-03     107.946E-03     86.2531E-03    -13.3958E-03    -72.8599E-03    -51.0198E-03     64.4130E-03    -13.3958E-03     109.296E-03     126.104E-03     60.7025E+06     26.5497E+06     14.8100E+06    -39.0291E+06    -11.0704E+06    -5.82947E+06     19.2305E+06    -29.9884E+06
            1988     109.049E-03     14.7679E-03     108.044E-03     99.2878E-03    -16.0282E-03    -83.2766E-03    -62.2300E-03     78.2412E-03    -16.0282E-03     116.308E-03     167.505E-03     73.4005E+06     19.9941E+06    -5.90548E+06    -62.1724E+06    -15.1898E+06    -26.9884E+06    -5.90548E+06    -39.7694E+06
            1989     109.282E-03     15.7053E-03     108.147E-03     114.559E-03    -19.0898E-03    -95.4778E-03    -73.5032E-03     92.5845E-03    -19.0898E-03     128.533E-03     230.759E-03     72.3506E+06     32.0657E+06     1.03402E+06    -49.8269E+06    -15.6785E+06    -2.08269E+06     1.03402E+06    -33.2559E+06
            1990     109.551E-03     16.6328E-03     108.281E-03     114.718E-03    -22.6330E-03    -92.0992E-03    -78.8207E-03     101.440E-03    -22.6330E-03     91.6320E-03     233.144E-03     99.4591E+06     96.7748E+06     60.4836E+06    -15.0283E+06    -10.3557E+06     68.2623E+06     84.3236E+06    -13.9977E+06
            1991     108.533E-03     998.425E-06     108.528E-03     2.14226E-03    -1.02615E-03    -1.11611E-03    -1.03534E-03     2.11667E-03    -1.08134E-03     490.964E-06     2.15670E-03     98.5336E+06    -65.6524E+06    -160.275E+06    -167.551E+06    -158.275E+06    -68.5953E+06    -166.609E+06     10.4982E+06
            1992     108.548E-03     1.99725E-03     108.530E-03     2.28559E-03    -1.02789E-03    -1.25767E-03    -1.06804E-03     2.13313E-03    -1.06505E-03     1.30208E-03     2.35416E-03     101.679E+06    -41.6355E+06    -136.791E+06    -148.483E+06    -132.165E+06    -50.3072E+06    -144.438E+06     19.8271E+06
            1993     108.574E-03     2.99617E-03     108.532E-03     3.24911E-03    -1.14180E-03    -2.10725E-03    -1.46203E-03     2.60389E-03    -1.14180E-03     3.40029E-03     3.44619E-03     99.7404E+06    -22.4355E+06    -103.581E+06    -132.902E+06    -101.378E+06    -37.2769E+06    -120.264E+06     28.5898E+06
            1994     108.611E-03     3.99446E-03     108.538E-03     5.34303E-03    -1.36086E-03    -3.98203E-03    -2.30793E-03     3.66893E-03    -1.36086E-03     7.13612E-03     5.74393E-03     84.0368E+06    -18.5395E+06    -76.6604E+06    -114.762E+06    -75.3536E+06    -37.7800E+06    -96.8284E+06     30.4959E+06
            1995     108.661E-03     4.99142E-03     108.546E-03     8.36164E-03    -1.73220E-03    -6.62918E-03    -3.45745E-03     5.18990E-03    -1.73220E-03     12.2310E-03     9.01487E-03     61.9501E+06    -15.8672E+06    -56.2064E+06    -87.1709E+06    -53.5498E+06    -36.5839E+06    -69.1109E+06     27.7479E+06
            1996     108.725E-03     5.98741E-03     108.560E-03     12.0781E-03    -2.18248E-03    -9.89414E-03    -4.80588E-03     6.98980E-03    -2.18248E-03     18.5243E-03     13.0322E-03     47.3529E+06    -7.55804E+06    -40.8319E+06    -60.7310E+06    -38.0869E+06    -25.1434E+06    -45.8906E+06     22.7945E+06
            1997     108.803E-03     6.98187E-03     108.579E-03     16.7675E-03    -2.72523E-03    -14.0401E-03    -6.48564E-03     9.21297E-03    -2.72523E-03     26.4917E-03     18.1918E-03     33.3760E+06    -6.74970E+06    -28.0200E+06    -43.5585E+06    -31.7916E+06    -18.2965E+06    -28.2401E+06     16.1756E+06
            1998     108.899E-03     7.97497E-03     108.606E-03     22.6073E-03    -3.37428E-03    -19.2310E-03    -8.65455E-03     12.0308E-03    -3.37428E-03     36.3443E-03     24.7979E-03     28.0549E+06    -2.25650E+06    -13.0977E+06    -33.7723E+06    -28.6085E+06    -8.73555E+06    -11.7824E+06     9.49682E+06
            1999     109.012E-03     8.96538E-03     108.642E-03     29.6796E-03    -4.16325E-03    -25.5170E-03    -11.6374E-03     15.8000E-03    -4.16325E-03     47.8563E-03     33.0521E-03     29.3559E+06     8.89338E+06    -1.28397E+06    -23.6205E+06    -22.0345E+06     434.269E+03     5.58910E+06     2.33178E+06
            2000     109.144E-03     9.95286E-03     108.690E-03     38.9932E-03    -5.14189E-03    -33.8546E-03    -15.9462E-03     21.0849E-03    -5.14189E-03     62.6806E-03     44.5449E-03     35.2309E+06     20.2671E+06     3.31748E+06    -19.5558E+06    -13.6996E+06    -2.53870E+06     20.2671E+06    -4.86502E+06
            2001     109.301E-03     10.9355E-03     108.752E-03     49.5485E-03    -6.34672E-03    -43.2002E-03    -21.6703E-03     28.0186E-03    -6.34672E-03     78.2136E-03     58.4370E-03     43.2101E+06     30.3738E+06     6.62675E+06    -19.4672E+06    -8.43735E+06    -4.40310E+06     30.3738E+06    -10.8939E+06
            2002     109.477E-03     11.9128E-03     108.827E-03     60.2518E-03    -7.84067E-03    -52.4078E-03    -29.2071E-03     37.0512E-03    -7.84067E-03     90.9225E-03     73.8774E-03     51.4696E+06      35.404E+06     14.4839E+06    -22.8646E+06    -5.82485E+06    -2.55589E+06      35.404E+06    -18.5093E+06
            2003     109.669E-03     12.8818E-03     108.909E-03     73.5241E-03    -9.70967E-03    -63.8139E-03    -38.9241E-03     48.6344E-03    -9.70967E-03     105.647E-03     95.6531E-03     57.0503E+06     36.0261E+06     20.3964E+06    -27.1449E+06    -2.63787E+06    -4.11059E+06     36.0261E+06    -23.7206E+06
            2004     109.886E-03     13.8412E-03     109.011E-03     89.1352E-03    -12.0085E-03    -77.1307E-03    -50.5514E-03     62.5558E-03    -12.0085E-03     121.635E-03     126.187E-03     57.5720E+06     37.9212E+06     28.1083E+06    -23.7440E+06    -74.5563E+03     6.02205E+06     36.3379E+06    -26.0722E+06
            2005     110.122E-03     14.7899E-03     109.125E-03     104.581E-03    -14.7355E-03    -89.8487E-03    -64.2346E-03     78.9671E-03    -14.7355E-03     131.092E-03     168.592E-03     67.3582E+06     28.1861E+06     11.6529E+06    -45.3874E+06    -1.83457E+06    -16.5315E+06     12.8176E+06    -31.9365E+06
            2006     110.372E-03     15.7242E-03     109.246E-03     123.539E-03    -18.0632E-03    -105.474E-03    -79.5925E-03     97.6575E-03    -18.0632E-03     144.952E-03     235.235E-03     67.7403E+06     28.2726E+06     8.01480E+06    -47.0571E+06    -6.57911E+06    -16.2289E+06     12.0383E+06    -30.0074E+06
            2007     110.658E-03     16.6441E-03     109.399E-03     125.766E-03    -22.0364E-03    -103.727E-03    -88.9224E-03     110.961E-03    -22.0364E-03     99.0271E-03     233.545E-03     92.2863E+06     89.7562E+06     53.6865E+06    -14.2757E+06    -6.57883E+06     48.4387E+06     87.3071E+06    -15.0425E+06
            2008     109.535E-03     997.949E-06     109.531E-03     3.27319E-03    -1.60699E-03    -1.66619E-03    -1.60144E-03     3.26764E-03    -1.66619E-03     104.513E-06     3.29992E-03     70.2152E+06    -71.9402E+06    -138.661E+06    -145.126E+06    -141.005E+06    -72.6813E+06    -142.041E+06    -5.44770E+06
            2009     109.550E-03     1.99617E-03     109.531E-03     3.15928E-03    -1.54108E-03    -1.61824E-03    -1.51734E-03     3.11769E-03    -1.60040E-03     508.837E-06     3.23706E-03     77.0337E+06    -58.9512E+06    -130.235E+06    -140.567E+06    -131.966E+06    -60.4723E+06    -137.316E+06    -6.16432E+06
            2010     109.576E-03     2.99443E-03     109.535E-03     3.41420E-03    -1.52159E-03    -1.89264E-03    -1.59402E-03     3.13184E-03    -1.53784E-03     1.90858E-03     3.61006E-03     84.5627E+06    -44.4189E+06    -117.549E+06    -135.484E+06    -115.909E+06    -47.3113E+06    -134.232E+06    -2.69291E+06
            2011     109.613E-03     3.99288E-03     109.540E-03     4.57575E-03    -1.57151E-03    -3.00423E-03    -2.00921E-03     3.58073E-03    -1.57151E-03     4.83990E-03     4.95703E-03     79.7409E+06    -35.8732E+06    -98.5349E+06    -124.045E+06    -93.0380E+06    -41.5144E+06    -123.900E+06    -326.766E+03
            2012     109.665E-03     4.99100E-03     109.551E-03     6.78580E-03    -1.72773E-03    -5.05791E-03    -2.76663E-03     4.49452E-03    -1.72773E-03     9.25062E-03     7.34724E-03     68.7173E+06    -28.5744E+06    -76.9897E+06    -106.723E+06    -68.3133E+06    -37.2508E+06    -106.723E+06    -722.624E+03
            2013     109.729E-03     5.98789E-03     109.566E-03     10.0445E-03    -1.99148E-03    -8.05224E-03    -3.84936E-03     5.84163E-03    -1.99148E-03     15.2550E-03     10.8144E-03     62.4236E+06    -15.9093E+06    -54.9927E+06    -86.1345E+06    -44.0673E+06    -26.8347E+06    -86.1345E+06     1.02457E+06
            2014     109.810E-03     6.98367E-03     109.587E-03     14.6329E-03    -2.43647E-03    -12.1945E-03    -5.34793E-03     7.78637E-03    -2.43647E-03     23.3844E-03     15.8091E-03     46.4805E+06    -5.24134E+06    -32.6723E+06    -57.1826E+06    -23.7862E+06    -17.9812E+06    -53.3288E+06     4.65871E+06
            2015     109.907E-03     7.97733E-03     109.617E-03     20.4758E-03    -3.01964E-03    -17.4550E-03    -7.27889E-03     10.2997E-03    -3.01964E-03     33.6084E-03     22.3358E-03     29.9351E+06     5.54796E+06    -11.7145E+06    -28.5190E+06    -11.2713E+06    -5.02128E+06    -18.3930E+06     4.30118E+06
            2016     110.023E-03     8.96967E-03     109.657E-03     27.6491E-03    -3.70109E-03    -23.9485E-03    -9.95392E-03     13.6545E-03    -3.70109E-03     45.8759E-03     30.5627E-03     24.8051E+06     12.9247E+06     3.62935E+06    -14.2558E+06    -8.13220E+06     5.21364E+06     5.21686E+06     1.47618E+06
            2017     110.159E-03     9.95896E-03     109.708E-03     37.0067E-03    -4.54049E-03    -32.4686E-03    -13.7005E-03     18.2385E-03    -4.54049E-03     61.6794E-03     41.8001E-03     34.9297E+06     20.9377E+06     12.4603E+06    -16.8219E+06    -10.1312E+06     5.76955E+06     20.9377E+06    -4.19991E+06
            2018     110.322E-03     10.9447E-03     109.777E-03     47.8927E-03    -5.58741E-03    -42.3062E-03    -18.9292E-03     24.5156E-03    -5.58741E-03     78.9811E-03     55.5917E-03     47.1604E+06     33.2567E+06     15.6417E+06    -19.2830E+06    -7.42922E+06     3.78795E+06     33.2567E+06    -12.5350E+06
            2019     110.505E-03     11.9247E-03     109.860E-03     59.5946E-03    -6.92287E-03    -52.6671E-03    -26.4253E-03     33.3527E-03    -6.92287E-03     94.8682E-03     71.5182E-03     53.1188E+06     43.3023E+06     22.4359E+06    -16.8032E+06    -1.01806E+06     6.65078E+06     43.3023E+06    -18.8991E+06
            2020     110.710E-03     12.8967E-03     109.956E-03     74.0202E-03    -8.66545E-03    -65.3515E-03    -36.5770E-03     45.2457E-03    -8.66545E-03     112.669E-03     93.6827E-03     62.3446E+06     47.1432E+06     25.8866E+06    -23.0149E+06     2.75672E+06     114.957E+03     47.1432E+06    -23.1487E+06
            2021     110.939E-03     13.8591E-03     110.070E-03     91.2756E-03    -10.8809E-03    -80.4040E-03    -49.3751E-03     60.2467E-03    -10.8809E-03     131.922E-03     124.626E-03     61.8636E+06     48.3872E+06     33.2899E+06    -19.2572E+06     4.27338E+06     9.75931E+06     48.3872E+06    -23.6815E+06
            2022     111.195E-03     14.8089E-03     110.205E-03     109.334E-03    -13.6309E-03    -95.7106E-03    -65.3429E-03     78.9661E-03    -13.6309E-03     145.184E-03     167.275E-03     63.7906E+06     33.8963E+06     22.9361E+06    -34.4638E+06     2.22955E+06    -8.13502E+06     28.2741E+06    -25.4925E+06
            2023     111.465E-03     15.7419E-03     110.348E-03     132.196E-03    -17.1158E-03    -115.078E-03    -84.6069E-03     101.724E-03    -17.1158E-03     162.423E-03     238.480E-03     60.2895E+06     25.4716E+06     10.6245E+06    -40.6947E+06    -1.35174E+06    -23.0962E+06     19.8494E+06    -24.0807E+06
            2024     111.775E-03     16.6575E-03     110.526E-03     136.940E-03    -21.4315E-03    -115.523E-03    -98.5314E-03     119.948E-03    -21.4315E-03     109.257E-03     236.717E-03     82.9374E+06     82.4307E+06     40.7299E+06    -12.2772E+06    -2.73928E+06     31.1920E+06     82.4307E+06    -11.2434E+06
            2025     110.539E-03     997.282E-06     110.535E-03     5.36152E-03    -2.65616E-03    -2.70530E-03    -2.68454E-03     5.35755E-03    -2.67295E-03    -335.157E-06     5.39410E-03     44.6289E+06    -58.1134E+06    -99.7608E+06    -105.131E+06    -101.875E+06    -60.4888E+06    -100.641E+06    -9.46217E+06
            2026     110.554E-03     1.99419E-03     110.536E-03     5.55275E-03    -2.71462E-03    -2.83812E-03    -2.81112E-03     5.54790E-03    -2.73677E-03    -213.981E-06     5.65883E-03     50.6525E+06    -48.4754E+06    -93.7394E+06    -102.540E+06    -98.0322E+06    -52.9830E+06    -93.7394E+06    -13.9895E+06
            2027     110.579E-03     2.99123E-03     110.539E-03     5.83876E-03    -2.79572E-03    -3.04301E-03    -2.97612E-03     5.78812E-03    -2.81197E-03     667.457E-06     6.11499E-03     57.1099E+06    -38.4189E+06    -88.5301E+06    -99.4093E+06    -92.6100E+06    -45.2182E+06    -88.5301E+06    -18.2720E+06
            2028     110.617E-03     3.98804E-03     110.545E-03     6.27224E-03    -2.85686E-03    -3.41537E-03    -3.11605E-03     5.97293E-03    -2.85686E-03     2.58170E-03     6.77792E-03     64.3967E+06    -29.6044E+06    -84.4670E+06    -99.7114E+06    -85.8890E+06    -38.2293E+06    -89.6645E+06    -20.8089E+06
            2029     110.668E-03     4.98480E-03     110.555E-03     7.15855E-03    -2.87735E-03    -4.28101E-03    -3.29893E-03     6.17647E-03    -2.87735E-03     5.68232E-03     7.86412E-03     74.8403E+06    -21.1640E+06    -78.1717E+06    -105.462E+06    -77.1835E+06    -32.6138E+06    -95.0005E+06    -24.0530E+06
            2030     110.733E-03     5.98191E-03     110.572E-03     9.11662E-03    -2.96023E-03    -6.15322E-03    -3.81482E-03     6.77822E-03    -2.96023E-03     10.4927E-03     9.99671E-03     79.6250E+06    -13.4578E+06    -65.8376E+06    -103.683E+06    -63.4558E+06    -27.6024E+06    -91.9206E+06    -25.9180E+06
            2031     110.814E-03     6.97822E-03     110.594E-03     12.5339E-03    -3.16993E-03    -9.35880E-03    -4.73779E-03     7.91293E-03    -3.16993E-03     17.5991E-03     13.5794E-03     70.4832E+06    -3.67038E+06    -53.8150E+06    -80.9347E+06    -41.6315E+06    -22.5372E+06    -74.2515E+06    -22.2751E+06
            2032     110.913E-03     7.97388E-03     110.626E-03     17.5834E-03    -3.48294E-03    -14.0986E-03    -6.13748E-03     9.62222E-03    -3.48294E-03     27.3979E-03     18.8978E-03      55.521E+06     10.1542E+06    -33.9193E+06    -50.3688E+06    -16.5651E+06    -7.54541E+06    -50.0233E+06    -14.6921E+06
            2033     111.031E-03     8.96704E-03     110.668E-03     24.6804E-03    -3.99654E-03    -20.6829E-03    -8.40808E-03     12.4056E-03    -3.99654E-03     40.2937E-03     26.7342E-03     36.7163E+06     18.6756E+06    -6.14828E+06    -22.9492E+06     3.30311E+06     1.01928E+06    -14.7443E+06    -5.56322E+06
            2034     111.172E-03     9.95769E-03     110.725E-03     34.0601E-03    -4.71248E-03    -29.3490E-03    -11.6811E-03     16.3922E-03    -4.71248E-03     56.8540E-03     37.6443E-03     33.4624E+06     31.1016E+06     21.0964E+06    -5.11905E+06     12.4897E+06     10.8646E+06     23.7246E+06    -826.428E+03
            2035     111.337E-03     10.9455E-03     110.798E-03     45.2198E-03    -5.58068E-03    -39.6430E-03    -16.3537E-03     21.9305E-03    -5.58068E-03     75.7231E-03     51.2503E-03     46.2910E+06     46.0798E+06     30.2362E+06    -4.81824E+06     10.5713E+06     16.2922E+06     44.6343E+06    -8.29729E+06
            2036     111.529E-03     11.9286E-03     110.889E-03     57.5165E-03    -6.70795E-03    -50.8125E-03    -23.2444E-03     29.9483E-03    -6.70795E-03     94.2947E-03     67.1504E-03     53.7129E+06     53.3412E+06     23.3309E+06    -7.35336E+06     5.22552E+06     10.7521E+06     53.3412E+06    -14.6984E+06
            2037     111.744E-03     12.9046E-03     110.996E-03     73.1005E-03    -8.23853E-03    -64.8633E-03    -33.5259E-03     41.7630E-03    -8.23853E-03     115.485E-03     89.3607E-03     65.6896E+06     58.0816E+06     25.5600E+06    -16.3890E+06     1.17460E+06     7.99646E+06     58.0816E+06    -18.2669E+06
            2038     111.990E-03     13.8694E-03     111.128E-03     92.3825E-03    -10.2967E-03    -82.0980E-03    -47.7103E-03     57.9948E-03    -10.2967E-03     138.601E-03     120.945E-03     68.3901E+06     56.7295E+06     31.9624E+06    -20.2620E+06     477.127E+03     11.2233E+06     56.7295E+06    -22.5342E+06
            2039     112.263E-03     14.8207E-03     111.280E-03     112.484E-03    -12.9915E-03    -99.5039E-03    -64.7630E-03     77.7431E-03    -12.9915E-03     156.560E-03     162.073E-03     64.8834E+06     43.4114E+06     24.2309E+06    -28.2219E+06     2.45476E+06    -6.44584E+06     43.4114E+06    -21.1665E+06
            2040     112.559E-03     15.7545E-03     111.451E-03     140.177E-03    -16.4614E-03    -123.715E-03    -86.9544E-03     103.416E-03    -16.4614E-03     182.469E-03     236.193E-03     58.3416E+06     30.9068E+06     10.7367E+06    -34.1632E+06     674.756E+03    -24.1013E+06     30.9068E+06    -17.8081E+06
            2041     112.897E-03     16.6648E-03     111.661E-03     148.567E-03    -20.9209E-03    -127.659E-03    -106.530E-03     127.438E-03    -20.9209E-03     127.398E-03     241.207E-03     76.5120E+06     73.5758E+06     28.8348E+06    -13.9274E+06    -1.22483E+06     16.1322E+06     73.5758E+06    -6.42546E+06
            2042     111.546E-03     995.810E-06     111.541E-03     8.42919E-03    -4.15570E-03    -4.27346E-03    -4.23859E-03     8.41949E-03    -4.18086E-03    -682.944E-06     8.45958E-03     22.7731E+06    -40.4684E+06    -58.5127E+06    -65.2917E+06    -60.8381E+06    -44.9220E+06    -58.5127E+06    -8.83416E+06
            2043     111.561E-03     1.99161E-03     111.543E-03     9.01422E-03    -4.33247E-03    -4.68198E-03    -4.66773E-03     8.99998E-03    -4.33247E-03    -866.681E-06     9.12008E-03     32.7561E+06    -31.7743E+06    -54.8711E+06    -68.4495E+06    -60.0701E+06    -40.1537E+06    -54.8711E+06    -14.6998E+06
            2044     111.586E-03     2.98655E-03     111.546E-03     9.71997E-03    -4.57031E-03    -5.15006E-03    -5.13772E-03     9.70763E-03    -4.57031E-03    -528.149E-06     9.99229E-03     42.4142E+06    -21.5029E+06    -47.5601E+06    -69.9152E+06    -57.0741E+06    -34.3439E+06    -47.5601E+06    -20.7121E+06
            2045     111.624E-03     3.98097E-03     111.553E-03     10.2223E-03    -4.78682E-03    -5.43644E-03    -5.39967E-03     10.1856E-03    -4.78682E-03     580.450E-06     10.7612E-03     50.8061E+06    -12.1279E+06    -43.0169E+06    -69.8966E+06    -53.0631E+06    -28.9614E+06    -43.0169E+06    -25.6551E+06
            2046     111.674E-03     4.97562E-03     111.563E-03     10.6949E-03    -4.94714E-03    -5.74754E-03    -5.54035E-03     10.4877E-03    -4.94714E-03     2.65231E-03     11.5834E-03     58.3998E+06    -3.93313E+06    -42.4783E+06    -70.2377E+06    -50.7967E+06    -23.3742E+06    -42.4783E+06    -29.9455E+06
            2047     111.739E-03     5.96987E-03     111.579E-03     11.5519E-03    -5.07834E-03    -6.46959E-03    -5.73590E-03     10.8182E-03    -5.07834E-03     6.01746E-03     12.7966E-03     67.3363E+06     1.87324E+06    -44.8178E+06    -74.5375E+06    -52.3286E+06    -20.3356E+06    -44.8178E+06    -34.6207E+06
            2048     111.820E-03     6.96426E-03     111.603E-03     13.1741E-03    -5.19740E-03    -7.97059E-03    -6.03287E-03     11.2363E-03    -5.19740E-03     11.0791E-03     14.6202E-03     76.6651E+06     5.44743E+06    -49.5519E+06    -79.1375E+06    -53.0886E+06    -20.6015E+06    -49.5519E+06    -38.8368E+06
            2049     111.918E-03     7.95842E-03     111.635E-03     16.1122E-03    -5.32543E-03    -10.7807E-03    -6.54438E-03     11.8759E-03    -5.32543E-03     18.6522E-03     17.5662E-03     82.3944E+06     11.8409E+06    -41.5631E+06    -79.7108E+06    -45.7178E+06    -12.7265E+06    -50.9887E+06    -37.2065E+06
            2050     112.038E-03     8.95301E-03     111.679E-03     21.2594E-03    -5.59425E-03    -15.6536E-03    -7.69100E-03     13.2969E-03    -5.59425E-03     29.8395E-03     22.8195E-03     66.7279E+06     14.5288E+06    -24.3106E+06    -62.0470E+06    -28.3975E+06    -9.69515E+06    -33.7362E+06    -27.6515E+06
            2051     112.180E-03     9.94582E-03     111.739E-03     29.3094E-03    -6.01901E-03    -23.2819E-03    -9.88964E-03     15.9172E-03    -6.01901E-03     45.6371E-03     31.4993E-03     49.4334E+06     27.3403E+06    -1.31994E+06    -28.9157E+06    -5.44819E+06     3.87272E+06    -1.31994E+06    -15.1302E+06
            2052     112.350E-03     10.9352E-03     111.816E-03     40.2159E-03    -6.65328E-03    -33.5616E-03    -13.5576E-03     20.2119E-03    -6.65328E-03     65.5740E-03     44.0107E-03     47.6225E+06     50.5869E+06     20.7481E+06    -3.48237E+06     9.79674E+06     20.6896E+06     37.3663E+06    -5.36443E+06
            2053     112.547E-03     11.9203E-03     111.914E-03     53.3719E-03    -7.55947E-03    -45.8149E-03    -19.8001E-03     27.3571E-03    -7.55947E-03     87.2294E-03     60.0391E-03     53.4486E+06     64.5342E+06     23.9693E+06     4.05982E+06     11.6877E+06     16.3414E+06     64.5342E+06    -5.80279E+06
            2054     112.772E-03     12.8992E-03     112.032E-03     70.5858E-03    -8.81502E-03    -61.7718E-03    -30.3936E-03     39.2075E-03    -8.81502E-03     112.493E-03     82.8356E-03     65.1463E+06     71.5795E+06     25.2813E+06    -1.77165E+06     9.03036E+06     14.4793E+06     71.5795E+06    -9.10931E+06
            2055     113.033E-03     13.8675E-03     112.179E-03     91.2972E-03    -10.6546E-03    -80.6450E-03    -44.9350E-03     55.5872E-03    -10.6546E-03     139.334E-03     113.919E-03     71.7019E+06     72.1417E+06     31.6540E+06    -9.42521E+06     4.09667E+06     18.1322E+06     72.1417E+06    -13.5911E+06
            2056     113.327E-03     14.8204E-03     112.353E-03     111.967E-03    -13.1224E-03    -98.8404E-03    -60.8200E-03     73.9462E-03    -13.1224E-03     161.875E-03     150.889E-03     74.4519E+06     58.6197E+06     18.8455E+06    -26.9205E+06    -2.00857E+06    -6.06647E+06     58.6197E+06    -17.2462E+06
            2057     113.644E-03     15.7605E-03     112.546E-03     145.206E-03    -16.2529E-03    -128.945E-03    -84.0198E-03     100.281E-03    -16.2529E-03     202.644E-03     223.873E-03     61.0966E+06     34.3734E+06    -645.766E+03    -35.9364E+06    -6.37512E+06    -30.2070E+06     34.3734E+06    -12.3723E+06
            2058     114.028E-03     16.6765E-03     112.802E-03     160.201E-03    -20.5780E-03    -139.609E-03    -111.152E-03     131.744E-03    -20.5780E-03     156.232E-03     244.963E-03     73.1691E+06     67.2964E+06     18.9102E+06    -16.5523E+06    -4.75153E+06     7.10946E+06     67.2964E+06    -3.84589E+06
            2059     112.556E-03     994.098E-06     112.551E-03     12.7590E-03    -6.22490E-03    -6.53563E-03    -6.50190E-03     12.7475E-03    -6.24714E-03    -855.548E-06     12.7846E-03     15.2161E+06    -21.1140E+06    -25.9969E+06    -37.9298E+06    -28.1077E+06    -30.9361E+06    -25.9969E+06    -6.66311E+06
            2060     112.571E-03     1.98737E-03     112.554E-03     13.6694E-03    -6.55570E-03    -7.11616E-03    -7.08836E-03     13.6416E-03    -6.55570E-03    -1.50004E-03     13.7491E-03     25.9316E+06    -12.2596E+06    -21.4906E+06    -41.1190E+06    -27.4338E+06    -25.9448E+06    -21.4906E+06    -13.9160E+06
            2061     112.598E-03     2.97992E-03     112.558E-03     14.6115E-03    -6.88141E-03    -7.72966E-03    -7.69617E-03     14.5780E-03    -6.88141E-03    -1.70208E-03     14.8100E-03     35.9996E+06    -3.49039E+06    -16.8564E+06    -44.0271E+06    -25.7079E+06    -21.8096E+06    -16.8564E+06    -19.8119E+06
            2062     112.635E-03     3.97213E-03     112.565E-03     15.5844E-03    -7.22243E-03    -8.36110E-03    -8.33641E-03     15.5597E-03    -7.22243E-03    -1.28805E-03     15.9949E-03     44.1466E+06     2.38586E+06    -11.8422E+06    -46.7814E+06    -25.8127E+06    -18.5828E+06    -11.8422E+06    -24.1808E+06
            2063     112.686E-03     4.96333E-03     112.576E-03     16.5129E-03    -7.54907E-03    -8.96339E-03    -8.93651E-03     16.4861E-03    -7.54907E-03    -161.407E-06     17.2559E-03     49.6765E+06     7.27468E+06    -11.3641E+06    -48.5073E+06    -26.6658E+06    -14.5668E+06    -11.3641E+06    -27.0330E+06
            2064     112.750E-03     5.95428E-03     112.593E-03     17.3588E-03    -7.86220E-03    -9.49732E-03    -9.38065E-03     17.2421E-03    -7.86220E-03     1.95483E-03     18.5405E-03     54.9454E+06     11.9401E+06    -11.3533E+06    -50.2430E+06    -27.6934E+06    -10.6095E+06    -11.3533E+06    -29.7361E+06
            2065     112.830E-03     6.94466E-03     112.616E-03     18.3650E-03    -8.18411E-03    -10.1834E-03    -9.74695E-03     17.9285E-03    -8.18411E-03     5.32054E-03     20.0254E-03     64.6559E+06     15.1163E+06    -7.42919E+06    -56.8267E+06    -31.2486E+06    -10.4617E+06    -7.42919E+06    -34.3290E+06
            2066     112.928E-03     7.93485E-03     112.649E-03     19.8742E-03    -8.48983E-03    -11.3790E-03    -10.1041E-03     18.5992E-03    -8.48983E-03     10.3891E-03     21.9072E-03     72.2531E+06     14.1804E+06    -6.37530E+06     -64.971E+06    -39.0731E+06    -11.8993E+06    -6.19346E+06    -36.9755E+06
            2067     113.046E-03     8.92432E-03     112.693E-03     22.3199E-03    -8.76156E-03    -13.5450E-03    -10.4365E-03     19.2113E-03    -8.76156E-03     18.0605E-03     24.4817E-03     73.2670E+06     10.5669E+06    -10.9275E+06    -69.5509E+06    -45.8206E+06    -13.3452E+06    -10.7457E+06    -36.4694E+06
            2068     113.188E-03     9.91448E-03     112.753E-03     26.6471E-03    -9.04700E-03    -17.5991E-03    -10.9651E-03     20.0131E-03    -9.04700E-03     29.6942E-03     28.8110E-03     71.9220E+06     16.2050E+06    -10.3942E+06    -63.2305E+06    -44.1144E+06    -6.16299E+06    -7.14225E+06    -32.1901E+06
            2069     113.358E-03     10.9052E-03     112.832E-03     33.8740E-03    -9.46676E-03    -24.4163E-03    -12.3819E-03     21.8395E-03    -9.46676E-03     45.9938E-03     36.3064E-03     67.3453E+06     32.7677E+06     7.15986E+06    -41.1849E+06    -29.8684E+06     7.61835E+06     20.9927E+06    -19.6875E+06
            2070     113.559E-03     11.8942E-03     112.935E-03     45.2648E-03    -10.0737E-03    -35.1726E-03    -16.4945E-03     26.5867E-03    -10.0737E-03     67.4952E-03     48.9735E-03     66.9822E+06     55.7953E+06     23.3181E+06    -18.8349E+06    -13.0326E+06     17.5157E+06     55.7953E+06    -7.93550E+06
            2071     113.794E-03     12.8756E-03     113.063E-03     63.4380E-03    -11.0344E-03    -52.3813E-03    -25.8750E-03     36.9317E-03    -11.0344E-03     97.2165E-03     71.1196E-03     78.9118E+06     78.1136E+06     25.6348E+06    -11.7035E+06    -3.11513E+06     17.0465E+06     78.1136E+06    -6.92340E+06
            2072     114.070E-03     13.8445E-03     113.226E-03     84.9741E-03    -12.5105E-03    -72.4623E-03    -39.0295E-03     51.5414E-03    -12.5105E-03     128.712E-03     100.113E-03      83.128E+06     87.1275E+06     28.7282E+06    -7.30441E+06     934.254E+03     20.4896E+06     87.1275E+06    -5.12060E+06
            2073     114.379E-03     14.8039E-03     113.416E-03     105.314E-03    -14.4611E-03    -90.8420E-03    -52.9523E-03     67.4240E-03    -14.4611E-03     154.792E-03     132.297E-03     75.9475E+06     67.0554E+06     14.3214E+06    -19.5331E+06    -5.49354E+06     281.747E+03     67.0554E+06    -2.70956E+06
            2074     114.713E-03     15.7528E-03     113.627E-03     142.472E-03    -17.0167E-03    -125.443E-03    -75.5424E-03     92.5714E-03    -17.0167E-03     208.510E-03     199.751E-03     64.9178E+06     34.4004E+06    -9.38470E+06    -40.0742E+06    -15.9338E+06    -33.5251E+06     34.4004E+06    -6.75296E+06
            2075     115.144E-03     16.6803E-03     113.930E-03     164.182E-03    -20.7661E-03    -143.405E-03    -106.276E-03     127.053E-03    -20.7661E-03     186.314E-03     238.520E-03     71.1517E+06     58.6449E+06     11.8818E+06    -23.1860E+06    -10.4530E+06    -851.162E+03     58.6449E+06    -8.31170E+06
            2076     113.571E-03     991.278E-06     113.566E-03     18.5546E-03    -9.02569E-03    -9.53006E-03    -9.28423E-03     18.5430E-03    -9.25994E-03    -1.02002E-03     18.5722E-03     21.4272E+06     1.58411E+06    -2.74097E+06    -21.4110E+06    -1.38511E+06    -18.4417E+06    -2.74097E+06    -6.47915E+06
            2077     113.587E-03     1.98155E-03     113.570E-03     19.4057E-03    -9.42985E-03    -9.97757E-03    -9.94619E-03     19.3743E-03    -9.42985E-03    -1.88082E-03     19.4509E-03     24.8459E+06     6.11632E+06     563.736E+03    -20.8406E+06    -2.20867E+06    -12.5156E+06     563.736E+03    -11.9862E+06
            2078     113.614E-03     2.97165E-03     113.575E-03     20.6510E-03    -9.78923E-03    -10.8593E-03    -10.8108E-03     20.6025E-03    -9.78923E-03    -2.45246E-03     20.7697E-03     31.9867E+06     9.60373E+06     3.91547E+06    -24.7213E+06    -4.15881E+06    -11.3200E+06     4.27674E+06    -16.3585E+06
            2079     113.653E-03     3.96037E-03     113.584E-03     22.2460E-03    -10.2455E-03    -11.9978E-03    -11.9428E-03     22.1910E-03    -10.2455E-03    -2.73673E-03     22.5068E-03     37.7491E+06     12.6835E+06     7.40621E+06    -27.3160E+06    -5.92506E+06    -10.1014E+06     8.80026E+06    -18.8973E+06
            2080     113.704E-03     4.94803E-03     113.596E-03     23.9296E-03    -10.7810E-03    -13.1507E-03    -13.1051E-03     23.8840E-03    -10.7810E-03    -2.50520E-03     24.4217E-03     44.5411E+06     19.4557E+06     9.10763E+06    -29.1474E+06    -7.64055E+06    -6.98043E+06     14.0369E+06    -21.6496E+06
            2081     113.769E-03     5.93421E-03     113.614E-03     25.5794E-03    -11.3460E-03    -14.2397E-03    -14.2098E-03     25.5495E-03    -11.3460E-03    -1.62904E-03     26.4160E-03     49.4352E+06     24.2857E+06     9.66133E+06    -30.7432E+06    -10.3607E+06    -3.96851E+06     17.5331E+06    -23.2724E+06
            2082     113.849E-03     6.91969E-03     113.638E-03     27.2636E-03    -11.9341E-03    -15.3325E-03    -15.2863E-03     27.2174E-03    -11.9341E-03     3.62704E-06     28.5817E-03     52.9729E+06     24.7061E+06     9.50963E+06    -33.5397E+06    -15.8017E+06    -3.82730E+06     20.3050E+06    -22.8803E+06
            2083     113.946E-03     7.90379E-03     113.671E-03     29.1087E-03    -12.5518E-03    -16.5557E-03    -16.3874E-03     28.9404E-03    -12.5518E-03     2.73523E-03     31.0381E-03     58.6652E+06     24.7047E+06     8.71191E+06    -38.9992E+06    -22.0143E+06    -6.52190E+06     22.9537E+06    -23.3102E+06
            2084     114.063E-03     8.88698E-03     113.716E-03     31.1489E-03    -13.1896E-03    -17.9672E-03    -17.3897E-03     30.5714E-03    -13.1896E-03     6.96422E-03     33.7475E-03     67.5250E+06     28.2827E+06     9.04859E+06    -45.2897E+06    -26.7087E+06    -7.46842E+06     26.2187E+06    -26.3474E+06
            2085     114.202E-03     9.86886E-03     113.775E-03     33.2309E-03    -13.8276E-03    -19.4202E-03    -17.8590E-03     31.6697E-03    -13.8276E-03     13.0814E-03     36.3534E-03     74.9331E+06     33.0816E+06     9.51231E+06    -49.7573E+06    -30.7271E+06    -7.45395E+06     31.0176E+06    -28.3676E+06
            2086     114.369E-03     10.8503E-03     113.853E-03     35.7462E-03    -14.4294E-03    -21.3383E-03    -17.7509E-03     32.1588E-03    -14.4294E-03     22.2274E-03     39.0493E-03     77.4351E+06     37.0122E+06     10.5994E+06    -48.5967E+06     -34.067E+06    -3.93032E+06     37.0122E+06    -25.1176E+06
            2087     114.567E-03     11.8323E-03     113.955E-03     41.3659E-03    -15.0549E-03    -26.3042E-03    -18.9651E-03     34.0268E-03    -15.0549E-03     36.9559E-03     45.0311E-03     78.8546E+06     50.2286E+06     14.9218E+06    -38.6148E+06    -30.2007E+06     6.50772E+06     50.2286E+06    -16.0835E+06
            2088     114.806E-03     12.8149E-03     114.088E-03     53.0751E-03    -15.9139E-03    -37.1627E-03    -23.6315E-03     39.5440E-03    -15.9139E-03     60.6008E-03     58.5106E-03     88.0144E+06     73.8813E+06     23.0625E+06    -27.6009E+06     -22.105E+06     17.5666E+06     73.8813E+06    -9.22516E+06
            2089     115.094E-03     13.7916E-03     114.265E-03     67.0405E-03    -16.9730E-03    -50.0988E-03    -29.4301E-03     46.3718E-03    -16.9730E-03     87.5930E-03     75.6881E-03     85.5809E+06     76.7347E+06     17.7759E+06    -21.0130E+06    -17.2905E+06     14.0534E+06     76.7347E+06    -3.74527E+06
            2090     115.414E-03     14.7582E-03     114.466E-03     85.8024E-03    -18.2937E-03    -67.5256E-03    -40.0524E-03     58.3293E-03    -18.2937E-03     117.215E-03     102.238E-03     68.2745E+06     59.4496E+06     7.34697E+06    -17.7754E+06    -11.4251E+06     996.625E+03     59.4496E+06     5.24945E+06
            2091     115.765E-03     15.7133E-03     114.694E-03     122.601E-03    -20.2018E-03    -102.414E-03    -59.8319E-03     80.0187E-03    -20.2018E-03     176.017E-03     160.440E-03     68.8206E+06     51.6203E+06     6.44304E+06    -27.1408E+06    -2.65779E+06    -18.0400E+06     51.6203E+06    -507.938E+03
            2092     116.225E-03     16.6513E-03     115.026E-03     143.305E-03    -22.6637E-03    -120.677E-03    -76.2336E-03     98.8611E-03    -22.6637E-03     191.440E-03     196.817E-03     72.4652E+06     57.5885E+06     14.7223E+06    -25.9666E+06    -5.00386E+06    -6.24046E+06     57.5885E+06    -10.2959E+06
            2093     114.593E-03     987.297E-06     114.589E-03     25.6117E-03    -12.5057E-03    -13.1051E-03    -12.7733E-03     25.6009E-03    -12.8268E-03    -1.21490E-03     25.6209E-03     40.9616E+06     33.6880E+06     29.7422E+06    -8.78154E+06     31.5626E+06    -7.49275E+06     30.5788E+06    -5.80991E+06
            2094     114.609E-03     1.97522E-03     114.592E-03     26.1912E-03    -12.7991E-03    -13.3843E-03    -13.2766E-03     26.1703E-03    -12.8859E-03    -1.73410E-03     26.2097E-03     34.8654E+06     29.3240E+06     25.1759E+06    -7.12483E+06     26.1809E+06    -3.98174E+06     25.1759E+06    -7.60791E+06
            2095     114.638E-03     2.96145E-03     114.600E-03     27.9226E-03    -13.2633E-03    -14.6545E-03    -14.6185E-03     27.8865E-03    -13.2633E-03    -2.39026E-03     27.9805E-03     35.3165E+06     28.7605E+06     23.8320E+06    -8.59024E+06     20.1529E+06    -3.51064E+06     27.3599E+06    -9.53248E+06
            2096     114.678E-03     3.94629E-03     114.610E-03     30.1527E-03    -13.8738E-03    -16.2779E-03    -16.2261E-03     30.1009E-03    -13.8738E-03    -3.01952E-03     30.2946E-03     40.8290E+06     33.8262E+06     22.2293E+06    -10.8725E+06     15.5305E+06    -4.17371E+06     33.8262E+06    -11.3881E+06
            2097     114.731E-03     4.92930E-03     114.625E-03     32.8105E-03    -14.6349E-03    -18.1734E-03    -18.1124E-03     32.7496E-03    -14.6349E-03    -3.48301E-03     33.1022E-03     46.9332E+06     41.8395E+06     20.2508E+06    -10.6717E+06     11.0667E+06    -1.48769E+06     41.8395E+06    -12.4544E+06
            2098     114.796E-03     5.91059E-03     114.644E-03     35.8797E-03    -15.5221E-03    -20.3651E-03    -20.2997E-03     35.8143E-03    -15.5221E-03    -3.81719E-03     36.4278E-03     53.4700E+06     47.8515E+06     17.4021E+06    -12.3178E+06     5.95439E+06    -870.065E+03     47.8515E+06    -12.4164E+06
            2099     114.878E-03     6.88910E-03     114.671E-03     39.2530E-03    -16.5031E-03    -22.7552E-03    -22.6869E-03     39.1847E-03    -16.5031E-03    -3.99634E-03     40.2048E-03     56.9637E+06     50.8568E+06     13.6031E+06    -13.3954E+06     2.27831E+06    -2.07064E+06     50.8568E+06    -11.3286E+06
            2100     114.975E-03     7.86541E-03     114.706E-03     42.9078E-03    -17.6059E-03    -25.3052E-03    -25.2268E-03     42.8295E-03    -17.6059E-03    -3.96416E-03     44.4507E-03     63.2365E+06     57.0346E+06     12.0868E+06    -13.7548E+06     341.931E+03    -2.00986E+06     57.0346E+06    -11.8015E+06
            2101     115.093E-03     8.83878E-03     114.753E-03     46.6685E-03    -18.8122E-03    -27.8666E-03    -27.7550E-03     46.5570E-03    -18.8122E-03    -3.71009E-03     49.0209E-03     71.8596E+06     63.1064E+06     11.3008E+06    -16.8083E+06    -3.44017E+06    -2.06733E+06     63.1064E+06    -13.0029E+06
            2102     115.232E-03     9.80898E-03     114.814E-03     50.0485E-03    -20.0677E-03    -29.9908E-03    -29.7877E-03     49.8454E-03    -20.0677E-03    -3.08629E-03     53.4313E-03     77.7155E+06     64.1334E+06     9.05318E+06    -21.9462E+06    -9.61711E+06    -3.27586E+06     64.1334E+06    -14.1114E+06
            2103     115.395E-03     10.7773E-03     114.890E-03     53.2952E-03    -21.3881E-03    -31.9246E-03    -31.4337E-03     52.8043E-03    -21.3881E-03    -1.73324E-03     57.8571E-03     82.4447E+06     66.1494E+06     6.57517E+06    -25.6668E+06    -13.4152E+06    -5.67644E+06     66.1494E+06    -14.2044E+06
            2104     115.588E-03     11.7444E-03     114.990E-03     57.0390E-03    -22.7934E-03    -34.2789E-03    -33.0747E-03     55.8348E-03    -22.7934E-03     1.80246E-03     62.9227E-03     85.2208E+06     72.1698E+06     9.21897E+06    -23.5340E+06    -14.0499E+06    -265.064E+03     72.1698E+06    -13.6663E+06
            2105     115.822E-03     12.7053E-03     115.123E-03     58.5018E-03    -24.1612E-03    -34.3783E-03    -31.7985E-03     55.9220E-03    -24.1612E-03     10.8803E-03     65.6719E-03     81.1826E+06      73.182E+06     12.3893E+06    -16.8821E+06    -12.3437E+06     7.85080E+06      73.182E+06    -6.25475E+06
            2106     116.102E-03     13.6649E-03     115.295E-03     58.2968E-03    -24.8891E-03    -33.4623E-03    -27.8787E-03     53.1465E-03    -25.3223E-03     24.4486E-03     66.8605E-03     71.4331E+06     66.8690E+06     13.4226E+06    -12.9899E+06    -11.0837E+06     11.5164E+06     66.8690E+06     1.19146E+06
            2107     116.413E-03     14.6404E-03     115.489E-03     69.8975E-03    -26.1663E-03    -43.7759E-03    -34.1104E-03     60.6652E-03    -26.5994E-03     43.9151E-03     83.4290E-03     67.7193E+06     48.8236E+06     12.2429E+06    -26.2787E+06    -6.93456E+06    -7.10124E+06     48.8236E+06     5.17757E+06
            2108     116.797E-03     15.5960E-03     115.751E-03     83.3452E-03    -21.9529E-03    -61.4500E-03    -37.7420E-03     65.9474E-03    -28.2631E-03     76.6631E-03     107.668E-03     73.3267E+06     57.7312E+06     21.2163E+06    -24.0022E+06     6.18715E+06    -8.97297E+06     57.7312E+06     2.06880E+06
            2109     117.235E-03     16.5506E-03     116.061E-03     77.4801E-03    -10.6988E-03    -66.8502E-03    -23.9653E-03     53.0865E-03    -29.1901E-03     94.4173E-03     105.965E-03     78.2744E+06     60.9783E+06     18.5797E+06    -28.6802E+06     7.40262E+06     6.03261E+06     37.4425E+06    -5.04732E+06


