********************************************************************************
Field Output Report, written Mon Apr 21 01:56:11 2025

Source 1
---------

   ODB: F:/Abaqus_calc/Vel_20/odb/Correct/1020_2a_16_rd_250_cal_0_v_20_f_050.odb
   Step: Step-1
   Frame: Increment   3714016: Step Time =   0.5260

Loc 1 : Nodal values from source 1

Output sorted by column "Nodal Label".

Field Output reported at nodes for region: DIE_2A_16_D0_36-1.Region_1
   Computation algorithm: EXTRAPOLATE_COMPUTE_AVERAGE
   Averaged at nodes
   Averaging regions: ODB_REGIONS

      Node Label  COORD.Magnitude     COORD.COOR1     COORD.COOR2
                          @Loc 1          @Loc 1          @Loc 1
------------------------------------------------------------------
               1     157.456E-03     19.9925E-03     156.182E-03


Field Output reported at nodes for region: DIE_2A_16_D0_36-1.Region_2
   Computation algorithm: EXTRAPOLATE_COMPUTE_AVERAGE
   Averaged at nodes
   Averaging regions: ODB_REGIONS

      Node Label  COORD.Magnitude     COORD.COOR1     COORD.COOR2
                          @Loc 1          @Loc 1          @Loc 1
------------------------------------------------------------------
               1     157.456E-03     19.9925E-03     156.182E-03


Field Output reported at nodes for part: WIRE_1-1
   Computation algorithm: EXTRAPOLATE_COMPUTE_AVERAGE
   Averaged at nodes
   Averaging regions: ODB_REGIONS

      Node Label  COORD.Magnitude     COORD.COOR1     COORD.COOR2    PE.Max. Prin    PE.Mid. Prin    PE.Min. Prin         PE.PE11         PE.PE22         PE.PE33         PE.PE12            PEEQ         S.Mises     S.Max. Prin     S.Mid. Prin     S.Min. Prin           S.S11           S.S22           S.S33           S.S12
                          @Loc 1          @Loc 1          @Loc 1          @Loc 1          @Loc 1          @Loc 1          @Loc 1          @Loc 1          @Loc 1          @Loc 1          @Loc 1          @Loc 1          @Loc 1          @Loc 1          @Loc 1          @Loc 1          @Loc 1          @Loc 1          @Loc 1
----------------------------------------------------------------------------------------------------------------------------------------------------------------------------------------------------------------------------------------------------------------------------------------------------------------------------------
               1     60.8267E-03     17.5368E-03     58.2439E-03     52.0104E-03    -25.2599E-03    -26.7479E-03    -24.8302E-03     51.5806E-03    -26.7479E-03     11.2878E-03     185.289E-03     187.479E+06     209.809E+06     130.310E+06    -4.31878E+06    -4.31373E+06     209.804E+06     130.310E+06    -496.112E+03
               2     57.9071E-03     1.44210E-06     57.9071E-03     54.0324E-03    -26.5987E-03    -27.4337E-03    -26.9660E-03     54.0259E-03    -27.0600E-03     1.04986E-03     55.4421E-03     158.775E+06    -21.4039E+06    -28.3539E+06    -183.521E+06    -23.8025E+06    -183.163E+06    -26.3139E+06     1.38459E+06
               3     3.95919E-06     3.95638E-06    -149.012E-09     114.269E-03    -56.6979E-03    -57.5717E-03    -57.5701E-03     114.267E-03    -56.6979E-03    -1.04054E-03     117.156E-03     149.444E+06    -50.3917E+06    -52.7789E+06    -201.015E+06    -52.8915E+06    -200.902E+06    -50.3917E+06    -4.08372E+06
               4     17.3062E-03     17.3062E-03    -149.012E-09     106.756E-03    -37.1201E-03    -69.6769E-03    -57.3679E-03     94.4469E-03    -37.1201E-03     89.8933E-03     151.219E-03     170.878E+06     186.204E+06     129.855E+06    -5.73280E+06    -5.59473E+06     186.066E+06     129.855E+06     5.14595E+06
               5     118.153E-03     17.3273E-03     116.875E-03     17.0922E-03     13.9970E-03    -31.0888E-03     15.6838E-03     15.4054E-03    -31.0888E-03     3.08262E-03     31.8802E-03     147.471E+06     28.4912E+06     13.6876E+06    -125.824E+06     21.7388E+06     20.4400E+06    -125.824E+06    -7.37326E+06
               6     115.335E-03     13.6637E-06     115.335E-03     34.9206E-03    -14.6672E-03    -20.2535E-03    -20.0854E-03     34.7525E-03    -14.6672E-03    -6.08088E-03     35.2657E-03     56.1467E+06     61.5004E+06     48.0755E+06    -141.899E+03     42.2736E+06     5.66004E+06     61.5004E+06    -15.6873E+06
               7     60.5414E-03     16.5617E-03     58.2320E-03     64.4699E-03    -25.8289E-03    -38.6394E-03    -25.3752E-03     51.9497E-03    -26.5728E-03     55.9440E-03     226.097E-03     184.199E+06     202.352E+06     89.9160E+06    -6.02019E+06    -6.01194E+06     202.344E+06     89.9160E+06    -177.072E+03
               8     60.1819E-03     15.5852E-03     58.1288E-03     68.3508E-03    -26.2757E-03    -42.0755E-03    -25.4990E-03     51.7743E-03    -26.2757E-03     77.2223E-03     219.061E-03     177.226E+06     176.392E+06     18.8947E+06    -13.4903E+06    -9.72080E+06     176.385E+06     15.1317E+06     134.587E+03
               9     59.8798E-03     14.6093E-03     58.0703E-03     57.3221E-03    -26.2378E-03    -31.0822E-03    -25.5880E-03     51.8279E-03    -26.2378E-03     40.9924E-03     148.838E-03     147.297E+06     136.135E+06    -7.42075E+06    -14.5811E+06    -10.8131E+06     136.130E+06    -11.1837E+06     371.036E+03
              10     59.6228E-03     13.6369E-03     58.0423E-03     54.4631E-03    -26.3356E-03    -28.1327E-03    -25.9099E-03     52.2403E-03    -26.3356E-03     26.6993E-03     117.069E-03     85.0047E+06     71.9235E+06    -6.99635E+06    -17.3960E+06    -10.2048E+06     71.7346E+06    -13.9986E+06     2.11562E+06
              11     59.3800E-03     12.6609E-03     58.0145E-03     53.7017E-03    -26.4206E-03    -27.3106E-03    -25.8102E-03     52.2014E-03    -26.4206E-03     21.5357E-03     100.422E-03     35.6952E+06     10.6108E+06    -16.0397E+06    -29.4060E+06    -9.49283E+06    -2.30016E+06    -23.0419E+06     920.868E+03
              12     59.1618E-03     11.6866E-03     57.9960E-03     53.3544E-03    -26.5411E-03    -26.8552E-03    -25.9975E-03     52.4966E-03    -26.5411E-03     16.4393E-03     88.8360E-03     38.2921E+06    -7.96515E+06    -19.8984E+06    -50.1862E+06    -8.22099E+06    -49.9303E+06    -19.8984E+06    -2.83281E+06
              13     58.9613E-03     10.7125E-03     57.9799E-03     53.3841E-03    -26.6158E-03    -26.8017E-03    -26.1052E-03     52.7635E-03    -26.6917E-03     14.0064E-03     81.3534E-03     73.2583E+06    -2.01407E+06    -13.7072E+06    -80.3841E+06    -8.39650E+06    -80.2374E+06    -7.47148E+06    -2.33555E+06
              14     58.7785E-03     9.73763E-03     57.9663E-03     53.4996E-03    -26.6987E-03    -26.8230E-03    -26.2482E-03     53.0425E-03    -26.8165E-03     12.0349E-03     75.2596E-03     100.883E+06     2.24678E+06    -8.29144E+06    -103.437E+06    -8.36555E+06    -103.363E+06     2.24678E+06     591.150E+03
              15     58.6133E-03     8.76390E-03     57.9544E-03     53.7089E-03    -26.8177E-03    -26.8952E-03    -26.4825E-03     53.3502E-03    -26.8718E-03     10.7137E-03     70.2898E-03     121.682E+06     150.190E+03    -7.13473E+06    -124.958E+06    -7.22265E+06    -124.870E+06     150.190E+03     1.78740E+06
              16     58.4647E-03     7.78980E-03     57.9435E-03     53.8170E-03    -26.8600E-03    -26.9529E-03    -26.5964E-03     53.5363E-03    -26.9359E-03     9.46045E-03     66.4451E-03     144.004E+06    -838.330E+03    -7.70319E+06    -148.132E+06    -7.72504E+06    -148.110E+06    -838.330E+03     1.31650E+06
              17     58.3342E-03     6.81569E-03     57.9346E-03     53.7982E-03    -26.7926E-03    -27.0074E-03    -26.6056E-03     53.6112E-03    -27.0074E-03     7.69673E-03     63.1480E-03     160.533E+06    -30.9022E+03    -9.73470E+06    -165.167E+06    -9.74330E+06    -165.159E+06    -30.9022E+03     1.07511E+06
              18     58.2212E-03     5.84165E-03     57.9274E-03     53.8527E-03    -26.7810E-03    -27.0735E-03    -26.6578E-03     53.7295E-03    -27.0735E-03     6.27368E-03     60.6546E-03     170.668E+06    -602.659E+03    -11.0871E+06    -176.234E+06    -11.1032E+06    -176.218E+06    -602.659E+03     1.16125E+06
              19     58.1249E-03     4.86773E-03     57.9208E-03     53.9938E-03    -26.8889E-03    -27.1062E-03    -26.8064E-03     53.9114E-03    -27.1062E-03     5.11612E-03     58.9307E-03     170.744E+06    -5.03248E+06    -11.9618E+06    -179.096E+06    -11.7953E+06    -179.073E+06    -5.22135E+06     1.51938E+06
              20     58.0475E-03     3.89422E-03     57.9167E-03     54.1045E-03    -26.9667E-03    -27.1378E-03    -26.9197E-03     54.0576E-03    -27.1378E-03     3.85086E-03     57.4546E-03     169.999E+06    -8.68310E+06    -13.0279E+06    -180.798E+06    -12.8523E+06    -180.785E+06    -8.87197E+06     697.780E+03
              21     57.9866E-03     2.91995E-03     57.9130E-03     54.2711E-03    -27.0766E-03    -27.1939E-03    -27.0760E-03     54.2484E-03    -27.1718E-03     2.64839E-03     56.3163E-03     171.431E+06    -9.15385E+06    -15.1058E+06    -183.475E+06    -15.1107E+06    -183.470E+06    -9.15385E+06    -714.367E+03
              22     57.9442E-03     1.94740E-03     57.9114E-03     54.3211E-03    -27.0317E-03    -27.2882E-03    -27.1651E-03     54.3111E-03    -27.1448E-03     1.78328E-03     55.6911E-03     164.533E+06    -9.82015E+06    -17.1285E+06    -177.881E+06    -17.1549E+06    -177.855E+06    -9.82015E+06     96.2670E+03
              23     57.9176E-03     973.275E-06     57.9094E-03     54.1347E-03    -26.7410E-03    -27.3928E-03    -27.0424E-03     54.1280E-03    -27.0847E-03     1.27944E-03     55.4414E-03     158.896E+06    -16.1618E+06    -23.0716E+06    -178.387E+06    -20.8194E+06    -178.185E+06    -18.6167E+06     1.27779E+06
              24     56.8537E-03    -2.31056E-06     56.8537E-03     53.9037E-03    -26.6654E-03    -27.2392E-03    -26.6581E-03     53.8963E-03    -27.2392E-03     1.40884E-03     55.2665E-03     156.692E+06    -19.3319E+06    -21.6586E+06    -177.167E+06    -21.6321E+06    -176.907E+06    -19.6186E+06     3.47584E+06
              25     55.7988E-03     2.09957E-06     55.7988E-03     54.4530E-03    -26.8588E-03    -27.5946E-03    -27.4794E-03     54.4504E-03    -26.9714E-03     921.690E-06     55.7286E-03     157.686E+06    -18.5270E+06    -21.6347E+06    -177.729E+06    -21.3829E+06    -177.694E+06    -18.8138E+06     468.322E+03
              26     54.7423E-03    -838.324E-09     54.7423E-03     53.8098E-03    -26.5272E-03    -27.2840E-03    -27.1462E-03     53.8056E-03    -26.6608E-03     1.15923E-03     55.1989E-03     156.844E+06    -18.6619E+06    -23.3807E+06    -177.810E+06    -21.5389E+06    -177.754E+06    -20.5598E+06    -197.782E+03
              27     53.6897E-03     563.404E-09     53.6897E-03     53.4444E-03    -26.6215E-03    -26.8239E-03    -26.6142E-03     53.4371E-03    -26.8239E-03     1.50777E-03     54.8591E-03     157.505E+06    -13.8015E+06    -17.7383E+06    -173.238E+06    -15.8774E+06    -173.201E+06    -15.6994E+06    -2.21778E+06
              28     52.6339E-03    -662.525E-09     52.6339E-03     53.5305E-03    -26.5874E-03    -26.9422E-03    -26.8683E-03     53.5255E-03    -26.6562E-03     1.11250E-03     54.7666E-03     158.214E+06    -19.8753E+06    -24.3675E+06    -180.287E+06    -21.9502E+06    -180.251E+06    -22.3285E+06    -2.20500E+06
              29     51.5810E-03     1.20554E-06     51.5810E-03     52.6953E-03    -26.0834E-03    -26.6114E-03    -26.3656E-03     52.6916E-03    -26.3254E-03     968.951E-06     53.9184E-03     156.185E+06    -21.8379E+06    -28.1291E+06    -181.069E+06    -25.7911E+06    -180.954E+06    -24.2912E+06     969.372E+03
              30     50.5274E-03    -1.61527E-06     50.5274E-03     52.3398E-03    -26.0263E-03    -26.3131E-03    -26.0196E-03     52.3330E-03    -26.3131E-03     1.45426E-03     53.8317E-03     155.176E+06    -20.7422E+06    -29.0580E+06    -179.908E+06    -24.6676E+06    -179.821E+06    -25.2201E+06     2.05047E+06
              31     49.4741E-03     1.47780E-06     49.4741E-03     52.5794E-03    -26.1907E-03    -26.3887E-03    -26.3380E-03     52.5735E-03    -26.2355E-03     1.35378E-03     54.0706E-03     153.479E+06    -16.9728E+06    -26.3693E+06    -174.933E+06    -21.8945E+06    -174.930E+06    -21.4507E+06    -367.713E+03
              32     48.4213E-03    -1.10162E-06     48.4213E-03     52.3004E-03    -26.0038E-03    -26.2968E-03    -26.1535E-03     52.2969E-03    -26.1436E-03     1.02519E-03     53.6596E-03     152.686E+06    -13.4283E+06    -23.8975E+06    -171.079E+06    -18.3498E+06    -171.076E+06    -18.9789E+06    -351.508E+03
              33     47.3686E-03     770.506E-09     47.3686E-03     52.4554E-03    -25.9828E-03    -26.4727E-03    -26.3279E-03     52.4504E-03    -26.1226E-03     1.19705E-03     53.9827E-03     153.712E+06    -18.3897E+06    -31.3161E+06    -178.149E+06    -25.7776E+06    -178.137E+06    -23.9403E+06    -1.29011E+06
              34     46.3143E-03     17.1873E-09     46.3143E-03     52.8378E-03    -26.1603E-03    -26.6784E-03    -26.5018E-03     52.8291E-03    -26.3282E-03     1.65528E-03     54.3351E-03     152.491E+06    -20.0545E+06    -31.1669E+06    -177.767E+06    -27.4424E+06    -177.755E+06    -23.7911E+06    -360.230E+03
              35     45.2608E-03    -387.912E-09     45.2608E-03     52.9688E-03    -26.3536E-03    -26.6158E-03    -26.4414E-03     52.9623E-03    -26.5215E-03     1.40969E-03     54.4722E-03     149.528E+06    -18.9998E+06    -24.0867E+06    -170.992E+06    -19.0048E+06    -170.987E+06    -24.0867E+06     61.7415E+03
              36     44.2077E-03     566.221E-09     44.2077E-03     53.2993E-03    -26.5262E-03    -26.7742E-03    -26.7681E-03     53.2932E-03    -26.5262E-03     1.37509E-03     54.8096E-03     146.656E+06    -23.5198E+06    -29.3217E+06    -172.965E+06    -27.9851E+06    -172.951E+06    -24.8701E+06     492.566E+03
              37     43.1519E-03    -200.927E-09     43.1519E-03     53.2760E-03    -26.3387E-03    -26.9369E-03    -26.4820E-03     53.2656E-03    -26.7832E-03     1.81323E-03     54.6212E-03     147.539E+06    -22.4037E+06    -32.5761E+06    -174.763E+06    -26.9029E+06    -174.715E+06    -28.1244E+06     2.57295E+06
              38     42.0988E-03    -735.528E-09     42.0988E-03     53.0308E-03    -26.2792E-03    -26.7505E-03    -26.2684E-03     53.0200E-03    -26.7505E-03     1.84995E-03     54.4178E-03     151.259E+06    -15.6452E+06    -23.2350E+06    -170.518E+06    -17.5751E+06    -170.457E+06    -21.3660E+06     3.04124E+06
              39     41.0440E-03     713.387E-09     41.0440E-03     53.1443E-03    -26.4966E-03    -26.6463E-03    -26.6119E-03     53.1367E-03    -26.5234E-03     1.54538E-03     54.7699E-03     150.229E+06    -17.4734E+06    -19.3619E+06    -168.629E+06    -19.3788E+06    -168.593E+06    -17.4928E+06     438.251E+03
              40     39.9930E-03    -465.452E-09     39.9930E-03     53.8853E-03    -26.8141E-03    -27.0709E-03    -27.0675E-03     53.8819E-03    -26.8141E-03     417.785E-06     55.4262E-03     147.492E+06    -21.3165E+06    -23.2820E+06    -169.772E+06    -23.3699E+06    -169.665E+06    -21.3360E+06    -3.55634E+06
              41     38.9366E-03     767.452E-09     38.9366E-03     54.3959E-03    -26.9831E-03    -27.4141E-03    -27.4127E-03     54.3944E-03    -26.9831E-03     134.449E-06     55.6884E-03     149.192E+06    -18.0095E+06    -20.0159E+06    -168.185E+06    -20.1227E+06    -168.079E+06    -18.0095E+06    -3.54367E+06
              42     37.8797E-03    -174.463E-09     37.8797E-03     53.6257E-03    -26.3812E-03    -27.2452E-03    -26.6649E-03     53.6123E-03    -26.9481E-03     1.80036E-03     55.1654E-03     151.168E+06    -21.2725E+06    -23.9113E+06    -173.727E+06    -21.4337E+06    -173.626E+06    -23.8510E+06     1.71026E+06
              43     36.8253E-03    -971.339E-09     36.8253E-03     52.6385E-03    -26.0330E-03    -26.6065E-03    -26.0179E-03     52.6234E-03    -26.6065E-03     2.05580E-03     54.2590E-03     148.665E+06    -24.2219E+06    -27.0891E+06    -174.287E+06    -24.3399E+06    -174.169E+06    -27.0891E+06     1.18605E+06
              44     35.7741E-03     965.755E-09     35.7741E-03     52.8138E-03    -26.1745E-03    -26.6401E-03    -26.6295E-03     52.8098E-03    -26.1811E-03     1.09276E-03     54.0344E-03     146.801E+06    -18.3800E+06    -21.9796E+06    -166.924E+06    -21.7193E+06    -166.895E+06    -18.6687E+06    -1.58792E+06
              45     34.7212E-03    -14.3215E-09     34.7212E-03     53.9196E-03    -26.6742E-03    -27.2463E-03    -27.2444E-03     53.9178E-03    -26.6742E-03     759.294E-06     55.1754E-03     147.969E+06    -21.7468E+06    -28.8359E+06    -173.133E+06    -25.0742E+06    -173.116E+06    -25.5250E+06     962.094E+03
              46     33.6636E-03     199.524E-09     33.6636E-03     54.5010E-03    -27.0906E-03    -27.4100E-03    -27.1983E-03     54.4956E-03    -27.2969E-03     1.20548E-03     56.0867E-03     145.353E+06    -24.0743E+06    -33.0881E+06    -173.717E+06    -29.3584E+06    -173.669E+06    -27.8525E+06     2.59584E+06
              47     32.6087E-03    -525.444E-09     32.6087E-03     54.1067E-03    -26.8799E-03    -27.2265E-03    -26.8714E-03     54.0982E-03    -27.2265E-03     1.66009E-03     55.8398E-03     144.241E+06    -21.5743E+06    -31.8919E+06    -170.696E+06    -26.8664E+06    -170.640E+06    -26.6563E+06     127.580E+03
              48     31.5536E-03     195.635E-09     31.5536E-03     53.5586E-03    -26.7037E-03    -26.8552E-03    -26.7095E-03     53.5533E-03    -26.8440E-03     1.28363E-03     55.1294E-03     144.773E+06    -17.6861E+06    -27.8943E+06    -167.293E+06    -22.8558E+06    -167.249E+06    -22.7681E+06    -206.614E+03
              49     30.5007E-03    -93.9854E-09     30.5007E-03     53.4884E-03    -26.7193E-03    -26.7677E-03    -26.7624E-03     53.4830E-03    -26.7193E-03     1.27639E-03     54.9702E-03     144.193E+06    -23.8438E+06    -32.5969E+06    -172.207E+06    -29.0711E+06    -172.106E+06    -27.4707E+06    -1.32250E+06
              50     29.4451E-03     127.771E-09     29.4451E-03     53.6726E-03    -26.7849E-03    -26.8859E-03    -26.8776E-03     53.6644E-03    -26.7849E-03     1.62986E-03     55.2374E-03     145.108E+06    -31.2592E+06    -36.4379E+06    -178.876E+06    -32.9729E+06    -178.714E+06    -34.8862E+06    -80.3355E+03
              51     28.3901E-03     23.5761E-09     28.3901E-03     53.1234E-03    -26.5003E-03    -26.6233E-03    -26.5573E-03     53.1165E-03    -26.5594E-03     1.46766E-03     54.6965E-03     144.841E+06    -28.2245E+06    -30.2191E+06    -174.049E+06    -29.8644E+06    -173.961E+06    -28.6673E+06     3.16220E+06
              52     27.3384E-03    -134.378E-09     27.3384E-03     52.8899E-03    -26.3420E-03    -26.5488E-03    -26.4836E-03     52.8838E-03    -26.4012E-03     1.37909E-03     54.4303E-03     144.567E+06    -26.0541E+06    -26.5208E+06    -170.854E+06    -26.0862E+06    -170.845E+06    -26.4970E+06     802.960E+03
              53     26.2833E-03     429.686E-09     26.2833E-03     53.1752E-03    -26.3512E-03    -26.8250E-03    -26.8212E-03     53.1714E-03    -26.3512E-03     900.698E-06     54.6651E-03     142.245E+06    -26.8693E+06    -29.2602E+06    -170.280E+06    -29.2758E+06    -170.264E+06    -26.8693E+06    -1.00329E+06
              54     25.2306E-03     250.011E-09     25.2306E-03     52.7337E-03    -26.0277E-03    -26.7069E-03    -26.3469E-03     52.7267E-03    -26.3807E-03     1.17078E-03     54.1353E-03     140.228E+06    -24.1337E+06    -29.9831E+06    -167.191E+06    -26.5234E+06    -167.168E+06    -27.6160E+06    -318.839E+03
              55     24.1751E-03    -982.160E-09     24.1751E-03     52.4231E-03    -25.9896E-03    -26.4332E-03    -26.0716E-03     52.4146E-03    -26.3427E-03     1.54549E-03     53.7617E-03     139.423E+06    -22.9129E+06    -28.4784E+06    -165.030E+06    -25.0032E+06    -165.023E+06    -26.3953E+06     670.185E+03
              56     23.1238E-03     1.19370E-06     23.1238E-03     52.2028E-03    -25.9636E-03    -26.2383E-03    -26.2341E-03     52.1985E-03    -25.9636E-03     1.14158E-03     53.5702E-03     140.749E+06    -26.0172E+06    -29.8583E+06    -168.647E+06    -29.8593E+06    -168.646E+06    -26.0172E+06    -311.003E+03
              57     22.0702E-03    -803.602E-09     22.0702E-03     52.0683E-03    -25.8216E-03    -26.2464E-03    -26.2377E-03     52.0596E-03    -25.8216E-03     1.61530E-03     53.4900E-03     139.952E+06    -26.6231E+06    -31.8020E+06    -169.085E+06    -28.4242E+06    -169.041E+06    -30.0441E+06     1.45652E+06
              58     21.0165E-03     1.22507E-06     21.0165E-03     52.5748E-03    -26.0709E-03    -26.5045E-03    -26.4937E-03     52.5640E-03    -26.0709E-03     1.84453E-03     54.1066E-03     138.578E+06    -22.2557E+06    -29.5789E+06    -164.350E+06    -26.2042E+06    -164.303E+06    -25.6767E+06     2.24589E+06
              59     19.9645E-03    -793.733E-09     19.9645E-03     52.5213E-03    -26.0542E-03    -26.4666E-03    -26.2408E-03     52.5149E-03    -26.2736E-03     1.37973E-03     54.0035E-03     139.850E+06    -23.5179E+06    -30.8938E+06    -166.910E+06    -27.6273E+06    -166.702E+06    -26.9915E+06    -3.28329E+06
              60     18.9097E-03     332.628E-09     18.9097E-03     51.4698E-03    -25.5491E-03    -25.9216E-03    -25.6999E-03     51.4674E-03    -25.7685E-03     827.472E-06     52.8415E-03     140.085E+06    -27.2826E+06    -31.9447E+06    -169.627E+06    -28.7152E+06    -169.383E+06    -30.7563E+06    -2.11853E+06
              61     17.8602E-03    -6.58337E-09     17.8602E-03     49.7873E-03    -24.7340E-03    -25.0544E-03    -25.0537E-03     49.7867E-03    -24.7340E-03     381.928E-06     51.1500E-03     140.513E+06    -21.6513E+06    -23.1018E+06    -162.882E+06    -23.1925E+06    -162.791E+06    -21.6513E+06     3.55684E+06
              62     16.8091E-03     347.284E-09     16.8091E-03     48.0212E-03    -23.8685E-03    -24.1523E-03    -24.0335E-03     48.0191E-03    -23.9851E-03     619.429E-06     49.4400E-03     138.542E+06    -19.2647E+06    -21.2842E+06    -158.799E+06    -19.6219E+06    -158.704E+06    -21.0221E+06     3.63918E+06
              63     15.7630E-03    -589.420E-09     15.7630E-03     46.5045E-03    -23.1798E-03    -23.3239E-03    -23.1755E-03     46.5002E-03    -23.3239E-03    -5.97566E-06     47.8209E-03     136.558E+06    -20.3751E+06    -23.4963E+06    -158.467E+06    -21.7934E+06    -158.412E+06    -22.1325E+06     986.937E+03
              64     14.7166E-03     560.683E-09     14.7166E-03     44.1985E-03    -22.0411E-03    -22.1562E-03    -22.0387E-03     44.1960E-03    -22.1562E-03    -723.163E-06     45.3633E-03     141.917E+06    -14.5351E+06    -17.1635E+06    -157.748E+06    -15.9350E+06    -157.712E+06    -15.7998E+06     630.967E+03
              65     13.6729E-03    -735.309E-09     13.6729E-03     40.6941E-03    -20.1780E-03    -20.5147E-03    -20.4213E-03     40.6882E-03    -20.2656E-03    -983.594E-06     41.7813E-03     142.907E+06    -9.33823E+06    -12.2094E+06    -153.659E+06    -10.9909E+06    -153.613E+06    -10.6029E+06     268.419E+03
              66     12.6350E-03     1.25429E-06     12.6350E-03     36.4261E-03    -18.0861E-03    -18.3399E-03    -18.3301E-03     36.4164E-03    -18.0861E-03    -1.46039E-03     37.5800E-03     138.421E+06    -5.28699E+06    -9.53474E+06    -145.780E+06    -6.91712E+06    -145.756E+06    -7.92823E+06    -589.086E+03
              67     11.6005E-03    -1.26530E-06     11.6005E-03     31.8637E-03    -15.8330E-03    -16.0314E-03    -15.8279E-03     31.8538E-03    -16.0267E-03    -1.36034E-03     33.3807E-03     139.974E+06     1.45478E+06    -3.95339E+06    -141.145E+06    -1.38762E+06    -141.070E+06    -1.18647E+06     2.77794E+06
              68     10.5703E-03     934.259E-09     10.5703E-03     27.9750E-03    -13.7845E-03    -14.1899E-03    -13.9902E-03     27.9689E-03    -13.9782E-03    -870.118E-06     29.6669E-03     142.630E+06     4.23305E+06     773.573E+03    -140.084E+06     698.972E+03    -140.009E+06     4.23305E+06     1.71706E+06
              69     9.54526E-03    -484.204E-09     9.54526E-03     25.5334E-03    -12.6133E-03    -12.9191E-03    -12.9188E-03     25.5331E-03    -12.6133E-03    -182.952E-06     27.2258E-03     143.833E+06     3.05092E+06     1.05212E+06    -141.770E+06     2.35349E+06    -141.765E+06     1.74468E+06    -192.490E+03
              70     8.51947E-03     679.846E-09     8.51947E-03     24.9825E-03    -12.3926E-03    -12.5894E-03    -12.4867E-03     24.9825E-03    -12.4953E-03    -5.02498E-06     27.1036E-03     144.326E+06    -5.43250E+06    -7.54865E+06    -150.804E+06    -6.29440E+06    -150.752E+06    -6.73874E+06    -1.59655E+06
              71     7.49762E-03    -852.255E-09     7.49762E-03     27.2016E-03    -13.5359E-03    -13.6660E-03    -13.5628E-03     27.2011E-03    -13.6386E-03     230.602E-06     29.7905E-03     144.308E+06    -9.96743E+06    -10.9108E+06    -154.744E+06    -10.9036E+06    -154.618E+06    -10.1009E+06    -4.24073E+06
              72     6.46574E-03     934.871E-09     6.46574E-03     32.1650E-03    -15.9274E-03    -16.2360E-03    -15.9393E-03     32.1496E-03    -16.2087E-03     1.45917E-03     35.0854E-03     142.057E+06    -16.9992E+06    -17.6386E+06    -159.374E+06    -17.1725E+06    -159.201E+06    -17.6386E+06     285.111E+03
              73     5.43201E-03    -1.49954E-06     5.43201E-03     41.3156E-03    -20.3109E-03    -21.0013E-03    -20.6811E-03     41.2767E-03    -20.5922E-03     3.10466E-03     44.5983E-03     141.954E+06    -19.8506E+06    -23.4829E+06    -163.569E+06    -23.1405E+06    -163.405E+06    -20.3566E+06     467.255E+03
              74     4.38424E-03     2.32266E-06     4.38424E-03     55.9710E-03    -27.7179E-03    -28.2524E-03    -28.0740E-03     55.9180E-03    -27.8433E-03     4.21963E-03     59.2362E-03     144.695E+06    -20.7416E+06    -25.6073E+06    -167.803E+06    -24.0866E+06    -167.584E+06    -22.4810E+06    -5.50185E+06
              75     3.31912E-03    -2.61936E-06     3.31912E-03     74.6458E-03    -37.2381E-03    -37.4067E-03    -37.1880E-03     74.5957E-03    -37.4067E-03     4.68353E-03     77.5011E-03     145.800E+06    -32.6316E+06    -35.6319E+06    -179.908E+06    -32.7943E+06    -179.745E+06    -35.6319E+06    -4.19957E+06
              76     2.23037E-03     2.46251E-06     2.23037E-03     94.4924E-03    -47.0398E-03    -47.4522E-03    -46.9995E-03     94.4521E-03    -47.4522E-03     4.76283E-03     97.0362E-03     145.970E+06    -38.3666E+06    -40.5543E+06    -185.418E+06    -38.3811E+06    -185.403E+06    -40.5543E+06    -260.992E+03
              77     1.12123E-03    -3.31509E-06     1.12123E-03     109.221E-03    -54.2086E-03    -55.0148E-03    -54.6255E-03     109.201E-03    -54.5778E-03     1.92360E-03     111.923E-03     147.633E+06    -44.8970E+06    -47.0174E+06    -193.579E+06    -46.1516E+06    -193.518E+06    -45.8238E+06    -1.45375E+06
              78     943.111E-06     943.111E-06    -149.012E-09     113.350E-03    -56.2263E-03    -57.1195E-03    -56.6575E-03     113.344E-03    -56.6825E-03     769.176E-06     115.857E-03     149.064E+06    -39.4153E+06    -46.8266E+06    -191.982E+06    -46.8896E+06    -191.919E+06    -39.4153E+06    -2.72865E+06
              79     1.88874E-03     1.88874E-03    -149.012E-09     110.498E-03    -54.3033E-03    -56.1848E-03    -54.2880E-03     110.482E-03    -56.1848E-03     3.12221E-03     112.308E-03     149.917E+06    -30.4972E+06    -38.3270E+06    -184.120E+06    -38.3432E+06    -184.104E+06    -30.4972E+06    -1.53307E+06
              80     2.83587E-03     2.83587E-03    -149.012E-09     105.718E-03    -50.7274E-03    -54.9826E-03    -50.6951E-03     105.686E-03    -54.9826E-03     4.40681E-03     107.147E-03     153.716E+06    -32.6509E+06    -35.0186E+06    -187.535E+06    -34.2872E+06    -187.511E+06    -33.4066E+06    -1.92155E+06
              81     3.78819E-03     3.78819E-03    -149.012E-09     99.7938E-03    -46.4225E-03    -53.3654E-03    -46.3661E-03     99.7373E-03    -53.3654E-03     5.69611E-03     101.148E-03     155.006E+06    -30.2203E+06    -35.9335E+06    -187.960E+06    -30.3100E+06    -187.870E+06    -35.9335E+06    -3.51160E+06
              82     4.74496E-03     4.74496E-03    -149.012E-09     93.5853E-03    -42.0750E-03    -51.5010E-03    -41.9979E-03     93.5082E-03    -51.5010E-03     6.45165E-03     94.8315E-03     153.707E+06    -26.2807E+06    -37.9871E+06    -185.498E+06    -26.3655E+06    -185.413E+06    -37.9871E+06    -3.32355E+06
              83     5.70566E-03     5.70566E-03    -149.012E-09     87.1406E-03    -37.6413E-03    -49.4769E-03    -37.5496E-03     87.0489E-03    -49.4769E-03     6.75099E-03     88.2808E-03     154.125E+06    -23.6139E+06    -47.6711E+06    -188.078E+06    -23.7309E+06    -187.961E+06    -47.6711E+06    -3.89294E+06
              84     6.67158E-03     6.67158E-03    -149.012E-09     81.0418E-03    -33.6452E-03    -47.3594E-03    -33.5525E-03     80.9491E-03    -47.3594E-03     6.51814E-03     82.2484E-03     155.126E+06    -20.0536E+06    -65.6486E+06    -192.555E+06    -20.2997E+06    -192.309E+06    -65.6486E+06    -6.50138E+06
              85     7.64203E-03     7.64203E-03    -149.012E-09     77.6694E-03    -32.2882E-03    -45.3752E-03    -32.1262E-03     77.5075E-03    -45.3752E-03     8.18941E-03     79.3732E-03     147.255E+06    -14.5525E+06    -82.5555E+06    -182.732E+06    -14.9289E+06    -182.356E+06    -82.5555E+06    -7.85086E+06
              86     8.60853E-03     8.60853E-03    -149.012E-09     78.8267E-03    -35.0386E-03    -43.8256E-03    -34.5115E-03     78.2997E-03    -43.8256E-03     14.8783E-03     82.1565E-03     131.242E+06    -7.92736E+06    -98.8385E+06    -156.770E+06    -8.44232E+06    -156.255E+06    -98.8385E+06    -8.71323E+06
              87     9.56723E-03     9.56723E-03    -149.012E-09     78.1163E-03    -35.4373E-03    -42.7197E-03    -34.6759E-03     77.3549E-03    -42.7197E-03     18.5318E-03     83.0281E-03     116.892E+06    -2.75562E+06    -106.852E+06    -128.442E+06    -3.54153E+06    -123.566E+06    -110.942E+06    -9.51867E+06
              88     10.5344E-03     10.5344E-03    -149.012E-09     70.7397E-03    -29.1803E-03    -41.5924E-03    -28.5591E-03     70.1185E-03    -41.5924E-03     15.7034E-03     76.1361E-03     103.685E+06     449.855E+03    -78.1835E+06    -112.625E+06    -465.224E+03    -77.2684E+06    -112.625E+06    -8.37021E+06
              89     11.5183E-03     11.5183E-03    -149.012E-09     63.9952E-03    -23.8155E-03    -40.1904E-03    -23.4011E-03     63.5808E-03    -40.1904E-03     11.9276E-03     70.2262E-03     103.380E+06     7.46432E+06    -24.7024E+06    -106.307E+06     1.82881E+06    -19.0668E+06    -106.307E+06    -5.72112E+06
              90     12.4950E-03     12.4950E-03    -149.012E-09     61.1086E-03    -22.3687E-03    -38.7443E-03    -22.0102E-03     60.7501E-03    -38.7443E-03     10.8613E-03     69.3184E-03     132.633E+06     52.5228E+06     829.390E+03    -95.0905E+06     2.03655E+06     51.3156E+06    -95.0905E+06    -2.32322E+06
              91     13.4723E-03     13.4723E-03    -149.012E-09     61.4883E-03    -23.8313E-03    -37.6644E-03    -23.1254E-03     60.7825E-03    -37.6644E-03     15.1871E-03     72.6640E-03     153.605E+06     114.115E+06    -1.09241E+06    -56.2267E+06    -1.05312E+06     114.076E+06    -56.2267E+06     1.82917E+06
              92     14.4479E-03     14.4479E-03    -149.012E-09     63.9738E-03    -26.9586E-03    -37.0175E-03    -25.6517E-03     62.6669E-03    -37.0175E-03     21.5086E-03     82.4993E-03     152.666E+06     151.056E+06     11.3996E+06    -11.9143E+06    -1.12279E+06     150.732E+06     931.823E+03    -3.20280E+06
              93     15.4101E-03     15.4101E-03    -149.012E-09     66.7527E-03    -30.0905E-03    -36.6736E-03    -26.9990E-03     63.6613E-03    -36.6736E-03     33.1088E-03     97.3418E-03     160.342E+06     183.021E+06     68.4445E+06     4.23450E+06     4.67584E+06     182.580E+06     68.4445E+06    -970.240E+03
              94     16.3816E-03     16.3816E-03    -149.012E-09     87.6219E-03    -34.5187E-03    -53.1323E-03    -42.3648E-03     79.1895E-03    -36.8539E-03     65.8430E-03     128.364E-03     168.843E+06     193.166E+06     120.122E+06     964.521E+03     1.18972E+06     192.941E+06     120.122E+06     6.44638E+06
              95     17.4207E-03     17.3839E-03     1.13237E-03     95.7666E-03    -35.6646E-03    -60.1358E-03    -46.8511E-03     82.4820E-03    -35.6646E-03     86.5050E-03     168.741E-03     173.259E+06     192.497E+06     128.271E+06    -3.57893E+06    -3.40322E+06     192.322E+06     128.271E+06     5.83903E+06
              96     17.5610E-03     17.4235E-03     2.19257E-03     78.8788E-03    -33.0593E-03    -45.8403E-03    -36.0073E-03     69.0458E-03    -33.0593E-03     65.7942E-03     175.204E-03     174.215E+06     196.045E+06     124.012E+06    -2.63405E+06    -2.42981E+06     195.841E+06     124.012E+06     6.36565E+06
              97     17.7593E-03     17.4608E-03     3.24234E-03     72.5538E-03    -30.9478E-03    -41.6491E-03    -38.7652E-03     69.6698E-03    -30.9478E-03     30.6616E-03     147.807E-03     174.141E+06     195.783E+06     129.894E+06    -1.57774E+06    -1.46725E+06     195.672E+06     129.894E+06     4.22948E+06
              98     18.0094E-03     17.4855E-03     4.31227E-03     73.2602E-03    -29.2599E-03    -44.0609E-03    -43.8779E-03     73.0772E-03    -29.2599E-03     7.09028E-03     128.547E-03     174.156E+06     194.061E+06     134.868E+06    -1.97617E+06    -1.88560E+06     193.970E+06     134.868E+06     3.87661E+06
              99     18.3182E-03     17.5060E-03     5.39406E-03     74.0055E-03    -28.0364E-03    -46.0070E-03    -46.0013E-03     73.9997E-03    -28.0364E-03     1.63402E-03     128.326E-03     174.354E+06     191.498E+06     132.463E+06    -4.70907E+06    -4.59919E+06     191.388E+06     132.463E+06     4.53261E+06
             100     18.6778E-03     17.5196E-03     6.47474E-03     72.7460E-03    -27.1954E-03    -45.5745E-03    -45.5690E-03     72.7406E-03    -27.1954E-03     1.57349E-03     135.701E-03     174.158E+06     191.530E+06     130.519E+06    -4.91356E+06    -4.87268E+06     191.489E+06     130.519E+06     2.70340E+06
             101     19.0880E-03     17.5298E-03     7.55368E-03     70.9518E-03    -26.6791E-03    -44.2984E-03    -44.2653E-03     70.9187E-03    -26.6791E-03     3.27855E-03     145.293E-03     173.006E+06     192.969E+06     127.912E+06    -3.12140E+06    -3.09856E+06     192.946E+06     127.912E+06     2.10094E+06
             102     19.5433E-03     17.5327E-03     8.63384E-03     68.8889E-03    -26.4438E-03    -42.4771E-03    -42.4261E-03     68.8379E-03    -26.4438E-03     4.73874E-03     154.149E-03     173.190E+06     191.688E+06     124.471E+06    -5.03381E+06    -5.01944E+06     191.674E+06     124.471E+06     1.30875E+06
             103     20.0400E-03     17.5357E-03     9.70071E-03     66.4045E-03    -26.3709E-03    -40.0500E-03    -39.9929E-03     66.3474E-03    -26.3709E-03     4.85636E-03     160.867E-03     172.492E+06     190.937E+06     123.066E+06    -5.16323E+06    -5.16304E+06     190.937E+06     123.066E+06     175.294E+03
             104     20.5821E-03     17.5364E-03     10.7749E-03     64.0188E-03    -26.4011E-03    -37.6165E-03    -37.4744E-03     63.8767E-03    -26.4011E-03     7.34872E-03     166.070E-03     172.907E+06     192.757E+06     124.670E+06    -3.82511E+06    -3.82248E+06     192.754E+06     124.670E+06     556.262E+03
             105     21.1599E-03     17.5353E-03     11.8429E-03     61.1686E-03    -26.4750E-03    -34.6898E-03    -34.5035E-03     60.9823E-03    -26.4750E-03     8.43594E-03     171.168E-03     173.716E+06     193.680E+06     124.134E+06    -4.02050E+06    -4.01708E+06     193.677E+06     124.134E+06     221.508E+03
             106     21.7694E-03     17.5374E-03     12.8975E-03     58.9787E-03    -26.5277E-03    -32.4434E-03    -32.2900E-03     58.8253E-03    -26.5277E-03     7.48047E-03     174.724E-03     173.501E+06     195.718E+06     124.780E+06    -2.01003E+06    -2.00854E+06     195.716E+06     124.780E+06    -543.152E+03
             107     22.4188E-03     17.5350E-03     13.9688E-03     57.4983E-03    -26.5907E-03    -30.9011E-03    -30.5558E-03     57.1530E-03    -26.5907E-03     10.4462E-03     177.767E-03     173.423E+06     195.351E+06     123.812E+06    -2.39269E+06    -2.39105E+06     195.349E+06     123.812E+06     50.3986E+03
             108     23.0925E-03     17.5367E-03     15.0242E-03     55.6854E-03    -26.6621E-03    -29.0181E-03    -28.5607E-03     55.2279E-03    -26.6621E-03     12.3643E-03     180.614E-03     174.015E+06     195.872E+06     123.585E+06    -2.63377E+06    -2.63019E+06     195.869E+06     123.585E+06    -201.318E+03
             109     23.7915E-03     17.5347E-03     16.0802E-03     54.3747E-03    -26.6962E-03    -27.6759E-03    -27.3815E-03     54.0803E-03    -26.6962E-03     9.74299E-03     181.671E-03     174.630E+06     193.176E+06     120.283E+06    -6.08666E+06    -6.06618E+06     193.156E+06     120.283E+06     825.180E+03
             110     24.5193E-03     17.5365E-03     17.1367E-03     53.2320E-03    -26.3226E-03    -26.9064E-03    -26.1778E-03     52.9007E-03    -26.7199E-03     10.0984E-03     183.425E-03     174.752E+06     195.328E+06     121.223E+06    -4.26527E+06    -4.24734E+06     195.310E+06     121.223E+06     1.25061E+06
             111     25.2679E-03     17.5357E-03     18.1925E-03     52.2169E-03    -25.4773E-03    -26.7359E-03    -25.0810E-03     51.8206E-03    -26.7359E-03     11.0546E-03     185.119E-03     175.201E+06     198.762E+06     124.373E+06    -1.35966E+06    -1.35957E+06     198.762E+06     124.373E+06    -39.1381E+03
             112     26.0379E-03     17.5369E-03     19.2465E-03     51.6797E-03    -24.9587E-03    -26.7178E-03    -24.4904E-03     51.2114E-03    -26.7178E-03     11.8472E-03     185.829E-03     176.424E+06     198.471E+06     122.681E+06    -3.18269E+06    -3.17561E+06     198.464E+06     122.681E+06     891.309E+03
             113     26.8256E-03     17.5372E-03     20.2993E-03     51.8849E-03    -25.1724E-03    -26.7071E-03    -24.6458E-03     51.3583E-03    -26.7071E-03     12.6747E-03     184.983E-03     178.560E+06     200.350E+06     123.790E+06    -3.72180E+06    -3.71467E+06     200.343E+06     123.790E+06     928.628E+03
             114     27.6350E-03     17.5363E-03     21.3582E-03     51.8691E-03    -25.1384E-03    -26.7256E-03    -24.5921E-03     51.3228E-03    -26.7256E-03     12.8879E-03     184.825E-03     180.162E+06     202.465E+06     124.970E+06    -3.47438E+06    -3.47424E+06     202.465E+06     124.970E+06    -6.68478E+03
             115     28.4520E-03     17.5370E-03     22.4047E-03     52.4512E-03    -25.7473E-03    -26.7022E-03    -25.2820E-03     51.9859E-03    -26.7022E-03     11.8175E-03     185.488E-03     180.930E+06     202.483E+06     124.775E+06    -4.31594E+06    -4.31457E+06     202.482E+06     124.775E+06     276.933E+03
             116     29.2933E-03     17.5366E-03     23.4641E-03     52.8467E-03    -26.1601E-03    -26.6822E-03    -25.7803E-03     52.4669E-03    -26.6822E-03     10.8702E-03     185.507E-03     181.821E+06     203.055E+06     125.814E+06    -4.63444E+06    -4.63125E+06     203.052E+06     125.814E+06    -77.1393E+03
             117     30.1462E-03     17.5372E-03     24.5202E-03     51.6074E-03    -24.8761E-03    -26.7217E-03    -24.3184E-03     51.0497E-03    -26.7217E-03     12.9425E-03     186.161E-03     182.045E+06     205.653E+06     127.544E+06    -2.41203E+06    -2.39173E+06     205.633E+06     127.544E+06     940.536E+03
             118     31.0069E-03     17.5368E-03     25.5713E-03     51.4119E-03    -24.6787E-03    -26.7246E-03    -23.9784E-03     50.7117E-03    -26.7246E-03     14.5288E-03     185.657E-03     182.959E+06     204.998E+06     125.927E+06    -4.19820E+06    -4.17900E+06     204.979E+06     125.927E+06     1.67072E+06
             119     31.8838E-03     17.5371E-03     26.6275E-03     52.2725E-03    -25.5621E-03    -26.7018E-03    -24.8950E-03     51.6054E-03    -26.7018E-03     14.3249E-03     185.662E-03     184.326E+06     206.128E+06     126.597E+06    -4.61147E+06    -4.60888E+06     206.125E+06     126.597E+06    -150.607E+03
             120     32.7670E-03     17.5366E-03     27.6792E-03     52.0503E-03    -25.3435E-03    -26.7036E-03    -24.8728E-03     51.5797E-03    -26.7036E-03     11.9355E-03     186.288E-03     184.578E+06     207.737E+06     126.744E+06    -3.48392E+06    -3.48199E+06     207.735E+06     126.744E+06    -550.783E+03
             121     33.6622E-03     17.5369E-03     28.7332E-03     51.2236E-03    -24.5267E-03    -26.7000E-03    -24.1621E-03     50.8589E-03    -26.7000E-03     10.4820E-03     185.862E-03     184.064E+06     206.671E+06     123.623E+06    -4.28272E+06    -4.28231E+06     206.671E+06     123.623E+06    -288.169E+03
             122     34.5644E-03     17.5376E-03     29.7847E-03     52.0771E-03    -25.3889E-03    -26.6853E-03    -24.9090E-03     51.5971E-03    -26.6853E-03     12.1110E-03     185.871E-03     184.492E+06     207.655E+06     125.530E+06    -3.63142E+06    -3.63045E+06     207.654E+06     125.530E+06     92.4076E+03
             123     35.4822E-03     17.5361E-03     30.8459E-03     52.4335E-03    -25.7162E-03    -26.7108E-03    -25.0364E-03     51.7537E-03    -26.7108E-03     14.4587E-03     186.576E-03     184.414E+06     208.514E+06     127.737E+06    -2.50437E+06    -2.50365E+06     208.513E+06     127.737E+06     340.002E+03
             124     36.4011E-03     17.5373E-03     31.8980E-03     51.5131E-03    -24.7641E-03    -26.7440E-03    -23.9503E-03     50.6994E-03    -26.7440E-03     15.6693E-03     187.473E-03     184.462E+06     207.170E+06     125.975E+06    -3.96141E+06    -3.95565E+06     207.165E+06     125.975E+06     851.029E+03
             125     37.3244E-03     17.5361E-03     32.9484E-03     51.3282E-03    -24.5762E-03    -26.7482E-03    -23.9927E-03     50.7447E-03    -26.7482E-03     12.9018E-03     186.311E-03     185.111E+06     207.846E+06     126.436E+06    -4.01847E+06    -4.01092E+06     207.839E+06     126.436E+06     1.21816E+06
             126     38.2587E-03     17.5370E-03     34.0027E-03     51.3865E-03    -24.6386E-03    -26.7434E-03    -24.1776E-03     50.9256E-03    -26.7434E-03     11.6682E-03     185.376E-03     184.531E+06     208.319E+06     127.374E+06    -2.85126E+06    -2.84923E+06     208.317E+06     127.374E+06     294.346E+03
             127     39.1965E-03     17.5366E-03     35.0548E-03     51.4345E-03    -24.7259E-03    -26.7116E-03    -24.3377E-03     51.0462E-03    -26.7116E-03     10.4009E-03     185.134E-03     185.000E+06     206.689E+06     124.520E+06    -5.15879E+06    -5.14767E+06     206.678E+06     124.520E+06    -1.22428E+06
             128     40.1415E-03     17.5377E-03     36.1077E-03     51.3760E-03    -24.6948E-03    -26.6917E-03    -24.3768E-03     51.0580E-03    -26.6917E-03     9.55686E-03     185.452E-03     185.177E+06     209.838E+06     126.111E+06    -2.41616E+06    -2.40431E+06     209.826E+06     126.111E+06    -1.39035E+06
             129     41.0938E-03     17.5370E-03     37.1638E-03     51.7469E-03    -25.0684E-03    -26.6832E-03    -24.5970E-03     51.2754E-03    -26.6832E-03     11.9987E-03     186.275E-03     184.631E+06     208.158E+06     124.630E+06    -3.47610E+06    -3.47392E+06     208.156E+06     124.630E+06    -675.694E+03
             130     42.0508E-03     17.5369E-03     38.2195E-03     52.0029E-03    -25.3108E-03    -26.6897E-03    -24.7362E-03     51.4284E-03    -26.6897E-03     13.2366E-03     186.256E-03     185.306E+06     206.185E+06     122.884E+06    -6.15259E+06    -6.15133E+06     206.184E+06     122.884E+06    -335.754E+03
             131     43.0090E-03     17.5368E-03     39.2713E-03     52.1684E-03    -25.4630E-03    -26.7026E-03    -24.7488E-03     51.4542E-03    -26.7026E-03     14.8163E-03     186.547E-03     185.750E+06     210.510E+06     127.633E+06    -2.25058E+06    -2.24842E+06     210.508E+06     127.633E+06     506.408E+03
             132     43.9785E-03     17.5373E-03     40.3305E-03     52.3453E-03    -25.6311E-03    -26.7143E-03    -24.7114E-03     51.4256E-03    -26.7143E-03     16.7724E-03     186.620E-03     185.653E+06     210.280E+06     127.881E+06    -2.31060E+06    -2.30819E+06     210.277E+06     127.881E+06     310.765E+03
             133     44.9452E-03     17.5359E-03     41.3831E-03     51.8208E-03    -25.0856E-03    -26.7320E-03    -24.2134E-03     50.9486E-03    -26.7320E-03     16.1824E-03     186.502E-03     185.297E+06     208.344E+06     125.461E+06    -3.92603E+06    -3.90666E+06     208.324E+06     125.461E+06     1.25527E+06
             134     45.9130E-03     17.5373E-03     42.4317E-03     51.6709E-03    -24.9569E-03    -26.7112E-03    -24.3888E-03     51.1029E-03    -26.7112E-03     13.0890E-03     185.834E-03     184.769E+06     207.853E+06     123.774E+06    -4.00206E+06    -3.98283E+06     207.833E+06     123.774E+06     1.30803E+06
             135     46.8909E-03     17.5365E-03     43.4883E-03     52.2647E-03    -25.5555E-03    -26.7057E-03    -24.9784E-03     51.6876E-03    -26.7057E-03     13.2964E-03     185.498E-03     185.591E+06     209.198E+06     124.650E+06    -3.61204E+06    -3.60428E+06     209.190E+06     124.650E+06     789.412E+03
             136     47.8730E-03     17.5364E-03     44.5455E-03     51.8041E-03    -25.0816E-03    -26.7202E-03    -24.4552E-03     51.1776E-03    -26.7202E-03     13.8132E-03     185.762E-03     186.652E+06     209.182E+06     124.259E+06    -4.83110E+06    -4.82303E+06     209.174E+06     124.259E+06     688.807E+03
             137     48.8484E-03     17.5376E-03     45.5917E-03     51.3327E-03    -24.6393E-03    -26.6947E-03    -24.2844E-03     50.9778E-03    -26.6947E-03     9.81826E-03     185.701E-03     186.943E+06     210.558E+06     125.620E+06    -3.77323E+06    -3.77221E+06     210.557E+06     125.620E+06    -466.177E+03
             138     49.8339E-03     17.5377E-03     46.6460E-03     51.7775E-03    -25.1093E-03    -26.6661E-03    -24.9049E-03     51.5732E-03    -26.6661E-03     7.82775E-03     184.501E-03     187.183E+06     211.907E+06     127.157E+06    -2.66078E+06    -2.65835E+06     211.904E+06     127.157E+06     193.513E+03
             139     50.8268E-03     17.5374E-03     47.7053E-03     52.0084E-03    -25.3174E-03    -26.6856E-03    -24.8116E-03     51.5026E-03    -26.6856E-03     12.0838E-03     184.603E-03     187.775E+06     211.069E+06     126.920E+06    -4.05816E+06    -4.04931E+06     211.060E+06     126.920E+06     1.31349E+06
             140     51.8173E-03     17.5368E-03     48.7595E-03     51.9275E-03    -25.2166E-03    -26.7090E-03    -24.5797E-03     51.2905E-03    -26.7090E-03     13.9114E-03     186.379E-03     188.077E+06     211.281E+06     127.705E+06    -4.09907E+06    -4.08666E+06     211.268E+06     127.705E+06     107.219E+03
             141     52.8077E-03     17.5374E-03     49.8106E-03     52.3603E-03    -25.6443E-03    -26.7114E-03    -25.1459E-03     51.8619E-03    -26.7114E-03     12.4215E-03     186.861E-03     188.156E+06     212.526E+06     129.665E+06    -2.83567E+06    -2.82970E+06     212.520E+06     129.665E+06    -513.551E+03
             142     53.8056E-03     17.5360E-03     50.8678E-03     52.2310E-03    -25.5294E-03    -26.6969E-03    -25.0928E-03     51.7944E-03    -26.6969E-03     11.6169E-03     185.469E-03     187.801E+06     210.963E+06     126.956E+06    -4.16083E+06    -4.15716E+06     210.959E+06     126.956E+06     825.394E+03
             143     54.8016E-03     17.5387E-03     51.9192E-03     51.6681E-03    -24.9682E-03    -26.6955E-03    -24.4619E-03     51.1618E-03    -26.6955E-03     12.3545E-03     185.146E-03     187.142E+06     211.114E+06     126.920E+06    -3.32559E+06    -3.32215E+06     211.111E+06     126.920E+06     765.935E+03
             144     55.8042E-03     17.5360E-03     52.9773E-03     51.9751E-03    -25.2378E-03    -26.7296E-03    -24.6849E-03     51.4222E-03    -26.7296E-03     13.0030E-03     185.983E-03     187.084E+06     210.827E+06     127.992E+06    -3.37306E+06    -3.37071E+06     210.824E+06     127.992E+06    -275.366E+03
             145     56.8037E-03     17.5363E-03     54.0290E-03     51.8025E-03    -25.0476E-03    -26.7523E-03    -24.6100E-03     51.3649E-03    -26.7523E-03     11.5406E-03     186.375E-03     186.868E+06     209.596E+06     125.945E+06    -4.48403E+06    -4.48170E+06     209.593E+06     125.945E+06    -650.179E+03
             146     57.8030E-03     17.5365E-03     55.0786E-03     51.9995E-03    -25.2609E-03    -26.7367E-03    -24.9802E-03     51.7188E-03    -26.7367E-03     9.13966E-03     185.325E-03     186.970E+06     210.614E+06     127.306E+06    -3.52849E+06    -3.52782E+06     210.613E+06     127.306E+06     8.32833E+03
             147     58.8135E-03     17.5365E-03     56.1382E-03     51.8070E-03    -25.0596E-03    -26.7437E-03    -24.7127E-03     51.4601E-03    -26.7437E-03     9.96989E-03     184.907E-03     186.915E+06     210.101E+06     127.671E+06    -3.86064E+06    -3.86020E+06     210.100E+06     127.671E+06     285.770E+03
             148     59.8197E-03     17.5367E-03     57.1915E-03     51.1921E-03    -24.4203E-03    -26.7698E-03    -23.8751E-03     50.6469E-03    -26.7698E-03     12.7891E-03     185.843E-03     186.820E+06     211.013E+06     130.053E+06    -2.62683E+06    -2.62634E+06     211.013E+06     130.053E+06     300.520E+03
             149     61.8356E-03     17.5361E-03     59.2970E-03     52.1286E-03    -25.3921E-03    -26.7426E-03    -25.1294E-03     51.8659E-03    -26.7426E-03     9.00835E-03     184.843E-03     187.641E+06     210.065E+06     129.919E+06    -4.33618E+06    -4.33147E+06     210.060E+06     129.919E+06    -794.189E+03
             150     62.8502E-03     17.5366E-03     60.3541E-03     51.3099E-03    -24.5648E-03    -26.7471E-03    -24.0127E-03     50.7578E-03    -26.7471E-03     12.3276E-03     185.848E-03     187.200E+06     210.970E+06     128.868E+06    -3.25011E+06    -3.24465E+06     210.964E+06     128.868E+06     670.586E+03
             151     63.8635E-03     17.5372E-03     61.4084E-03     51.4851E-03    -24.7351E-03    -26.7403E-03    -24.0033E-03     50.7533E-03    -26.7403E-03     14.8012E-03     186.022E-03     187.124E+06     211.470E+06     129.876E+06    -2.59000E+06    -2.58430E+06     211.465E+06     129.876E+06     578.191E+03
             152     64.8758E-03     17.5363E-03     62.4608E-03     51.7050E-03    -24.9500E-03    -26.7523E-03    -24.3935E-03     51.1485E-03    -26.7523E-03     13.0037E-03     185.703E-03     187.738E+06     211.419E+06     129.886E+06    -3.29717E+06    -3.29686E+06     211.419E+06     129.886E+06    -165.008E+03
             153     65.8908E-03     17.5365E-03     63.5143E-03     51.9664E-03    -25.2031E-03    -26.7598E-03    -24.6949E-03     51.4582E-03    -26.7598E-03     12.4832E-03     185.898E-03     188.285E+06     210.249E+06     127.364E+06    -5.25929E+06    -5.25854E+06     210.248E+06     127.364E+06     299.489E+03
             154     66.9075E-03     17.5355E-03     64.5688E-03     51.7087E-03    -24.9682E-03    -26.7392E-03    -24.5327E-03     51.2732E-03    -26.7392E-03     11.4911E-03     185.153E-03     187.818E+06     210.497E+06     125.709E+06    -4.75546E+06    -4.74167E+06     210.483E+06     125.709E+06     1.46697E+06
             155     67.9230E-03     17.5384E-03     65.6196E-03     50.6606E-03    -23.9436E-03    -26.7192E-03    -23.5857E-03     50.3027E-03    -26.7192E-03     10.3096E-03     184.754E-03     187.610E+06     212.514E+06     126.970E+06    -2.61719E+06    -2.59505E+06     212.492E+06     126.970E+06     194.709E+03
             156     68.9423E-03     17.5370E-03     66.6745E-03     51.3908E-03    -24.6733E-03    -26.7143E-03    -24.3489E-03     51.0665E-03    -26.7143E-03     9.89500E-03     185.292E-03     187.977E+06     211.820E+06     128.645E+06    -3.39232E+06    -3.38279E+06     211.810E+06     128.645E+06    -1.20742E+06
             157     69.9606E-03     17.5363E-03     67.7271E-03     52.0358E-03    -25.3325E-03    -26.7017E-03    -25.0879E-03     51.7913E-03    -26.7017E-03     8.64414E-03     185.428E-03     187.978E+06     210.401E+06     126.894E+06    -4.85671E+06    -4.85624E+06     210.400E+06     126.894E+06    -271.063E+03
             158     70.9816E-03     17.5380E-03     68.7809E-03     51.6013E-03    -24.9358E-03    -26.6680E-03    -24.6275E-03     51.2930E-03    -26.6680E-03     9.52086E-03     185.480E-03     188.335E+06     212.999E+06     126.557E+06    -3.03672E+06    -3.03429E+06     212.996E+06     126.557E+06    -563.198E+03
             159     72.0072E-03     17.5376E-03     69.8389E-03     52.1778E-03    -25.5218E-03    -26.6484E-03    -24.9168E-03     51.5728E-03    -26.6484E-03     13.5113E-03     185.569E-03     189.269E+06     215.169E+06     127.861E+06    -1.99342E+06    -1.99068E+06     215.166E+06     127.861E+06    -317.264E+03
             160     73.0325E-03     17.5371E-03     70.8957E-03     52.2538E-03    -25.5637E-03    -26.6843E-03    -24.9190E-03     51.6091E-03    -26.6843E-03     14.0280E-03     185.514E-03     190.126E+06     214.556E+06     128.384E+06    -3.39609E+06    -3.39394E+06     214.554E+06     128.384E+06     637.280E+03
             161     74.0507E-03     17.5365E-03     71.9442E-03     52.0505E-03    -25.3608E-03    -26.6994E-03    -24.8365E-03     51.5262E-03    -26.6994E-03     12.6958E-03     186.108E-03     190.611E+06     213.837E+06     126.332E+06    -4.80538E+06    -4.79191E+06     213.823E+06     126.332E+06     1.57461E+06
             162     75.0790E-03     17.5373E-03     73.0020E-03     52.4508E-03    -25.7583E-03    -26.6935E-03    -25.0390E-03     51.7315E-03    -26.6935E-03     14.8226E-03     187.080E-03     191.169E+06     216.158E+06     127.165E+06    -3.28218E+06    -3.27013E+06     216.146E+06     127.165E+06     922.574E+03
             163     76.1088E-03     17.5362E-03     74.0610E-03     51.8384E-03    -25.1192E-03    -26.7198E-03    -24.1110E-03     50.8302E-03    -26.7198E-03     17.4607E-03     188.205E-03     190.904E+06     215.669E+06     126.662E+06    -3.48290E+06    -3.48228E+06     215.668E+06     126.662E+06    -47.5318E+03
             164     77.1283E-03     17.5373E-03     75.1080E-03     51.1550E-03    -24.4484E-03    -26.7097E-03    -23.6516E-03     50.3582E-03    -26.7097E-03     15.0865E-03     187.237E-03     190.646E+06     215.133E+06     124.158E+06    -3.95529E+06    -3.95444E+06     215.132E+06     124.158E+06     420.827E+03
             165     78.1527E-03     17.5372E-03     76.1596E-03     51.9890E-03    -25.3070E-03    -26.6798E-03    -24.8969E-03     51.5788E-03    -26.6798E-03     11.1931E-03     185.493E-03     191.601E+06     216.894E+06     125.182E+06    -3.32343E+06    -3.32259E+06     216.893E+06     125.182E+06     418.761E+03
             166     79.1832E-03     17.5363E-03     77.2169E-03     52.4818E-03    -25.7942E-03    -26.6862E-03    -25.3277E-03     52.0154E-03    -26.6862E-03     11.9485E-03     185.539E-03     192.150E+06     218.132E+06     125.755E+06    -2.75546E+06    -2.75349E+06     218.130E+06     125.755E+06     598.629E+03
             167     80.2127E-03     17.5371E-03     78.2721E-03     51.4942E-03    -24.7960E-03    -26.6938E-03    -24.2690E-03     50.9672E-03    -26.6938E-03     12.6252E-03     185.225E-03     192.269E+06     218.991E+06     124.711E+06    -2.21956E+06    -2.21781E+06     218.989E+06     124.711E+06     467.303E+03
             168     81.2375E-03     17.5374E-03     79.3220E-03     51.2782E-03    -24.5787E-03    -26.6936E-03    -24.1960E-03     50.8955E-03    -26.6936E-03     10.6649E-03     184.545E-03     192.858E+06     218.168E+06     125.084E+06    -3.56667E+06    -3.56667E+06     218.168E+06     125.084E+06     29.0536E+03
             169     82.2678E-03     17.5365E-03     80.3770E-03     51.6048E-03    -24.9254E-03    -26.6783E-03    -24.5672E-03     51.2465E-03    -26.6783E-03     10.4023E-03     184.143E-03     192.756E+06     217.180E+06     122.459E+06    -4.57685E+06    -4.57312E+06     217.176E+06     122.459E+06     645.462E+03
             170     83.2993E-03     17.5377E-03     81.4322E-03     51.5167E-03    -24.8302E-03    -26.6875E-03    -24.3930E-03     51.0795E-03    -26.6875E-03     11.5202E-03     184.614E-03     193.233E+06     218.449E+06     122.474E+06    -3.96465E+06    -3.96033E+06     218.445E+06     122.474E+06     389.824E+03
             171     84.3289E-03     17.5356E-03     82.4856E-03     51.6355E-03    -24.9165E-03    -26.7167E-03    -24.5143E-03     51.2333E-03    -26.7167E-03     11.0469E-03     185.670E-03     194.236E+06     219.808E+06     124.654E+06    -3.65346E+06    -3.65210E+06     219.807E+06     124.654E+06     41.6681E+03
             172     85.3592E-03     17.5369E-03     83.5383E-03     51.4931E-03    -24.7805E-03    -26.7120E-03    -24.3972E-03     51.1097E-03    -26.7120E-03     10.7779E-03     185.739E-03     194.263E+06     219.649E+06     121.578E+06    -4.09264E+06    -4.09185E+06     219.648E+06     121.578E+06     291.083E+03
             173     86.3924E-03     17.5362E-03     84.5939E-03     51.0688E-03    -24.3603E-03    -26.7055E-03    -23.8908E-03     50.5993E-03    -26.7055E-03     11.8412E-03     185.784E-03     194.242E+06     220.075E+06     119.539E+06    -3.82710E+06    -3.82706E+06     220.075E+06     119.539E+06     54.1836E+03
             174     87.4241E-03     17.5371E-03     85.6470E-03     51.0278E-03    -24.3285E-03    -26.6923E-03    -23.7241E-03     50.4234E-03    -26.6923E-03     13.4168E-03     185.839E-03     194.107E+06     220.416E+06     117.568E+06    -3.46653E+06    -3.46649E+06     220.416E+06     117.568E+06     65.6785E+03
             175     88.4563E-03     17.5364E-03     86.7006E-03     51.1385E-03    -24.4482E-03    -26.6851E-03    -23.8635E-03     50.5537E-03    -26.6851E-03     13.1983E-03     185.412E-03     193.996E+06     221.571E+06     116.919E+06    -2.27850E+06    -2.27789E+06     221.570E+06     116.919E+06    -254.226E+03
             176     89.4884E-03     17.5366E-03     87.7533E-03     50.8436E-03    -24.1689E-03    -26.6729E-03    -23.6687E-03     50.3434E-03    -26.6729E-03     12.2079E-03     185.107E-03     193.929E+06     220.567E+06     114.432E+06    -3.25946E+06    -3.25159E+06     220.559E+06     114.432E+06     640.008E+03
             177     90.5186E-03     17.5375E-03     88.8034E-03     50.7050E-03    -24.0788E-03    -26.6268E-03    -23.6667E-03     50.2929E-03    -26.6268E-03     10.9828E-03     183.682E-03     193.138E+06     219.183E+06     110.833E+06    -3.79707E+06    -3.78673E+06     219.173E+06     110.833E+06     317.524E+03
             178     91.5545E-03     17.5376E-03     89.8591E-03     50.7414E-03    -24.1765E-03    -26.5636E-03    -23.8186E-03     50.3835E-03    -26.5636E-03     10.3083E-03     183.529E-03     191.882E+06     218.080E+06     105.066E+06    -3.42495E+06    -3.40949E+06     218.065E+06     105.066E+06    -1.75404E+06
             179     92.5855E-03     17.5385E-03     90.9092E-03     50.7295E-03    -24.2168E-03    -26.5089E-03    -23.8200E-03     50.3327E-03    -26.5089E-03     10.8772E-03     184.400E-03     190.136E+06     217.714E+06     99.2068E+06    -1.57391E+06    -1.56005E+06     217.701E+06     99.2068E+06    -1.57082E+06
             180     93.6246E-03     17.5381E-03     91.9673E-03     50.7946E-03    -24.3345E-03    -26.4572E-03    -23.8292E-03     50.2893E-03    -26.4572E-03     12.1967E-03     184.325E-03     188.833E+06     214.378E+06     90.7511E+06    -2.94584E+06    -2.93361E+06     214.366E+06     90.7511E+06    -1.48140E+06
             181     94.6554E-03     17.5390E-03     93.0162E-03     50.3414E-03    -23.9995E-03    -26.3432E-03    -23.4178E-03     49.7597E-03    -26.3432E-03     13.0948E-03     184.045E-03     185.868E+06     208.305E+06     74.7906E+06    -3.65325E+06    -3.63707E+06     208.288E+06     74.7906E+06    -1.82911E+06
             182     95.6923E-03     17.5413E-03     94.0708E-03     49.5969E-03    -23.4192E-03    -26.1793E-03    -22.7535E-03     48.9312E-03    -26.1793E-03     13.8122E-03     183.273E-03     182.541E+06     202.825E+06     58.1985E+06    -2.15777E+06    -2.13824E+06     202.806E+06     58.1985E+06    -1.94520E+06
             183     96.7252E-03     17.5429E-03     95.1211E-03     49.3272E-03    -23.3539E-03    -25.9715E-03    -22.7259E-03     48.6992E-03    -25.9715E-03     13.3346E-03     182.216E-03     179.050E+06     194.044E+06     40.9351E+06    -2.52110E+06    -2.41462E+06     193.938E+06     40.9351E+06    -4.15776E+06
             184     97.7557E-03     17.5463E-03     96.1681E-03     50.1960E-03    -24.4848E-03    -25.7033E-03    -24.0832E-03     49.7944E-03    -25.7033E-03     10.8766E-03     181.182E-03     174.253E+06     186.100E+06     26.0889E+06     636.567E+03     769.953E+03     185.966E+06     26.0889E+06    -4.88660E+06
             185     98.7947E-03     17.5487E-03     97.2236E-03     51.0524E-03    -25.3791E-03    -25.6661E-03    -25.2665E-03     50.6870E-03    -25.4133E-03     10.5545E-03     181.546E-03     170.820E+06     175.768E+06       11.26E+06    -589.164E+03    -535.782E+03     175.714E+06       11.26E+06    -2.95648E+06
             186     99.8317E-03     17.5540E-03     98.2763E-03     50.1247E-03    -24.7441E-03    -25.3783E-03    -24.6344E-03     49.7622E-03    -25.1255E-03     10.4066E-03     182.989E-03     162.527E+06     165.084E+06     7.71672E+06    -2.06914E+06    -2.04678E+06     165.062E+06     7.71672E+06    -1.93142E+06
             187     100.863E-03     17.5620E-03     99.3224E-03     50.7030E-03    -24.4766E-03    -26.2236E-03    -25.6230E-03     50.4839E-03    -24.8580E-03     7.83410E-03     184.668E-03     147.399E+06     159.818E+06     35.4011E+06    -620.947E+03    -584.267E+03     159.781E+06     35.4011E+06    -2.35429E+06
             188     101.904E-03     17.5675E-03     100.378E-03     54.8693E-03    -24.5979E-03    -30.2703E-03    -30.2155E-03     54.8145E-03    -24.5979E-03     3.45029E-03     187.047E-03     139.128E+06     152.935E+06     64.2842E+06    -6.77164E+06    -6.09509E+06     152.258E+06     64.2842E+06     -8.6581E+06
             189     102.947E-03     17.5691E-03     101.437E-03     60.6664E-03    -24.3318E-03    -36.3340E-03    -36.3316E-03     60.6640E-03    -24.3318E-03     942.196E-06     190.232E-03     121.064E+06     134.955E+06     66.6320E+06    -4.81405E+06    -2.59398E+06     132.735E+06     66.6320E+06    -16.7214E+06
             190     104.000E-03     17.5694E-03     102.505E-03     65.9374E-03    -24.1145E-03    -41.8208E-03    -41.7962E-03     65.9128E-03    -24.1145E-03     2.70721E-03     191.325E-03     91.4219E+06     103.134E+06     51.5464E+06    -2.40560E+06     173.887E+03     100.555E+06     51.5464E+06    -16.2771E+06
             191     105.062E-03     17.5694E-03     103.583E-03     68.8466E-03    -24.0831E-03    -44.7611E-03    -44.6749E-03     68.7604E-03    -24.0831E-03     6.09797E-03     191.942E-03     73.2113E+06     77.9473E+06     46.7019E+06    -5.13185E+06    -2.15027E+06     65.5479E+06     56.1197E+06    -13.8384E+06
             192     106.114E-03     17.5714E-03     104.649E-03     72.5690E-03    -23.9636E-03    -48.6047E-03    -48.5421E-03     72.5064E-03    -23.9636E-03     3.93043E-03     191.878E-03     55.4622E+06     53.0581E+06     38.3452E+06    -8.26477E+06    -2.30575E+06     32.3862E+06     53.0581E+06    -14.8748E+06
             193     107.175E-03     17.5707E-03     105.724E-03     79.5765E-03    -23.6751E-03    -55.9004E-03    -55.8967E-03     79.5728E-03    -23.6751E-03    -890.527E-06     188.506E-03     49.3573E+06     30.1942E+06     17.1690E+06    -24.3573E+06    -2.52885E+06    -4.65944E+06     30.1942E+06    -16.7087E+06
             194     108.250E-03     17.5717E-03     106.814E-03     88.0232E-03    -23.3972E-03    -64.6255E-03    -64.6211E-03     88.0188E-03    -23.3972E-03    -552.160E-06     184.746E-03     63.1517E+06     14.9992E+06     7.00826E+06    -51.3043E+06     207.849E+03    -44.5039E+06     14.9992E+06    -17.8045E+06
             195     109.330E-03     17.5715E-03     107.909E-03     98.2493E-03    -23.1092E-03    -75.1398E-03    -75.1390E-03     98.2484E-03    -23.1092E-03     710.907E-06     180.722E-03     90.8632E+06     11.3167E+06     7.19927E+06    -81.5024E+06     4.52194E+06    -78.8251E+06     11.3167E+06    -13.0427E+06
             196     110.427E-03     17.5728E-03     109.019E-03     109.261E-03    -22.8808E-03    -86.3795E-03    -86.3790E-03     109.260E-03    -22.8808E-03     653.049E-06     178.252E-03     119.516E+06     27.3931E+06     3.42614E+06    -101.621E+06     3.06656E+06    -101.261E+06     27.3931E+06    -2.88732E+06
             197     111.534E-03     17.5734E-03     110.140E-03     118.984E-03    -22.6719E-03    -96.3116E-03    -96.2976E-03     118.970E-03    -22.6719E-03     2.89232E-03     178.979E-03     133.457E+06     49.8658E+06     10.6266E+06    -98.7985E+06     6.82860E+06    -95.0004E+06     49.8658E+06     15.4333E+06
             198     112.658E-03     17.5738E-03     111.279E-03     128.682E-03    -22.4255E-03    -106.262E-03    -105.859E-03     128.279E-03    -22.4255E-03     16.2815E-03     189.620E-03     129.478E+06     65.9629E+06    -8.01196E+06    -75.6435E+06    -12.0860E+06    -71.5695E+06     65.9629E+06     12.3963E+06
             199     113.799E-03     17.5766E-03     112.433E-03     138.218E-03    -21.9895E-03    -116.236E-03    -113.644E-03     135.626E-03    -21.9895E-03     47.5957E-03     214.676E-03     157.326E+06     69.7439E+06    -10.0352E+06    -102.194E+06    -18.0925E+06    -94.1366E+06     69.7439E+06    -25.6965E+06
             200     114.962E-03     17.5906E-03     113.608E-03     142.555E-03    -21.5724E-03    -120.984E-03    -114.026E-03     135.596E-03    -21.5724E-03     82.9426E-03     226.204E-03     179.073E+06     64.5428E+06     17.2613E+06    -133.424E+06     26.6915E+06    -120.506E+06     42.1943E+06    -2.80800E+06
             201     116.131E-03     17.5765E-03     114.793E-03     132.179E-03    -22.3871E-03    -109.793E-03    -88.5561E-03     110.943E-03    -22.3871E-03     127.752E-03     201.984E-03     122.772E+06     29.5531E+06     6.80544E+06    -102.291E+06    -2.90484E+06    -70.2323E+06     7.20466E+06     39.8900E+06
             202     117.237E-03     17.5688E-03     115.913E-03     69.4697E-03    -4.66400E-03    -64.8056E-03    -24.9381E-03     52.1451E-03    -27.2069E-03     80.1377E-03     106.692E-03     113.937E+06     15.0653E+06     7.26431E+06    -102.491E+06    -15.6013E+06    -2.46811E+06    -62.0921E+06     15.0885E+06
             203     117.788E-03     16.3369E-03     116.650E-03     36.7080E-03    -5.15099E-03    -31.5567E-03    -4.22261E-03     35.7796E-03    -31.5567E-03    -2.15704E-03     55.5131E-03     118.436E+06     42.9254E+06     9.37829E+06    -85.8455E+06    -105.971E+03     796.218E+03    -34.2321E+06     9.02378E+06
             204     117.437E-03     15.4044E-03     116.422E-03     62.6598E-03    -27.3138E-03    -35.3438E-03    -31.1844E-03     62.3630E-03    -31.1765E-03     3.04019E-03     82.6512E-03     85.7159E+06     60.0316E+06     10.0332E+06    -38.9427E+06    -26.7931E+06    -2.11643E+06     60.0316E+06     10.5982E+06
             205     117.076E-03     14.4811E-03     116.177E-03     60.9437E-03    -27.2162E-03    -33.7257E-03    -31.1716E-03     60.7318E-03    -29.5584E-03     6.87665E-03     75.4057E-03     70.5850E+06     50.4724E+06     14.8901E+06    -30.5225E+06    -21.4040E+06     5.77155E+06     50.4724E+06    -12.8758E+06
             206     116.783E-03     13.5378E-03     115.996E-03     55.4116E-03    -26.0313E-03    -29.3814E-03    -26.9632E-03     55.3357E-03    -28.3736E-03    -3.50940E-03     65.8076E-03     58.7401E+06     38.3478E+06     982.683E+03    -27.0266E+06    -13.2755E+06    -12.7684E+06     38.3478E+06    -8.27811E+06
             207     116.539E-03     12.5834E-03     115.857E-03     61.9329E-03    -27.3313E-03    -34.6026E-03    -34.3116E-03     61.6419E-03    -27.3313E-03    -10.3624E-03     70.1779E-03     71.0706E+06     50.0666E+06     4.02734E+06    -29.8668E+06    -24.9791E+06    -860.351E+03     50.0666E+06     3.81574E+06
             208     116.316E-03     11.6413E-03     115.732E-03     64.6101E-03    -25.8478E-03    -38.7634E-03    -38.3197E-03     64.1663E-03    -25.8478E-03    -13.5130E-03     71.0713E-03     80.6952E+06     53.9714E+06     6.40296E+06    -38.6530E+06    -36.8610E+06     4.61091E+06     53.9714E+06    -3.85170E+06
             209     116.126E-03     10.6969E-03     115.632E-03     61.4304E-03    -24.1663E-03    -37.2660E-03    -36.8905E-03     61.0549E-03    -24.1663E-03    -12.0966E-03     66.0391E-03     75.8003E+06     45.8548E+06    -718.344E+03    -41.2478E+06    -38.5409E+06    -3.42525E+06     45.8548E+06    -9.85207E+06
             210     115.963E-03     9.74493E-03     115.553E-03     57.3114E-03    -22.5714E-03    -34.7390E-03    -34.5078E-03     57.0802E-03    -22.5714E-03    -9.15253E-03     60.4427E-03     70.9759E+06     44.6425E+06     5.75020E+06    -37.2551E+06    -33.2349E+06     1.73007E+06     44.6425E+06    -11.7971E+06
             211     115.823E-03     8.78751E-03     115.489E-03     52.9274E-03    -21.1148E-03    -31.8114E-03    -31.6522E-03     52.7682E-03    -21.1148E-03    -7.33864E-03     54.9786E-03     67.1770E+06     48.1009E+06     733.480E+03    -27.8600E+06    -22.8367E+06    -4.28981E+06     48.1009E+06    -10.8168E+06
             212     115.706E-03     7.82411E-03     115.441E-03     48.5651E-03    -19.7498E-03    -28.8154E-03    -28.6832E-03     48.4329E-03    -19.7498E-03    -6.38570E-03     49.8533E-03     60.7513E+06     49.2769E+06    -146.963E+03    -18.4951E+06    -16.0553E+06    -2.58683E+06     49.2769E+06    -5.72445E+06
             213     115.605E-03     6.85726E-03     115.401E-03     43.8850E-03    -18.4678E-03    -25.4170E-03    -25.3124E-03     43.7804E-03    -18.4678E-03    -5.38070E-03     44.6274E-03     48.0114E+06     37.2839E+06     2.13192E+06    -17.2895E+06    -15.3114E+06     153.850E+03     37.2839E+06    -5.60895E+06
             214     115.522E-03     5.88472E-03     115.372E-03     39.6903E-03    -17.3611E-03    -22.3296E-03    -22.2405E-03     39.6013E-03    -17.3611E-03    -4.69592E-03     40.0801E-03     32.7092E+06     19.8785E+06    -324.892E+03    -17.7844E+06    -15.6160E+06    -2.49329E+06     19.8785E+06    -5.68729E+06
             215     115.455E-03     4.90939E-03     115.350E-03     36.2631E-03    -16.4516E-03    -19.8108E-03    -19.7396E-03     36.1919E-03    -16.4516E-03    -3.98653E-03     36.4593E-03     23.2135E+06     9.62915E+06    -1.84343E+06    -17.0613E+06    -15.5023E+06     1.47816E+06     4.74857E+06    -5.37057E+06
             216     115.401E-03     3.93051E-03     115.334E-03     33.3932E-03    -15.7942E-03    -17.5984E-03    -17.5607E-03     33.3556E-03    -15.7942E-03    -2.66228E-03     33.4747E-03     17.7236E+06     4.94891E+06    -3.95958E+06    -15.4114E+06    -11.3681E+06     905.674E+03    -3.95958E+06    -7.07994E+06
             217     115.361E-03     2.95018E-03     115.323E-03     31.4968E-03    -15.4655E-03    -16.0312E-03    -15.9945E-03     31.4725E-03    -15.4779E-03    -2.11221E-03     31.5369E-03     16.8255E+06     11.3474E+06     4.18861E+06    -7.71505E+06     4.21149E+06    -579.157E+03     4.18861E+06    -8.48468E+06
             218     115.333E-03     1.96546E-03     115.317E-03     30.2824E-03    -14.5806E-03    -15.7017E-03    -14.5349E-03     30.2368E-03    -15.7017E-03    -2.82209E-03     30.3437E-03     25.8177E+06     22.1390E+06     12.7548E+06    -7.03836E+06     18.2892E+06    -3.18855E+06     12.7548E+06    -9.43548E+06
             219     115.317E-03     981.762E-06     115.313E-03     32.3430E-03    -14.2206E-03    -18.1224E-03    -16.9002E-03     32.2295E-03    -15.3292E-03    -4.64237E-03     32.5595E-03     43.8190E+06     42.5518E+06     29.5860E+06    -6.18095E+06     31.5604E+06    -1.90198E+06     36.2985E+06    -12.6169E+06
             220     114.287E-03    -8.35685E-06     114.287E-03     30.7101E-03    -12.5206E-03    -18.1895E-03    -15.1071E-03     30.5034E-03    -15.3963E-03    -6.03737E-03     31.1868E-03     64.9099E+06     42.2022E+06     21.0625E+06    -30.4854E+06     30.4226E+06    -25.4182E+06     27.7750E+06    -17.1173E+06
             221     113.255E-03     2.15686E-06     113.255E-03     22.2191E-03    -9.16375E-03    -13.0553E-03    -10.0382E-03     22.0777E-03    -12.0395E-03    -1.97483E-03     22.6307E-03     52.3134E+06    -3.76261E+06    -19.5304E+06    -61.7326E+06    -7.73429E+06    -59.1015E+06    -18.1898E+06    -6.69560E+06
             222     112.240E-03    -206.771E-09     112.240E-03     14.6480E-03    -6.63251E-03    -8.01557E-03    -7.62795E-03     14.6276E-03    -6.99973E-03     786.942E-06     14.8130E-03     21.6807E+06    -53.8289E+06    -55.5269E+06    -76.3073E+06    -56.3288E+06     -75.148E+06    -54.1863E+06     591.923E+03
             223     111.227E-03    -543.084E-09     111.227E-03     8.88042E-03    -4.23295E-03    -4.64743E-03    -4.21968E-03     8.86715E-03    -4.64743E-03     235.406E-06     8.99051E-03     19.2094E+06    -87.7411E+06    -99.3057E+06    -108.376E+06    -101.639E+06    -94.4785E+06    -99.3057E+06    -5.72192E+06
             224     110.222E-03     438.585E-09     110.222E-03     5.20091E-03    -2.56882E-03    -2.63206E-03    -2.56946E-03     5.18557E-03    -2.61608E-03     682.226E-06     5.31487E-03     40.9413E+06    -108.037E+06    -146.960E+06    -150.448E+06    -148.727E+06    -109.322E+06    -147.394E+06    -6.24263E+06
             225     109.217E-03    -429.029E-09     109.217E-03     3.36755E-03    -1.66288E-03    -1.70469E-03    -1.67266E-03     3.36135E-03    -1.68871E-03     353.534E-06     3.46122E-03     60.0159E+06    -120.927E+06    -179.345E+06    -182.378E+06    -178.800E+06    -121.472E+06    -182.378E+06     595.202E+03
             226     108.216E-03     344.929E-09     108.216E-03     3.03399E-03    -1.47052E-03    -1.56345E-03    -1.51993E-03     3.01630E-03    -1.49634E-03     533.311E-06     3.12798E-03     43.2869E+06    -100.481E+06    -137.878E+06    -146.720E+06    -136.893E+06    -107.710E+06    -140.476E+06     9.55582E+06
             227     107.211E-03    -247.762E-09     107.211E-03     4.22745E-03    -2.06822E-03    -2.15921E-03    -2.10238E-03     4.19451E-03    -2.09210E-03     911.252E-06     4.33533E-03     32.0199E+06    -40.3746E+06    -60.1434E+06    -77.3134E+06    -56.2037E+06    -61.4843E+06    -60.1434E+06     18.2513E+06
             228     106.208E-03     124.373E-09     106.208E-03     7.02750E-03    -3.47402E-03    -3.55356E-03    -3.47578E-03     6.97361E-03    -3.49791E-03     1.50373E-03     7.11057E-03     32.0310E+06     10.6551E+06    -7.62733E+06    -26.2212E+06    -11.5472E+06    -4.01882E+06    -7.62733E+06     14.2265E+06
             229     105.196E-03     20.3960E-09     105.196E-03     11.3061E-03    -5.55773E-03    -5.74841E-03    -5.67386E-03     11.2315E-03    -5.55773E-03     2.24061E-03     11.3785E-03     15.3075E+06     32.2911E+06     24.5570E+06     14.6975E+06     19.7242E+06     27.2644E+06     24.5570E+06     3.30206E+06
             230     104.185E-03     153.182E-09     104.185E-03     17.1131E-03    -8.41490E-03    -8.69841E-03    -8.63121E-03     17.0459E-03    -8.41490E-03     2.59168E-03     17.2325E-03     25.9844E+06     56.3806E+06     48.2320E+06     27.5044E+06     49.2959E+06     28.9664E+06     53.8548E+06    -3.85103E+06
             231     103.163E-03     190.437E-09     103.163E-03     24.0036E-03    -11.8195E-03    -12.1844E-03    -12.1339E-03     23.9531E-03    -11.8195E-03     2.67417E-03     24.1926E-03     56.4455E+06     83.3397E+06     71.8094E+06     22.0583E+06     76.0725E+06     23.7027E+06     77.4322E+06    -8.31146E+06
             232     102.135E-03     133.386E-09     102.135E-03     30.4523E-03    -15.0528E-03    -15.3996E-03    -15.2262E-03     30.4093E-03    -15.1832E-03     2.80195E-03     30.6520E-03     83.1886E+06     103.559E+06     96.6362E+06     17.2980E+06     102.013E+06     17.8284E+06     97.6519E+06    -646.191E+03
             233     101.101E-03    -397.636E-09     101.101E-03     36.2220E-03    -17.9464E-03    -18.2758E-03    -18.1231E-03     36.1997E-03    -18.0768E-03     1.78977E-03     36.4201E-03     89.3706E+06     114.170E+06     112.060E+06     23.7633E+06     111.325E+06     24.4984E+06     114.170E+06    -1.74682E+06
             234     100.063E-03     821.332E-09     100.063E-03     41.6285E-03    -20.5813E-03    -21.0465E-03    -21.0416E-03     41.6237E-03    -20.5813E-03     1.05325E-03     41.9102E-03     91.9829E+06     117.158E+06     113.116E+06     23.2290E+06     115.489E+06     23.8044E+06     114.210E+06    -5.73023E+06
             235     99.0158E-03    -327.557E-09     99.0158E-03     46.4514E-03    -23.0042E-03    -23.4462E-03    -23.4403E-03     46.4455E-03    -23.0042E-03     1.25854E-03     46.7957E-03     101.149E+06     101.271E+06     98.1192E+06       -1.39E+06     100.796E+06    -1.11887E+06     98.3226E+06     2.48072E+06
             236     97.9663E-03     684.727E-09     97.9663E-03     49.4430E-03    -24.6313E-03    -24.8110E-03    -24.8072E-03     49.4392E-03    -24.6313E-03     1.05427E-03     49.8529E-03     107.057E+06     83.0315E+06     78.9991E+06    -25.9455E+06     78.2241E+06    -25.1705E+06     83.0315E+06    -1.82927E+06
             237     96.9140E-03    -608.274E-09     96.9140E-03     50.8265E-03    -25.3191E-03    -25.5066E-03    -25.3161E-03     50.8196E-03    -25.5026E-03     1.41576E-03     51.1923E-03     109.723E+06     73.7491E+06     63.3187E+06    -40.7808E+06     69.1302E+06    -39.9909E+06     67.1477E+06    -9.18337E+06
             238     95.8622E-03     171.049E-09     95.8622E-03     52.1867E-03    -25.7845E-03    -26.4017E-03    -26.2129E-03     52.1814E-03    -25.9680E-03     760.211E-06     52.4696E-03     111.818E+06     67.8625E+06     54.9051E+06    -49.8664E+06     60.7657E+06    -49.1256E+06     61.2611E+06    -8.95987E+06
             239     94.8086E-03     774.324E-09     94.8086E-03     53.0558E-03    -26.2857E-03    -26.7701E-03    -26.7177E-03     53.0542E-03    -26.3364E-03     353.052E-06     53.3511E-03     116.762E+06     56.8454E+06     43.3730E+06    -66.0649E+06     50.0105E+06    -65.5860E+06     49.7290E+06    -4.65971E+06
             240     93.7535E-03    -957.408E-09     93.7535E-03     53.6590E-03    -26.6854E-03    -26.9746E-03    -26.9214E-03     53.6567E-03    -26.7362E-03     113.093E-06     53.9083E-03     116.501E+06     34.0300E+06     24.6639E+06    -86.7906E+06     31.6517E+06    -86.6619E+06     26.9136E+06     3.15525E+06
             241     92.6995E-03     1.46401E-06     92.6995E-03     54.3763E-03    -26.9628E-03    -27.4137E-03    -27.1982E-03     54.3733E-03    -27.1754E-03     215.943E-06     54.6000E-03     122.050E+06     20.7278E+06     16.7271E+06    -103.272E+06     15.9863E+06    -102.531E+06     20.7278E+06    -3.46994E+06
             242     91.6422E-03    -1.84138E-06     91.6422E-03     54.6145E-03    -27.1534E-03    -27.4606E-03    -27.1507E-03     54.6118E-03    -27.4606E-03     899.341E-06     54.8388E-03     123.715E+06     2.96803E+06    -4.38163E+06    -124.210E+06        3.59E+03    -122.997E+06    -2.63058E+06    -12.2759E+06
             243     90.5861E-03     1.60305E-06     90.5861E-03     54.0445E-03    -26.6657E-03    -27.3795E-03    -27.2828E-03     54.0423E-03    -26.7602E-03     823.877E-06     54.2555E-03     119.526E+06    -5.76396E+06    -17.4510E+06    -130.703E+06    -12.7522E+06    -129.803E+06    -11.3626E+06    -10.2068E+06
             244     89.5321E-03    -304.113E-09     89.5321E-03     53.2953E-03    -26.3333E-03    -26.9630E-03    -26.9503E-03     53.2930E-03    -26.3437E-03     858.629E-06     53.4902E-03     126.640E+06    -11.4193E+06    -23.1929E+06    -143.530E+06    -18.0385E+06    -142.999E+06    -17.1044E+06    -8.09335E+06
             245     88.4796E-03     226.646E-09     88.4796E-03     53.7766E-03    -26.7880E-03    -26.9893E-03    -26.9765E-03     53.7743E-03    -26.7984E-03    -167.551E-06     54.0024E-03     137.650E+06    -15.5236E+06    -21.3439E+06    -155.905E+06    -15.8108E+06    -155.618E+06    -21.3439E+06    -1.98216E+06
             246     87.4240E-03     156.303E-09     87.4240E-03     54.0490E-03    -26.8090E-03    -27.2412E-03    -26.9982E-03     54.0474E-03    -27.0503E-03    -429.266E-06     54.3392E-03     145.774E+06    -32.8558E+06    -33.9774E+06    -179.186E+06    -33.0610E+06    -178.981E+06    -33.9774E+06     5.36701E+06
             247     86.3680E-03    -621.344E-09     86.3680E-03     53.8303E-03    -26.6656E-03    -27.1656E-03    -26.9242E-03     53.8302E-03    -26.9070E-03     140.924E-06     54.3075E-03     153.456E+06    -34.3414E+06    -42.7032E+06    -191.710E+06    -42.0177E+06    -191.409E+06    -35.3277E+06    -23.6608E+03
             248     85.3146E-03     1.24195E-06     85.3146E-03     53.8493E-03    -26.6441E-03    -27.2059E-03    -27.2051E-03     53.8485E-03    -26.6441E-03     421.056E-06     54.3698E-03     156.445E+06    -21.6294E+06    -35.7302E+06    -184.646E+06    -29.6455E+06    -184.005E+06    -28.3547E+06    -9.66461E+06
             249     84.2587E-03    -718.671E-09     84.2587E-03     53.8127E-03    -26.5993E-03    -27.2140E-03    -26.9005E-03     53.8107E-03    -26.9108E-03     808.262E-06     54.2000E-03     159.874E+06    -27.1657E+06    -35.0317E+06    -190.752E+06    -28.9227E+06    -190.135E+06    -33.8911E+06    -3.06888E+06
             250     83.2050E-03     142.933E-09     83.2050E-03     53.6564E-03    -26.6106E-03    -27.0471E-03    -26.7345E-03     53.6551E-03    -26.9220E-03     437.772E-06     54.1357E-03     160.937E+06    -31.5329E+06    -37.4420E+06    -195.312E+06    -32.9311E+06    -195.054E+06    -36.3013E+06     6.46598E+06
             251     82.1497E-03     57.7612E-09     82.1497E-03     53.2783E-03    -26.5093E-03    -26.7704E-03    -26.6294E-03     53.2733E-03    -26.6453E-03     884.952E-06     54.0142E-03     161.627E+06    -37.8262E+06    -47.2858E+06    -203.975E+06    -42.7716E+06    -203.721E+06    -42.5946E+06     6.40231E+06
             252     81.0966E-03    -252.623E-09     81.0966E-03     53.3630E-03    -26.4806E-03    -26.8838E-03    -26.7413E-03     53.3565E-03    -26.6166E-03     1.37636E-03     54.1927E-03     161.034E+06    -33.6864E+06    -42.0865E+06    -198.754E+06    -38.5422E+06    -198.589E+06    -37.3953E+06     4.91972E+06
             253     80.0408E-03     735.715E-09     80.0408E-03     53.3795E-03    -26.4706E-03    -26.9087E-03    -26.9058E-03     53.3766E-03    -26.4706E-03     969.763E-06     54.0963E-03     160.566E+06    -24.4098E+06    -34.1154E+06    -189.597E+06    -30.5037E+06    -189.500E+06    -28.1187E+06     3.90513E+06
             254     78.9896E-03    -309.839E-09     78.9896E-03     53.3668E-03    -26.4922E-03    -26.8736E-03    -26.6617E-03     53.3652E-03    -26.7026E-03     589.996E-06     54.2950E-03     162.805E+06    -20.3798E+06    -30.4909E+06    -187.996E+06    -26.9864E+06    -187.386E+06    -24.4942E+06    -4.61042E+06
             255     77.9338E-03    -132.347E-09     77.9338E-03     53.4509E-03    -26.5736E-03    -26.8774E-03    -26.5734E-03     53.4507E-03    -26.8774E-03     229.556E-06     54.4502E-03     162.226E+06    -17.2009E+06    -25.4883E+06    -183.412E+06    -17.8245E+06    -182.788E+06    -25.4883E+06    -4.30632E+06
             256     76.8799E-03    -88.2296E-09     76.8799E-03     53.4230E-03    -26.5527E-03    -26.8707E-03    -26.7750E-03     53.4207E-03    -26.6461E-03     720.423E-06     54.5130E-03     162.549E+06    -18.6500E+06    -28.0979E+06    -185.715E+06    -23.9990E+06    -185.640E+06    -22.8230E+06     2.15197E+06
             257     75.8254E-03     604.676E-09     75.8254E-03     53.9023E-03    -26.8247E-03    -27.0776E-03    -27.0451E-03     53.8982E-03    -26.8531E-03     1.15718E-03     55.1023E-03     163.589E+06    -23.5739E+06    -31.8364E+06    -191.126E+06    -28.8509E+06    -191.124E+06    -26.5616E+06    -21.8552E+03
             258     74.7705E-03    -689.266E-09     74.7705E-03     54.1335E-03    -26.8583E-03    -27.2748E-03    -27.2444E-03     54.1315E-03    -26.8867E-03     646.918E-06     55.2397E-03     163.691E+06    -26.6044E+06    -31.4034E+06    -192.639E+06    -28.4672E+06    -192.587E+06    -29.5921E+06     2.30482E+06
             259     73.7153E-03     1.48334E-06     73.7153E-03     53.4854E-03    -26.4890E-03    -26.9949E-03    -26.8712E-03     53.4795E-03    -26.6068E-03     1.04498E-03     54.7396E-03     161.854E+06    -28.0002E+06    -30.9585E+06    -191.312E+06    -31.0541E+06    -191.217E+06    -28.0002E+06     3.91231E+06
             260     72.6617E-03    -1.69604E-06     72.6617E-03     52.8203E-03    -26.2427E-03    -26.5761E-03    -26.2368E-03     52.8143E-03    -26.5761E-03     1.09489E-03     54.0267E-03     162.135E+06    -22.1748E+06    -25.4181E+06    -185.905E+06    -23.4459E+06    -185.781E+06    -24.2711E+06    -677.036E+03
             261     71.6090E-03     1.26342E-06     71.6090E-03     52.8900E-03    -26.0489E-03    -26.8406E-03    -26.6249E-03     52.8898E-03    -26.2645E-03     197.527E-06     53.9465E-03     164.809E+06    -20.1479E+06    -23.8127E+06    -186.758E+06    -21.7972E+06    -186.677E+06    -22.2442E+06    -2.18866E+06
             262     70.5562E-03    -106.386E-09     70.5562E-03     52.4147E-03    -25.7103E-03    -26.7037E-03    -26.2853E-03     52.4136E-03    -26.1276E-03    -349.367E-06     53.4496E-03     166.203E+06    -18.5996E+06    -23.5255E+06    -187.204E+06    -20.2362E+06    -187.136E+06    -21.9570E+06     2.75643E+06
             263     69.5021E-03    -739.566E-09     69.5021E-03     51.7149E-03    -25.5801E-03    -26.1343E-03    -25.5766E-03     51.7113E-03    -26.1343E-03     200.600E-06     53.0501E-03     166.749E+06     -18.327E+06    -26.2161E+06    -188.877E+06    -22.9261E+06    -188.810E+06    -21.6844E+06     2.09851E+06
             264     68.4507E-03     541.996E-09     68.4507E-03     52.0109E-03    -25.8074E-03    -26.2029E-03    -26.0632E-03     52.0081E-03    -25.9443E-03     851.073E-06     53.4264E-03     162.960E+06    -17.3948E+06    -24.8411E+06    -183.945E+06    -21.9688E+06    -183.903E+06    -20.3094E+06    -2.11433E+06
             265     67.3963E-03    -62.9460E-09     67.3963E-03     52.3750E-03    -25.9562E-03    -26.4173E-03    -26.4152E-03     52.3729E-03    -25.9562E-03     762.427E-06     53.6940E-03     156.968E+06    -22.1782E+06    -26.2042E+06    -181.113E+06    -23.3654E+06    -181.037E+06    -25.0929E+06    -209.945E+03
             266     66.3453E-03     485.380E-09     66.3453E-03     53.3063E-03    -26.5371E-03    -26.7681E-03    -26.7378E-03     53.3045E-03    -26.5655E-03     632.610E-06     54.6098E-03     156.183E+06    -23.1234E+06    -27.6404E+06    -181.504E+06    -28.0375E+06    -181.106E+06    -23.1234E+06    -3.66038E+06
             267     65.2893E-03    -477.177E-09     65.2893E-03     53.9398E-03    -26.8664E-03    -27.0749E-03    -26.8663E-03     53.9398E-03    -27.0749E-03     103.395E-06     55.1680E-03     158.527E+06    -11.7605E+06    -22.0254E+06    -175.143E+06    -15.6509E+06    -174.658E+06    -18.6196E+06    -8.45698E+06
             268     64.2345E-03     56.8606E-09     64.2345E-03     53.3441E-03    -26.5545E-03    -26.7908E-03    -26.6092E-03     53.3426E-03    -26.7346E-03     479.790E-06     54.7358E-03     159.004E+06    -16.1049E+06    -26.9847E+06    -180.250E+06    -20.4990E+06    -179.876E+06    -22.9640E+06     1.23400E+06
             269     63.1802E-03     121.884E-09     63.1802E-03     53.2391E-03    -26.4411E-03    -26.7977E-03    -26.7925E-03     53.2339E-03    -26.4411E-03     1.25813E-03     54.6497E-03     158.824E+06    -18.7137E+06    -25.2491E+06    -180.699E+06    -23.0809E+06    -180.352E+06    -21.2284E+06     7.17182E+06
             270     62.1262E-03     439.533E-09     62.1262E-03     53.3926E-03    -26.3596E-03    -27.0331E-03    -26.6538E-03     53.3863E-03    -26.7326E-03     1.40604E-03     54.8235E-03     156.748E+06    -21.0041E+06    -26.3634E+06    -180.363E+06    -24.1153E+06    -180.096E+06    -23.5188E+06     6.37238E+06
             271     61.0720E-03    -1.11694E-06     61.0720E-03     53.1811E-03    -26.3941E-03    -26.7873E-03    -26.3888E-03     53.1758E-03    -26.7873E-03     1.30225E-03     54.5511E-03     156.851E+06    -21.6991E+06    -27.9190E+06    -181.567E+06    -24.7210E+06    -181.390E+06    -25.0744E+06     2.92309E+06
             272     60.0177E-03     1.04303E-06     60.0177E-03     53.6278E-03    -26.7482E-03    -26.8790E-03    -26.8518E-03     53.6209E-03    -26.7685E-03     1.48968E-03     54.8941E-03     157.447E+06    -14.0354E+06    -21.7293E+06    -175.185E+06    -18.3607E+06    -175.179E+06    -17.4107E+06    -956.333E+03
             273     58.9646E-03    -763.540E-09     58.9646E-03     54.4041E-03    -26.9594E-03    -27.4436E-03    -27.4394E-03     54.4000E-03    -26.9594E-03     858.190E-06     55.7975E-03     158.605E+06    -16.3794E+06    -25.6080E+06    -179.397E+06    -20.8078E+06    -179.287E+06    -21.2893E+06    -3.27241E+06
             274     59.5274E-03     16.5597E-03     57.1777E-03     63.7190E-03    -25.4222E-03    -38.2951E-03    -25.1609E-03     51.7595E-03    -26.5969E-03     55.3872E-03     226.694E-03     184.272E+06     201.302E+06     87.9831E+06    -7.33429E+06    -7.33142E+06     201.299E+06     87.9831E+06    -316.790E+03
             275     59.1648E-03     15.5859E-03     57.0750E-03     68.3840E-03    -26.2945E-03    -42.0902E-03    -26.0812E-03     52.3750E-03    -26.2945E-03     76.2955E-03     218.917E-03     177.651E+06     176.638E+06     18.5367E+06    -13.4110E+06    -10.4354E+06     176.632E+06     15.5664E+06    -605.697E+03
             276     58.8592E-03     14.6114E-03     57.0167E-03     57.4391E-03    -26.2391E-03    -31.2009E-03    -25.6498E-03     51.8880E-03    -26.2391E-03     41.3140E-03     148.137E-03     146.317E+06     136.118E+06    -6.83255E+06    -13.3022E+06    -10.3131E+06     136.099E+06    -9.80287E+06     510.752E+03
             277     58.5956E-03     13.6350E-03     56.9871E-03     54.4097E-03    -26.3348E-03    -28.0754E-03    -25.8906E-03     52.2249E-03    -26.3348E-03     26.4193E-03     117.071E-03     82.4319E+06     70.4001E+06    -6.87373E+06    -15.7951E+06    -10.1939E+06     70.2209E+06    -12.2957E+06     1.40588E+06
             278     58.3519E-03     12.6622E-03     56.9615E-03     53.8132E-03    -26.4141E-03    -27.4304E-03    -25.9665E-03     52.3493E-03    -26.4141E-03     21.3604E-03     100.469E-03     31.0159E+06     11.3957E+06    -14.0098E+06    -22.8785E+06    -8.24729E+06     2.18644E+06    -19.4318E+06     532.675E+03
             279     58.1289E-03     11.6868E-03     56.9420E-03     53.2286E-03    -26.5262E-03    -26.7519E-03    -25.8732E-03     52.3498E-03    -26.5262E-03     16.6180E-03     88.6873E-03     35.9160E+06    -8.46099E+06    -19.6720E+06    -47.8316E+06    -8.72820E+06    -47.5644E+06    -19.6720E+06    -1.40438E+06
             280     57.9253E-03     10.7123E-03     56.9262E-03     53.3827E-03    -26.6137E-03    -26.8011E-03    -26.1145E-03     52.7461E-03    -26.6637E-03     14.1777E-03     81.3184E-03     73.4887E+06    -5.46311E+06    -14.6363E+06    -82.9696E+06    -9.30593E+06    -82.9085E+06    -10.8546E+06    -1.82125E+06
             281     57.7396E-03     9.73817E-03     56.9124E-03     53.4837E-03    -26.6662E-03    -26.8410E-03    -26.2529E-03     53.0122E-03    -26.7828E-03     12.2375E-03     75.1634E-03     99.8622E+06    -1.36690E+06    -9.43328E+06    -104.936E+06    -9.46212E+06    -104.908E+06    -1.36690E+06    -456.833E+03
             282     57.5710E-03     8.76361E-03     56.9000E-03     53.5543E-03    -26.7040E-03    -26.8595E-03    -26.3401E-03     53.1840E-03    -26.8530E-03     10.8619E-03     70.1562E-03     118.618E+06    -2.93495E+06    -10.2911E+06    -125.003E+06    -10.3259E+06    -124.969E+06    -2.93495E+06     741.268E+03
             283     57.4204E-03     7.78953E-03     56.8895E-03     53.7501E-03    -26.8181E-03    -26.9328E-03    -26.5312E-03     53.4608E-03    -26.9304E-03     9.61345E-03     66.4048E-03     140.605E+06    -3.18403E+06    -10.6074E+06    -147.323E+06    -10.6383E+06    -147.292E+06    -3.18403E+06     1.39193E+06
             284     57.2870E-03     6.81561E-03     56.8801E-03     53.9249E-03    -26.9261E-03    -26.9989E-03    -26.7374E-03     53.7337E-03    -26.9965E-03     7.76058E-03     63.2949E-03     158.210E+06    -1.48720E+06    -11.2919E+06    -164.336E+06    -11.3079E+06    -164.320E+06    -1.48720E+06     1.35382E+06
             285     57.1724E-03     5.84200E-03     56.8731E-03     53.9025E-03    -26.8621E-03    -27.0395E-03    -26.7402E-03     53.7806E-03    -27.0395E-03     6.26346E-03     60.6864E-03     167.818E+06    -2.37452E+06    -12.5657E+06    -175.017E+06    -12.5708E+06    -175.012E+06    -2.37452E+06     406.103E+03
             286     57.0747E-03     4.86782E-03     56.8668E-03     53.8850E-03    -26.8211E-03    -27.0674E-03    -26.7385E-03     53.8024E-03    -27.0674E-03     5.07841E-03     58.8163E-03     169.779E+06    -7.09482E+06    -13.2667E+06    -179.836E+06    -13.0885E+06    -179.825E+06    -7.28369E+06     226.186E+03
             287     56.9948E-03     3.89374E-03     56.8617E-03     54.0045E-03    -26.8959E-03    -27.1107E-03    -26.8553E-03     53.9639E-03    -27.1107E-03     3.55783E-03     57.3734E-03     168.123E+06    -9.16775E+06    -13.7677E+06    -179.526E+06    -13.5985E+06    -179.507E+06    -9.35662E+06     998.618E+03
             288     56.9336E-03     2.92073E-03     56.8586E-03     54.1742E-03    -27.0158E-03    -27.1589E-03    -26.9980E-03     54.1533E-03    -27.1559E-03     2.58095E-03     56.2617E-03     168.833E+06    -10.1741E+06    -15.4364E+06    -181.563E+06    -15.4508E+06    -181.548E+06    -10.1741E+06    -3.06958E+03
             289     56.8890E-03     1.94648E-03     56.8557E-03     54.3268E-03    -27.0646E-03    -27.2618E-03    -27.1774E-03     54.3153E-03    -27.1375E-03     1.90175E-03     55.7353E-03     164.957E+06    -12.0556E+06    -17.2737E+06    -179.550E+06    -17.2835E+06    -179.540E+06    -12.0556E+06    -690.169E+03
             290     56.8632E-03     974.455E-06     56.8549E-03     54.1453E-03    -26.8494E-03    -27.2956E-03    -26.9632E-03     54.1379E-03    -27.1743E-03     1.48463E-03     55.4463E-03     158.586E+06    -15.3923E+06    -19.6779E+06    -176.064E+06    -19.6692E+06    -175.930E+06    -15.5357E+06     1.71005E+06
             291     58.5170E-03     16.5612E-03     56.1246E-03     64.0277E-03    -25.7355E-03    -38.2896E-03    -25.2587E-03     51.8388E-03    -26.5775E-03     54.4966E-03     225.951E-03     184.203E+06     202.712E+06     88.6316E+06    -5.91283E+06    -5.91117E+06     202.711E+06     88.6316E+06     260.375E+03
             292     58.1470E-03     15.5853E-03     56.0194E-03     68.3569E-03    -26.2712E-03    -42.0853E-03    -25.9477E-03     52.2193E-03    -26.2712E-03     76.2147E-03     218.724E-03     178.096E+06     176.361E+06     18.0617E+06    -14.4335E+06    -10.7097E+06     176.353E+06     14.3452E+06     223.681E+03
             293     57.8396E-03     14.6104E-03     55.9639E-03     57.3608E-03    -26.1955E-03    -31.1640E-03    -25.7568E-03     51.9537E-03    -26.1955E-03     41.0128E-03     148.144E-03     149.772E+06     135.963E+06    -11.0862E+06    -16.3793E+06    -12.1162E+06     135.919E+06    -15.3058E+06    -12.4540E+03
             294     57.5709E-03     13.6367E-03     55.9326E-03     54.1161E-03    -26.3088E-03    -27.8084E-03    -25.6084E-03     51.9162E-03    -26.3088E-03     26.3886E-03     116.851E-03     84.0820E+06     70.6781E+06    -9.39785E+06    -16.1652E+06    -10.4151E+06     70.6219E+06    -15.0918E+06    -651.872E+03
             295     57.3230E-03     12.6612E-03     55.9073E-03     53.7106E-03    -26.4181E-03    -27.3340E-03    -25.8859E-03     52.2625E-03    -26.4181E-03     21.2819E-03     100.511E-03     28.8246E+06     10.4334E+06    -13.5665E+06    -21.2907E+06    -8.15968E+06     2.49327E+06    -18.7574E+06    -403.877E+03
             296     57.0978E-03     11.6872E-03     55.8889E-03     53.4308E-03    -26.5352E-03    -26.9549E-03    -26.0513E-03     52.5272E-03    -26.5352E-03     16.8782E-03     88.9037E-03     37.0497E+06    -5.01657E+06    -15.4086E+06    -45.0894E+06    -5.18873E+06    -44.9172E+06    -15.4086E+06    -571.892E+03
             297     56.8898E-03     10.7124E-03     55.8721E-03     53.4556E-03    -26.6464E-03    -26.8432E-03    -26.1993E-03     52.8199E-03    -26.6546E-03     14.1818E-03     81.2872E-03     77.4426E+06    -3.75919E+06    -9.84299E+06    -83.9196E+06    -5.02656E+06    -83.8840E+06    -8.61123E+06    -1.05231E+06
             298     56.7008E-03     9.73815E-03     55.8583E-03     53.4997E-03    -26.6931E-03    -26.8245E-03    -26.2831E-03     53.0379E-03    -26.7727E-03     12.1036E-03     75.1133E-03     103.828E+06     901.751E+03    -7.07351E+06    -106.597E+06    -7.11001E+06    -106.560E+06     901.751E+03     707.316E+03
             299     56.5298E-03     8.76396E-03     55.8464E-03     53.5343E-03    -26.6938E-03    -26.8453E-03    -26.3447E-03     53.1851E-03    -26.8453E-03     10.5378E-03     70.0926E-03     120.155E+06     387.767E+03    -9.67685E+06    -124.415E+06    -9.73041E+06    -124.361E+06     387.767E+03     1.83234E+06
             300     56.3761E-03     7.78956E-03     55.8353E-03     53.6639E-03    -26.7613E-03    -26.8970E-03    -26.4926E-03     53.3927E-03    -26.8945E-03     9.30037E-03     66.2390E-03     138.534E+06    -5.05682E+06    -11.6614E+06    -146.731E+06    -11.7146E+06    -146.678E+06    -5.05682E+06     686.897E+03
             301     56.2401E-03     6.81580E-03     55.8255E-03     53.8128E-03    -26.8490E-03    -26.9555E-03    -26.6674E-03     53.6288E-03    -26.9530E-03     7.61228E-03     63.1346E-03     155.688E+06    -4.86597E+06    -11.6605E+06    -163.812E+06    -11.6816E+06    -163.791E+06    -4.86597E+06     10.3505E+03
             302     56.1237E-03     5.84188E-03     55.8188E-03     53.9467E-03    -26.9141E-03    -27.0310E-03    -26.8330E-03     53.8268E-03    -26.9922E-03     6.21704E-03     60.7531E-03     166.075E+06    -4.70082E+06    -11.2440E+06    -173.949E+06    -11.2443E+06    -173.949E+06    -4.70082E+06     112.106E+03
             303     56.0242E-03     4.86843E-03     55.8122E-03     53.9467E-03    -26.8865E-03    -27.0614E-03    -26.8423E-03     53.8638E-03    -27.0226E-03     5.10469E-03     58.8141E-03     171.409E+06    -4.96072E+06    -12.8811E+06    -180.159E+06    -12.8859E+06    -180.154E+06    -4.96072E+06     111.742E+03
             304     55.9432E-03     3.89483E-03     55.8074E-03     53.8831E-03    -26.8398E-03    -27.0440E-03    -26.7956E-03     53.8389E-03    -27.0440E-03     3.71313E-03     57.1869E-03     168.490E+06    -7.29413E+06    -14.5434E+06    -179.238E+06    -14.3307E+06    -179.216E+06    -7.52850E+06     139.829E+03
             305     55.8801E-03     2.92037E-03     55.8037E-03     53.9780E-03    -26.8967E-03    -27.0815E-03    -26.8735E-03     53.9548E-03    -27.0815E-03     2.68367E-03     56.1064E-03     167.160E+06    -9.67806E+06    -14.7691E+06    -179.295E+06    -14.5586E+06    -179.271E+06    -9.91244E+06     70.6183E+03
             306     55.8353E-03     1.94738E-03     55.8013E-03     54.0780E-03    -26.9352E-03    -27.1419E-03    -26.9238E-03     54.0666E-03    -27.1419E-03     1.88622E-03     55.4642E-03     165.506E+06    -11.5925E+06    -16.5216E+06    -179.485E+06    -16.5509E+06    -179.455E+06    -11.5925E+06    -584.424E+03
             307     55.8079E-03     972.348E-06     55.7994E-03     54.2787E-03    -26.8966E-03    -27.3816E-03    -27.2031E-03     54.2736E-03    -27.0700E-03     1.23605E-03     55.5128E-03     159.307E+06    -16.1660E+06    -19.9189E+06    -177.299E+06    -19.8152E+06    -177.259E+06    -16.3093E+06    -378.101E+03
             308     57.5108E-03     16.5631E-03     55.0741E-03     64.7461E-03    -25.8196E-03    -38.9262E-03    -25.8166E-03     52.3744E-03    -26.5575E-03     55.0330E-03     226.086E-03     183.890E+06     202.069E+06     88.1940E+06    -6.38569E+06    -6.37751E+06     202.061E+06     88.1940E+06     828.282E+03
             309     57.1322E-03     15.5858E-03     54.9651E-03     68.4828E-03    -26.2299E-03    -42.2538E-03    -26.1395E-03     52.3685E-03    -26.2299E-03     76.1699E-03     218.723E-03     178.398E+06     178.053E+06     20.5308E+06    -13.7679E+06    -8.60843E+06     178.030E+06     15.3946E+06     526.094E+03
             310     56.8202E-03     14.6121E-03     54.9092E-03     56.7599E-03    -26.1544E-03    -30.5999E-03    -25.4029E-03     51.5628E-03    -26.1544E-03     40.1337E-03     148.038E-03     148.216E+06     136.882E+06    -8.07753E+06    -14.3296E+06    -8.04052E+06     136.845E+06    -14.3296E+06    -1.08116E+06
             311     56.5482E-03     13.6362E-03     54.8794E-03     53.8180E-03    -26.2709E-03    -27.5418E-03    -25.3052E-03     51.5814E-03    -26.2709E-03     26.5003E-03     116.392E-03     84.9888E+06     70.4806E+06    -7.84295E+06    -18.3845E+06    -7.80338E+06     70.4410E+06    -18.3845E+06    -1.31236E+06
             312     56.2962E-03     12.6614E-03     54.8539E-03     53.6006E-03    -26.3882E-03    -27.2459E-03    -25.7780E-03     52.1327E-03    -26.3882E-03     21.3987E-03     100.349E-03     32.7893E+06     11.0941E+06    -14.6833E+06    -25.6293E+06    -7.60441E+06     2.49496E+06    -24.1091E+06    -1.14142E+06
             313     56.0657E-03     11.6867E-03     54.8341E-03     53.6258E-03    -26.5198E-03    -27.1649E-03    -26.2780E-03     52.7389E-03    -26.5198E-03     16.7158E-03     89.0348E-03     35.5896E+06    -7.75238E+06    -17.7195E+06    -45.2600E+06    -7.82181E+06    -45.1905E+06    -17.7195E+06    -287.612E+03
             314     55.8557E-03     10.7131E-03     54.8186E-03     53.5495E-03    -26.6190E-03    -26.9714E-03    -26.3479E-03     52.9342E-03    -26.6271E-03     13.9962E-03     81.2844E-03     74.2819E+06    -6.97724E+06    -10.9895E+06    -83.1369E+06    -8.15561E+06    -83.1155E+06    -9.83259E+06     374.263E+03
             315     55.6627E-03     9.73848E-03     54.8042E-03     53.5009E-03    -26.7125E-03    -26.8108E-03    -26.3391E-03     53.0422E-03    -26.7256E-03     12.0436E-03     75.0714E-03     103.990E+06    -1.92214E+06    -8.17937E+06    -108.830E+06    -8.19409E+06    -108.815E+06    -1.92214E+06     760.348E+03
             316     55.4888E-03     8.76446E-03     54.7923E-03     53.6317E-03    -26.7816E-03    -26.8550E-03    -26.4980E-03     53.2893E-03    -26.7963E-03     10.4629E-03     70.1572E-03     121.890E+06     2.16395E+06    -7.45029E+06    -124.170E+06    -7.49867E+06    -124.122E+06     2.16395E+06     2.10999E+06
             317     55.3324E-03     7.79071E-03     54.7812E-03     53.6430E-03    -26.7540E-03    -26.8789E-03    -26.5425E-03     53.3819E-03    -26.8293E-03     9.09692E-03     66.1882E-03     139.139E+06    -1.68604E+06    -7.58606E+06    -143.603E+06    -7.64109E+06    -143.548E+06    -1.68604E+06     1.24483E+06
             318     55.1942E-03     6.81619E-03     54.7717E-03     53.5809E-03    -26.6963E-03    -26.8781E-03    -26.5252E-03     53.4098E-03    -26.8781E-03     7.35948E-03     62.8896E-03     156.320E+06    -4.57093E+06    -9.30860E+06    -163.196E+06    -9.33136E+06    -163.173E+06    -4.57093E+06    -553.049E+03
             319     55.0748E-03     5.84221E-03     54.7641E-03     53.7364E-03    -26.7636E-03    -26.9746E-03    -26.6850E-03     53.6190E-03    -26.9358E-03     6.12496E-03     60.5289E-03     166.824E+06    -4.33134E+06    -11.3414E+06    -174.546E+06    -11.3478E+06    -174.539E+06    -4.33134E+06    -57.7899E+03
             320     54.9738E-03     4.86846E-03     54.7578E-03     53.8565E-03    -26.8466E-03    -27.0081E-03    -26.8052E-03     53.7762E-03    -26.9693E-03     5.04292E-03     58.6892E-03     170.644E+06    -4.38739E+06    -12.6652E+06    -178.984E+06    -12.6751E+06    -178.974E+06    -4.38739E+06     264.230E+03
             321     54.8916E-03     3.89438E-03     54.7532E-03     53.8244E-03    -26.8443E-03    -26.9786E-03    -26.7959E-03     53.7760E-03    -26.9786E-03     3.91228E-03     57.1146E-03     168.182E+06    -7.37512E+06    -14.4168E+06    -178.910E+06    -14.1985E+06    -178.894E+06    -7.60949E+06    -471.746E+03
             322     54.8271E-03     2.92123E-03     54.7492E-03     53.8629E-03    -26.8649E-03    -26.9977E-03    -26.8387E-03     53.8367E-03    -26.9977E-03     2.84915E-03     55.9868E-03     166.112E+06    -10.5931E+06    -15.6059E+06    -179.122E+06    -15.3925E+06    -179.101E+06    -10.8275E+06    -594.970E+03
             323     54.7814E-03     1.94677E-03     54.7468E-03     53.9863E-03    -26.8698E-03    -27.1147E-03    -26.9592E-03     53.9752E-03    -27.0140E-03     1.84248E-03     55.3859E-03     164.970E+06    -11.2523E+06    -16.9232E+06    -178.945E+06    -16.9590E+06    -178.909E+06    -11.2523E+06    -746.994E+03
             324     54.7534E-03     974.314E-06     54.7447E-03     53.9343E-03    -26.6880E-03    -27.2462E-03    -27.0951E-03     53.9292E-03    -26.8339E-03     1.27958E-03     55.2223E-03     159.846E+06    -15.4896E+06    -20.9295E+06    -177.961E+06    -20.0318E+06    -177.910E+06    -16.4385E+06    -646.125E+03
             325     56.4970E-03     16.5585E-03     54.0160E-03     64.6725E-03    -25.7223E-03    -38.9495E-03    -26.1495E-03     52.7249E-03    -26.5747E-03     55.4535E-03     226.614E-03     184.455E+06     202.471E+06     89.5784E+06    -7.15171E+06    -7.13177E+06     202.451E+06     89.5784E+06    -532.340E+03
             326     56.1198E-03     15.5891E-03     53.9111E-03     68.6096E-03    -26.2295E-03    -42.3827E-03    -26.4908E-03     52.7177E-03    -26.2295E-03     76.2714E-03     218.771E-03     179.293E+06     179.235E+06     22.1308E+06    -13.6499E+06    -9.34797E+06     179.198E+06     17.8659E+06    -363.610E+03
             327     55.8038E-03     14.6117E-03     53.8568E-03     56.7548E-03    -26.1466E-03    -30.6073E-03    -25.1276E-03     51.2752E-03    -26.1466E-03     40.9906E-03     147.645E-03     148.808E+06     137.417E+06    -8.02185E+06    -14.4848E+06    -9.58686E+06     137.397E+06    -12.8995E+06     135.619E+03
             328     55.5261E-03     13.6365E-03     53.8256E-03     53.8982E-03    -26.2634E-03    -27.6358E-03    -25.3649E-03     51.6273E-03    -26.2634E-03     26.7346E-03     116.085E-03     86.7268E+06     71.1692E+06    -9.22590E+06    -19.6763E+06    -10.7922E+06     71.1502E+06    -18.0910E+06    -16.6864E+03
             329     55.2704E-03     12.6616E-03     53.8005E-03     53.8063E-03    -26.3705E-03    -27.4712E-03    -25.9998E-03     52.3349E-03    -26.3705E-03     21.4132E-03     100.486E-03     33.2908E+06     9.44231E+06    -15.7608E+06    -27.2657E+06    -11.6144E+06     2.04327E+06    -24.0131E+06     46.9687E+03
             330     55.0350E-03     11.6874E-03     53.7797E-03     53.5174E-03    -26.4858E-03    -27.0922E-03    -26.2492E-03     52.6744E-03    -26.4858E-03     16.2848E-03     88.9539E-03     32.5637E+06    -12.0261E+06    -19.1978E+06    -46.2895E+06    -12.1247E+06    -46.1909E+06    -19.1978E+06     715.756E+03
             331     54.8216E-03     10.7129E-03     53.7647E-03     53.4812E-03    -26.5816E-03    -26.9380E-03    -26.3505E-03     52.8937E-03    -26.5816E-03     13.6679E-03     81.3058E-03     70.4664E+06    -9.17021E+06    -14.9970E+06    -82.3107E+06    -12.0596E+06    -82.2861E+06    -12.1322E+06     548.751E+03
             332     54.6254E-03     9.73917E-03     53.7502E-03     53.5122E-03    -26.6576E-03    -26.8739E-03    -26.4163E-03     53.0546E-03    -26.6576E-03     12.0548E-03     75.0917E-03     99.7413E+06    -6.21088E+06    -11.8272E+06    -108.614E+06    -11.8531E+06    -108.588E+06    -6.21088E+06    -312.195E+03
             333     54.4483E-03     8.76493E-03     53.7382E-03     53.5617E-03    -26.7152E-03    -26.8479E-03    -26.4910E-03     53.2048E-03    -26.7152E-03     10.6725E-03     70.1294E-03     118.726E+06    -2.79784E+06    -11.0193E+06    -125.389E+06    -11.0462E+06    -125.362E+06    -2.79784E+06    -318.064E+03
             334     54.2886E-03     7.79089E-03     53.7267E-03     53.6097E-03    -26.7481E-03    -26.8522E-03    -26.5743E-03     53.3441E-03    -26.7604E-03     9.17378E-03     66.2191E-03     136.181E+06    -1.10077E+06    -9.99070E+06    -141.458E+06    -10.0055E+06    -141.443E+06    -1.10077E+06     796.460E+03
             335     54.1491E-03     6.81730E-03     53.7182E-03     53.5666E-03    -26.7127E-03    -26.8541E-03    -26.5933E-03     53.3874E-03    -26.7942E-03     7.54891E-03     62.9182E-03     155.124E+06    -3.26994E+06    -9.93032E+06    -161.600E+06    -9.94474E+06    -161.586E+06    -3.26994E+06     550.358E+03
             336     54.0268E-03     5.84294E-03     53.7099E-03     53.5630E-03    -26.6862E-03    -26.8782E-03    -26.6144E-03     53.4460E-03    -26.8330E-03     6.06214E-03     60.4439E-03     167.748E+06    -4.49263E+06    -10.8020E+06    -175.298E+06    -10.8120E+06    -175.288E+06    -4.49263E+06     49.4871E+03
             337     53.9240E-03     4.86872E-03     53.7038E-03     53.5903E-03    -26.7308E-03    -26.8601E-03    -26.6622E-03     53.5217E-03    -26.8601E-03     4.65910E-03     58.5008E-03     169.234E+06    -5.58907E+06    -11.8872E+06    -177.869E+06    -11.8948E+06    -177.862E+06    -5.58907E+06    -309.265E+03
             338     53.8396E-03     3.89523E-03     53.6985E-03     53.6658E-03    -26.7892E-03    -26.8771E-03    -26.7530E-03     53.6257E-03    -26.8733E-03     3.53852E-03     56.9888E-03     167.925E+06    -7.76596E+06    -13.2797E+06    -178.351E+06    -13.1901E+06    -178.344E+06    -7.86259E+06    -527.902E+03
             339     53.7746E-03     2.92080E-03     53.6952E-03     53.7103E-03    -26.8265E-03    -26.8834E-03    -26.8181E-03     53.6878E-03    -26.8693E-03     2.66211E-03     55.7777E-03     165.667E+06    -11.4043E+06    -15.3856E+06    -179.001E+06    -15.3009E+06    -178.989E+06    -11.5009E+06    -525.234E+03
             340     53.7271E-03     1.94786E-03     53.6918E-03     53.7338E-03    -26.7768E-03    -26.9558E-03    -26.8748E-03     53.7210E-03    -26.8449E-03     1.99851E-03     55.0902E-03     164.378E+06    -13.0403E+06    -17.6486E+06    -179.639E+06    -17.4602E+06    -179.593E+06    -13.2743E+06    -1.23375E+06
             341     53.6990E-03     973.727E-06     53.6902E-03     53.5892E-03    -26.6651E-03    -26.9246E-03    -26.7579E-03     53.5813E-03    -26.8239E-03     1.57494E-03     54.8829E-03     160.974E+06    -13.4344E+06    -18.3144E+06    -176.764E+06    -17.1861E+06    -176.709E+06    -14.6173E+06    -1.92321E+06
             342     55.4889E-03     16.5636E-03     52.9591E-03     64.0223E-03    -25.8235E-03    -38.1952E-03    -25.4155E-03     51.9886E-03    -26.5694E-03     55.5168E-03     226.563E-03     184.860E+06     203.236E+06     90.5145E+06    -6.77991E+06    -6.76444E+06     203.221E+06     90.5145E+06    -591.338E+03
             343     55.1079E-03     15.5843E-03     52.8584E-03     68.1803E-03    -26.2573E-03    -41.9243E-03    -26.0569E-03     52.3129E-03    -26.2573E-03     75.6203E-03     219.062E-03     179.594E+06     177.855E+06     19.3555E+06    -14.3796E+06    -12.2240E+06     177.822E+06     17.2324E+06    -617.229E+03
             344     54.7862E-03     14.6115E-03     52.8019E-03     57.2652E-03    -26.1525E-03    -31.1117E-03    -25.7705E-03     51.9240E-03    -26.1525E-03     40.6195E-03     148.341E-03     151.758E+06     137.418E+06    -11.0574E+06    -17.3639E+06    -12.6202E+06     137.395E+06    -15.7786E+06    -179.796E+03
             345     54.5070E-03     13.6365E-03     52.7737E-03     54.3214E-03    -26.2405E-03    -28.0853E-03    -25.8651E-03     52.1011E-03    -26.2405E-03     26.6383E-03     116.668E-03     87.0832E+06     72.2200E+06    -8.74798E+06    -19.3731E+06    -10.3122E+06     72.1989E+06    -17.7877E+06     461.412E+03
             346     54.2433E-03     12.6623E-03     52.7446E-03     53.9548E-03    -26.3427E-03    -27.6488E-03    -26.2043E-03     52.5104E-03    -26.3427E-03     21.1443E-03     100.560E-03     31.1936E+06     10.1205E+06    -12.4085E+06    -24.5039E+06    -9.65309E+06     1.71131E+06    -18.8501E+06     1.36356E+06
             347     54.0071E-03     11.6883E-03     52.7272E-03     53.3588E-03    -26.4369E-03    -26.9705E-03    -26.1731E-03     52.5615E-03    -26.4369E-03     15.8865E-03     88.9174E-03     34.1678E+06    -9.14628E+06    -15.2703E+06    -45.6957E+06    -9.26559E+06    -45.5764E+06    -15.2703E+06     1.23814E+06
             348     53.7876E-03     10.7138E-03     52.7098E-03     53.3573E-03    -26.5306E-03    -26.8571E-03    -26.2698E-03     52.7700E-03    -26.5306E-03     13.6263E-03     81.2548E-03     73.0534E+06    -5.98216E+06    -12.3074E+06    -81.9383E+06    -9.04913E+06    -81.9142E+06    -9.26453E+06     448.658E+03
             349     53.5894E-03     9.73954E-03     52.6969E-03     53.5008E-03    -26.6025E-03    -26.9145E-03    -26.4786E-03     53.0649E-03    -26.6025E-03     11.7778E-03     75.1347E-03     100.423E+06    -3.54876E+06    -9.97778E+06    -107.004E+06    -10.0137E+06    -106.968E+06    -3.54876E+06    -68.6894E+03
             350     53.4080E-03     8.76556E-03     52.6838E-03     53.4309E-03    -26.6233E-03    -26.8034E-03    -26.4486E-03     53.0891E-03    -26.6363E-03     10.4276E-03     69.9524E-03     116.776E+06    -4.32243E+06    -11.6249E+06    -124.574E+06    -11.6936E+06    -124.505E+06    -4.32243E+06    -1.48221E+06
             351     53.2464E-03     7.79147E-03     52.6733E-03     53.4459E-03    -26.6724E-03    -26.7650E-03    -26.4968E-03     53.1907E-03    -26.6854E-03     8.99117E-03     66.0445E-03     136.322E+06    -2.38512E+06    -11.5858E+06    -143.073E+06    -11.6352E+06    -143.024E+06    -2.38512E+06    -1.76010E+06
             352     53.1030E-03     6.81705E-03     52.6636E-03     53.5699E-03    -26.7245E-03    -26.8451E-03    -26.6701E-03     53.3949E-03    -26.7245E-03     7.44986E-03     62.9844E-03     156.664E+06    -433.663E+03    -10.5780E+06    -161.915E+06    -10.5896E+06    -161.904E+06    -433.663E+03    -98.9697E+03
             353     52.9795E-03     5.84377E-03     52.6562E-03     53.5469E-03    -26.6986E-03    -26.8474E-03    -26.7092E-03     53.4304E-03    -26.7201E-03     6.06863E-03     60.4782E-03     166.851E+06    -3.74151E+06    -10.8488E+06    -174.011E+06    -10.8529E+06    -174.006E+06    -3.74151E+06     268.440E+03
             354     52.8744E-03     4.86996E-03     52.6497E-03     53.4212E-03    -26.6465E-03    -26.7750E-03    -26.6454E-03     53.3500E-03    -26.7048E-03     4.72092E-03     58.3492E-03     167.279E+06    -7.31894E+06    -12.2525E+06    -176.994E+06    -12.2543E+06    -176.992E+06    -7.31894E+06    -213.737E+03
             355     52.7886E-03     3.89550E-03     52.6447E-03     53.3841E-03    -26.6630E-03    -26.7220E-03    -26.6455E-03     53.3443E-03    -26.6998E-03     3.51899E-03     56.7334E-03     166.609E+06    -9.30117E+06    -13.4540E+06    -177.922E+06    -13.3621E+06    -177.918E+06    -9.39780E+06    -99.9899E+03
             356     52.7218E-03     2.92223E-03     52.6408E-03     53.3614E-03    -26.6472E-03    -26.7137E-03    -26.6462E-03     53.3392E-03    -26.6926E-03     2.62560E-03     55.4434E-03     165.076E+06    -12.0001E+06    -14.8483E+06    -178.467E+06    -14.7437E+06    -178.459E+06    -12.1124E+06    -121.043E+03
             357     52.6739E-03     1.94763E-03     52.6379E-03     53.2986E-03    -26.5783E-03    -26.7200E-03    -26.5754E-03     53.2854E-03    -26.7097E-03     2.03968E-03     54.6232E-03     163.214E+06    -13.9573E+06    -16.7994E+06    -178.561E+06    -16.5890E+06    -178.522E+06    -14.2070E+06    -994.267E+03
             358     52.6452E-03     973.694E-06     52.6362E-03     53.4066E-03    -26.5716E-03    -26.8349E-03    -26.7068E-03     53.3989E-03    -26.6919E-03     1.46817E-03     54.5867E-03     160.251E+06    -17.2473E+06    -20.9539E+06    -179.313E+06    -19.5471E+06    -179.259E+06    -18.7079E+06    -1.93759E+06
             359     54.4870E-03     16.5600E-03     51.9095E-03     63.8592E-03    -25.6773E-03    -38.1798E-03    -25.1919E-03     51.7349E-03    -26.5409E-03     55.3761E-03     226.395E-03     184.784E+06     203.575E+06     89.5318E+06    -6.23343E+06    -6.22919E+06     203.571E+06     89.5318E+06     844.022E+03
             360     54.0964E-03     15.5869E-03     51.8022E-03     67.9096E-03    -26.2413E-03    -41.6659E-03    -25.9394E-03     52.1831E-03    -26.2413E-03     74.9060E-03     218.789E-03     179.286E+06     178.953E+06     20.3884E+06    -13.0925E+06    -10.2380E+06     178.937E+06     17.5501E+06    -551.579E+03
             361     53.7720E-03     14.6113E-03     51.7488E-03     57.2110E-03    -26.1337E-03    -31.0681E-03    -26.0270E-03     52.1700E-03    -26.1337E-03     39.5457E-03     148.386E-03     150.970E+06     137.141E+06    -9.97243E+06    -17.3622E+06    -11.9095E+06     137.125E+06    -15.4089E+06    -1.33820E+06
             362     53.4859E-03     13.6377E-03     51.7180E-03     54.5261E-03    -26.1947E-03    -28.3247E-03    -26.1513E-03     52.3527E-03    -26.1947E-03     26.4554E-03     117.084E-03     87.7673E+06     71.3478E+06    -10.0231E+06    -21.1733E+06    -11.9579E+06     71.3293E+06    -19.2200E+06     25.1734E+03
             363     53.2203E-03     12.6636E-03     51.6917E-03     53.8696E-03    -26.2726E-03    -27.6221E-03    -26.1586E-03     52.4061E-03    -26.2726E-03     21.3063E-03     100.420E-03     32.5098E+06     10.3161E+06    -15.1523E+06    -25.9501E+06    -10.5796E+06     1.54436E+06    -21.7511E+06     885.142E+03
             364     52.9779E-03     11.6888E-03     51.6723E-03     53.3336E-03    -26.3737E-03    -27.0083E-03    -26.1947E-03     52.5200E-03    -26.3737E-03     16.0201E-03     88.9942E-03     33.6404E+06    -8.85292E+06    -15.5799E+06    -44.6456E+06    -8.90811E+06    -44.5904E+06    -15.5799E+06     1.24020E+06
             365     52.7566E-03     10.7145E-03     51.6572E-03     53.3799E-03    -26.4713E-03    -26.9432E-03    -26.3420E-03     52.7787E-03    -26.4713E-03     13.8158E-03     81.2452E-03     72.9868E+06    -5.59565E+06    -10.6151E+06    -80.9405E+06    -8.50421E+06    -80.9165E+06    -7.73053E+06     654.743E+03
             366     52.5523E-03     9.74047E-03     51.6418E-03     53.4401E-03    -26.5349E-03    -26.9196E-03    -26.4785E-03     52.9989E-03    -26.5349E-03     11.8156E-03     75.0677E-03     101.700E+06    -1.03571E+06    -7.86092E+06    -105.956E+06    -7.90626E+06    -105.911E+06    -1.03571E+06    -432.996E+03
             367     52.3697E-03     8.76662E-03     51.6307E-03     53.4017E-03    -26.5466E-03    -26.8507E-03    -26.5118E-03     53.0757E-03    -26.5596E-03     10.1970E-03     69.9112E-03     118.992E+06     195.321E+03    -7.08726E+06    -122.261E+06    -7.16775E+06    -122.180E+06     195.321E+03    -1.57947E+06
             368     52.2038E-03     7.79214E-03     51.6190E-03     53.3240E-03    -26.5765E-03    -26.7455E-03    -26.4838E-03     53.0752E-03    -26.5895E-03     8.86896E-03     65.8512E-03     139.610E+06    -1.23071E+06    -8.85141E+06    -144.482E+06    -8.90404E+06    -144.430E+06    -1.23071E+06    -2.17266E+06
             369     52.0584E-03     6.81866E-03     51.6099E-03     53.3039E-03    -26.6183E-03    -26.6914E-03    -26.5201E-03     53.1325E-03    -26.6183E-03     7.36006E-03     62.6444E-03     156.985E+06    -2.25141E+06    -11.2347E+06    -163.522E+06    -11.2498E+06    -163.507E+06    -2.25141E+06    -1.24312E+06
             370     51.9319E-03     5.84407E-03     51.6020E-03     53.3428E-03    -26.6184E-03    -26.7241E-03    -26.6034E-03     53.2221E-03    -26.6184E-03     6.18151E-03     60.1543E-03     164.909E+06    -4.61990E+06    -12.1638E+06    -173.157E+06    -12.1660E+06    -173.154E+06    -4.61990E+06    -217.096E+03
             371     51.8252E-03     4.87020E-03     51.5959E-03     53.3320E-03    -26.5897E-03    -26.7413E-03    -26.6625E-03     53.2532E-03    -26.5897E-03     4.97284E-03     58.1307E-03     166.340E+06    -7.92957E+06    -12.2520E+06    -176.383E+06    -12.2543E+06    -176.381E+06    -7.92957E+06     127.061E+03
             372     51.7379E-03     3.89666E-03     51.5910E-03     53.1903E-03    -26.5443E-03    -26.6454E-03    -26.5797E-03     53.1438E-03    -26.5635E-03     3.82040E-03     56.4570E-03     165.660E+06    -10.2941E+06    -13.7982E+06    -177.673E+06    -13.8033E+06    -177.668E+06    -10.2941E+06     582.565E+03
             373     51.6696E-03     2.92195E-03     51.5869E-03     53.0781E-03    -26.4865E-03    -26.5919E-03    -26.5018E-03     53.0526E-03    -26.5511E-03     2.79383E-03     55.1805E-03     164.022E+06    -11.8489E+06    -15.7464E+06    -177.767E+06    -15.7405E+06    -177.757E+06    -11.8646E+06     553.511E+03
             374     51.6215E-03     1.94820E-03     51.5847E-03     53.1013E-03    -26.4475E-03    -26.6538E-03    -26.5678E-03     53.0890E-03    -26.5212E-03     1.95142E-03     54.4714E-03     162.187E+06    -13.6749E+06    -18.1704E+06    -178.045E+06    -18.1650E+06    -178.035E+06    -13.6906E+06     168.928E+03
             375     51.5908E-03     974.125E-06     51.5816E-03     52.9140E-03    -26.2610E-03    -26.6521E-03    -26.4966E-03     52.9078E-03    -26.4103E-03     1.31350E-03     54.0882E-03     158.833E+06    -18.3709E+06    -24.1356E+06    -180.004E+06    -22.9704E+06    -179.943E+06    -19.5976E+06     606.499E+03
             376     53.4828E-03     16.5635E-03     50.8533E-03     64.3771E-03    -25.9287E-03    -38.4436E-03    -25.8959E-03     52.4131E-03    -26.5124E-03     55.0506E-03     225.990E-03     185.066E+06     203.638E+06     88.2116E+06    -5.93062E+06    -5.92272E+06     203.630E+06     88.2116E+06    -2.70784E+03
             377     53.0898E-03     15.5870E-03     50.7501E-03     68.0310E-03    -26.1982E-03    -41.8273E-03    -26.1976E-03     52.4013E-03    -26.1982E-03     74.9731E-03     218.375E-03     179.147E+06     180.321E+06     21.1865E+06    -11.7626E+06    -10.1153E+06     180.289E+06     19.5713E+06     318.041E+03
             378     52.7574E-03     14.6126E-03     50.6934E-03     56.8804E-03    -26.0969E-03    -30.7734E-03    -25.6773E-03     51.7842E-03    -26.0969E-03     39.6444E-03     148.246E-03     150.425E+06     137.505E+06    -8.06629E+06    -17.3024E+06    -12.7436E+06     137.479E+06    -12.5989E+06      634.74E+03
             379     52.4679E-03     13.6380E-03     50.6644E-03     54.2112E-03    -26.1680E-03    -28.0366E-03    -25.8182E-03     51.9929E-03    -26.1680E-03     26.6161E-03     116.886E-03     87.0490E+06     70.7140E+06    -11.0757E+06    -20.6123E+06    -13.0225E+06     70.7075E+06    -18.6590E+06     123.542E+03
             380     52.1969E-03     12.6632E-03     50.6375E-03     53.8595E-03    -26.2572E-03    -27.6368E-03    -26.1148E-03     52.3374E-03    -26.2572E-03     21.7742E-03     100.513E-03     31.7183E+06     9.56895E+06    -17.5637E+06    -25.1219E+06    -12.3891E+06     1.50192E+06    -22.2295E+06     42.1209E+03
             381     51.9511E-03     11.6892E-03     50.6189E-03     53.4809E-03    -26.3434E-03    -27.2003E-03    -26.3383E-03     52.6189E-03    -26.3434E-03     16.5044E-03     89.0385E-03     31.7558E+06    -11.1867E+06    -18.4654E+06    -44.8950E+06    -11.2255E+06    -44.8561E+06    -18.4654E+06     141.923E+03
             382     51.7247E-03     10.7153E-03     50.6026E-03     53.4607E-03    -26.4228E-03    -27.0764E-03    -26.4356E-03     52.8200E-03    -26.4228E-03     14.2911E-03     81.2743E-03     69.1392E+06    -7.39269E+06    -12.0002E+06    -78.6890E+06    -9.93027E+06    -78.6823E+06    -9.46929E+06     500.908E+03
             383     51.5180E-03     9.74115E-03     50.5887E-03     53.4337E-03    -26.4598E-03    -26.9880E-03    -26.4978E-03     52.9435E-03    -26.4598E-03     12.4480E-03     74.9474E-03     96.8802E+06    -5.00864E+06    -9.47557E+06    -103.998E+06    -9.54633E+06    -103.927E+06    -5.00864E+06    -1.70228E+06
             384     51.3303E-03     8.76686E-03     50.5761E-03     53.3929E-03    -26.4702E-03    -26.9297E-03    -26.5759E-03     53.0390E-03    -26.4702E-03     10.6183E-03     69.7787E-03     115.155E+06    -5.75350E+06    -9.44845E+06    -122.689E+06    -9.52310E+06    -122.615E+06    -5.75350E+06    -2.38412E+06
             385     51.1627E-03     7.79355E-03     50.5657E-03     53.2681E-03    -26.4937E-03    -26.7822E-03    -26.5112E-03     52.9971E-03    -26.4937E-03     9.26178E-03     65.7246E-03     137.233E+06    -5.61765E+06    -8.95850E+06    -144.477E+06    -8.96905E+06    -144.466E+06    -5.61765E+06    -877.109E+03
             386     51.0140E-03     6.81855E-03     50.5563E-03     53.1605E-03    -26.5191E-03    -26.6491E-03    -26.4563E-03     52.9677E-03    -26.5191E-03     7.80483E-03     62.4445E-03     156.103E+06    -5.82847E+06    -10.4035E+06    -164.153E+06    -10.4103E+06    -164.146E+06    -5.82847E+06    -662.067E+03
             387     50.8854E-03     5.84480E-03     50.5486E-03     53.1418E-03    -26.5329E-03    -26.6114E-03    -26.4835E-03     53.0139E-03    -26.5329E-03     6.33032E-03     59.9210E-03     164.142E+06    -6.61601E+06    -12.9702E+06    -173.840E+06    -12.9735E+06    -173.837E+06    -6.61601E+06    -113.412E+03
             388     50.7762E-03     4.87056E-03     50.5420E-03     53.1260E-03    -26.5209E-03    -26.6043E-03    -26.5224E-03     53.0441E-03    -26.5209E-03     5.08795E-03     57.9122E-03     164.728E+06    -8.85426E+06    -14.9052E+06    -176.521E+06    -14.9080E+06    -176.518E+06    -8.85426E+06     419.847E+03
             389     50.6871E-03     3.89633E-03     50.5372E-03     53.1243E-03    -26.4718E-03    -26.6514E-03    -26.5838E-03     53.0759E-03    -26.4910E-03     3.83127E-03     56.3750E-03     164.207E+06    -10.6736E+06    -15.7374E+06    -177.347E+06    -15.7402E+06    -177.344E+06    -10.6736E+06     587.747E+03
             390     50.6184E-03     2.92265E-03     50.5339E-03     53.0246E-03    -26.4225E-03    -26.6024E-03    -26.5586E-03     53.0000E-03    -26.4417E-03     2.76790E-03     55.1278E-03     162.837E+06    -10.9074E+06    -16.4564E+06    -176.439E+06    -16.4620E+06    -176.434E+06    -10.9074E+06     858.576E+03
             391     50.5678E-03     1.94850E-03     50.5302E-03     52.8523E-03    -26.3233E-03    -26.5296E-03    -26.4722E-03     52.8380E-03    -26.3665E-03     2.06163E-03     54.2428E-03     161.141E+06    -12.4034E+06    -19.7720E+06    -177.089E+06    -19.7821E+06    -177.079E+06    -12.4034E+06     742.013E+03
             392     50.5385E-03     974.888E-06     50.5291E-03     52.5471E-03    -26.1307E-03    -26.4160E-03    -26.2221E-03     52.5398E-03    -26.3172E-03     1.52288E-03     53.8739E-03     157.873E+06    -17.3356E+06    -25.6871E+06    -179.208E+06    -23.4979E+06    -179.158E+06    -19.5745E+06     1.25110E+06
             393     52.4817E-03     16.5614E-03     49.8001E-03     64.6154E-03    -25.9857E-03    -38.6241E-03    -26.0340E-03     52.5589E-03    -26.5193E-03     55.7183E-03     226.549E-03     185.125E+06     203.150E+06     89.0117E+06    -6.58514E+06    -6.55938E+06     203.124E+06     89.0117E+06     139.591E+03
             394     52.0821E-03     15.5885E-03     49.6945E-03     68.3854E-03    -26.2024E-03    -42.1770E-03    -26.2550E-03     52.4634E-03    -26.2024E-03     76.0161E-03     218.589E-03     178.800E+06     180.415E+06     21.6847E+06    -10.9895E+06    -10.3549E+06     180.358E+06     21.1075E+06     748.989E+03
             395     51.7472E-03     14.6136E-03     49.6408E-03     57.1316E-03    -26.0798E-03    -31.0459E-03    -25.5818E-03     51.6674E-03    -26.0798E-03     41.1880E-03     148.325E-03     150.860E+06     138.329E+06    -6.88392E+06    -17.4084E+06    -9.59921E+06     138.294E+06    -14.6581E+06     231.407E+03
             396     51.4507E-03     13.6378E-03     49.6103E-03     54.3278E-03    -26.1502E-03    -28.1750E-03    -25.8151E-03     51.9680E-03    -26.1502E-03     27.4221E-03     116.790E-03     86.5770E+06     70.0935E+06    -7.97262E+06    -22.3183E+06    -7.95059E+06     70.0714E+06    -22.3183E+06     498.624E+03
             397     51.1754E-03     12.6633E-03     49.5839E-03     53.9254E-03    -26.2703E-03    -27.6965E-03    -26.1493E-03     52.3782E-03    -26.2703E-03     21.9965E-03     100.641E-03     31.9484E+06     11.7463E+06    -13.4839E+06    -23.9014E+06    -7.20275E+06     2.19638E+06    -20.6326E+06     882.961E+03
             398     50.9241E-03     11.6891E-03     49.5644E-03     53.5529E-03    -26.3509E-03    -27.2711E-03    -26.3631E-03     52.6449E-03    -26.3509E-03     16.9623E-03     89.0615E-03     34.2922E+06    -7.74169E+06    -18.5092E+06    -45.0549E+06    -7.83750E+06    -44.9591E+06    -18.5092E+06     385.110E+03
             399     50.6945E-03     10.7149E-03     49.5492E-03     53.6203E-03    -26.4033E-03    -27.2514E-03    -26.5731E-03     52.9421E-03    -26.4033E-03     14.7319E-03     81.4352E-03     67.1561E+06    -7.51226E+06    -12.2990E+06    -76.7286E+06    -7.89629E+06    -76.7184E+06    -11.9252E+06    -333.071E+03
             400     50.4829E-03     9.74084E-03     49.5343E-03     53.5455E-03    -26.4409E-03    -27.1194E-03    -26.6127E-03     53.0388E-03    -26.4409E-03     12.6746E-03     75.0183E-03     94.8716E+06    -5.92083E+06    -8.42442E+06    -101.989E+06    -8.48487E+06    -101.928E+06    -5.92083E+06    -850.544E+03
             401     50.2926E-03     8.76733E-03     49.5226E-03     53.3201E-03    -26.4540E-03    -26.8754E-03    -26.5052E-03     52.9499E-03    -26.4540E-03     10.8622E-03     69.6994E-03     114.234E+06    -8.39392E+06    -11.0440E+06    -123.896E+06    -11.0906E+06    -123.838E+06    -8.40564E+06    -1.05469E+06
             402     50.1212E-03     7.79261E-03     49.5117E-03     53.3116E-03    -26.4684E-03    -26.8479E-03    -26.5575E-03     53.0212E-03    -26.4684E-03     9.59526E-03     65.8157E-03     133.242E+06    -9.71601E+06    -13.3263E+06    -144.662E+06    -13.3248E+06    -144.652E+06    -9.72774E+06    -908.626E+03
             403     49.9705E-03     6.81933E-03     49.5030E-03     53.3014E-03    -26.4915E-03    -26.8172E-03    -26.6146E-03     53.0988E-03    -26.4915E-03     8.01344E-03     62.6102E-03     154.686E+06    -6.12464E+06    -13.5380E+06    -164.319E+06    -13.5426E+06    -164.314E+06    -6.12464E+06     1.55252E+03
             404     49.8386E-03     5.84497E-03     49.4947E-03     53.1311E-03    -26.4864E-03    -26.6479E-03    -26.5154E-03     52.9986E-03    -26.4864E-03     6.44692E-03     59.9584E-03     164.124E+06    -5.66751E+06    -13.8250E+06    -173.702E+06    -13.8299E+06    -173.697E+06    -5.66751E+06     239.668E+03
             405     49.7282E-03     4.87085E-03     49.4891E-03     53.0076E-03    -26.4688E-03    -26.5395E-03    -26.4564E-03     52.9245E-03    -26.4688E-03     5.11208E-03     57.8765E-03     164.839E+06    -7.65505E+06    -15.5259E+06    -176.286E+06    -15.5290E+06    -176.283E+06    -7.65505E+06     69.2365E+03
             406     49.6365E-03     3.89676E-03     49.4833E-03     52.9886E-03    -26.4252E-03    -26.5635E-03    -26.4962E-03     52.9393E-03    -26.4432E-03     3.87395E-03     56.2642E-03     164.319E+06    -9.39065E+06    -16.7894E+06    -177.281E+06    -16.7937E+06    -177.276E+06    -9.39065E+06    -156.971E+03
             407     49.5664E-03     2.92288E-03     49.4802E-03     52.9123E-03    -26.3709E-03    -26.5416E-03    -26.4956E-03     52.8842E-03    -26.3889E-03     2.95579E-03     55.0087E-03     161.683E+06    -11.5294E+06    -17.7398E+06    -176.227E+06    -17.7487E+06    -176.218E+06    -11.5294E+06     299.649E+03
             408     49.5157E-03     1.94876E-03     49.4773E-03     52.6900E-03    -26.2935E-03    -26.3973E-03    -26.3383E-03     52.6741E-03    -26.3366E-03     2.16852E-03     54.0686E-03     160.332E+06    -13.3147E+06    -19.4671E+06    -176.609E+06    -18.9738E+06    -176.599E+06    -13.8176E+06     913.203E+03
             409     49.4854E-03     973.626E-06     49.4758E-03     52.5687E-03    -26.2112E-03    -26.3577E-03    -26.2852E-03     52.5618E-03    -26.2767E-03     1.46924E-03     53.8854E-03     156.846E+06    -15.4767E+06    -23.4790E+06    -176.139E+06    -20.7437E+06    -176.132E+06    -18.2185E+06     192.181E+03
             410     51.4801E-03     16.5620E-03     48.7432E-03     64.0209E-03    -25.7907E-03    -38.2281E-03    -25.6262E-03     52.1651E-03    -26.5369E-03     55.6563E-03     226.897E-03     185.189E+06     203.374E+06     89.5332E+06    -6.75673E+06    -6.72785E+06     203.345E+06     89.5332E+06     452.632E+03
             411     51.0777E-03     15.5860E-03     48.6417E-03     67.8795E-03    -26.2411E-03    -41.6340E-03    -26.0359E-03     52.2814E-03    -26.2411E-03     74.9620E-03     218.816E-03     179.014E+06     181.357E+06     23.1767E+06    -10.5483E+06    -9.93042E+06     181.316E+06     22.5995E+06     283.588E+03
             412     50.7355E-03     14.6103E-03     48.5863E-03     57.1435E-03    -26.1173E-03    -31.0243E-03    -25.6079E-03     51.7271E-03    -26.1173E-03     41.0219E-03     148.124E-03     152.915E+06     138.913E+06    -8.62598E+06    -18.6776E+06    -11.3657E+06     138.893E+06    -15.9175E+06    -454.774E+03
             413     50.4350E-03     13.6373E-03     48.5562E-03     54.5870E-03    -26.1701E-03    -28.4173E-03    -26.0467E-03     52.2164E-03    -26.1701E-03     27.5682E-03     117.140E-03     90.1457E+06     69.6700E+06    -11.7234E+06    -26.4314E+06    -11.6784E+06     69.6251E+06    -26.4314E+06    -519.546E+03
             414     50.1547E-03     12.6631E-03     48.5298E-03     54.0494E-03    -26.2842E-03    -27.7997E-03    -26.2521E-03     52.5018E-03    -26.2842E-03     22.0246E-03     100.858E-03     33.2674E+06     10.8236E+06    -14.3850E+06    -26.5077E+06    -9.20735E+06     1.51701E+06    -22.3788E+06     733.880E+03
             415     49.8991E-03     11.6885E-03     48.5108E-03     53.5908E-03    -26.3717E-03    -27.2789E-03    -26.3780E-03     52.6899E-03    -26.3717E-03     16.8994E-03     89.1437E-03     33.7851E+06    -6.50998E+06    -16.3609E+06    -43.4410E+06    -6.60608E+06    -43.3449E+06    -16.3609E+06     750.249E+03
             416     49.6641E-03     10.7146E-03     48.4945E-03     53.6644E-03    -26.4279E-03    -27.2663E-03    -26.5987E-03     52.9968E-03    -26.4279E-03     14.6204E-03     81.5342E-03     67.8489E+06    -5.71334E+06    -11.4369E+06    -76.0554E+06    -6.84521E+06    -76.0239E+06    -10.3365E+06     24.0045E+03
             417     49.4492E-03     9.74128E-03     48.4802E-03     53.5538E-03    -26.4858E-03    -27.0775E-03    -26.5762E-03     53.0524E-03    -26.4858E-03     12.6163E-03     75.1100E-03     97.5268E+06    -2.13561E+06    -8.38407E+06    -102.578E+06    -8.43343E+06    -102.528E+06    -2.13561E+06     1.23566E+06
             418     49.2553E-03     8.76667E-03     48.4689E-03     53.4282E-03    -26.5015E-03    -26.9277E-03    -26.5564E-03     53.0570E-03    -26.5015E-03     10.8856E-03     69.9027E-03     116.202E+06    -2.58298E+06    -10.3441E+06    -122.392E+06    -10.3671E+06    -122.357E+06    -2.59471E+06     1.34801E+06
             419     49.0807E-03     7.79302E-03     48.4581E-03     53.4538E-03    -26.5025E-03    -26.9520E-03    -26.6656E-03     53.1674E-03    -26.5025E-03     9.53987E-03     65.9910E-03     135.699E+06    -4.61943E+06    -12.7232E+06    -144.131E+06    -12.7279E+06    -144.115E+06    -4.63116E+06    -77.4464E+03
             420     48.9261E-03     6.81883E-03     48.4486E-03     53.3714E-03    -26.5089E-03    -26.8668E-03    -26.6674E-03     53.1720E-03    -26.5089E-03     7.95983E-03     62.6604E-03     155.893E+06    -2.96264E+06    -14.5869E+06    -164.338E+06    -14.6005E+06    -164.325E+06    -2.96264E+06    -696.451E+03
             421     48.7932E-03     5.84518E-03     48.4418E-03     53.2150E-03    -26.4755E-03    -26.7409E-03    -26.6028E-03     53.0769E-03    -26.4755E-03     6.60655E-03     59.9872E-03     162.875E+06    -5.49445E+06    -15.4470E+06    -173.104E+06    -15.4596E+06    -173.092E+06    -5.49445E+06    -658.633E+03
             422     48.6792E-03     4.87118E-03     48.4348E-03     53.0210E-03    -26.4334E-03    -26.5899E-03    -26.5002E-03     52.9313E-03    -26.4334E-03     5.29838E-03     57.8617E-03     164.082E+06    -8.49343E+06    -15.2888E+06    -175.852E+06    -15.2987E+06    -175.842E+06    -8.49343E+06    -843.459E+03
             423     48.5872E-03     3.89704E-03     48.4307E-03     52.8431E-03    -26.3926E-03    -26.4523E-03    -26.3800E-03     52.7888E-03    -26.4106E-03     4.11193E-03     56.1268E-03     163.841E+06    -10.4237E+06    -16.1553E+06    -177.040E+06    -16.1676E+06    -177.028E+06    -10.4237E+06    -747.247E+03
             424     48.5143E-03     2.92236E-03     48.4262E-03     52.7969E-03    -26.3707E-03    -26.4267E-03    -26.3802E-03     52.7683E-03    -26.3886E-03     2.91454E-03     54.8818E-03     161.442E+06    -12.9931E+06    -17.7394E+06    -176.748E+06    -17.7567E+06    -176.730E+06    -12.9931E+06    -434.388E+03
             425     48.4637E-03     1.94829E-03     48.4245E-03     52.7859E-03    -26.3330E-03    -26.4529E-03    -26.4404E-03     52.7734E-03    -26.3330E-03     1.94256E-03     54.1508E-03     160.090E+06    -14.5469E+06    -19.5398E+06    -177.049E+06    -19.0514E+06    -177.034E+06    -15.0498E+06    -472.713E+03
             426     48.4320E-03     974.933E-06     48.4222E-03     52.5271E-03    -26.1480E-03    -26.3791E-03    -26.3032E-03     52.5211E-03    -26.2179E-03     1.33361E-03     53.7642E-03     156.520E+06    -14.1427E+06    -22.3792E+06    -174.584E+06    -19.1039E+06    -174.582E+06    -17.4208E+06    -457.688E+03
             427     50.4833E-03     16.5615E-03     47.6894E-03     63.8867E-03    -25.8362E-03    -38.0484E-03    -25.3109E-03     51.8333E-03    -26.5203E-03     54.9941E-03     226.109E-03     185.047E+06     203.057E+06     88.1616E+06    -6.73324E+06    -6.72258E+06     203.047E+06     88.1616E+06     291.165E+03
             428     50.0753E-03     15.5873E-03     47.5875E-03     67.7753E-03    -26.2427E-03    -41.5316E-03    -25.9360E-03     52.1797E-03    -26.2427E-03     74.4785E-03     219.173E-03     179.361E+06     181.384E+06     22.0615E+06    -10.6092E+06    -10.5939E+06     181.369E+06     22.0615E+06    -88.2722E+03
             429     49.7286E-03     14.6130E-03     47.5330E-03     56.9867E-03    -26.1281E-03    -30.8567E-03    -25.7540E-03     51.8840E-03    -26.1281E-03     39.9537E-03     148.229E-03     152.893E+06     140.227E+06    -8.12717E+06    -16.7349E+06    -11.3704E+06     140.205E+06    -13.4699E+06     583.307E+03
             430     49.4204E-03     13.6366E-03     47.5018E-03     54.2547E-03    -26.1879E-03    -28.0652E-03    -25.7863E-03     51.9758E-03    -26.1879E-03     26.9258E-03     116.997E-03     88.5751E+06     70.1265E+06    -11.6613E+06    -23.4704E+06    -11.6161E+06     70.0812E+06    -23.4704E+06    -23.0721E+03
             431     49.1353E-03     12.6626E-03     47.4757E-03     54.0277E-03    -26.3003E-03    -27.7613E-03    -26.2797E-03     52.5461E-03    -26.3003E-03     21.5440E-03     100.952E-03     29.7825E+06     7.56835E+06    -15.9038E+06    -25.6038E+06    -12.4827E+06     913.514E+03    -22.3701E+06    -593.504E+03
             432     48.8751E-03     11.6891E-03     47.4567E-03     53.6367E-03    -26.3785E-03    -27.3237E-03    -26.4379E-03     52.7510E-03    -26.3785E-03     16.7931E-03     89.1841E-03     29.5404E+06    -11.4235E+06    -16.7349E+06    -42.6556E+06    -11.5842E+06    -42.4949E+06    -16.7349E+06    -143.296E+03
             433     48.6353E-03     10.7149E-03     47.4403E-03     53.4961E-03    -26.4440E-03    -27.0875E-03    -26.4249E-03     52.8335E-03    -26.4440E-03     14.5189E-03     81.4091E-03     66.5930E+06    -7.97554E+06    -11.5840E+06    -76.2754E+06    -9.85176E+06    -76.2333E+06    -9.74995E+06     266.957E+03
             434     48.4163E-03     9.74008E-03     47.4265E-03     53.4674E-03    -26.5207E-03    -26.9482E-03    -26.4617E-03     52.9809E-03    -26.5207E-03     12.4149E-03     75.1104E-03     99.3751E+06    -614.798E+03    -9.06009E+06    -103.891E+06    -9.10735E+06    -103.844E+06    -614.798E+03     1.10347E+06
             435     48.2184E-03     8.76660E-03     47.4147E-03     53.5569E-03    -26.5422E-03    -27.0064E-03    -26.6306E-03     53.1811E-03    -26.5422E-03     10.9687E-03     70.0734E-03     116.759E+06     964.964E+03    -9.34765E+06    -120.559E+06    -9.37700E+06    -120.530E+06     964.964E+03     1.67423E+06
             436     48.0401E-03     7.79294E-03     47.4039E-03     53.5487E-03    -26.5287E-03    -27.0178E-03    -26.7238E-03     53.2547E-03    -26.5287E-03     9.66414E-03     66.0853E-03     136.078E+06    -2.38943E+06    -10.1115E+06    -142.146E+06    -10.1236E+06    -142.134E+06    -2.38943E+06     650.593E+03
             437     47.8834E-03     6.81901E-03     47.3954E-03     53.3690E-03    -26.5280E-03    -26.8461E-03    -26.6427E-03     53.1655E-03    -26.5280E-03     8.04313E-03     62.6360E-03     156.466E+06    -3.12625E+06    -11.6645E+06    -163.672E+06    -11.6745E+06    -163.662E+06    -3.12625E+06    -466.814E+03
             438     47.7465E-03     5.84489E-03     47.3874E-03     53.2545E-03    -26.5064E-03    -26.7519E-03    -26.6045E-03     53.1071E-03    -26.5064E-03     6.83416E-03     59.9917E-03     162.998E+06    -5.40940E+06    -13.8380E+06    -172.445E+06    -13.8596E+06    -172.423E+06    -5.40940E+06    -1.17576E+06
             439     47.6318E-03     4.87095E-03     47.3820E-03     53.1468E-03    -26.4565E-03    -26.6917E-03    -26.5960E-03     53.0511E-03    -26.4565E-03     5.46732E-03     57.9690E-03     163.531E+06    -9.88093E+06    -15.5284E+06    -176.151E+06    -15.5483E+06    -176.131E+06    -9.88093E+06    -1.29081E+06
             440     47.5367E-03     3.89667E-03     47.3768E-03     52.9593E-03    -26.4097E-03    -26.5499E-03    -26.4965E-03     52.9059E-03    -26.4097E-03     4.07468E-03     56.2320E-03     162.574E+06    -12.5031E+06    -16.4018E+06    -176.990E+06    -16.4196E+06    -176.972E+06    -12.5031E+06    -982.226E+03
             441     47.4637E-03     2.92294E-03     47.3736E-03     52.8116E-03    -26.3717E-03    -26.4412E-03    -26.4136E-03     52.7840E-03    -26.3717E-03     2.87913E-03     54.8599E-03     161.103E+06    -14.4989E+06    -17.3112E+06    -176.985E+06    -17.3323E+06    -176.964E+06    -14.4989E+06    -751.380E+03
             442     47.4106E-03     1.94867E-03     47.3705E-03     52.7141E-03    -26.2650E-03    -26.4504E-03    -26.3674E-03     52.7014E-03    -26.3353E-03     1.94681E-03     54.0347E-03     159.109E+06    -15.1079E+06    -19.0036E+06    -176.099E+06    -19.0170E+06    -176.085E+06    -15.1079E+06    -687.911E+03
             443     47.3795E-03     974.139E-06     47.3695E-03     52.5611E-03    -26.0828E-03    -26.4784E-03    -26.3316E-03     52.5544E-03    -26.2230E-03     1.40350E-03     53.8636E-03     156.180E+06    -15.9337E+06    -25.6424E+06    -176.696E+06    -22.8752E+06    -176.688E+06    -18.7090E+06    -1.04794E+06
             444     49.4940E-03     16.5637E-03     46.6401E-03     64.3678E-03    -25.7172E-03    -38.6503E-03    -25.2964E-03     51.7923E-03    -26.4956E-03     54.5167E-03     225.651E-03     184.384E+06     202.619E+06     86.4883E+06    -6.01553E+06    -6.00831E+06     202.612E+06     86.4883E+06     789.741E+03
             445     49.0717E-03     15.5855E-03     46.5309E-03     68.2255E-03    -26.2286E-03    -41.9958E-03    -25.8054E-03     52.0350E-03    -26.2286E-03     75.8008E-03     218.890E-03     179.134E+06     180.668E+06     20.5180E+06    -10.7911E+06    -10.7808E+06     180.658E+06     20.5180E+06     728.783E+03
             446     48.7221E-03     14.6120E-03     46.4794E-03     57.0654E-03    -26.1260E-03    -30.9345E-03    -25.8068E-03     51.9377E-03    -26.1260E-03     40.2511E-03     148.668E-03     154.058E+06     141.062E+06    -8.82907E+06    -16.7464E+06    -12.5285E+06     141.048E+06    -13.0321E+06     551.021E+03
             447     48.4092E-03     13.6381E-03     46.4484E-03     54.4421E-03    -26.1719E-03    -28.2660E-03    -25.8625E-03     52.0386E-03    -26.1719E-03     27.6727E-03     117.186E-03     90.7292E+06     71.5969E+06    -11.8594E+06    -24.1554E+06    -11.8391E+06     71.5766E+06    -24.1554E+06     952.920E+03
             448     48.1175E-03     12.6630E-03     46.4214E-03     53.9217E-03    -26.2830E-03    -27.6716E-03    -26.1660E-03     52.4162E-03    -26.2830E-03     21.6703E-03     100.747E-03     31.6319E+06     9.14062E+06    -15.6314E+06    -26.4606E+06    -10.9444E+06     1.71736E+06    -23.7243E+06     104.104E+03
             449     47.8520E-03     11.6886E-03     46.4025E-03     53.5189E-03    -26.3713E-03    -27.2164E-03    -26.3310E-03     52.6335E-03    -26.3713E-03     16.7619E-03     89.0849E-03     29.8487E+06    -11.0816E+06    -18.4709E+06    -42.9828E+06    -11.2317E+06    -42.8327E+06    -18.4709E+06    -259.022E+03
             450     47.6080E-03     10.7144E-03     46.3867E-03     53.4289E-03    -26.4339E-03    -27.0352E-03    -26.3752E-03     52.7688E-03    -26.4339E-03     14.4813E-03     81.2961E-03     64.2137E+06    -10.4872E+06    -14.2177E+06    -76.3879E+06    -11.2826E+06    -76.3601E+06    -13.4501E+06    -185.861E+03
             451     47.3845E-03     9.74082E-03     46.3725E-03     53.4364E-03    -26.5026E-03    -26.9368E-03    -26.4444E-03     52.9441E-03    -26.5026E-03     12.4906E-03     74.9636E-03     94.9439E+06    -6.29638E+06    -11.1405E+06    -103.493E+06    -10.8085E+06    -103.438E+06    -6.68327E+06    -652.871E+03
             452     47.1823E-03     8.76636E-03     46.3608E-03     53.4397E-03    -26.5418E-03    -26.8915E-03    -26.5120E-03     53.0601E-03    -26.5418E-03     10.9992E-03     69.8792E-03     114.302E+06    -4.21624E+06    -9.68825E+06    -121.078E+06    -9.73127E+06    -121.035E+06    -4.21624E+06    -62.6010E+03
             453     47.0003E-03     7.79208E-03     46.3499E-03     53.4534E-03    -26.5666E-03    -26.8859E-03    -26.5899E-03     53.1574E-03    -26.5666E-03     9.69160E-03     65.9673E-03     134.660E+06    -3.88746E+06    -9.67873E+06    -141.338E+06    -9.68875E+06    -141.328E+06    -3.88746E+06     888.448E+03
             454     46.8403E-03     6.81853E-03     46.3413E-03     53.4656E-03    -26.5881E-03    -26.8862E-03    -26.6767E-03     53.2561E-03    -26.5881E-03     8.16730E-03     62.7325E-03     154.985E+06    -2.46130E+06    -11.1125E+06    -161.573E+06    -11.1237E+06    -161.562E+06    -2.46130E+06     463.480E+03
             455     46.7014E-03     5.84437E-03     46.3343E-03     53.3858E-03    -26.5683E-03    -26.8234E-03    -26.6760E-03     53.2384E-03    -26.5683E-03     6.83540E-03     60.1317E-03     163.225E+06    -4.88646E+06    -12.7643E+06    -171.885E+06    -12.7792E+06    -171.870E+06    -4.88646E+06    -658.519E+03
             456     46.5829E-03     4.87041E-03     46.3276E-03     53.2806E-03    -26.5169E-03    -26.7638E-03    -26.6716E-03     53.1884E-03    -26.5169E-03     5.37049E-03     58.0793E-03     164.155E+06    -9.51551E+06    -14.5879E+06    -176.139E+06    -14.6018E+06    -176.125E+06    -9.51551E+06    -788.500E+03
             457     46.4873E-03     3.89699E-03     46.3237E-03     53.1139E-03    -26.4600E-03    -26.6532E-03    -26.5994E-03     53.0601E-03    -26.4600E-03     4.11528E-03     56.3480E-03     162.419E+06    -13.2512E+06    -16.6594E+06    -177.345E+06    -16.6722E+06    -177.332E+06    -13.2512E+06    -575.214E+03
             458     46.4119E-03     2.92252E-03     46.3198E-03     52.8880E-03    -26.3804E-03    -26.5077E-03    -26.4335E-03     52.8552E-03    -26.4218E-03     3.18924E-03     54.9369E-03     160.408E+06    -15.1006E+06    -17.8930E+06    -176.882E+06    -17.9105E+06    -176.864E+06    -15.1006E+06    -449.111E+03
             459     46.3587E-03     1.94846E-03     46.3177E-03     52.7685E-03    -26.3067E-03    -26.4625E-03    -26.3351E-03     52.7527E-03    -26.4183E-03     2.16016E-03     54.1029E-03     158.634E+06    -16.0316E+06    -18.7264E+06    -175.993E+06    -18.7375E+06    -175.982E+06    -16.0316E+06     96.4735E+03
             460     46.3264E-03     974.075E-06     46.3161E-03     52.7945E-03    -26.2234E-03    -26.5715E-03    -26.4089E-03     52.7861E-03    -26.3776E-03     1.62425E-03     54.1027E-03     155.292E+06    -18.2850E+06    -25.3150E+06    -176.915E+06    -23.4571E+06    -176.905E+06    -20.1533E+06     15.3671E+03
             461     48.5012E-03     16.5613E-03     45.5861E-03     64.5252E-03    -25.4929E-03    -39.0330E-03    -25.6808E-03     52.2008E-03    -26.5207E-03     55.3477E-03     226.261E-03     184.399E+06     202.944E+06     87.1755E+06    -5.89203E+06    -5.87568E+06     202.928E+06     87.1755E+06     1.02123E+06
             462     48.0756E-03     15.5882E-03     45.4783E-03     68.2238E-03    -26.2311E-03    -41.9906E-03    -26.0036E-03     52.2368E-03    -26.2311E-03     75.7703E-03     218.038E-03     179.491E+06     181.553E+06     22.1930E+06    -10.9675E+06    -9.36391E+06     181.530E+06     20.6129E+06     2.06807E+06
             463     47.7170E-03     14.6112E-03     45.4250E-03     56.8333E-03    -26.1317E-03    -30.6920E-03    -25.4686E-03     51.6099E-03    -26.1317E-03     40.2924E-03     148.248E-03     154.032E+06     140.937E+06    -8.39471E+06    -17.3461E+06    -11.5932E+06     140.926E+06    -14.1367E+06     1.06993E+06
             464     47.3980E-03     13.6365E-03     45.3940E-03     54.7047E-03    -26.1890E-03    -28.5043E-03    -26.1158E-03     52.3163E-03    -26.1890E-03     27.6914E-03     117.641E-03     90.9972E+06     72.2062E+06    -12.3316E+06    -23.5231E+06    -12.3228E+06     72.1974E+06    -23.5231E+06     353.029E+03
             465     47.1018E-03     12.6631E-03     45.3677E-03     53.9617E-03    -26.2866E-03    -27.7054E-03    -26.1703E-03     52.4266E-03    -26.2866E-03     21.9140E-03     100.739E-03     32.3521E+06     10.1557E+06    -16.6313E+06    -25.6958E+06    -11.1203E+06     2.60967E+06    -23.6608E+06     414.628E+03
             466     46.8307E-03     11.6887E-03     45.3486E-03     53.4539E-03    -26.3819E-03    -27.1326E-03    -26.2260E-03     52.5473E-03    -26.3819E-03     16.9316E-03     89.0657E-03     30.8322E+06    -9.41252E+06    -17.9974E+06    -42.3269E+06    -9.43203E+06    -42.3073E+06    -17.9974E+06     75.1120E+03
             467     46.5816E-03     10.7145E-03     45.3326E-03     53.4781E-03    -26.4570E-03    -27.0592E-03    -26.3959E-03     52.8149E-03    -26.4570E-03     14.5183E-03     81.3711E-03     65.8803E+06    -8.09581E+06    -12.1091E+06    -75.7923E+06    -8.67889E+06    -75.7707E+06    -11.5477E+06    -573.300E+03
             468     46.3536E-03     9.73988E-03     45.3188E-03     53.4547E-03    -26.5270E-03    -26.9400E-03    -26.4401E-03     52.9547E-03    -26.5270E-03     12.6030E-03     75.0082E-03     95.8529E+06    -4.82695E+06    -9.18486E+06    -102.719E+06    -8.85440E+06    -102.663E+06    -5.21384E+06    -759.667E+03
             469     46.1470E-03     8.76618E-03     45.3067E-03     53.3824E-03    -26.5699E-03    -26.8087E-03    -26.4267E-03     53.0005E-03    -26.5699E-03     11.0205E-03     69.8204E-03     114.725E+06    -4.52391E+06    -10.0569E+06    -121.852E+06    -10.1095E+06    -121.800E+06    -4.52391E+06    -839.644E+03
             470     45.9618E-03     7.79222E-03     45.2964E-03     53.3609E-03    -26.6119E-03    -26.7428E-03    -26.4520E-03     53.0701E-03    -26.6119E-03     9.60409E-03     65.8328E-03     135.020E+06    -4.28660E+06    -10.2136E+06    -142.160E+06    -10.2347E+06    -142.139E+06    -4.28660E+06     61.4203E+03
             471     45.7975E-03     6.81752E-03     45.2873E-03     53.4745E-03    -26.6580E-03    -26.8192E-03    -26.6123E-03     53.2676E-03    -26.6580E-03     8.10725E-03     62.7192E-03     154.495E+06    -1.47503E+06    -10.4921E+06    -160.267E+06    -10.5107E+06    -160.248E+06    -1.47503E+06     752.036E+03
             472     45.6557E-03     5.84433E-03     45.2801E-03     53.5368E-03    -26.6454E-03    -26.8960E-03    -26.7486E-03     53.3894E-03    -26.6454E-03     6.85678E-03     60.2876E-03     162.364E+06    -4.96392E+06    -12.8322E+06    -171.096E+06    -12.8428E+06    -171.086E+06    -4.96392E+06     401.814E+03
             473     45.5355E-03     4.87045E-03     45.2742E-03     53.3918E-03    -26.6001E-03    -26.7919E-03    -26.6946E-03     53.2945E-03    -26.6001E-03     5.52130E-03     58.1806E-03     163.986E+06    -10.1692E+06    -14.7304E+06    -176.385E+06    -14.7374E+06    -176.378E+06    -10.1692E+06     286.669E+03
             474     45.4369E-03     3.89590E-03     45.2695E-03     53.2348E-03    -26.5686E-03    -26.6661E-03    -26.6125E-03     53.1812E-03    -26.5686E-03     4.07762E-03     56.4825E-03     162.427E+06    -11.8581E+06    -16.2339E+06    -176.417E+06    -16.2424E+06    -176.409E+06    -11.8581E+06     355.995E+03
             475     45.3610E-03     2.92231E-03     45.2668E-03     53.0721E-03    -26.4833E-03    -26.5871E-03    -26.4860E-03     53.0425E-03    -26.5549E-03     3.02286E-03     55.1776E-03     160.635E+06    -13.6759E+06    -18.4499E+06    -176.635E+06    -18.4567E+06    -176.628E+06    -13.6759E+06    -41.4174E+03
             476     45.3059E-03     1.94785E-03     45.2640E-03     53.0482E-03    -26.4740E-03    -26.5721E-03    -26.4764E-03     53.0319E-03    -26.5534E-03     2.24943E-03     54.4411E-03     158.794E+06    -16.4398E+06    -20.9082E+06    -177.418E+06    -20.9173E+06    -177.409E+06    -16.4398E+06     281.986E+03
             477     45.2731E-03     974.248E-06     45.2626E-03     53.0494E-03    -26.4456E-03    -26.6033E-03    -26.5026E-03     53.0404E-03    -26.5374E-03     1.65378E-03     54.3676E-03     153.510E+06    -18.3462E+06    -23.0534E+06    -174.146E+06    -20.5165E+06    -174.139E+06    -20.8897E+06     545.412E+03
             478     47.5057E-03     16.5603E-03     44.5258E-03     63.9620E-03    -25.7271E-03    -38.2323E-03    -25.6736E-03     52.2226E-03    -26.5464E-03     55.4247E-03     226.079E-03     184.350E+06     202.183E+06     86.8411E+06    -6.79931E+06    -6.77944E+06     202.163E+06     86.8411E+06     554.074E+03
             479     47.0814E-03     15.5866E-03     44.4265E-03     67.9796E-03    -26.2550E-03    -41.7215E-03    -26.2050E-03     52.4631E-03    -26.2550E-03     74.9409E-03     217.991E-03     179.828E+06     182.001E+06     23.5771E+06    -11.6478E+06    -10.0250E+06     181.958E+06     21.9970E+06     1.69515E+06
             480     46.7149E-03     14.6116E-03     44.3710E-03     57.2343E-03    -26.1386E-03    -31.0842E-03    -25.6622E-03     51.8123E-03    -26.1386E-03     41.0586E-03     147.806E-03     155.120E+06     142.554E+06    -6.73402E+06    -17.7259E+06    -11.2533E+06     142.524E+06    -13.1766E+06     1.79336E+06
             481     46.3894E-03     13.6374E-03     44.3396E-03     54.3883E-03    -26.1959E-03    -28.1807E-03    -25.8639E-03     52.0715E-03    -26.1959E-03     27.1929E-03     117.033E-03     90.9778E+06     72.8439E+06    -10.2649E+06    -23.4124E+06    -10.2601E+06     72.8391E+06    -23.4124E+06     241.223E+03
             482     46.0873E-03     12.6625E-03     44.3137E-03     53.8488E-03    -26.3084E-03    -27.5742E-03    -26.0391E-03     52.3137E-03    -26.3084E-03     21.9201E-03     100.677E-03     31.5512E+06     9.94215E+06    -15.7859E+06    -25.0237E+06    -9.42900E+06     2.63250E+06    -24.0710E+06     168.973E+03
             483     45.8109E-03     11.6882E-03     44.2948E-03     53.5120E-03    -26.4087E-03    -27.1721E-03    -26.2244E-03     52.5643E-03    -26.4087E-03     17.3289E-03     89.0098E-03     30.3965E+06    -8.75833E+06    -18.9456E+06    -41.1676E+06    -8.76993E+06    -41.1560E+06    -18.9456E+06     26.2901E+03
             484     45.5563E-03     10.7139E-03     44.2785E-03     53.5502E-03    -26.4945E-03    -27.1027E-03    -26.4053E-03     52.8527E-03    -26.4945E-03     14.8904E-03     81.4127E-03     65.6203E+06    -7.36263E+06    -11.9645E+06    -74.9517E+06    -7.94207E+06    -74.9337E+06    -11.4031E+06    -758.830E+03
             485     45.3239E-03     9.74041E-03     44.2649E-03     53.5247E-03    -26.5699E-03    -26.9783E-03    -26.4676E-03     53.0141E-03    -26.5699E-03     12.7275E-03     75.0557E-03     96.2394E+06    -4.59289E+06    -8.97489E+06    -102.883E+06    -8.34099E+06    -102.853E+06    -5.25764E+06    -556.533E+03
             486     45.1128E-03     8.76575E-03     44.2529E-03     53.4181E-03    -26.6141E-03    -26.8053E-03    -26.4151E-03     53.0279E-03    -26.6141E-03     11.1518E-03     69.8379E-03     115.387E+06    -3.70260E+06    -9.09150E+06    -121.624E+06    -8.67815E+06    -121.588E+06    -4.15127E+06    -139.547E+03
             487     44.9233E-03     7.79146E-03     44.2425E-03     53.4546E-03    -26.6516E-03    -26.7909E-03    -26.4901E-03     53.1537E-03    -26.6516E-03     9.76162E-03     65.8715E-03     134.904E+06    -5.44087E+06    -10.1687E+06    -142.638E+06    -10.1889E+06    -142.618E+06    -5.44087E+06     21.3448E+03
             488     44.7559E-03     6.81793E-03     44.2335E-03     53.4469E-03    -26.6659E-03    -26.7779E-03    -26.5321E-03     53.2349E-03    -26.6997E-03     8.21153E-03     62.6781E-03     152.614E+06    -5.15780E+06    -11.7775E+06    -160.972E+06    -11.7873E+06    -160.963E+06    -5.15780E+06     680.202E+03
             489     44.6103E-03     5.84307E-03     44.2260E-03     53.5050E-03    -26.6937E-03    -26.8116E-03    -26.6287E-03     53.3559E-03    -26.7275E-03     6.86046E-03     60.2851E-03     161.332E+06    -5.18079E+06    -12.5067E+06    -170.049E+06    -12.5184E+06    -170.037E+06    -5.18079E+06     900.572E+03
             490     44.4875E-03     4.86938E-03     44.2202E-03     53.5599E-03    -26.7154E-03    -26.8436E-03    -26.7508E-03     53.4671E-03    -26.7154E-03     5.39714E-03     58.3619E-03     164.329E+06    -8.52015E+06    -14.2969E+06    -175.654E+06    -14.3052E+06    -175.645E+06    -8.52015E+06     835.536E+03
             491     44.3872E-03     3.89606E-03     44.2159E-03     53.4560E-03    -26.6890E-03    -26.7671E-03    -26.7160E-03     53.4049E-03    -26.6890E-03     3.98404E-03     56.7200E-03     163.027E+06    -10.4612E+06    -15.6797E+06    -176.029E+06    -15.6890E+06    -176.019E+06    -10.4612E+06     814.386E+03
             492     44.3092E-03     2.92174E-03     44.2128E-03     53.3496E-03    -26.6410E-03    -26.7090E-03    -26.6538E-03     53.3246E-03    -26.6712E-03     2.76450E-03     55.4428E-03     161.613E+06    -11.0894E+06    -17.6276E+06    -175.866E+06    -17.6379E+06    -175.855E+06    -11.0894E+06     970.266E+03
             493     44.2536E-03     1.94804E-03     44.2107E-03     53.2369E-03    -26.5575E-03    -26.6779E-03    -26.5582E-03     53.2214E-03    -26.6617E-03     2.21350E-03     54.5673E-03     159.048E+06    -14.3286E+06    -20.9408E+06    -176.575E+06    -20.9507E+06    -176.565E+06    -14.3286E+06     383.736E+03
             494     44.2189E-03     973.727E-06     44.2082E-03     53.2393E-03    -26.5201E-03    -26.7182E-03    -26.6335E-03     53.2286E-03    -26.5941E-03     1.78509E-03     54.5237E-03     151.822E+06    -19.9326E+06    -25.9988E+06    -174.684E+06    -25.3346E+06    -174.673E+06    -20.6078E+06     12.8286E+03
             495     46.5222E-03     16.5629E-03     43.4740E-03     63.7471E-03    -25.9599E-03    -37.7857E-03    -25.2631E-03     51.7995E-03    -26.5350E-03     55.1187E-03     225.550E-03     183.431E+06     200.229E+06     84.4935E+06    -7.44287E+06    -7.42463E+06     200.211E+06     84.4935E+06     545.960E+03
             496     46.0869E-03     15.5853E-03     43.3716E-03     67.8499E-03    -26.2770E-03    -41.5749E-03    -25.8331E-03     52.1081E-03    -26.2770E-03     75.0604E-03     218.584E-03     179.472E+06     181.009E+06     21.2993E+06    -11.3323E+06    -11.2963E+06     180.973E+06     21.2993E+06     1.10629E+06
             497     45.7143E-03     14.6119E-03     43.3162E-03     57.5698E-03    -26.1735E-03    -31.3938E-03    -25.9340E-03     52.1099E-03    -26.1735E-03     41.4721E-03     148.527E-03     156.623E+06     145.914E+06    -5.53223E+06    -15.2576E+06    -10.3369E+06     145.893E+06    -10.4314E+06     982.102E+03
             498     45.3835E-03     13.6368E-03     43.2862E-03     54.3980E-03    -26.2097E-03    -28.1852E-03    -25.7968E-03     52.0096E-03    -26.2097E-03     27.5994E-03     116.709E-03     92.3076E+06     73.7206E+06    -8.99224E+06    -24.4003E+06    -8.98598E+06     73.7143E+06    -24.4003E+06     301.381E+03
             499     45.0749E-03     12.6620E-03     43.2599E-03     53.8226E-03    -26.3272E-03    -27.5311E-03    -25.9744E-03     52.2659E-03    -26.3272E-03     22.0367E-03     100.507E-03     32.2993E+06     9.90177E+06    -14.4329E+06    -26.5713E+06    -7.61202E+06     2.46307E+06    -25.9534E+06     416.352E+03
             500     44.7922E-03     11.6875E-03     43.2406E-03     53.5214E-03    -26.4344E-03    -27.1561E-03    -26.2292E-03     52.5945E-03    -26.4344E-03     17.1241E-03     88.9317E-03     31.4055E+06    -6.74684E+06    -19.3308E+06    -41.1670E+06    -6.76838E+06    -40.1338E+06    -20.3425E+06     325.435E+03
             501     44.5327E-03     10.7134E-03     43.2248E-03     53.5338E-03    -26.5313E-03    -27.0504E-03    -26.3717E-03     52.8552E-03    -26.5313E-03     14.6900E-03     81.3368E-03     65.2948E+06    -6.91054E+06    -13.7858E+06    -75.0899E+06    -7.83636E+06    -75.0598E+06    -12.8901E+06     738.898E+03
             502     44.2942E-03     9.73888E-03     43.2103E-03     53.5253E-03    -26.6186E-03    -26.9372E-03    -26.4358E-03     53.0239E-03    -26.6186E-03     12.5966E-03     75.0120E-03     94.2607E+06    -6.08197E+06    -10.4709E+06    -102.408E+06    -9.83452E+06    -102.380E+06    -6.74671E+06     449.736E+03
             503     44.0799E-03     8.76526E-03     43.1997E-03     53.4764E-03    -26.6650E-03    -26.8291E-03    -26.4467E-03     53.0940E-03    -26.6650E-03     11.0462E-03     69.8778E-03     112.282E+06    -6.75381E+06    -12.6407E+06    -121.798E+06    -12.2139E+06    -121.776E+06    -7.20247E+06     527.442E+03
             504     43.8852E-03     7.79121E-03     43.1881E-03     53.4601E-03    -26.6562E-03    -26.8039E-03    -26.4436E-03     53.1561E-03    -26.7124E-03     9.81860E-03     65.9082E-03     132.323E+06    -7.26107E+06    -13.5502E+06    -142.589E+06    -13.5606E+06    -142.579E+06    -7.26107E+06     1.04590E+06
             505     43.7147E-03     6.81686E-03     43.1799E-03     53.5683E-03    -26.6636E-03    -26.9027E-03    -26.5932E-03     53.3489E-03    -26.7537E-03     8.36282E-03     62.8494E-03     149.047E+06    -8.24753E+06    -14.2748E+06    -160.205E+06    -14.2774E+06    -160.202E+06    -8.24753E+06     294.794E+03
             506     43.5658E-03     5.84337E-03     43.1721E-03     53.6011E-03    -26.7151E-03    -26.8851E-03    -26.6724E-03     53.4544E-03    -26.7811E-03     6.79296E-03     60.3986E-03     158.706E+06    -8.33054E+06    -14.6245E+06    -170.080E+06    -14.6284E+06    -170.076E+06    -8.33054E+06     164.704E+03
             507     43.4396E-03     4.86928E-03     43.1659E-03     53.5660E-03    -26.7260E-03    -26.8401E-03    -26.6768E-03     53.4812E-03    -26.8044E-03     5.17399E-03     58.4270E-03     164.376E+06    -7.23026E+06    -14.7813E+06    -175.236E+06    -14.7866E+06    -175.231E+06    -7.23026E+06     552.625E+03
             508     43.3373E-03     3.89505E-03     43.1619E-03     53.6158E-03    -26.7508E-03    -26.8649E-03    -26.7692E-03     53.5664E-03    -26.7971E-03     3.93862E-03     56.9042E-03     162.949E+06    -9.49980E+06    -15.7241E+06    -175.454E+06    -15.7306E+06    -175.448E+06    -9.49980E+06     548.319E+03
             509     43.2574E-03     2.92171E-03     43.1586E-03     53.5925E-03    -26.7644E-03    -26.8291E-03    -26.7893E-03     53.5672E-03    -26.7790E-03     2.78576E-03     55.6873E-03     161.317E+06    -9.99946E+06    -16.6294E+06    -174.523E+06    -16.6464E+06    -174.506E+06    -9.99946E+06     191.509E+03
             510     43.2007E-03     1.94780E-03     43.1568E-03     53.4934E-03    -26.6700E-03    -26.8230E-03    -26.7270E-03     53.4781E-03    -26.7508E-03     2.20706E-03     54.8386E-03     159.958E+06    -11.6424E+06    -19.6088E+06    -175.434E+06    -19.6697E+06    -175.373E+06    -11.6424E+06     865.235E+03
             511     43.1656E-03     973.889E-06     43.1546E-03     53.3588E-03    -26.4680E-03    -26.8893E-03    -26.5881E-03     53.3460E-03    -26.7565E-03     2.00619E-03     54.5839E-03     153.277E+06    -18.3397E+06    -27.3818E+06    -175.930E+06    -24.5940E+06    -175.857E+06    -21.2001E+06     2.23850E+06
             512     45.5400E-03     16.5606E-03     42.4222E-03     63.7923E-03    -25.6751E-03    -38.1216E-03    -25.3441E-03     51.8919E-03    -26.5522E-03     55.2610E-03     226.021E-03     183.162E+06     201.139E+06     86.4383E+06    -6.54657E+06    -6.52698E+06     201.119E+06     86.4383E+06     1.09812E+06
             513     45.0962E-03     15.5861E-03     42.3172E-03     67.8761E-03    -26.2708E-03    -41.6119E-03    -25.9018E-03     52.1661E-03    -26.2708E-03     75.1501E-03     218.413E-03     179.639E+06     181.040E+06     20.0493E+06    -10.0991E+06    -9.30852E+06     181.024E+06     19.2747E+06    -119.535E+03
             514     44.7162E-03     14.6101E-03     42.2621E-03     57.1634E-03    -26.1857E-03    -30.9758E-03    -25.6349E-03     51.8225E-03    -26.1857E-03     40.5565E-03     148.590E-03     156.007E+06     145.052E+06    -7.62612E+06    -13.9554E+06    -10.2334E+06     145.008E+06    -11.3042E+06     614.234E+03
             515     44.3788E-03     13.6359E-03     42.2320E-03     54.3287E-03    -26.2503E-03    -28.0753E-03    -25.8579E-03     52.1113E-03    -26.2503E-03     26.5910E-03     117.092E-03     92.6582E+06     74.6421E+06    -9.37608E+06    -23.7378E+06    -11.7059E+06     74.5976E+06    -21.3635E+06     1.31068E+06
             516     44.0644E-03     12.6620E-03     42.2060E-03     53.8763E-03    -26.3512E-03    -27.5605E-03    -26.0520E-03     52.3678E-03    -26.3512E-03     21.7324E-03     100.627E-03     30.5417E+06     8.20586E+06    -14.7346E+06    -26.1085E+06    -11.4900E+06     3.68282E+06    -24.8301E+06    -113.946E+03
             517     43.7757E-03     11.6875E-03     42.1867E-03     53.5413E-03    -26.4662E-03    -27.1337E-03    -26.2328E-03     52.6405E-03    -26.4662E-03     16.8726E-03     89.1797E-03     29.7176E+06    -9.35584E+06    -16.5620E+06    -41.2980E+06    -9.41482E+06    -40.2274E+06    -17.5737E+06    -269.020E+03
             518     43.5100E-03     10.7134E-03     42.1704E-03     53.4792E-03    -26.5726E-03    -26.9453E-03    -26.3078E-03     52.8417E-03    -26.5726E-03     14.2301E-03     81.3906E-03     68.2713E+06    -5.03037E+06    -11.4441E+06    -76.1770E+06    -7.56961E+06    -76.1164E+06    -8.96542E+06     1.18429E+06
             519     43.2674E-03     9.73923E-03     42.1570E-03     53.4852E-03    -26.6745E-03    -26.8300E-03    -26.3612E-03     53.0171E-03    -26.6751E-03     12.1792E-03     75.1281E-03     98.4419E+06    -325.785E+03    -7.86405E+06    -102.302E+06    -7.96306E+06    -102.203E+06    -325.785E+03     2.82379E+06
             520     43.0465E-03     8.76482E-03     42.1447E-03     53.4699E-03    -26.6945E-03    -26.7816E-03    -26.4049E-03     53.1205E-03    -26.7218E-03     10.5446E-03     69.9685E-03     114.957E+06    -2.18526E+06    -10.7930E+06    -121.181E+06    -10.8684E+06    -121.106E+06    -2.18526E+06     2.34028E+06
             521     42.8494E-03     7.79068E-03     42.1352E-03     53.4667E-03    -26.6882E-03    -26.7851E-03    -26.4182E-03     53.1838E-03    -26.7722E-03     9.48760E-03     66.0400E-03     133.033E+06    -3.72733E+06    -12.8922E+06    -141.086E+06    -12.9044E+06    -141.074E+06    -3.72733E+06     804.139E+03
             522     42.6732E-03     6.81649E-03     42.1252E-03     53.6280E-03    -26.7102E-03    -26.9213E-03    -26.5982E-03     53.4139E-03    -26.8191E-03     8.25220E-03     62.9832E-03     149.811E+06    -4.69091E+06    -13.7554E+06    -158.787E+06    -13.7570E+06    -158.785E+06    -4.69091E+06     82.6077E+03
             523     42.5212E-03     5.84281E-03     42.1178E-03     53.7105E-03    -26.7533E-03    -26.9587E-03    -26.7343E-03     53.5699E-03    -26.8371E-03     6.67207E-03     60.5280E-03     159.151E+06    -7.20506E+06    -14.8061E+06    -169.999E+06    -14.8165E+06    -169.989E+06    -7.20506E+06    -715.942E+03
             524     42.3929E-03     4.86886E-03     42.1123E-03     53.5885E-03    -26.7089E-03    -26.8810E-03    -26.6432E-03     53.5034E-03    -26.8615E-03     5.18165E-03     58.4931E-03     164.434E+06    -7.59678E+06    -15.1365E+06    -175.650E+06    -15.1514E+06    -175.635E+06    -7.59678E+06    -833.573E+03
             525     42.2871E-03     3.89516E-03     42.1073E-03     53.5654E-03    -26.6521E-03    -26.9125E-03    -26.6156E-03     53.5130E-03    -26.8966E-03     4.06004E-03     56.8630E-03     162.472E+06    -8.99560E+06    -15.2034E+06    -174.464E+06    -15.2113E+06    -174.456E+06    -8.99560E+06    -574.325E+03
             526     42.2058E-03     2.92109E-03     42.1046E-03     53.8348E-03    -26.7761E-03    -27.0582E-03    -26.8891E-03     53.8043E-03    -26.9146E-03     3.07527E-03     55.9275E-03     161.237E+06    -10.2675E+06    -16.4188E+06    -174.490E+06    -16.4302E+06    -174.479E+06    -10.2675E+06    -761.163E+03
             527     42.1474E-03     1.94738E-03     42.1024E-03     53.9160E-03    -26.8109E-03    -27.1046E-03    -27.0763E-03     53.9022E-03    -26.8255E-03     1.97445E-03     55.3023E-03     161.106E+06    -12.0218E+06    -18.3249E+06    -176.176E+06    -18.3786E+06    -176.122E+06    -12.0218E+06     937.325E+03
             528     42.1116E-03     974.139E-06     42.1003E-03     53.4084E-03    -26.5101E-03    -26.8972E-03    -26.6525E-03     53.3993E-03    -26.7457E-03     1.62280E-03     54.6715E-03     155.813E+06    -14.4718E+06    -21.2398E+06    -173.527E+06    -18.4552E+06    -173.451E+06    -17.3322E+06     2.76090E+06
             529     44.5560E-03     16.5607E-03     41.3640E-03     63.5384E-03    -25.7419E-03    -37.7994E-03    -25.6849E-03     52.2472E-03    -26.5651E-03     55.2417E-03     226.642E-03     183.636E+06     202.457E+06     89.1309E+06    -5.95866E+06    -5.94781E+06     202.446E+06     89.1309E+06     317.134E+03
             530     44.1111E-03     15.5869E-03     41.2654E-03     67.5063E-03    -26.2485E-03    -41.2603E-03    -26.2378E-03     52.4838E-03    -26.2485E-03     73.7784E-03     218.207E-03     179.952E+06     180.523E+06     20.3029E+06    -11.3363E+06    -10.0574E+06     180.487E+06     19.0598E+06     294.665E+03
             531     43.7212E-03     14.6119E-03     41.2072E-03     56.8804E-03    -26.1583E-03    -30.7152E-03    -25.3289E-03     51.4941E-03    -26.1583E-03     40.5146E-03     148.318E-03     155.477E+06     142.525E+06    -10.5311E+06    -15.2084E+06    -12.8326E+06     142.452E+06    -12.8341E+06     1.85489E+06
             532     43.3779E-03     13.6371E-03     41.1785E-03     54.0874E-03    -26.2480E-03    -27.8381E-03    -25.6528E-03     51.9022E-03    -26.2480E-03     26.3307E-03     117.354E-03     93.5732E+06     76.5802E+06    -9.62404E+06    -21.9426E+06    -11.9592E+06     76.5411E+06    -19.5682E+06     1.21560E+06
             533     43.0558E-03     12.6617E-03     41.1520E-03     53.8845E-03    -26.3474E-03    -27.5755E-03    -26.0797E-03     52.3886E-03    -26.3474E-03     21.6367E-03     100.738E-03     33.1866E+06     11.5979E+06    -14.6980E+06    -25.1861E+06    -9.94827E+06     5.56979E+06    -23.9076E+06    -627.990E+03
             534     42.7608E-03     11.6878E-03     41.1325E-03     53.4813E-03    -26.4691E-03    -27.0653E-03    -26.1830E-03     52.5989E-03    -26.4691E-03     16.6835E-03     89.2191E-03     30.7933E+06    -9.27644E+06    -16.1195E+06    -41.3109E+06    -9.35388E+06    -40.9082E+06    -16.4448E+06    -957.218E+03
             535     42.4897E-03     10.7132E-03     41.1169E-03     53.4197E-03    -26.5692E-03    -26.8910E-03    -26.2569E-03     52.7855E-03    -26.5692E-03     14.1928E-03     81.4329E-03     68.3691E+06    -7.59490E+06    -11.8391E+06    -77.9724E+06    -9.21397E+06    -77.9363E+06    -10.2562E+06     108.803E+03
             536     42.2406E-03     9.73900E-03     41.1026E-03     53.4387E-03    -26.6344E-03    -26.8205E-03    -26.3047E-03     52.9660E-03    -26.6775E-03     12.2231E-03     75.1782E-03     100.070E+06     469.288E+03    -8.57308E+06    -103.727E+06    -8.03979E+06    -103.630E+06    -160.799E+03     2.36799E+06
             537     42.0157E-03     8.76498E-03     41.0913E-03     53.4546E-03    -26.6742E-03    -26.7695E-03    -26.3546E-03     53.1095E-03    -26.7439E-03     10.4753E-03     70.0310E-03     117.360E+06     3.36277E+06    -7.02310E+06    -118.760E+06    -7.12455E+06    -118.658E+06     3.36277E+06     3.13255E+06
             538     41.8130E-03     7.79071E-03     41.0808E-03     53.6037E-03    -26.7638E-03    -26.8400E-03    -26.5399E-03     53.3313E-03    -26.7915E-03     9.31788E-03     66.2341E-03     135.599E+06     1.41564E+06    -8.87626E+06    -139.016E+06    -8.91732E+06    -138.975E+06     1.41564E+06     1.84673E+06
             539     41.6334E-03     6.81693E-03     41.0716E-03     53.5625E-03    -26.7043E-03    -26.8618E-03    -26.5270E-03     53.3622E-03    -26.8389E-03     7.97684E-03     62.9271E-03     151.801E+06    -694.996E+03    -11.6921E+06    -157.671E+06    -11.7108E+06    -157.653E+06    -694.996E+03     312.182E+03
             540     41.4771E-03     5.84243E-03     41.0636E-03     53.5453E-03    -26.6598E-03    -26.8842E-03    -26.5442E-03     53.4102E-03    -26.8648E-03     6.53710E-03     60.3540E-03     159.043E+06    -6.41917E+06    -13.0749E+06    -168.644E+06    -13.0732E+06    -168.627E+06    -6.43701E+06    -1.22635E+06
             541     41.3455E-03     4.86894E-03     41.0578E-03     53.6357E-03    -26.7192E-03    -26.9171E-03    -26.6565E-03     53.5535E-03    -26.8976E-03     5.07266E-03     58.5324E-03     163.901E+06    -10.2410E+06    -13.3584E+06    -175.645E+06    -13.3670E+06    -175.619E+06    -10.2589E+06    -1.96658E+06
             542     41.2382E-03     3.89448E-03     41.0539E-03     53.6614E-03    -26.7119E-03    -26.9497E-03    -26.6686E-03     53.6113E-03    -26.9429E-03     3.98375E-03     56.9910E-03     162.704E+06    -11.5322E+06    -14.1013E+06    -175.497E+06    -14.1197E+06    -175.478E+06    -11.5322E+06    -1.60508E+06
             543     41.1535E-03     2.92028E-03     41.0498E-03     53.9327E-03    -26.8245E-03    -27.1084E-03    -26.9292E-03     53.9029E-03    -26.9739E-03     3.00798E-03     56.0502E-03     161.782E+06    -12.1518E+06    -15.9210E+06    -175.777E+06    -15.9275E+06    -175.770E+06    -12.1518E+06    -130.251E+03
             544     41.0932E-03     1.94775E-03     41.0470E-03     54.0556E-03    -26.8711E-03    -27.1845E-03    -27.1487E-03     54.0453E-03    -26.8965E-03     1.69154E-03     55.4403E-03     160.312E+06    -12.5239E+06    -18.4657E+06    -175.676E+06    -18.4792E+06    -175.663E+06    -12.5239E+06    -286.552E+03
             545     41.0587E-03     974.050E-06     41.0471E-03     53.5537E-03    -26.6587E-03    -26.8938E-03    -26.8748E-03     53.5481E-03    -26.6721E-03     1.29113E-03     54.9421E-03     154.296E+06    -14.5879E+06    -19.5504E+06    -171.249E+06    -19.5699E+06    -171.220E+06    -14.5976E+06    -504.194E+03
             546     43.5786E-03     16.5615E-03     40.3089E-03     63.6283E-03    -26.0031E-03    -37.6266E-03    -25.3942E-03     51.9376E-03    -26.5447E-03     55.9866E-03     226.513E-03     183.862E+06     202.201E+06     88.1654E+06    -6.09784E+06    -6.09517E+06     202.199E+06     88.1654E+06    -185.521E+03
             547     43.1257E-03     15.5872E-03     40.2103E-03     67.6694E-03    -26.2298E-03    -41.4389E-03    -26.0542E-03     52.2847E-03    -26.2298E-03     74.3975E-03     218.190E-03     180.124E+06     179.371E+06     19.7854E+06    -13.7944E+06    -9.35035E+06     179.340E+06     15.3732E+06     507.211E+03
             548     42.7309E-03     14.6118E-03     40.1550E-03     57.2520E-03    -26.1449E-03    -31.0977E-03    -25.6144E-03     51.7687E-03    -26.1449E-03     41.3153E-03     148.138E-03     152.130E+06     141.955E+06    -6.93506E+06    -13.1119E+06    -6.90403E+06     141.924E+06    -13.1119E+06     1.05934E+06
             549     42.3779E-03     13.6358E-03     40.1242E-03     54.1800E-03    -26.2440E-03    -27.9301E-03    -25.6324E-03     51.8824E-03    -26.2440E-03     26.9906E-03     117.305E-03     90.0091E+06     78.2354E+06    -5.44160E+06    -15.8834E+06    -5.43336E+06     78.2272E+06    -15.8834E+06     553.003E+03
             550     42.0499E-03     12.6626E-03     40.0980E-03     53.9220E-03    -26.3355E-03    -27.6255E-03    -26.1227E-03     52.4191E-03    -26.3355E-03     21.7060E-03     100.876E-03     35.8628E+06     15.6856E+06    -14.0327E+06    -23.9658E+06    -5.87787E+06     6.60026E+06    -23.0353E+06     124.553E+03
             551     41.7481E-03     11.6877E-03     40.0787E-03     53.4485E-03    -26.4648E-03    -27.0384E-03    -26.1648E-03     52.5749E-03    -26.4648E-03     16.5734E-03     89.1649E-03     35.6108E+06    -5.60328E+06    -16.0578E+06    -42.8178E+06    -7.23585E+06    -42.2584E+06    -14.9846E+06     1.46819E+06
             552     41.4707E-03     10.7135E-03     40.0630E-03     53.3091E-03    -26.5625E-03    -26.7833E-03    -26.1490E-03     52.6841E-03    -26.5717E-03     14.0816E-03     81.4185E-03     68.1867E+06    -7.27180E+06    -11.7860E+06    -77.5850E+06    -10.4868E+06    -77.3804E+06    -8.77563E+06     1.77819E+06
             553     41.2160E-03     9.73916E-03     40.0488E-03     53.3115E-03    -26.6071E-03    -26.7347E-03    -26.2034E-03     52.8319E-03    -26.6588E-03     12.2911E-03     75.1019E-03     95.6619E+06    -5.06640E+06    -12.9466E+06    -104.318E+06    -12.3785E+06    -104.256E+06    -5.69648E+06    -268.655E+03
             554     40.9855E-03     8.76462E-03     40.0374E-03     53.4675E-03    -26.6900E-03    -26.7857E-03    -26.3844E-03     53.1086E-03    -26.7324E-03     10.6962E-03     70.1332E-03     113.394E+06    -1.16129E+06    -10.8518E+06    -119.001E+06    -10.9299E+06    -118.923E+06    -1.16129E+06     707.234E+03
             555     40.7776E-03     7.79085E-03     40.0264E-03     53.6457E-03    -26.7790E-03    -26.8605E-03    -26.5757E-03     53.3609E-03    -26.7790E-03     9.52728E-03     66.2983E-03     132.468E+06    -782.744E+03    -9.11270E+06    -137.194E+06    -9.14949E+06    -137.157E+06    -782.744E+03     1.61080E+06
             556     40.5940E-03     6.81685E-03     40.0176E-03     53.6014E-03    -26.7303E-03    -26.8650E-03    -26.5687E-03     53.4029E-03    -26.8281E-03     7.93509E-03     63.0315E-03     151.487E+06    -500.201E+03    -8.95323E+06    -156.009E+06    -8.97350E+06    -155.989E+06    -500.201E+03     375.901E+03
             557     40.4344E-03     5.84285E-03     40.0101E-03     53.4501E-03    -26.5819E-03    -26.8659E-03    -26.4477E-03     53.3160E-03    -26.8659E-03     6.52081E-03     60.2944E-03     159.693E+06    -5.31789E+06    -10.6178E+06    -167.561E+06    -10.6074E+06    -167.554E+06    -5.33573E+06    -546.232E+03
             558     40.2987E-03     4.86807E-03     40.0036E-03     53.6501E-03    -26.6882E-03    -26.9635E-03    -26.6645E-03     53.5701E-03    -26.9071E-03     4.96948E-03     58.5720E-03     164.020E+06    -10.0481E+06    -12.8169E+06    -175.418E+06    -12.8135E+06    -175.404E+06    -10.0660E+06    -1.25416E+06
             559     40.1889E-03     3.89483E-03     39.9997E-03     53.9095E-03    -26.8820E-03    -27.0283E-03    -26.9541E-03     53.8679E-03    -26.9148E-03     3.64708E-03     57.3322E-03     163.423E+06    -11.7389E+06    -14.9879E+06    -176.749E+06    -15.0078E+06    -176.729E+06    -11.7389E+06    -621.182E+03
             560     40.1016E-03     2.92173E-03     39.9951E-03     53.7019E-03    -26.7308E-03    -26.9715E-03    -26.7629E-03     53.6768E-03    -26.9143E-03     2.79906E-03     55.8598E-03     160.703E+06    -14.1826E+06    -16.8478E+06    -176.199E+06    -16.8571E+06    -176.189E+06    -14.1826E+06     351.657E+03
             561     40.0403E-03     1.94677E-03     39.9930E-03     53.7488E-03    -26.7159E-03    -27.0339E-03    -26.7689E-03     53.7369E-03    -26.9690E-03     1.90147E-03     55.1326E-03     158.450E+06    -13.2620E+06    -18.9520E+06    -174.432E+06    -17.6070E+06    -174.419E+06    -14.6193E+06    -602.645E+03
             562     40.0033E-03     973.755E-06     39.9914E-03     53.9466E-03    -26.8419E-03    -27.1047E-03    -27.0300E-03     53.9414E-03    -26.9114E-03     954.912E-06     55.2999E-03     152.366E+06    -16.3611E+06    -21.9735E+06    -171.403E+06    -20.6710E+06    -171.339E+06    -17.7281E+06    -2.47948E+06
             563     42.6103E-03     16.5626E-03     39.2596E-03     63.7937E-03    -25.9175E-03    -37.8755E-03    -25.2235E-03     51.7615E-03    -26.5373E-03     55.9945E-03     226.166E-03     183.882E+06     202.147E+06     87.1411E+06    -5.97886E+06    -5.97642E+06     202.144E+06     87.1411E+06     19.2682E+03
             564     42.1416E-03     15.5841E-03     39.1541E-03     67.5778E-03    -26.2488E-03    -41.3291E-03    -25.7853E-03     52.0340E-03    -26.2488E-03     74.3203E-03     217.859E-03     180.345E+06     179.795E+06     20.1920E+06    -14.2404E+06    -10.2820E+06     179.780E+06     16.2483E+06    -1.23583E+06
             565     41.7420E-03     14.6113E-03     39.1013E-03     57.1355E-03    -26.1520E-03    -30.9797E-03    -25.7698E-03     51.9256E-03    -26.1520E-03     40.4011E-03     148.044E-03     155.197E+06     141.687E+06    -8.30063E+06    -18.1754E+06    -10.5928E+06     141.669E+06    -15.8648E+06    -1.28370E+06
             566     41.3820E-03     13.6374E-03     39.0703E-03     54.3532E-03    -26.2318E-03    -28.1165E-03    -25.7767E-03     52.0134E-03    -26.2318E-03     27.3069E-03     117.227E-03     93.2182E+06     77.7866E+06    -9.38655E+06    -19.9374E+06    -9.34746E+06     77.7475E+06    -19.9374E+06     565.382E+03
             567     41.0457E-03     12.6617E-03     39.0440E-03     53.8917E-03    -26.3464E-03    -27.5840E-03    -26.0516E-03     52.3592E-03    -26.3464E-03     21.8713E-03     100.957E-03     35.0662E+06     14.4695E+06    -14.9810E+06    -24.2616E+06    -9.38459E+06     6.52284E+06    -21.9114E+06     2.47244E+06
             568     40.7374E-03     11.6881E-03     39.0247E-03     53.4756E-03    -26.4731E-03    -27.0626E-03    -26.1772E-03     52.5901E-03    -26.4731E-03     16.7045E-03     89.2033E-03     34.3702E+06    -7.59413E+06    -17.0658E+06    -44.3033E+06    -9.87062E+06    -43.4254E+06    -15.6673E+06     2.85431E+06
             569     40.4536E-03     10.7135E-03     39.0092E-03     53.3474E-03    -26.5773E-03    -26.8011E-03    -26.1550E-03     52.7105E-03    -26.5866E-03     14.2079E-03     81.4470E-03     68.6691E+06    -4.03516E+06    -9.70392E+06    -75.3237E+06    -8.11498E+06    -75.0691E+06    -5.87868E+06     2.43442E+06
             570     40.1931E-03     9.73883E-03     38.9954E-03     53.3750E-03    -26.6518E-03    -26.7503E-03    -26.2562E-03     52.8902E-03    -26.6610E-03     12.3769E-03     75.1480E-03     95.7073E+06    -3.86265E+06    -8.73507E+06    -101.904E+06    -8.82802E+06    -101.811E+06    -3.86265E+06     683.055E+03
             571     39.9563E-03     8.76494E-03     38.9831E-03     53.4336E-03    -26.6890E-03    -26.7604E-03    -26.3692E-03     53.0690E-03    -26.7157E-03     10.7753E-03     70.0516E-03     112.400E+06    -4.99425E+06    -10.8173E+06    -120.190E+06    -10.9304E+06    -120.077E+06    -4.99425E+06    -1.43813E+06
             572     39.7437E-03     7.79063E-03     38.9726E-03     53.5425E-03    -26.7285E-03    -26.8076E-03    -26.4709E-03     53.2519E-03    -26.7747E-03     9.62045E-03     66.2036E-03     130.352E+06    -3.98891E+06    -10.0067E+06    -137.239E+06    -10.0721E+06    -137.173E+06    -3.98891E+06    -1.22795E+06
             573     39.5549E-03     6.81665E-03     38.9632E-03     53.6776E-03    -26.7996E-03    -26.8717E-03    -26.6331E-03     53.4744E-03    -26.8350E-03     8.02207E-03     63.1331E-03     150.629E+06    -1.51178E+06    -9.17285E+06    -155.814E+06    -9.17580E+06    -155.811E+06    -1.51178E+06    -218.787E+03
             574     39.3918E-03     5.84275E-03     38.9561E-03     53.6985E-03    -26.7357E-03    -26.9636E-03    -26.7056E-03     53.5713E-03    -26.8664E-03     6.35777E-03     60.5365E-03     160.799E+06    -2.00054E+06    -10.4277E+06    -166.833E+06    -10.4393E+06    -166.822E+06    -2.00054E+06     641.285E+03
             575     39.2530E-03     4.86895E-03     38.9498E-03     53.6813E-03    -26.6807E-03    -27.0020E-03    -26.7305E-03     53.6002E-03    -26.8712E-03     5.05768E-03     58.5608E-03     164.631E+06    -7.44698E+06    -13.8300E+06    -175.170E+06     -13.843E+06    -175.157E+06    -7.44698E+06     631.708E+03
             576     39.1383E-03     3.89521E-03     38.9440E-03     53.7254E-03    -26.7467E-03    -26.9794E-03    -26.8063E-03     53.6782E-03    -26.8726E-03     3.82435E-03     57.0951E-03     163.807E+06    -10.2771E+06    -16.1505E+06    -176.939E+06    -16.1616E+06    -176.928E+06    -10.2771E+06     324.325E+03
             577     39.0514E-03     2.92115E-03     38.9419E-03     53.6238E-03    -26.6727E-03    -26.9519E-03    -26.7180E-03     53.5983E-03    -26.8810E-03     2.84262E-03     55.7366E-03     160.633E+06    -12.2896E+06    -16.3991E+06    -174.929E+06    -16.4088E+06    -174.919E+06    -12.2896E+06     355.164E+03
             578     38.9872E-03     1.94746E-03     38.9385E-03     53.5851E-03    -26.6098E-03    -26.9760E-03    -26.6161E-03     53.5709E-03    -26.9556E-03     2.08707E-03     54.9567E-03     158.007E+06    -15.4847E+06    -18.2409E+06    -174.845E+06    -16.6998E+06    -174.842E+06    -17.0284E+06    -143.415E+03
             579     38.9488E-03     972.932E-06     38.9366E-03     54.0305E-03    -26.8140E-03    -27.2172E-03    -27.0244E-03     54.0255E-03    -27.0017E-03     901.106E-06     55.2510E-03     152.969E+06    -17.4020E+06    -19.9490E+06    -171.617E+06    -18.4597E+06    -171.562E+06    -18.9458E+06    -2.02986E+06
             580     41.6383E-03     16.5603E-03     38.2035E-03     63.7847E-03    -25.8549E-03    -37.9284E-03    -25.3831E-03     51.9288E-03    -26.5443E-03     55.1005E-03     226.068E-03     184.069E+06     202.930E+06      89.435E+06    -6.13234E+06    -6.12815E+06     202.926E+06      89.435E+06     286.739E+03
             581     41.1678E-03     15.5887E-03     38.1022E-03     67.5762E-03    -26.2712E-03    -41.3075E-03    -25.6390E-03     51.9077E-03    -26.2712E-03     74.8285E-03     217.831E-03     180.820E+06     182.916E+06     23.6429E+06    -11.2299E+06    -9.70133E+06     182.900E+06     22.1299E+06    -138.705E+03
             582     40.7554E-03     14.6110E-03     38.0463E-03     57.0513E-03    -26.1584E-03    -30.8932E-03    -25.4630E-03     51.6211E-03    -26.1584E-03     40.9523E-03     148.187E-03     158.138E+06     141.856E+06    -11.6897E+06    -20.4725E+06    -13.9831E+06     141.839E+06    -18.1619E+06    -865.479E+03
             583     40.3883E-03     13.6359E-03     38.0169E-03     54.4891E-03    -26.2346E-03    -28.2517E-03    -25.8706E-03     52.1080E-03    -26.2346E-03     27.6148E-03     117.405E-03     96.1218E+06     75.3964E+06    -14.6523E+06    -25.5470E+06    -14.6131E+06     75.3572E+06    -25.5470E+06     585.667E+03
             584     40.0444E-03     12.6623E-03     37.9898E-03     53.9762E-03    -26.3574E-03    -27.6636E-03    -26.0937E-03     52.4063E-03    -26.3574E-03     22.1001E-03     100.945E-03     34.2245E+06     11.6576E+06    -17.9531E+06    -25.7163E+06    -12.9036E+06     5.18840E+06    -24.2966E+06     2.39266E+06
             585     39.7287E-03     11.6874E-03     37.9708E-03     53.4351E-03    -26.4747E-03    -27.0256E-03    -26.1434E-03     52.5530E-03    -26.4747E-03     16.6909E-03     89.1609E-03     30.8754E+06    -9.24212E+06    -18.1706E+06    -42.2454E+06    -9.91964E+06    -41.1598E+06    -18.5788E+06     976.439E+03
             586     39.4383E-03     10.7130E-03     37.9554E-03     53.5040E-03    -26.5903E-03    -26.9433E-03    -26.2937E-03     52.8545E-03    -26.5903E-03     14.3721E-03     81.5612E-03     68.0194E+06    -5.00919E+06    -10.8571E+06    -75.7196E+06    -7.66295E+06    -75.6642E+06    -8.25878E+06     190.698E+03
             587     39.1712E-03     9.73927E-03     37.9412E-03     53.5343E-03    -26.6700E-03    -26.8877E-03    -26.4000E-03     53.0467E-03    -26.6700E-03     12.4385E-03     75.2948E-03     96.2014E+06    -1.08736E+06    -6.25200E+06    -99.7578E+06    -6.31477E+06    -99.6951E+06    -1.08736E+06     1.78106E+06
             588     38.9289E-03     8.76483E-03     37.9294E-03     53.4465E-03    -26.6871E-03    -26.7654E-03    -26.3726E-03     53.0803E-03    -26.7138E-03     10.7980E-03     70.0261E-03     112.764E+06    -2.26048E+06    -7.20570E+06    -117.410E+06    -7.28598E+06    -117.330E+06    -2.26048E+06    -217.219E+03
             589     38.7105E-03     7.79068E-03     37.9185E-03     53.4945E-03    -26.7094E-03    -26.7805E-03    -26.4303E-03     53.2076E-03    -26.7727E-03     9.54954E-03     66.1718E-03     131.569E+06    -4.31074E+06    -10.5122E+06    -138.861E+06    -10.5765E+06    -138.797E+06    -4.31074E+06    -1.79685E+06
             590     38.5172E-03     6.81648E-03     37.9092E-03     53.6359E-03    -26.7869E-03    -26.8535E-03    -26.6076E-03     53.4338E-03    -26.8308E-03     8.00807E-03     63.0123E-03     148.003E+06    -3.89986E+06    -12.7264E+06    -156.114E+06    -12.7327E+06    -156.108E+06    -3.89986E+06    -529.234E+03
             591     38.3492E-03     5.84277E-03     37.9015E-03     53.7860E-03    -26.8380E-03    -26.9496E-03    -26.8018E-03     53.6526E-03    -26.8524E-03     6.51775E-03     60.5272E-03     158.496E+06    -4.76584E+06    -13.7263E+06    -167.546E+06    -13.7371E+06    -167.535E+06    -4.76584E+06     695.040E+03
             592     38.2071E-03     4.86946E-03     37.8955E-03     53.6659E-03    -26.7451E-03    -26.9215E-03    -26.7256E-03     53.5719E-03    -26.8470E-03     5.48081E-03     58.4614E-03     162.715E+06    -8.97775E+06    -14.4371E+06    -174.332E+06    -14.4560E+06    -174.313E+06    -8.97775E+06     1.48918E+06
             593     38.0904E-03     3.89493E-03     37.8907E-03     53.6082E-03    -26.7155E-03    -26.8941E-03    -26.6903E-03     53.5494E-03    -26.8605E-03     4.25098E-03     56.8902E-03     162.351E+06    -11.5727E+06    -15.0159E+06    -175.598E+06    -15.0268E+06    -175.587E+06    -11.5727E+06     470.155E+03
             594     37.9992E-03     2.92116E-03     37.8868E-03     53.8082E-03    -26.8099E-03    -27.0000E-03    -26.9256E-03     53.7841E-03    -26.8601E-03     2.65646E-03     55.9142E-03     160.632E+06    -11.1784E+06    -16.5110E+06    -174.369E+06    -16.5184E+06    -174.361E+06    -11.1784E+06    -513.475E+03
             595     37.9348E-03     1.94756E-03     37.8848E-03     53.6463E-03    -26.6963E-03    -26.9496E-03    -26.8216E-03     53.6365E-03    -26.8145E-03     1.72134E-03     55.0463E-03     157.825E+06    -13.2927E+06    -19.5492E+06    -174.099E+06    -19.3693E+06    -174.092E+06    -13.4791E+06    -415.474E+03
             596     37.8947E-03     973.911E-06     37.8821E-03     53.5113E-03    -26.4657E-03    -27.0447E-03    -26.6327E-03     53.5010E-03    -26.8673E-03     1.66232E-03     54.8629E-03     153.932E+06    -18.6207E+06    -22.8044E+06    -174.559E+06    -21.3802E+06    -174.507E+06    -20.0963E+06     610.720E+03
             597     40.6757E-03     16.5635E-03     37.1505E-03     63.6714E-03    -25.7252E-03    -37.9484E-03    -25.0211E-03     51.5515E-03    -26.5325E-03     55.0035E-03     226.457E-03     183.636E+06     201.424E+06     86.5855E+06    -6.72917E+06    -6.72403E+06     201.419E+06     86.5855E+06     252.263E+03
             598     40.1923E-03     15.5836E-03     37.0482E-03     67.8159E-03    -26.2820E-03    -41.5357E-03    -25.5385E-03     51.8187E-03    -26.2820E-03     75.5177E-03     218.650E-03     180.751E+06     182.251E+06     22.3536E+06    -11.8829E+06    -10.3603E+06     182.241E+06     20.8406E+06     1.21570E+06
             599     39.7738E-03     14.6107E-03     36.9930E-03     57.2462E-03    -26.1883E-03    -31.0584E-03    -25.6636E-03     51.8514E-03    -26.1883E-03     40.8477E-03     148.777E-03     157.007E+06     143.222E+06    -8.78057E+06    -18.3157E+06    -12.2263E+06     143.206E+06    -14.8537E+06     1.32641E+06
             600     39.3974E-03     13.6360E-03     36.9624E-03     54.3824E-03    -26.2492E-03    -28.1355E-03    -25.8648E-03     52.1117E-03    -26.2492E-03     26.9357E-03     117.620E-03     94.9190E+06     74.9657E+06    -13.4331E+06    -24.8754E+06    -13.4098E+06     74.9425E+06    -24.8754E+06     756.757E+03
             601     39.0454E-03     12.6614E-03     36.9355E-03     53.8300E-03    -26.3639E-03    -27.5203E-03    -26.0155E-03     52.3251E-03    -26.3639E-03     21.6501E-03     101.006E-03     34.4763E+06     11.9133E+06    -18.1522E+06    -25.5684E+06    -11.4072E+06     5.16837E+06    -25.5684E+06    -522.464E+03
             602     38.7232E-03     11.6874E-03     36.9173E-03     53.4622E-03    -26.4841E-03    -27.0401E-03    -26.1556E-03     52.5777E-03    -26.4841E-03     16.7214E-03     89.2512E-03     29.4834E+06    -9.38838E+06    -18.9555E+06    -40.3544E+06    -9.53836E+06    -39.6704E+06    -19.4896E+06    -123.635E+03
             603     38.4248E-03     10.7131E-03     36.9011E-03     53.5822E-03    -26.5992E-03    -27.0084E-03    -26.3574E-03     52.9311E-03    -26.5992E-03     14.3942E-03     81.6528E-03     66.0843E+06    -7.76197E+06    -13.2064E+06    -76.3741E+06    -10.5261E+06    -76.3338E+06    -10.4826E+06     525.810E+03
             604     38.1511E-03     9.73880E-03     36.8872E-03     53.5236E-03    -26.6627E-03    -26.8890E-03    -26.3936E-03     53.0282E-03    -26.6627E-03     12.5517E-03     75.3340E-03     90.7569E+06    -6.67340E+06    -10.9298E+06    -99.4654E+06    -10.9784E+06    -99.4168E+06    -6.67340E+06    -223.627E+03
             605     37.9028E-03     8.76494E-03     36.8754E-03     53.5444E-03    -26.7113E-03    -26.8348E-03    -26.4544E-03     53.1640E-03    -26.7113E-03     11.0111E-03     70.2105E-03     108.413E+06    -4.74712E+06    -9.74127E+06    -115.537E+06    -9.78967E+06    -115.489E+06    -4.74712E+06     104.083E+03
             606     37.6789E-03     7.79083E-03     36.8647E-03     53.5994E-03    -26.7568E-03    -26.8300E-03    -26.5198E-03     53.3063E-03    -26.7739E-03     9.66415E-03     66.3383E-03     132.008E+06    -3.62409E+06    -10.8369E+06    -139.064E+06    -10.8666E+06    -139.035E+06    -3.62409E+06     830.946E+03
             607     37.4803E-03     6.81690E-03     36.8551E-03     53.5435E-03    -26.7266E-03    -26.8212E-03    -26.5145E-03     53.3282E-03    -26.8180E-03     8.26780E-03     62.9014E-03     145.910E+06    -6.34260E+06    -13.8385E+06    -155.842E+06    -13.8688E+06    -155.812E+06    -6.34260E+06     167.320E+03
             608     37.3077E-03     5.84274E-03     36.8473E-03     53.6136E-03    -26.7578E-03    -26.8610E-03    -26.6099E-03     53.4656E-03    -26.8610E-03     6.84674E-03     60.3496E-03     156.985E+06    -8.51483E+06    -14.7087E+06    -168.485E+06    -14.7160E+06    -168.477E+06    -8.51483E+06    -518.245E+03
             609     37.1617E-03     4.86830E-03     36.8414E-03     53.8288E-03    -26.8271E-03    -27.0031E-03    -26.8614E-03     53.7350E-03    -26.8751E-03     5.44334E-03     58.6655E-03     162.343E+06    -9.80414E+06    -13.7377E+06    -174.066E+06    -13.7470E+06    -174.056E+06    -9.80414E+06     296.108E+03
             610     37.0418E-03     3.89500E-03     36.8365E-03     53.8434E-03    -26.8271E-03    -27.0186E-03    -26.9465E-03     53.7904E-03    -26.8461E-03     4.05697E-03     57.1403E-03     160.620E+06    -11.9418E+06    -15.0072E+06    -174.058E+06    -15.0259E+06    -174.039E+06    -11.9418E+06     1.13870E+06
             611     36.9479E-03     2.92147E-03     36.8322E-03     53.7326E-03    -26.7984E-03    -26.9363E-03    -26.9103E-03     53.7066E-03    -26.7984E-03     2.76577E-03     55.8134E-03     158.881E+06    -13.2743E+06    -18.2209E+06    -174.531E+06    -17.6782E+06    -174.515E+06    -13.8337E+06      16.777E+03
             612     36.8817E-03     1.94821E-03     36.8302E-03     53.6713E-03    -26.6955E-03    -26.9760E-03    -26.9647E-03     53.6600E-03    -26.6955E-03     1.78341E-03     55.0135E-03     157.795E+06    -12.3700E+06    -20.6752E+06    -174.123E+06    -20.1275E+06    -174.111E+06    -12.9294E+06    -117.367E+03
             613     36.8418E-03     974.281E-06     36.8289E-03     53.1256E-03    -26.3260E-03    -26.7998E-03    -26.5025E-03     53.1150E-03    -26.6128E-03     1.72160E-03     54.4811E-03     153.216E+06    -17.9570E+06    -24.3305E+06    -174.226E+06    -22.9626E+06    -174.161E+06    -19.3907E+06     1.04810E+06
             614     39.7164E-03     16.5597E-03     36.0994E-03     63.5853E-03    -25.5203E-03    -38.0670E-03    -25.0007E-03     51.5175E-03    -26.5188E-03     53.9247E-03     225.957E-03     183.488E+06     200.272E+06     83.5534E+06    -7.00157E+06    -6.98542E+06     200.256E+06     83.5534E+06     167.232E+03
             615     39.2238E-03     15.5872E-03     35.9937E-03     67.8577E-03    -26.2646E-03    -41.5910E-03    -25.6722E-03     51.9389E-03    -26.2646E-03     75.3348E-03     218.593E-03     180.688E+06     180.871E+06     18.1131E+06    -11.7493E+06    -11.7308E+06     180.852E+06     18.1131E+06     1.72543E+06
             616     38.7953E-03     14.6111E-03     35.9387E-03     57.2191E-03    -26.1728E-03    -31.0488E-03    -25.7747E-03     51.9450E-03    -26.1728E-03     40.4410E-03     148.529E-03     156.984E+06     143.835E+06    -6.91421E+06    -18.3836E+06    -10.4664E+06     143.816E+06    -14.8126E+06     1.55625E+06
             617     38.4103E-03     13.6368E-03     35.9080E-03     54.2236E-03    -26.2345E-03    -27.9936E-03    -25.7376E-03     51.9676E-03    -26.2345E-03     26.8109E-03     117.235E-03     94.1479E+06     76.8257E+06    -8.10811E+06    -23.9511E+06    -8.08920E+06     76.8068E+06    -23.9511E+06     632.338E+03
             618     38.0510E-03     12.6620E-03     35.8825E-03     53.6617E-03    -26.3692E-03    -27.3371E-03    -25.8271E-03     52.1517E-03    -26.3692E-03     21.6282E-03     100.849E-03     35.3895E+06     13.8923E+06    -16.3454E+06    -24.8316E+06    -8.47873E+06     5.60997E+06    -24.4160E+06     217.738E+03
             619     37.7191E-03     11.6868E-03     35.8630E-03     53.4508E-03    -26.4923E-03    -27.0115E-03    -26.1165E-03     52.5559E-03    -26.4923E-03     16.8228E-03     89.2064E-03     30.0536E+06    -10.2793E+06    -20.7404E+06    -41.6489E+06    -10.6106E+06    -41.1916E+06    -20.8663E+06     1.14939E+06
             620     37.4137E-03     10.7130E-03     35.8471E-03     53.5592E-03    -26.6156E-03    -26.9650E-03    -26.3090E-03     52.9031E-03    -26.6156E-03     14.4353E-03     81.6494E-03     64.2702E+06    -8.24430E+06    -13.5205E+06    -74.9684E+06    -11.2526E+06    -74.9255E+06    -10.5551E+06     1.23018E+06
             621     37.1333E-03     9.73878E-03     35.8334E-03     53.5471E-03    -26.6784E-03    -26.8876E-03    -26.3947E-03     53.0542E-03    -26.6784E-03     12.5261E-03     75.3328E-03     87.9062E+06    -7.97491E+06    -11.9842E+06    -97.7865E+06    -12.0234E+06    -97.7474E+06    -7.97491E+06    -174.758E+03
             622     36.8776E-03     8.76439E-03     35.8210E-03     53.5436E-03    -26.7061E-03    -26.8438E-03    -26.4394E-03     53.1596E-03    -26.7264E-03     11.0660E-03     70.2030E-03     106.331E+06    -8.03738E+06    -14.1235E+06    -117.245E+06    -14.1641E+06    -117.204E+06    -8.03738E+06    -36.6018E+03
             623     36.6482E-03     7.79063E-03     35.8105E-03     53.6148E-03    -26.7678E-03    -26.8369E-03    -26.5106E-03     53.3088E-03    -26.7881E-03     9.88715E-03     66.3673E-03     128.108E+06    -6.71795E+06    -14.5714E+06    -138.552E+06    -14.6017E+06    -138.521E+06    -6.71795E+06     952.053E+03
             624     36.4443E-03     6.81648E-03     35.8012E-03     53.5981E-03    -26.7489E-03    -26.8441E-03    -26.5271E-03     53.3727E-03    -26.8404E-03     8.45193E-03     63.0169E-03     144.138E+06    -7.15287E+06    -13.8970E+06    -154.531E+06    -13.9270E+06    -154.501E+06    -7.15287E+06     138.267E+03
             625     36.2673E-03     5.84220E-03     35.7937E-03     53.7099E-03    -26.7775E-03    -26.9360E-03    -26.6708E-03     53.5579E-03    -26.8907E-03     6.95411E-03     60.5451E-03     156.844E+06    -7.91049E+06    -15.4504E+06    -168.354E+06    -15.4574E+06    -168.347E+06    -7.91049E+06    -677.290E+03
             626     36.1165E-03     4.86883E-03     35.7868E-03     53.9472E-03    -26.8646E-03    -27.0838E-03    -26.9655E-03     53.8505E-03    -26.8863E-03     5.51758E-03     58.8782E-03     160.631E+06    -11.1375E+06    -17.9636E+06    -175.050E+06    -17.9675E+06    -175.046E+06    -11.1375E+06    -91.6999E+03
             627     35.9930E-03     3.89558E-03     35.7816E-03     53.8413E-03    -26.8297E-03    -27.0134E-03    -26.9611E-03     53.7890E-03    -26.8297E-03     4.03891E-03     57.2140E-03     157.446E+06    -13.9299E+06    -19.8028E+06    -174.229E+06    -18.5917E+06    -174.216E+06    -15.1541E+06     894.535E+03
             628     35.8979E-03     2.92158E-03     35.7788E-03     53.6175E-03    -26.7872E-03    -26.8318E-03    -26.8015E-03     53.5871E-03    -26.7872E-03     3.09803E-03     55.6981E-03     154.967E+06    -15.9841E+06    -20.1510E+06    -172.988E+06    -18.3931E+06    -172.963E+06    -17.7678E+06     1.16592E+06
             629     35.8283E-03     1.94715E-03     35.7754E-03     53.6731E-03    -26.7293E-03    -26.9442E-03    -26.9295E-03     53.6585E-03    -26.7293E-03     2.00921E-03     54.9882E-03     156.735E+06    -16.6457E+06    -20.5251E+06    -175.260E+06    -19.9135E+06    -175.208E+06    -17.3095E+06    -59.1890E+03
             630     35.7881E-03     974.444E-06     35.7749E-03     53.2817E-03    -26.4241E-03    -26.8586E-03    -26.8511E-03     53.2775E-03    -26.4274E-03     1.14595E-03     54.4438E-03     151.720E+06    -17.4756E+06    -21.6417E+06    -171.202E+06    -21.4453E+06    -171.149E+06    -17.7243E+06    -1.39391E+06
             631     38.7618E-03     16.5636E-03     35.0446E-03     63.9380E-03    -25.5292E-03    -38.4080E-03    -25.4714E-03     51.9943E-03    -26.5220E-03     54.4087E-03     225.463E-03     183.352E+06     200.587E+06     83.1784E+06    -5.80887E+06    -5.79254E+06     200.570E+06     83.1784E+06    -141.835E+03
             632     38.2596E-03     15.5854E-03     34.9413E-03     68.1441E-03    -26.2424E-03    -41.9004E-03    -25.9589E-03     52.2026E-03    -26.2424E-03     75.9265E-03     217.878E-03     180.418E+06     182.884E+06     18.4751E+06    -8.50833E+06    -8.48929E+06     182.865E+06     18.4751E+06     1.33077E+06
             633     37.8199E-03     14.6112E-03     34.8835E-03     56.9785E-03    -26.1501E-03    -30.8272E-03    -25.3603E-03     51.5116E-03    -26.1501E-03     40.9571E-03     147.815E-03     157.053E+06     143.527E+06     -6.7281E+06    -19.1532E+06    -9.55035E+06     143.514E+06    -16.3179E+06     604.303E+03
             634     37.4276E-03     13.6362E-03     34.8551E-03     54.1796E-03    -26.2506E-03    -27.9199E-03    -25.6372E-03     51.8969E-03    -26.2506E-03     26.9411E-03     117.044E-03      92.978E+06     75.6299E+06    -9.09955E+06    -23.6228E+06    -9.80635E+06     75.3004E+06    -22.5865E+06     1.90637E+06
             635     37.0581E-03     12.6611E-03     34.8281E-03     53.8129E-03    -26.3952E-03    -27.4376E-03    -25.9263E-03     52.3017E-03    -26.3952E-03     21.6409E-03     100.829E-03     31.5024E+06     11.7386E+06    -16.5383E+06    -22.0237E+06    -12.1431E+06     5.89149E+06    -20.5718E+06     3.67820E+06
             636     36.7191E-03     11.6875E-03     34.8094E-03     53.3630E-03    -26.4970E-03    -26.9066E-03    -26.0226E-03     52.4790E-03    -26.4970E-03     16.7116E-03     89.0005E-03     28.2780E+06    -11.5374E+06    -19.1977E+06    -40.9804E+06    -12.1532E+06    -40.2282E+06    -19.3340E+06     1.69719E+06
             637     36.4048E-03     10.7124E-03     34.7930E-03     53.4834E-03    -26.6338E-03    -26.8680E-03    -26.2139E-03     52.8294E-03    -26.6338E-03     14.3870E-03     81.5307E-03     65.0514E+06    -5.95123E+06    -13.0303E+06    -74.2388E+06    -11.0950E+06    -74.2303E+06    -7.89510E+06     482.896E+03
             638     36.1168E-03     9.73853E-03     34.7791E-03     53.5776E-03    -26.7111E-03    -26.8789E-03    -26.3958E-03     53.0944E-03    -26.7111E-03     12.4031E-03     75.2688E-03     89.4357E+06    -3.77943E+06    -11.1799E+06    -96.6292E+06    -11.1868E+06    -96.6223E+06    -3.77943E+06     655.827E+03
             639     35.8550E-03     8.76466E-03     34.7672E-03     53.5695E-03    -26.7387E-03    -26.8380E-03    -26.4452E-03     53.1970E-03    -26.7590E-03     10.8969E-03     70.1697E-03     109.969E+06    -4.18050E+06    -11.5586E+06    -117.636E+06    -11.5638E+06    -117.631E+06    -4.18050E+06     463.298E+03
             640     35.6188E-03     7.79006E-03     34.7565E-03     53.5997E-03    -26.7585E-03    -26.8381E-03    -26.4859E-03     53.3126E-03    -26.8237E-03     9.55981E-03     66.3145E-03     130.566E+06    -3.13869E+06    -12.7249E+06    -138.216E+06    -12.7351E+06    -138.206E+06    -3.13869E+06     121.447E+03
             641     35.4093E-03     6.81617E-03     34.7471E-03     53.6884E-03    -26.8018E-03    -26.8850E-03    -26.6072E-03     53.4799E-03    -26.8712E-03     8.13667E-03     63.1098E-03     144.175E+06    -4.62007E+06    -15.2296E+06    -153.786E+06    -15.2397E+06    -153.776E+06    -4.62007E+06    -20.3138E+03
             642     35.2272E-03     5.84261E-03     34.7394E-03     53.7919E-03    -26.8359E-03    -26.9556E-03    -26.7419E-03     53.6393E-03    -26.8969E-03     7.00172E-03     60.5960E-03     155.917E+06    -8.06768E+06    -17.5336E+06    -168.452E+06    -17.5363E+06    -168.449E+06    -8.06768E+06     194.575E+03
             643     35.0716E-03     4.86872E-03     34.7320E-03     53.7639E-03    -26.7923E-03    -26.9687E-03    -26.7533E-03     53.6556E-03    -26.8993E-03     5.85598E-03     58.6563E-03     159.745E+06    -12.8148E+06    -18.5852E+06    -175.330E+06    -18.5930E+06    -175.322E+06    -12.8148E+06     66.4538E+03
             644     34.9453E-03     3.89459E-03     34.7276E-03     53.7980E-03    -26.8243E-03    -26.9734E-03    -26.8432E-03     53.7384E-03    -26.8949E-03     4.31615E-03     57.1907E-03     157.452E+06    -14.6387E+06    -20.2270E+06    -174.799E+06    -19.0087E+06    -174.793E+06    -15.8630E+06    -284.219E+03
             645     34.8467E-03     2.92107E-03     34.7241E-03     53.8100E-03    -26.8688E-03    -26.9428E-03    -26.8968E-03     53.7780E-03    -26.8829E-03     3.18526E-03     55.9679E-03     154.439E+06    -15.0133E+06    -20.2151E+06    -171.982E+06    -19.0056E+06    -171.967E+06    -16.2375E+06     805.003E+03
             646     34.7760E-03     1.94801E-03     34.7214E-03     53.6789E-03    -26.7342E-03    -26.9447E-03    -26.7660E-03     53.6617E-03    -26.8957E-03     2.22745E-03     55.0372E-03     154.528E+06    -16.7321E+06    -20.1869E+06    -172.950E+06    -20.1295E+06    -172.903E+06    -16.8365E+06     20.0289E+03
             647     34.7338E-03     973.422E-06     34.7201E-03     53.7652E-03    -26.6442E-03    -27.1212E-03    -26.9679E-03     53.7594E-03    -26.7916E-03     1.19904E-03     54.9431E-03     150.771E+06    -20.1807E+06    -25.1259E+06    -173.344E+06    -23.1731E+06    -173.303E+06    -22.1742E+06    -427.117E+03
             648     37.8083E-03     16.5583E-03     33.9895E-03     64.0332E-03    -25.4973E-03    -38.5304E-03    -25.4880E-03     52.0432E-03    -26.5497E-03     55.1665E-03     225.853E-03     182.838E+06     199.079E+06     83.2643E+06    -6.94295E+06    -6.93409E+06     199.070E+06     83.2643E+06    -667.767E+03
             649     37.2999E-03     15.5879E-03     33.8865E-03     68.3244E-03    -26.2709E-03    -42.0494E-03    -26.1599E-03     52.4348E-03    -26.2709E-03     75.9058E-03     218.139E-03     179.907E+06     181.707E+06     19.6617E+06    -10.4805E+06    -10.4631E+06     181.690E+06     19.6617E+06     121.327E+03
             650     36.8518E-03     14.6113E-03     33.8314E-03     57.0385E-03    -26.1906E-03    -30.8440E-03    -25.3803E-03     51.5748E-03    -26.1906E-03     41.1202E-03     148.083E-03     157.137E+06     144.782E+06    -6.81066E+06    -17.2635E+06    -12.9443E+06     144.671E+06    -11.0188E+06     2.37811E+06
             651     36.4473E-03     13.6357E-03     33.8005E-03     54.2313E-03    -26.2744E-03    -27.9443E-03    -25.6454E-03     51.9325E-03    -26.2744E-03     27.0056E-03     117.277E-03     92.3422E+06     73.0800E+06    -13.8658E+06    -23.5378E+06    -15.6709E+06     72.6518E+06    -21.3044E+06     3.19289E+06
             652     36.0699E-03     12.6623E-03     33.7744E-03     53.8508E-03    -26.3998E-03    -27.4743E-03    -26.0004E-03     52.3769E-03    -26.3998E-03     21.4377E-03     100.764E-03     28.1692E+06     10.3881E+06    -14.3179E+06    -19.9801E+06    -12.8391E+06     7.87308E+06    -18.9438E+06     2.55505E+06
             653     35.7215E-03     11.6869E-03     33.7557E-03     53.4085E-03    -26.4996E-03    -26.9633E-03    -26.0681E-03     52.5132E-03    -26.4996E-03     16.8270E-03     89.0480E-03     27.9427E+06    -9.57841E+06    -15.0436E+06    -39.2137E+06    -10.0408E+06    -37.3559E+06    -16.4390E+06     805.137E+03
             654     35.3990E-03     10.7131E-03     33.7390E-03     53.4530E-03    -26.6297E-03    -26.8536E-03    -26.1937E-03     52.7930E-03    -26.6297E-03     14.4447E-03     81.4027E-03     66.8034E+06    -4.52434E+06    -12.5274E+06    -74.9535E+06    -9.71547E+06    -74.9502E+06    -7.33957E+06     305.260E+03
             655     35.1030E-03     9.73846E-03     33.7251E-03     53.4917E-03    -26.7161E-03    -26.7928E-03    -26.3080E-03     53.0070E-03    -26.7161E-03     12.4106E-03     75.0777E-03     90.6245E+06    -2.62606E+06    -9.89726E+06    -96.5987E+06    -9.90016E+06    -96.5958E+06    -2.62606E+06     260.125E+03
             656     34.8335E-03     8.76423E-03     33.7129E-03     53.6584E-03    -26.7651E-03    -26.8988E-03    -26.5268E-03     53.2863E-03    -26.7651E-03     10.8967E-03     70.2072E-03     110.165E+06    -3.37165E+06    -11.1506E+06    -117.186E+06    -11.1640E+06    -117.172E+06    -3.37165E+06     521.447E+03
             657     34.5912E-03     7.79084E-03     33.7024E-03     53.6856E-03    -26.7702E-03    -26.9098E-03    -26.5864E-03     53.4070E-03    -26.8150E-03     9.42742E-03     66.3131E-03     129.939E+06    -2.98142E+06    -13.3134E+06    -137.757E+06    -13.3332E+06    -137.737E+06    -2.98142E+06     708.143E+03
             658     34.3755E-03     6.81651E-03     33.6929E-03     53.6236E-03    -26.7413E-03    -26.8802E-03    -26.5621E-03     53.4137E-03    -26.8494E-03     8.18512E-03     62.9603E-03     143.164E+06    -5.96893E+06    -15.0501E+06    -153.418E+06    -15.0673E+06    -153.401E+06    -5.96893E+06     642.136E+03
             659     34.1878E-03     5.84251E-03     33.6848E-03     53.6547E-03    -26.7427E-03    -26.9106E-03    -26.5992E-03     53.4979E-03    -26.8973E-03     7.06417E-03     60.3890E-03     156.187E+06    -7.87007E+06    -16.2129E+06    -167.995E+06    -16.2329E+06    -167.975E+06    -7.87007E+06     247.509E+03
             660     34.0284E-03     4.86839E-03     33.6784E-03     53.6586E-03    -26.7195E-03    -26.9361E-03    -26.6149E-03     53.5540E-03    -26.9361E-03     5.75113E-03     58.4559E-03     161.491E+06    -11.5957E+06    -17.0824E+06    -175.709E+06    -17.0964E+06    -175.695E+06    -11.5957E+06    -536.726E+03
             661     33.8974E-03     3.89450E-03     33.6729E-03     53.7730E-03    -26.7574E-03    -27.0165E-03    -26.7310E-03     53.7129E-03    -26.9828E-03     4.33221E-03     57.0124E-03     159.411E+06    -12.8092E+06    -18.3480E+06    -174.903E+06    -18.3538E+06    -174.897E+06    -12.8092E+06    -572.529E+03
             662     33.7959E-03     2.92101E-03     33.6695E-03     53.8843E-03    -26.8221E-03    -27.0641E-03    -26.8239E-03     53.8524E-03    -27.0304E-03     3.16705E-03     56.0044E-03     156.276E+06    -12.8785E+06    -19.4847E+06    -172.348E+06    -19.4892E+06    -172.343E+06    -12.8785E+06    -343.604E+03
             663     33.7236E-03     1.94665E-03     33.6674E-03     53.9194E-03    -26.8163E-03    -27.1027E-03    -26.7988E-03     53.9020E-03    -27.1027E-03     2.31156E-03     55.3274E-03     153.357E+06    -15.6454E+06    -21.6666E+06    -171.919E+06    -21.6775E+06    -171.908E+06    -15.6454E+06     638.720E+03
             664     33.6799E-03     973.109E-06     33.6658E-03     54.2322E-03    -26.9468E-03    -27.2847E-03    -26.9948E-03     54.2236E-03    -27.2281E-03     1.55209E-03     55.5849E-03     148.609E+06    -20.5112E+06    -28.3834E+06    -172.888E+06    -26.5263E+06    -172.856E+06    -22.4004E+06     1.99250E+06
             665     36.8668E-03     16.5632E-03     32.9366E-03     63.8877E-03    -25.5045E-03    -38.3789E-03    -25.1823E-03     51.7771E-03    -26.5906E-03     55.7498E-03     226.722E-03     183.297E+06     200.270E+06     88.2119E+06    -7.74322E+06    -7.73045E+06     200.257E+06     88.2119E+06      362.61E+03
             666     36.3420E-03     15.5836E-03     32.8312E-03     68.2553E-03    -26.3072E-03    -41.9465E-03    -26.1378E-03     52.4467E-03    -26.3072E-03     75.4831E-03     218.656E-03     179.880E+06     179.192E+06     19.9381E+06    -13.1741E+06    -13.1606E+06     179.179E+06     19.9381E+06     124.514E+03
             667     35.8870E-03     14.6109E-03     32.7780E-03     57.3716E-03    -26.2083E-03    -31.1599E-03    -25.8371E-03     52.0488E-03    -26.2083E-03     40.8263E-03     148.479E-03     154.384E+06     142.469E+06    -9.41876E+06    -14.2520E+06    -12.8909E+06     142.360E+06    -10.6708E+06     2.66793E+06
             668     35.4722E-03     13.6366E-03     32.7463E-03     54.2967E-03    -26.2790E-03    -28.0071E-03    -25.7081E-03     51.9978E-03    -26.2790E-03     27.0400E-03     117.155E-03     89.8554E+06     75.4446E+06    -8.81800E+06    -18.3586E+06    -9.89375E+06     75.3232E+06    -17.1614E+06     2.40500E+06
             669     35.0847E-03     12.6610E-03     32.7206E-03     53.7249E-03    -26.3897E-03    -27.3627E-03    -25.8669E-03     52.2291E-03    -26.3897E-03     21.5835E-03     100.464E-03     27.8384E+06     11.3881E+06    -11.0745E+06    -19.6549E+06    -8.93119E+06     9.24478E+06    -19.6549E+06     161.852E+03
             670     34.7272E-03     11.6874E-03     32.7015E-03     53.5107E-03    -26.5037E-03    -27.0672E-03    -26.1590E-03     52.6025E-03    -26.5037E-03     16.9524E-03     89.0960E-03     27.6823E+06    -8.03591E+06    -14.4865E+06    -38.0071E+06    -8.10008E+06     -36.454E+06    -15.9754E+06     349.536E+03
             671     34.3960E-03     10.7127E-03     32.6852E-03     53.5074E-03    -26.6160E-03    -26.9305E-03    -26.2651E-03     52.8419E-03    -26.6160E-03     14.5368E-03     81.3848E-03     66.5839E+06    -4.78296E+06    -11.4964E+06    -74.3519E+06    -7.24224E+06    -74.3419E+06    -9.04713E+06     75.3219E+03
             672     34.0917E-03     9.73857E-03     32.6712E-03     53.5490E-03    -26.7118E-03    -26.8520E-03    -26.3612E-03     53.0582E-03    -26.7118E-03     12.4778E-03     75.0850E-03     92.9995E+06    -2.19726E+06    -8.68813E+06    -98.1816E+06    -8.77258E+06    -98.0972E+06    -2.19726E+06     1.09119E+06
             673     33.8144E-03     8.76450E-03     32.6588E-03     53.5818E-03    -26.7118E-03    -26.8659E-03    -26.4506E-03     53.2135E-03    -26.7587E-03     10.8431E-03     70.0750E-03     110.107E+06    -3.35978E+06    -11.6179E+06    -117.286E+06    -11.7097E+06    -117.195E+06    -3.35978E+06     1.96236E+06
             674     33.5646E-03     7.79025E-03     32.6480E-03     53.6452E-03    -26.7450E-03    -26.8927E-03    -26.5374E-03     53.3568E-03    -26.8118E-03     9.59420E-03     66.2028E-03     128.930E+06    -3.18770E+06    -13.2305E+06    -136.791E+06    -13.2484E+06    -136.774E+06    -3.18770E+06     704.995E+03
             675     33.3434E-03     6.81665E-03     32.6392E-03     53.6634E-03    -26.7767E-03    -26.8805E-03    -26.5735E-03     53.4396E-03    -26.8598E-03     8.46404E-03     62.9632E-03     144.421E+06    -4.32388E+06    -13.6514E+06    -153.121E+06    -13.6664E+06    -153.106E+06    -4.32388E+06     611.489E+03
             676     33.1497E-03     5.84232E-03     32.6308E-03     53.7014E-03    -26.7844E-03    -26.9114E-03    -26.6331E-03     53.5412E-03    -26.9025E-03     7.11802E-03     60.4626E-03     155.956E+06    -6.78281E+06    -15.3004E+06    -166.797E+06    -15.3223E+06    -166.775E+06    -6.78281E+06     433.609E+03
             677     32.9855E-03     4.86853E-03     32.6242E-03     53.6927E-03    -26.7454E-03    -26.9472E-03    -26.6553E-03     53.5969E-03    -26.9416E-03     5.49641E-03     58.4296E-03     160.947E+06    -9.81912E+06    -18.3276E+06    -174.822E+06    -18.3400E+06    -174.809E+06    -9.81912E+06    -115.829E+03
             678     32.8504E-03     3.89455E-03     32.6187E-03     53.5857E-03    -26.6030E-03    -26.9841E-03    -26.5451E-03     53.5278E-03    -26.9841E-03     4.27393E-03     56.7744E-03     157.033E+06    -14.7622E+06    -21.1191E+06    -174.860E+06    -20.2865E+06    -174.854E+06    -15.6002E+06    -569.794E+03
             679     32.7454E-03     2.92012E-03     32.6150E-03     53.8271E-03    -26.7463E-03    -27.0806E-03    -26.7153E-03     53.7961E-03    -27.0806E-03     3.07265E-03     55.9256E-03     154.606E+06    -16.2899E+06    -22.4193E+06    -173.863E+06    -21.5981E+06    -173.846E+06    -17.1279E+06    -1.46913E+06
             680     32.6708E-03     1.94689E-03     32.6127E-03     54.2081E-03    -27.0235E-03    -27.1836E-03    -27.0458E-03     54.1957E-03    -27.1489E-03     1.95905E-03     55.5988E-03     153.197E+06    -15.9636E+06    -23.5291E+06    -172.800E+06    -23.5689E+06    -172.760E+06    -15.9636E+06     482.781E+03
             681     32.6248E-03     973.592E-06     32.6103E-03     54.2131E-03    -26.9869E-03    -27.2256E-03    -27.0136E-03     54.2052E-03    -27.1909E-03     1.60666E-03     55.6627E-03     148.025E+06    -18.7081E+06    -28.1678E+06    -171.233E+06    -25.6827E+06    -171.177E+06    -21.2491E+06     1.43810E+06
             682     35.9239E-03     16.5579E-03     31.8805E-03     63.5336E-03    -25.6056E-03    -37.9298E-03    -25.1563E-03     51.7500E-03    -26.5956E-03     55.9826E-03     226.707E-03     182.880E+06     201.154E+06     90.0757E+06    -6.65433E+06    -6.64872E+06     201.148E+06     90.0757E+06     924.825E+03
             683     35.3958E-03     15.5871E-03     31.7790E-03     67.8051E-03    -26.2914E-03    -41.5185E-03    -25.9919E-03     52.2784E-03    -26.2914E-03     74.7898E-03     218.028E-03     179.531E+06     178.810E+06     22.1298E+06    -14.5916E+06    -9.69157E+06     178.807E+06     17.2330E+06     546.495E+03
             684     34.9248E-03     14.6106E-03     31.7218E-03     57.3549E-03    -26.1992E-03    -31.1485E-03    -25.7341E-03     51.9405E-03    -26.1992E-03     40.9094E-03     148.298E-03     151.709E+06     139.497E+06    -8.19660E+06    -15.7421E+06    -9.58379E+06     139.488E+06    -14.3454E+06     748.253E+03
             685     34.5025E-03     13.6364E-03     31.6934E-03     54.4070E-03    -26.2975E-03    -28.0989E-03    -25.8268E-03     52.1349E-03    -26.2975E-03     26.9606E-03     116.986E-03     90.2922E+06     77.5910E+06    -7.61498E+06    -16.4789E+06    -8.91268E+06     77.5547E+06    -15.1450E+06     1.50458E+06
             686     34.1042E-03     12.6618E-03     31.6667E-03     53.8328E-03    -26.3949E-03    -27.4661E-03    -25.9367E-03     52.3034E-03    -26.3949E-03     21.8054E-03     100.368E-03     32.3324E+06     15.0064E+06    -13.2777E+06    -20.0859E+06    -8.79181E+06     10.2201E+06    -19.7855E+06     1.23103E+06
             687     33.7361E-03     11.6868E-03     31.6472E-03     53.4813E-03    -26.5135E-03    -27.0224E-03    -26.1297E-03     52.5886E-03    -26.5135E-03     16.7995E-03     89.0099E-03     26.7427E+06    -8.45275E+06    -15.9546E+06    -36.6970E+06    -9.10355E+06    -36.3502E+06    -15.6506E+06     606.608E+03
             688     33.3965E-03     10.7129E-03     31.6317E-03     53.5640E-03    -26.6173E-03    -26.9832E-03    -26.3183E-03     52.8991E-03    -26.6173E-03     14.5492E-03     81.4744E-03     64.0527E+06    -7.69953E+06    -12.2261E+06    -73.7869E+06    -9.84846E+06    -73.7679E+06    -10.0961E+06     288.334E+03
             689     33.0825E-03     9.73871E-03     31.6166E-03     53.6295E-03    -26.7005E-03    -26.9414E-03    -26.4423E-03     53.1305E-03    -26.7005E-03     12.5912E-03     75.1191E-03     93.7124E+06    -3.93986E+06    -10.0152E+06    -100.472E+06    -10.1097E+06    -100.377E+06    -3.93986E+06     1.33326E+06
             690     32.7979E-03     8.76471E-03     31.6051E-03     53.5064E-03    -26.6788E-03    -26.8142E-03    -26.3683E-03     53.1382E-03    -26.7564E-03     10.8278E-03     69.9459E-03     110.671E+06    -1.28057E+06    -8.98416E+06    -115.546E+06    -9.06752E+06    -115.462E+06    -1.28057E+06     1.59123E+06
             691     32.5403E-03     7.79037E-03     31.5940E-03     53.5448E-03    -26.7010E-03    -26.8347E-03    -26.4123E-03     53.2560E-03    -26.8347E-03     9.58814E-03     66.1711E-03     132.625E+06     913.750E+03    -9.41323E+06    -136.535E+06    -9.42415E+06    -136.525E+06     913.750E+03     1.07269E+06
             692     32.3120E-03     6.81599E-03     31.5849E-03     53.7750E-03    -26.8296E-03    -26.9454E-03    -26.6732E-03     53.5589E-03    -26.8855E-03     8.30111E-03     63.1572E-03     147.469E+06    -828.425E+03    -12.5378E+06    -153.774E+06    -12.5529E+06    -153.759E+06    -828.425E+03     1.17948E+06
             693     32.1126E-03     5.84256E-03     31.5766E-03     53.7765E-03    -26.8147E-03    -26.9588E-03    -26.7262E-03     53.6226E-03    -26.8934E-03     7.00233E-03     60.5484E-03     154.536E+06    -7.22218E+06    -15.7355E+06    -165.833E+06    -15.7546E+06    -165.814E+06    -7.22218E+06     1.40296E+06
             694     31.9428E-03     4.86877E-03     31.5696E-03     53.6702E-03    -26.7466E-03    -26.9250E-03    -26.6530E-03     53.5710E-03    -26.9194E-03     5.58221E-03     58.4357E-03     159.599E+06    -11.0641E+06    -18.0782E+06    -174.035E+06    -18.0942E+06    -174.019E+06    -11.0641E+06     1.23355E+06
             695     31.8045E-03     3.89469E-03     31.5651E-03     53.6656E-03    -26.7118E-03    -26.9525E-03    -26.6630E-03     53.6099E-03    -26.9456E-03     4.18130E-03     56.9332E-03     155.597E+06    -15.0319E+06    -20.7696E+06    -173.398E+06    -19.9404E+06    -173.389E+06    -15.8699E+06    -197.649E+03
             696     31.6954E-03     2.92076E-03     31.5605E-03     53.8045E-03    -26.8045E-03    -26.9978E-03    -26.7804E-03     53.7734E-03    -26.9909E-03     3.11398E-03     55.9285E-03     153.533E+06    -18.6998E+06    -23.4965E+06    -174.563E+06    -22.2157E+06    -174.548E+06    -19.9952E+06    -997.973E+03
             697     31.6172E-03     1.94710E-03     31.5572E-03     54.0731E-03    -26.9484E-03    -27.1238E-03    -27.0628E-03     54.0588E-03    -26.9951E-03     2.03647E-03     55.4545E-03     153.312E+06    -19.2309E+06    -23.8848E+06    -174.790E+06    -23.2785E+06    -174.683E+06    -19.9438E+06    -1.31923E+06
             698     31.5708E-03     973.721E-06     31.5558E-03     53.8775E-03    -26.8362E-03    -27.0406E-03    -26.9647E-03     53.8716E-03    -26.9063E-03     1.35408E-03     55.2379E-03     148.721E+06    -17.9051E+06    -25.4966E+06    -170.237E+06    -22.8179E+06    -170.119E+06    -20.7015E+06    -926.802E+03
             699     34.9942E-03     16.5638E-03     30.8259E-03     63.4898E-03    -26.0448E-03    -37.4431E-03    -25.1603E-03     51.7042E-03    -26.5421E-03     55.0110E-03     225.669E-03     182.611E+06     201.263E+06     88.0325E+06    -5.40535E+06    -5.40333E+06     201.261E+06     88.0325E+06      89.852E+03
             700     34.4520E-03     15.5847E-03     30.7255E-03     67.4688E-03    -26.2538E-03    -41.2152E-03    -25.4478E-03     51.7014E-03    -26.2538E-03     75.0389E-03     217.486E-03     179.365E+06     178.807E+06     20.1465E+06    -14.0371E+06    -9.13295E+06     178.800E+06     15.2496E+06     528.650E+03
             701     33.9707E-03     14.6105E-03     30.6682E-03     57.2466E-03    -26.1876E-03    -31.0495E-03    -25.5641E-03     51.7612E-03    -26.1876E-03     40.8633E-03     148.154E-03     152.067E+06     137.661E+06    -8.32531E+06    -19.6291E+06    -10.6217E+06     137.653E+06    -17.3256E+06     845.803E+03
             702     33.5360E-03     13.6352E-03     30.6389E-03     54.2689E-03    -26.2905E-03    -27.9722E-03    -25.7940E-03     52.0906E-03    -26.2905E-03     26.3860E-03     116.872E-03     91.9873E+06     76.5718E+06    -9.41826E+06    -20.2065E+06    -10.7157E+06     76.5354E+06    -18.8726E+06     1.18099E+06
             703     33.1276E-03     12.6614E-03     30.6125E-03     53.9725E-03    -26.3937E-03    -27.6225E-03    -26.1148E-03     52.4649E-03    -26.3937E-03     21.6396E-03     100.436E-03     34.3649E+06     16.4224E+06    -14.1738E+06    -20.6116E+06    -9.51307E+06     11.4613E+06    -20.3113E+06     1.76769E+06
             704     32.7501E-03     11.6873E-03     30.5937E-03     53.4630E-03    -26.5063E-03    -27.0250E-03    -26.1529E-03     52.5909E-03    -26.5063E-03     16.6261E-03     88.9882E-03     26.9033E+06    -9.07971E+06    -15.8571E+06    -37.2788E+06    -9.87153E+06    -36.2343E+06    -16.1098E+06     1.91001E+06
             705     32.3993E-03     10.7127E-03     30.5770E-03     53.5154E-03    -26.6143E-03    -26.9400E-03    -26.2775E-03     52.8529E-03    -26.6143E-03     14.4989E-03     81.4533E-03     63.1676E+06    -8.21646E+06    -12.7076E+06    -73.4903E+06    -11.3592E+06    -73.3691E+06    -9.68608E+06     1.70159E+06
             706     32.0772E-03     9.73869E-03     30.5632E-03     53.5205E-03    -26.6694E-03    -26.8629E-03    -26.3628E-03     53.0248E-03    -26.6737E-03     12.5509E-03     74.9865E-03     90.0548E+06    -8.00490E+06    -11.6052E+06    -99.7905E+06    -11.6381E+06    -99.7575E+06    -8.00490E+06    -258.360E+03
             707     31.7828E-03     8.76446E-03     30.5505E-03     53.5153E-03    -26.6957E-03    -26.8091E-03    -26.4034E-03     53.1447E-03    -26.7308E-03     10.8555E-03     69.9306E-03     107.747E+06    -5.59780E+06    -10.2286E+06    -115.567E+06    -10.2540E+06    -115.541E+06    -5.59780E+06    -606.996E+03
             708     31.5185E-03     7.79039E-03     30.5406E-03     53.6574E-03    -26.7411E-03    -26.9042E-03    -26.5513E-03     53.3715E-03    -26.8080E-03     9.56287E-03     66.2949E-03     130.736E+06    -2.13918E+06    -10.0569E+06    -136.648E+06    -10.0779E+06    -136.627E+06    -2.13918E+06     1.32377E+06
             709     31.2818E-03     6.81657E-03     30.5300E-03     53.7290E-03    -26.7534E-03    -26.9724E-03    -26.6491E-03     53.5168E-03    -26.8646E-03     8.21295E-03     63.1587E-03     148.635E+06    -711.793E+03    -11.8483E+06    -154.566E+06    -11.8896E+06    -154.524E+06    -711.793E+03     2.36596E+06
             710     31.0766E-03     5.84271E-03     30.5224E-03     53.6884E-03    -26.7387E-03    -26.9497E-03    -26.6532E-03     53.5465E-03    -26.8932E-03     6.70770E-03     60.4951E-03     157.095E+06    -3.40992E+06    -14.5430E+06    -165.738E+06    -14.6097E+06    -165.671E+06    -3.40992E+06     3.00384E+06
             711     30.9019E-03     4.86825E-03     30.5161E-03     53.6660E-03    -26.7758E-03    -26.8917E-03    -26.6794E-03     53.5696E-03    -26.8917E-03     5.52766E-03     58.4517E-03     157.794E+06    -11.9423E+06    -17.0908E+06    -172.216E+06    -17.1386E+06    -172.168E+06    -11.9423E+06     1.97159E+06
             712     30.7576E-03     3.89477E-03     30.5100E-03     53.8138E-03    -26.8584E-03    -26.9544E-03    -26.8594E-03     53.7552E-03    -26.8948E-03     4.28238E-03     57.0918E-03     156.339E+06    -15.2090E+06    -18.7632E+06    -173.280E+06    -18.7728E+06    -173.270E+06    -15.2090E+06     542.926E+03
             713     30.6463E-03     2.92142E-03     30.5067E-03     53.8330E-03    -26.8349E-03    -26.9956E-03    -26.9153E-03     53.7989E-03    -26.8811E-03     3.30834E-03     55.9348E-03     154.684E+06    -15.1222E+06    -20.4760E+06    -172.397E+06    -20.0251E+06    -172.390E+06    -15.5797E+06     636.592E+03
             714     30.5646E-03     1.94734E-03     30.5025E-03     53.7017E-03    -26.7138E-03    -26.9871E-03    -26.8454E-03     53.6843E-03    -26.8381E-03     2.19771E-03     55.1122E-03     152.629E+06    -19.5996E+06    -24.1204E+06    -174.414E+06    -23.4850E+06    -174.337E+06    -20.3125E+06    -1.43396E+06
             715     30.5166E-03     974.074E-06     30.5010E-03     53.5758E-03    -26.6896E-03    -26.8859E-03    -26.8024E-03     53.5704E-03    -26.7677E-03     1.30284E-03     54.9121E-03     148.343E+06    -23.4842E+06    -29.8294E+06    -174.867E+06    -27.8865E+06    -174.741E+06    -25.5531E+06    -2.46546E+06
             716     34.0724E-03     16.5619E-03     29.7763E-03     63.9764E-03    -25.8756E-03    -38.1006E-03    -25.2694E-03     51.7934E-03    -26.5238E-03     55.2882E-03     225.676E-03     182.838E+06     201.372E+06     87.8374E+06    -5.80044E+06    -5.78884E+06     201.360E+06     87.8374E+06     518.255E+03
             717     33.5162E-03     15.5865E-03     29.6714E-03     68.0112E-03    -26.2389E-03    -41.7717E-03    -25.7100E-03     51.9495E-03    -26.2389E-03     75.8389E-03     217.888E-03     179.460E+06     179.026E+06     19.0972E+06    -12.7124E+06    -10.9132E+06     179.009E+06     17.3145E+06     892.195E+03
             718     33.0223E-03     14.6112E-03     29.6139E-03     56.9713E-03    -26.1365E-03    -30.8263E-03    -25.5904E-03     51.7354E-03    -26.1365E-03     39.9070E-03     148.257E-03     154.091E+06     137.633E+06    -11.0882E+06    -21.1338E+06    -12.0486E+06     137.624E+06    -20.1642E+06     90.2932E+03
             719     32.5772E-03     13.6368E-03     29.5857E-03     53.9341E-03    -26.2378E-03    -27.6885E-03    -25.5733E-03     51.8190E-03    -26.2378E-03     25.9220E-03     116.706E-03     92.4239E+06      75.285E+06    -9.61695E+06    -23.0014E+06    -9.58402E+06     75.2521E+06    -23.0014E+06     486.817E+03
             720     32.1555E-03     12.6615E-03     29.5578E-03     53.7593E-03    -26.3757E-03    -27.4269E-03    -25.9621E-03     52.2945E-03    -26.3757E-03     21.2435E-03     100.287E-03     32.2283E+06     14.7818E+06    -13.2144E+06    -20.3196E+06    -9.28068E+06     10.6205E+06    -20.0922E+06     2.17769E+06
             721     31.7680E-03     11.6874E-03     29.5400E-03     53.4708E-03    -26.4807E-03    -27.0642E-03    -26.2216E-03     52.6282E-03    -26.4807E-03     16.3624E-03     89.0642E-03     27.1797E+06    -8.72252E+06    -15.5160E+06    -37.3591E+06    -9.29554E+06    -35.9996E+06    -16.3026E+06     2.81871E+06
             722     31.4068E-03     10.7132E-03     29.5231E-03     53.4525E-03    -26.5809E-03    -26.9125E-03    -26.2656E-03     52.8055E-03    -26.5809E-03     14.3141E-03     81.3829E-03     62.8915E+06    -6.79769E+06    -11.0292E+06    -71.6664E+06    -8.72297E+06    -71.5376E+06    -9.23263E+06     2.02759E+06
             723     31.0744E-03     9.73883E-03     29.5088E-03     53.3962E-03    -26.6383E-03    -26.7691E-03    -26.2973E-03     52.9288E-03    -26.6426E-03     12.1621E-03     74.8711E-03     88.5764E+06    -7.27960E+06    -9.75632E+06    -97.0563E+06    -9.29160E+06    -97.0256E+06    -7.77498E+06         481.438
             724     30.7716E-03     8.76449E-03     29.4970E-03     53.5080E-03    -26.6920E-03    -26.8159E-03    -26.4571E-03     53.1536E-03    -26.6964E-03     10.6262E-03     69.8686E-03     107.691E+06    -8.32523E+06    -11.8257E+06    -117.711E+06    -11.3515E+06    -117.690E+06    -8.82062E+06    -584.492E+03
             725     30.4975E-03     7.79070E-03     29.4856E-03     53.6527E-03    -26.7565E-03    -26.8984E-03    -26.6041E-03     53.3735E-03    -26.7716E-03     9.44500E-03     66.2365E-03     129.455E+06    -4.57780E+06    -12.8182E+06    -137.920E+06    -12.8362E+06    -137.902E+06    -4.57780E+06     1.04877E+06
             726     30.2546E-03     6.81690E-03     29.4766E-03     53.6343E-03    -26.7374E-03    -26.8991E-03    -26.5980E-03     53.4233E-03    -26.8275E-03     8.20629E-03     63.0170E-03     147.463E+06    -1.39793E+06    -13.9477E+06    -154.693E+06    -14.0024E+06    -154.638E+06    -1.39793E+06     2.71371E+06
             727     30.0416E-03     5.84245E-03     29.4680E-03     53.6794E-03    -26.7731E-03    -26.9058E-03    -26.6920E-03     53.5415E-03    -26.8489E-03     6.57726E-03     60.4611E-03     156.652E+06    -3.10380E+06    -15.3102E+06    -165.473E+06    -15.3832E+06    -165.400E+06    -3.10380E+06     2.92688E+06
             728     29.8615E-03     4.86932E-03     29.4618E-03     53.6661E-03    -26.7997E-03    -26.8665E-03    -26.7532E-03     53.5824E-03    -26.8294E-03     5.17346E-03     58.4357E-03     156.706E+06    -9.82766E+06    -16.3766E+06    -169.664E+06    -16.4358E+06    -169.605E+06    -9.82766E+06     2.06575E+06
             729     29.7124E-03     3.89497E-03     29.4560E-03     53.6530E-03    -26.7825E-03    -26.8711E-03    -26.7785E-03     53.5959E-03    -26.8180E-03     4.24927E-03     56.9284E-03     156.776E+06    -13.9303E+06    -17.9325E+06    -172.658E+06    -17.9608E+06    -172.630E+06    -13.9303E+06     1.39555E+06
             730     29.5962E-03     2.92124E-03     29.4517E-03     53.7028E-03    -26.7923E-03    -26.9106E-03    -26.8708E-03     53.6695E-03    -26.7989E-03     3.22826E-03     55.7921E-03     154.635E+06    -14.2561E+06    -21.1349E+06    -172.205E+06    -21.1478E+06    -172.192E+06    -14.2561E+06     1.32200E+06
             731     29.5131E-03     1.94818E-03     29.4487E-03     53.4578E-03    -26.6255E-03    -26.8329E-03    -26.6679E-03     53.4411E-03    -26.7739E-03     2.23762E-03     54.8694E-03     151.554E+06    -17.5144E+06    -24.7714E+06    -172.560E+06    -24.7815E+06    -172.550E+06    -17.5144E+06     888.948E+03
             732     29.4631E-03     973.330E-06     29.4470E-03     53.4595E-03    -26.6300E-03    -26.8288E-03    -26.6715E-03     53.4506E-03    -26.7783E-03     1.67786E-03     54.8625E-03     148.333E+06    -25.8016E+06    -31.2993E+06    -176.800E+06    -29.5692E+06    -176.717E+06    -27.6151E+06     133.594E+03
             733     33.1537E-03     16.5604E-03     28.7214E-03     64.1952E-03    -25.4309E-03    -38.7704E-03    -25.7147E-03     52.2260E-03    -26.5175E-03     54.8580E-03     225.744E-03     182.114E+06     198.880E+06     83.2693E+06    -6.69412E+06    -6.68342E+06     198.870E+06     83.2693E+06     731.205E+03
             734     32.5865E-03     15.5870E-03     28.6169E-03     68.4103E-03    -26.2206E-03    -42.1928E-03    -26.4287E-03     52.6462E-03    -26.2206E-03     75.6544E-03     217.751E-03     178.604E+06     180.190E+06     20.5297E+06    -11.0763E+06    -9.27925E+06     180.176E+06     18.7470E+06     1.22612E+06
             735     32.0820E-03     14.6125E-03     28.5610E-03     56.7537E-03    -26.1091E-03    -30.6373E-03    -25.3765E-03     51.4929E-03    -26.1091E-03     40.2582E-03     147.973E-03     154.501E+06     140.557E+06    -6.80017E+06    -20.0915E+06    -10.5977E+06     140.542E+06    -16.2788E+06     479.406E+03
             736     31.6230E-03     13.6369E-03     28.5316E-03     54.0094E-03    -26.1903E-03    -27.8130E-03    -25.5498E-03     51.7462E-03    -26.1903E-03     26.7456E-03     116.623E-03     93.6553E+06     73.8944E+06    -11.6694E+06    -25.9627E+06    -11.6477E+06     73.8727E+06    -25.9627E+06     372.150E+03
             737     31.1907E-03     12.6625E-03     28.5048E-03     53.6718E-03    -26.3308E-03    -27.3781E-03    -25.9035E-03     52.1972E-03    -26.3308E-03     21.3654E-03     100.180E-03     33.3126E+06     13.8202E+06    -15.1602E+06    -22.5197E+06    -10.4874E+06     8.91995E+06    -22.2923E+06     1.85895E+06
             738     30.7898E-03     11.6876E-03     28.4853E-03     53.3808E-03    -26.4449E-03    -26.9930E-03    -26.1392E-03     52.5270E-03    -26.4449E-03     16.4182E-03     89.0847E-03     27.5694E+06    -8.22877E+06    -15.2017E+06    -36.9561E+06    -8.84148E+06    -35.8088E+06    -15.7364E+06     2.80461E+06
             739     30.4186E-03     10.7137E-03     28.4694E-03     53.5095E-03    -26.5394E-03    -26.9987E-03    -26.3773E-03     52.8881E-03    -26.5394E-03     14.0474E-03     81.4977E-03     61.6577E+06    -6.45053E+06    -10.3686E+06    -69.9594E+06    -8.67915E+06    -69.8752E+06    -8.22417E+06     1.66803E+06
             740     30.0757E-03     9.73924E-03     28.4551E-03     53.3751E-03    -26.5945E-03    -26.7979E-03    -26.3366E-03     52.9283E-03    -26.6090E-03     11.8868E-03     74.8218E-03     88.6857E+06    -4.50570E+06    -10.1414E+06    -95.8167E+06    -9.69389E+06    -95.7688E+06    -5.00109E+06     1.55630E+06
             741     29.7630E-03     8.76538E-03     28.4430E-03     53.3854E-03    -26.6505E-03    -26.7472E-03    -26.3859E-03     53.0386E-03    -26.6649E-03     10.5137E-03     69.6841E-03     109.240E+06    -5.74294E+06    -12.5116E+06    -118.158E+06    -12.0670E+06    -118.108E+06    -6.23833E+06     1.69074E+06
             742     29.4799E-03     7.79110E-03     28.4318E-03     53.5226E-03    -26.7068E-03    -26.8247E-03    -26.5357E-03     53.2486E-03    -26.7218E-03     9.32367E-03     66.0648E-03     129.707E+06    -5.01861E+06    -14.6034E+06    -139.224E+06    -14.6209E+06    -139.207E+06    -5.01861E+06     1.21620E+06
             743     29.2284E-03     6.81679E-03     28.4224E-03     53.5972E-03    -26.7473E-03    -26.8563E-03    -26.6488E-03     53.4048E-03    -26.7624E-03     7.82861E-03     62.9392E-03     146.255E+06    -2.51810E+06    -15.6141E+06    -154.861E+06    -15.6414E+06    -154.834E+06    -2.51810E+06     1.59484E+06
             744     29.0085E-03     5.84353E-03     28.4139E-03     53.5567E-03    -26.7241E-03    -26.8344E-03    -26.6549E-03     53.4216E-03    -26.7686E-03     6.54246E-03     60.2701E-03     154.860E+06    -4.34630E+06    -16.2799E+06    -164.806E+06    -16.3083E+06    -164.778E+06    -4.34630E+06     1.60858E+06
             745     28.8217E-03     4.86924E-03     28.4074E-03     53.5909E-03    -26.7071E-03    -26.8850E-03    -26.7516E-03     53.5019E-03    -26.7516E-03     5.31106E-03     58.3163E-03     156.223E+06    -8.32687E+06    -17.7261E+06    -169.021E+06    -17.7612E+06    -168.986E+06    -8.32687E+06     1.98885E+06
             746     28.6683E-03     3.89584E-03     28.4024E-03     53.5271E-03    -26.7117E-03    -26.8161E-03    -26.7511E-03     53.4698E-03    -26.7193E-03     4.26689E-03     56.7622E-03     154.795E+06    -12.5017E+06    -20.0678E+06    -170.927E+06    -20.1301E+06    -170.865E+06    -12.5017E+06     2.68391E+06
             747     28.5471E-03     2.92183E-03     28.3972E-03     53.3124E-03    -26.6084E-03    -26.7054E-03    -26.5812E-03     53.2811E-03    -26.7013E-03     3.08375E-03     55.4658E-03     152.272E+06    -16.7141E+06    -22.6438E+06    -171.845E+06    -22.6856E+06    -171.803E+06    -16.7141E+06     1.57643E+06
             748     28.4617E-03     1.94731E-03     28.3950E-03     53.3698E-03    -26.5419E-03    -26.8286E-03    -26.6595E-03     53.3561E-03    -26.6973E-03     2.05297E-03     54.8838E-03     150.858E+06    -19.1325E+06    -24.2755E+06    -172.478E+06    -24.2895E+06    -172.464E+06    -19.1325E+06     958.328E+03
             749     28.4095E-03     974.077E-06     28.3928E-03     53.3091E-03    -26.5247E-03    -26.7836E-03    -26.6756E-03     53.3008E-03    -26.6245E-03     1.59971E-03     54.7414E-03     147.612E+06    -23.9298E+06    -27.4521E+06    -173.264E+06    -27.2816E+06    -173.213E+06    -24.1512E+06     2.27476E+06
             750     32.2461E-03     16.5623E-03     27.6677E-03     64.3359E-03    -25.8103E-03    -38.5294E-03    -25.8722E-03     52.3588E-03    -26.4904E-03     55.2656E-03     225.837E-03     181.875E+06     198.073E+06     81.6278E+06    -6.30243E+06    -6.29263E+06     198.063E+06     81.6278E+06     528.931E+03
             751     31.6632E-03     15.5874E-03     27.5607E-03     67.9809E-03    -26.2083E-03    -41.7785E-03    -26.0514E-03     52.2538E-03    -26.2083E-03     75.2564E-03     217.824E-03     177.658E+06     178.960E+06     18.0112E+06    -10.6323E+06    -10.6158E+06     178.944E+06     18.0112E+06     1.63427E+06
             752     31.1492E-03     14.6119E-03     27.5094E-03     56.9254E-03    -26.1197E-03    -30.8038E-03    -25.4437E-03     51.5653E-03    -26.1197E-03     40.8006E-03     148.373E-03     155.226E+06     141.568E+06    -6.44560E+06    -19.8777E+06    -12.2553E+06     141.551E+06    -14.0503E+06     1.60046E+06
             753     30.6744E-03     13.6368E-03     27.4765E-03     54.3164E-03    -26.1767E-03    -28.1431E-03    -25.8250E-03     51.9983E-03    -26.1767E-03     27.1360E-03     116.917E-03     93.9989E+06     74.4176E+06    -12.0488E+06    -25.4660E+06    -12.0304E+06     74.3993E+06    -25.4660E+06     969.404E+03
             754     30.2310E-03     12.6627E-03     27.4512E-03     53.7508E-03    -26.3067E-03    -27.4857E-03    -26.0273E-03     52.2924E-03    -26.3067E-03     21.3397E-03     100.358E-03     32.3521E+06     12.4249E+06    -15.9470E+06    -22.7816E+06    -11.1670E+06     7.15743E+06    -22.2942E+06     733.235E+03
             755     29.8180E-03     11.6883E-03     27.4317E-03     53.3723E-03    -26.4122E-03    -27.0069E-03    -26.1170E-03     52.4825E-03    -26.4122E-03     16.7639E-03     89.0263E-03     26.2868E+06    -9.79264E+06    -15.6496E+06    -36.9590E+06    -10.0372E+06    -36.1798E+06    -16.1842E+06     1.94605E+06
             756     29.4341E-03     10.7139E-03     27.4149E-03     53.4794E-03    -26.5158E-03    -26.9833E-03    -26.3457E-03     52.8418E-03    -26.5158E-03     14.2057E-03     81.4327E-03     61.1630E+06    -5.73958E+06    -10.7913E+06    -69.2401E+06    -10.0244E+06    -69.0696E+06    -6.67703E+06     2.66760E+06
             757     29.0811E-03     9.74036E-03     27.4014E-03     53.4618E-03    -26.5592E-03    -26.9167E-03    -26.4453E-03     53.0049E-03    -26.5736E-03     12.0496E-03     74.9019E-03     88.6863E+06    -3.98713E+06    -11.8179E+06    -96.2803E+06    -11.9495E+06    -96.1487E+06    -3.98713E+06     2.86931E+06
             758     28.7576E-03     8.76560E-03     27.3891E-03     53.3616E-03    -26.5921E-03    -26.7724E-03    -26.4040E-03     53.0077E-03    -26.6066E-03     10.6128E-03     69.6616E-03     108.059E+06    -5.43397E+06    -13.3164E+06    -117.181E+06    -13.4043E+06    -117.093E+06    -5.43397E+06     2.91549E+06
             759     28.4649E-03     7.79157E-03     27.3778E-03     53.4530E-03    -26.6426E-03    -26.8122E-03    -26.5339E-03     53.1747E-03    -26.6426E-03     9.40226E-03     65.9748E-03     127.972E+06    -6.14232E+06    -14.4762E+06    -138.073E+06    -14.5080E+06    -138.041E+06    -6.14232E+06     1.63889E+06
             760     28.2044E-03     6.81822E-03     27.3679E-03     53.4755E-03    -26.6707E-03    -26.8094E-03    -26.6109E-03     53.2769E-03    -26.6707E-03     7.92852E-03     62.7542E-03     144.323E+06    -5.70131E+06    -16.1214E+06    -154.922E+06    -16.1237E+06    -154.920E+06    -5.70131E+06     353.995E+03
             761     27.9774E-03     5.84362E-03     27.3604E-03     53.4092E-03    -26.6359E-03    -26.7740E-03    -26.5928E-03     53.2724E-03    -26.6803E-03     6.58553E-03     60.0641E-03     153.790E+06    -6.37295E+06    -16.8207E+06    -165.089E+06    -16.8343E+06    -165.075E+06    -6.37295E+06     1.00260E+06
             762     27.7833E-03     4.86963E-03     27.3532E-03     53.4356E-03    -26.6158E-03    -26.8210E-03    -26.6856E-03     53.3446E-03    -26.6602E-03     5.35643E-03     58.1277E-03     155.247E+06    -10.1834E+06    -18.4429E+06    -169.381E+06    -18.4732E+06    -169.351E+06    -10.1834E+06     2.10636E+06
             763     27.6238E-03     3.89596E-03     27.3476E-03     53.3614E-03    -26.6284E-03    -26.7336E-03    -26.6787E-03     53.3076E-03    -26.6295E-03     4.10563E-03     56.5910E-03     153.820E+06    -12.9628E+06    -20.4949E+06    -170.396E+06    -20.5457E+06    -170.345E+06    -12.9628E+06     2.27870E+06
             764     27.5001E-03     2.92202E-03     27.3444E-03     53.1684E-03    -26.5261E-03    -26.6425E-03    -26.5254E-03     53.1376E-03    -26.6124E-03     3.08770E-03     55.3015E-03     152.276E+06    -14.5332E+06    -21.1631E+06    -169.986E+06    -21.2082E+06    -169.941E+06    -14.5332E+06     1.57008E+06
             765     27.4098E-03     1.94804E-03     27.3405E-03     53.1868E-03    -26.4428E-03    -26.7440E-03    -26.5766E-03     53.1701E-03    -26.5934E-03     2.23768E-03     54.6415E-03     150.431E+06    -18.1488E+06    -24.2329E+06      -171.5E+06    -24.2511E+06    -171.482E+06    -18.1488E+06     1.08345E+06
             766     27.3559E-03     974.428E-06     27.3386E-03     53.0793E-03    -26.3916E-03    -26.6875E-03    -26.5841E-03     53.0709E-03    -26.4866E-03     1.59718E-03     54.4539E-03     146.696E+06    -23.6622E+06    -26.8183E+06    -171.892E+06    -26.6075E+06    -171.881E+06    -23.8837E+06     1.07264E+06
             767     31.3432E-03     16.5621E-03     26.6100E-03     63.9937E-03    -25.9381E-03    -38.0514E-03    -25.3634E-03     51.8755E-03    -26.5080E-03     56.0841E-03     226.070E-03     181.341E+06     197.450E+06     82.7881E+06    -6.55918E+06    -6.54957E+06     197.441E+06     82.7881E+06     595.987E+03
             768     30.7531E-03     15.5866E-03     26.5106E-03     68.0904E-03    -26.2392E-03    -41.8496E-03    -25.8015E-03     52.0423E-03    -26.2392E-03     76.0384E-03     218.207E-03     176.787E+06     178.217E+06     17.8220E+06    -10.0010E+06    -9.96428E+06     178.180E+06     17.8220E+06     2.13104E+06
             769     30.2198E-03     14.6110E-03     26.4529E-03     57.6626E-03    -26.1289E-03    -31.5301E-03    -26.0197E-03     52.1521E-03    -26.1289E-03     41.3342E-03     148.257E-03     157.121E+06     142.853E+06    -7.63151E+06    -19.9790E+06    -11.6780E+06     142.820E+06    -15.8990E+06     2.04055E+06
             770     29.7358E-03     13.6379E-03     26.4240E-03     54.4751E-03    -26.1651E-03    -28.3110E-03    -26.0472E-03     52.2113E-03    -26.1651E-03     26.9592E-03     116.926E-03     95.4876E+06     74.9987E+06    -11.0971E+06    -27.0819E+06    -11.0836E+06     74.9852E+06    -27.0819E+06     961.004E+03
             771     29.2767E-03     12.6626E-03     26.3967E-03     53.8742E-03    -26.2942E-03    -27.6226E-03    -26.0899E-03     52.3415E-03    -26.2942E-03     21.8269E-03     100.446E-03     31.9314E+06     11.6641E+06    -14.8908E+06    -23.5211E+06    -9.71900E+06     6.00488E+06    -23.0338E+06     1.18293E+06
             772     28.8519E-03     11.6888E-03     26.3782E-03     53.5279E-03    -26.3919E-03    -27.2014E-03    -26.2952E-03     52.6218E-03    -26.3919E-03     16.9695E-03     89.0820E-03     26.7392E+06    -9.13351E+06    -16.5231E+06    -37.1330E+06     -9.4539E+06    -36.3869E+06    -16.9487E+06     1.63665E+06
             773     28.4552E-03     10.7142E-03     26.3610E-03     53.4218E-03    -26.4976E-03    -26.9580E-03    -26.2987E-03     52.7625E-03    -26.4976E-03     14.4355E-03     81.3212E-03     62.8661E+06    -4.50912E+06    -11.6299E+06    -70.5811E+06    -9.86607E+06    -70.4018E+06    -6.45219E+06     3.18827E+06
             774     28.0897E-03     9.73966E-03     26.3471E-03     53.5114E-03    -26.5496E-03    -26.9710E-03    -26.5119E-03     53.0523E-03    -26.5496E-03     12.0737E-03     75.0364E-03     89.4119E+06    -2.72009E+06    -10.8738E+06    -95.8813E+06    -11.0937E+06    -95.6615E+06    -2.72009E+06     4.17316E+06
             775     27.7561E-03     8.76644E-03     26.3354E-03     53.4772E-03    -26.5494E-03    -26.9197E-03    -26.5663E-03     53.1238E-03    -26.5494E-03     10.6262E-03     69.7826E-03     105.902E+06    -6.37249E+06    -12.7716E+06    -115.307E+06    -12.8737E+06    -115.205E+06    -6.37249E+06     2.94029E+06
             776     27.4529E-03     7.79240E-03     26.3237E-03     53.3349E-03    -26.5718E-03    -26.7555E-03    -26.4619E-03     53.0412E-03    -26.5718E-03     9.66447E-03     65.8415E-03     125.957E+06     -7.9878E+06    -13.4603E+06    -136.570E+06    -13.4866E+06    -136.543E+06     -7.9878E+06     1.48030E+06
             777     27.1831E-03     6.81764E-03     26.3143E-03     53.4134E-03    -26.5969E-03    -26.8190E-03    -26.6097E-03     53.2040E-03    -26.5969E-03     8.11571E-03     62.7354E-03     143.499E+06    -7.93526E+06    -14.3277E+06    -154.506E+06    -14.3351E+06    -154.498E+06    -7.93526E+06     698.868E+03
             778     26.9476E-03     5.84420E-03     26.3063E-03     53.4603E-03    -26.5968E-03    -26.8636E-03    -26.7322E-03     53.3289E-03    -26.5968E-03     6.45450E-03     60.1673E-03     154.132E+06    -7.30527E+06    -16.9486E+06    -166.024E+06    -16.9610E+06    -166.011E+06    -7.30527E+06     1.01123E+06
             779     26.7466E-03     4.87058E-03     26.2994E-03     53.1954E-03    -26.5206E-03    -26.6748E-03    -26.5460E-03     53.1079E-03    -26.5618E-03     5.25755E-03     57.9206E-03     154.778E+06    -11.1677E+06    -18.9014E+06    -169.641E+06    -18.9231E+06    -169.619E+06    -11.1677E+06     1.66083E+06
             780     26.5813E-03     3.89616E-03     26.2942E-03     53.0760E-03    -26.5114E-03    -26.5661E-03    -26.4707E-03     53.0218E-03    -26.5526E-03     4.09694E-03     56.2904E-03     154.030E+06    -12.9609E+06    -18.6258E+06    -169.743E+06    -18.6458E+06    -169.723E+06    -12.9609E+06     1.48436E+06
             781     26.4521E-03     2.92215E-03     26.2902E-03     53.0996E-03    -26.5066E-03    -26.5933E-03    -26.5112E-03     53.0683E-03    -26.5575E-03     3.12990E-03     55.1337E-03     153.359E+06    -12.5954E+06    -19.7043E+06    -169.369E+06    -19.7201E+06    -169.353E+06    -12.5954E+06     1.14578E+06
             782     26.3593E-03     1.94831E-03     26.2872E-03     53.0077E-03    -26.4163E-03    -26.5909E-03    -26.4183E-03     52.9862E-03    -26.5674E-03     2.59860E-03     54.3128E-03     151.422E+06    -14.8614E+06    -22.6200E+06    -169.997E+06    -22.6334E+06    -169.983E+06    -14.8614E+06     1.10411E+06
             783     26.3032E-03     973.448E-06     26.2851E-03     53.0698E-03    -26.3664E-03    -26.7035E-03    -26.5921E-03     53.0586E-03    -26.4666E-03     1.65809E-03     54.3603E-03     146.454E+06    -21.5124E+06    -26.5892E+06    -170.413E+06    -26.5998E+06    -170.402E+06    -21.5124E+06    -48.5867E+03
             784     30.4550E-03     16.5610E-03     25.5586E-03     63.5664E-03    -25.5149E-03    -38.0406E-03    -25.1910E-03     51.7398E-03    -26.5379E-03     55.6694E-03     226.054E-03     180.208E+06     195.962E+06     81.2408E+06    -6.50430E+06    -6.48784E+06     195.945E+06     81.2408E+06     285.830E+03
             785     29.8474E-03     15.5843E-03     25.4558E-03     68.1805E-03    -26.2688E-03    -41.9031E-03    -26.3160E-03     52.5933E-03    -26.2688E-03     75.1184E-03     217.989E-03     175.559E+06     177.742E+06     18.9630E+06    -9.83404E+06    -9.79017E+06     177.698E+06     18.9630E+06     1.24561E+06
             786     29.3011E-03     14.6117E-03     25.3979E-03     57.4225E-03    -26.1405E-03    -31.2791E-03    -25.9995E-03     52.1429E-03    -26.1405E-03     40.3869E-03     147.587E-03     156.591E+06     143.888E+06    -4.49216E+06    -19.6565E+06    -10.5573E+06     143.838E+06    -13.5417E+06     2.65401E+06
             787     28.8024E-03     13.6365E-03     25.3698E-03     54.2964E-03    -26.1585E-03    -28.1381E-03    -25.9538E-03     52.1121E-03    -26.1585E-03     26.4527E-03     116.745E-03     96.8264E+06     75.0604E+06    -10.5499E+06    -29.3378E+06    -10.5152E+06     75.0257E+06    -29.3378E+06     1.43367E+06
             788     28.3305E-03     12.6627E-03     25.3431E-03     53.9853E-03    -26.2817E-03    -27.7429E-03    -26.1972E-03     52.4397E-03    -26.2817E-03     21.9808E-03     100.588E-03     32.6930E+06     10.6922E+06    -14.9993E+06    -26.0197E+06    -10.4080E+06     6.10088E+06    -26.0197E+06     1.54007E+06
             789     27.8907E-03     11.6882E-03     25.3234E-03     53.6150E-03    -26.3782E-03    -27.3008E-03    -26.3948E-03     52.7091E-03    -26.3782E-03     16.9622E-03     89.1000E-03     27.3811E+06    -9.56006E+06    -17.3739E+06    -38.7780E+06    -9.98330E+06    -37.0728E+06    -18.6559E+06     2.40355E+06
             790     27.4824E-03     10.7147E-03     25.3076E-03     53.5718E-03    -26.4709E-03    -27.1435E-03    -26.4888E-03     52.9172E-03    -26.4709E-03     14.4368E-03     81.4497E-03     63.2105E+06    -5.62469E+06    -13.1663E+06    -72.2539E+06    -10.4707E+06    -72.0033E+06    -8.57097E+06     3.64695E+06
             791     27.1038E-03     9.74064E-03     25.2930E-03     53.4358E-03    -26.5177E-03    -26.9465E-03    -26.4744E-03     52.9637E-03    -26.5177E-03     12.2264E-03     74.9507E-03     88.0524E+06    -3.73459E+06    -11.0133E+06    -95.1501E+06    -10.7851E+06    -94.9503E+06    -4.16257E+06     3.95641E+06
             792     26.7577E-03     8.76636E-03     25.2809E-03     53.4331E-03    -26.5199E-03    -26.9176E-03    -26.5602E-03     53.0757E-03    -26.5199E-03     10.6797E-03     69.8004E-03     104.815E+06    -6.21322E+06    -10.8084E+06    -113.217E+06    -10.4788E+06    -113.119E+06    -6.64119E+06     2.87706E+06
             793     26.4448E-03     7.79225E-03     25.2707E-03     53.4741E-03    -26.5369E-03    -26.9296E-03    -26.6379E-03     53.1825E-03    -26.5369E-03     9.64591E-03     66.0239E-03     126.533E+06    -6.60234E+06    -11.6832E+06    -135.566E+06    -11.7244E+06    -135.524E+06    -6.60234E+06      2.0641E+06
             794     26.1642E-03     6.81866E-03     25.2600E-03     53.4074E-03    -26.5421E-03    -26.8674E-03    -26.6540E-03     53.2005E-03    -26.5486E-03     8.07814E-03     62.7495E-03     144.781E+06    -5.76436E+06    -14.1773E+06    -154.529E+06    -14.2175E+06    -154.489E+06    -5.76436E+06     2.18455E+06
             795     25.9197E-03     5.84486E-03     25.2521E-03     53.3029E-03    -26.5374E-03    -26.7695E-03    -26.6260E-03     53.1658E-03    -26.5439E-03     6.58721E-03     60.0136E-03     155.390E+06    -5.22736E+06    -16.2460E+06    -165.827E+06    -16.2727E+06    -165.800E+06    -5.22736E+06     1.75806E+06
             796     25.7116E-03     4.87063E-03     25.2461E-03     53.1458E-03    -26.4619E-03    -26.6856E-03    -26.5530E-03     53.0545E-03    -26.5032E-03     5.34419E-03     57.8492E-03     155.863E+06    -9.35791E+06    -17.4514E+06    -169.080E+06    -17.4576E+06    -169.074E+06    -9.35791E+06     745.561E+03
             797     25.5397E-03     3.89645E-03     25.2407E-03     52.8973E-03    -26.3267E-03    -26.5719E-03    -26.3683E-03     52.8427E-03    -26.4757E-03     4.12767E-03     56.0932E-03     153.088E+06    -14.5914E+06    -18.5236E+06    -169.595E+06    -18.5316E+06    -169.587E+06    -14.5914E+06     635.230E+03
             798     25.4050E-03     2.92236E-03     25.2363E-03     52.8579E-03    -26.3428E-03    -26.5167E-03    -26.3251E-03     52.8250E-03    -26.5015E-03     3.19519E-03     54.9715E-03     150.917E+06    -15.7768E+06    -19.9064E+06    -168.703E+06    -19.9124E+06    -168.697E+06    -15.7768E+06     590.379E+03
             799     25.3093E-03     1.94773E-03     25.2343E-03     53.0363E-03    -26.4305E-03    -26.6065E-03    -26.5011E-03     53.0165E-03    -26.5161E-03     2.45979E-03     54.4011E-03     151.038E+06    -15.6183E+06    -21.6863E+06    -169.590E+06    -21.6892E+06    -169.587E+06    -15.6183E+06     592.398E+03
             800     25.2493E-03     974.468E-06     25.2304E-03     52.9207E-03    -26.2330E-03    -26.6884E-03    -26.4660E-03     52.9096E-03    -26.4443E-03     1.65885E-03     54.1623E-03     146.382E+06    -19.9038E+06    -26.3805E+06    -169.409E+06    -24.6528E+06    -169.396E+06    -21.6450E+06     240.545E+03
             801     29.5749E-03     16.5600E-03     24.5040E-03     63.9640E-03    -25.6065E-03    -38.3495E-03    -25.6913E-03     52.2286E-03    -26.5293E-03     55.1378E-03     225.825E-03     179.731E+06     195.507E+06     83.9223E+06    -7.35648E+06    -7.30123E+06     195.452E+06     83.9223E+06     1.27272E+06
             802     28.9547E-03     15.5887E-03     24.4002E-03     68.0213E-03    -26.2367E-03    -41.7791E-03    -26.4440E-03     52.6861E-03    -26.2367E-03     74.4258E-03     217.895E-03     174.722E+06     175.774E+06     20.1788E+06    -11.6938E+06    -11.6295E+06     175.710E+06     20.1788E+06     1.00996E+06
             803     28.3937E-03     14.6120E-03     24.3452E-03     56.6976E-03    -26.1228E-03    -30.5755E-03    -25.4602E-03     51.5824E-03    -26.1228E-03     39.7121E-03     147.859E-03     155.023E+06     143.360E+06    -5.88087E+06    -16.7490E+06    -11.3882E+06     143.296E+06    -11.1770E+06     1.87124E+06
             804     27.8784E-03     13.6372E-03     24.3152E-03     54.0740E-03    -26.1694E-03    -27.9100E-03    -25.6962E-03     51.8603E-03    -26.1694E-03     26.5139E-03     116.824E-03     96.4193E+06     76.6089E+06    -11.7678E+06    -25.4981E+06    -11.6779E+06     76.5189E+06    -25.4981E+06     2.65633E+06
             805     27.3918E-03     12.6628E-03     24.2891E-03     54.0741E-03    -26.2793E-03    -27.8412E-03    -26.3521E-03     52.5850E-03    -26.2793E-03     21.6146E-03     100.849E-03     33.2640E+06     11.1592E+06    -16.2197E+06    -25.7989E+06    -11.1522E+06     5.80306E+06    -25.5103E+06     1.81898E+06
             806     26.9375E-03     11.6886E-03     24.2695E-03     53.5821E-03    -26.3655E-03    -27.2731E-03    -26.4032E-03     52.7122E-03    -26.3655E-03     16.6144E-03     89.0835E-03     27.9088E+06    -10.1492E+06    -17.7012E+06    -39.6173E+06    -10.4717E+06    -38.4384E+06    -18.5576E+06      2.7368E+06
             807     26.5143E-03     10.7143E-03     24.2530E-03     53.5408E-03    -26.4482E-03    -27.1258E-03    -26.4882E-03     52.9031E-03    -26.4482E-03     14.2568E-03     81.4370E-03     63.1541E+06    -6.80114E+06    -12.3210E+06    -72.5220E+06    -10.2017E+06    -72.2679E+06    -9.17443E+06     3.72842E+06
             808     26.1232E-03     9.74058E-03     24.2393E-03     53.4055E-03    -26.4936E-03    -26.9449E-03    -26.4738E-03     52.9344E-03    -26.4936E-03     12.2081E-03     74.8856E-03     87.3280E+06    -4.13140E+06    -10.5727E+06    -94.4492E+06    -10.3046E+06    -94.2894E+06    -4.55938E+06     3.53426E+06
             809     25.7645E-03     8.76624E-03     24.2273E-03     53.3854E-03    -26.5027E-03    -26.8881E-03    -26.5298E-03     53.0271E-03    -26.5027E-03     10.6882E-03     69.7348E-03     103.141E+06    -5.88890E+06    -12.4055E+06    -112.060E+06    -12.1113E+06    -111.926E+06    -6.31687E+06     3.50748E+06
             810     25.4388E-03     7.79281E-03     24.2158E-03     53.5542E-03    -26.5113E-03    -27.0404E-03    -26.7474E-03     53.2612E-03    -26.5113E-03     9.67403E-03     66.0985E-03     125.149E+06    -6.32020E+06    -13.6320E+06    -134.927E+06    -13.7163E+06    -134.843E+06    -6.32020E+06     3.01643E+06
             811     25.1487E-03     6.81912E-03     24.2065E-03     53.3341E-03    -26.5072E-03    -26.8331E-03    -26.6141E-03     53.1215E-03    -26.5137E-03     8.21097E-03     62.6022E-03     144.411E+06    -4.92638E+06    -13.8886E+06    -153.592E+06    -13.9306E+06    -153.550E+06    -4.92638E+06     2.17073E+06
             812     24.8946E-03     5.84442E-03     24.1988E-03     53.1409E-03    -26.5032E-03    -26.6405E-03    -26.4881E-03     52.9950E-03    -26.5097E-03     6.78336E-03     59.7700E-03     154.727E+06    -6.01072E+06    -14.4520E+06    -164.765E+06    -14.4731E+06    -164.744E+06    -6.01072E+06     1.30817E+06
             813     24.6775E-03     4.87064E-03     24.1921E-03     53.1285E-03    -26.4734E-03    -26.6568E-03    -26.5546E-03     53.0349E-03    -26.4821E-03     5.40582E-03     57.7816E-03     156.714E+06    -9.55711E+06    -15.3578E+06    -169.078E+06    -15.3741E+06    -169.061E+06    -9.55711E+06     1.01858E+06
             814     24.4993E-03     3.89715E-03     24.1873E-03     52.9691E-03    -26.3323E-03    -26.6368E-03    -26.4649E-03     52.9137E-03    -26.4488E-03     4.15946E-03     56.1413E-03     154.556E+06    -12.4072E+06    -16.6644E+06    -169.030E+06    -16.6783E+06    -169.017E+06    -12.4072E+06     588.441E+03
             815     24.3598E-03     2.92205E-03     24.1839E-03     52.8806E-03    -26.3133E-03    -26.5683E-03    -26.4269E-03     52.8470E-03    -26.4211E-03     3.23467E-03     54.9907E-03     151.169E+06    -15.5437E+06    -19.4584E+06    -168.610E+06    -19.4740E+06    -168.594E+06    -15.5437E+06     843.476E+03
             816     24.2575E-03     1.94865E-03     24.1791E-03     52.8441E-03    -26.3427E-03    -26.5034E-03    -26.4562E-03     52.8270E-03    -26.3728E-03     2.26125E-03     54.2390E-03     149.401E+06    -18.1517E+06    -23.0629E+06    -169.938E+06    -23.0803E+06    -169.920E+06    -18.1517E+06     950.185E+03
             817     24.1981E-03     974.270E-06     24.1784E-03     52.6012E-03    -26.1343E-03    -26.4671E-03    -26.2518E-03     52.5924E-03    -26.3409E-03     1.62341E-03     53.8195E-03     144.337E+06    -20.7270E+06    -26.5317E+06    -167.875E+06    -24.7959E+06    -167.869E+06    -22.4681E+06     374.315E+03
             818     28.7111E-03     16.5643E-03     23.4510E-03     64.7355E-03    -26.2302E-03    -38.5013E-03    -25.8356E-03     52.3309E-03    -26.4912E-03     55.4667E-03     225.555E-03     178.880E+06     195.708E+06     85.2847E+06    -6.19702E+06    -6.15681E+06     195.667E+06     85.2847E+06     1.47372E+06
             819     28.0695E-03     15.5860E-03     23.3447E-03     68.1372E-03    -26.2063E-03    -41.9270E-03    -25.8141E-03     52.0244E-03    -26.2063E-03     75.8326E-03     217.966E-03     173.375E+06     175.735E+06     20.0596E+06    -9.18366E+06    -9.11475E+06     175.666E+06     20.0596E+06     1.98063E+06
             820     27.4969E-03     14.6130E-03     23.2925E-03     56.9887E-03    -26.1096E-03    -30.8764E-03    -25.6738E-03     51.7861E-03    -26.1096E-03     40.2421E-03     148.117E-03     153.060E+06     141.487E+06    -7.86461E+06    -14.9901E+06    -10.7752E+06     141.412E+06    -12.0044E+06     2.10811E+06
             821     26.9643E-03     13.6370E-03     23.2617E-03     54.3371E-03    -26.1532E-03    -28.1858E-03    -25.9012E-03     52.0525E-03    -26.1532E-03     27.0046E-03     116.856E-03     95.7379E+06     77.7845E+06    -10.7733E+06    -23.1006E+06    -10.6334E+06     77.6446E+06    -23.1006E+06     3.07349E+06
             822     26.4608E-03     12.6629E-03     23.2342E-03     54.0039E-03    -26.2539E-03    -27.7987E-03    -26.3429E-03     52.5481E-03    -26.2539E-03     21.2959E-03     100.738E-03     34.6101E+06     12.8633E+06    -15.9264E+06    -25.4827E+06    -10.4442E+06     6.01233E+06    -24.1140E+06     2.91179E+06
             823     25.9925E-03     11.6894E-03     23.2157E-03     53.5415E-03    -26.3350E-03    -27.2666E-03    -26.4315E-03     52.7065E-03    -26.3350E-03     16.3040E-03     89.0145E-03     28.2249E+06    -10.0046E+06    -18.3086E+06    -39.9618E+06    -10.4137E+06    -39.5527E+06    -18.3086E+06     2.87305E+06
             824     25.5543E-03     10.7150E-03     23.1993E-03     53.4046E-03    -26.4148E-03    -27.0158E-03    -26.4008E-03     52.7896E-03    -26.4148E-03     13.9604E-03     81.1584E-03     63.2987E+06    -5.89671E+06    -12.5013E+06    -72.2086E+06    -10.0665E+06    -72.0500E+06    -8.49017E+06     3.07708E+06
             825     25.1480E-03     9.74069E-03     23.1849E-03     53.3446E-03    -26.4623E-03    -26.9055E-03    -26.4751E-03     52.9143E-03    -26.4623E-03     11.6681E-03     74.6808E-03     87.3459E+06    -3.42288E+06    -10.6312E+06    -94.0685E+06    -10.7998E+06    -93.8999E+06    -3.42288E+06     3.72128E+06
             826     24.7765E-03     8.76705E-03     23.1735E-03     53.3183E-03    -26.4680E-03    -26.8465E-03    -26.5036E-03     52.9754E-03    -26.4680E-03     10.4617E-03     69.4454E-03     103.965E+06    -4.90708E+06    -11.0453E+06    -111.717E+06    -11.2033E+06    -111.559E+06    -4.90708E+06     3.87676E+06
             827     24.4376E-03     7.79266E-03     23.1618E-03     53.3046E-03    -26.4781E-03    -26.8180E-03    -26.5307E-03     53.0173E-03    -26.4781E-03     9.53826E-03     65.6829E-03     125.461E+06    -6.16668E+06    -11.3440E+06    -134.095E+06    -11.4283E+06    -134.011E+06    -6.16668E+06     3.03031E+06
             828     24.1360E-03     6.81856E-03     23.1529E-03     53.2944E-03    -26.4821E-03    -26.8194E-03    -26.6230E-03     53.0979E-03    -26.4821E-03     7.87193E-03     62.4426E-03     142.684E+06    -6.52843E+06    -12.1363E+06    -151.930E+06    -12.1658E+06    -151.901E+06    -6.52843E+06     1.83340E+06
             829     23.8718E-03     5.84513E-03     23.1451E-03     53.0982E-03    -26.4173E-03    -26.6818E-03    -26.4946E-03     52.9639E-03    -26.4703E-03     6.51394E-03     59.6384E-03     152.313E+06    -9.27036E+06    -14.1592E+06    -163.957E+06    -14.1844E+06    -163.932E+06    -9.27036E+06     1.51248E+06
             830     23.6455E-03     4.87079E-03     23.1384E-03     52.8976E-03    -26.3904E-03    -26.5083E-03    -26.3386E-03     52.8050E-03    -26.4675E-03     5.37964E-03     57.5372E-03     154.909E+06    -12.5729E+06    -16.6247E+06    -169.464E+06    -16.6586E+06    -169.430E+06    -12.5729E+06     1.28749E+06
             831     23.4597E-03     3.89586E-03     23.1340E-03     53.0990E-03    -26.4297E-03    -26.6708E-03    -26.5876E-03     53.0400E-03    -26.4539E-03     4.30848E-03     56.2907E-03     153.363E+06    -12.3697E+06    -18.2480E+06    -168.584E+06    -18.2986E+06    -168.534E+06    -12.3697E+06     1.50119E+06
             832     23.3133E-03     2.92340E-03     23.1293E-03     53.0796E-03    -26.3644E-03    -26.7159E-03    -26.6808E-03     53.0445E-03    -26.3644E-03     3.29898E-03     55.0718E-03     152.071E+06    -13.4639E+06    -19.4562E+06    -168.425E+06    -19.5099E+06    -168.372E+06    -13.4639E+06     1.42602E+06
             833     23.2090E-03     1.94858E-03     23.1271E-03     52.6388E-03    -26.2172E-03    -26.4226E-03    -26.3765E-03     52.6228E-03    -26.2473E-03     2.18033E-03     53.9041E-03     150.101E+06    -15.7464E+06    -21.5804E+06    -168.663E+06    -21.6188E+06    -168.624E+06    -15.7464E+06     990.229E+03
             834     23.1447E-03     974.263E-06     23.1241E-03     52.3032E-03    -26.0476E-03    -26.2558E-03    -26.2194E-03     52.2970E-03    -26.0776E-03     1.37881E-03     53.5067E-03     143.728E+06    -21.6314E+06    -26.7372E+06     -167.84E+06    -26.7567E+06    -167.820E+06    -21.6314E+06     494.208E+03
             835     27.8571E-03     16.5620E-03     22.3990E-03     64.6844E-03    -26.0291E-03    -38.6550E-03    -25.9499E-03     52.4568E-03    -26.5065E-03     55.7132E-03     225.786E-03     177.623E+06     194.827E+06     84.1381E+06    -5.49938E+06    -5.49645E+06     194.824E+06     84.1381E+06     573.081E+03
             836     27.2009E-03     15.5873E-03     22.2918E-03     68.2176E-03    -26.2132E-03    -42.0057E-03    -26.0508E-03     52.2627E-03    -26.2132E-03     75.7479E-03     217.827E-03     172.357E+06     174.755E+06     19.3487E+06    -8.90924E+06    -8.87688E+06     174.723E+06     19.3487E+06     1.97841E+06
             837     26.6077E-03     14.6107E-03     22.2373E-03     57.2086E-03    -26.0914E-03    -31.1174E-03    -25.9921E-03     52.0833E-03    -26.0914E-03     39.6920E-03     147.810E-03     153.095E+06     140.567E+06    -7.51424E+06    -17.0045E+06    -10.6135E+06     140.500E+06    -13.8388E+06     3.03003E+06
             838     26.0614E-03     13.6386E-03     22.2078E-03     54.5352E-03    -26.1036E-03    -28.4331E-03    -26.2735E-03     52.3755E-03    -26.1036E-03     26.3755E-03     116.743E-03     96.8820E+06     77.9424E+06    -10.2719E+06    -25.2044E+06    -10.1034E+06     77.7739E+06    -25.2044E+06     3.25066E+06
             839     25.5409E-03     12.6640E-03     22.1802E-03     53.7850E-03    -26.2024E-03    -27.6258E-03    -26.1528E-03     52.3120E-03    -26.2024E-03     21.3584E-03     100.253E-03     37.0126E+06     14.3748E+06    -16.4251E+06    -26.6119E+06    -9.60502E+06     5.97585E+06    -25.0330E+06     3.59847E+06
             840     25.0555E-03     11.6893E-03     22.1616E-03     53.4793E-03    -26.2908E-03    -27.2510E-03    -26.4127E-03     52.6410E-03    -26.2908E-03     16.3218E-03     88.7085E-03     29.2313E+06    -8.78625E+06    -19.5305E+06    -40.2369E+06    -9.37421E+06    -39.6490E+06    -19.5305E+06     3.75951E+06
             841     24.6015E-03     10.7156E-03     22.1452E-03     53.4724E-03    -26.3610E-03    -27.1412E-03    -26.5313E-03     52.8625E-03    -26.3610E-03     13.9143E-03     80.9497E-03     62.4067E+06    -6.32476E+06    -13.6722E+06    -71.9922E+06    -10.2839E+06    -71.7312E+06    -9.97404E+06     3.69236E+06
             842     24.1806E-03     9.74169E-03     22.1314E-03     53.2814E-03    -26.3841E-03    -26.9238E-03    -26.4934E-03     52.8511E-03    -26.3841E-03     11.6785E-03     74.2908E-03     85.4950E+06    -5.92802E+06    -10.7318E+06    -93.6523E+06    -10.0771E+06    -93.5318E+06    -6.70319E+06     2.90156E+06
             843     23.7934E-03     8.76734E-03     22.1193E-03     53.1741E-03    -26.3858E-03    -26.7950E-03    -26.4677E-03     52.8468E-03    -26.3858E-03     10.1924E-03     69.1178E-03     103.293E+06    -6.73144E+06    -9.30939E+06    -111.284E+06    -8.60898E+06    -111.209E+06    -7.50660E+06     2.54597E+06
             844     23.4422E-03     7.79335E-03     22.1088E-03     53.1037E-03    -26.4089E-03    -26.6862E-03    -26.4242E-03     52.8418E-03    -26.4089E-03     9.10599E-03     65.3514E-03     125.530E+06    -6.38567E+06    -9.31148E+06    -133.348E+06    -8.86829E+06    -133.228E+06    -6.94878E+06     3.63490E+06
             845     23.1268E-03     6.81921E-03     22.0986E-03     53.0659E-03    -26.4088E-03    -26.6621E-03    -26.4613E-03     52.8823E-03    -26.4261E-03     7.57988E-03     62.1007E-03     142.019E+06    -7.47846E+06    -12.2206E+06    -151.802E+06    -11.7877E+06    -151.672E+06    -8.04157E+06     3.91363E+06
             846     22.8518E-03     5.84511E-03     22.0916E-03     52.9636E-03    -26.3717E-03    -26.5953E-03    -26.4068E-03     52.8454E-03    -26.4419E-03     6.09527E-03     59.4007E-03     152.094E+06    -7.77139E+06    -14.4370E+06    -163.058E+06    -14.5072E+06    -162.988E+06    -7.77139E+06     3.04741E+06
             847     22.6165E-03     4.87052E-03     22.0859E-03     52.8861E-03    -26.3735E-03    -26.5141E-03    -26.3597E-03     52.8001E-03    -26.4420E-03     5.19269E-03     57.4643E-03     154.889E+06    -9.96440E+06    -16.5905E+06    -168.029E+06    -16.6375E+06    -167.982E+06    -9.96440E+06     1.89927E+06
             848     22.4210E-03     3.89703E-03     22.0798E-03     52.9435E-03    -26.3694E-03    -26.5759E-03    -26.4752E-03     52.8871E-03    -26.4136E-03     4.17405E-03     56.1154E-03     152.352E+06    -13.9141E+06    -18.7671E+06    -168.621E+06    -18.8272E+06    -168.561E+06    -13.9141E+06     1.24883E+06
             849     22.2685E-03     2.92207E-03     22.0759E-03     52.9306E-03    -26.3358E-03    -26.5954E-03    -26.5350E-03     52.8991E-03    -26.3647E-03     3.12946E-03     54.8775E-03     151.156E+06    -13.3751E+06    -19.5685E+06    -167.506E+06    -19.6121E+06    -167.462E+06    -13.3751E+06     411.906E+03
             850     22.1594E-03     1.94908E-03     22.0735E-03     52.7267E-03    -26.2721E-03    -26.4549E-03    -26.4381E-03     52.7098E-03    -26.2721E-03     2.25173E-03     53.9524E-03     151.360E+06    -12.5965E+06    -20.8754E+06    -167.922E+06    -20.9042E+06    -167.893E+06    -12.5965E+06     970.397E+03
             851     22.0934E-03     974.893E-06     22.0719E-03     52.3036E-03    -26.0103E-03    -26.2942E-03    -26.2847E-03     52.2941E-03    -26.0103E-03     1.69471E-03     53.5191E-03     144.247E+06    -20.6490E+06    -26.9278E+06    -167.923E+06    -25.2629E+06    -167.878E+06    -22.3595E+06     1.99369E+06
             852     27.0101E-03     16.5597E-03     21.3383E-03     63.9663E-03    -25.7328E-03    -38.2292E-03    -25.9048E-03     52.4357E-03    -26.5264E-03     54.6651E-03     225.891E-03     177.176E+06     192.595E+06     82.7406E+06    -7.50767E+06    -7.50479E+06     192.592E+06     82.7406E+06     89.0838E+03
             853     26.3467E-03     15.5878E-03     21.2408E-03     68.3428E-03    -26.2208E-03    -42.1216E-03    -26.6816E-03     52.9028E-03    -26.2208E-03     75.1615E-03     218.313E-03     172.233E+06     173.491E+06     20.1696E+06    -11.3929E+06    -11.3572E+06     173.455E+06     20.1696E+06     1.70617E+06
             854     25.7336E-03     14.6137E-03     21.1815E-03     57.4684E-03    -26.0708E-03    -31.4025E-03    -26.0489E-03     52.1148E-03    -26.0708E-03     40.6185E-03     147.171E-03     154.239E+06     141.560E+06    -5.44215E+06    -18.9152E+06    -10.9118E+06     141.493E+06    -13.3788E+06     3.02499E+06
             855     25.1692E-03     13.6385E-03     21.1537E-03     54.4178E-03    -26.0743E-03    -28.3465E-03    -26.1421E-03     52.2134E-03    -26.0743E-03     26.6039E-03     116.237E-03     96.9995E+06     76.8970E+06    -9.33408E+06    -27.3260E+06    -9.09060E+06     76.6536E+06    -27.3260E+06     3.44839E+06
             856     24.6317E-03     12.6640E-03     21.1269E-03     54.0480E-03    -26.1738E-03    -27.9165E-03    -26.3938E-03     52.5253E-03    -26.1738E-03     21.7762E-03     100.235E-03     35.5687E+06     13.6429E+06    -14.9908E+06    -25.9310E+06    -8.25601E+06     6.02327E+06    -25.0461E+06     4.18623E+06
             857     24.1284E-03     11.6900E-03     21.1074E-03     53.4936E-03    -26.2413E-03    -27.3210E-03    -26.4882E-03     52.6607E-03    -26.2413E-03     16.2593E-03     88.3586E-03     30.3927E+06    -7.17471E+06    -20.6446E+06    -40.4204E+06    -8.03662E+06    -39.5585E+06    -20.6446E+06     4.27943E+06
             858     23.6573E-03     10.7159E-03     21.0911E-03     53.4463E-03    -26.3021E-03    -27.1787E-03    -26.5882E-03     52.8557E-03    -26.3021E-03     13.7020E-03     80.7415E-03     63.7820E+06    -4.35991E+06    -12.6306E+06    -71.5496E+06    -6.65740E+06    -71.2431E+06    -10.6396E+06     4.18803E+06
             859     23.2198E-03     9.74193E-03     21.0774E-03     53.3094E-03    -26.3171E-03    -27.0163E-03    -26.5996E-03     52.8927E-03    -26.3171E-03     11.4850E-03     74.1931E-03     84.8586E+06    -5.53708E+06    -8.96238E+06    -92.0539E+06    -7.69864E+06    -91.8834E+06    -6.97139E+06     3.41184E+06
             860     22.8177E-03     8.76815E-03     21.0657E-03     53.1124E-03    -26.2988E-03    -26.8224E-03    -26.5108E-03     52.8008E-03    -26.2988E-03     9.94411E-03     68.9634E-03     101.389E+06     -9.1717E+06    -11.8366E+06    -111.859E+06    -10.4166E+06    -111.738E+06    -10.7127E+06     3.13577E+06
             861     22.4512E-03     7.79406E-03     21.0549E-03     52.9821E-03    -26.3165E-03    -26.6620E-03    -26.4138E-03     52.7339E-03    -26.3165E-03     8.84723E-03     65.0926E-03     123.946E+06     -8.5763E+06    -12.3508E+06    -134.345E+06    -11.8763E+06    -134.150E+06    -9.24606E+06     4.75602E+06
             862     22.1229E-03     6.81974E-03     21.0456E-03     52.7652E-03    -26.3036E-03    -26.4665E-03    -26.2536E-03     52.5952E-03    -26.3466E-03     7.26429E-03     61.6921E-03     140.892E+06    -6.80047E+06    -13.3596E+06    -150.841E+06    -13.0241E+06    -150.613E+06    -7.36357E+06     5.54486E+06
             863     21.8351E-03     5.84513E-03     21.0382E-03     52.8111E-03    -26.3327E-03    -26.4805E-03    -26.3328E-03     52.7064E-03    -26.3757E-03     5.72053E-03     59.1909E-03     151.421E+06    -5.33209E+06    -14.7619E+06    -161.241E+06    -14.8763E+06    -161.127E+06    -5.33209E+06     3.83247E+06
             864     21.5888E-03     4.87157E-03     21.0319E-03     52.8923E-03    -26.3503E-03    -26.5425E-03    -26.4678E-03     52.8176E-03    -26.3503E-03     4.85452E-03     57.3441E-03     154.571E+06    -8.06179E+06    -16.3312E+06    -166.580E+06    -16.3727E+06    -166.539E+06    -8.06179E+06     2.26197E+06
             865     21.3845E-03     3.89690E-03     21.0264E-03     52.6339E-03    -26.2420E-03    -26.3935E-03    -26.2802E-03     52.5848E-03    -26.3061E-03     3.85688E-03     55.6160E-03     152.340E+06    -13.0017E+06    -17.3852E+06    -167.472E+06    -17.4176E+06    -167.440E+06    -13.0017E+06     1.16029E+06
             866     21.2250E-03     2.92315E-03     21.0227E-03     52.4771E-03    -26.1424E-03    -26.3368E-03    -26.1337E-03     52.4514E-03    -26.3197E-03     2.83402E-03     54.3562E-03     149.699E+06    -14.8037E+06    -19.1541E+06    -166.602E+06    -19.1684E+06    -166.588E+06    -14.8037E+06     466.286E+03
             867     21.1097E-03     1.94793E-03     21.0196E-03     52.6133E-03    -26.2034E-03    -26.4118E-03    -26.2367E-03     52.5989E-03    -26.3640E-03     2.02559E-03     53.8361E-03     149.866E+06    -14.7583E+06    -22.8754E+06    -168.482E+06    -22.8977E+06    -168.459E+06    -14.7583E+06     19.5641E+03
             868     21.0418E-03     973.899E-06     21.0193E-03     52.6501E-03    -26.1783E-03    -26.4732E-03    -26.4163E-03     52.6406E-03    -26.2257E-03     1.66748E-03     53.9101E-03     144.110E+06    -18.4878E+06    -27.4448E+06    -166.860E+06    -25.7784E+06    -166.816E+06    -20.1983E+06     836.562E+03
             869     26.1913E-03     16.5637E-03     20.2886E-03     64.1957E-03    -25.7456E-03    -38.4386E-03    -25.6366E-03     52.1610E-03    -26.5129E-03     55.6067E-03     225.697E-03     175.969E+06     191.710E+06     81.6821E+06    -6.64891E+06    -6.64084E+06     191.702E+06     81.6821E+06     667.906E+03
             870     25.4999E-03     15.5856E-03     20.1825E-03     68.5624E-03    -26.2179E-03    -42.3372E-03    -26.6077E-03     52.8329E-03    -26.2179E-03     75.5280E-03     218.323E-03     171.670E+06     173.010E+06     18.5779E+06    -10.3269E+06    -10.2958E+06     172.979E+06     18.5779E+06     1.17144E+06
             871     24.8737E-03     14.6124E-03     20.1291E-03     57.4652E-03    -26.0729E-03    -31.3963E-03    -26.1661E-03     52.2350E-03    -26.0729E-03     40.5266E-03     147.364E-03     154.021E+06     140.807E+06    -6.43365E+06    -18.9911E+06    -10.7097E+06     140.754E+06    -14.6615E+06     2.24628E+06
             872     24.2889E-03     13.6374E-03     20.0990E-03     54.6127E-03    -26.0719E-03    -28.5422E-03    -26.2989E-03     52.3694E-03    -26.0719E-03     26.8641E-03     116.202E-03     96.4811E+06     75.3604E+06    -10.6638E+06    -28.2629E+06    -10.3928E+06     75.0895E+06    -28.2629E+06     3.52625E+06
             873     23.7333E-03     12.6643E-03     20.0721E-03     54.3452E-03    -26.1504E-03    -28.2380E-03    -26.8101E-03     52.9172E-03    -26.1504E-03     21.1712E-03     100.332E-03     34.6883E+06     13.0218E+06    -15.3875E+06    -25.3304E+06    -9.02945E+06     6.27753E+06    -24.9441E+06     4.56288E+06
             874     23.2122E-03     11.6907E-03     20.0533E-03     53.6214E-03    -26.1873E-03    -27.5013E-03    -26.7120E-03     52.8320E-03    -26.1873E-03     15.8740E-03     88.2660E-03     30.1173E+06    -6.26370E+06    -20.0063E+06    -39.2643E+06       -7.19E+06    -38.1526E+06    -20.1917E+06     3.89773E+06
             875     22.7233E-03     10.7167E-03     20.0375E-03     53.4260E-03    -26.2270E-03    -27.2326E-03    -26.6750E-03     52.8685E-03    -26.2270E-03     13.2987E-03     80.4418E-03     63.7548E+06    -4.68093E+06    -13.1385E+06    -71.8538E+06    -6.56933E+06    -71.6220E+06    -11.4819E+06     3.88291E+06
             876     22.2676E-03     9.74278E-03     20.0230E-03     53.2254E-03    -26.2415E-03    -27.0074E-03    -26.6388E-03     52.8568E-03    -26.2415E-03     10.7797E-03     73.9046E-03     86.3372E+06    -4.51573E+06    -7.35453E+06    -92.2325E+06    -7.12853E+06    -91.7994E+06    -5.17488E+06     5.80698E+06
             877     21.8494E-03     8.76885E-03     20.0125E-03     53.0632E-03    -26.2138E-03    -26.8519E-03    -26.5773E-03     52.7887E-03    -26.2138E-03     9.33629E-03     68.7262E-03     103.687E+06     -6.8214E+06    -9.86058E+06    -111.977E+06    -9.54577E+06    -111.526E+06    -7.58721E+06     6.38440E+06
             878     21.4664E-03     7.79472E-03     20.0013E-03     52.8921E-03    -26.2051E-03    -26.6808E-03    -26.4702E-03     52.6815E-03    -26.2051E-03     8.09178E-03     64.8148E-03     125.112E+06    -7.33032E+06    -12.0768E+06    -134.723E+06    -12.2182E+06    -134.475E+06    -7.43698E+06     5.36083E+06
             879     21.1243E-03     6.82066E-03     19.9928E-03     52.5926E-03    -26.1771E-03    -26.4211E-03    -26.2628E-03     52.4602E-03    -26.2029E-03     6.41179E-03     61.3319E-03     139.312E+06    -6.59486E+06    -12.8172E+06    -148.901E+06    -13.0034E+06    -148.715E+06    -6.59486E+06     4.97372E+06
             880     20.8226E-03     5.84634E-03     19.9850E-03     52.5163E-03    -26.1775E-03    -26.3400E-03    -26.2226E-03     52.4246E-03    -26.2033E-03     5.34949E-03     58.7902E-03     149.156E+06    -6.57043E+06    -13.3567E+06    -158.986E+06    -13.4841E+06    -158.858E+06    -6.57043E+06     4.17291E+06
             881     20.5640E-03     4.87183E-03     19.9786E-03     52.5340E-03    -26.1775E-03    -26.3567E-03    -26.2949E-03     52.4722E-03    -26.1775E-03     4.36605E-03     56.9185E-03     153.319E+06    -9.34574E+06    -15.5974E+06    -165.679E+06    -15.6616E+06    -165.614E+06    -9.34574E+06     2.80168E+06
             882     20.3506E-03     3.89810E-03     19.9738E-03     52.3058E-03    -26.0740E-03    -26.2331E-03    -26.1336E-03     52.2697E-03    -26.1373E-03     3.32490E-03     55.2082E-03     150.248E+06    -13.5586E+06    -18.3971E+06    -166.161E+06    -18.4332E+06    -166.125E+06    -13.5586E+06     1.92096E+06
             883     20.1825E-03     2.92287E-03     19.9698E-03     52.1021E-03    -25.9567E-03    -26.1475E-03    -25.9364E-03     52.0819E-03    -26.1475E-03     2.45669E-03     53.9083E-03     147.339E+06    -16.4514E+06    -20.3644E+06    -165.702E+06    -20.3920E+06    -165.674E+06    -16.4514E+06     1.76388E+06
             884     20.0622E-03     1.94869E-03     19.9673E-03     52.2152E-03    -26.0022E-03    -26.2145E-03    -25.9928E-03     52.2058E-03    -26.2145E-03     1.62015E-03     53.4274E-03     146.875E+06    -18.1527E+06    -23.2706E+06    -167.471E+06    -23.3065E+06    -167.435E+06    -18.1527E+06     565.384E+03
             885     19.9885E-03     974.287E-06     19.9647E-03     52.4303E-03    -26.0698E-03    -26.3607E-03    -26.1607E-03     52.4247E-03    -26.2642E-03     1.28520E-03     53.7106E-03     143.111E+06    -21.2497E+06    -28.1827E+06    -167.662E+06    -26.5681E+06    -167.539E+06    -22.9865E+06    -2.03849E+06
             886     25.3803E-03     16.5591E-03     19.2342E-03     64.6667E-03    -25.6647E-03    -38.9972E-03    -25.6675E-03     52.2165E-03    -26.5442E-03     56.4517E-03     225.709E-03     174.472E+06     192.534E+06     84.6583E+06    -4.64143E+06    -4.62170E+06     192.514E+06     84.6583E+06     1.64124E+06
             887     24.6749E-03     15.5877E-03     19.1279E-03     68.8952E-03    -26.2391E-03    -42.6517E-03    -26.6636E-03     52.9071E-03    -26.2391E-03     76.0879E-03     217.902E-03     170.611E+06     172.084E+06     18.1406E+06    -8.99803E+06    -8.97542E+06     172.062E+06     18.1406E+06     1.59079E+06
             888     24.0283E-03     14.6121E-03     19.0747E-03     57.6800E-03    -26.0691E-03    -31.6086E-03    -26.6263E-03     52.6976E-03    -26.0691E-03     39.6468E-03     147.825E-03     153.160E+06     138.432E+06    -11.1453E+06    -17.8818E+06    -11.8694E+06     138.385E+06    -17.1110E+06     2.02024E+06
             889     23.4244E-03     13.6389E-03     19.0442E-03     55.0067E-03    -26.0418E-03    -28.9643E-03    -26.8472E-03     52.8896E-03    -26.0418E-03     26.2605E-03     116.176E-03     96.2233E+06     74.8863E+06    -11.4591E+06    -27.6183E+06    -11.2381E+06     74.6653E+06    -27.6183E+06     3.55082E+06
             890     22.8486E-03     12.6650E-03     19.0173E-03     54.2947E-03    -26.0792E-03    -28.2553E-03    -26.9349E-03     52.9743E-03    -26.0792E-03     20.3444E-03     99.7479E-03     34.5524E+06     11.6944E+06    -15.6458E+06    -26.7621E+06    -9.58079E+06     5.62940E+06    -26.7621E+06     3.98868E+06
             891     22.3084E-03     11.6913E-03     18.9994E-03     53.7602E-03    -26.1003E-03    -27.7205E-03    -27.0098E-03     53.0495E-03    -26.1003E-03     15.0880E-03     88.0606E-03     28.1591E+06    -7.52403E+06    -19.3058E+06    -38.1787E+06     -8.4294E+06    -36.3506E+06    -20.2286E+06     4.01987E+06
             892     21.7998E-03     10.7180E-03     18.9831E-03     53.4820E-03    -26.1104E-03    -27.4104E-03    -26.9285E-03     53.0001E-03    -26.1104E-03     12.3443E-03     80.0472E-03     63.3948E+06    -6.91107E+06    -13.3622E+06    -73.0321E+06    -8.51910E+06    -72.7029E+06    -12.0834E+06     4.43541E+06
             893     21.3263E-03     9.74412E-03     18.9701E-03     53.1072E-03    -26.0914E-03    -27.0492E-03    -26.7447E-03     52.8027E-03    -26.0914E-03     9.78572E-03     73.4364E-03     87.7857E+06    -6.17572E+06    -8.07913E+06    -94.8941E+06    -8.54876E+06    -94.4245E+06    -6.17572E+06     6.15623E+06
             894     20.8885E-03     8.77010E-03     18.9583E-03     52.8990E-03    -26.0423E-03    -26.8566E-03    -26.6459E-03     52.6882E-03    -26.0423E-03     8.13419E-03     68.2901E-03     104.069E+06    -5.03003E+06    -7.68338E+06    -110.381E+06    -7.97648E+06    -109.810E+06    -5.30844E+06     7.46937E+06
             895     20.4895E-03     7.79654E-03     18.9482E-03     52.6339E-03    -25.9978E-03    -26.6206E-03    -26.4664E-03     52.4797E-03    -25.9978E-03     6.92966E-03     64.2738E-03     125.465E+06    -5.51207E+06    -9.34823E+06    -132.837E+06    -8.54386E+06    -132.464E+06    -6.68922E+06     6.56655E+06
             896     20.1306E-03     6.82227E-03     18.9394E-03     52.3598E-03    -25.9555E-03    -26.4094E-03    -26.3083E-03     52.2587E-03    -25.9555E-03     5.58197E-03     60.8899E-03     138.888E+06    -7.09468E+06    -10.6314E+06    -147.716E+06    -9.91875E+06    -147.530E+06    -7.99342E+06     4.91001E+06
             897     19.8150E-03     5.84787E-03     18.9324E-03     52.1068E-03    -25.9296E-03    -26.1830E-03    -26.1158E-03     52.0396E-03    -25.9296E-03     4.54733E-03     58.2292E-03     147.937E+06    -7.01205E+06    -11.3327E+06    -157.057E+06    -11.4875E+06    -156.903E+06    -7.01205E+06     4.65077E+06
             898     19.5430E-03     4.87331E-03     18.9256E-03     51.8934E-03    -25.8820E-03    -26.0133E-03    -25.9426E-03     51.8502E-03    -25.9096E-03     3.57059E-03     56.1432E-03     153.642E+06    -7.97087E+06    -13.4441E+06    -164.270E+06    -13.5975E+06    -164.117E+06    -7.97087E+06     4.69237E+06
             899     19.3186E-03     3.89843E-03     18.9211E-03     51.8523E-03    -25.8177E-03    -26.0362E-03    -25.9588E-03     51.8304E-03    -25.8731E-03     2.54303E-03     54.6606E-03     151.435E+06    -10.7870E+06    -15.6964E+06    -164.611E+06    -15.7734E+06    -164.534E+06    -10.7870E+06     3.09961E+06
             900     19.1422E-03     2.92434E-03     18.9175E-03     51.7292E-03    -25.7790E-03    -25.9506E-03    -25.8972E-03     51.7181E-03    -25.8213E-03     1.76511E-03     53.4803E-03     148.722E+06    -14.3912E+06    -17.9810E+06    -164.864E+06    -17.8962E+06    -164.831E+06    -14.5088E+06     1.97241E+06
             901     19.0144E-03     1.94943E-03     18.9142E-03     51.5624E-03    -25.7416E-03    -25.8204E-03    -25.7627E-03     51.5564E-03    -25.7933E-03     1.34488E-03     52.7358E-03     148.291E+06    -15.9322E+06    -19.6437E+06    -166.020E+06    -19.5731E+06    -165.973E+06    -16.0498E+06     2.35156E+06
             902     18.9377E-03     974.591E-06     18.9126E-03     51.4948E-03    -25.6311E-03    -25.8641E-03    -25.7130E-03     51.4906E-03    -25.7781E-03     1.08544E-03     52.6787E-03     143.263E+06    -21.6410E+06    -26.1212E+06    -167.070E+06    -24.5351E+06    -166.919E+06    -23.3778E+06     242.863E+03
             903     24.5936E-03     16.5629E-03     18.1801E-03     64.7512E-03    -25.9248E-03    -38.8247E-03    -25.9107E-03     52.4665E-03    -26.5541E-03     55.6735E-03     225.023E-03     173.709E+06     191.045E+06     84.9853E+06    -5.55741E+06    -5.53832E+06     191.026E+06     84.9853E+06     1.31805E+06
             904     23.8647E-03     15.5845E-03     18.0734E-03     68.9720E-03    -26.2293E-03    -42.7408E-03    -26.9255E-03     53.1567E-03    -26.2293E-03     75.7199E-03     217.425E-03     170.328E+06     171.066E+06     18.3481E+06    -10.0580E+06    -10.0226E+06     171.031E+06     18.3481E+06     2.50430E+06
             905     23.1995E-03     14.6126E-03     18.0191E-03     58.1044E-03    -26.0343E-03    -32.0642E-03    -27.2613E-03     53.3015E-03    -26.0343E-03     38.9037E-03     147.439E-03     150.859E+06     137.972E+06    -9.84948E+06    -15.6204E+06    -10.5275E+06     137.920E+06    -14.8905E+06     2.67067E+06
             906     22.5754E-03     13.6396E-03     17.9892E-03     55.1371E-03    -25.9679E-03    -29.1692E-03    -27.2650E-03     53.2329E-03    -25.9679E-03     24.9743E-03     115.663E-03      93.798E+06     74.3238E+06    -9.91640E+06    -25.4242E+06    -9.74844E+06     74.1558E+06    -25.4242E+06     3.10324E+06
             907     21.9799E-03     12.6661E-03     17.9635E-03     54.3871E-03    -25.9560E-03    -28.4673E-03    -27.2771E-03     53.1970E-03    -25.9560E-03     19.2947E-03     99.1695E-03     35.0882E+06     12.5540E+06    -15.2080E+06    -26.4229E+06    -8.11361E+06     5.45963E+06    -26.4229E+06      3.4374E+06
             908     21.4178E-03     11.6932E-03     17.9441E-03     53.8353E-03    -25.9381E-03    -27.9591E-03    -27.3816E-03     53.2578E-03    -25.9381E-03     13.5473E-03     87.4953E-03     29.8656E+06    -6.52139E+06    -19.2343E+06    -38.8364E+06    -7.42972E+06    -37.1798E+06    -19.9826E+06     4.81594E+06
             909     20.8896E-03     10.7199E-03     17.9292E-03     53.3930E-03    -25.9058E-03    -27.5328E-03    -27.1801E-03     53.0402E-03    -25.9058E-03     10.5366E-03     79.4341E-03     64.2573E+06    -6.55801E+06    -12.7368E+06    -73.4233E+06    -8.10865E+06    -72.8297E+06    -11.7798E+06     5.95331E+06
             910     20.3954E-03     9.74640E-03     17.9159E-03     52.9662E-03    -25.8204E-03    -27.1845E-03    -26.9617E-03     52.7433E-03    -25.8204E-03     8.35440E-03     72.6634E-03     85.9327E+06    -7.16798E+06    -10.6806E+06    -94.7443E+06    -8.57324E+06    -94.3976E+06    -9.62200E+06     5.38386E+06
             911     19.9386E-03     8.77314E-03     17.9048E-03     52.5508E-03    -25.7245E-03    -26.8336E-03    -26.6931E-03     52.4104E-03    -25.7245E-03     6.57211E-03     67.3885E-03     102.736E+06    -6.56094E+06    -9.53371E+06    -110.679E+06    -6.98330E+06    -110.358E+06    -9.43213E+06     5.60550E+06
             912     19.5208E-03     7.79856E-03     17.8953E-03     52.1313E-03    -25.6668E-03    -26.4501E-03    -26.3559E-03     52.0371E-03    -25.6668E-03     5.32216E-03     63.3504E-03     126.054E+06    -4.98969E+06    -6.63091E+06    -131.852E+06    -5.79875E+06    -131.369E+06    -6.30560E+06     7.54598E+06
             913     19.1443E-03     6.82432E-03     17.8866E-03     51.8503E-03    -25.6062E-03    -26.2495E-03    -26.1868E-03     51.7875E-03    -25.6062E-03     4.26313E-03     60.0733E-03     139.738E+06    -4.25304E+06     -7.9587E+06    -145.795E+06    -7.50631E+06    -145.349E+06    -5.15178E+06     7.46190E+06
             914     18.8125E-03     5.85018E-03     17.8797E-03     51.6037E-03    -25.5347E-03    -26.0752E-03    -26.0395E-03     51.5680E-03    -25.5347E-03     3.21436E-03     57.5139E-03     148.659E+06    -5.19269E+06    -10.0623E+06    -156.216E+06    -10.3324E+06    -155.945E+06    -5.19269E+06     6.08136E+06
             915     18.5270E-03     4.87540E-03     17.8740E-03     51.2098E-03    -25.4297E-03    -25.7836E-03    -25.7366E-03     51.1903E-03    -25.4573E-03     2.22873E-03     55.3196E-03     153.046E+06    -6.68275E+06    -11.6469E+06    -162.145E+06    -11.8292E+06    -161.962E+06    -6.68275E+06     5.15517E+06
             916     18.2896E-03     3.90039E-03     17.8689E-03     50.9156E-03    -25.3173E-03    -25.6012E-03    -25.5165E-03     50.9074E-03    -25.3937E-03     1.43266E-03     53.6765E-03     151.258E+06    -8.64805E+06    -12.9378E+06    -161.998E+06    -13.0494E+06    -161.886E+06    -8.64805E+06     4.00931E+06
             917     18.1031E-03     2.92560E-03     17.8651E-03     50.8484E-03    -25.2729E-03    -25.5773E-03    -25.5242E-03     50.8442E-03    -25.3218E-03     1.06254E-03     52.5542E-03     150.073E+06    -11.4005E+06    -15.5242E+06    -163.464E+06    -15.4864E+06    -163.385E+06    -11.5181E+06     3.14484E+06
             918     17.9696E-03     1.95066E-03     17.8634E-03     50.6627E-03    -25.1924E-03    -25.4711E-03    -25.4685E-03     50.6601E-03    -25.1924E-03     839.612E-06     51.6909E-03      149.04E+06    -13.8170E+06    -18.9968E+06    -165.350E+06    -18.9415E+06    -165.288E+06    -13.9346E+06     2.71376E+06
             919     17.8867E-03     975.615E-06     17.8601E-03     50.1309E-03    -24.9184E-03    -25.2134E-03    -25.2117E-03     50.1293E-03    -24.9184E-03     587.896E-06     51.2123E-03     143.286E+06    -18.5078E+06    -22.0029E+06    -163.492E+06    -22.0788E+06    -163.416E+06    -18.5078E+06     3.16978E+06
             920     23.8232E-03     16.5602E-03     17.1262E-03     65.3273E-03    -26.3246E-03    -39.0006E-03    -26.9373E-03     53.4627E-03    -26.5233E-03     54.6315E-03     224.181E-03     173.607E+06     190.299E+06     86.6519E+06    -6.81915E+06    -6.80288E+06     190.283E+06     86.6519E+06     1.38872E+06
             921     23.0796E-03     15.5889E-03     17.0192E-03     68.9420E-03    -26.1452E-03    -42.7955E-03    -27.4728E-03     53.6192E-03    -26.1452E-03     74.7924E-03     216.773E-03     170.306E+06     172.397E+06     22.3259E+06    -9.58360E+06    -8.83820E+06     172.379E+06     21.5982E+06     1.33752E+06
             922     22.3897E-03     14.6144E-03     16.9622E-03     57.8603E-03    -25.9036E-03    -31.9514E-03    -27.4033E-03     53.3122E-03    -25.9036E-03     37.5818E-03     146.320E-03     148.790E+06     136.768E+06    -7.75455E+06    -15.7321E+06    -8.18173E+06     136.740E+06    -15.2773E+06     1.50651E+06
             923     21.7457E-03     13.6418E-03     16.9345E-03     55.2917E-03    -25.8051E-03    -29.4808E-03    -27.8631E-03     53.6740E-03    -25.8051E-03     23.1151E-03     115.214E-03     91.1495E+06     73.3128E+06    -7.65415E+06    -24.4140E+06    -7.41731E+06     73.0760E+06    -24.4140E+06     2.86989E+06
             924     21.1276E-03     12.6691E-03     16.9077E-03     54.6379E-03    -25.7302E-03    -28.9391E-03    -27.9869E-03     53.6857E-03    -25.7302E-03     17.1985E-03     98.6373E-03     35.5353E+06     13.9047E+06    -14.9859E+06    -25.2051E+06    -6.40221E+06     5.07738E+06    -24.9614E+06     4.16726E+06
             925     20.5443E-03     11.6966E-03     16.8896E-03     53.6928E-03    -25.6508E-03    -28.1101E-03    -27.7051E-03     53.2879E-03    -25.6508E-03     11.3038E-03     86.5315E-03     33.0241E+06    -4.63730E+06    -18.9600E+06    -40.0030E+06    -5.63073E+06    -38.9988E+06    -18.9709E+06     5.36259E+06
             926     19.9939E-03     10.7235E-03     16.8750E-03     53.2585E-03    -25.5667E-03    -27.7426E-03    -27.5221E-03     53.0381E-03    -25.5667E-03     8.19966E-03     78.5864E-03     66.6472E+06    -3.30286E+06    -9.15452E+06    -72.4161E+06    -4.40586E+06    -71.8108E+06    -8.65681E+06     6.14530E+06
             927     19.4784E-03     9.75036E-03     16.8623E-03     52.6170E-03    -25.4237E-03    -27.2288E-03    -27.1102E-03     52.4984E-03    -25.4237E-03     5.86793E-03     71.5638E-03     88.4308E+06    -2.71812E+06    -6.20585E+06    -92.7833E+06    -3.54229E+06    -92.4569E+06    -5.70814E+06     5.28373E+06
             928     19.0001E-03     8.77635E-03     16.8517E-03     52.0035E-03    -25.2846E-03    -26.7333E-03    -26.6671E-03     51.9373E-03    -25.2846E-03     4.24433E-03     66.2186E-03     108.125E+06    -2.30659E+06    -7.40968E+06    -112.831E+06    -4.61559E+06    -112.496E+06    -5.43538E+06     5.79167E+06
             929     18.5626E-03     7.80286E-03     16.8429E-03     51.5404E-03    -25.1733E-03    -26.3633E-03    -26.3291E-03     51.5062E-03    -25.1733E-03     2.96271E-03     62.2448E-03     128.461E+06    -2.14756E+06    -5.63166E+06    -132.291E+06    -6.03219E+06    -131.752E+06    -2.28633E+06     7.99365E+06
             930     18.1668E-03     6.82825E-03     16.8347E-03     51.0013E-03    -25.0460E-03    -25.9586E-03    -25.9397E-03     50.9824E-03    -25.0460E-03     2.04126E-03     58.7558E-03     139.492E+06    -2.10357E+06    -5.87160E+06    -143.427E+06    -6.41105E+06    -142.888E+06    -2.10357E+06     8.49437E+06
             931     17.8166E-03     5.85327E-03     16.8277E-03     50.6192E-03    -24.9277E-03    -25.6945E-03    -25.6845E-03     50.6093E-03    -24.9277E-03     1.18941E-03     56.2057E-03     150.769E+06    -1.77194E+06    -6.13025E+06    -154.663E+06    -6.48528E+06    -154.308E+06    -1.77194E+06     7.15276E+06
             932     17.5156E-03     4.87885E-03     16.8224E-03     50.1645E-03    -24.7981E-03    -25.3690E-03    -25.3651E-03     50.1607E-03    -24.7981E-03     654.287E-06     54.0594E-03     153.819E+06    -3.56178E+06    -8.31258E+06    -159.698E+06    -8.56856E+06    -159.442E+06    -3.56178E+06     6.05888E+06
             933     17.2655E-03     3.90377E-03     16.8184E-03     49.6450E-03    -24.6387E-03    -25.0082E-03    -24.9580E-03     49.6437E-03    -24.6876E-03     359.276E-06     52.2774E-03     151.623E+06    -5.75837E+06    -11.5548E+06    -160.174E+06    -11.7808E+06    -159.948E+06    -5.75837E+06     5.60769E+06
             934     17.0677E-03     2.92723E-03     16.8148E-03     49.4235E-03    -24.5361E-03    -24.8893E-03    -24.8391E-03     49.4223E-03    -24.5850E-03     134.890E-06     51.0262E-03     149.878E+06    -8.67593E+06    -15.4234E+06    -161.787E+06    -15.5852E+06    -161.625E+06    -8.67593E+06     4.80090E+06
             935     16.9244E-03     1.95219E-03     16.8115E-03     49.1842E-03    -24.3996E-03    -24.7856E-03    -24.7841E-03     49.1827E-03    -24.3996E-03    -103.534E-06     50.1495E-03     145.550E+06    -13.8253E+06    -20.0694E+06    -162.387E+06    -20.1373E+06    -162.319E+06    -13.8253E+06     2.71197E+06
             936     16.8398E-03     976.609E-06     16.8114E-03     48.4820E-03    -24.0697E-03    -24.4123E-03    -24.3520E-03     48.4800E-03    -24.1280E-03     159.669E-06     49.6087E-03     140.067E+06    -18.1373E+06    -21.6506E+06    -159.915E+06    -20.8256E+06    -159.862E+06    -19.0161E+06     2.41110E+06
             937     23.0789E-03     16.5646E-03     16.0701E-03     66.2298E-03    -26.4681E-03    -39.7624E-03    -28.3165E-03     54.7840E-03    -26.4681E-03     54.1202E-03     223.232E-03     173.624E+06     190.494E+06     88.6856E+06    -6.95137E+06    -6.93802E+06     190.480E+06     88.6856E+06     949.735E+03
             938     22.3131E-03     15.5902E-03     15.9630E-03     69.3563E-03    -26.0179E-03    -43.3393E-03    -28.4781E-03     54.4951E-03    -26.0179E-03     74.3269E-03     216.344E-03     169.981E+06     172.925E+06     25.5546E+06    -10.1045E+06    -9.36072E+06     172.908E+06     24.8269E+06     1.19345E+06
             939     21.6042E-03     14.6177E-03     15.9080E-03     58.1535E-03    -25.6947E-03    -32.4523E-03    -28.0377E-03     53.7389E-03    -25.6947E-03     37.0395E-03     145.871E-03     149.395E+06     135.410E+06    -9.18086E+06    -18.2359E+06    -11.6392E+06     135.389E+06    -15.7567E+06     1.33989E+06
             940     20.9351E-03     13.6447E-03     15.8777E-03     55.5990E-03    -25.5224E-03    -30.0704E-03    -28.6957E-03     54.2243E-03    -25.5224E-03     21.3162E-03     114.539E-03     91.2516E+06     71.6850E+06    -11.3541E+06    -24.9940E+06    -11.1561E+06     71.4870E+06    -24.9940E+06     2.34698E+06
             941     20.2960E-03     12.6743E-03     15.8521E-03     54.6676E-03    -25.3697E-03    -29.3290E-03    -28.6458E-03     53.9844E-03    -25.3697E-03     14.4590E-03     97.5377E-03     33.5922E+06     12.1599E+06    -16.1571E+06    -24.3409E+06    -8.83562E+06     4.59472E+06    -24.0972E+06     3.98206E+06
             942     19.6899E-03     11.7015E-03     15.8356E-03     53.5887E-03    -25.2085E-03    -28.4419E-03    -28.1917E-03     53.3385E-03    -25.2085E-03     8.86037E-03     85.4473E-03     33.2869E+06    -5.15395E+06    -17.0440E+06    -40.3841E+06    -6.06022E+06    -39.3294E+06    -17.1924E+06     4.36621E+06
             943     19.1151E-03     10.7292E-03     15.8200E-03     53.0094E-03    -25.0402E-03    -28.0161E-03    -27.9044E-03     52.8977E-03    -25.0402E-03     5.47464E-03     77.2689E-03     67.4780E+06    -2.74759E+06    -7.14893E+06    -72.1646E+06    -3.42947E+06    -71.8545E+06    -6.77724E+06     4.37560E+06
             944     18.5777E-03     9.75650E-03     15.8095E-03     52.1145E-03    -24.8294E-03    -27.3074E-03    -27.2760E-03     52.0830E-03    -24.8294E-03     2.69040E-03     70.1507E-03     90.8547E+06    -1.21974E+06    -2.85247E+06    -92.8770E+06    -2.73345E+06    -92.4600E+06    -1.75574E+06     5.84572E+06
             945     18.0763E-03     8.78278E-03     15.7992E-03     51.2522E-03    -24.6191E-03    -26.6366E-03    -26.6232E-03     51.2388E-03    -24.6191E-03     1.28754E-03     64.6704E-03     111.989E+06    -493.446E+03    -3.87132E+06    -114.113E+06    -3.90481E+06    -113.544E+06    -1.02945E+06     7.68738E+06
             946     17.6160E-03     7.80837E-03     15.7909E-03     50.5879E-03    -24.4163E-03    -26.1719E-03    -26.1632E-03     50.5792E-03    -24.4163E-03     121.963E-06     60.5438E-03     129.451E+06    -931.971E+03    -4.34898E+06    -132.033E+06    -4.83871E+06    -131.543E+06    -931.971E+03     7.81515E+06
             947     17.1999E-03     6.83409E-03     15.7839E-03     49.8205E-03    -24.1973E-03    -25.6252E-03    -25.6183E-03     49.8135E-03    -24.1973E-03    -505.332E-06     56.9637E-03     137.567E+06    -2.56816E+06    -5.07566E+06    -141.368E+06    -4.85078E+06    -140.935E+06    -3.22512E+06     7.67077E+06
             948     16.8298E-03     5.85912E-03     15.7770E-03     49.0270E-03    -24.0205E-03    -25.0080E-03    -24.9998E-03     49.0188E-03    -24.0205E-03    -1.05976E-03     54.0970E-03     148.610E+06    -2.81825E+06    -5.32147E+06    -152.659E+06    -4.97047E+06    -152.233E+06    -3.59503E+06     7.89083E+06
             949     16.5115E-03     4.88288E-03     15.7729E-03     48.4361E-03    -23.8854E-03    -24.5520E-03    -24.5396E-03     48.4237E-03    -23.8854E-03    -1.36272E-03     51.9193E-03     154.460E+06    -984.370E+03    -5.77069E+06    -157.760E+06    -6.03424E+06    -157.377E+06    -1.10419E+06     7.60126E+06
             950     16.2456E-03     3.90644E-03     15.7689E-03     48.0621E-03    -23.7237E-03    -24.3390E-03    -24.3284E-03     48.0515E-03    -23.7237E-03    -1.24206E-03     50.3318E-03     152.378E+06    -3.04123E+06    -9.36209E+06    -158.449E+06    -9.49230E+06    -158.071E+06    -3.28916E+06     7.44883E+06
             951     16.0359E-03     2.93139E-03     15.7657E-03     47.5184E-03    -23.5496E-03    -23.9699E-03    -23.9640E-03     47.5125E-03    -23.5496E-03    -1.09129E-03     48.8764E-03     149.272E+06    -5.95268E+06    -13.2441E+06    -158.692E+06    -13.2689E+06    -158.419E+06    -6.20061E+06     6.09996E+06
             952     15.8840E-03     1.95404E-03     15.7633E-03     46.9347E-03    -23.3599E-03    -23.5761E-03    -23.5217E-03     46.9307E-03    -23.4103E-03    -1.00486E-03     47.8114E-03     145.587E+06    -9.23351E+06    -15.7070E+06    -157.914E+06    -15.8168E+06    -157.804E+06    -9.23351E+06     3.56571E+06
             953     15.7931E-03     977.049E-06     15.7628E-03     46.6223E-03    -23.2125E-03    -23.4103E-03    -23.2836E-03     46.6180E-03    -23.3350E-03    -543.830E-06     47.6705E-03     139.617E+06    -16.7061E+06    -20.2793E+06    -158.065E+06    -19.4575E+06    -158.008E+06    -17.5848E+06     1.67230E+06
             954     22.3528E-03     16.5625E-03     15.0111E-03     66.5753E-03    -26.3757E-03    -40.1945E-03    -29.5090E-03     55.8897E-03    -26.3757E-03     53.6577E-03     221.123E-03     173.070E+06     189.995E+06     87.0618E+06    -6.37931E+06    -6.37148E+06     189.987E+06     87.0618E+06    -199.081E+03
             955     21.5728E-03     15.5934E-03     14.9075E-03     69.6329E-03    -25.8319E-03    -43.7956E-03    -29.8639E-03     55.7012E-03    -25.8319E-03     72.6337E-03     214.819E-03     169.147E+06     170.124E+06     21.9031E+06    -11.6159E+06    -10.8830E+06     170.099E+06     21.1952E+06     1.14653E+06
             956     20.8410E-03     14.6214E-03     14.8513E-03     59.2614E-03    -25.4081E-03    -33.8424E-03    -29.6361E-03     55.0551E-03    -25.4081E-03     36.3996E-03     145.509E-03     148.276E+06     134.770E+06    -7.73096E+06    -18.3701E+06    -10.1347E+06     134.694E+06    -15.8909E+06     2.88256E+06
             957     20.1503E-03     13.6520E-03     14.8208E-03     55.9539E-03    -25.1315E-03    -30.8147E-03    -29.6909E-03     54.8301E-03    -25.1315E-03     19.3831E-03     113.090E-03     89.3858E+06     71.7960E+06    -9.29688E+06    -23.3611E+06    -9.19306E+06     71.6922E+06    -23.3611E+06     2.58481E+06
             958     19.4866E-03     12.6798E-03     14.7970E-03     54.7326E-03    -24.8765E-03    -29.8913E-03    -29.4015E-03     54.2429E-03    -24.8765E-03     12.1261E-03     95.9719E-03     33.0187E+06     12.2434E+06    -16.0637E+06    -23.6534E+06    -8.05649E+06     4.23611E+06    -23.6534E+06     2.16665E+06
             959     18.8563E-03     11.7090E-03     14.7803E-03     53.7459E-03    -24.6019E-03    -29.2081E-03    -29.0773E-03     53.6151E-03    -24.6019E-03     6.13812E-03     84.1384E-03     33.9303E+06    -5.22635E+06    -16.4908E+06    -40.9503E+06    -5.72388E+06    -39.4753E+06    -17.4683E+06     3.22443E+06
             960     18.2575E-03     10.7371E-03     14.7665E-03     52.6107E-03    -24.3164E-03    -28.3334E-03    -28.2964E-03     52.5737E-03    -24.3164E-03     2.37176E-03     75.4908E-03     65.7766E+06    -4.90068E+06    -8.12186E+06    -72.1542E+06    -5.40816E+06    -71.8870E+06    -7.88164E+06     3.94651E+06
             961     17.6943E-03     9.76420E-03     14.7563E-03     51.5235E-03    -23.9943E-03    -27.5428E-03    -27.5292E-03     51.5099E-03    -23.9943E-03    -531.987E-06     68.4094E-03     90.7870E+06    -3.52414E+06    -4.71730E+06    -94.8985E+06    -4.84816E+06    -94.5397E+06    -3.75204E+06     5.27809E+06
             962     17.1693E-03     8.79104E-03     14.7480E-03     50.3821E-03    -23.6735E-03    -26.7009E-03    -26.6756E-03     50.3569E-03    -23.6735E-03    -2.00759E-03     62.7749E-03     112.025E+06    -1.70871E+06    -3.05364E+06    -114.397E+06    -3.08140E+06    -113.892E+06    -2.18606E+06     7.17502E+06
             963     16.6847E-03     7.81682E-03     14.7403E-03     49.2160E-03    -23.3677E-03    -25.8372E-03    -25.7986E-03     49.1774E-03    -23.3677E-03    -2.96923E-03     58.2401E-03     128.604E+06    -1.45381E+06    -2.76426E+06    -130.707E+06    -2.28934E+06    -130.268E+06    -2.36727E+06     7.47934E+06
             964     16.2449E-03     6.84154E-03     14.7339E-03     48.1625E-03    -23.0789E-03    -25.0844E-03    -25.0288E-03     48.1069E-03    -23.0789E-03    -3.57512E-03     54.6126E-03     138.367E+06    -1.81840E+06    -3.73561E+06    -141.132E+06    -2.89509E+06    -140.652E+06    -3.13938E+06     8.12447E+06
             965     15.8541E-03     5.86556E-03     14.7291E-03     47.1237E-03    -22.8305E-03    -24.2936E-03    -24.2296E-03     47.0597E-03    -22.8305E-03    -3.84519E-03     51.6313E-03     147.684E+06    -2.15264E+06    -4.05394E+06    -150.775E+06    -3.78952E+06    -150.263E+06    -2.92942E+06     8.65531E+06
             966     15.5155E-03     4.88912E-03     14.7251E-03     46.3146E-03    -22.6178E-03    -23.6971E-03    -23.6394E-03     46.2569E-03    -22.6178E-03    -3.80804E-03     49.3792E-03     153.782E+06    -1.48664E+06    -4.73197E+06    -156.836E+06    -5.02533E+06    -156.323E+06    -1.70624E+06     8.72663E+06
             967     15.2323E-03     3.91254E-03     14.7213E-03     45.6004E-03    -22.3952E-03    -23.2069E-03    -23.1618E-03     45.5552E-03    -22.3952E-03    -3.35441E-03     47.5386E-03     150.952E+06    -3.12635E+06    -6.20747E+06    -155.567E+06    -5.88254E+06    -155.054E+06    -3.96447E+06     8.66422E+06
             968     15.0085E-03     2.93429E-03     14.7188E-03     44.8616E-03    -22.2274E-03    -22.6358E-03    -22.6027E-03     44.8286E-03    -22.2274E-03    -2.75235E-03     45.9748E-03     149.105E+06    -2.24057E+06    -6.95477E+06    -153.600E+06    -6.52838E+06    -153.288E+06    -2.97891E+06     6.54017E+06
             969     14.8474E-03     1.95677E-03     14.7178E-03     44.3175E-03    -22.0854E-03    -22.2334E-03    -22.1492E-03     44.2999E-03    -22.1521E-03    -1.92102E-03     45.0079E-03     149.191E+06    -1.04306E+06    -8.53634E+06    -153.778E+06    -8.64716E+06    -153.667E+06    -1.04306E+06     3.63033E+06
             970     14.7490E-03     978.111E-06     14.7165E-03     44.1549E-03    -22.0156E-03    -22.1398E-03    -22.0106E-03     44.1499E-03    -22.1398E-03    -1.05849E-03     45.0265E-03     144.228E+06    -8.79100E+06    -13.6227E+06    -155.322E+06    -13.0382E+06    -155.274E+06    -9.42334E+06     1.51496E+06
             971     21.6579E-03     16.5674E-03     13.9494E-03     67.4493E-03    -26.2474E-03    -41.1949E-03    -30.9812E-03     57.2356E-03    -26.2474E-03     51.9633E-03     218.499E-03     172.161E+06     189.250E+06     85.6945E+06    -5.58544E+06    -5.58035E+06     189.244E+06     85.6945E+06    -252.658E+03
             972     20.8596E-03     15.5960E-03     13.8523E-03     70.4464E-03    -25.6036E-03    -44.8365E-03    -31.6125E-03     57.2224E-03    -25.6036E-03     71.3127E-03     213.336E-03     167.791E+06     169.413E+06     22.2333E+06    -11.4156E+06    -10.6831E+06     169.388E+06     21.5254E+06     1.00771E+06
             973     20.1034E-03     14.6271E-03     13.7911E-03     60.1201E-03    -25.0484E-03    -35.0630E-03    -31.2891E-03     56.3463E-03    -25.0484E-03     34.7292E-03     144.296E-03     148.721E+06     134.310E+06    -6.40481E+06    -20.9968E+06    -11.0931E+06     134.234E+06    -16.2334E+06     2.11654E+06
             974     19.3906E-03     13.6573E-03     13.7649E-03     56.3229E-03    -24.6245E-03    -31.6971E-03    -30.8145E-03     55.4403E-03    -24.6245E-03     17.2024E-03     111.754E-03     92.2244E+06     72.7699E+06    -7.55655E+06    -27.0993E+06    -7.45900E+06     72.6723E+06    -27.0993E+06     1.69454E+06
             975     18.7023E-03     12.6879E-03     13.7403E-03     55.1710E-03    -24.2590E-03    -30.9619E-03    -30.6240E-03     54.8332E-03    -24.2590E-03     9.76262E-03     94.9148E-03     35.3758E+06     13.5230E+06    -13.6362E+06    -26.3419E+06    -5.66990E+06     4.10218E+06    -24.8873E+06     2.08610E+06
             976     18.0466E-03     11.7178E-03     13.7249E-03     53.7603E-03    -23.8563E-03    -29.9748E-03    -29.9237E-03     53.7091E-03    -23.8563E-03     3.18807E-03     82.8460E-03     34.3514E+06    -5.18695E+06    -17.3582E+06    -42.1918E+06    -5.58276E+06    -40.9669E+06    -18.1873E+06     3.14302E+06
             977     17.4228E-03     10.7468E-03     13.7136E-03     52.3570E-03    -23.4270E-03    -28.9659E-03    -28.9498E-03     52.3409E-03    -23.4270E-03    -691.692E-06     74.0815E-03     65.6384E+06    -4.19556E+06    -8.33750E+06    -71.6429E+06    -4.62374E+06    -71.3389E+06    -8.21327E+06     4.26894E+06
             978     16.8330E-03     9.77466E-03     13.7042E-03     50.8964E-03    -22.9635E-03    -27.9556E-03    -27.8978E-03     50.8387E-03    -22.9635E-03    -3.72211E-03     66.7099E-03     91.5279E+06    -4.16751E+06    -5.18105E+06    -96.1948E+06    -4.53399E+06    -95.9525E+06    -5.05681E+06     4.63618E+06
             979     16.2814E-03     8.80147E-03     13.6974E-03     49.3462E-03    -22.5047E-03    -26.8413E-03    -26.7317E-03     49.2366E-03    -22.5047E-03    -5.50044E-03     60.7730E-03     110.697E+06    -3.15380E+06    -5.32147E+06    -114.913E+06    -4.49086E+06    -114.605E+06    -4.29254E+06     5.72964E+06
             980     15.7709E-03     7.82692E-03     13.6916E-03     47.7120E-03    -22.0777E-03    -25.6207E-03    -25.4744E-03     47.5657E-03    -22.0777E-03    -6.26201E-03     55.8796E-03     127.420E+06    -1.27321E+06    -4.08390E+06    -130.071E+06    -3.58998E+06    -129.651E+06    -2.18667E+06     7.24469E+06
             981     15.3055E-03     6.85139E-03     13.6864E-03     46.1851E-03    -21.6871E-03    -24.4975E-03    -24.3188E-03     46.0064E-03    -21.6871E-03    -6.88363E-03     51.9727E-03     139.815E+06    -315.295E+03    -3.25281E+06    -141.573E+06    -3.06727E+06    -141.094E+06    -979.320E+03     8.11887E+06
             982     14.8905E-03     5.87474E-03     13.6827E-03     44.8699E-03    -21.3352E-03    -23.5337E-03    -23.3488E-03     44.6849E-03    -21.3352E-03    -6.93932E-03     48.8405E-03     147.790E+06    -41.0185E+03    -3.23377E+06    -149.399E+06    -3.79771E+06    -148.835E+06    -41.0185E+03     8.99945E+06
             983     14.5296E-03     4.89724E-03     13.6794E-03     43.6323E-03    -21.0099E-03    -22.6219E-03    -22.4627E-03     43.4732E-03    -21.0099E-03    -6.29343E-03     46.2783E-03     152.381E+06    -1.27947E+06    -3.77072E+06    -154.886E+06    -4.24815E+06    -154.309E+06    -1.37925E+06     9.17515E+06
             984     14.2275E-03     3.91862E-03     13.6773E-03     42.4540E-03    -20.7394E-03    -21.7145E-03    -21.5913E-03     42.3308E-03    -20.7394E-03    -5.44337E-03     44.1408E-03     149.967E+06    -981.663E+03    -3.50210E+06    -152.185E+06    -3.37399E+06    -151.723E+06    -1.57186E+06     8.15555E+06
             985     13.9880E-03     2.93979E-03     13.6756E-03     41.5447E-03    -20.5731E-03    -20.9700E-03    -20.8823E-03     41.4571E-03    -20.5731E-03    -4.54709E-03     42.5700E-03     147.967E+06     1.14085E+06    -2.51457E+06    -148.616E+06    -2.26876E+06    -148.372E+06     650.441E+03     5.74414E+06
             986     13.8144E-03     1.95960E-03     13.6747E-03     41.0865E-03    -20.4800E-03    -20.6058E-03    -20.5473E-03     41.0442E-03    -20.4963E-03    -3.00218E-03     41.7272E-03     148.768E+06     2.34571E+06    -4.13739E+06    -149.523E+06    -4.23742E+06    -149.423E+06     2.34571E+06     3.46509E+06
             987     13.7090E-03     980.130E-06     13.6739E-03     40.8387E-03    -20.3079E-03    -20.5303E-03    -20.4591E-03     40.8275E-03    -20.3680E-03    -1.47327E-03     41.6232E-03     145.249E+06    -3.39474E+06    -9.47476E+06    -151.549E+06    -8.90687E+06    -151.485E+06    -4.02708E+06     1.51892E+06
             988     20.9968E-03     16.5684E-03     12.8978E-03     69.4840E-03    -26.1195E-03    -43.3615E-03    -33.3148E-03     59.4373E-03    -26.1195E-03     51.4441E-03     215.664E-03     171.286E+06     187.552E+06     86.3149E+06    -6.58588E+06    -6.56914E+06     187.535E+06     86.3149E+06     740.244E+03
             989     20.1705E-03     15.6002E-03     12.7861E-03     71.6896E-03    -25.3381E-03    -46.3544E-03    -33.6884E-03     59.0237E-03    -25.3381E-03     70.5027E-03     211.368E-03     166.572E+06     168.832E+06     23.6419E+06    -10.6771E+06    -10.6431E+06     168.798E+06     23.6419E+06     1.39412E+06
             990     19.4003E-03     14.6346E-03     12.7357E-03     60.4889E-03    -24.6557E-03    -35.8289E-03    -32.5565E-03     57.2166E-03    -24.6557E-03     32.9621E-03     143.419E-03     148.084E+06     136.069E+06    -5.77408E+06    -17.3227E+06    -10.5582E+06     136.040E+06    -12.5094E+06     461.329E+03
             991     18.6587E-03     13.6651E-03     12.7049E-03     57.1060E-03    -24.1020E-03    -33.0037E-03    -32.2178E-03     56.3202E-03    -24.1020E-03     16.2672E-03     111.648E-03     92.3788E+06     72.5589E+06    -10.6392E+06    -26.1427E+06    -10.6114E+06     72.5311E+06    -26.1427E+06     652.676E+03
             992     17.9476E-03     12.6976E-03     12.6842E-03     55.6256E-03    -23.5961E-03    -32.0905E-03    -31.8607E-03     55.3958E-03    -23.5961E-03     7.96095E-03     94.7956E-03     33.9747E+06     12.0149E+06    -14.5146E+06    -26.1899E+06    -8.97570E+06     3.56890E+06    -23.2828E+06     1.78298E+06
             993     17.2646E-03     11.7278E-03     12.6698E-03     53.8941E-03    -23.0406E-03    -30.9282E-03    -30.9050E-03     53.8709E-03    -23.0406E-03     1.24321E-03     82.2980E-03     33.0898E+06    -5.52709E+06    -15.2101E+06    -41.3470E+06    -5.78355E+06    -41.0906E+06    -15.2101E+06     1.88305E+06
             994     16.6132E-03     10.7575E-03     12.6599E-03     52.3202E-03    -22.4533E-03    -29.9018E-03    -29.8528E-03     52.2712E-03    -22.4533E-03    -3.22956E-03     73.3317E-03     69.4710E+06    -813.352E+03    -6.70059E+06    -72.9161E+06    -2.90718E+06    -72.7794E+06    -4.74338E+06     2.73935E+06
             995     15.9956E-03     9.78629E-03     12.6526E-03     50.4079E-03    -21.8439E-03    -28.5920E-03    -28.4388E-03     50.2547E-03    -21.8439E-03    -6.62262E-03     65.4878E-03     97.7210E+06     3.02917E+06     -2.7623E+06    -97.3862E+06    -2.45149E+06    -97.0356E+06     2.36777E+06     5.50450E+06
             996     15.4160E-03     8.81326E-03     12.6483E-03     48.2959E-03    -21.2127E-03    -27.0874E-03    -26.8321E-03     48.0405E-03    -21.2127E-03    -8.59295E-03     59.0199E-03     113.199E+06     2.47506E+06    -4.44110E+06    -113.975E+06    -4.14558E+06    -113.609E+06     1.81366E+06     6.13658E+06
             997     14.8770E-03     7.83903E-03     12.6442E-03     46.1344E-03    -20.6201E-03    -25.5044E-03    -25.1856E-03     45.8156E-03    -20.6201E-03    -9.40091E-03     53.6734E-03     128.878E+06     1.58408E+06    -4.33985E+06    -130.140E+06    -4.61331E+06    -129.867E+06     1.58408E+06     5.73115E+06
             998     14.3844E-03     6.86279E-03     12.6417E-03     44.0541E-03    -20.0837E-03    -23.9679E-03    -23.6211E-03     43.7074E-03    -20.0837E-03    -9.58992E-03     49.2739E-03     141.501E+06     1.67320E+06    -3.32816E+06    -142.255E+06    -3.73791E+06    -141.845E+06     1.67320E+06     7.32557E+06
             999     13.9421E-03     5.88532E-03     12.6391E-03     42.2343E-03    -19.6016E-03    -22.6305E-03    -22.2896E-03     41.8935E-03    -19.6016E-03    -9.29049E-03     45.7534E-03     147.879E+06     2.04068E+06    -2.70158E+06    -148.150E+06    -3.20536E+06    -147.647E+06     2.04068E+06     8.32140E+06
            1000     13.5571E-03     4.90654E-03     12.6381E-03     40.5404E-03    -19.1838E-03    -21.3548E-03    -21.0537E-03     40.2393E-03    -19.1838E-03    -8.52075E-03     42.8592E-03     152.254E+06     3.09659E+06    -1.77682E+06    -151.528E+06    -2.15850E+06    -151.146E+06     3.09659E+06     7.27178E+06
            1001     13.2324E-03     3.92658E-03     12.6364E-03     39.0082E-03    -18.8459E-03    -20.1595E-03    -19.9200E-03     38.7688E-03    -18.8459E-03    -7.41000E-03     40.5138E-03     150.830E+06     4.40898E+06    -287.692E+03    -148.708E+06    -518.739E+03    -148.477E+06     4.40898E+06     5.49852E+06
            1002     12.9746E-03     2.94539E-03     12.6359E-03     37.8722E-03    -18.6164E-03    -19.2528E-03    -19.0886E-03     37.7080E-03    -18.6164E-03    -5.99332E-03     38.8696E-03     148.384E+06     6.51396E+06     109.353E+03    -144.937E+06    -38.8852E+03    -144.789E+06     6.51396E+06     4.28777E+06
            1003     12.7875E-03     1.96392E-03     12.6358E-03     37.1829E-03    -18.4510E-03    -18.7314E-03    -18.6521E-03     37.1037E-03    -18.4510E-03    -3.96887E-03     37.8754E-03     148.130E+06     4.19506E+06    -1.93340E+06    -146.867E+06    -2.09339E+06    -146.707E+06     4.19506E+06     4.75000E+06
            1004     12.6724E-03     981.930E-06     12.6343E-03     36.6787E-03    -18.2287E-03    -18.4499E-03    -18.4271E-03     36.6558E-03    -18.2287E-03    -2.11038E-03     37.5364E-03     143.285E+06    -2.24447E+06    -6.49841E+06    -147.604E+06    -5.29196E+06    -147.490E+06    -3.56510E+06     2.42369E+06
            1005     20.3576E-03     16.5692E-03     11.8277E-03     71.0626E-03    -26.0064E-03    -45.0550E-03    -35.7066E-03     61.7142E-03    -26.0064E-03     50.9250E-03     212.305E-03     170.850E+06     187.876E+06     89.5759E+06    -6.19689E+06    -6.17944E+06     187.858E+06     89.5759E+06     867.232E+03
            1006     19.5234E-03     15.6080E-03     11.7284E-03     72.5030E-03    -25.0753E-03    -47.4305E-03    -35.5660E-03     60.6386E-03    -25.0753E-03     69.3517E-03     209.198E-03     165.573E+06     168.765E+06     25.5180E+06    -9.68016E+06    -9.65712E+06     168.742E+06     25.5180E+06     735.696E+03
            1007     18.7227E-03     14.6377E-03     11.6737E-03     61.4722E-03    -24.2682E-03    -37.1953E-03    -34.0748E-03     58.3518E-03    -24.2682E-03     32.3239E-03     142.695E-03     146.143E+06     136.069E+06    -6.56661E+06    -13.1396E+06    -10.0547E+06     136.054E+06    -9.63672E+06      284.64E+03
            1008     17.9612E-03     13.6731E-03     11.6469E-03     57.8835E-03    -23.6042E-03    -34.2753E-03    -33.5831E-03     57.1913E-03    -23.6042E-03     15.3794E-03     111.295E-03     88.0631E+06     73.0026E+06    -9.28775E+06    -19.1140E+06    -9.27552E+06     72.9904E+06    -19.1140E+06     567.432E+03
            1009     17.2215E-03     12.7049E-03     11.6260E-03     56.0343E-03    -22.9534E-03    -33.1446E-03    -32.9543E-03     55.8440E-03    -22.9534E-03     6.88355E-03     94.6781E-03     30.7836E+06     11.3679E+06    -11.4007E+06    -22.9566E+06    -8.01191E+06     3.17938E+06    -18.1569E+06     402.852E+03
            1010     16.5130E-03     11.7377E-03     11.6149E-03     54.3365E-03    -22.2460E-03    -32.1812E-03    -32.1641E-03     54.3194E-03    -22.2460E-03     48.3842E-06     82.1989E-03     32.3450E+06    -5.66315E+06    -11.1015E+06    -39.8729E+06    -6.36858E+06    -39.8616E+06    -10.4075E+06     310.132E+03
            1011     15.8325E-03     10.7689E-03     11.6060E-03     52.3982E-03    -21.4927E-03    -30.9494E-03    -30.8542E-03     52.3030E-03    -21.4927E-03    -4.89260E-03     72.8975E-03     71.8633E+06     557.118E+03    -7.52858E+06    -74.9491E+06    -6.22445E+06    -74.9031E+06    -792.939E+03     1.56367E+06
            1012     15.1862E-03     9.79825E-03     11.6024E-03     49.9862E-03    -20.6993E-03    -29.3081E-03    -29.0632E-03     49.7413E-03    -20.6993E-03    -8.66606E-03     64.6833E-03     100.431E+06     6.63097E+06    -4.80198E+06    -98.9785E+06    -5.02085E+06    -98.7596E+06     6.63097E+06     3.49473E+06
            1013     14.5756E-03     8.82597E-03     11.5996E-03     47.3237E-03    -19.8934E-03    -27.4327E-03    -27.0421E-03     46.9331E-03    -19.8934E-03    -10.6861E-03     57.6960E-03     117.135E+06     9.13597E+06    -1.64310E+06    -113.003E+06    -1.91566E+06    -112.731E+06     9.13597E+06     4.52766E+06
            1014     14.0067E-03     7.85127E-03     11.5994E-03     44.5849E-03    -19.1378E-03    -25.4399E-03    -24.9529E-03     44.0979E-03    -19.1378E-03    -11.5919E-03     51.8740E-03     134.507E+06     9.34453E+06    -711.171E+03    -129.894E+06    -908.557E+03    -129.697E+06     9.34453E+06     4.99947E+06
            1015     13.4829E-03     6.87471E-03     11.5986E-03     41.8943E-03    -18.4457E-03    -23.4478E-03    -22.9341E-03     41.3806E-03    -18.4457E-03    -11.4952E-03     46.8481E-03     145.559E+06     7.25574E+06    -1.17585E+06    -142.319E+06    -1.43632E+06    -142.059E+06     7.25574E+06     5.35310E+06
            1016     13.0117E-03     5.89615E-03     11.5991E-03     39.4980E-03    -17.8383E-03    -21.6574E-03    -21.1647E-03     39.0054E-03    -17.8383E-03    -10.8930E-03     42.8793E-03     151.269E+06     7.44440E+06     470.304E+03    -147.178E+06     197.500E+03    -146.905E+06     7.44440E+06     5.66579E+06
            1017     12.5977E-03     4.91611E-03     11.5989E-03     37.4114E-03    -17.3206E-03    -20.0900E-03    -19.6614E-03     36.9828E-03    -17.3206E-03    -9.85326E-03     39.7233E-03     153.925E+06     9.63471E+06     2.04556E+06    -147.937E+06     1.87308E+06    -147.764E+06     9.63471E+06     4.49291E+06
            1018     12.2494E-03     3.93474E-03     11.6003E-03     35.5784E-03    -16.8865E-03    -18.6902E-03    -18.3499E-03     35.2381E-03    -16.8865E-03    -8.52539E-03     37.0609E-03     153.338E+06     10.7656E+06     2.93863E+06    -146.322E+06     2.86584E+06    -146.249E+06     10.7656E+06     2.52218E+06
            1019     11.9701E-03     2.95190E-03     11.6004E-03     34.1411E-03    -16.5423E-03    -17.5987E-03    -17.3700E-03     33.9124E-03    -16.5423E-03    -6.79466E-03     35.1219E-03     152.074E+06     11.6238E+06     3.25219E+06    -144.440E+06     3.20728E+06    -144.395E+06     11.6238E+06     2.20381E+06
            1020     11.7667E-03     1.96860E-03     11.6009E-03     33.0514E-03    -16.2704E-03    -16.7822E-03    -16.6690E-03     32.9382E-03    -16.2704E-03    -4.58517E-03     33.7928E-03     151.934E+06     12.1990E+06     3.11806E+06    -144.023E+06     3.02231E+06    -143.927E+06     12.1990E+06     2.93346E+06
            1021     11.6421E-03     984.672E-06     11.6004E-03     32.2002E-03    -15.9891E-03    -16.2119E-03    -16.0810E-03     32.1662E-03    -16.0859E-03    -2.35485E-03     33.2916E-03     145.972E+06     6.53602E+06    -325.673E+03    -142.704E+06     894.827E+03    -142.604E+06     5.21540E+06     3.03275E+06
            1022     19.7630E-03     16.5745E-03     10.7639E-03     72.4509E-03    -25.8776E-03    -46.5737E-03    -37.5617E-03     63.4389E-03    -25.8776E-03     49.7110E-03     208.217E-03     170.329E+06     186.359E+06     90.2267E+06    -7.30249E+06    -7.29835E+06     186.354E+06     90.2267E+06     526.462E+03
            1023     18.9017E-03     15.6064E-03     10.6637E-03     73.1741E-03    -24.8481E-03    -48.3274E-03    -37.1382E-03     61.9849E-03    -24.8481E-03     67.3709E-03     207.140E-03     164.852E+06     169.437E+06     30.5653E+06    -10.5280E+06    -10.5151E+06     169.424E+06     30.5653E+06     98.4251E+03
            1024     18.0876E-03     14.6467E-03     10.6129E-03     62.2733E-03    -23.9202E-03    -38.3418E-03    -35.6210E-03     59.5525E-03    -23.9202E-03     30.7175E-03     141.736E-03     145.120E+06     137.472E+06    -2.87816E+06    -11.8144E+06    -10.6777E+06     137.460E+06    -4.00272E+06    -509.469E+03
            1025     17.2975E-03     13.6793E-03     10.5868E-03     58.3155E-03    -23.1343E-03    -35.1778E-03    -34.5510E-03     57.6887E-03    -23.1343E-03     14.7098E-03     110.850E-03     85.8004E+06     73.1856E+06    -9.47471E+06    -14.8117E+06    -9.43309E+06     73.1440E+06    -14.8117E+06    -928.470E+03
            1026     16.5330E-03     12.7139E-03     10.5687E-03     56.6464E-03    -22.3702E-03    -34.3400E-03    -34.1820E-03     56.4884E-03    -22.3702E-03     6.14079E-03     94.6643E-03     29.6834E+06     12.6605E+06    -8.12722E+06    -19.3709E+06    -6.99645E+06     3.90988E+06    -11.7511E+06    -840.406E+03
            1027     15.7940E-03     11.7464E-03     10.5581E-03     54.7684E-03    -21.5169E-03    -33.3446E-03    -33.3149E-03     54.7387E-03    -21.5169E-03    -1.20066E-03     82.0342E-03     34.5453E+06    -3.28804E+06    -7.62839E+06    -39.7393E+06    -6.54446E+06    -39.7180E+06    -4.39333E+06     110.846E+03
            1028     15.0846E-03     10.7785E-03     10.5531E-03     52.4424E-03    -20.6043E-03    -31.8822E-03    -31.7229E-03     52.2831E-03    -20.6043E-03    -6.65447E-03     72.3450E-03     75.8011E+06     4.63881E+06    -6.54766E+06    -76.0814E+06    -6.58520E+06    -76.0439E+06     4.63881E+06     591.217E+03
            1029     14.4066E-03     9.80890E-03     10.5516E-03     49.4825E-03    -19.6393E-03    -29.8584E-03    -29.5175E-03     49.1416E-03    -19.6393E-03    -10.2459E-03     63.7116E-03     102.035E+06     9.61537E+06    -5.10082E+06    -98.9308E+06    -5.13998E+06    -98.8917E+06     9.61537E+06    -302.348E+03
            1030     13.7644E-03     8.83675E-03     10.5533E-03     46.3582E-03    -18.6903E-03    -27.6737E-03    -27.1770E-03     45.8614E-03    -18.6903E-03    -12.0015E-03     56.4320E-03     119.575E+06     12.0401E+06    -2.99446E+06    -114.297E+06    -3.05476E+06    -114.237E+06     12.0401E+06     13.0678E+03
            1031     13.1620E-03     7.86243E-03     10.5556E-03     43.1871E-03    -17.8068E-03    -25.3789E-03    -24.7666E-03     42.5748E-03    -17.8068E-03    -12.8701E-03     50.3323E-03     139.062E+06     15.5877E+06    -616.907E+03    -130.810E+06    -743.018E+03    -130.684E+06     15.5877E+06     2.60230E+06
            1032     12.6056E-03     6.88548E-03     10.5589E-03     39.9275E-03    -16.9812E-03    -22.9454E-03    -22.3120E-03     39.2942E-03    -16.9812E-03    -12.5434E-03     44.8786E-03     149.401E+06     15.1832E+06     898.817E+03    -140.814E+06     811.363E+03    -140.726E+06     15.1832E+06     3.03199E+06
            1033     12.1007E-03     5.90616E-03     10.5615E-03     36.9537E-03    -16.2619E-03    -20.6903E-03    -20.1088E-03     36.3722E-03    -16.2619E-03    -11.5136E-03     40.4640E-03     155.095E+06     14.2952E+06     2.01826E+06    -146.536E+06     1.92961E+06    -146.447E+06     14.2952E+06     1.72102E+06
            1034     11.6559E-03     4.92474E-03     10.5644E-03     34.4641E-03    -15.6571E-03    -18.8073E-03    -18.3107E-03     33.9675E-03    -15.6571E-03    -10.2287E-03     37.0067E-03     155.582E+06     15.1642E+06     4.10765E+06    -145.630E+06     4.03124E+06    -145.553E+06     15.1642E+06     943.850E+03
            1035     11.2777E-03     3.94170E-03     10.5664E-03     32.4503E-03    -15.1392E-03    -17.3100E-03    -16.9297E-03     32.0700E-03    -15.1392E-03    -8.63741E-03     34.1791E-03     153.689E+06     13.7933E+06     4.00878E+06    -144.546E+06     3.99514E+06    -144.532E+06     13.7933E+06     -23.041E+03
            1036     10.9755E-03     2.95795E-03     10.5694E-03     30.7452E-03    -14.6966E-03    -16.0485E-03    -15.8109E-03     30.5076E-03    -14.6966E-03    -6.58566E-03     31.9149E-03     152.645E+06     12.0069E+06     4.37774E+06    -144.307E+06     4.32466E+06    -144.254E+06     12.0069E+06    -1.17847E+06
            1037     10.7525E-03     1.97260E-03     10.5701E-03     29.3334E-03    -14.3644E-03    -14.9697E-03    -14.8540E-03     29.2178E-03    -14.3644E-03    -4.42127E-03     30.2343E-03     153.639E+06     14.3731E+06     5.11863E+06    -143.665E+06     5.07674E+06    -143.623E+06     14.3731E+06    -1.09154E+06
            1038     10.6173E-03     986.403E-06     10.5714E-03     28.3539E-03    -14.0062E-03    -14.3478E-03    -14.2148E-03     28.3178E-03    -14.1031E-03    -2.12452E-03     29.6187E-03     148.351E+06     9.97035E+06     2.54854E+06    -141.904E+06     2.50920E+06    -141.865E+06     9.97035E+06     745.618E+03
            1039     19.2045E-03     16.5740E-03     9.70142E-03     74.4336E-03    -25.7991E-03    -48.6432E-03    -39.9160E-03     65.7064E-03    -25.7991E-03     48.5465E-03     202.960E-03     170.757E+06     187.376E+06     93.9552E+06    -7.40489E+06    -7.40157E+06     187.373E+06     93.9552E+06     615.226E+03
            1040     18.3283E-03     15.6157E-03     9.59574E-03     73.8249E-03    -24.6583E-03    -49.1670E-03    -38.3828E-03     63.0407E-03    -24.6583E-03     66.7196E-03     203.049E-03     165.355E+06     170.599E+06     34.9133E+06    -10.9311E+06    -10.9201E+06     170.588E+06     34.9133E+06    -226.230E+03
            1041     17.4880E-03     14.6490E-03     9.55188E-03     62.7632E-03    -23.6357E-03    -39.1165E-03    -36.5137E-03     60.1604E-03    -23.6357E-03     30.5807E-03     140.012E-03     145.479E+06     137.949E+06    -998.857E+03    -13.2040E+06    -12.0781E+06     137.924E+06    -2.10008E+06    -1.70126E+06
            1042     16.6744E-03     13.6852E-03     9.52631E-03     59.2967E-03    -22.7632E-03    -36.5273E-03    -35.8718E-03     58.6412E-03    -22.7632E-03     15.0722E-03     110.187E-03     85.2593E+06     74.2222E+06    -8.77309E+06    -13.1078E+06    -11.3477E+06     74.1006E+06    -10.4117E+06    -2.39728E+06
            1043     15.8815E-03     12.7196E-03     9.50970E-03     57.2036E-03    -21.8839E-03    -35.3794E-03    -35.2367E-03     57.0609E-03    -21.8839E-03     5.98085E-03     94.1450E-03     30.1665E+06     13.8462E+06    -9.12940E+06    -17.6843E+06    -9.53921E+06     3.51072E+06    -6.93902E+06    -2.76171E+06
            1044     15.1148E-03     11.7548E-03     9.50177E-03     54.9310E-03    -20.9135E-03    -34.1060E-03    -34.0714E-03     54.8963E-03    -20.9135E-03    -1.36753E-03     81.6462E-03     38.9293E+06     493.258E+03    -6.66634E+06    -41.4104E+06    -7.06235E+06    -41.0144E+06     493.258E+03     -1.9667E+06
            1045     14.3739E-03     10.7877E-03     9.49910E-03     52.1541E-03    -19.9012E-03    -32.3033E-03    -32.1305E-03     51.9813E-03    -19.9012E-03    -7.06371E-03     71.7043E-03     81.1014E+06     11.8370E+06    -3.69862E+06    -75.8387E+06    -3.84725E+06    -75.6900E+06     11.8370E+06    -2.32075E+06
            1046     13.6635E-03     9.81794E-03     9.50255E-03     48.8448E-03    -18.8484E-03    -30.0120E-03    -29.6599E-03     48.4927E-03    -18.8484E-03    -10.4184E-03     62.9554E-03     108.169E+06     19.4535E+06    -1.08347E+06    -97.4401E+06    -1.28901E+06    -97.2346E+06     19.4535E+06    -3.90811E+06
            1047     12.9859E-03     8.84575E-03     9.50719E-03     45.3928E-03    -17.8175E-03    -27.5707E-03    -27.0747E-03     44.8969E-03    -17.8175E-03    -11.9133E-03     55.5980E-03     128.869E+06     22.2633E+06    -156.762E+03    -116.326E+06    -320.587E+03    -116.162E+06     22.2633E+06    -3.71785E+06
            1048     12.3476E-03     7.87109E-03     9.51361E-03     41.8856E-03    -16.8547E-03    -25.0230E-03    -24.4322E-03     41.2949E-03    -16.8547E-03    -12.4878E-03     49.2313E-03     148.122E+06     25.5582E+06     300.024E+03    -133.528E+06     217.243E+03    -133.445E+06     25.5582E+06    -2.05985E+06
            1049     11.7542E-03     6.89369E-03     9.52046E-03     38.3287E-03    -15.9432E-03    -22.3789E-03    -21.7847E-03     37.7345E-03    -15.9432E-03    -11.9293E-03     43.6693E-03     154.598E+06     24.7692E+06     1.37799E+06    -140.125E+06     1.31119E+06    -140.058E+06     24.7692E+06    -637.434E+03
            1050     11.2128E-03     5.91353E-03     9.52659E-03     34.9994E-03    -15.1382E-03    -19.8601E-03    -19.3319E-03     34.4712E-03    -15.1382E-03    -10.6909E-03     38.9642E-03     156.781E+06     21.2065E+06     1.86412E+06    -144.295E+06     1.81786E+06    -144.249E+06     21.2065E+06    -1.48654E+06
            1051     10.7318E-03     4.93120E-03     9.53177E-03     32.1675E-03    -14.4623E-03    -17.7054E-03    -17.2689E-03     31.7310E-03    -14.4623E-03    -9.26367E-03     35.0503E-03     155.096E+06     16.3257E+06     1.49863E+06    -145.641E+06     1.37726E+06    -145.519E+06     16.3257E+06    -3.19055E+06
            1052     10.3212E-03     3.94712E-03     9.53665E-03     29.8983E-03    -13.9225E-03    -15.9753E-03    -15.6582E-03     29.5812E-03    -13.9225E-03    -7.52656E-03     31.9933E-03     153.141E+06     13.2187E+06     3.64648E+06    -144.449E+06     3.49113E+06    -144.294E+06     13.2187E+06    -3.74893E+06
            1053     9.98918E-03     2.96140E-03     9.54012E-03     28.2132E-03    -13.5028E-03    -14.7099E-03    -14.5301E-03     28.0334E-03    -13.5028E-03    -5.44823E-03     29.7798E-03     152.183E+06     11.2948E+06     3.90721E+06    -144.437E+06     3.79517E+06    -144.325E+06     11.2948E+06    -3.83770E+06
            1054     9.74569E-03     1.97508E-03     9.54346E-03     26.9487E-03    -13.1623E-03    -13.7857E-03    -13.6988E-03     26.8619E-03    -13.1623E-03    -3.66439E-03     28.2014E-03     152.377E+06     9.06762E+06     1.58726E+06    -146.895E+06     1.44666E+06    -146.754E+06     9.06762E+06    -3.90673E+06
            1055     9.59581E-03     987.896E-06     9.54482E-03     25.9416E-03    -12.8073E-03    -13.1336E-03    -13.1075E-03     25.9155E-03    -12.8073E-03    -1.51675E-03     27.3559E-03     148.045E+06     5.15162E+06     1.09191E+06    -144.863E+06     1.65203E+06    -144.770E+06     4.49850E+06    -2.15694E+06
            1056     18.6862E-03     16.5761E-03     8.62585E-03     75.7881E-03    -25.8345E-03    -49.9687E-03    -41.6364E-03     67.4559E-03    -25.8345E-03     47.6703E-03     197.239E-03     171.745E+06     188.355E+06     97.6611E+06    -7.84512E+06    -7.83695E+06     188.347E+06     97.6611E+06     695.954E+03
            1057     17.7937E-03     15.6134E-03     8.53446E-03     74.5121E-03    -24.6130E-03    -49.8932E-03    -39.3694E-03     63.9882E-03    -24.6130E-03     66.7847E-03     199.333E-03     166.174E+06     171.424E+06     38.6853E+06    -11.8971E+06    -11.8929E+06     171.420E+06     38.6853E+06    -479.076E+03
            1058     16.9320E-03     14.6513E-03     8.48715E-03     63.9900E-03    -23.5109E-03    -40.4662E-03    -37.7390E-03     61.2628E-03    -23.5109E-03     31.5423E-03     138.318E-03     146.171E+06     138.315E+06     160.216E+03    -14.6699E+06    -14.6464E+06     138.292E+06     160.216E+03    -1.64774E+06
            1059     16.0946E-03     13.6888E-03     8.46473E-03     60.1810E-03    -22.5517E-03    -37.6289E-03    -36.9610E-03     59.5130E-03    -22.5517E-03     15.5164E-03     109.191E-03     87.8887E+06     76.0337E+06    -7.18136E+06    -15.5921E+06    -15.3377E+06     75.7793E+06    -7.18136E+06    -3.45764E+06
            1060     15.2757E-03     12.7253E-03     8.45069E-03     57.3055E-03    -21.6027E-03    -35.7576E-03    -35.5731E-03     57.1210E-03    -21.6027E-03     7.36898E-03     93.3110E-03     35.0599E+06     16.3896E+06    -8.63160E+06    -21.6204E+06    -13.6780E+06     4.13888E+06    -4.32326E+06    -5.88051E+06
            1061     14.4772E-03     11.7591E-03     8.44474E-03     54.4355E-03    -20.6077E-03    -33.9174E-03    -33.8792E-03     54.3973E-03    -20.6077E-03     582.681E-06     81.0743E-03     44.9499E+06     4.05655E+06    -6.70467E+06    -45.1936E+06    -9.32833E+06    -42.5700E+06     4.05655E+06    -7.64512E+06
            1062     13.7040E-03     10.7916E-03     8.44637E-03     51.3603E-03    -19.5972E-03    -31.8298E-03    -31.7415E-03     51.2721E-03    -19.5972E-03    -4.67295E-03     71.1421E-03     85.3529E+06     18.0962E+06    -3.07485E+06    -75.7732E+06    -4.25761E+06    -74.5905E+06     18.0962E+06    -8.10406E+06
            1063     12.9588E-03     9.82198E-03     8.45340E-03     48.0055E-03    -18.5614E-03    -29.4614E-03    -29.2688E-03     47.8129E-03    -18.5614E-03    -7.33232E-03     62.8413E-03     113.175E+06     27.4207E+06    -978.038E+03    -97.1748E+06    -1.76649E+06    -96.3864E+06     27.4207E+06    -8.26685E+06
            1064     12.2446E-03     8.84974E-03     8.46237E-03     44.4328E-03    -17.5381E-03    -26.8809E-03    -26.6027E-03     44.1546E-03    -17.5381E-03    -8.44155E-03     55.5879E-03     136.880E+06     30.1982E+06     383.278E+03    -119.086E+06    -218.333E+03    -118.485E+06     30.1982E+06    -7.82646E+06
            1065     11.5672E-03     7.87439E-03     8.47308E-03     40.8617E-03    -16.5913E-03    -24.2584E-03    -23.9376E-03     40.5409E-03    -16.5913E-03    -8.64507E-03     49.2118E-03     155.970E+06     33.4649E+06     784.441E+03    -136.239E+06     447.268E+03    -135.902E+06     33.4649E+06    -6.11248E+06
            1066     10.9330E-03     6.89653E-03     8.48344E-03     37.4998E-03    -15.6801E-03    -21.8133E-03    -21.5009E-03     37.1874E-03    -15.6801E-03    -8.07314E-03     43.8581E-03     158.523E+06     29.9057E+06     17.5909E+03    -141.402E+06    -184.917E+03    -141.200E+06     29.9057E+06    -5.02181E+06
            1067     10.3509E-03     5.91636E-03     8.49345E-03     34.2739E-03    -14.8444E-03    -19.4269E-03    -19.1526E-03     33.9996E-03    -14.8444E-03    -7.15951E-03     39.1020E-03     156.247E+06     23.2419E+06    -491.229E+03    -143.486E+06    -707.448E+03    -143.269E+06     23.2419E+06    -4.97994E+06
            1068     9.82928E-03     4.93355E-03     8.50146E-03     31.3336E-03    -14.1400E-03    -17.1925E-03    -16.9724E-03     31.1136E-03    -14.1400E-03    -6.11589E-03     34.9007E-03     153.766E+06     16.3361E+06    -306.485E+03    -145.019E+06    -666.956E+03    -144.659E+06     16.3361E+06    -6.76315E+06
            1069     9.38032E-03     3.94872E-03     8.50871E-03     29.0049E-03    -13.5944E-03    -15.4106E-03    -15.2527E-03     28.8470E-03    -13.5944E-03    -4.98441E-03     31.6775E-03     152.726E+06     9.81492E+06     23.9084E+03    -147.544E+06    -397.633E+03    -147.123E+06     9.81492E+06    -7.72545E+06
            1070     9.01452E-03     2.96231E-03     8.51389E-03     27.3580E-03    -13.2072E-03    -14.1503E-03    -14.0622E-03     27.2698E-03    -13.2072E-03    -3.63469E-03     29.4391E-03     152.186E+06     7.30254E+06     590.550E+03    -148.101E+06     831.295E+03    -147.827E+06     6.78831E+06    -6.00071E+06
            1071     8.74303E-03     1.97541E-03     8.51694E-03     26.3463E-03    -12.9219E-03    -13.4239E-03    -13.3797E-03     26.3021E-03    -12.9219E-03    -2.53070E-03     28.0414E-03     152.025E+06     6.66457E+06    -619.468E+03    -148.820E+06    -308.673E+03    -148.617E+06     6.15034E+06    -4.93380E+06
            1072     8.57785E-03     987.983E-06     8.52076E-03     25.4886E-03    -12.5933E-03    -12.8948E-03    -12.8290E-03     25.4742E-03    -12.6446E-03    -1.04476E-03     27.3020E-03     148.230E+06     349.798E+03    -4.81988E+06    -150.349E+06    -4.29090E+06    -150.224E+06    -303.323E+03    -3.19577E+06
            1073     18.2145E-03     16.5722E-03     7.55838E-03     77.0066E-03    -26.0363E-03    -50.9832E-03    -42.7597E-03     68.7831E-03    -26.0363E-03     46.8112E-03     190.294E-03     171.785E+06     188.849E+06     99.4564E+06    -7.23171E+06    -7.21826E+06     188.836E+06     99.4564E+06     1.20283E+06
            1074     17.3057E-03     15.6126E-03     7.46548E-03     75.6861E-03    -24.7660E-03    -50.9152E-03    -40.4472E-03     65.2181E-03    -24.7660E-03     67.2575E-03     195.839E-03     165.978E+06     171.594E+06     41.3540E+06    -12.8394E+06    -12.8353E+06     171.590E+06     41.3540E+06    -191.716E+03
            1075     16.4250E-03     14.6518E-03     7.42328E-03     65.1151E-03    -23.6131E-03    -41.4949E-03    -38.5620E-03     62.1822E-03    -23.6131E-03     33.5780E-03     136.214E-03     147.053E+06     140.518E+06     3.53117E+06    -14.6773E+06    -14.6630E+06     140.504E+06     3.53117E+06    -1.25718E+06
            1076     15.5618E-03     13.6888E-03     7.40181E-03     60.2812E-03    -22.6369E-03    -37.6426E-03    -36.6826E-03     59.3212E-03    -22.6369E-03     18.7479E-03     107.439E-03     89.9678E+06     78.8670E+06    -5.11799E+06    -15.7928E+06    -15.4098E+06     78.4840E+06    -5.11799E+06    -3.98040E+06
            1077     14.7157E-03     12.7241E-03     7.39245E-03     56.9582E-03    -21.7364E-03    -35.2567E-03    -34.8471E-03     56.5486E-03    -21.7364E-03     11.6663E-03     92.4097E-03     37.4656E+06     18.4886E+06    -5.47279E+06    -22.6490E+06    -14.8837E+06     7.13534E+06    -1.88480E+06    -8.62800E+06
            1078     13.8869E-03     11.7580E-03     7.38880E-03     53.4699E-03    -20.8294E-03    -32.7155E-03    -32.5593E-03     53.3137E-03    -20.8294E-03     5.62019E-03     80.2976E-03     47.6371E+06     4.29154E+06    -6.55676E+06    -47.8042E+06    -13.2059E+06    -41.1550E+06     4.29154E+06    -13.3280E+06
            1079     13.0803E-03     10.7892E-03     7.39511E-03     50.0635E-03    -19.9565E-03    -30.1693E-03    -30.0943E-03     49.9885E-03    -19.9565E-03     1.44207E-03     70.5794E-03     86.5209E+06     15.7030E+06    -6.28988E+06    -79.6458E+06    -10.0884E+06    -75.8472E+06     15.7030E+06    -15.3038E+06
            1080     12.2973E-03     9.81781E-03     7.40508E-03     47.0162E-03    -19.1207E-03    -27.9030E-03    -27.8113E-03     46.9246E-03    -19.1207E-03     160.403E-06     63.2249E-03     116.651E+06     28.4604E+06    -3.64492E+06    -100.869E+06    -5.99746E+06    -98.5164E+06     28.4604E+06    -14.2382E+06
            1081     11.5438E-03     8.84431E-03     7.41867E-03     44.1089E-03    -18.2917E-03    -25.7943E-03    -25.6891E-03     44.0038E-03    -18.2917E-03    -320.360E-06     56.8412E-03     142.054E+06     33.7099E+06    -2.53795E+06    -122.936E+06    -4.00188E+06    -121.472E+06     33.7099E+06    -12.7435E+06
            1082     10.8238E-03     7.86849E-03     7.43251E-03     41.2240E-03    -17.4729E-03    -23.7372E-03    -23.6269E-03     41.1136E-03    -17.4729E-03    -331.418E-06     51.1825E-03     157.886E+06     32.7615E+06    -3.01984E+06    -139.921E+06    -3.94682E+06    -138.994E+06     32.7615E+06    -10.7502E+06
            1083     10.1454E-03     6.89044E-03     7.44648E-03     38.5346E-03    -16.6620E-03    -21.8650E-03    -21.7629E-03     38.4324E-03    -16.6620E-03    -175.945E-06     46.3484E-03     158.452E+06     28.0830E+06    -2.70482E+06    -143.476E+06    -3.41636E+06    -142.765E+06     28.0830E+06    -9.48008E+06
            1084     9.51707E-03     5.91063E-03     7.45916E-03     35.9392E-03    -15.8848E-03    -20.0522E-03    -19.9740E-03     35.8611E-03    -15.8848E-03    -347.407E-06     41.9496E-03     156.848E+06     23.0678E+06    -1.87778E+06    -144.733E+06    -2.61280E+06    -143.998E+06     23.0678E+06    -9.91013E+06
            1085     8.95033E-03     4.92897E-03     7.47086E-03     33.3428E-03    -15.1715E-03    -18.1729E-03    -18.1173E-03     33.2871E-03    -15.1715E-03    -611.260E-06     37.9226E-03     154.544E+06     15.7339E+06    -1.68785E+06    -146.724E+06    -2.38139E+06    -146.031E+06     15.7339E+06    -9.78695E+06
            1086     8.45650E-03     3.94520E-03     7.47982E-03     31.0762E-03    -14.5633E-03    -16.5150E-03    -16.4744E-03     31.0356E-03    -14.5633E-03    -753.152E-06     34.5899E-03     152.635E+06     6.65979E+06    -2.80746E+06    -150.447E+06    -3.42181E+06    -149.833E+06     6.65979E+06    -9.45958E+06
            1087     8.05114E-03     2.96055E-03     7.48705E-03     29.2420E-03    -14.1040E-03    -15.1388E-03    -15.1136E-03     29.2169E-03    -14.1040E-03    -736.281E-06     31.9681E-03     151.816E+06     1.26142E+06    -4.63905E+06    -153.392E+06    -4.60040E+06    -152.917E+06     747.190E+03    -8.23807E+06
            1088     7.74728E-03     1.97373E-03     7.49164E-03     27.9694E-03    -13.7589E-03    -14.2111E-03    -14.1349E-03     27.9568E-03    -13.8224E-03    -618.539E-06     30.2002E-03     150.758E+06    -514.751E+03    -6.57399E+06    -154.145E+06    -6.23564E+06    -153.969E+06    -1.02898E+06    -4.54833E+06
            1089     7.55897E-03     987.334E-06     7.49421E-03     27.3673E-03    -13.5689E-03    -13.7989E-03    -13.6787E-03     27.3619E-03    -13.6838E-03    -163.640E-06     29.6862E-03     147.327E+06    -5.65964E+06    -9.39963E+06    -154.752E+06    -9.41319E+06    -154.671E+06    -5.72636E+06    -3.24173E+06
            1090     17.7906E-03     16.5661E-03     6.48611E-03     79.2485E-03    -26.5257E-03    -52.7422E-03    -44.0642E-03     70.5704E-03    -26.5257E-03     47.9666E-03     182.878E-03     172.441E+06     189.864E+06     102.602E+06    -6.49897E+06    -6.47632E+06     189.842E+06     102.602E+06     1.79976E+06
            1091     16.8663E-03     15.6062E-03     6.39672E-03     77.5966E-03    -25.2260E-03    -52.3905E-03    -41.1229E-03     66.3290E-03    -25.2260E-03     70.9522E-03     191.707E-03     166.065E+06     173.394E+06     44.1581E+06    -11.7111E+06    -11.7056E+06     173.388E+06     44.1581E+06      773.25E+03
            1092     15.9653E-03     14.6450E-03     6.35732E-03     65.6231E-03    -24.0811E-03    -41.5629E-03    -38.0591E-03     62.1193E-03    -24.0811E-03     37.1308E-03     132.709E-03     149.698E+06     141.693E+06     1.88682E+06    -15.7731E+06    -15.7502E+06     141.670E+06     1.88682E+06    -841.665E+03
            1093     15.0793E-03     13.6811E-03     6.34144E-03     59.7107E-03    -23.2062E-03    -36.5107E-03    -34.9892E-03     58.1892E-03    -23.2062E-03     23.6970E-03     104.215E-03     96.0813E+06     82.8229E+06    -8.47114E+06    -17.0653E+06    -16.6947E+06     82.4523E+06    -8.47114E+06    -4.31997E+06
            1094     14.2050E-03     12.7151E-03     6.33317E-03     55.7306E-03    -22.5235E-03    -33.2216E-03    -32.1791E-03     54.6881E-03    -22.5235E-03     18.4806E-03     90.5177E-03     41.8862E+06     20.6348E+06    -4.94619E+06    -24.2489E+06    -17.2739E+06     12.2409E+06    -3.52732E+06    -10.0833E+06
            1095     13.3460E-03     11.7464E-03     6.33547E-03     52.0354E-03    -21.9258E-03    -30.1646E-03    -29.3708E-03     51.2417E-03    -21.9258E-03     14.7423E-03     79.4370E-03     47.8613E+06     3.26818E+06    -6.81137E+06    -48.6601E+06    -17.5374E+06    -37.7388E+06     3.07287E+06    -16.1376E+06
            1096     12.5040E-03     10.7745E-03     6.34501E-03     49.1036E-03    -21.4199E-03    -27.7499E-03    -26.9897E-03     48.3434E-03    -21.4199E-03     13.1757E-03     71.0260E-03     85.4028E+06     11.6952E+06    -10.4423E+06    -82.5561E+06    -17.3516E+06    -75.6469E+06     11.6952E+06    -20.8064E+06
            1097     11.6825E-03     9.80049E-03     6.35860E-03     47.2727E-03    -20.9730E-03    -26.3189E-03    -25.4943E-03     46.4480E-03    -20.9730E-03     13.2689E-03     65.1119E-03     118.736E+06     22.6659E+06    -8.98425E+06    -108.684E+06    -14.7027E+06    -102.966E+06     22.6659E+06    -22.3766E+06
            1098     10.8861E-03     8.82510E-03     6.37374E-03     45.9514E-03    -20.5239E-03    -25.4093E-03    -24.6134E-03     45.1555E-03    -20.5239E-03     12.9062E-03     60.2250E-03     146.752E+06     31.6371E+06    -7.50402E+06    -130.710E+06    -10.8950E+06    -127.319E+06     31.6371E+06    -19.1943E+06
            1099     10.1221E-03     7.84924E-03     6.39109E-03     44.6501E-03    -19.9818E-03    -24.6565E-03    -23.9279E-03     43.9215E-03    -19.9818E-03     12.3732E-03     56.0986E-03     159.928E+06     30.4984E+06    -6.14268E+06    -144.491E+06    -8.23548E+06    -142.398E+06     30.4984E+06    -16.5393E+06
            1100     9.39552E-03     6.87228E-03     6.40684E-03     43.1142E-03    -19.3494E-03    -23.7606E-03    -23.1377E-03     42.4913E-03    -19.3494E-03     11.3944E-03     52.2261E-03     158.194E+06     23.5513E+06    -4.74218E+06    -146.845E+06    -6.54125E+06    -145.046E+06     23.5513E+06    -15.5724E+06
            1101     8.71691E-03     5.89439E-03     6.42189E-03     41.3297E-03    -18.6837E-03    -22.6457E-03    -22.2001E-03     40.8842E-03    -18.6837E-03     9.41692E-03     48.4249E-03     157.202E+06     18.3880E+06    -4.44942E+06    -148.946E+06    -5.89270E+06    -147.503E+06     18.3880E+06    -14.1600E+06
            1102     8.09817E-03     4.91537E-03     6.43580E-03     39.2668E-03    -17.9859E-03    -21.2832E-03    -20.9959E-03     38.9795E-03    -17.9859E-03     7.27349E-03     44.6883E-03     154.840E+06     10.8026E+06    -5.25223E+06    -151.396E+06    -6.35891E+06    -150.289E+06     10.8026E+06    -12.4982E+06
            1103     7.55365E-03     3.93522E-03     6.44761E-03     36.9979E-03    -17.3208E-03    -19.6784E-03    -19.5019E-03     36.8214E-03    -17.3208E-03     5.49489E-03     41.1288E-03     152.885E+06     3.10806E+06    -7.04482E+06    -154.553E+06    -7.84393E+06    -153.754E+06     3.10806E+06    -10.5689E+06
            1104     7.09962E-03     2.95266E-03     6.45650E-03     34.9163E-03    -16.7600E-03    -18.1570E-03    -18.0559E-03     34.8153E-03    -16.7600E-03     3.90133E-03     38.1078E-03     152.238E+06    -3.06446E+06    -10.0335E+06    -158.619E+06    -10.4541E+06    -158.199E+06    -3.06446E+06    -7.57031E+06
            1105     6.75623E-03     1.96986E-03     6.46269E-03     33.2444E-03    -16.2941E-03    -16.9512E-03    -16.8446E-03     33.2014E-03    -16.3577E-03     2.44004E-03     35.8994E-03     150.410E+06    -7.51078E+06    -12.6618E+06    -160.390E+06    -12.8470E+06    -160.205E+06    -7.51078E+06    -4.94209E+06
            1106     6.54094E-03     984.136E-06     6.46649E-03     32.3383E-03    -16.0034E-03    -16.3349E-03    -16.1110E-03     32.3185E-03    -16.2076E-03     1.67249E-03     35.0367E-03     145.825E+06    -12.9135E+06    -15.5352E+06    -159.997E+06    -15.3808E+06    -159.832E+06    -13.2333E+06    -2.01020E+06
            1107     17.4128E-03     16.5506E-03     5.41163E-03     81.1320E-03    -27.3896E-03    -53.7949E-03    -44.5780E-03     71.9150E-03    -27.3896E-03     50.0268E-03     176.680E-03     173.148E+06     189.415E+06     106.407E+06    -7.83238E+06    -7.77691E+06     189.360E+06     106.407E+06     2.42526E+06
            1108     16.4771E-03     15.5925E-03     5.32637E-03     79.0929E-03    -26.1371E-03    -53.0129E-03    -41.0303E-03     67.1102E-03    -26.1371E-03     73.7581E-03     186.385E-03     166.598E+06     173.950E+06     49.1578E+06    -12.6537E+06    -12.6338E+06     173.931E+06     49.1578E+06     1.37315E+06
            1109     15.5587E-03     14.6311E-03     5.29212E-03     65.0264E-03    -25.0807E-03    -39.9740E-03    -35.8837E-03     60.9360E-03    -25.0807E-03     40.0694E-03     127.489E-03     154.171E+06     143.521E+06    -541.483E+03    -18.2407E+06    -17.1333E+06     143.470E+06    -1.59819E+06     1.43001E+06
            1110     14.6503E-03     13.6652E-03     5.28151E-03     57.9202E-03    -24.4797E-03    -33.4516E-03    -30.6486E-03     55.1172E-03    -24.4797E-03     30.8011E-03     100.652E-03     107.512E+06     88.0943E+06    -15.4891E+06    -22.6014E+06    -21.2549E+06     87.8045E+06    -16.5458E+06    -2.82180E+06
            1111     13.7481E-03     12.6943E-03     5.27876E-03     54.0774E-03    -24.2695E-03    -29.8238E-03    -26.9183E-03     51.1718E-03    -24.2695E-03     29.5069E-03     88.5435E-03     51.1099E+06     25.4896E+06    -8.51794E+06    -29.2731E+06    -23.4813E+06     19.6979E+06    -8.51794E+06    -11.3054E+06
            1112     12.8558E-03     11.7195E-03     5.28445E-03     51.4483E-03    -24.1250E-03    -27.3466E-03    -24.4616E-03     48.6554E-03    -24.2171E-03     27.8933E-03     78.5507E-03     50.5484E+06     1.26871E+06    -7.47992E+06    -52.6718E+06    -22.3313E+06    -34.2503E+06    -2.30135E+06    -19.9013E+06
            1113     11.9778E-03     10.7428E-03     5.29709E-03     50.4360E-03    -24.1914E-03    -26.2890E-03    -23.3431E-03     47.5822E-03    -24.2835E-03     27.9784E-03     72.2010E-03     84.2279E+06     7.20724E+06    -9.65284E+06    -83.8448E+06    -19.5173E+06    -73.5945E+06     6.82139E+06    -25.2105E+06
            1114     11.1168E-03     9.76583E-03     5.31147E-03     50.6320E-03    -24.3783E-03    -26.2880E-03    -23.4134E-03     47.7574E-03    -24.3783E-03     28.4134E-03     68.4312E-03     119.944E+06     15.3173E+06    -10.6473E+06    -115.381E+06    -19.0225E+06    -107.006E+06     15.3173E+06    -28.0878E+06
            1115     10.2780E-03     8.78961E-03     5.32735E-03     51.1084E-03    -24.3971E-03    -26.7131E-03    -24.0593E-03     48.4546E-03    -24.3971E-03     27.6576E-03     65.2476E-03     148.884E+06      19.974E+06    -11.4703E+06    -141.933E+06    -17.7172E+06    -135.686E+06      19.974E+06    -27.3659E+06
            1116     9.46706E-03     7.81411E-03     5.34461E-03     51.6365E-03    -24.2620E-03    -27.3731E-03    -25.0000E-03     49.2634E-03    -24.2620E-03     26.4769E-03     63.1110E-03     159.278E+06     20.5212E+06    -9.87445E+06    -151.606E+06    -14.2121E+06    -147.269E+06     20.5212E+06    -23.9869E+06
            1117     8.69054E-03     6.83987E-03     5.36112E-03     51.6686E-03    -23.9279E-03    -27.7415E-03    -25.7963E-03     49.7234E-03    -23.9279E-03     24.1512E-03     60.9189E-03     157.512E+06     13.8351E+06    -8.30729E+06    -153.484E+06    -11.4636E+06    -150.327E+06     13.8351E+06    -20.9870E+06
            1118     7.95761E-03     5.86562E-03     5.37755E-03     50.7330E-03    -23.4454E-03    -27.2869E-03    -25.8838E-03     49.3299E-03    -23.4454E-03     20.3867E-03     57.9808E-03     155.688E+06     7.14464E+06    -8.28402E+06    -155.616E+06    -10.5140E+06    -153.386E+06     7.14464E+06    -17.7878E+06
            1119     7.28029E-03     4.89121E-03     5.39246E-03     49.1284E-03    -22.8702E-03    -26.2558E-03    -25.3116E-03     48.1842E-03    -22.8702E-03     16.4641E-03     54.7609E-03     154.253E+06     1.88845E+06    -9.40488E+06    -157.649E+06    -10.9016E+06    -156.152E+06     1.88845E+06    -14.6844E+06
            1120     6.67591E-03     3.91538E-03     5.40717E-03     47.1943E-03    -22.2582E-03    -24.9337E-03    -24.3288E-03     46.5894E-03    -22.2582E-03     12.8867E-03     51.4990E-03     153.753E+06    -2.62972E+06    -12.4747E+06    -161.059E+06    -13.3241E+06    -160.210E+06    -2.62972E+06    -10.8605E+06
            1121     6.16349E-03     2.93878E-03     5.41776E-03     45.0385E-03    -21.6722E-03    -23.3659E-03    -23.0237E-03     44.6962E-03    -21.6722E-03     9.41859E-03     48.3975E-03     153.134E+06    -7.55758E+06    -14.7235E+06    -164.107E+06    -15.1335E+06    -163.697E+06    -7.55758E+06    -7.65015E+06
            1122     5.76935E-03     1.95960E-03     5.42635E-03     43.2202E-03    -21.1883E-03    -22.0336E-03    -21.8624E-03     43.0491E-03    -21.1883E-03     6.44224E-03     46.0295E-03     151.647E+06    -11.6453E+06    -17.0025E+06    -165.885E+06    -17.2566E+06    -165.631E+06    -11.6453E+06    -5.37707E+06
            1123     5.51873E-03     981.377E-06     5.43078E-03     41.9223E-03    -20.6490E-03    -21.2725E-03    -21.0562E-03     41.8467E-03    -20.7897E-03     4.15482E-03     44.8626E-03     146.684E+06    -15.9279E+06    -21.3935E+06    -165.249E+06    -21.2943E+06    -165.095E+06    -16.1809E+06    -1.60214E+06
            1124     17.0911E-03     16.5317E-03     4.33691E-03     82.6606E-03    -28.6626E-03    -54.0712E-03    -43.9074E-03     72.4969E-03    -28.6626E-03     55.8759E-03     173.567E-03     172.443E+06     189.416E+06     106.421E+06    -7.02344E+06    -6.91723E+06     189.310E+06     106.421E+06     3.65155E+06
            1125     16.1422E-03     15.5720E-03     4.25221E-03     80.3384E-03    -27.5580E-03    -52.8469E-03    -40.1035E-03     67.5950E-03    -27.5580E-03     76.0023E-03     178.495E-03     165.871E+06     171.926E+06     51.3001E+06    -15.6171E+06    -15.4755E+06     171.784E+06     51.3001E+06     4.26191E+06
            1126     15.2089E-03     14.6087E-03     4.23029E-03     62.7197E-03    -26.7205E-03    -36.0335E-03    -31.3127E-03     58.0431E-03    -26.7648E-03     41.7911E-03     118.667E-03     158.595E+06     144.762E+06     562.558E+03    -23.5209E+06    -21.1563E+06     144.586E+06    -1.62615E+06     5.11205E+06
            1127     14.2744E-03     13.6342E-03     4.22688E-03     55.4450E-03    -25.9209E-03    -29.5487E-03    -24.3340E-03     50.8841E-03    -26.5747E-03     37.7703E-03     93.6716E-03     124.614E+06     95.7413E+06    -22.0401E+06    -33.9742E+06    -24.1397E+06     95.4194E+06    -31.5526E+06    -556.945E+03
            1128     13.3430E-03     12.6554E-03     4.22814E-03     52.8995E-03    -24.6825E-03    -28.2424E-03    -21.1202E-03     48.0642E-03    -26.9695E-03     37.7104E-03     82.8482E-03     66.6792E+06     35.6916E+06    -17.4116E+06    -37.1648E+06    -23.4134E+06     29.2640E+06    -24.7355E+06    -13.0482E+06
            1129     12.4202E-03     11.6755E-03     4.23595E-03     51.9880E-03    -24.1233E-03    -27.8770E-03    -19.5967E-03     47.1747E-03    -27.5902E-03     37.0040E-03     74.9698E-03     51.0221E+06     1.95794E+06    -16.7804E+06    -53.4211E+06    -21.9468E+06    -29.5163E+06    -16.7804E+06    -23.9643E+06
            1130     11.5088E-03     10.6958E-03     4.24885E-03     53.8469E-03    -25.5634E-03    -28.2980E-03    -20.3983E-03     48.6707E-03    -28.2869E-03     39.0742E-03     72.4337E-03     80.1450E+06    -2.72598E+06    -17.0088E+06    -88.5243E+06    -20.3158E+06    -75.2352E+06    -12.7081E+06    -29.3715E+06
            1131     10.6107E-03     9.71761E-03     4.26098E-03     56.2759E-03    -27.1491E-03    -29.1475E-03    -22.4932E-03     51.4599E-03    -28.9873E-03     38.8372E-03     71.1165E-03     116.922E+06     3.24667E+06    -11.8234E+06    -120.347E+06    -18.0484E+06    -110.585E+06    -290.585E+03    -31.2691E+06
            1132     9.73129E-03     8.74136E-03     4.27629E-03     58.2166E-03    -28.1289E-03    -30.0913E-03    -24.4025E-03     53.9475E-03    -29.5487E-03     37.5351E-03     69.9449E-03     147.105E+06     4.50568E+06    -9.78898E+06    -149.023E+06    -17.7327E+06    -141.079E+06     4.50568E+06    -32.1726E+06
            1133     8.87371E-03     7.76725E-03     4.29099E-03     60.5242E-03    -29.3871E-03    -31.1352E-03    -26.7870E-03     56.6917E-03    -29.9028E-03     36.5011E-03     70.2065E-03     158.803E+06     2.01830E+06    -11.2891E+06    -162.747E+06    -17.5446E+06    -156.368E+06     1.89517E+06    -30.3118E+06
            1134     8.04503E-03     6.79548E-03     4.30626E-03     62.1371E-03    -30.0100E-03    -32.1268E-03    -29.1159E-03     59.1262E-03    -30.0100E-03     33.0309E-03     69.9754E-03     157.317E+06    -1.29794E+06    -11.7293E+06    -163.371E+06    -16.0102E+06    -158.967E+06    -1.42107E+06    -25.2617E+06
            1135     7.25387E-03     5.82617E-03     4.32139E-03     62.3237E-03    -29.8866E-03    -32.4310E-03    -30.2658E-03     60.1585E-03    -29.8866E-03     28.2048E-03     68.5790E-03     154.660E+06    -5.82599E+06    -12.1711E+06    -163.513E+06    -14.8875E+06    -160.711E+06    -5.91112E+06    -20.2842E+06
            1136     6.51251E-03     4.85656E-03     4.33897E-03     61.6596E-03    -29.6210E-03    -32.0336E-03    -30.5136E-03     60.1396E-03    -29.6210E-03     23.5886E-03     66.7683E-03     153.539E+06    -9.68736E+06    -14.1980E+06    -165.399E+06    -15.7189E+06    -163.793E+06    -9.77249E+06    -15.1912E+06
            1137     5.83602E-03     3.88717E-03     4.35305E-03     60.6018E-03    -29.2880E-03    -31.3143E-03    -30.2887E-03     59.5761E-03    -29.2880E-03     19.1884E-03     64.6537E-03     155.441E+06    -10.2878E+06    -15.5309E+06    -168.258E+06    -16.3192E+06    -167.470E+06    -10.2878E+06    -10.8106E+06
            1138     5.25161E-03     2.91681E-03     4.36710E-03     59.2713E-03    -28.8976E-03    -30.3754E-03    -29.7611E-03     58.6570E-03    -28.8976E-03     14.6311E-03     62.5095E-03     154.754E+06    -12.8666E+06    -18.2907E+06    -170.250E+06    -18.7450E+06    -169.796E+06    -12.8666E+06    -7.90616E+06
            1139     4.78974E-03     1.94574E-03     4.37673E-03     57.8780E-03    -28.4898E-03    -29.3877E-03    -29.0793E-03     57.5696E-03    -28.4898E-03     10.1258E-03     60.6300E-03     151.784E+06    -16.5880E+06    -22.4188E+06    -171.200E+06    -22.6450E+06    -170.974E+06    -16.5880E+06    -4.93613E+06
            1140     4.48917E-03     972.180E-06     4.38264E-03     56.5793E-03    -28.0052E-03    -28.5726E-03    -28.3926E-03     56.4620E-03    -28.0679E-03     6.05148E-03     59.5003E-03     147.966E+06    -18.9489E+06    -24.6797E+06    -169.691E+06    -23.9834E+06    -169.518E+06    -19.8186E+06    -4.49602E+06
            1141     16.8162E-03     16.4980E-03     3.25573E-03     83.3966E-03    -30.5027E-03    -52.9296E-03    -41.0694E-03     71.5363E-03    -30.5027E-03     68.8768E-03     177.898E-03     171.559E+06     188.611E+06     104.002E+06    -7.49266E+06    -7.31307E+06     188.431E+06     104.002E+06     5.59290E+06
            1142     15.8635E-03     15.5421E-03     3.17703E-03     79.4800E-03    -29.7448E-03    -49.7639E-03    -35.9454E-03     65.6614E-03    -29.7448E-03     78.3798E-03     166.574E-03     164.790E+06     170.497E+06     54.0427E+06    -16.7647E+06    -16.4286E+06     170.161E+06     54.0427E+06     7.74419E+06
            1143     14.9150E-03     14.5734E-03     3.17373E-03     61.5657E-03    -29.1918E-03    -32.3988E-03    -24.3060E-03     53.7370E-03    -29.4559E-03     50.4739E-03     109.665E-03     157.399E+06     146.427E+06     6.03763E+06    -21.9222E+06    -20.4923E+06     146.130E+06     4.90563E+06     6.59470E+06
            1144     13.9603E-03     13.5939E-03     3.17759E-03     58.9214E-03    -28.8636E-03    -30.0754E-03    -19.9752E-03     49.6948E-03    -29.7373E-03     52.8888E-03     90.5461E-03     137.233E+06     105.474E+06    -18.0350E+06    -40.3975E+06    -19.3406E+06     105.000E+06    -38.6182E+06    -1.87540E+06
            1145     13.0067E-03     12.6126E-03     3.17769E-03     57.6043E-03    -26.8048E-03    -30.8203E-03    -19.5652E-03     50.0265E-03    -30.4821E-03     47.6658E-03     80.2497E-03     88.4563E+06     45.1911E+06    -21.3318E+06    -54.2027E+06    -17.0901E+06     38.4932E+06    -51.7466E+06    -13.8389E+06
            1146     12.0582E-03     11.6286E-03     3.19006E-03     56.1356E-03    -24.6521E-03    -31.5063E-03    -19.0898E-03     50.5733E-03    -31.5063E-03     40.8516E-03     72.4718E-03     56.7453E+06     4.53562E+06    -32.4456E+06    -59.3168E+06    -17.0222E+06    -26.7954E+06    -43.4091E+06    -22.6049E+06
            1147     11.1138E-03     10.6439E-03     3.19758E-03     57.6800E-03    -25.0518E-03    -32.6344E-03    -19.8242E-03     52.4525E-03    -32.6344E-03     40.0011E-03     70.9085E-03     75.5899E+06    -4.73637E+06    -39.5359E+06    -88.7373E+06    -17.2731E+06    -76.2006E+06    -39.5359E+06    -29.2726E+06
            1148     10.1831E-03     9.66554E-03     3.20518E-03     60.3338E-03    -26.4952E-03    -33.8447E-03    -21.8771E-03     55.7156E-03    -33.8447E-03     38.7428E-03     70.7212E-03     109.241E+06    -5.35094E+06    -33.9334E+06    -124.161E+06    -16.8559E+06    -114.030E+06    -32.5598E+06    -32.6533E+06
            1149     9.26689E-03     8.69000E-03     3.21856E-03     64.5486E-03    -29.5458E-03    -35.0144E-03    -25.1935E-03     60.1963E-03    -35.0144E-03     39.4389E-03     73.0747E-03     140.917E+06    -5.62996E+06    -24.6454E+06    -154.213E+06    -16.2329E+06    -146.230E+06    -22.0256E+06    -32.9694E+06
            1150     8.36504E-03     7.71686E-03     3.22864E-03     68.9865E-03    -32.9718E-03    -36.0203E-03    -29.2508E-03     65.1707E-03    -35.9255E-03     38.4024E-03     75.9711E-03     157.829E+06    -9.04997E+06    -20.7894E+06    -172.214E+06    -16.6291E+06    -165.881E+06    -19.5432E+06    -31.2336E+06
            1151     7.48565E-03     6.74851E-03     3.23923E-03     71.5053E-03    -34.5640E-03    -36.9468E-03    -32.1551E-03     68.7056E-03    -36.5560E-03     33.7046E-03     77.0335E-03     157.035E+06    -12.6556E+06    -21.8323E+06    -173.952E+06    -18.1725E+06    -169.526E+06    -20.7415E+06    -26.0032E+06
            1152     6.63503E-03     5.78179E-03     3.25491E-03     73.0877E-03    -35.3782E-03    -37.7060E-03    -34.0270E-03     71.0448E-03    -37.0143E-03     29.3356E-03     77.6712E-03     154.361E+06    -16.2858E+06    -21.3522E+06    -173.064E+06    -19.9706E+06    -170.470E+06    -20.2613E+06    -19.6405E+06
            1153     5.82217E-03     4.81738E-03     3.26964E-03     74.2912E-03    -36.1814E-03    -38.1095E-03    -35.4375E-03     72.7735E-03    -37.3357E-03     25.6035E-03     78.2181E-03     153.045E+06    -19.7791E+06    -21.1809E+06    -173.518E+06    -21.5015E+06    -172.109E+06    -20.8681E+06    -14.4103E+06
            1154     5.06409E-03     3.85319E-03     3.28601E-03     75.0396E-03    -36.8396E-03    -38.2043E-03    -36.4131E-03     73.9662E-03    -37.5574E-03     21.6761E-03     78.3633E-03     154.724E+06    -19.5333E+06    -22.0397E+06    -175.490E+06    -22.4711E+06    -174.734E+06    -19.8579E+06    -10.5283E+06
            1155     4.38499E-03     2.88943E-03     3.29838E-03     75.5633E-03    -37.3285E-03    -38.2351E-03    -37.2387E-03     74.8901E-03    -37.6517E-03     17.1353E-03     78.3650E-03     154.182E+06    -19.7690E+06    -24.4352E+06    -176.228E+06    -24.8197E+06    -175.843E+06    -19.7690E+06    -7.25492E+06
            1156     3.82946E-03     1.92673E-03     3.30945E-03     75.5796E-03    -37.5085E-03    -38.0732E-03    -37.6604E-03     75.2440E-03    -37.5857E-03     11.9969E-03     78.0592E-03     152.161E+06    -20.1782E+06    -26.3558E+06    -175.332E+06    -26.5656E+06    -175.123E+06    -20.1782E+06    -5.26239E+06
            1157     3.45374E-03     964.808E-06     3.31624E-03     75.0089E-03    -37.3760E-03    -37.6331E-03    -37.4257E-03     74.8858E-03    -37.4603E-03     7.04669E-03     77.6189E-03     148.871E+06    -25.9749E+06    -30.8555E+06    -177.217E+06    -29.5191E+06    -177.053E+06    -27.4750E+06    -4.47744E+06
            1158     16.5989E-03     16.4576E-03     2.16137E-03     82.0911E-03    -32.8341E-03    -49.2741E-03    -36.5634E-03     69.3804E-03    -32.8341E-03     76.3819E-03     173.620E-03     171.102E+06     187.215E+06     101.683E+06    -9.09166E+06    -8.78008E+06     186.903E+06     101.683E+06     7.58708E+06
            1159     15.6380E-03     15.4945E-03     2.11379E-03     72.0450E-03    -29.2801E-03    -42.7703E-03    -27.9517E-03     60.5832E-03    -32.6369E-03     67.3288E-03     137.549E-03     163.781E+06     170.963E+06     60.6062E+06    -16.1769E+06    -15.7848E+06     170.571E+06     60.6062E+06     8.23233E+06
            1160     14.6650E-03     14.5104E-03     2.12327E-03     60.5356E-03    -27.4973E-03    -33.0383E-03    -18.8616E-03     51.8161E-03    -32.9545E-03     52.1479E-03     96.0007E-03     156.653E+06     150.606E+06     17.3388E+06    -20.0397E+06    -13.5590E+06     150.393E+06     11.0714E+06     3.60778E+06
            1161     13.6930E-03     13.5273E-03     2.12369E-03     63.1483E-03    -29.2019E-03    -33.9576E-03    -19.7929E-03     53.4011E-03    -33.6194E-03     55.8995E-03     86.0865E-03     144.206E+06     112.001E+06    -8.36413E+06    -45.3774E+06    -9.81386E+06     111.672E+06    -43.5980E+06    -3.58227E+06
            1162     12.7282E-03     12.5503E-03     2.12097E-03     63.5471E-03    -28.7176E-03    -34.8495E-03    -21.5588E-03     56.0502E-03    -34.5113E-03     49.3982E-03     79.6983E-03     108.133E+06     50.0896E+06    -13.9454E+06    -72.9426E+06    -8.85690E+06     45.0011E+06    -72.9426E+06    -10.7031E+06
            1163     11.7732E-03     11.5780E-03     2.13499E-03     64.5007E-03    -28.9761E-03    -35.5625E-03    -23.6233E-03     59.1479E-03    -35.5625E-03     43.2727E-03     76.4191E-03     77.4518E+06     7.57908E+06    -38.4338E+06    -79.3870E+06    -8.55415E+06    -25.6430E+06    -76.0444E+06    -18.9651E+06
            1164     10.8181E-03     10.6043E-03     2.13967E-03     64.5671E-03    -27.8730E-03    -36.7142E-03    -23.7803E-03     60.4745E-03    -36.7142E-03     37.6175E-03     73.5178E-03     81.8243E+06    -758.394E+03    -64.7385E+06    -91.6421E+06    -9.16760E+06    -75.6529E+06    -72.3185E+06    -24.2066E+06
            1165     9.86049E-03     9.62358E-03     2.14848E-03     64.6490E-03    -26.5359E-03    -38.1057E-03    -23.3910E-03     61.5040E-03    -38.1057E-03     32.9723E-03     71.3444E-03     104.892E+06    -4.87103E+06    -68.1640E+06    -123.136E+06    -11.7773E+06    -116.230E+06    -68.1640E+06    -27.0111E+06
            1166     8.90834E-03     8.64414E-03     2.15346E-03     69.5280E-03    -29.8906E-03    -39.6461E-03    -26.8712E-03     66.5086E-03    -39.6461E-03     33.4500E-03     75.1599E-03     133.971E+06    -8.05397E+06    -58.2586E+06    -158.095E+06    -13.9247E+06    -152.224E+06    -58.2586E+06    -28.4591E+06
            1167     7.97164E-03     7.67473E-03     2.15535E-03     74.6962E-03    -33.6677E-03    -41.0377E-03    -31.3272E-03     72.3557E-03    -41.0377E-03     30.3963E-03     78.9607E-03     153.264E+06    -11.5081E+06    -47.8130E+06    -178.724E+06    -15.8610E+06    -174.371E+06    -47.8130E+06    -26.1426E+06
            1168     7.04834E-03     6.70772E-03     2.16462E-03     77.8196E-03    -35.5643E-03    -42.2562E-03    -33.9559E-03     76.2112E-03    -42.2562E-03     25.9615E-03     81.0654E-03     156.234E+06    -16.3862E+06    -41.0613E+06    -183.199E+06    -19.2283E+06    -180.357E+06    -41.0613E+06    -20.9420E+06
            1169     6.14122E-03     5.74290E-03     2.17571E-03     80.9556E-03    -37.5236E-03    -43.4335E-03    -36.2827E-03     79.7148E-03    -43.4335E-03     23.4945E-03     83.7845E-03     153.951E+06    -21.1926E+06    -34.8909E+06    -181.387E+06    -22.8226E+06    -179.757E+06    -34.8909E+06    -15.6027E+06
            1170     5.25729E-03     4.78003E-03     2.18869E-03     84.5462E-03    -40.0052E-03    -44.5469E-03    -39.0227E-03     83.5637E-03    -44.5469E-03     21.4849E-03     87.1065E-03     153.266E+06    -24.9395E+06    -29.8032E+06    -180.500E+06    -25.8956E+06    -179.543E+06    -29.8032E+06    -11.8344E+06
            1171     4.40926E-03     3.82042E-03     2.20136E-03     88.0208E-03    -42.5201E-03    -45.5004E-03    -41.7984E-03     87.2991E-03    -45.5004E-03     18.8499E-03     90.3575E-03     153.777E+06    -26.6972E+06    -28.3998E+06    -181.311E+06    -28.4063E+06    -180.794E+06    -27.2078E+06    -8.50214E+06
            1172     3.61869E-03     2.86349E-03     2.21255E-03     90.7441E-03    -44.4857E-03    -46.2556E-03    -44.0226E-03     90.2811E-03    -46.2556E-03     15.3326E-03     92.9683E-03     153.345E+06    -26.7204E+06    -29.8800E+06    -181.609E+06    -30.1545E+06    -181.335E+06    -26.7204E+06    -6.14936E+06
            1173     2.92827E-03     1.90781E-03     2.22149E-03     92.7692E-03    -45.9228E-03    -46.8503E-03    -45.7212E-03     92.5303E-03    -46.8130E-03     10.9894E-03     94.9896E-03     150.468E+06    -27.7761E+06    -32.7871E+06    -180.680E+06    -32.9466E+06    -180.521E+06    -27.7761E+06    -4.41306E+06
            1174     2.42385E-03     952.620E-06     2.22880E-03     94.0914E-03    -46.8100E-03    -47.2833E-03    -46.7552E-03     93.9993E-03    -47.2460E-03     6.70736E-03     96.4747E-03     147.356E+06    -33.7150E+06    -37.8522E+06    -183.087E+06    -36.8055E+06    -183.039E+06    -34.8088E+06    -1.83472E+06
            1175     16.4552E-03     16.4203E-03     1.07057E-03     84.2440E-03    -34.2955E-03    -49.9786E-03    -38.2884E-03     73.7214E-03    -35.4632E-03     70.9901E-03     146.568E-03     169.892E+06     189.257E+06     109.503E+06    -4.86698E+06    -4.55500E+06     188.945E+06     109.503E+06     7.49900E+06
            1176     15.4835E-03     15.4469E-03     1.06408E-03     66.4841E-03    -28.7839E-03    -37.7121E-03    -25.2177E-03     60.6380E-03    -35.4323E-03     44.3097E-03     106.648E-03     161.606E+06     177.150E+06     66.1602E+06    -5.78013E+06    -5.37799E+06     176.748E+06     66.1602E+06     3.42782E+06
            1177     14.5017E-03     14.4622E-03     1.06886E-03     61.5512E-03    -25.6436E-03    -35.9104E-03    -21.6182E-03     57.5258E-03    -35.9104E-03     33.4993E-03     84.1265E-03     154.642E+06     152.465E+06     19.2252E+06    -15.7709E+06    -4.05168E+06     152.247E+06     7.72385E+06    -1.17959E+06
            1178     13.5283E-03     13.4867E-03     1.06056E-03     62.1257E-03    -25.5144E-03    -36.6285E-03    -21.9616E-03     58.5729E-03    -36.6285E-03     30.6633E-03     76.1567E-03     150.672E+06     113.521E+06    -2.87418E+06    -53.5479E+06    -2.80531E+06     113.452E+06    -53.5479E+06    -759.567E+03
            1179     12.5516E-03     12.5064E-03     1.06366E-03     62.7093E-03    -25.0659E-03    -37.6570E-03    -22.2865E-03     59.9299E-03    -37.6570E-03     26.6584E-03     73.1209E-03     124.969E+06     52.4759E+06    -4.03364E+06    -87.8999E+06    -1.14935E+06     49.5916E+06    -87.8999E+06    -5.18334E+06
            1180     11.5760E-03     11.5269E-03     1.06444E-03     66.4678E-03    -27.6030E-03    -38.8973E-03    -24.9206E-03     63.7854E-03    -38.8973E-03     27.6891E-03     74.9836E-03     97.2892E+06     9.23842E+06    -31.2401E+06    -98.6898E+06    -158.103E+03    -21.8436E+06    -98.6898E+06    -11.6961E+06
            1181     10.6127E-03     10.5585E-03     1.07058E-03     70.1294E-03    -30.0359E-03    -40.1321E-03    -27.8347E-03     67.9282E-03    -40.1321E-03     26.7570E-03     76.7609E-03     97.1783E+06     1.28916E+06    -76.8044E+06    -104.833E+06    -2.24025E+06    -76.5024E+06    -101.605E+06    -14.7269E+06
            1182     9.65075E-03     9.58960E-03     1.08469E-03     73.0376E-03    -31.6762E-03    -41.3759E-03    -30.0519E-03     71.4133E-03    -41.3759E-03     24.5056E-03     78.1637E-03     111.339E+06    -3.22824E+06    -94.8979E+06    -125.012E+06    -5.74990E+06    -120.445E+06    -96.9430E+06    -15.7277E+06
            1183     8.68672E-03     8.61933E-03     1.07995E-03     75.3294E-03    -32.6238E-03    -42.7239E-03    -31.3285E-03     74.0341E-03    -42.7239E-03     21.6924E-03     79.1319E-03     130.787E+06    -8.26569E+06    -87.5303E+06    -157.529E+06    -10.4926E+06    -155.302E+06    -87.5303E+06    -16.2766E+06
            1184     7.72429E-03     7.64873E-03     1.07781E-03     77.0963E-03    -32.8100E-03    -44.2854E-03    -32.0641E-03     76.3504E-03    -44.2854E-03     15.9858E-03     79.4323E-03     148.491E+06    -13.9649E+06    -73.9013E+06    -182.206E+06    -15.6557E+06    -180.515E+06    -73.9013E+06    -15.0115E+06
            1185     6.76828E-03     6.68111E-03     1.08276E-03     80.5550E-03    -34.4876E-03    -46.0446E-03    -33.9902E-03     80.0575E-03    -46.0446E-03     13.4030E-03     82.2560E-03     155.584E+06    -18.8855E+06    -58.3954E+06    -190.071E+06    -19.9137E+06    -189.043E+06    -58.3954E+06    -11.8127E+06
            1186     5.81876E-03     5.71574E-03     1.09008E-03     85.5796E-03    -37.6881E-03    -47.8798E-03    -37.2680E-03     85.1595E-03    -47.8798E-03     12.8766E-03     87.1523E-03     153.794E+06    -23.0860E+06    -44.9226E+06    -186.452E+06    -23.6537E+06    -185.884E+06    -44.9226E+06    -8.35160E+06
            1187     4.87896E-03     4.75397E-03     1.09727E-03     91.2144E-03    -41.5560E-03    -49.6564E-03    -41.2063E-03     90.8647E-03    -49.6564E-03     12.1735E-03     92.7984E-03     153.336E+06    -26.5370E+06    -36.2500E+06    -184.426E+06    -26.9028E+06    -184.060E+06    -36.2500E+06    -6.54577E+06
            1188     3.95385E-03     3.79665E-03     1.10382E-03     96.7951E-03    -45.5277E-03    -51.2617E-03    -45.2627E-03     96.5300E-03    -51.2617E-03     10.8856E-03     98.3803E-03     154.600E+06    -29.8035E+06    -32.8829E+06    -185.881E+06    -30.0454E+06    -185.676E+06    -32.8462E+06    -5.26718E+06
            1189     3.05262E-03     2.84327E-03     1.11099E-03     101.682E-03    -49.0509E-03    -52.6252E-03    -48.8757E-03     101.507E-03    -52.6252E-03     8.93978E-03     103.351E-03     153.785E+06    -31.2413E+06    -33.0299E+06    -185.909E+06    -32.7527E+06    -185.809E+06    -31.6191E+06    -3.38706E+06
            1190     2.19761E-03     1.89282E-03     1.11657E-03     105.621E-03    -51.9310E-03    -53.6848E-03    -51.8410E-03     105.530E-03    -53.6848E-03     6.34595E-03     107.589E-03     149.256E+06    -31.5136E+06    -37.5883E+06    -183.674E+06    -37.6305E+06    -183.631E+06    -31.5136E+06    -2.33691E+06
            1191     1.46597E-03     946.430E-06     1.11952E-03     108.286E-03    -53.7116E-03    -54.5726E-03    -53.8975E-03     108.253E-03    -54.3542E-03     3.36231E-03     110.725E-03     147.320E+06    -38.4446E+06    -44.2054E+06    -188.516E+06    -43.7960E+06    -188.462E+06    -38.9080E+06    -1.91711E+06
            1192     58.9719E-03     973.251E-06     58.9639E-03     54.2554E-03    -26.9444E-03    -27.3102E-03    -27.1906E-03     54.2488E-03    -27.0575E-03     1.28598E-03     55.5187E-03     159.620E+06    -15.1949E+06    -22.0253E+06    -178.087E+06    -19.5409E+06    -178.009E+06    -17.7570E+06    -1.01166E+06
            1193     58.9983E-03     1.94675E-03     58.9662E-03     54.0776E-03    -26.9099E-03    -27.1673E-03    -26.9281E-03     54.0660E-03    -27.1375E-03     1.91851E-03     55.4518E-03     164.853E+06    -11.1027E+06    -17.3374E+06    -178.958E+06    -17.2661E+06    -178.922E+06    -11.2098E+06     1.13528E+06
            1194     59.0406E-03     2.92093E-03     58.9683E-03     54.1270E-03    -26.9461E-03    -27.1797E-03    -26.9919E-03     54.1037E-03    -27.1105E-03     2.69040E-03     56.2193E-03     171.009E+06    -8.29158E+06    -15.1177E+06    -182.605E+06    -15.1412E+06    -182.581E+06    -8.29158E+06    -370.034E+03
            1195     59.0992E-03     3.89407E-03     58.9707E-03     54.1895E-03    -27.0314E-03    -27.1569E-03    -27.0325E-03     54.1405E-03    -27.1068E-03     3.92877E-03     57.4566E-03     173.795E+06    -6.49250E+06    -12.8446E+06    -183.371E+06    -12.8579E+06    -183.358E+06    -6.49250E+06    -428.899E+03
            1196     59.1766E-03     4.86782E-03     58.9761E-03     54.1049E-03    -27.0036E-03    -27.1011E-03    -26.9215E-03     54.0227E-03    -27.1011E-03     5.13022E-03     58.9917E-03     173.561E+06    -3.50216E+06    -10.5447E+06    -180.473E+06    -10.5667E+06    -180.451E+06    -3.50216E+06     1.72054E+06
            1197     59.2698E-03     5.84140E-03     58.9813E-03     53.9328E-03    -26.8636E-03    -27.0722E-03    -26.7394E-03     53.8086E-03    -27.0722E-03     6.29604E-03     60.7761E-03     171.060E+06    -980.604E+03    -9.32154E+06    -176.048E+06    -9.35051E+06    -176.019E+06    -980.604E+03     2.02686E+06
            1198     59.3813E-03     6.81575E-03     58.9888E-03     53.8206E-03    -26.8087E-03    -27.0195E-03    -26.6270E-03     53.6389E-03    -27.0195E-03     7.61549E-03     63.2020E-03     161.560E+06     518.110E+03    -9.40758E+06    -165.769E+06    -9.42494E+06    -165.752E+06     518.110E+03     1.47526E+06
            1199     59.5097E-03     7.78963E-03     58.9977E-03     53.7887E-03    -26.8206E-03    -26.9707E-03    -26.5632E-03     53.5144E-03    -26.9537E-03     9.32996E-03     66.4669E-03     144.196E+06     436.662E+03    -9.16752E+06    -148.321E+06    -9.17664E+06    -148.312E+06     436.662E+03     977.328E+03
            1200     59.6561E-03     8.76329E-03     59.0089E-03     53.6475E-03    -26.7637E-03    -26.8932E-03    -26.4164E-03     53.2832E-03    -26.8762E-03     10.7851E-03     70.1995E-03     122.962E+06     831.678E+03    -7.84093E+06    -126.206E+06    -6.96068E+06    -126.124E+06    -131.179E+03     920.566E+03
            1201     59.8180E-03     9.73791E-03     59.0201E-03     53.5554E-03    -26.7287E-03    -26.8519E-03    -26.2997E-03     53.0826E-03    -26.8081E-03     12.2398E-03     75.3213E-03     101.232E+06     3.49026E+06    -4.54646E+06    -101.453E+06    -3.67951E+06    -101.357E+06     2.52741E+06     843.168E+03
            1202     59.9979E-03     10.7118E-03     59.0340E-03     53.5126E-03    -26.6757E-03    -26.8699E-03    -26.2126E-03     52.8813E-03    -26.7016E-03     14.1583E-03     81.5040E-03     74.1658E+06    -386.776E+03    -8.17145E+06    -78.0192E+06    -4.42406E+06    -77.8675E+06    -4.28580E+06    -555.372E+03
            1203     60.1949E-03     11.6866E-03     59.0496E-03     53.4807E-03    -26.5663E-03    -26.9505E-03    -26.0842E-03     52.6144E-03    -26.5663E-03     16.5363E-03     89.0070E-03     39.4697E+06    -9.05987E+06    -17.6528E+06    -51.7805E+06    -9.20237E+06    -51.6380E+06    -17.6528E+06    -647.033E+03
            1204     60.4106E-03     12.6612E-03     59.0689E-03     53.8493E-03    -26.4408E-03    -27.4334E-03    -25.9449E-03     52.3608E-03    -26.4408E-03     21.5249E-03     100.706E-03     34.9548E+06     6.57488E+06    -16.4448E+06    -32.8558E+06    -11.7104E+06    -6.06281E+06    -24.9524E+06     489.416E+03
            1205     60.6473E-03     13.6353E-03     59.0947E-03     54.1553E-03    -26.3383E-03    -27.8213E-03    -25.5195E-03     51.8534E-03    -26.3383E-03     26.9968E-03     116.840E-03     86.9105E+06     71.8924E+06    -7.62043E+06    -19.5604E+06    -11.0004E+06     71.8401E+06    -16.1281E+06     1.02162E+06
            1206     60.9060E-03     14.6109E-03     59.1275E-03     56.7877E-03    -26.2055E-03    -30.5800E-03    -25.1572E-03     51.3650E-03    -26.2055E-03     40.8119E-03     148.650E-03     149.754E+06     137.262E+06    -7.32551E+06    -17.1324E+06    -10.7465E+06     137.250E+06    -13.7001E+06     78.4077E+03
            1207     61.1959E-03     15.5869E-03     59.1776E-03     68.4887E-03    -26.2447E-03    -42.2450E-03    -25.7252E-03     51.9689E-03    -26.2447E-03     77.1035E-03     219.114E-03     176.990E+06     175.577E+06     20.0142E+06    -15.3526E+06    -8.96691E+06     175.566E+06     13.6396E+06     229.819E+03
            1208     61.5594E-03     16.5626E-03     59.2894E-03     64.8298E-03    -25.8908E-03    -38.9419E-03    -25.7142E-03     52.2773E-03    -26.5660E-03     55.2808E-03     225.763E-03     184.044E+06     202.792E+06     90.5569E+06    -5.56299E+06    -5.55467E+06     202.784E+06     90.5569E+06     377.728E+03
            1209     60.0277E-03     973.785E-06     60.0198E-03     53.8289E-03    -26.8441E-03    -26.9846E-03    -26.9662E-03     53.8207E-03    -26.8542E-03     1.62451E-03     55.0171E-03     161.194E+06    -14.9467E+06    -20.9363E+06    -179.027E+06    -19.1555E+06    -179.013E+06    -16.7415E+06    -153.407E+03
            1210     60.0519E-03     1.94715E-03     60.0203E-03     53.9760E-03    -26.8526E-03    -27.1231E-03    -26.9946E-03     53.9621E-03    -26.9672E-03     2.09204E-03     55.3432E-03     165.799E+06    -13.3310E+06    -17.5460E+06    -181.171E+06    -17.4644E+06    -181.145E+06    -13.4382E+06     696.126E+03
            1211     60.0936E-03     2.92093E-03     60.0226E-03     53.9879E-03    -26.8523E-03    -27.1352E-03    -26.9581E-03     53.9627E-03    -27.0043E-03     2.82154E-03     56.0955E-03     168.350E+06    -9.54261E+06    -14.9833E+06    -180.534E+06    -15.0128E+06    -180.505E+06    -9.54261E+06     264.567E+03
            1212     60.1523E-03     3.89455E-03     60.0261E-03     54.1072E-03    -26.9973E-03    -27.1099E-03    -27.0189E-03     54.0555E-03    -27.0366E-03     4.01793E-03     57.3938E-03     174.714E+06    -6.15632E+06    -14.4071E+06    -184.831E+06    -14.4223E+06    -184.816E+06    -6.15632E+06     119.170E+03
            1213     60.2271E-03     4.86802E-03     60.0301E-03     54.1190E-03    -27.0036E-03    -27.1155E-03    -26.9885E-03     54.0339E-03    -27.0455E-03     5.23496E-03     58.9931E-03     173.684E+06    -5.08282E+06    -13.2539E+06    -182.687E+06    -13.2631E+06    -182.678E+06    -5.08282E+06     933.777E+03
            1214     60.3197E-03     5.84206E-03     60.0361E-03     54.0228E-03    -26.9412E-03    -27.0861E-03    -26.8659E-03     53.9006E-03    -27.0393E-03     6.25494E-03     60.8763E-03     169.313E+06    -2.18224E+06    -10.9309E+06    -175.687E+06    -10.9500E+06    -175.668E+06    -2.18224E+06     1.53699E+06
            1215     60.4285E-03     6.81530E-03     60.0429E-03     53.8935E-03    -26.8929E-03    -27.0113E-03    -26.6975E-03     53.6982E-03    -27.0113E-03     7.85779E-03     63.3294E-03     163.948E+06     1.12017E+06    -7.54147E+06    -166.951E+06    -7.56474E+06    -166.928E+06     1.12017E+06     1.82194E+06
            1216     60.5552E-03     7.78936E-03     60.0521E-03     53.7376E-03    -26.8044E-03    -26.9387E-03    -26.5143E-03     53.4475E-03    -26.9387E-03     9.60837E-03     66.4270E-03     145.079E+06     497.289E+03    -6.16305E+06    -147.764E+06    -6.18399E+06    -147.743E+06     497.289E+03     1.67913E+06
            1217     60.6985E-03     8.76416E-03     60.0624E-03     53.5417E-03    -26.7062E-03    -26.8477E-03    -26.3392E-03     53.1748E-03    -26.8477E-03     10.8128E-03     70.0610E-03     121.335E+06    -876.598E+03    -7.70241E+06    -125.462E+06    -6.76525E+06    -125.436E+06    -1.83945E+06    -180.148E+03
            1218     60.8586E-03     9.73806E-03     60.0744E-03     53.5435E-03    -26.7087E-03    -26.8653E-03    -26.3168E-03     53.0625E-03    -26.7762E-03     12.3471E-03     75.2917E-03     99.1677E+06    -188.142E+03    -8.43440E+06    -103.096E+06    -7.50836E+06    -103.059E+06    -1.15100E+06     27.0829E+03
            1219     61.0354E-03     10.7126E-03     60.0879E-03     53.6654E-03    -26.7170E-03    -26.9690E-03    -26.3436E-03     53.0400E-03    -26.7170E-03     14.1251E-03     81.7831E-03     74.6027E+06     134.167E+03    -8.94528E+06    -78.4347E+06    -8.22125E+06     -78.275E+06    -749.555E+03     2.75318E+06
            1220     61.2293E-03     11.6863E-03     60.1037E-03     53.6416E-03    -26.6091E-03    -27.0435E-03    -26.1950E-03     52.7932E-03    -26.6091E-03     16.3809E-03     89.2860E-03     42.5963E+06    -4.56300E+06    -13.0763E+06    -50.5467E+06    -8.10424E+06    -50.3221E+06    -9.75973E+06     1.22716E+06
            1221     61.4410E-03     12.6609E-03     60.1224E-03     54.0760E-03    -26.4748E-03    -27.6153E-03    -26.0902E-03     52.5509E-03    -26.4748E-03     21.7940E-03     101.073E-03     32.4824E+06     7.24825E+06    -11.6337E+06    -29.5795E+06    -7.39486E+06    -6.52374E+06    -20.0464E+06    -1.00347E+06
            1222     61.6761E-03     13.6351E-03     60.1500E-03     53.8646E-03    -26.3564E-03    -27.5105E-03    -25.3127E-03     51.6668E-03    -26.3564E-03     26.3069E-03     117.040E-03     82.8446E+06     70.3799E+06    -5.29984E+06    -16.6213E+06    -7.74572E+06     70.3650E+06    -14.1605E+06     182.708E+03
            1223     61.9256E-03     14.6120E-03     60.1770E-03     56.7839E-03    -26.2234E-03    -30.5568E-03    -25.2969E-03     51.5241E-03    -26.2234E-03     40.0484E-03     148.540E-03     149.281E+06     139.305E+06    -6.40971E+06    -13.1606E+06    -8.85759E+06     139.293E+06    -10.6998E+06     471.870E+03
            1224     62.2195E-03     15.5859E-03     60.2357E-03     68.3891E-03    -26.2736E-03    -42.1143E-03    -26.2452E-03     52.5200E-03    -26.2736E-03     75.7982E-03     219.288E-03     176.892E+06     175.253E+06     17.3647E+06    -13.9797E+06    -10.1243E+06     175.240E+06     13.5226E+06    -83.9938E+03
            1225     62.5711E-03     16.5592E-03     60.3402E-03     63.8550E-03    -25.4855E-03    -38.3693E-03    -25.2152E-03     51.7921E-03    -26.5767E-03     55.3958E-03     226.425E-03     183.852E+06     200.818E+06     86.4823E+06    -7.07880E+06    -7.07089E+06     200.810E+06     86.4823E+06     333.186E+03
            1226     61.0812E-03     974.277E-06     61.0735E-03     53.4082E-03    -26.5714E-03    -26.8369E-03    -26.6296E-03     53.4020E-03    -26.7725E-03     1.38735E-03     54.6688E-03     160.784E+06    -16.3066E+06    -23.6191E+06    -180.620E+06    -22.0583E+06    -180.493E+06    -17.9943E+06     983.839E+03
            1227     61.1063E-03     1.94800E-03     61.0752E-03     53.7706E-03    -26.7990E-03    -26.9705E-03    -26.9541E-03     53.7586E-03    -26.8035E-03     1.90372E-03     55.1333E-03     165.738E+06    -12.6259E+06    -18.5392E+06    -181.221E+06    -18.5868E+06    -181.173E+06    -12.6259E+06    -289.567E+03
            1228     61.1470E-03     2.92102E-03     61.0772E-03     53.8959E-03    -26.8519E-03    -27.0442E-03    -26.9801E-03     53.8691E-03    -26.8893E-03     2.88662E-03     55.9640E-03     167.803E+06    -10.6195E+06    -16.3078E+06    -181.175E+06    -16.3246E+06    -181.158E+06    -10.6195E+06     934.677E+03
            1229     61.2042E-03     3.89500E-03     61.0802E-03     54.0124E-03    -26.9255E-03    -27.0877E-03    -26.9993E-03     53.9614E-03    -26.9629E-03     4.02033E-03     57.2905E-03     174.831E+06    -4.83560E+06    -14.9700E+06    -184.502E+06    -14.9779E+06    -184.494E+06    -4.83560E+06     939.630E+03
            1230     61.2788E-03     4.86865E-03     61.0851E-03     54.0545E-03    -26.9505E-03    -27.1043E-03    -26.9897E-03     53.9743E-03    -26.9849E-03     5.07461E-03     58.9010E-03     175.279E+06    -4.28427E+06    -13.2099E+06    -183.833E+06    -13.2115E+06    -183.832E+06    -4.28427E+06     135.083E+03
            1231     61.3691E-03     5.84169E-03     61.0905E-03     53.9089E-03    -26.8912E-03    -27.0203E-03    -26.8110E-03     53.7818E-03    -26.9735E-03     6.34805E-03     60.7704E-03     170.121E+06    -3.46607E+06    -10.2546E+06    -176.872E+06    -10.2580E+06    -176.869E+06    -3.46607E+06     367.091E+03
            1232     61.4763E-03     6.81618E-03     61.0973E-03     53.8919E-03    -26.8843E-03    -27.0091E-03    -26.7357E-03     53.6863E-03    -26.9522E-03     8.07741E-03     63.3095E-03     163.792E+06    -483.987E+03    -8.35144E+06    -168.020E+06    -8.36064E+06    -168.011E+06    -483.987E+03     947.939E+03
            1233     61.6007E-03     7.79025E-03     61.1061E-03     53.8342E-03    -26.8652E-03    -26.9632E-03    -26.6394E-03     53.5515E-03    -26.9063E-03     9.51807E-03     66.5458E-03     145.687E+06     1.29583E+06    -6.59594E+06    -148.120E+06    -6.61110E+06    -148.105E+06     1.29583E+06     1.21149E+06
            1234     61.7419E-03     8.76363E-03     61.1168E-03     53.6152E-03    -26.7592E-03    -26.8554E-03    -26.4114E-03     53.2673E-03    -26.8554E-03     10.5380E-03     70.3046E-03     124.398E+06     4.01413E+06    -6.35258E+06    -125.189E+06    -6.49843E+06    -125.043E+06     4.01413E+06     2.39781E+06
            1235     61.8988E-03     9.73835E-03     61.1279E-03     53.6081E-03    -26.7116E-03    -26.9152E-03    -26.3598E-03     53.1279E-03    -26.7868E-03     12.3279E-03     75.4919E-03     101.543E+06     2.50362E+06    -8.43696E+06    -103.948E+06    -8.58357E+06    -103.801E+06     2.50362E+06     2.20596E+06
            1236     62.0739E-03     10.7120E-03     61.1426E-03     53.6286E-03    -26.7067E-03    -26.9446E-03    -26.3213E-03     53.0052E-03    -26.7067E-03     14.1059E-03     81.9305E-03     76.2881E+06     811.873E+03    -9.64420E+06    -80.0080E+06    -7.28761E+06    -79.8431E+06    -1.70963E+06     967.194E+03
            1237     62.2642E-03     11.6865E-03     61.1576E-03     53.7800E-03    -26.6104E-03    -27.1867E-03    -26.3055E-03     52.8988E-03    -26.6104E-03     16.6748E-03     89.5698E-03     43.4997E+06    -1.29072E+06    -10.8880E+06    -48.7086E+06    -5.18513E+06    -48.1308E+06    -7.57140E+06     900.977E+03
            1238     62.4731E-03     12.6606E-03     61.1768E-03     54.0204E-03    -26.4811E-03    -27.5558E-03    -26.0280E-03     52.4926E-03    -26.4811E-03     21.8677E-03     101.174E-03     30.0267E+06     6.58249E+06    -11.0324E+06    -27.3263E+06    -7.67110E+06    -5.93043E+06    -18.1747E+06    -83.7710E+03
            1239     62.7040E-03     13.6358E-03     61.2034E-03     54.1548E-03    -26.3617E-03    -27.7982E-03    -25.6697E-03     52.0264E-03    -26.3617E-03     26.0191E-03     117.510E-03     82.1618E+06     68.2259E+06    -8.12166E+06    -17.4766E+06    -9.85013E+06     68.1896E+06    -15.7119E+06     344.189E+03
            1240     62.9494E-03     14.6094E-03     61.2307E-03     57.6177E-03    -26.2656E-03    -31.3478E-03    -25.8325E-03     52.1024E-03    -26.2656E-03     41.0771E-03     149.355E-03     150.177E+06     140.020E+06    -8.60539E+06    -11.6243E+06    -10.3506E+06     140.000E+06    -9.85953E+06     1.64225E+06
            1241     63.2417E-03     15.5837E-03     61.2916E-03     68.2189E-03    -26.3023E-03    -41.9133E-03    -25.7301E-03     52.0357E-03    -26.3023E-03     76.3940E-03     219.300E-03     176.645E+06     175.244E+06     13.0316E+06    -11.1705E+06    -10.3545E+06     175.234E+06     12.2254E+06     423.777E+03
            1242     63.5863E-03     16.5615E-03     61.3916E-03     63.4887E-03    -25.5607E-03    -37.9208E-03    -24.7368E-03     51.3073E-03    -26.5632E-03     56.2431E-03     226.291E-03     183.667E+06     200.202E+06     83.3262E+06    -6.30241E+06    -6.29695E+06     200.197E+06     83.3262E+06    -70.8249E+03
            1243     62.1350E-03     973.558E-06     62.1274E-03     53.4199E-03    -26.5187E-03    -26.9007E-03    -26.6613E-03     53.4123E-03    -26.7505E-03     1.52047E-03     54.7133E-03     160.443E+06    -15.8882E+06    -24.0768E+06    -180.247E+06    -23.0010E+06    -180.065E+06    -17.1456E+06     2.97324E+06
            1244     62.1599E-03     1.94748E-03     62.1294E-03     53.5302E-03    -26.7287E-03    -26.8002E-03    -26.7388E-03     53.5184E-03    -26.7783E-03     1.90569E-03     54.8996E-03     165.931E+06    -10.7205E+06    -19.6517E+06    -180.919E+06    -19.7098E+06    -180.861E+06    -10.7205E+06    -57.4417E+03
            1245     62.2000E-03     2.92190E-03     62.1314E-03     53.7915E-03    -26.8180E-03    -26.9740E-03    -26.9451E-03     53.7669E-03    -26.8223E-03     2.75537E-03     55.8667E-03     169.741E+06    -9.94743E+06    -16.4471E+06    -182.830E+06    -16.4687E+06    -182.808E+06    -9.94743E+06     1.07040E+06
            1246     62.2570E-03     3.89501E-03     62.1350E-03     53.9322E-03    -26.8627E-03    -27.0703E-03    -26.9921E-03     53.8824E-03    -26.8911E-03     3.95875E-03     57.2060E-03     174.447E+06    -6.45859E+06    -14.2884E+06    -184.669E+06    -14.3020E+06    -184.655E+06    -6.45859E+06     1.28729E+06
            1247     62.3300E-03     4.86837E-03     62.1395E-03     53.7868E-03    -26.8264E-03    -26.9601E-03    -26.7971E-03     53.7082E-03    -26.9108E-03     5.01187E-03     58.6113E-03     174.791E+06    -5.16578E+06    -12.8567E+06    -183.667E+06    -12.8596E+06    -183.664E+06    -5.16578E+06     262.268E+03
            1248     62.4187E-03     5.84315E-03     62.1446E-03     53.8181E-03    -26.8289E-03    -26.9871E-03    -26.7936E-03     53.6927E-03    -26.8969E-03     6.29820E-03     60.6662E-03     170.370E+06    -4.56599E+06    -12.0694E+06    -178.546E+06    -12.0716E+06    -178.544E+06    -4.56599E+06     178.473E+03
            1249     62.5242E-03     6.81651E-03     62.1516E-03     53.9123E-03    -26.8714E-03    -27.0389E-03    -26.8249E-03     53.7187E-03    -26.8918E-03     7.86867E-03     63.3739E-03     161.337E+06    -1.68106E+06    -11.2737E+06    -167.572E+06    -11.2757E+06    -167.570E+06    -1.68106E+06     450.810E+03
            1250     62.6470E-03     7.78978E-03     62.1608E-03     53.7626E-03    -26.8386E-03    -26.9214E-03    -26.6281E-03     53.4837E-03    -26.8530E-03     9.42655E-03     66.4532E-03     143.110E+06    -2.43879E+06    -10.9595E+06    -149.581E+06    -10.9700E+06    -149.570E+06    -2.43879E+06     899.904E+03
            1251     62.7852E-03     8.76448E-03     62.1705E-03     53.6703E-03    -26.7700E-03    -26.9052E-03    -26.5142E-03     53.3046E-03    -26.7954E-03     10.8128E-03     70.2630E-03     122.427E+06    -1.34215E+06    -10.2817E+06    -127.919E+06    -8.90215E+06    -127.770E+06    -2.87051E+06     2.36981E+06
            1252     62.9403E-03     9.73806E-03     62.1824E-03     53.6719E-03    -26.7150E-03    -26.9740E-03    -26.4447E-03     53.1619E-03    -26.7343E-03     12.7096E-03     75.3541E-03     98.6532E+06     243.136E+03    -5.94071E+06    -101.266E+06    -4.39477E+06    -101.127E+06    -1.44216E+06     1.70092E+06
            1253     63.1124E-03     10.7126E-03     62.1966E-03     53.6130E-03    -26.6666E-03    -26.9678E-03    -26.3311E-03     52.9762E-03    -26.6666E-03     14.2640E-03     81.8015E-03     75.6729E+06    -1.93262E+06    -6.07359E+06    -79.5038E+06    -3.45398E+06    -79.4450E+06    -4.61106E+06    -155.897E+03
            1254     63.2996E-03     11.6870E-03     62.2113E-03     53.6598E-03    -26.5735E-03    -27.1209E-03    -26.2117E-03     52.7506E-03    -26.5735E-03     16.8700E-03     89.4307E-03     44.0299E+06    -4.58377E+06    -12.7370E+06    -51.6382E+06    -6.00364E+06    -51.1006E+06    -11.8547E+06     1.99003E+06
            1255     63.5069E-03     12.6610E-03     62.2320E-03     53.9258E-03    -26.4449E-03    -27.5081E-03    -26.0087E-03     52.4264E-03    -26.4449E-03     21.7561E-03     100.886E-03     31.1125E+06     8.07813E+06    -12.8070E+06    -27.0025E+06    -8.46704E+06    -3.50564E+06    -19.7587E+06     2.49336E+06
            1256     63.7310E-03     13.6357E-03     62.2552E-03     54.4910E-03    -26.3247E-03    -28.1682E-03    -25.8747E-03     52.1975E-03    -26.3247E-03     27.0143E-03     117.640E-03     83.1648E+06     67.0487E+06    -8.55262E+06    -21.2248E+06    -10.2342E+06     66.9655E+06    -19.4600E+06     505.812E+03
            1257     63.9790E-03     14.6100E-03     62.2885E-03     57.5601E-03    -26.2358E-03    -31.3206E-03    -25.5870E-03     51.8264E-03    -26.2358E-03     42.2012E-03     148.943E-03     149.244E+06     138.014E+06    -7.71031E+06    -14.2802E+06    -9.69850E+06     137.989E+06    -12.2668E+06     1.21801E+06
            1258     64.2604E-03     15.5862E-03     62.3415E-03     68.2485E-03    -26.2856E-03    -41.9641E-03    -25.7118E-03     51.9961E-03    -26.2856E-03     76.6474E-03     218.658E-03     176.659E+06     177.027E+06     15.2980E+06    -9.59685E+06    -8.98433E+06     177.015E+06     14.6972E+06     1.02948E+06
            1259     64.6060E-03     16.5610E-03     62.4473E-03     63.9837E-03    -25.6608E-03    -38.3234E-03    -25.2497E-03     51.8110E-03    -26.5619E-03     55.8449E-03     226.112E-03     183.841E+06     200.623E+06     84.3869E+06    -6.24995E+06    -6.24977E+06     200.623E+06     84.3869E+06    -43.8461E+03
            1260     63.1894E-03     974.101E-06     63.1818E-03     53.3601E-03    -26.5407E-03    -26.8187E-03    -26.7703E-03     53.3525E-03    -26.5815E-03     1.51816E-03     54.6472E-03     162.176E+06    -15.8361E+06    -22.5539E+06    -181.216E+06    -21.4899E+06    -181.023E+06    -17.0935E+06     4.22040E+06
            1261     63.2131E-03     1.94801E-03     63.1830E-03     53.6249E-03    -26.7210E-03    -26.9032E-03    -26.8448E-03     53.6116E-03    -26.7661E-03     2.04240E-03     54.9865E-03     167.190E+06    -10.6845E+06    -17.3986E+06    -181.080E+06    -17.4293E+06    -181.049E+06    -10.6845E+06     823.810E+03
            1262     63.2535E-03     2.92125E-03     63.1860E-03     53.7329E-03    -26.7498E-03    -26.9837E-03    -26.8826E-03     53.7099E-03    -26.8279E-03     2.69603E-03     55.7818E-03     172.220E+06    -9.11745E+06    -14.4283E+06    -183.923E+06    -14.4492E+06    -183.902E+06    -9.11745E+06     803.100E+03
            1263     63.3093E-03     3.89517E-03     63.1894E-03     53.6107E-03    -26.6937E-03    -26.9169E-03    -26.7260E-03     53.5654E-03    -26.8393E-03     3.74628E-03     56.8500E-03     174.743E+06    -8.74524E+06    -13.2559E+06    -185.687E+06    -13.2765E+06    -185.667E+06    -8.74524E+06     1.49974E+06
            1264     63.3808E-03     4.86962E-03     63.1934E-03     53.6534E-03    -26.7462E-03    -26.9064E-03    -26.7387E-03     53.5792E-03    -26.8397E-03     4.85729E-03     58.4634E-03     173.871E+06    -5.67901E+06    -12.9841E+06    -183.048E+06    -13.0006E+06    -183.032E+06    -5.67901E+06     1.45716E+06
            1265     63.4682E-03     5.84272E-03     63.1987E-03     53.7915E-03    -26.7889E-03    -27.0009E-03    -26.8207E-03     53.6664E-03    -26.8440E-03     6.26915E-03     60.6098E-03     170.704E+06    -3.72415E+06    -12.9436E+06    -178.820E+06    -12.9501E+06    -178.814E+06    -3.72415E+06     754.138E+03
            1266     63.5730E-03     6.81637E-03     63.2065E-03     53.7162E-03    -26.7775E-03    -26.9370E-03    -26.6954E-03     53.5163E-03    -26.8192E-03     7.97441E-03     63.0511E-03     159.489E+06    -4.78315E+06    -11.8108E+06    -167.650E+06    -11.8120E+06    -167.649E+06    -4.78315E+06     375.523E+03
            1267     63.6924E-03     7.79110E-03     63.2141E-03     53.6473E-03    -26.7630E-03    -26.8726E-03    -26.5761E-03     53.3593E-03    -26.7714E-03     9.57474E-03     66.1241E-03     142.625E+06    -5.94473E+06    -9.67411E+06    -150.391E+06    -9.68978E+06    -150.375E+06    -5.94473E+06     224.260E+03
            1268     63.8298E-03     8.76465E-03     63.2252E-03     53.6693E-03    -26.7146E-03    -26.9524E-03    -26.5689E-03     53.2857E-03    -26.7146E-03     11.0746E-03     70.0471E-03     121.069E+06    -5.58727E+06    -8.58669E+06    -128.114E+06    -7.08645E+06    -128.086E+06    -7.11563E+06    -776.052E+03
            1269     63.9818E-03     9.73889E-03     63.2363E-03     53.6365E-03    -26.6685E-03    -26.9915E-03    -26.4768E-03     53.1217E-03    -26.6685E-03     12.7931E-03     75.1000E-03     95.4071E+06    -4.37781E+06    -7.85585E+06    -101.455E+06    -6.19782E+06    -101.428E+06     -6.0631E+06    -287.075E+03
            1270     64.1514E-03     10.7129E-03     63.2506E-03     53.6596E-03    -26.6397E-03    -27.0389E-03    -26.3771E-03     52.9978E-03    -26.6397E-03     14.5195E-03     81.6747E-03     74.7689E+06    -4.34751E+06    -7.79633E+06    -80.7656E+06    -7.76241E+06    -80.6425E+06    -4.50444E+06     2.27566E+06
            1271     64.3362E-03     11.6865E-03     63.2659E-03     53.5507E-03    -26.5460E-03    -27.0448E-03    -26.1468E-03     52.6527E-03    -26.5460E-03     16.8058E-03     89.2569E-03     44.3256E+06    -7.12464E+06    -14.6428E+06    -54.0072E+06    -9.32513E+06    -53.6971E+06    -12.7523E+06     3.31704E+06
            1272     64.5388E-03     12.6623E-03     63.2845E-03     53.9091E-03    -26.4129E-03    -27.5350E-03    -25.9985E-03     52.3726E-03    -26.4129E-03     21.9005E-03     100.616E-03     33.0072E+06     10.5652E+06    -14.8346E+06    -25.8778E+06    -9.32834E+06    -1.77913E+06    -19.0397E+06     2.80255E+06
            1273     64.7632E-03     13.6360E-03     63.3113E-03     54.3637E-03    -26.3019E-03    -28.0626E-03    -25.7848E-03     52.0859E-03    -26.3019E-03     26.9295E-03     117.406E-03     82.5301E+06     69.1431E+06    -7.83075E+06    -17.8312E+06    -9.58185E+06     69.0546E+06    -15.9915E+06     515.523E+03
            1274     65.0033E-03     14.6116E-03     63.3398E-03     57.1307E-03    -26.2009E-03    -30.9257E-03    -25.4109E-03     51.6159E-03    -26.2009E-03     41.1355E-03     148.404E-03     146.819E+06     135.642E+06    -7.79114E+06    -14.0865E+06    -9.86260E+06     135.625E+06    -11.9982E+06    -260.876E+03
            1275     65.2850E-03     15.5864E-03     63.3972E-03     68.4278E-03    -26.2727E-03    -42.1603E-03    -26.0864E-03     52.3539E-03    -26.2727E-03     76.4377E-03     218.442E-03     176.471E+06     178.003E+06     18.6539E+06    -9.22492E+06    -8.95741E+06     177.987E+06     18.4025E+06     1.13878E+06
            1276     65.6250E-03     16.5604E-03     63.5011E-03     64.4245E-03    -25.7953E-03    -38.6335E-03    -25.7636E-03     52.3330E-03    -26.5737E-03     55.7933E-03     226.363E-03     184.131E+06     201.456E+06     86.8960E+06    -6.79460E+06     -6.7861E+06     201.447E+06     86.8960E+06     824.410E+03
            1277     64.2426E-03     974.056E-06     64.2352E-03     53.4954E-03    -26.6580E-03    -26.8380E-03    -26.7396E-03     53.4901E-03    -26.7511E-03     1.09393E-03     54.7795E-03     163.148E+06    -15.3549E+06    -21.4950E+06    -181.421E+06    -17.6619E+06    -181.232E+06    -19.3764E+06     528.345E+03
            1278     64.2673E-03     1.94755E-03     64.2378E-03     53.6482E-03    -26.7146E-03    -26.9336E-03    -26.8386E-03     53.6351E-03    -26.7965E-03     2.02415E-03     55.0123E-03     168.301E+06    -13.7211E+06    -16.3304E+06    -183.306E+06    -15.7517E+06    -183.292E+06    -14.3131E+06     884.244E+03
            1279     64.3067E-03     2.92126E-03     64.2403E-03     53.5424E-03    -26.6414E-03    -26.9018E-03    -26.6958E-03     53.5187E-03    -26.8236E-03     2.73141E-03     55.5437E-03     172.404E+06    -10.6622E+06    -15.3537E+06    -185.361E+06    -15.3679E+06    -185.346E+06    -10.6622E+06     1.25575E+06
            1280     64.3610E-03     3.89548E-03     64.2430E-03     53.4758E-03    -26.6587E-03    -26.8172E-03    -26.6265E-03     53.4319E-03    -26.8056E-03     3.69842E-03     56.6223E-03     175.499E+06    -8.02841E+06    -13.2395E+06    -186.065E+06    -13.2521E+06    -186.053E+06    -8.02841E+06     1.13184E+06
            1281     64.4318E-03     4.86913E-03     64.2475E-03     53.5385E-03    -26.6664E-03    -26.8725E-03    -26.6666E-03     53.4603E-03    -26.7941E-03     4.95162E-03     58.2556E-03     175.189E+06    -4.31069E+06    -11.0085E+06    -182.707E+06    -11.0247E+06    -182.691E+06    -4.31069E+06     1.46100E+06
            1282     64.5186E-03     5.84321E-03     64.2534E-03     53.5375E-03    -26.6717E-03    -26.8690E-03    -26.6192E-03     53.4054E-03    -26.7893E-03     6.44531E-03     60.2759E-03     173.675E+06     -796.47E+03    -9.23971E+06    -178.502E+06    -9.25503E+06    -178.487E+06     -796.47E+03     1.33511E+06
            1283     64.6202E-03     6.81782E-03     64.2595E-03     53.5575E-03    -26.7117E-03    -26.8419E-03    -26.6043E-03     53.3533E-03    -26.7451E-03     8.05004E-03     62.7464E-03     161.639E+06    -2.80730E+06    -8.95799E+06    -167.418E+06    -8.96923E+06    -167.406E+06    -2.80730E+06     469.875E+03
            1284     64.7395E-03     7.79105E-03     64.2690E-03     53.6705E-03    -26.7074E-03    -26.9393E-03    -26.6522E-03     53.3833E-03    -26.7074E-03     9.57726E-03     66.0307E-03     143.743E+06    -3.49842E+06    -8.71257E+06    -149.733E+06    -8.72140E+06    -149.725E+06    -3.49842E+06    -757.604E+03
            1285     64.8734E-03     8.76544E-03     64.2785E-03     53.6375E-03    -26.6736E-03    -26.9485E-03    -26.5689E-03     53.2578E-03    -26.6736E-03     11.0119E-03     69.9187E-03     120.530E+06    -3.84207E+06    -8.99395E+06    -126.815E+06    -9.01302E+06    -126.796E+06    -3.84207E+06    -1.25300E+06
            1286     65.0246E-03     9.73930E-03     64.2911E-03     53.5861E-03    -26.6369E-03    -26.9743E-03    -26.4679E-03     53.0797E-03    -26.6369E-03     12.6955E-03     75.0381E-03     97.6657E+06    -4.94584E+06    -9.53971E+06    -104.812E+06    -9.56878E+06    -104.783E+06    -4.94584E+06     39.1794E+03
            1287     65.1904E-03     10.7134E-03     64.3041E-03     53.5760E-03    -26.6034E-03    -26.9996E-03    -26.3389E-03     52.9154E-03    -26.6034E-03     14.4938E-03     81.5149E-03     78.5976E+06    -3.98386E+06    -8.93151E+06    -84.9368E+06    -9.18938E+06    -84.6789E+06    -3.98386E+06     3.53265E+06
            1288     65.3737E-03     11.6884E-03     64.3203E-03     53.5663E-03    -26.5044E-03    -27.0954E-03    -26.2160E-03     52.6869E-03    -26.5044E-03     16.6839E-03     89.1881E-03     43.3144E+06    -6.38113E+06    -13.7489E+06    -52.3142E+06    -8.96109E+06    -52.0024E+06    -11.4807E+06     3.52072E+06
            1289     65.5719E-03     12.6614E-03     64.3379E-03     54.0043E-03    -26.3689E-03    -27.6592E-03    -26.0869E-03     52.4320E-03    -26.3689E-03     22.0912E-03     100.517E-03     33.6946E+06     10.0090E+06    -13.8966E+06    -27.7433E+06    -8.82083E+06    -1.70329E+06    -21.1068E+06     1.70634E+06
            1290     65.7946E-03     13.6368E-03     64.3658E-03     54.4806E-03    -26.2894E-03    -28.1788E-03    -25.9469E-03     52.2487E-03    -26.2894E-03     26.7853E-03     117.153E-03     84.5499E+06     71.9434E+06    -6.20857E+06    -16.6891E+06    -9.42455E+06     71.8890E+06    -13.4187E+06     836.681E+03
            1291     66.0300E-03     14.6105E-03     64.3933E-03     57.3027E-03    -26.2042E-03    -31.0903E-03    -25.8141E-03     52.0265E-03    -26.2042E-03     40.2512E-03     148.729E-03     147.323E+06     135.873E+06    -7.65487E+06    -14.8735E+06    -10.9147E+06     135.863E+06    -11.6031E+06    -535.512E+03
            1292     66.3089E-03     15.5861E-03     64.4511E-03     68.3844E-03    -26.2675E-03    -42.1193E-03    -26.0180E-03     52.2832E-03    -26.2675E-03     76.2552E-03     218.508E-03     176.324E+06     175.288E+06     18.4302E+06    -13.5803E+06    -9.62083E+06     175.277E+06     14.4819E+06     289.838E+03
            1293     66.6465E-03     16.5619E-03     64.5558E-03     64.2215E-03    -25.6845E-03    -38.5401E-03    -25.4412E-03     52.0082E-03    -26.5700E-03     55.4754E-03     225.768E-03     183.957E+06     202.135E+06     87.0652E+06    -6.22929E+06    -6.21412E+06     202.119E+06     87.0652E+06     1.46506E+06
            1294     65.2970E-03     973.387E-06     65.2897E-03     53.7272E-03    -26.7434E-03    -26.9855E-03    -26.7368E-03     53.7207E-03    -26.9855E-03     1.06892E-03     54.8804E-03     164.666E+06    -12.1772E+06    -20.2529E+06    -180.691E+06    -16.5016E+06    -180.420E+06    -16.1987E+06    -3.01710E+06
            1295     65.3210E-03     1.94737E-03     65.2920E-03     53.3923E-03    -26.5600E-03    -26.8330E-03    -26.5448E-03     53.3770E-03    -26.8330E-03     2.19802E-03     54.7105E-03     170.629E+06    -12.9609E+06    -17.0267E+06    -185.565E+06    -16.4670E+06    -185.533E+06    -13.5529E+06     1.52887E+06
            1296     65.3592E-03     2.92186E-03     65.2939E-03     53.3348E-03    -26.5820E-03    -26.7526E-03    -26.5572E-03     53.3100E-03    -26.7526E-03     2.78272E-03     55.3227E-03     172.534E+06    -11.9190E+06    -15.1128E+06    -186.023E+06    -15.1229E+06    -186.013E+06    -11.9190E+06     1.02265E+06
            1297     65.4133E-03     3.89557E-03     65.2972E-03     53.3492E-03    -26.6078E-03    -26.7419E-03    -26.5698E-03     53.2996E-03    -26.7302E-03     3.91630E-03     56.4860E-03     175.377E+06    -8.20822E+06    -13.5841E+06    -186.203E+06    -13.5915E+06    -186.196E+06    -8.20822E+06     1.06273E+06
            1298     65.4828E-03     4.86960E-03     65.3015E-03     53.2875E-03    -26.5382E-03    -26.7505E-03    -26.4899E-03     53.1979E-03    -26.7092E-03     5.30315E-03     57.9566E-03     174.992E+06    -5.05801E+06    -11.6624E+06    -183.246E+06    -11.6683E+06    -183.240E+06    -5.05801E+06     877.625E+03
            1299     65.5676E-03     5.84419E-03     65.3066E-03     53.4016E-03    -26.6166E-03    -26.7891E-03    -26.5711E-03     53.2678E-03    -26.7009E-03     6.51949E-03     60.0521E-03     173.452E+06    -1.35653E+06    -10.2036E+06    -179.040E+06    -10.2171E+06    -179.027E+06    -1.35653E+06     993.476E+03
            1300     65.6690E-03     6.81751E-03     65.3142E-03     53.5471E-03    -26.6865E-03    -26.8586E-03    -26.6612E-03     53.3497E-03    -26.6865E-03     7.91076E-03     62.7435E-03     162.670E+06     94.8521E+03    -9.17835E+06    -166.994E+06    -9.22961E+06    -166.942E+06     94.8521E+03     1.40441E+06
            1301     65.7855E-03     7.79220E-03     65.3223E-03     53.5793E-03    -26.6579E-03    -26.9078E-03    -26.6224E-03     53.2939E-03    -26.6579E-03     9.53557E-03     65.9453E-03     143.033E+06    -1.53965E+06    -10.3911E+06    -148.764E+06    -10.4361E+06    -148.719E+06    -1.53965E+06     1.21724E+06
            1302     65.9188E-03     8.76556E-03     65.3334E-03     53.5337E-03    -26.6108E-03    -26.9154E-03    -26.5361E-03     53.1544E-03    -26.6108E-03     10.9979E-03     69.7627E-03     117.604E+06    -4.95809E+06    -11.6391E+06    -125.719E+06    -11.6249E+06    -125.700E+06    -4.99048E+06    -515.653E+03
            1303     66.0660E-03     9.73982E-03     65.3442E-03     53.5289E-03    -26.5761E-03    -26.9763E-03    -26.4627E-03     53.0153E-03    -26.5761E-03     12.7733E-03     74.9320E-03     98.9529E+06    -7.51734E+06    -11.3616E+06    -108.317E+06    -11.3588E+06    -108.287E+06    -7.54972E+06    -26.4962E+03
            1304     66.2312E-03     10.7139E-03     65.3589E-03     53.5345E-03    -26.5413E-03    -27.0277E-03    -26.3741E-03     52.8809E-03    -26.5413E-03     14.4355E-03     81.3879E-03     79.5302E+06    -5.80273E+06    -11.0180E+06    -87.7908E+06    -9.52206E+06    -87.6203E+06    -7.46916E+06     2.11291E+06
            1305     66.4098E-03     11.6877E-03     65.3732E-03     53.5709E-03    -26.4526E-03    -27.1520E-03    -26.2681E-03     52.6871E-03    -26.4526E-03     16.7103E-03     89.1448E-03     41.7798E+06    -4.78764E+06    -12.4063E+06    -49.4349E+06    -6.21336E+06    -49.2692E+06    -11.1462E+06     1.39767E+06
            1306     66.6080E-03     12.6631E-03     65.3932E-03     54.1644E-03    -26.3333E-03    -27.8485E-03    -26.2982E-03     52.6141E-03    -26.3333E-03     22.0595E-03     100.655E-03     33.8658E+06     9.69959E+06    -10.2211E+06    -29.1973E+06    -5.50050E+06    -2.33131E+06    -21.8870E+06     812.351E+03
            1307     66.8246E-03     13.6366E-03     65.4185E-03     54.6668E-03    -26.2551E-03    -28.4020E-03    -26.1373E-03     52.4021E-03    -26.2551E-03     27.0155E-03     117.232E-03     86.1969E+06     71.5838E+06    -5.54544E+06    -18.9992E+06    -6.88642E+06     71.4940E+06    -17.5685E+06     2.29287E+06
            1308     67.0612E-03     14.6110E-03     65.4502E-03     57.4992E-03    -26.1881E-03    -31.3062E-03    -26.0173E-03     52.2103E-03    -26.1881E-03     40.6058E-03     148.701E-03     149.289E+06     137.333E+06    -8.35738E+06    -15.2303E+06    -9.72514E+06     137.270E+06    -13.7995E+06     1.81737E+06
            1309     67.3310E-03     15.5850E-03     65.5025E-03     68.7034E-03    -26.2694E-03    -42.4355E-03    -26.1574E-03     52.4253E-03    -26.2694E-03     76.7084E-03     218.733E-03     176.748E+06     173.567E+06     17.1710E+06    -16.3941E+06    -11.2971E+06     173.555E+06     12.0860E+06     540.322E+03
            1310     67.6692E-03     16.5599E-03     65.6116E-03     63.8642E-03    -25.1770E-03    -38.6895E-03    -24.8887E-03     51.4513E-03    -26.5648E-03     55.4192E-03     225.787E-03     184.085E+06     201.944E+06     86.5667E+06    -6.70711E+06    -6.69529E+06     201.932E+06     86.5667E+06     360.993E+03
            1311     66.3512E-03     973.645E-06     66.3441E-03     53.3247E-03    -26.5005E-03    -26.8240E-03    -26.6686E-03     53.3183E-03    -26.6496E-03     1.23512E-03     54.4607E-03     163.506E+06    -15.4271E+06    -23.4653E+06    -182.769E+06    -23.7069E+06    -182.527E+06    -15.4271E+06    -1.55353E+06
            1312     66.3739E-03     1.94805E-03     66.3453E-03     53.1972E-03    -26.4391E-03    -26.7582E-03    -26.4969E-03     53.1818E-03    -26.6851E-03     2.17510E-03     54.4798E-03     171.460E+06    -10.7595E+06    -17.1448E+06    -185.258E+06    -17.1971E+06    -185.205E+06    -10.7595E+06     803.635E+03
            1313     66.4122E-03     2.92181E-03     66.3479E-03     53.0357E-03    -26.4213E-03    -26.6125E-03    -26.3903E-03     53.0047E-03    -26.6125E-03     3.07239E-03     55.0761E-03     173.218E+06    -12.6030E+06    -14.9936E+06    -187.000E+06    -15.0079E+06    -186.985E+06    -12.6030E+06     1.17293E+06
            1314     66.4652E-03     3.89605E-03     66.3509E-03     53.0960E-03    -26.4208E-03    -26.6743E-03    -26.4516E-03     53.0403E-03    -26.5876E-03     4.16865E-03     56.2660E-03     175.043E+06    -9.13913E+06    -14.3766E+06    -186.733E+06    -14.3876E+06    -186.722E+06    -9.13913E+06     1.26507E+06
            1315     66.5331E-03     4.87077E-03     66.3546E-03     53.2742E-03    -26.5142E-03    -26.7602E-03    -26.5857E-03     53.1866E-03    -26.6010E-03     5.26255E-03     57.9340E-03     174.737E+06    -4.95199E+06    -14.1489E+06    -184.089E+06    -14.1650E+06    -184.073E+06    -4.95199E+06     1.52914E+06
            1316     66.6179E-03     5.84407E-03     66.3611E-03     53.4281E-03    -26.6317E-03    -26.7999E-03    -26.6669E-03     53.2951E-03    -26.6317E-03     6.49246E-03     60.0883E-03     171.887E+06    -1.18359E+06    -13.7443E+06    -178.991E+06    -13.7578E+06    -178.977E+06    -1.18359E+06     1.12808E+06
            1317     66.7169E-03     6.81861E-03     66.3676E-03     53.4956E-03    -26.6338E-03    -26.8663E-03    -26.6701E-03     53.2995E-03    -26.6338E-03     7.89675E-03     62.7472E-03     162.491E+06    -400.408E+03    -10.8366E+06    -167.812E+06    -10.8916E+06    -167.757E+06    -400.408E+03     762.808E+03
            1318     66.8327E-03     7.79183E-03     66.3769E-03     53.4433E-03    -26.6096E-03    -26.8372E-03    -26.5582E-03     53.1643E-03    -26.6096E-03     9.41445E-03     65.8725E-03     145.512E+06    -88.8315E+03    -6.58617E+06    -148.707E+06    -6.64809E+06    -148.645E+06    -88.8315E+03     1.36244E+06
            1319     66.9629E-03     8.76661E-03     66.3865E-03     53.3968E-03    -26.5646E-03    -26.8387E-03    -26.4620E-03     53.0201E-03    -26.5646E-03     10.9443E-03     69.6953E-03     121.364E+06    -1.74462E+06    -6.73744E+06    -125.487E+06    -6.83157E+06    -125.360E+06    -1.77700E+06     1.89730E+06
            1320     67.1095E-03     9.74038E-03     66.3989E-03     53.4701E-03    -26.5323E-03    -26.9700E-03    -26.4614E-03     52.9616E-03    -26.5323E-03     12.7093E-03     74.9362E-03     102.304E+06    -4.83801E+06    -9.38411E+06    -109.310E+06    -9.48546E+06    -109.176E+06    -4.87039E+06     1.22800E+06
            1321     67.2708E-03     10.7146E-03     66.4121E-03     53.5501E-03    -26.4775E-03    -27.1161E-03    -26.4511E-03     52.8850E-03    -26.4775E-03     14.5630E-03     81.4238E-03     78.3330E+06    -6.52040E+06    -12.9281E+06    -87.8046E+06    -8.99060E+06    -87.7650E+06    -10.4975E+06    -630.502E+03
            1322     67.4489E-03     11.6891E-03     66.4283E-03     53.6919E-03    -26.3990E-03    -27.3269E-03    -26.4409E-03     52.8059E-03    -26.3990E-03     16.7928E-03     89.2357E-03     37.4752E+06    -8.40941E+06    -15.2570E+06    -48.7057E+06    -8.43478E+06    -48.6803E+06    -15.2570E+06    -914.029E+03
            1323     67.6419E-03     12.6624E-03     66.4461E-03     54.2197E-03    -26.3091E-03    -27.9309E-03    -26.3616E-03     52.6504E-03    -26.3091E-03     22.1435E-03     100.863E-03     30.3130E+06     4.82850E+06    -12.6451E+06    -29.8382E+06    -9.72491E+06    -4.38302E+06    -23.5469E+06     743.332E+03
            1324     67.8591E-03     13.6365E-03     66.4748E-03     54.5044E-03    -26.2235E-03    -28.2805E-03    -25.9657E-03     52.1896E-03    -26.2235E-03     27.2556E-03     117.151E-03     87.0327E+06     68.6172E+06    -9.79220E+06    -22.7018E+06    -11.2815E+06     68.4559E+06    -21.0511E+06     3.53564E+06
            1325     68.0880E-03     14.6118E-03     66.5017E-03     57.3964E-03    -26.1607E-03    -31.2349E-03    -25.7558E-03     51.9172E-03    -26.1607E-03     41.1842E-03     148.445E-03     151.111E+06     139.054E+06    -10.2159E+06    -13.7992E+06    -11.7404E+06     138.928E+06    -12.1486E+06     3.89556E+06
            1326     68.3609E-03     15.5863E-03     66.5603E-03     68.8255E-03    -26.2355E-03    -42.5916E-03    -26.1425E-03     52.3765E-03    -26.2355E-03     77.3297E-03     219.021E-03     176.593E+06     175.933E+06     16.3105E+06    -11.6658E+06    -10.0655E+06     175.908E+06     14.7350E+06     851.576E+03
            1327     68.6884E-03     16.5620E-03     66.6618E-03     64.3121E-03    -25.5150E-03    -38.7960E-03    -25.3822E-03     51.9187E-03    -26.5355E-03     55.3001E-03     226.356E-03     184.313E+06     202.244E+06     86.4986E+06    -5.92079E+06    -5.90923E+06     202.233E+06     86.4986E+06    -990.531E+03
            1328     67.4054E-03     974.959E-06     67.3984E-03     52.6235E-03    -26.1555E-03    -26.4663E-03    -26.4615E-03     52.6187E-03    -26.1555E-03     1.15231E-03     53.8029E-03     163.268E+06    -18.1517E+06    -24.1947E+06    -184.311E+06    -22.1893E+06    -184.258E+06    -20.2106E+06    -867.325E+03
            1329     67.4272E-03     1.94798E-03     67.3990E-03     52.8304E-03    -26.3367E-03    -26.4926E-03    -26.4223E-03     52.8149E-03    -26.3915E-03     2.13361E-03     54.0884E-03     171.282E+06    -11.7586E+06    -19.4442E+06    -186.669E+06    -18.8705E+06    -186.641E+06    -12.3602E+06     236.434E+03
            1330     67.4643E-03     2.92277E-03     67.4010E-03     52.8179E-03    -26.2943E-03    -26.5231E-03    -26.3624E-03     52.7861E-03    -26.4232E-03     3.12204E-03     54.8127E-03     173.878E+06    -10.2988E+06    -16.1483E+06    -186.973E+06    -16.1633E+06    -186.958E+06    -10.2988E+06     1.46037E+06
            1331     67.5165E-03     3.89742E-03     67.4040E-03     53.0513E-03    -26.3674E-03    -26.6841E-03    -26.5543E-03     52.9956E-03    -26.4415E-03     4.15080E-03     56.2228E-03     175.232E+06     -10.271E+06    -15.1774E+06    -187.895E+06    -15.1863E+06    -187.886E+06     -10.271E+06     1.12906E+06
            1332     67.5848E-03     4.87033E-03     67.4091E-03     53.3161E-03    -26.5098E-03    -26.8073E-03    -26.7204E-03     53.2292E-03    -26.5098E-03     5.25306E-03     57.9841E-03     176.055E+06    -5.27023E+06    -13.5017E+06    -185.265E+06    -13.5398E+06    -185.227E+06    -5.27023E+06     2.22368E+06
            1333     67.6671E-03     5.84488E-03     67.4141E-03     53.4010E-03    -26.5671E-03    -26.8371E-03    -26.7015E-03     53.2654E-03    -26.5671E-03     6.53838E-03     60.0976E-03     171.499E+06    -957.280E+03    -11.9761E+06    -177.663E+06    -12.0167E+06    -177.622E+06    -957.280E+03     2.39293E+06
            1334     67.7660E-03     6.81817E-03     67.4222E-03     53.3981E-03    -26.5658E-03    -26.8393E-03    -26.6411E-03     53.1999E-03    -26.5658E-03     7.94138E-03     62.6711E-03     159.016E+06    -3.16757E+06    -11.7047E+06    -166.228E+06    -11.7309E+06    -166.202E+06    -3.16757E+06    -281.737E+03
            1335     67.8788E-03     7.79288E-03     67.4300E-03     53.3734E-03    -26.5455E-03    -26.8315E-03    -26.5554E-03     53.0973E-03    -26.5455E-03     9.35831E-03     65.8337E-03     143.234E+06    -4.67655E+06    -10.4367E+06    -150.681E+06    -10.4710E+06    -150.647E+06    -4.67655E+06    -1.16310E+06
            1336     68.0082E-03     8.76649E-03     67.4408E-03     53.3624E-03    -26.5266E-03    -26.8443E-03    -26.4791E-03     52.9973E-03    -26.5266E-03     10.7822E-03     69.7069E-03     123.885E+06    -1.80903E+06    -7.50452E+06    -128.419E+06    -6.73694E+06    -128.297E+06     -2.6986E+06     1.85815E+06
            1337     68.1520E-03     9.74094E-03     67.4523E-03     53.4121E-03    -26.5079E-03    -26.9392E-03    -26.4570E-03     52.9299E-03    -26.5079E-03     12.3720E-03     74.9562E-03     104.893E+06    -48.9811E+03    -4.65945E+06    -107.147E+06    -3.90807E+06    -107.009E+06    -938.555E+03     2.32755E+06
            1338     68.3120E-03     10.7150E-03     67.4664E-03     53.5710E-03    -26.4443E-03    -27.1691E-03    -26.5290E-03     52.9309E-03    -26.4443E-03     14.2920E-03     81.5254E-03     79.0816E+06    -4.22308E+06    -10.4100E+06    -86.1116E+06    -5.91520E+06    -86.0572E+06    -8.77226E+06     103.072E+03
            1339     68.4868E-03     11.6887E-03     67.4819E-03     53.7487E-03    -26.3717E-03    -27.4120E-03    -26.5392E-03     52.8759E-03    -26.3717E-03     16.6781E-03     89.3642E-03     38.2214E+06    -9.69916E+06    -16.6432E+06    -50.8510E+06    -9.95972E+06    -50.5905E+06    -16.6432E+06     739.046E+03
            1340     68.6790E-03     12.6629E-03     67.5015E-03     53.9612E-03    -26.2810E-03    -27.6990E-03    -26.1630E-03     52.4253E-03    -26.2810E-03     21.8472E-03     100.851E-03     29.6015E+06     2.62685E+06    -15.1603E+06    -31.0678E+06    -12.9695E+06    -5.74244E+06    -24.8893E+06     1.74122E+06
            1341     68.8904E-03     13.6381E-03     67.5269E-03     54.2564E-03    -26.1771E-03    -28.0783E-03    -25.7258E-03     51.9040E-03    -26.1771E-03     27.3570E-03     116.754E-03     86.0900E+06     66.1665E+06    -11.3791E+06    -24.9278E+06    -12.9317E+06     66.0685E+06    -23.2772E+06     1.77391E+06
            1342     69.1201E-03     14.6120E-03     67.5579E-03     57.1292E-03    -26.1206E-03    -31.0081E-03    -25.5826E-03     51.7037E-03    -26.1206E-03     41.0227E-03     148.309E-03     150.294E+06     140.667E+06    -7.09211E+06    -11.9722E+06    -9.54385E+06     140.596E+06    -9.44853E+06     1.79003E+06
            1343     69.3849E-03     15.5879E-03     67.6113E-03     68.6232E-03    -26.1949E-03    -42.4289E-03    -26.2101E-03     52.4044E-03    -26.1949E-03     76.7236E-03     218.850E-03     176.513E+06     179.074E+06     17.9906E+06    -7.73144E+06    -7.52587E+06     179.056E+06     17.8033E+06     500.711E+03
            1344     69.7151E-03     16.5622E-03     67.7192E-03     64.7226E-03    -25.8148E-03    -38.9069E-03    -25.9780E-03     52.4782E-03    -26.4994E-03     54.6024E-03     226.065E-03     184.358E+06     201.566E+06     84.3359E+06    -6.20114E+06    -6.19209E+06     201.557E+06     84.3359E+06    -331.420E+03
            1345     68.4576E-03     973.903E-06     68.4507E-03     52.1002E-03    -25.9472E-03    -26.1523E-03    -26.0785E-03     52.0952E-03    -26.0160E-03     1.18456E-03     53.3290E-03     166.784E+06    -15.3983E+06    -23.1795E+06    -185.898E+06    -21.1505E+06    -185.868E+06    -17.4573E+06    -422.499E+03
            1346     68.4801E-03     1.94966E-03     68.4523E-03     52.4290E-03    -26.1483E-03    -26.2801E-03    -26.2666E-03     52.4158E-03    -26.1486E-03     1.96581E-03     53.6464E-03     172.601E+06    -11.1668E+06    -19.4122E+06    -187.672E+06    -18.8229E+06    -187.660E+06    -11.7684E+06     1.10013E+06
            1347     68.5164E-03     2.92327E-03     68.4540E-03     52.8777E-03    -26.2669E-03    -26.6108E-03    -26.5820E-03     52.8489E-03    -26.2669E-03     2.94764E-03     54.7838E-03     174.729E+06    -9.61952E+06    -16.4179E+06    -187.607E+06    -16.4291E+06    -187.596E+06    -9.61952E+06     1.19454E+06
            1348     68.5686E-03     3.89656E-03     68.4578E-03     53.0776E-03    -26.3653E-03    -26.7119E-03    -26.6590E-03     53.0246E-03    -26.3653E-03     4.05184E-03     56.1921E-03     175.544E+06    -10.3149E+06    -14.8251E+06    -188.066E+06    -14.8365E+06    -188.054E+06    -10.3149E+06     1.26219E+06
            1349     68.6355E-03     4.87160E-03     68.4624E-03     53.1519E-03    -26.4312E-03    -26.7207E-03    -26.6338E-03     53.0651E-03    -26.4312E-03     5.22658E-03     57.8256E-03     175.952E+06    -9.26159E+06    -13.9571E+06    -187.499E+06    -13.4130E+06    -187.470E+06    -9.83505E+06     1.60204E+06
            1350     68.7175E-03     5.84475E-03     68.4685E-03     53.3155E-03    -26.4808E-03    -26.8363E-03    -26.6976E-03     53.1768E-03    -26.4808E-03     6.61401E-03     60.0262E-03     168.782E+06    -5.37944E+06    -12.0145E+06    -177.360E+06    -11.4789E+06    -177.322E+06     -5.9529E+06     2.05510E+06
            1351     68.8142E-03     6.81931E-03     68.4754E-03     53.3934E-03    -26.5169E-03    -26.8784E-03    -26.6869E-03     53.2019E-03    -26.5169E-03     7.81643E-03     62.7006E-03     157.217E+06    -2.26717E+06    -10.3307E+06    -163.354E+06    -10.3545E+06    -163.330E+06    -2.26717E+06     1.00625E+06
            1352     68.9261E-03     7.79270E-03     68.4841E-03     53.3839E-03    -26.5050E-03    -26.8766E-03    -26.6097E-03     53.1169E-03    -26.5050E-03     9.19067E-03     65.8548E-03     141.531E+06    -4.97548E+06    -12.4130E+06    -150.073E+06    -11.3037E+06    -150.034E+06    -6.12400E+06    -1.30667E+06
            1353     69.0532E-03     8.76694E-03     68.4944E-03     53.3727E-03    -26.4733E-03    -26.9049E-03    -26.5393E-03     53.0071E-03    -26.4733E-03     10.7897E-03     69.7244E-03     120.979E+06    -7.85689E+06    -12.0500E+06    -130.858E+06    -10.0064E+06    -130.772E+06    -9.98594E+06    -2.31319E+06
            1354     69.1953E-03     9.74076E-03     68.5063E-03     53.4788E-03    -26.4766E-03    -27.0257E-03    -26.5427E-03     52.9958E-03    -26.4766E-03     12.3973E-03     75.0668E-03     102.799E+06    -4.64033E+06    -7.78954E+06    -108.941E+06    -6.92632E+06    -108.824E+06    -5.62086E+06     665.300E+03
            1355     69.3529E-03     10.7150E-03     68.5202E-03     53.5829E-03    -26.4441E-03    -27.1783E-03    -26.5440E-03     52.9486E-03    -26.4441E-03     14.2307E-03     81.6758E-03     78.1790E+06    -4.65205E+06    -9.51574E+06    -85.0733E+06    -6.97269E+06    -84.9213E+06    -7.34706E+06     3.06098E+06
            1356     69.5262E-03     11.6890E-03     68.5365E-03     53.5851E-03    -26.3652E-03    -27.2721E-03    -26.3949E-03     52.7079E-03    -26.3652E-03     16.6754E-03     89.2582E-03     41.8975E+06    -8.00810E+06    -15.9044E+06    -52.6482E+06    -8.35141E+06    -52.3049E+06    -15.9044E+06     2.75939E+06
            1357     69.7146E-03     12.6632E-03     68.5548E-03     53.8381E-03    -26.2699E-03    -27.5973E-03    -26.1445E-03     52.3853E-03    -26.2699E-03     21.3403E-03     100.892E-03     32.4444E+06     7.47482E+06    -13.3885E+06    -29.5372E+06    -8.42484E+06    -4.60488E+06    -22.4211E+06     1.80535E+06
            1358     69.9235E-03     13.6373E-03     68.5808E-03     54.1579E-03    -26.1531E-03    -28.0050E-03    -25.7373E-03     51.8902E-03    -26.1531E-03     26.8063E-03     117.079E-03     84.4847E+06     67.1147E+06    -8.37410E+06    -23.0268E+06    -8.33709E+06     67.0777E+06    -23.0268E+06    -638.595E+03
            1359     70.1504E-03     14.6134E-03     68.6114E-03     57.1274E-03    -26.1148E-03    -31.0126E-03    -25.8220E-03     51.9368E-03    -26.1148E-03     40.3678E-03     148.678E-03     149.079E+06     139.813E+06    -3.56402E+06    -14.2513E+06    -8.60205E+06     139.784E+06    -9.18409E+06    -531.830E+03
            1360     70.4128E-03     15.5870E-03     68.6660E-03     68.4527E-03    -26.2093E-03    -42.2447E-03    -26.2518E-03     52.4598E-03    -26.2093E-03     75.8304E-03     219.066E-03     176.299E+06     178.579E+06     19.1722E+06    -9.54997E+06    -9.53143E+06     178.561E+06     19.1722E+06     1.63737E+06
            1361     70.7397E-03     16.5616E-03     68.7737E-03     64.2422E-03    -25.6110E-03    -38.6329E-03    -25.4740E-03     51.9495E-03    -26.4771E-03     54.8141E-03     226.034E-03     184.222E+06     200.779E+06     81.7011E+06    -6.75090E+06    -6.73674E+06     200.764E+06     81.7011E+06     793.820E+03
            1362     69.5103E-03     975.474E-06     69.5035E-03     51.9662E-03    -25.8046E-03    -26.1614E-03    -25.8781E-03     51.9603E-03    -26.0820E-03     899.938E-06     53.1071E-03     169.383E+06    -14.6974E+06    -22.5485E+06    -187.828E+06    -20.9154E+06    -187.782E+06    -16.3761E+06     2.01757E+06
            1363     69.5318E-03     1.94876E-03     69.5045E-03     52.4878E-03    -26.1108E-03    -26.3773E-03    -26.3654E-03     52.4762E-03    -26.1111E-03     1.88656E-03     53.6948E-03     173.884E+06    -11.1523E+06    -17.7944E+06    -188.210E+06    -17.8073E+06    -188.198E+06    -11.1523E+06     1.24232E+06
            1364     69.5693E-03     2.92331E-03     69.5079E-03     52.8504E-03    -26.2487E-03    -26.6018E-03    -26.5759E-03     52.8244E-03    -26.2487E-03     2.77829E-03     54.7808E-03     175.196E+06    -11.2997E+06    -15.9280E+06    -188.747E+06    -15.6092E+06    -188.740E+06    -11.6265E+06     879.193E+03
            1365     69.6204E-03     3.89759E-03     69.5112E-03     53.0020E-03    -26.3477E-03    -26.6535E-03    -26.6050E-03     52.9535E-03    -26.3477E-03     3.87771E-03     56.0933E-03     175.875E+06    -10.6100E+06    -14.5076E+06    -188.393E+06    -14.1974E+06    -188.376E+06    -10.9367E+06     1.50747E+06
            1366     69.6863E-03     4.87070E-03     69.5159E-03     53.0960E-03    -26.4044E-03    -26.6897E-03    -26.6073E-03     53.0135E-03    -26.4044E-03     5.07842E-03     57.8078E-03     176.054E+06    -10.9239E+06    -14.3510E+06    -188.664E+06    -13.7935E+06    -188.648E+06    -11.4974E+06     1.44495E+06
            1367     69.7673E-03     5.84564E-03     69.5219E-03     53.2059E-03    -26.4365E-03    -26.7670E-03    -26.6346E-03     53.0735E-03    -26.4365E-03     6.46697E-03     59.9279E-03     165.535E+06    -9.33242E+06    -13.6976E+06    -176.983E+06    -13.1379E+06    -176.969E+06    -9.90588E+06     863.706E+03
            1368     69.8632E-03     6.81880E-03     69.5296E-03     53.3862E-03    -26.4865E-03    -26.8960E-03    -26.7115E-03     53.2017E-03    -26.4865E-03     7.67084E-03     62.6899E-03     155.288E+06    -3.42697E+06    -10.8484E+06    -162.268E+06    -10.8651E+06    -162.251E+06    -3.42697E+06     434.330E+03
            1369     69.9732E-03     7.79308E-03     69.5378E-03     53.4245E-03    -26.5011E-03    -26.9148E-03    -26.6600E-03     53.1697E-03    -26.5011E-03     8.99370E-03     65.9678E-03     142.216E+06    -1.46625E+06    -9.19922E+06    -147.383E+06    -8.07931E+06    -147.355E+06    -2.61477E+06    -850.979E+03
            1370     70.0987E-03     8.76697E-03     69.5483E-03     53.3781E-03    -26.4771E-03    -26.9021E-03    -26.5449E-03     53.0210E-03    -26.4771E-03     10.6487E-03     69.8529E-03     122.777E+06    -5.52882E+06    -10.4638E+06    -130.676E+06    -9.30308E+06    -130.597E+06    -6.76829E+06    -1.85867E+06
            1371     70.2389E-03     9.74111E-03     69.5602E-03     53.5387E-03    -26.4646E-03    -27.0962E-03    -26.5960E-03     53.0384E-03    -26.4646E-03     12.6152E-03     75.1419E-03     103.385E+06    -8.47216E+06    -12.9651E+06    -113.999E+06    -12.1042E+06    -113.907E+06    -9.42483E+06    -62.3410E+03
            1372     70.3948E-03     10.7147E-03     69.5746E-03     53.5623E-03    -26.4339E-03    -27.1723E-03    -26.5336E-03     52.9236E-03    -26.4339E-03     14.2918E-03     81.6569E-03     75.3695E+06    -8.46569E+06    -12.5426E+06    -85.7774E+06    -10.5415E+06    -85.6524E+06    -10.5919E+06     1.80154E+06
            1373     70.5647E-03     11.6891E-03     69.5899E-03     53.4851E-03    -26.3575E-03    -27.1919E-03    -26.3270E-03     52.6203E-03    -26.3575E-03     16.5304E-03     89.2102E-03     42.1310E+06    -7.45970E+06    -17.2222E+06    -51.9188E+06    -7.56607E+06    -51.8125E+06    -17.2222E+06     1.38073E+06
            1374     70.7519E-03     12.6633E-03     69.6094E-03     53.9610E-03    -26.2654E-03    -27.7279E-03    -26.2845E-03     52.5177E-03    -26.2654E-03     21.3151E-03     100.787E-03     34.5802E+06     10.5816E+06    -15.1451E+06    -28.5737E+06    -6.64423E+06    -3.47290E+06    -23.0201E+06     387.079E+03
            1375     70.9574E-03     13.6378E-03     69.6345E-03     54.5034E-03    -26.1827E-03    -28.3129E-03    -26.1413E-03     52.3317E-03    -26.1827E-03     26.3891E-03     117.713E-03     84.4961E+06     69.1895E+06    -8.08964E+06    -20.0686E+06    -8.04825E+06     69.1481E+06    -20.0686E+06    -428.675E+03
            1376     71.1809E-03     14.6116E-03     69.6651E-03     57.4401E-03    -26.1464E-03    -31.2891E-03    -26.0054E-03     52.1564E-03    -26.1464E-03     40.5590E-03     149.035E-03     148.461E+06     137.365E+06    -6.33092E+06    -15.2552E+06    -10.4872E+06     137.327E+06    -11.0610E+06     664.651E+03
            1377     71.4430E-03     15.5857E-03     69.7222E-03     67.7410E-03    -26.2193E-03    -41.5230E-03    -25.6620E-03     51.8801E-03    -26.2193E-03     75.1306E-03     219.096E-03     175.798E+06     176.479E+06     17.0301E+06    -10.8412E+06    -10.1916E+06     176.455E+06     16.4040E+06     1.81350E+06
            1378     71.7611E-03     16.5632E-03     69.8234E-03     63.6944E-03    -25.9042E-03    -37.7878E-03    -25.0970E-03     51.5669E-03    -26.4674E-03     55.5041E-03     226.437E-03     184.220E+06     201.993E+06     82.5351E+06    -5.44303E+06    -5.43129E+06     201.981E+06     82.5351E+06     585.712E+03
            1379     70.5617E-03     973.983E-06     70.5550E-03     52.4685E-03    -25.9090E-03    -26.5596E-03    -26.2716E-03     52.4637E-03    -26.1922E-03     638.670E-06     53.4885E-03     168.880E+06    -17.9100E+06    -21.3539E+06    -188.476E+06    -19.7124E+06    -188.439E+06    -19.5887E+06     1.76347E+06
            1380     70.5855E-03     1.94913E-03     70.5586E-03     52.6580E-03    -26.2040E-03    -26.4544E-03    -26.3539E-03     52.6452E-03    -26.2918E-03     1.97810E-03     53.9021E-03     172.714E+06    -15.0529E+06    -18.2150E+06    -189.307E+06    -18.1001E+06    -189.303E+06    -15.1716E+06     557.038E+03
            1381     70.6211E-03     2.92259E-03     70.5606E-03     52.8211E-03    -26.3324E-03    -26.4894E-03    -26.4523E-03     52.7972E-03    -26.3456E-03     2.71910E-03     54.7846E-03     174.170E+06    -13.1547E+06    -16.3395E+06    -188.875E+06    -15.8957E+06    -188.874E+06    -13.6003E+06     430.176E+03
            1382     70.6724E-03     3.89677E-03     70.5648E-03     52.9442E-03    -26.3852E-03    -26.5594E-03    -26.5154E-03     52.9002E-03    -26.3852E-03     3.69053E-03     56.0627E-03     175.477E+06    -13.1787E+06    -15.1482E+06    -189.631E+06    -14.5601E+06    -189.621E+06    -13.7765E+06     1.09569E+06
            1383     70.7372E-03     4.87154E-03     70.5693E-03     53.1382E-03    -26.4401E-03    -26.6979E-03    -26.6213E-03     53.0616E-03    -26.4401E-03     4.90193E-03     57.8264E-03     175.942E+06    -10.2872E+06    -14.1726E+06    -188.124E+06    -13.9167E+06    -188.109E+06    -10.5581E+06     1.29469E+06
            1384     70.8172E-03     5.84457E-03     70.5756E-03     53.2171E-03    -26.4701E-03    -26.7448E-03    -26.6177E-03     53.0900E-03    -26.4701E-03     6.31965E-03     59.8995E-03     166.182E+06    -8.47676E+06    -12.8595E+06    -176.796E+06    -12.8706E+06    -176.784E+06    -8.47676E+06     662.672E+03
            1385     70.9119E-03     6.81946E-03     70.5832E-03     53.2615E-03    -26.4914E-03    -26.7677E-03    -26.5865E-03     53.0803E-03    -26.4914E-03     7.58970E-03     62.4835E-03     152.561E+06    -5.55645E+06    -13.0696E+06    -161.669E+06    -13.0786E+06    -161.660E+06    -5.55645E+06     19.6402E+03
            1386     71.0209E-03     7.79285E-03     70.5920E-03     53.3811E-03    -26.5090E-03    -26.8627E-03    -26.6150E-03     53.1334E-03    -26.5090E-03     8.86629E-03     65.8745E-03     138.260E+06    -2.90792E+06    -13.3579E+06    -146.086E+06    -13.3658E+06    -146.078E+06    -2.90792E+06    -641.015E+03
            1387     71.1441E-03     8.76687E-03     70.6019E-03     53.4832E-03    -26.4989E-03    -26.9796E-03    -26.6326E-03     53.1362E-03    -26.4989E-03     10.5100E-03     69.9386E-03     123.048E+06    -4.83944E+06    -11.9782E+06    -131.295E+06    -11.9865E+06    -131.287E+06    -4.83944E+06    -287.322E+03
            1388     71.2828E-03     9.74087E-03     70.6142E-03     53.5182E-03    -26.4687E-03    -27.0686E-03    -26.5828E-03     53.0324E-03    -26.4687E-03     12.4264E-03     75.0905E-03     105.244E+06    -7.64332E+06    -12.2128E+06    -115.096E+06    -10.3986E+06    -115.080E+06    -9.47418E+06    -385.895E+03
            1389     71.4369E-03     10.7152E-03     70.6287E-03     53.5134E-03    -26.4251E-03    -27.1278E-03    -26.5034E-03     52.8890E-03    -26.4251E-03     14.1201E-03     81.4532E-03     75.2473E+06    -9.15504E+06    -12.9937E+06    -86.2406E+06    -9.17422E+06    -86.2214E+06    -12.9937E+06    -1.02298E+06
            1390     71.6045E-03     11.6888E-03     70.6440E-03     53.5356E-03    -26.3649E-03    -27.2315E-03    -26.3858E-03     52.6900E-03    -26.3649E-03     16.3591E-03     89.1822E-03     40.0405E+06    -8.37726E+06    -17.9355E+06    -50.9031E+06    -8.49613E+06    -50.7842E+06    -17.9355E+06    -1.15656E+06
            1391     71.7887E-03     12.6633E-03     70.6630E-03     54.0104E-03    -26.2681E-03    -27.7730E-03    -26.3006E-03     52.5381E-03    -26.2681E-03     21.4756E-03     100.421E-03     34.6708E+06     8.75092E+06    -15.8695E+06    -30.6630E+06    -8.41833E+06    -3.85576E+06    -25.5075E+06    -793.088E+03
            1392     71.9929E-03     13.6369E-03     70.6895E-03     54.7419E-03    -26.1958E-03    -28.5359E-03    -26.2710E-03     52.4770E-03    -26.1958E-03     27.0058E-03     117.601E-03     84.8269E+06     68.0146E+06    -9.25632E+06    -21.0782E+06    -9.23672E+06     67.9950E+06    -21.0782E+06     555.152E+03
            1393     72.2132E-03     14.6110E-03     70.7196E-03     57.3011E-03    -26.1418E-03    -31.1533E-03    -25.6425E-03     51.7903E-03    -26.1418E-03     41.2198E-03     148.927E-03     147.396E+06     135.788E+06    -10.1427E+06    -12.9989E+06    -10.1206E+06     135.766E+06    -12.9989E+06     1.78375E+06
            1394     72.4712E-03     15.5872E-03     70.7751E-03     67.7649E-03    -26.2050E-03    -41.5622E-03    -25.7478E-03     51.9504E-03    -26.2050E-03     75.4420E-03     218.456E-03     175.975E+06     176.939E+06     16.4399E+06    -9.21399E+06    -8.52685E+06     176.924E+06     15.7676E+06     1.23400E+06
            1395     72.7854E-03     16.5621E-03     70.8760E-03     64.0978E-03    -25.9330E-03    -38.1654E-03    -25.6807E-03     52.1734E-03    -26.4933E-03     55.7523E-03     226.228E-03     184.968E+06     203.659E+06     85.8037E+06    -5.06806E+06    -5.06683E+06     203.658E+06     85.8037E+06     429.604E+03
            1396     71.6161E-03     974.035E-06     71.6095E-03     52.9650E-03    -26.2048E-03    -26.7605E-03    -26.5731E-03     52.9600E-03    -26.3871E-03     979.450E-06     53.9769E-03     168.324E+06    -18.6303E+06    -21.8972E+06    -188.562E+06    -20.8896E+06    -188.522E+06    -19.6784E+06    -1.00208E+06
            1397     71.6372E-03     1.94767E-03     71.6107E-03     52.9231E-03    -26.3438E-03    -26.5794E-03    -26.4137E-03     52.9077E-03    -26.4941E-03     2.16181E-03     54.1812E-03     171.455E+06    -17.2588E+06    -19.0915E+06    -189.620E+06    -18.9752E+06    -189.618E+06    -17.3776E+06     393.083E+03
            1398     71.6744E-03     2.92276E-03     71.6148E-03     52.9334E-03    -26.4029E-03    -26.5304E-03    -26.4299E-03     52.9086E-03    -26.4786E-03     2.77771E-03     54.9137E-03     172.036E+06    -16.8241E+06    -18.0644E+06    -189.475E+06    -17.9496E+06    -189.471E+06    -16.9429E+06     307.103E+03
            1399     71.7235E-03     3.89676E-03     71.6175E-03     53.0845E-03    -26.5003E-03    -26.5835E-03    -26.5420E-03     53.0429E-03    -26.5003E-03     3.57886E-03     56.1902E-03     174.823E+06    -13.5437E+06    -17.2954E+06    -190.179E+06    -17.0282E+06    -190.175E+06    -13.8147E+06     321.271E+03
            1400     71.7887E-03     4.87026E-03     71.6233E-03     53.1964E-03    -26.5446E-03    -26.6513E-03    -26.5785E-03     53.1236E-03    -26.5446E-03     4.78222E-03     57.8549E-03     175.908E+06    -7.67978E+06    -15.5071E+06    -187.335E+06    -15.2391E+06    -187.333E+06    -7.95074E+06     60.6148E+03
            1401     71.8671E-03     5.84506E-03     71.6290E-03     53.3144E-03    -26.5734E-03    -26.7413E-03    -26.6257E-03     53.1989E-03    -26.5734E-03     6.03849E-03     60.0181E-03     170.101E+06    -3.16433E+06    -12.7981E+06    -177.842E+06    -12.8032E+06    -177.837E+06    -3.16433E+06    -2.21167E+03
            1402     71.9608E-03     6.81828E-03     71.6371E-03     53.2569E-03    -26.5567E-03    -26.7006E-03    -26.5174E-03     53.0936E-03    -26.5766E-03     7.19419E-03     62.4778E-03     157.000E+06     438.965E+03    -9.68460E+06    -161.323E+06    -9.68969E+06    -161.318E+06     438.965E+03     445.397E+03
            1403     72.0681E-03     7.79306E-03     71.6455E-03     53.3783E-03    -26.5462E-03    -26.8285E-03    -26.5754E-03     53.1451E-03    -26.5660E-03     8.59152E-03     65.8653E-03     142.395E+06     1.52342E+06     -8.5067E+06    -145.603E+06    -8.51894E+06    -145.590E+06     1.52342E+06     490.220E+03
            1404     72.1904E-03     8.76683E-03     71.6561E-03     53.5821E-03    -26.5454E-03    -27.0374E-03    -26.7160E-03     53.2608E-03    -26.5454E-03     10.1282E-03     70.0372E-03     125.762E+06    -2.45086E+06    -8.84834E+06    -131.271E+06    -8.87748E+06    -131.242E+06    -2.45086E+06    -570.461E+03
            1405     72.3270E-03     9.74038E-03     71.6681E-03     53.4916E-03    -26.5048E-03    -27.0040E-03    -26.5446E-03     53.0322E-03    -26.5048E-03     12.0504E-03     74.9754E-03     105.709E+06    -5.89257E+06    -9.16018E+06    -113.194E+06    -7.73279E+06    -113.128E+06    -7.38536E+06    -2.33255E+06
            1406     72.4786E-03     10.7145E-03     71.6823E-03     53.4692E-03    -26.4518E-03    -27.0565E-03    -26.4386E-03     52.8514E-03    -26.4518E-03     14.0344E-03     81.2216E-03     77.9663E+06    -6.55612E+06    -12.3657E+06    -87.1322E+06    -6.61407E+06    -87.0742E+06    -12.3657E+06    -2.03747E+06
            1407     72.6449E-03     11.6890E-03     71.6983E-03     53.5793E-03    -26.3951E-03    -27.2428E-03    -26.4292E-03     52.7657E-03    -26.3951E-03     16.0807E-03     89.0516E-03     39.6938E+06    -7.60275E+06    -16.6332E+06    -50.6084E+06    -7.74204E+06    -50.4691E+06    -16.6332E+06    -1.06788E+06
            1408     72.8261E-03     12.6627E-03     71.7168E-03     53.9446E-03    -26.2999E-03    -27.6739E-03    -26.2152E-03     52.4859E-03    -26.2999E-03     21.2811E-03     100.346E-03     32.0635E+06     6.24221E+06    -14.9198E+06    -30.2672E+06    -10.3132E+06    -4.66556E+06    -23.9660E+06    -716.910E+03
            1409     73.0286E-03     13.6378E-03     71.7439E-03     54.3537E-03    -26.2000E-03    -28.1493E-03    -25.8545E-03     52.0589E-03    -26.2000E-03     27.0582E-03     116.766E-03     84.1800E+06     65.3420E+06    -11.8029E+06    -22.7982E+06    -11.7695E+06     65.3085E+06    -22.7982E+06     588.283E+03
            1410     73.2465E-03     14.6125E-03     71.7741E-03     56.8064E-03    -26.1334E-03    -30.6712E-03    -25.5679E-03     51.7032E-03    -26.1334E-03     39.7866E-03     148.447E-03     148.102E+06     135.796E+06    -11.0452E+06    -13.5010E+06    -11.4738E+06     135.764E+06    -13.0404E+06     601.395E+03
            1411     73.4987E-03     15.5882E-03     71.8266E-03     68.1468E-03    -26.2133E-03    -41.9372E-03    -26.1463E-03     52.3559E-03    -26.2133E-03     75.2346E-03     218.212E-03     177.076E+06     178.168E+06     17.4038E+06    -9.40114E+06    -9.33302E+06     178.146E+06     17.3576E+06     146.881E+03
            1412     73.8172E-03     16.5608E-03     71.9355E-03     64.5877E-03    -25.8423E-03    -38.7541E-03    -25.8254E-03     52.3283E-03    -26.5116E-03     56.2773E-03     226.011E-03     185.981E+06     204.080E+06     85.7075E+06    -6.15922E+06    -6.15087E+06     204.071E+06     85.7075E+06     1.14248E+06
            1413     72.6696E-03     974.477E-06     72.6630E-03     53.1326E-03    -26.4255E-03    -26.7065E-03    -26.5328E-03     53.1256E-03    -26.5923E-03     1.32160E-03     54.1957E-03     167.051E+06    -19.1710E+06    -24.1615E+06    -188.644E+06    -23.1758E+06    -188.581E+06    -20.2192E+06    -165.111E+03
            1414     72.6910E-03     1.94824E-03     72.6649E-03     53.3772E-03    -26.5793E-03    -26.7984E-03    -26.7231E-03     53.3643E-03    -26.6418E-03     1.92917E-03     54.5769E-03     171.551E+06    -15.8308E+06    -21.4814E+06    -190.111E+06    -21.4848E+06    -190.108E+06    -15.8308E+06     307.902E+03
            1415     72.7261E-03     2.92173E-03     72.6674E-03     53.2366E-03    -26.5140E-03    -26.7233E-03    -26.5498E-03     53.2128E-03    -26.6637E-03     2.68286E-03     55.1964E-03     171.805E+06    -15.6068E+06    -19.8559E+06    -189.473E+06    -19.8605E+06    -189.468E+06    -15.6068E+06     135.956E+03
            1416     72.7764E-03     3.89575E-03     72.6721E-03     53.2510E-03    -26.5661E-03    -26.6851E-03    -26.5574E-03     53.2104E-03    -26.6533E-03     3.54816E-03     56.3857E-03     173.647E+06    -14.2471E+06    -19.0512E+06    -190.208E+06    -19.0560E+06    -190.204E+06    -14.2471E+06    -350.205E+03
            1417     72.8392E-03     4.87025E-03     72.6762E-03     53.3461E-03    -26.6590E-03    -26.6873E-03    -26.6059E-03     53.2726E-03    -26.6669E-03     4.78779E-03     58.0500E-03     174.481E+06    -8.81752E+06    -16.3040E+06    -186.885E+06    -16.3106E+06    -186.878E+06    -8.81752E+06    -874.551E+03
            1418     72.9179E-03     5.84354E-03     72.6834E-03     53.3411E-03    -26.6253E-03    -26.7141E-03    -26.5543E-03     53.2247E-03    -26.6687E-03     6.06984E-03     60.0357E-03     168.752E+06    -4.35102E+06    -13.5866E+06    -177.492E+06    -13.6029E+06    -177.475E+06    -4.35102E+06    -1.35189E+06
            1419     73.0094E-03     6.81813E-03     72.6904E-03     53.3628E-03    -26.5821E-03    -26.7780E-03    -26.5585E-03     53.1987E-03    -26.6375E-03     7.21322E-03     62.5236E-03     154.228E+06    -4.64521E+06    -11.1755E+06    -161.974E+06    -11.0651E+06    -161.955E+06    -4.77475E+06    -1.27782E+06
            1420     73.1158E-03     7.79184E-03     72.6994E-03     53.4589E-03    -26.6033E-03    -26.8573E-03    -26.5952E-03     53.2166E-03    -26.6232E-03     8.74892E-03     65.9615E-03     141.376E+06    -2.53677E+06    -8.20236E+06    -146.634E+06    -8.08831E+06    -146.618E+06    -2.66631E+06     151.210E+03
            1421     73.2371E-03     8.76561E-03     72.7106E-03     53.4847E-03    -26.6089E-03    -26.8815E-03    -26.5568E-03     53.1600E-03    -26.6089E-03     10.1696E-03     69.9627E-03     125.238E+06    -1.08017E+06    -6.52808E+06    -128.941E+06    -6.55797E+06    -128.912E+06    -1.08017E+06    -425.740E+03
            1422     73.3710E-03     9.74002E-03     72.7217E-03     53.5297E-03    -26.5598E-03    -26.9865E-03    -26.5302E-03     53.0734E-03    -26.5598E-03     12.0094E-03     74.9047E-03     104.683E+06    -4.73188E+06    -7.75749E+06    -110.893E+06    -6.53284E+06    -110.818E+06    -6.03103E+06    -2.61932E+06
            1423     73.5212E-03     10.7143E-03     72.7364E-03     53.5653E-03    -26.4948E-03    -27.1207E-03    -26.5044E-03     52.9490E-03    -26.4948E-03     14.0313E-03     81.2150E-03     78.2974E+06    -7.66911E+06    -14.4849E+06    -88.9736E+06    -7.73800E+06    -88.9047E+06    -14.4849E+06    -2.29142E+06
            1424     73.6852E-03     11.6880E-03     72.7523E-03     53.5613E-03    -26.4255E-03    -27.2106E-03    -26.4041E-03     52.7548E-03    -26.4255E-03     16.0077E-03     88.8564E-03     39.6485E+06    -8.52516E+06    -19.6331E+06    -51.9312E+06    -8.55998E+06    -51.8964E+06    -19.6331E+06    -397.464E+03
            1425     73.8646E-03     12.6625E-03     72.7711E-03     53.8485E-03    -26.3370E-03    -27.5511E-03    -26.1456E-03     52.4430E-03    -26.3370E-03     20.9014E-03     100.258E-03     30.8767E+06     6.66562E+06    -14.9928E+06    -28.3758E+06    -9.39988E+06    -4.34698E+06    -22.9561E+06     60.3329E+03
            1426     74.0634E-03     13.6365E-03     72.7972E-03     54.1597E-03    -26.2199E-03    -27.9396E-03    -25.7175E-03     51.9376E-03    -26.2199E-03     26.5589E-03     116.332E-03     82.8788E+06     64.7265E+06    -10.1733E+06    -23.1914E+06    -10.1256E+06     64.6788E+06    -23.1914E+06    -425.003E+03
            1427     74.2792E-03     14.6118E-03     72.8278E-03     57.1016E-03    -26.1501E-03    -30.9515E-03    -25.9534E-03     52.1034E-03    -26.1501E-03     39.6265E-03     148.439E-03     148.563E+06     135.785E+06    -9.51629E+06    -15.5003E+06    -9.93238E+06     135.740E+06    -15.0397E+06    -493.273E+03
            1428     74.5295E-03     15.5845E-03     72.8819E-03     67.8192E-03    -26.2301E-03    -41.5917E-03    -25.9445E-03     52.1720E-03    -26.2301E-03     74.4440E-03     218.573E-03     177.984E+06     177.277E+06     14.3281E+06    -10.7946E+06    -10.3035E+06     177.255E+06     13.8594E+06     348.416E+03
            1429     74.8425E-03     16.5633E-03     72.9867E-03     64.0553E-03    -26.0384E-03    -38.0183E-03    -25.2570E-03     51.7616E-03    -26.5059E-03     56.5406E-03     226.339E-03     186.632E+06     203.312E+06     82.3350E+06    -7.08220E+06    -7.07177E+06     203.302E+06     82.3350E+06     1.11803E+06
            1430     73.7233E-03     973.658E-06     73.7169E-03     53.5629E-03    -26.6155E-03    -26.9469E-03    -26.8318E-03     53.5563E-03    -26.7240E-03     1.27335E-03     54.6645E-03     166.067E+06    -21.1663E+06    -27.7141E+06    -190.383E+06    -27.7630E+06    -190.334E+06    -21.1663E+06     2.24306E+06
            1431     73.7447E-03     1.94743E-03     73.7190E-03     53.6376E-03    -26.7159E-03    -26.9220E-03    -26.7770E-03     53.6274E-03    -26.8507E-03     1.75847E-03     54.7954E-03     171.961E+06    -12.8996E+06    -22.7211E+06    -189.559E+06    -22.7229E+06    -189.557E+06    -12.8996E+06     84.4269E+03
            1432     73.7796E-03     2.92122E-03     73.7217E-03     53.5535E-03    -26.6652E-03    -26.8880E-03    -26.6914E-03     53.5293E-03    -26.8377E-03     2.69310E-03     55.4313E-03     173.973E+06    -12.7471E+06    -19.4789E+06    -189.958E+06    -19.4825E+06    -189.955E+06    -12.7471E+06     282.026E+03
            1433     73.8279E-03     3.89560E-03     73.7251E-03     53.4658E-03    -26.6573E-03    -26.8093E-03    -26.6277E-03     53.4206E-03    -26.7937E-03     3.77785E-03     56.5893E-03     173.467E+06    -14.3304E+06    -17.1332E+06    -189.167E+06    -17.1412E+06    -189.159E+06    -14.3304E+06    -174.064E+03
            1434     73.8915E-03     4.86894E-03     73.7309E-03     53.4140E-03    -26.6513E-03    -26.7648E-03    -26.5825E-03     53.3376E-03    -26.7571E-03     4.89095E-03     58.0995E-03     170.555E+06    -13.8967E+06    -16.8069E+06    -185.874E+06    -16.5400E+06    -185.857E+06    -14.1804E+06    -1.60462E+06
            1435     73.9677E-03     5.84366E-03     73.7365E-03     53.3717E-03    -26.6346E-03    -26.7376E-03    -26.5237E-03     53.2500E-03    -26.7267E-03     6.20545E-03     59.9376E-03     162.180E+06    -11.3571E+06    -16.6638E+06    -176.099E+06    -16.4196E+06    -176.060E+06    -11.6408E+06    -2.39797E+06
            1436     74.0590E-03     6.81752E-03     73.7446E-03     53.4177E-03    -26.6127E-03    -26.8029E-03    -26.5503E-03     53.2435E-03    -26.6911E-03     7.43634E-03     62.5099E-03     149.532E+06    -10.8140E+06    -15.7890E+06    -162.745E+06    -15.6989E+06    -162.705E+06    -10.9436E+06    -2.35947E+06
            1437     74.1639E-03     7.79130E-03     73.7535E-03     53.4177E-03    -26.6111E-03    -26.8113E-03    -26.5079E-03     53.1571E-03    -26.6540E-03     9.06866E-03     65.8970E-03     135.457E+06    -10.7017E+06    -14.0730E+06    -147.795E+06    -13.7737E+06    -147.741E+06    -11.0550E+06    -2.02103E+06
            1438     74.2830E-03     8.76593E-03     73.7640E-03     53.4258E-03    -26.6272E-03    -26.8111E-03    -26.4670E-03     53.0817E-03    -26.6272E-03     10.4770E-03     69.8091E-03     117.683E+06    -7.81952E+06    -11.1106E+06    -127.103E+06    -10.9494E+06    -127.041E+06    -8.04329E+06    -2.09678E+06
            1439     74.4162E-03     9.73978E-03     73.7761E-03     53.6213E-03    -26.6002E-03    -27.0379E-03    -26.5749E-03     53.1583E-03    -26.6002E-03     12.1240E-03     74.9182E-03     101.096E+06    -7.40013E+06    -10.4312E+06    -109.976E+06     -9.6953E+06    -109.936E+06    -8.17564E+06    -1.83181E+06
            1440     74.5640E-03     10.7132E-03     73.7904E-03     53.6369E-03    -26.5338E-03    -27.1457E-03    -26.5212E-03     53.0124E-03    -26.5338E-03     14.1251E-03     81.2526E-03     76.5019E+06    -9.02983E+06    -16.7209E+06    -88.8096E+06    -9.72574E+06    -88.6948E+06    -16.1398E+06    -2.40029E+06
            1441     74.7260E-03     11.6878E-03     73.8063E-03     53.5067E-03    -26.4380E-03    -27.1356E-03    -26.2886E-03     52.6598E-03    -26.4380E-03     16.3682E-03     88.6815E-03     41.0611E+06    -9.17159E+06    -24.4026E+06    -54.4263E+06    -9.36293E+06    -54.2349E+06    -24.4026E+06    -2.39693E+06
            1442     74.9032E-03     12.6618E-03     73.8252E-03     53.7785E-03    -26.3354E-03    -27.4859E-03    -26.0424E-03     52.3350E-03    -26.3354E-03     21.2082E-03     100.088E-03     34.8992E+06     8.47119E+06    -16.8444E+06    -31.3074E+06    -8.01096E+06    -4.88321E+06    -26.7865E+06    -1.20639E+06
            1443     75.0993E-03     13.6368E-03     73.8508E-03     54.3391E-03    -26.2383E-03    -28.1062E-03    -25.7805E-03     52.0133E-03    -26.2383E-03     27.1780E-03     116.614E-03     82.5591E+06     66.0382E+06    -6.89092E+06    -22.2637E+06    -7.63447E+06     65.9875E+06    -21.4696E+06    -1.01028E+06
            1444     75.3129E-03     14.6110E-03     73.8820E-03     57.4292E-03    -26.1595E-03    -31.2678E-03    -25.8262E-03     51.9876E-03    -26.1595E-03     41.3532E-03     148.492E-03     146.713E+06     134.102E+06    -8.08542E+06    -16.4807E+06    -8.85510E+06     134.077E+06    -15.6866E+06     88.2858E+03
            1445     75.5626E-03     15.5865E-03     73.9376E-03     67.8272E-03    -26.2252E-03    -41.6004E-03    -26.2567E-03     52.4836E-03    -26.2252E-03     74.4090E-03     218.104E-03     178.354E+06     177.018E+06     13.5356E+06    -11.8924E+06    -8.91592E+06     177.006E+06     10.5711E+06     1.46846E+06
            1446     75.8660E-03     16.5601E-03     74.0365E-03     63.6305E-03    -25.7239E-03    -37.9046E-03    -25.3153E-03     51.8415E-03    -26.5242E-03     56.6852E-03     226.662E-03     186.592E+06     203.931E+06     81.6219E+06    -5.91419E+06    -5.90854E+06     203.925E+06     81.6219E+06     707.389E+03
            1447     74.7776E-03     973.505E-06     74.7713E-03     53.9541E-03    -26.8078E-03    -27.1462E-03    -26.9965E-03     53.9488E-03    -26.9521E-03     1.14767E-03     54.9832E-03     166.545E+06    -22.2869E+06    -27.3837E+06    -191.293E+06    -25.9164E+06    -191.266E+06    -23.7807E+06     1.30472E+06
            1448     74.7988E-03     1.94722E-03     74.7735E-03     53.7284E-03    -26.7430E-03    -26.9859E-03    -26.7306E-03     53.7160E-03    -26.9859E-03     1.96474E-03     54.8623E-03     171.183E+06    -14.7978E+06    -21.9921E+06    -189.426E+06    -21.9930E+06    -189.426E+06    -14.7978E+06     150.719E+03
            1449     74.8325E-03     2.92140E-03     74.7754E-03     53.7250E-03    -26.7819E-03    -26.9442E-03    -26.7644E-03     53.6995E-03    -26.9362E-03     2.81030E-03     55.5030E-03     174.099E+06    -11.5276E+06    -18.9198E+06    -189.168E+06    -18.9241E+06    -189.163E+06    -11.5276E+06    -16.4375E+03
            1450     74.8812E-03     3.89454E-03     74.7799E-03     53.6345E-03    -26.7379E-03    -26.8983E-03    -26.6978E-03     53.5864E-03    -26.8903E-03     3.88815E-03     56.6696E-03     174.314E+06    -12.9123E+06    -17.0763E+06    -189.237E+06    -17.0887E+06    -189.225E+06    -12.9123E+06     209.686E+03
            1451     74.9425E-03     4.86923E-03     74.7841E-03     53.5479E-03    -26.6777E-03    -26.8718E-03    -26.6310E-03     53.4666E-03    -26.8372E-03     5.06892E-03     58.1772E-03     168.504E+06    -14.2231E+06    -17.3049E+06    -184.239E+06    -17.0457E+06    -184.214E+06    -14.5068E+06    -928.852E+03
            1452     75.0186E-03     5.84279E-03     74.7907E-03     53.5489E-03    -26.6988E-03    -26.8509E-03    -26.6236E-03     53.4281E-03    -26.8054E-03     6.20208E-03     60.0974E-03     160.083E+06    -11.6011E+06    -16.6602E+06    -174.129E+06    -16.4377E+06    -174.067E+06    -11.8848E+06    -2.98614E+06
            1453     75.1084E-03     6.81677E-03     74.7984E-03     53.4003E-03    -26.6144E-03    -26.7824E-03    -26.4517E-03     53.2268E-03    -26.7715E-03     7.41039E-03     62.5411E-03     151.649E+06    -8.62737E+06    -14.2781E+06    -163.006E+06    -14.3742E+06    -162.910E+06    -8.62737E+06    -3.55514E+06
            1454     75.2118E-03     7.79145E-03     74.8071E-03     53.4281E-03    -26.6077E-03    -26.8171E-03    -26.4579E-03     53.1681E-03    -26.7069E-03     9.06789E-03     65.8914E-03     135.560E+06    -9.70262E+06    -12.7907E+06    -146.770E+06    -12.7131E+06    -146.624E+06    -9.92640E+06    -4.14385E+06
            1455     75.3298E-03     8.76501E-03     74.8181E-03     53.5966E-03    -26.6694E-03    -26.9356E-03    -26.5974E-03     53.2584E-03    -26.6694E-03     10.4085E-03     69.9847E-03     117.101E+06    -8.63975E+06    -10.9041E+06    -126.851E+06    -10.8564E+06    -126.675E+06    -8.86352E+06    -4.41191E+06
            1456     75.4612E-03     9.73908E-03     74.8301E-03     53.5908E-03    -26.6477E-03    -26.9657E-03    -26.5120E-03     53.1370E-03    -26.6477E-03     11.9934E-03     74.9964E-03     103.159E+06    -5.37588E+06    -9.35521E+06    -110.453E+06    -7.71218E+06    -110.278E+06    -7.19310E+06    -3.72329E+06
            1457     75.6075E-03     10.7136E-03     74.8446E-03     53.4567E-03    -26.5581E-03    -26.9384E-03    -26.3095E-03     52.8278E-03    -26.5581E-03     14.1290E-03     81.0634E-03     78.3537E+06    -5.03521E+06    -16.0055E+06    -87.8880E+06    -5.82154E+06    -87.6828E+06    -15.4244E+06    -3.57614E+06
            1458     75.7670E-03     11.6874E-03     74.8601E-03     53.2876E-03    -26.4352E-03    -26.9026E-03    -26.0263E-03     52.4113E-03    -26.4352E-03     16.5982E-03     88.4920E-03     44.6718E+06    -5.19375E+06    -24.9295E+06    -55.1238E+06    -5.64078E+06    -54.6768E+06    -24.9295E+06    -4.13356E+06
            1459     75.9422E-03     12.6624E-03     74.8791E-03     53.7454E-03    -26.3094E-03    -27.4660E-03    -25.9429E-03     52.2222E-03    -26.3094E-03     21.7581E-03     99.8603E-03     39.4641E+06     9.33025E+06    -17.5095E+06    -35.7010E+06    -6.64761E+06    -6.83590E+06    -30.3967E+06    -2.95739E+06
            1460     76.1358E-03     13.6367E-03     74.9046E-03     54.3933E-03    -26.2242E-03    -28.1689E-03    -25.8114E-03     52.0359E-03    -26.2242E-03     27.4152E-03     116.741E-03     83.2825E+06     64.8376E+06    -7.53885E+06    -23.6264E+06    -8.29967E+06     64.8042E+06    -22.8322E+06    -519.268E+03
            1461     76.3475E-03     14.6119E-03     74.9362E-03     57.1526E-03    -26.1388E-03    -31.0101E-03    -25.4932E-03     51.6357E-03    -26.1388E-03     41.3555E-03     148.311E-03     145.985E+06     132.863E+06    -8.54511E+06    -17.2720E+06    -9.33573E+06     132.859E+06    -16.4778E+06     661.538E+03
            1462     76.5935E-03     15.5866E-03     74.9908E-03     68.3770E-03    -26.2034E-03    -42.1734E-03    -26.5000E-03     52.7036E-03    -26.2034E-03     75.6841E-03     217.768E-03     179.283E+06     177.253E+06     16.2561E+06    -14.6607E+06    -9.12781E+06     177.247E+06     10.7295E+06     1.05298E+06
            1463     76.8991E-03     16.5600E-03     75.0948E-03     64.0542E-03    -25.3939E-03    -38.6604E-03    -25.6210E-03     52.1454E-03    -26.5246E-03     56.5920E-03     226.333E-03     187.003E+06     204.918E+06     83.1411E+06    -6.30549E+06    -6.30194E+06     204.915E+06     83.1411E+06     749.716E+03
            1464     75.8326E-03     973.374E-06     75.8264E-03     53.8993E-03    -26.8218E-03    -27.0776E-03    -26.9780E-03     53.8945E-03    -26.9166E-03     1.23859E-03     54.9259E-03     165.968E+06    -21.8204E+06    -27.6940E+06    -190.616E+06    -26.2149E+06    -190.602E+06    -23.3143E+06    -791.562E+03
            1465     75.8520E-03     1.94741E-03     75.8270E-03     53.8553E-03    -26.8248E-03    -27.0315E-03    -26.8601E-03     53.8419E-03    -26.9827E-03     1.96616E-03     54.8939E-03     170.846E+06    -15.8843E+06    -21.3442E+06    -189.376E+06    -21.3612E+06    -189.359E+06    -15.8843E+06    -375.455E+03
            1466     75.8868E-03     2.92070E-03     75.8305E-03     53.7837E-03    -26.8150E-03    -26.9711E-03    -26.7866E-03     53.7554E-03    -26.9711E-03     2.98983E-03     55.5188E-03     173.800E+06    -10.8642E+06    -18.8447E+06    -188.510E+06    -18.8508E+06    -188.504E+06    -10.8642E+06     233.093E+03
            1467     75.9334E-03     3.89521E-03     75.8334E-03     53.7848E-03    -26.7931E-03    -26.9939E-03    -26.8063E-03     53.7376E-03    -26.9335E-03     3.86593E-03     56.8097E-03     173.946E+06    -12.3408E+06    -17.7253E+06    -188.890E+06    -17.7514E+06    -188.863E+06    -12.3408E+06    -516.947E+03
            1468     75.9946E-03     4.86856E-03     75.8384E-03     53.7771E-03    -26.7872E-03    -26.9904E-03    -26.7994E-03     53.6943E-03    -26.8954E-03     5.10995E-03     58.4462E-03     167.468E+06    -12.6613E+06    -16.1362E+06    -181.833E+06    -15.3568E+06    -181.789E+06    -13.4852E+06    -1.63071E+06
            1469     76.0698E-03     5.84240E-03     75.8451E-03     53.5897E-03    -26.6847E-03    -26.9043E-03    -26.5972E-03     53.4676E-03    -26.8697E-03     6.24522E-03     60.2364E-03     161.526E+06    -8.85363E+06    -13.0471E+06    -172.433E+06    -12.3003E+06    -172.356E+06     -9.6775E+06    -3.40161E+06
            1470     76.1576E-03     6.81670E-03     75.8519E-03     53.4879E-03    -26.6228E-03    -26.8617E-03    -26.4844E-03     53.3052E-03    -26.8174E-03     7.58232E-03     62.7111E-03     152.264E+06    -8.95584E+06    -11.6346E+06    -162.538E+06    -11.7576E+06    -162.415E+06    -8.95584E+06    -4.25531E+06
            1471     76.2601E-03     7.79051E-03     75.8612E-03     53.6049E-03    -26.6940E-03    -26.9094E-03    -26.5756E-03     53.3275E-03    -26.7503E-03     9.39033E-03     66.1048E-03     132.892E+06    -10.2496E+06    -12.6193E+06    -144.303E+06    -11.8206E+06    -144.031E+06    -11.3211E+06    -5.58862E+06
            1472     76.3770E-03     8.76472E-03     75.8725E-03     53.5901E-03    -26.6997E-03    -26.9022E-03    -26.5431E-03     53.2310E-03    -26.6997E-03     10.7151E-03     69.9654E-03     116.322E+06    -7.18355E+06    -12.9448E+06    -126.211E+06    -9.16718E+06    -125.694E+06    -11.4780E+06    -7.40889E+06
            1473     76.5066E-03     9.73847E-03     75.8843E-03     53.4420E-03    -26.6588E-03    -26.8135E-03    -26.3361E-03     52.9646E-03    -26.6588E-03     12.2817E-03     74.9278E-03     103.460E+06    -5.24933E+06    -11.3628E+06    -111.558E+06    -6.74200E+06    -111.073E+06    -10.3555E+06    -6.89529E+06
            1474     76.6502E-03     10.7127E-03     75.8979E-03     53.2359E-03    -26.5688E-03    -26.7146E-03    -26.0662E-03     52.5875E-03    -26.5688E-03     14.3010E-03     80.9814E-03     79.2960E+06    -5.50143E+06    -15.8074E+06    -89.0144E+06    -5.77447E+06    -88.7413E+06    -15.8074E+06    -4.69926E+06
            1475     76.8086E-03     11.6879E-03     75.9141E-03     53.1803E-03    -26.4438E-03    -26.7974E-03    -25.9351E-03     52.3180E-03    -26.4438E-03     16.4694E-03     88.4852E-03     42.4400E+06    -6.38605E+06    -22.8565E+06    -53.8214E+06    -6.82978E+06    -53.3777E+06    -22.8565E+06    -3.89123E+06
            1476     76.9804E-03     12.6628E-03     75.9318E-03     53.7668E-03    -26.3200E-03    -27.4791E-03    -25.9758E-03     52.2634E-03    -26.3200E-03     21.5763E-03     99.9717E-03     34.0104E+06     4.60614E+06    -17.1358E+06    -34.3702E+06    -9.25385E+06    -8.68566E+06    -28.9604E+06    -3.38066E+06
            1477     77.1745E-03     13.6371E-03     75.9601E-03     54.1616E-03    -26.2126E-03    -27.9425E-03    -25.6501E-03     51.8692E-03    -26.2126E-03     26.9954E-03     116.731E-03     82.0265E+06     61.3624E+06    -10.5335E+06    -25.4019E+06    -10.3481E+06     61.1770E+06    -25.4019E+06    -752.400E+03
            1478     77.3804E-03     14.6116E-03     75.9883E-03     57.0896E-03    -26.1134E-03    -30.9745E-03    -25.4697E-03     51.5847E-03    -26.1134E-03     41.1837E-03     148.484E-03     147.805E+06     132.430E+06    -10.9205E+06    -19.4167E+06    -10.9134E+06     132.422E+06    -19.4167E+06     695.465E+03
            1479     77.6268E-03     15.5874E-03     76.0457E-03     68.3692E-03    -26.1710E-03    -42.2023E-03    -26.0832E-03     52.2500E-03    -26.1710E-03     76.4479E-03     218.168E-03     179.924E+06     176.623E+06     14.5651E+06    -15.7361E+06    -10.2816E+06     176.621E+06     9.11273E+06     484.171E+03
            1480     77.9305E-03     16.5626E-03     76.1501E-03     64.3032E-03    -25.7999E-03    -38.5022E-03    -25.7116E-03     52.1990E-03    -26.4863E-03     55.1404E-03     225.650E-03     187.721E+06     205.632E+06     82.8674E+06    -6.23428E+06    -6.23296E+06     205.631E+06     82.8674E+06     498.913E+03
            1481     76.8868E-03     974.255E-06     76.8806E-03     53.6360E-03    -26.6965E-03    -26.9407E-03    -26.8891E-03     53.6312E-03    -26.7432E-03     1.12250E-03     54.5974E-03     164.574E+06    -20.0310E+06    -26.6274E+06    -187.774E+06    -24.3902E+06    -187.701E+06    -22.3414E+06    -637.472E+03
            1482     76.9067E-03     1.94708E-03     76.8821E-03     53.8248E-03    -26.8275E-03    -26.9982E-03    -26.9337E-03     53.8102E-03    -26.8774E-03     2.08156E-03     54.8601E-03     169.184E+06    -19.5235E+06    -23.4610E+06    -190.618E+06    -23.2775E+06    -190.578E+06    -19.7475E+06    -1.53535E+06
            1483     76.9397E-03     2.92142E-03     76.8842E-03     53.8593E-03    -26.8371E-03    -27.0223E-03    -26.9042E-03     53.8284E-03    -26.9243E-03     3.11208E-03     55.6082E-03     171.448E+06    -15.5851E+06    -20.2145E+06    -189.285E+06    -20.2193E+06    -189.280E+06    -15.5851E+06     299.624E+03
            1484     76.9867E-03     3.89459E-03     76.8882E-03     53.9476E-03    -26.8888E-03    -27.0596E-03    -26.9609E-03     53.8971E-03    -26.9369E-03     4.01512E-03     56.9900E-03     170.746E+06    -13.7048E+06    -17.4281E+06    -186.277E+06    -17.4639E+06    -186.241E+06    -13.7048E+06    -1.60561E+06
            1485     77.0469E-03     4.86823E-03     76.8929E-03     53.7642E-03    -26.7968E-03    -26.9684E-03    -26.7698E-03     53.6769E-03    -26.9081E-03     5.23669E-03     58.4854E-03     163.600E+06    -14.5967E+06    -16.6360E+06    -179.203E+06    -15.9168E+06    -179.099E+06    -15.4205E+06    -3.93062E+06
            1486     77.1205E-03     5.84244E-03     76.8988E-03     53.5376E-03    -26.6745E-03    -26.8646E-03    -26.5469E-03     53.4100E-03    -26.8646E-03     6.38164E-03     60.2373E-03     156.777E+06    -12.6755E+06    -14.9564E+06    -170.576E+06    -14.3230E+06    -170.386E+06    -13.4994E+06    -5.11353E+06
            1487     77.2074E-03     6.81653E-03     76.9059E-03     53.6412E-03    -26.7377E-03    -26.9024E-03    -26.6133E-03     53.4417E-03    -26.8273E-03     7.91598E-03     62.9475E-03     151.022E+06    -9.39315E+06    -11.4777E+06    -161.443E+06    -11.1149E+06    -161.180E+06    -10.0184E+06    -5.89839E+06
            1488     77.3091E-03     7.79045E-03     76.9156E-03     53.6613E-03    -26.7669E-03    -26.8932E-03    -26.5924E-03     53.3605E-03    -26.7669E-03     9.79848E-03     66.2601E-03     131.664E+06    -8.03972E+06    -10.9214E+06    -141.110E+06    -8.49519E+06    -140.714E+06    -10.8623E+06    -6.88122E+06
            1489     77.4240E-03     8.76423E-03     76.9263E-03     53.4267E-03    -26.6686E-03    -26.7702E-03    -26.3528E-03     53.0510E-03    -26.7103E-03     10.9391E-03     69.9226E-03     114.491E+06    -5.98657E+06    -14.3086E+06    -124.352E+06    -9.49438E+06    -123.746E+06    -11.4068E+06    -8.20196E+06
            1490     77.5519E-03     9.73913E-03     76.9379E-03     53.2772E-03    -26.5935E-03    -26.7089E-03    -26.1568E-03     52.7882E-03    -26.6566E-03     12.4159E-03     74.8868E-03     102.629E+06    -8.20891E+06    -14.6738E+06    -113.813E+06    -11.6174E+06    -113.306E+06    -11.7720E+06    -7.01756E+06
            1491     77.6940E-03     10.7136E-03     76.9518E-03     53.2492E-03    -26.5318E-03    -26.7602E-03    -26.0929E-03     52.6033E-03    -26.5532E-03     14.2854E-03     81.1255E-03     75.5693E+06    -11.8044E+06    -18.7236E+06    -90.2503E+06    -12.2466E+06    -89.8081E+06    -18.7236E+06    -5.55424E+06
            1492     77.8493E-03     11.6879E-03     76.9669E-03     53.4049E-03    -26.4441E-03    -27.0299E-03    -26.1599E-03     52.5349E-03    -26.4441E-03     16.5726E-03     88.7235E-03     37.7455E+06    -11.7735E+06    -24.6450E+06    -53.5399E+06    -12.3398E+06    -52.9736E+06    -24.6450E+06    -4.54714E+06
            1493     78.0212E-03     12.6616E-03     76.9870E-03     53.7500E-03    -26.3429E-03    -27.4445E-03    -25.9675E-03     52.2730E-03    -26.3429E-03     21.4262E-03     100.370E-03     29.2641E+06     1.42534E+06    -18.5962E+06    -32.0700E+06    -12.2619E+06    -9.24656E+06    -27.7325E+06    -3.77735E+06
            1494     78.2101E-03     13.6367E-03     77.0121E-03     54.0290E-03    -26.2221E-03    -27.7996E-03    -25.5605E-03     51.7900E-03    -26.2221E-03     26.6351E-03     116.707E-03     79.1306E+06     58.2864E+06    -11.6995E+06    -26.1164E+06    -11.3418E+06     57.9288E+06    -26.1164E+06    -2.55829E+06
            1495     78.4166E-03     14.6127E-03     77.0431E-03     57.1378E-03    -26.1221E-03    -31.0149E-03    -25.6222E-03     51.7451E-03    -26.1221E-03     40.8396E-03     148.459E-03     147.362E+06     131.840E+06    -10.5657E+06    -19.7687E+06    -10.5297E+06     131.804E+06    -19.7687E+06    -447.518E+03
            1496     78.6590E-03     15.5862E-03     77.0993E-03     67.9294E-03    -26.1683E-03    -41.7692E-03    -25.9142E-03     52.0744E-03    -26.1683E-03     75.4748E-03     218.425E-03     179.829E+06     176.617E+06     10.3529E+06    -13.3591E+06    -9.43625E+06     176.617E+06     6.43053E+06     62.7280E+03
            1497     78.9597E-03     16.5624E-03     77.2032E-03     64.0997E-03    -26.0256E-03    -38.0780E-03    -25.6648E-03     52.1325E-03    -26.4716E-03     54.8321E-03     225.599E-03     187.725E+06     204.851E+06     78.5461E+06    -5.49858E+06    -5.49730E+06     204.849E+06     78.5461E+06     327.252E+03
            1498     77.9409E-03     973.582E-06     77.9348E-03     53.4833E-03    -26.6327E-03    -26.8514E-03    -26.6649E-03     53.4791E-03    -26.8149E-03     925.224E-06     54.3702E-03     164.039E+06    -20.1836E+06    -24.5840E+06    -186.343E+06    -20.6036E+06    -185.923E+06    -24.5840E+06    -1.23664E+06
            1499     77.9607E-03     1.94813E-03     77.9363E-03     53.7224E-03    -26.7683E-03    -26.9550E-03    -26.9124E-03     53.7102E-03    -26.7987E-03     1.95468E-03     54.7270E-03     167.964E+06    -22.6077E+06    -24.4895E+06    -191.492E+06    -24.3679E+06    -191.357E+06    -22.8644E+06    -332.972E+03
            1500     77.9934E-03     2.92105E-03     77.9386E-03     53.8844E-03    -26.8323E-03    -27.0514E-03    -26.9835E-03     53.8534E-03    -26.8692E-03     3.06692E-03     55.6188E-03     167.282E+06    -20.2308E+06    -23.0704E+06    -188.903E+06    -23.1114E+06    -188.862E+06    -20.2308E+06    -2.01863E+06
            1501     78.0402E-03     3.89483E-03     77.9430E-03     53.7785E-03    -26.8197E-03    -26.9571E-03    -26.8248E-03     53.7213E-03    -26.8947E-03     4.27371E-03     56.7679E-03     164.722E+06    -16.6873E+06    -19.9821E+06    -183.025E+06    -20.0497E+06    -182.957E+06    -16.6873E+06    -2.82156E+06
            1502     78.0988E-03     4.86873E-03     77.9469E-03     53.6845E-03    -26.7790E-03    -26.9053E-03    -26.7236E-03     53.5946E-03    -26.8709E-03     5.33653E-03     58.3317E-03     159.606E+06    -15.3829E+06    -18.1931E+06    -176.367E+06    -18.3737E+06    -176.187E+06    -15.3829E+06    -5.16783E+06
            1503     78.1716E-03     5.84265E-03     77.9529E-03     53.6835E-03    -26.7748E-03    -26.9120E-03    -26.7160E-03     53.5506E-03    -26.8378E-03     6.51355E-03     60.3479E-03     151.354E+06    -14.7776E+06    -16.4927E+06    -166.979E+06    -16.8657E+06    -166.606E+06    -14.7776E+06    -7.33461E+06
            1504     78.2575E-03     6.81642E-03     77.9600E-03     53.6892E-03    -26.8016E-03    -26.8923E-03    -26.6677E-03     53.4847E-03    -26.8217E-03     8.04416E-03     63.0350E-03     147.007E+06    -10.9255E+06    -13.7175E+06    -159.305E+06    -13.7669E+06    -158.630E+06    -11.5507E+06    -9.60222E+06
            1505     78.3579E-03     7.79041E-03     77.9697E-03     53.5378E-03    -26.7340E-03    -26.8056E-03    -26.4739E-03     53.2405E-03    -26.7684E-03     9.72669E-03     66.2014E-03     130.957E+06    -8.54054E+06    -11.5126E+06    -140.948E+06    -10.3830E+06    -140.287E+06    -10.3311E+06    -9.06329E+06
            1506     78.4712E-03     8.76497E-03     77.9801E-03     53.3933E-03    -26.6581E-03    -26.7318E-03    -26.3052E-03     53.0339E-03    -26.7253E-03     10.6955E-03     69.9863E-03     115.600E+06    -5.90269E+06    -10.9823E+06    -123.902E+06    -10.1756E+06    -123.544E+06    -7.06801E+06    -6.14232E+06
            1507     78.5973E-03     9.73878E-03     77.9916E-03     53.3671E-03    -26.6096E-03    -26.7645E-03    -26.2446E-03     52.9124E-03    -26.6747E-03     11.9873E-03     75.0790E-03     105.054E+06    -6.34999E+06    -11.4016E+06    -113.793E+06    -10.6962E+06    -113.361E+06    -7.48735E+06    -6.14053E+06
            1508     78.7375E-03     10.7135E-03     78.0052E-03     53.4201E-03    -26.5346E-03    -26.9233E-03    -26.2895E-03     52.8077E-03    -26.5560E-03     13.9429E-03     81.3387E-03     77.0605E+06    -9.21180E+06    -18.3650E+06    -89.9658E+06    -9.93298E+06    -89.2446E+06    -18.3650E+06    -7.32584E+06
            1509     78.8921E-03     11.6873E-03     78.0216E-03     53.4072E-03    -26.4509E-03    -27.0200E-03    -26.1555E-03     52.5427E-03    -26.4509E-03     16.5000E-03     88.7925E-03     42.3218E+06    -8.15320E+06    -25.1321E+06    -55.4613E+06    -9.06674E+06    -54.5478E+06    -25.1321E+06    -6.30112E+06
            1510     79.0608E-03     12.6624E-03     78.0402E-03     53.6801E-03    -26.3415E-03    -27.3727E-03    -25.8984E-03     52.2057E-03    -26.3415E-03     21.4197E-03     100.374E-03     34.3475E+06     5.25985E+06    -17.5497E+06    -34.1945E+06    -8.74008E+06    -9.32536E+06    -28.4188E+06    -4.80644E+06
            1511     79.2482E-03     13.6369E-03     78.0660E-03     54.4684E-03    -26.2344E-03    -28.2285E-03    -25.9556E-03     52.1955E-03    -26.2344E-03     26.9587E-03     117.062E-03     77.8270E+06     56.9784E+06    -9.94490E+06    -26.7890E+06    -9.53294E+06     56.5665E+06    -26.7890E+06    -4.04287E+06
            1512     79.4518E-03     14.6102E-03     78.0969E-03     57.2508E-03    -26.1595E-03    -31.0885E-03    -25.7720E-03     51.9343E-03    -26.1595E-03     40.6851E-03     148.640E-03     144.631E+06     130.081E+06    -9.14440E+06    -19.1953E+06    -9.07549E+06     130.012E+06    -19.1953E+06    -2.05282E+06
            1513     79.6923E-03     15.5865E-03     78.1532E-03     67.9556E-03    -26.1955E-03    -41.7684E-03    -25.9380E-03     52.1252E-03    -26.1955E-03     75.3870E-03     218.840E-03     179.820E+06     176.206E+06     8.15107E+06    -12.8602E+06    -8.78234E+06     176.204E+06     4.07503E+06    -98.3003E+03
            1514     79.9899E-03     16.5608E-03     78.2568E-03     63.9075E-03    -25.5326E-03    -38.3799E-03    -25.3373E-03     51.8138E-03    -26.4815E-03     55.6129E-03     225.961E-03     187.692E+06     203.460E+06     74.4131E+06    -5.98729E+06    -5.98593E+06     203.458E+06     74.4131E+06     297.987E+03
            1515     78.9944E-03     973.999E-06     78.9884E-03     53.5672E-03    -26.6237E-03    -26.9428E-03    -26.8025E-03     53.5625E-03    -26.7593E-03     1.08997E-03     54.3382E-03     165.059E+06    -19.6623E+06    -26.8167E+06    -188.138E+06    -25.1401E+06    -187.725E+06    -21.7523E+06    -1.38793E+06
            1516     79.0146E-03     1.94731E-03     78.9906E-03     53.7671E-03    -26.7381E-03    -27.0289E-03    -26.9075E-03     53.7542E-03    -26.8467E-03     1.98867E-03     54.6623E-03     168.632E+06    -18.1211E+06    -21.8244E+06    -188.547E+06    -21.9375E+06    -188.401E+06    -18.1539E+06     568.142E+03
            1517     79.0475E-03     2.92119E-03     78.9935E-03     53.6851E-03    -26.7397E-03    -26.9441E-03    -26.7955E-03     53.6567E-03    -26.8599E-03     2.95996E-03     55.4148E-03     166.749E+06    -19.0104E+06    -21.1683E+06    -186.817E+06    -21.2599E+06    -186.725E+06    -19.0104E+06    -2.38525E+06
            1518     79.0924E-03     3.89522E-03     78.9964E-03     53.6153E-03    -26.7677E-03    -26.8449E-03    -26.7224E-03     53.5620E-03    -26.8370E-03     4.09344E-03     56.5690E-03     161.281E+06    -18.2528E+06    -20.3334E+06    -180.555E+06    -20.4549E+06    -180.433E+06    -18.2528E+06    -4.34081E+06
            1519     79.1515E-03     4.86912E-03     79.0016E-03     53.7122E-03    -26.8058E-03    -26.9056E-03    -26.7959E-03     53.6297E-03    -26.8331E-03     5.12960E-03     58.3104E-03     155.718E+06    -14.0252E+06    -18.2243E+06    -171.780E+06    -18.5023E+06    -171.502E+06    -14.0252E+06    -6.20581E+06
            1520     79.2227E-03     5.84267E-03     79.0069E-03     53.7623E-03    -26.8293E-03    -26.9372E-03    -26.8083E-03     53.6334E-03    -26.8293E-03     6.39424E-03     60.4869E-03     149.068E+06    -12.3780E+06    -16.3415E+06    -163.375E+06    -16.8878E+06    -162.828E+06    -12.3780E+06    -8.80679E+06
            1521     79.3082E-03     6.81639E-03     79.0147E-03     53.6605E-03    -26.7958E-03    -26.8708E-03    -26.6588E-03     53.4593E-03    -26.8067E-03     7.99645E-03     63.0438E-03     141.563E+06    -13.1020E+06    -15.6027E+06    -155.892E+06    -16.4546E+06    -155.012E+06    -13.1296E+06    -10.9552E+06
            1522     79.4062E-03     7.79050E-03     79.0231E-03     53.5768E-03    -26.7183E-03    -26.8578E-03    -26.5349E-03     53.2883E-03    -26.7527E-03     9.58335E-03     66.2088E-03     127.302E+06    -13.8146E+06    -17.0091E+06    -142.650E+06    -15.9779E+06    -141.668E+06    -15.8275E+06    -11.0261E+06
            1523     79.5188E-03     8.76444E-03     79.0343E-03     53.4741E-03    -26.6807E-03    -26.7970E-03    -26.4304E-03     53.1394E-03    -26.7126E-03     10.3409E-03     70.0008E-03     113.987E+06    -10.2224E+06    -14.3782E+06    -126.206E+06    -11.9824E+06    -125.458E+06    -13.3658E+06    -8.53845E+06
            1524     79.6430E-03     9.73903E-03     79.0453E-03     53.4755E-03    -26.6663E-03    -26.8315E-03    -26.3793E-03     53.0317E-03    -26.6747E-03     11.8121E-03     75.2029E-03     102.809E+06    -5.48541E+06    -10.7479E+06    -110.803E+06    -7.35158E+06    -109.949E+06    -9.73552E+06    -8.67995E+06
            1525     79.7821E-03     10.7126E-03     79.0596E-03     53.4601E-03    -26.5697E-03    -26.9376E-03    -26.3103E-03     52.8328E-03    -26.5697E-03     14.1216E-03     81.3489E-03     80.2188E+06    -3.69565E+06    -18.5899E+06    -89.6211E+06    -4.82420E+06    -88.4926E+06    -18.5899E+06    -9.68477E+06
            1526     79.9341E-03     11.6873E-03     79.0750E-03     53.3401E-03    -26.4600E-03    -26.9384E-03    -26.0877E-03     52.4894E-03    -26.4600E-03     16.3750E-03     88.8445E-03     48.8134E+06    -2.91137E+06    -25.9162E+06    -58.2724E+06    -4.17792E+06    -57.0058E+06    -25.9162E+06    -8.03461E+06
            1527     80.1007E-03     12.6619E-03     79.0936E-03     53.7533E-03    -26.3581E-03    -27.4225E-03    -25.9773E-03     52.3081E-03    -26.3581E-03     21.2154E-03     100.490E-03     36.8455E+06     7.67513E+06    -15.9361E+06    -34.6619E+06    -5.03243E+06    -10.3357E+06    -27.5547E+06    -5.61068E+06
            1528     80.2870E-03     13.6364E-03     79.1205E-03     54.5283E-03    -26.2579E-03    -28.2681E-03    -25.9009E-03     52.1612E-03    -26.2579E-03     27.4556E-03     117.412E-03     75.2501E+06     56.3145E+06    -7.14829E+06    -24.8213E+06    -6.69860E+06     55.8648E+06    -24.8213E+06    -3.98019E+06
            1529     80.4894E-03     14.6111E-03     79.1521E-03     57.2085E-03    -26.1547E-03    -31.0509E-03    -25.6252E-03     51.7828E-03    -26.1547E-03     41.2314E-03     149.011E-03     142.826E+06     127.149E+06    -8.44326E+06    -21.7522E+06    -8.37570E+06     127.082E+06    -21.7522E+06    -2.08758E+06
            1530     80.7240E-03     15.5855E-03     79.2052E-03     68.5069E-03    -26.1804E-03    -42.3300E-03    -25.9671E-03     52.1440E-03    -26.1804E-03     76.7755E-03     219.132E-03     180.083E+06     175.024E+06     8.34478E+06    -15.6657E+06    -8.40949E+06     175.023E+06     1.09015E+06    -92.8545E+03
            1531     81.0236E-03     16.5611E-03     79.3130E-03     64.3737E-03    -25.4252E-03    -38.9491E-03    -25.3412E-03     51.8233E-03    -26.4827E-03     56.0201E-03     225.980E-03     188.104E+06     204.163E+06     75.4802E+06    -5.60122E+06    -5.60084E+06     204.163E+06     75.4802E+06     171.841E+03
            1532     80.0495E-03     973.981E-06     80.0436E-03     53.5743E-03    -26.6052E-03    -26.9694E-03    -26.9163E-03     53.5682E-03    -26.6523E-03     1.34663E-03     54.2312E-03     163.203E+06     -21.567E+06    -30.5925E+06    -189.088E+06    -28.8195E+06    -189.007E+06    -23.4215E+06     1.61811E+06
            1533     80.0685E-03     1.94729E-03     80.0448E-03     53.6720E-03    -26.7111E-03    -26.9609E-03    -26.8207E-03     53.6572E-03    -26.8364E-03     2.13993E-03     54.5477E-03     164.129E+06    -19.3698E+06    -25.1859E+06    -186.304E+06    -25.2435E+06    -186.247E+06    -19.3698E+06    -348.017E+03
            1534     80.1005E-03     2.92148E-03     80.0472E-03     53.6578E-03    -26.7407E-03    -26.9162E-03    -26.8054E-03     53.6302E-03    -26.8241E-03     2.95093E-03     55.3841E-03     159.993E+06    -20.8701E+06    -24.1672E+06    -182.470E+06    -22.9759E+06    -182.367E+06    -22.1648E+06    -2.50655E+06
            1535     80.1455E-03     3.89508E-03     80.0508E-03     53.6845E-03    -26.7970E-03    -26.8874E-03    -26.8260E-03     53.6397E-03    -26.8136E-03     3.76627E-03     56.6346E-03     155.253E+06    -21.4357E+06    -23.6725E+06    -177.787E+06    -22.1296E+06    -177.579E+06    -23.1864E+06    -5.52251E+06
            1536     80.2035E-03     4.86878E-03     80.0555E-03     53.6281E-03    -26.7662E-03    -26.8619E-03    -26.7225E-03     53.5464E-03    -26.8238E-03     5.03954E-03     58.2236E-03     149.446E+06    -16.8045E+06    -20.3727E+06    -167.983E+06    -20.2631E+06    -167.636E+06    -17.2606E+06    -6.92910E+06
            1537     80.2746E-03     5.84263E-03     80.0617E-03     53.6369E-03    -26.7628E-03    -26.8758E-03    -26.7029E-03     53.5101E-03    -26.8089E-03     6.35271E-03     60.4180E-03     142.871E+06    -14.6226E+06    -18.5313E+06    -159.392E+06    -18.9898E+06    -158.737E+06    -14.8194E+06    -9.38207E+06
            1538     80.3579E-03     6.81671E-03     80.0682E-03     53.6993E-03    -26.7769E-03    -26.9250E-03    -26.7303E-03     53.5046E-03    -26.7769E-03     7.84470E-03     63.1069E-03     134.648E+06    -16.1672E+06    -17.6654E+06    -151.555E+06    -17.9914E+06    -150.458E+06    -16.9385E+06    -11.9111E+06
            1539     80.4557E-03     7.79052E-03     80.0776E-03     53.6999E-03    -26.7439E-03    -26.9490E-03    -26.6706E-03     53.4216E-03    -26.7439E-03     9.43596E-03     66.2995E-03     124.942E+06    -14.6354E+06    -18.9215E+06    -141.630E+06    -16.0679E+06    -140.198E+06    -18.9215E+06    -13.2829E+06
            1540     80.5664E-03     8.76430E-03     80.0883E-03     53.5490E-03    -26.6925E-03    -26.8644E-03    -26.5162E-03     53.2073E-03    -26.6990E-03     10.4304E-03     70.0103E-03     112.311E+06    -11.0733E+06    -20.2466E+06    -127.592E+06    -12.9047E+06    -125.761E+06    -20.2466E+06    -14.1635E+06
            1541     80.6890E-03     9.73810E-03     80.0992E-03     53.4433E-03    -26.6547E-03    -26.8203E-03    -26.3543E-03     52.9837E-03    -26.6611E-03     12.0387E-03     75.1301E-03     99.1583E+06    -6.58651E+06    -16.2238E+06    -110.131E+06    -8.42951E+06    -108.288E+06    -16.2238E+06    -13.4217E+06
            1542     80.8266E-03     10.7130E-03     80.1134E-03     53.4012E-03    -26.5689E-03    -26.8778E-03    -26.2503E-03     52.7738E-03    -26.5689E-03     14.1087E-03     81.2788E-03     78.9660E+06    -4.84624E+06    -22.2358E+06    -90.2397E+06    -6.56209E+06    -88.5238E+06    -22.2358E+06    -11.8215E+06
            1543     80.9765E-03     11.6872E-03     80.1287E-03     53.4960E-03    -26.4633E-03    -27.0902E-03    -26.2460E-03     52.6518E-03    -26.4633E-03     16.3550E-03     88.9803E-03     49.1463E+06    -4.95155E+06    -30.7644E+06    -60.9739E+06    -6.87652E+06    -59.0489E+06    -30.7644E+06    -9.96174E+06
            1544     81.1421E-03     12.6614E-03     80.1481E-03     53.8983E-03    -26.3820E-03    -27.5430E-03    -26.0979E-03     52.4532E-03    -26.3820E-03     21.2183E-03     100.727E-03     37.6447E+06     5.54954E+06    -19.2484E+06    -37.6222E+06    -7.16186E+06    -13.5489E+06    -30.6103E+06    -6.62612E+06
            1545     81.3253E-03     13.6361E-03     80.1740E-03     54.0799E-03    -26.2685E-03    -27.8091E-03    -25.4915E-03     51.7623E-03    -26.2685E-03     27.0374E-03     117.197E-03     75.6927E+06     54.9643E+06    -8.42989E+06    -27.1209E+06    -7.90895E+06     54.4434E+06    -27.1209E+06    -3.73432E+06
            1546     81.5256E-03     14.6118E-03     80.2055E-03     56.7888E-03    -26.1238E-03    -30.6639E-03    -25.3156E-03     51.4405E-03    -26.1238E-03     40.7258E-03     148.961E-03     143.805E+06     124.804E+06    -9.12443E+06    -27.0960E+06    -9.07156E+06     124.751E+06    -27.0960E+06    -2.12919E+06
            1547     81.7593E-03     15.5873E-03     80.2597E-03     68.3033E-03    -26.1588E-03    -42.1481E-03    -25.9664E-03     52.1216E-03    -26.1588E-03     76.2625E-03     219.376E-03     180.432E+06     174.105E+06     10.5419E+06    -19.1879E+06    -8.53117E+06     174.091E+06    -100.620E+03    -910.002E+03
            1548     82.0552E-03     16.5623E-03     80.3663E-03     64.3109E-03    -25.6019E-03    -38.7124E-03    -25.4604E-03     51.9353E-03    -26.4783E-03     55.4096E-03     225.780E-03     188.267E+06     204.828E+06     76.6375E+06    -5.96771E+06    -5.96530E+06     204.826E+06     76.6375E+06     180.948E+03
            1549     81.1032E-03     973.536E-06     81.0973E-03     53.3853E-03    -26.5616E-03    -26.8252E-03    -26.7026E-03     53.3777E-03    -26.6767E-03     1.51817E-03     54.0769E-03     159.198E+06    -29.6696E+06    -38.3022E+06    -193.006E+06    -36.5657E+06    -192.888E+06    -31.5240E+06     4.06033E+06
            1550     81.1225E-03     1.94808E-03     81.0991E-03     53.5813E-03    -26.7190E-03    -26.8631E-03    -26.8019E-03     53.5672E-03    -26.7661E-03     2.08717E-03     54.4322E-03     155.270E+06    -23.8419E+06    -32.3253E+06    -183.174E+06    -32.3864E+06    -183.113E+06    -23.8419E+06     225.559E+03
            1551     81.1541E-03     2.92122E-03     81.1015E-03     53.7452E-03    -26.7965E-03    -26.9489E-03    -26.9199E-03     53.7162E-03    -26.7965E-03     3.01542E-03     55.4434E-03     149.031E+06    -24.1796E+06    -29.6340E+06    -175.835E+06    -28.5301E+06    -175.644E+06    -25.4742E+06    -4.69143E+06
            1552     81.1990E-03     3.89473E-03     81.1055E-03     53.6756E-03    -26.7869E-03    -26.8885E-03    -26.8291E-03     53.6277E-03    -26.7985E-03     3.89808E-03     56.6694E-03     145.885E+06    -25.5732E+06    -29.0128E+06    -173.133E+06    -26.1466E+06    -172.668E+06    -28.9038E+06    -7.94386E+06
            1553     81.2553E-03     4.86868E-03     81.1093E-03     53.5675E-03    -26.7413E-03    -26.8248E-03    -26.6751E-03     53.4817E-03    -26.8052E-03     5.15966E-03     58.2065E-03     143.479E+06    -21.0542E+06    -24.5525E+06    -166.242E+06    -23.2157E+06    -165.542E+06    -23.0900E+06    -9.58820E+06
            1554     81.3261E-03     5.84294E-03     81.1160E-03     53.6472E-03    -26.7563E-03    -26.8905E-03    -26.7116E-03     53.5207E-03    -26.8086E-03     6.36452E-03     60.4115E-03     138.074E+06    -15.1304E+06    -18.2470E+06    -154.726E+06    -19.0167E+06    -153.759E+06    -15.3272E+06    -11.1026E+06
            1555     81.4084E-03     6.81643E-03     81.1225E-03     53.7917E-03    -26.7924E-03    -27.0006E-03    -26.8129E-03     53.6039E-03    -26.7924E-03     7.71031E-03     63.2396E-03     132.009E+06    -13.4291E+06    -16.6956E+06    -147.031E+06    -16.2829E+06    -145.634E+06    -15.2382E+06    -13.4235E+06
            1556     81.5055E-03     7.79001E-03     81.1324E-03     53.6268E-03    -26.7298E-03    -26.8905E-03    -26.5962E-03     53.3577E-03    -26.7550E-03     9.27081E-03     66.2301E-03     123.908E+06    -11.4985E+06    -18.0138E+06    -138.481E+06    -13.8592E+06    -136.120E+06    -18.0138E+06    -16.6790E+06
            1557     81.6136E-03     8.76437E-03     81.1416E-03     53.4920E-03    -26.6686E-03    -26.8261E-03    -26.4440E-03     53.1351E-03    -26.6939E-03     10.6467E-03     69.9437E-03     112.441E+06    -7.84574E+06    -20.8540E+06    -126.149E+06    -11.0836E+06    -122.911E+06    -20.8540E+06    -19.0248E+06
            1558     81.7362E-03     9.73867E-03     81.1540E-03     53.5515E-03    -26.6452E-03    -26.9341E-03    -26.4726E-03     53.0900E-03    -26.6452E-03     12.1351E-03     75.1550E-03     100.038E+06    -6.47482E+06    -21.0699E+06    -112.953E+06    -9.37094E+06    -110.057E+06    -21.0699E+06    -17.2493E+06
            1559     81.8702E-03     10.7125E-03     81.1664E-03     53.5396E-03    -26.5753E-03    -27.0081E-03    -26.3882E-03     52.9198E-03    -26.5753E-03     14.0204E-03     81.4158E-03     78.2589E+06    -5.95632E+06    -25.3033E+06    -91.4136E+06    -8.29554E+06    -89.0744E+06    -25.3033E+06    -13.8659E+06
            1560     82.0205E-03     11.6868E-03     81.1836E-03     53.5321E-03    -26.4765E-03    -27.1121E-03    -26.2555E-03     52.6756E-03    -26.4765E-03     16.4848E-03     88.9517E-03     50.2128E+06    -5.77304E+06    -33.3146E+06    -62.9248E+06    -8.28759E+06    -60.4103E+06    -33.3146E+06    -11.5601E+06
            1561     82.1823E-03     12.6610E-03     81.2012E-03     53.9626E-03    -26.3737E-03    -27.6167E-03    -26.1420E-03     52.4879E-03    -26.3737E-03     21.4323E-03     100.618E-03     43.0016E+06     4.18305E+06    -23.0126E+06    -44.9035E+06    -8.41952E+06    -17.8163E+06    -37.4973E+06    -8.83290E+06
            1562     82.3648E-03     13.6356E-03     81.2283E-03     54.1603E-03    -26.2812E-03    -27.8747E-03    -25.6769E-03     51.9625E-03    -26.2812E-03     26.4453E-03     117.074E-03     77.6467E+06     53.6333E+06    -9.30434E+06    -30.5235E+06    -7.95063E+06     52.2796E+06    -30.5235E+06    -5.32413E+06
            1563     82.5604E-03     14.6107E-03     81.2572E-03     56.8155E-03    -26.1524E-03    -30.6618E-03    -25.3262E-03     51.4799E-03    -26.1524E-03     40.3442E-03     148.616E-03     142.727E+06     123.731E+06    -7.98852E+06    -27.8483E+06    -7.88895E+06     123.632E+06    -27.8483E+06    -3.01695E+06
            1564     82.7951E-03     15.5855E-03     81.3150E-03     67.9543E-03    -26.1668E-03    -41.7973E-03    -25.7993E-03     51.9562E-03    -26.1668E-03     75.7999E-03     219.314E-03     180.437E+06     172.030E+06     8.99708E+06    -21.6956E+06    -8.54702E+06     172.007E+06    -4.12826E+06    -942.545E+03
            1565     83.0858E-03     16.5607E-03     81.4187E-03     63.8698E-03    -25.5554E-03    -38.3244E-03    -25.2993E-03     51.7734E-03    -26.4841E-03     55.0866E-03     226.080E-03     188.459E+06     203.973E+06     74.2460E+06    -6.54082E+06    -6.53434E+06     203.966E+06     74.2460E+06     462.243E+03
            1566     82.1571E-03     974.400E-06     82.1514E-03     53.3906E-03    -26.6149E-03    -26.7766E-03    -26.7017E-03     53.3837E-03    -26.6829E-03     1.27706E-03     53.9870E-03     157.209E+06    -35.4418E+06    -42.6301E+06    -196.087E+06    -40.2737E+06    -195.927E+06    -37.9586E+06     3.63001E+06
            1567     82.1760E-03     1.94738E-03     82.1529E-03     53.5798E-03    -26.7465E-03    -26.8345E-03    -26.8166E-03     53.5632E-03    -26.7479E-03     2.23024E-03     54.3736E-03     145.613E+06    -30.0800E+06    -35.2149E+06    -178.144E+06    -35.0033E+06    -178.028E+06    -30.4086E+06    -1.74764E+06
            1568     82.2084E-03     2.92127E-03     82.1565E-03     53.6281E-03    -26.7824E-03    -26.8476E-03    -26.8132E-03     53.5986E-03    -26.7873E-03     3.05199E-03     55.3124E-03     140.242E+06    -26.0751E+06    -29.3142E+06    -167.872E+06    -29.5244E+06    -167.466E+06    -26.2711E+06    -6.91473E+06
            1569     82.2514E-03     3.89527E-03     82.1591E-03     53.6156E-03    -26.7885E-03    -26.8276E-03    -26.7750E-03     53.5666E-03    -26.7921E-03     3.91613E-03     56.6202E-03     142.524E+06    -24.2175E+06    -26.5928E+06    -167.900E+06    -25.8587E+06    -167.055E+06    -25.7973E+06    -10.8118E+06
            1570     82.3083E-03     4.86886E-03     82.1641E-03     53.6485E-03    -26.7737E-03    -26.8732E-03    -26.7806E-03     53.5621E-03    -26.7799E-03     5.22254E-03     58.2856E-03     138.235E+06    -22.1477E+06    -26.3984E+06    -162.434E+06    -24.3291E+06    -160.962E+06    -25.6893E+06    -13.8945E+06
            1571     82.3770E-03     5.84234E-03     82.1696E-03     53.7181E-03    -26.7851E-03    -26.9341E-03    -26.7862E-03     53.5764E-03    -26.7914E-03     6.69708E-03     60.4333E-03     132.485E+06    -17.1269E+06    -22.1264E+06    -152.026E+06    -20.9215E+06    -150.166E+06    -20.1927E+06    -15.3851E+06
            1572     82.4602E-03     6.81616E-03     82.1780E-03     53.6895E-03    -26.7833E-03    -26.9046E-03    -26.7014E-03     53.4917E-03    -26.7887E-03     7.94790E-03     63.1006E-03     128.666E+06    -11.9313E+06    -17.5907E+06    -143.324E+06    -15.6460E+06    -141.067E+06    -16.1333E+06    -16.5421E+06
            1573     82.5540E-03     7.79033E-03     82.1856E-03     53.5435E-03    -26.7064E-03    -26.8272E-03    -26.5244E-03     53.2714E-03    -26.7371E-03     9.29390E-03     66.1385E-03     119.346E+06    -9.79515E+06    -18.6264E+06    -133.272E+06    -13.0238E+06    -130.043E+06    -18.6264E+06    -19.3375E+06
            1574     82.6621E-03     8.76442E-03     82.1962E-03     53.4993E-03    -26.6535E-03    -26.8460E-03    -26.4590E-03     53.1375E-03    -26.6788E-03     10.7405E-03     69.9586E-03     109.050E+06    -8.76624E+06    -21.7444E+06    -123.710E+06    -12.9178E+06    -119.558E+06    -21.7444E+06    -21.3246E+06
            1575     82.7822E-03     9.73833E-03     82.2074E-03     53.6328E-03    -26.6366E-03    -27.0217E-03    -26.5527E-03     53.1638E-03    -26.6366E-03     12.2279E-03     75.2114E-03     100.915E+06    -7.79152E+06    -23.8251E+06    -115.744E+06    -11.9379E+06    -111.597E+06    -23.8251E+06    -20.5960E+06
            1576     82.9164E-03     10.7124E-03     82.2215E-03     53.6767E-03    -26.5769E-03    -27.1336E-03    -26.5027E-03     53.0459E-03    -26.5769E-03     14.1776E-03     81.5944E-03     80.4448E+06    -6.23614E+06    -27.5227E+06    -94.8414E+06    -9.59044E+06    -91.4871E+06    -27.5227E+06    -16.8006E+06
            1577     83.0628E-03     11.6866E-03     82.2365E-03     53.5637E-03    -26.4950E-03    -27.1066E-03    -26.2397E-03     52.6968E-03    -26.4950E-03     16.5756E-03     89.0009E-03     52.9839E+06    -4.25697E+06    -31.5244E+06    -64.5128E+06    -7.95809E+06    -60.8117E+06    -31.5244E+06    -13.9276E+06
            1578     83.2246E-03     12.6614E-03     82.2559E-03     54.0125E-03    -26.3852E-03    -27.6518E-03    -26.1512E-03     52.5118E-03    -26.3852E-03     21.6440E-03     100.565E-03     44.4684E+06     4.16477E+06    -22.9673E+06    -46.7197E+06    -7.21861E+06    -20.5501E+06    -37.7536E+06    -12.0696E+06
            1579     83.4042E-03     13.6353E-03     82.2820E-03     54.5049E-03    -26.2996E-03    -28.2028E-03    -26.0150E-03     52.3171E-03    -26.2996E-03     26.5165E-03     117.556E-03     77.0661E+06     51.7631E+06    -10.0039E+06    -32.0756E+06    -6.66827E+06     48.4274E+06    -32.0756E+06    -7.85283E+06
            1580     83.5980E-03     14.6098E-03     82.3115E-03     57.0000E-03    -26.1675E-03    -30.8296E-03    -25.4721E-03     51.6426E-03    -26.1675E-03     40.3866E-03     148.898E-03     142.328E+06     120.369E+06    -7.54199E+06    -32.7608E+06    -7.40518E+06     120.232E+06    -32.7608E+06    -3.01592E+06
            1581     83.8294E-03     15.5858E-03     82.3677E-03     68.0954E-03    -26.1727E-03    -41.9312E-03    -25.6119E-03     51.7760E-03    -26.1727E-03     76.5375E-03     219.080E-03     180.818E+06     168.990E+06     8.19543E+06    -26.6060E+06    -8.66033E+06     168.978E+06    -9.73802E+06    -443.326E+03
            1582     84.1196E-03     16.5616E-03     82.4731E-03     64.1655E-03    -25.6058E-03    -38.5663E-03    -25.3113E-03     51.8106E-03    -26.5059E-03     55.5126E-03     226.555E-03     189.040E+06     204.541E+06     74.6754E+06    -6.34627E+06    -6.33862E+06     204.533E+06     74.6754E+06     52.2350E+03
            1583     83.2107E-03     973.237E-06     83.2050E-03     53.6711E-03    -26.7146E-03    -26.9565E-03    -26.7870E-03     53.6648E-03    -26.8778E-03     1.16896E-03     54.1470E-03     156.018E+06    -31.6424E+06    -35.5135E+06    -189.533E+06    -32.5030E+06    -189.243E+06    -34.9432E+06     297.189E+03
            1584     83.2306E-03     1.94766E-03     83.2078E-03     53.5613E-03    -26.7450E-03    -26.8162E-03    -26.7440E-03     53.5442E-03    -26.8001E-03     2.28955E-03     54.3515E-03     141.165E+06    -29.8134E+06    -33.6736E+06    -172.817E+06    -30.2386E+06    -172.392E+06    -33.6736E+06    -7.03266E+06
            1585     83.2614E-03     2.92135E-03     83.2101E-03     53.5045E-03    -26.7267E-03    -26.7801E-03    -26.6982E-03     53.4760E-03    -26.7801E-03     2.98909E-03     55.1733E-03     133.690E+06    -26.2149E+06    -30.6460E+06    -162.021E+06    -28.4185E+06    -161.304E+06    -29.1585E+06    -9.57135E+06
            1586     83.3050E-03     3.89493E-03     83.2139E-03     53.5856E-03    -26.7792E-03    -26.8086E-03    -26.7567E-03     53.5396E-03    -26.7851E-03     3.80798E-03     56.5715E-03     136.143E+06    -23.7070E+06    -26.8399E+06    -161.378E+06    -26.6975E+06    -160.108E+06    -25.1196E+06    -12.8638E+06
            1587     83.3603E-03     4.86887E-03     83.2180E-03     53.6201E-03    -26.7628E-03    -26.8582E-03    -26.7699E-03     53.5318E-03    -26.7628E-03     5.24666E-03     58.2533E-03     131.779E+06    -22.1458E+06    -26.8795E+06    -156.208E+06    -24.4045E+06    -154.182E+06    -26.6467E+06    -16.1804E+06
            1588     83.4293E-03     5.84272E-03     83.2245E-03     53.6070E-03    -26.7427E-03    -26.8658E-03    -26.7165E-03     53.4577E-03    -26.7427E-03     6.88158E-03     60.3089E-03     125.363E+06    -19.8362E+06    -26.4933E+06    -148.377E+06    -22.9338E+06    -145.280E+06    -26.4933E+06    -19.3496E+06
            1589     83.5102E-03     6.81659E-03     83.2315E-03     53.5558E-03    -26.7250E-03    -26.8284E-03    -26.6244E-03     53.3572E-03    -26.7304E-03     7.96647E-03     62.8923E-03     120.649E+06    -16.6293E+06    -23.7210E+06    -140.654E+06    -20.4875E+06    -136.796E+06    -23.7210E+06    -21.3019E+06
            1590     83.6039E-03     7.79054E-03     83.2402E-03     53.5888E-03    -26.7032E-03    -26.8796E-03    -26.6105E-03     53.3251E-03    -26.7087E-03     9.16120E-03     66.2015E-03     112.383E+06    -13.1178E+06    -21.2561E+06    -129.339E+06    -17.5227E+06    -124.934E+06    -21.2561E+06    -21.8933E+06
            1591     83.7101E-03     8.76439E-03     83.2500E-03     53.6091E-03    -26.6863E-03    -26.9233E-03    -26.5754E-03     53.2612E-03    -26.6863E-03     10.5439E-03     70.1338E-03     105.562E+06    -10.4510E+06    -20.0284E+06    -120.444E+06    -15.4148E+06    -115.480E+06    -20.0284E+06    -22.6007E+06
            1592     83.8295E-03     9.73856E-03     83.2619E-03     53.5890E-03    -26.6481E-03    -26.9586E-03    -26.4939E-03     53.1243E-03    -26.6481E-03     12.1508E-03     75.2295E-03     100.055E+06    -9.62837E+06    -23.9612E+06    -115.944E+06    -14.7863E+06    -110.786E+06    -23.9612E+06    -22.8105E+06
            1593     83.9614E-03     10.7126E-03     83.2752E-03     53.6239E-03    -26.5638E-03    -27.0901E-03    -26.4657E-03     52.9994E-03    -26.5638E-03     14.1110E-03     81.6071E-03     82.4015E+06    -8.27957E+06    -32.8758E+06    -99.6002E+06    -13.6840E+06    -94.1957E+06    -32.8758E+06    -21.2851E+06
            1594     84.1069E-03     11.6866E-03     83.2910E-03     53.6454E-03    -26.4949E-03    -27.1824E-03    -26.3295E-03     52.7925E-03    -26.4949E-03     16.4541E-03     89.1991E-03     55.0428E+06    -5.15015E+06    -34.3679E+06    -68.1224E+06    -11.0773E+06    -62.1953E+06    -34.3679E+06    -17.9379E+06
            1595     84.2659E-03     12.6606E-03     83.3094E-03     54.0168E-03    -26.4001E-03    -27.6404E-03    -26.1210E-03     52.4974E-03    -26.4001E-03     21.7405E-03     100.760E-03     44.2728E+06     2.88643E+06    -25.9078E+06    -48.0275E+06    -10.6233E+06    -21.9223E+06    -38.5033E+06    -14.7867E+06
            1596     84.4446E-03     13.6356E-03     83.3365E-03     54.4437E-03    -26.2990E-03    -28.1506E-03    -25.8935E-03     52.1867E-03    -26.2990E-03     26.8965E-03     117.715E-03     76.3916E+06     47.3929E+06    -15.5831E+06    -36.1400E+06    -10.8851E+06     42.6948E+06    -36.1400E+06    -10.0882E+06
            1597     84.6363E-03     14.6098E-03     83.3658E-03     57.0113E-03    -26.1664E-03    -30.8437E-03    -25.6026E-03     51.7701E-03    -26.1664E-03     40.1780E-03     149.375E-03     141.640E+06     116.142E+06    -10.7776E+06    -36.4582E+06    -10.5047E+06     115.869E+06    -36.4582E+06    -4.22877E+06
            1598     84.8629E-03     15.5852E-03     83.4195E-03     68.3363E-03    -26.1716E-03    -42.1654E-03    -25.7468E-03     51.9176E-03    -26.1716E-03     76.6986E-03     219.148E-03     180.891E+06     167.289E+06     4.39095E+06    -26.9791E+06    -9.23661E+06     167.266E+06    -13.3282E+06    -1.38672E+06
            1599     85.1544E-03     16.5603E-03     83.5286E-03     64.3194E-03    -25.5337E-03    -38.7861E-03    -25.2131E-03     51.7123E-03    -26.4994E-03     56.0034E-03     226.321E-03     189.021E+06     203.821E+06     70.6333E+06    -5.85276E+06    -5.84908E+06     203.817E+06     70.6333E+06    -326.394E+03
            1600     84.2658E-03     974.023E-06     84.2602E-03     53.7865E-03    -26.7336E-03    -27.0527E-03    -26.8815E-03     53.7785E-03    -26.8969E-03     1.46450E-03     54.2132E-03     151.049E+06    -26.8341E+06    -32.3083E+06    -180.497E+06    -27.9105E+06    -179.991E+06    -31.7379E+06    -5.16163E+06
            1601     84.2841E-03     1.94695E-03     84.2616E-03     53.6312E-03    -26.7778E-03    -26.8534E-03    -26.7660E-03     53.6151E-03    -26.8492E-03     2.26511E-03     54.4388E-03     135.650E+06    -27.2156E+06    -32.6495E+06    -165.469E+06    -28.9871E+06    -164.843E+06    -31.5045E+06    -8.87741E+06
            1602     84.3151E-03     2.92119E-03     84.2645E-03     53.4561E-03    -26.6629E-03    -26.7965E-03    -26.6334E-03     53.4266E-03    -26.7965E-03     3.01295E-03     55.1049E-03     126.982E+06    -26.4410E+06    -32.8580E+06    -156.491E+06    -29.6993E+06    -155.411E+06    -30.6792E+06    -11.5607E+06
            1603     84.3580E-03     3.89513E-03     84.2680E-03     53.5113E-03    -26.6908E-03    -26.8240E-03    -26.7047E-03     53.4618E-03    -26.7606E-03     3.97194E-03     56.4759E-03     125.387E+06    -25.1498E+06    -30.5869E+06    -153.165E+06    -28.0482E+06    -151.300E+06    -29.5532E+06    -15.0106E+06
            1604     84.4127E-03     4.86878E-03     84.2722E-03     53.5869E-03    -26.7472E-03    -26.8423E-03    -26.7557E-03     53.5004E-03    -26.7472E-03     5.19926E-03     58.2448E-03     124.840E+06    -22.3713E+06    -28.3648E+06    -150.095E+06    -25.3037E+06    -147.162E+06    -28.3648E+06    -18.8346E+06
            1605     84.4807E-03     5.84266E-03     84.2785E-03     53.5209E-03    -26.7325E-03    -26.7893E-03    -26.6472E-03     53.3844E-03    -26.7381E-03     6.59366E-03     60.2623E-03     120.690E+06    -18.3761E+06    -25.0761E+06    -142.261E+06    -22.5879E+06    -138.049E+06    -25.0761E+06    -22.1606E+06
            1606     84.5610E-03     6.81659E-03     84.2858E-03     53.5721E-03    -26.7194E-03    -26.8538E-03    -26.6598E-03     53.3838E-03    -26.7250E-03     7.74922E-03     62.9240E-03     117.517E+06    -16.8167E+06    -23.7111E+06    -137.619E+06    -21.7846E+06    -132.651E+06    -23.7111E+06    -23.9519E+06
            1607     84.6535E-03     7.79034E-03     84.2943E-03     53.6953E-03    -26.7121E-03    -26.9868E-03    -26.7291E-03     53.4376E-03    -26.7121E-03     9.07845E-03     66.3360E-03     108.315E+06    -14.2916E+06    -22.4908E+06    -126.445E+06    -20.1379E+06    -120.599E+06    -22.4908E+06    -24.7045E+06
            1608     84.7588E-03     8.76415E-03     84.3045E-03     53.6587E-03    -26.7084E-03    -26.9540E-03    -26.6241E-03     53.3288E-03    -26.7084E-03     10.2789E-03     70.2885E-03     103.085E+06    -10.8117E+06    -20.1572E+06    -118.228E+06    -17.4199E+06    -111.620E+06    -20.1572E+06    -25.6810E+06
            1609     84.8762E-03     9.73795E-03     84.3157E-03     53.5641E-03    -26.6711E-03    -26.9046E-03    -26.4531E-03     53.1127E-03    -26.6711E-03     11.9590E-03     75.2703E-03     101.020E+06    -7.59546E+06    -23.2156E+06    -115.267E+06    -14.1282E+06    -108.734E+06    -23.2156E+06    -25.5664E+06
            1610     85.0070E-03     10.7123E-03     84.3293E-03     53.5791E-03    -26.5652E-03    -27.0581E-03    -26.4291E-03     52.9501E-03    -26.5652E-03     14.1494E-03     81.5621E-03     85.6159E+06    -4.70143E+06    -35.2708E+06    -100.700E+06    -12.0256E+06    -93.3754E+06    -35.2708E+06    -25.3347E+06
            1611     85.1510E-03     11.6864E-03     84.3452E-03     53.5828E-03    -26.4782E-03    -27.1626E-03    -26.3143E-03     52.7345E-03    -26.4782E-03     16.4142E-03     89.1221E-03     62.3443E+06    -2.49256E+06    -40.6188E+06    -73.7344E+06    -10.9587E+06    -65.2682E+06    -40.6188E+06    -22.7208E+06
            1612     85.3081E-03     12.6611E-03     84.3633E-03     53.9733E-03    -26.3781E-03    -27.6177E-03    -26.0714E-03     52.4270E-03    -26.3781E-03     21.8668E-03     100.637E-03     50.5177E+06     5.44253E+06    -29.8839E+06    -52.1994E+06    -8.51852E+06    -24.5269E+06    -43.5953E+06    -17.8902E+06
            1613     85.4847E-03     13.6352E-03     84.3903E-03     54.3362E-03    -26.2812E-03    -28.0511E-03    -25.7698E-03     52.0548E-03    -26.2812E-03     27.0156E-03     117.105E-03     74.8083E+06     44.2778E+06    -14.5841E+06    -38.9864E+06    -6.94876E+06     36.6425E+06    -38.9864E+06    -12.6858E+06
            1614     85.6743E-03     14.6109E-03     84.4193E-03     57.1387E-03    -26.1490E-03    -30.9865E-03    -25.7907E-03     51.9429E-03    -26.1490E-03     40.1211E-03     149.075E-03     137.624E+06     111.684E+06    -7.24285E+06    -38.7259E+06    -6.58877E+06     111.030E+06    -38.7259E+06    -7.03791E+06
            1615     85.9001E-03     15.5847E-03     84.4746E-03     68.3955E-03    -26.1461E-03    -42.2493E-03    -26.0362E-03     52.1824E-03    -26.1461E-03     76.3134E-03     218.913E-03     181.044E+06     165.304E+06     887.539E+03    -27.7653E+06    -6.90667E+06     165.238E+06    -19.9046E+06    -2.18793E+06
            1616     86.1864E-03     16.5613E-03     84.5802E-03     63.9267E-03    -25.3058E-03    -38.6195E-03    -24.9703E-03     51.4502E-03    -26.4784E-03     56.0940E-03     225.867E-03     189.085E+06     201.765E+06     63.7162E+06    -5.82757E+06    -5.82732E+06     201.765E+06     63.7162E+06     31.2287E+03
            1617     85.3194E-03     973.331E-06     85.3139E-03     53.7595E-03    -26.7067E-03    -27.0529E-03    -26.9862E-03     53.7538E-03    -26.7678E-03     1.11176E-03     54.2424E-03     146.015E+06    -23.7388E+06    -34.9292E+06    -174.976E+06    -31.1752E+06    -174.610E+06    -27.8587E+06    -6.27530E+06
            1618     85.3388E-03     1.94772E-03     85.3166E-03     53.6281E-03    -26.7627E-03    -26.8658E-03    -26.7515E-03     53.6126E-03    -26.8616E-03     2.18058E-03     54.4355E-03     126.242E+06    -26.1293E+06    -31.8319E+06    -155.070E+06    -31.6755E+06    -154.470E+06    -26.8865E+06    -7.04410E+06
            1619     85.3683E-03     2.92092E-03     85.3183E-03     53.5356E-03    -26.6996E-03    -26.8386E-03    -26.7047E-03     53.5071E-03    -26.8049E-03     2.98983E-03     55.2268E-03     119.363E+06    -25.1161E+06    -29.9660E+06    -146.818E+06    -28.5883E+06    -144.909E+06    -28.4033E+06    -14.4936E+06
            1620     85.4111E-03     3.89508E-03     85.3222E-03     53.5463E-03    -26.6914E-03    -26.8568E-03    -26.7259E-03     53.4960E-03    -26.7721E-03     3.97555E-03     56.5399E-03     120.967E+06    -22.6282E+06    -29.6431E+06    -146.946E+06    -25.4035E+06    -144.170E+06    -29.6431E+06    -18.1572E+06
            1621     85.4656E-03     4.86871E-03     85.3268E-03     53.6292E-03    -26.7504E-03    -26.8793E-03    -26.7864E-03     53.5494E-03    -26.7635E-03     5.03322E-03     58.3138E-03     117.773E+06    -21.2441E+06    -28.5190E+06    -142.482E+06    -24.9852E+06    -138.741E+06    -28.5190E+06    -20.7659E+06
            1622     85.5323E-03     5.84243E-03     85.3325E-03     53.5921E-03    -26.7542E-03    -26.8394E-03    -26.7078E-03     53.4661E-03    -26.7598E-03     6.30812E-03     60.3287E-03     113.272E+06    -19.2898E+06    -26.0722E+06    -135.792E+06    -24.5336E+06    -130.549E+06    -26.0722E+06    -24.0111E+06
            1623     85.6118E-03     6.81639E-03     85.3400E-03     53.5577E-03    -26.7324E-03    -26.8287E-03    -26.6269E-03     53.3751E-03    -26.7515E-03     7.63331E-03     62.8815E-03     113.528E+06    -15.5554E+06    -23.8157E+06    -132.955E+06    -22.0475E+06    -126.463E+06    -23.8157E+06    -26.6509E+06
            1624     85.7036E-03     7.79017E-03     85.3488E-03     53.6273E-03    -26.6976E-03    -26.9265E-03    -26.6434E-03     53.3576E-03    -26.7110E-03     9.23837E-03     66.2143E-03     106.986E+06    -11.0559E+06    -25.5429E+06    -124.318E+06    -18.6526E+06    -116.721E+06    -25.5429E+06    -28.1637E+06
            1625     85.8076E-03     8.76379E-03     85.3589E-03     53.6382E-03    -26.7009E-03    -26.9369E-03    -26.5991E-03     53.3004E-03    -26.7009E-03     10.4043E-03     70.2174E-03     101.109E+06    -8.57233E+06    -23.5073E+06    -116.146E+06    -16.5658E+06    -108.152E+06    -23.5073E+06    -28.1949E+06
            1626     85.9232E-03     9.73810E-03     85.3695E-03     53.6125E-03    -26.6723E-03    -26.9577E-03    -26.4959E-03     53.1508E-03    -26.6723E-03     12.0636E-03     75.2297E-03     99.2974E+06    -6.80217E+06    -25.5302E+06    -113.819E+06    -15.6648E+06    -104.956E+06    -25.5302E+06    -29.2759E+06
            1627     86.0528E-03     10.7121E-03     85.3835E-03     53.5852E-03    -26.5670E-03    -27.0606E-03    -26.4189E-03     52.9435E-03    -26.5670E-03     14.3112E-03     81.4038E-03     87.7579E+06    -2.25288E+06    -37.0888E+06    -101.432E+06    -12.8380E+06    -90.8465E+06    -37.0888E+06    -30.2382E+06
            1628     86.1949E-03     11.6864E-03     85.3990E-03     53.5350E-03    -26.4772E-03    -27.1157E-03    -26.2813E-03     52.7006E-03    -26.4772E-03     16.2695E-03     88.9166E-03     71.5603E+06     2.59226E+06    -42.7672E+06    -79.2190E+06    -8.99310E+06    -67.6337E+06    -42.7672E+06    -28.2297E+06
            1629     86.3503E-03     12.6606E-03     85.4171E-03     53.9606E-03    -26.3813E-03    -27.6108E-03    -26.1167E-03     52.4665E-03    -26.3813E-03     21.5224E-03     100.605E-03     58.2014E+06     8.74585E+06    -34.0398E+06    -57.3606E+06    -7.17907E+06    -29.3665E+06    -46.1090E+06    -22.4588E+06
            1630     86.5254E-03     13.6359E-03     85.4442E-03     54.3588E-03    -26.3011E-03    -28.0592E-03    -25.8731E-03     52.1727E-03    -26.3011E-03     26.4635E-03     117.101E-03     72.5629E+06     41.0231E+06    -17.1138E+06    -39.7664E+06    -6.96532E+06     30.8746E+06    -39.7664E+06    -15.9148E+06
            1631     86.7129E-03     14.6097E-03     85.4733E-03     57.0959E-03    -26.1413E-03    -30.9520E-03    -25.7789E-03     51.9228E-03    -26.1413E-03     39.8925E-03     148.814E-03     135.010E+06     104.219E+06    -8.40079E+06    -45.3622E+06    -7.13695E+06     102.955E+06    -45.3622E+06    -9.19497E+06
            1632     86.9372E-03     15.5852E-03     85.5289E-03     68.0047E-03    -26.1221E-03    -41.8832E-03    -25.8992E-03     52.0208E-03    -26.1221E-03     75.6483E-03     218.740E-03     181.802E+06     161.214E+06    -1.25079E+06    -33.6585E+06    -7.18443E+06     161.118E+06    -27.6287E+06    -2.75878E+06
            1633     87.2195E-03     16.5594E-03     85.6331E-03     63.5816E-03    -25.2853E-03    -38.2937E-03    -24.8249E-03     51.2947E-03    -26.4672E-03     56.1680E-03     225.906E-03     189.208E+06     201.832E+06     61.4335E+06    -5.11369E+06    -5.11277E+06     201.832E+06     61.4335E+06    -82.2656E+03
            1634     86.3749E-03     973.850E-06     86.3694E-03     53.7921E-03    -26.7353E-03    -27.0570E-03    -26.8718E-03     53.7887E-03    -26.9170E-03     813.867E-06     54.2613E-03     138.847E+06    -28.8707E+06    -37.5375E+06    -171.774E+06    -37.3173E+06    -171.501E+06    -29.3639E+06    -2.05444E+06
            1635     86.3919E-03     1.94702E-03     86.3699E-03     53.6338E-03    -26.7474E-03    -26.8865E-03    -26.7456E-03     53.6214E-03    -26.8758E-03     1.94123E-03     54.4494E-03     114.786E+06    -23.4254E+06    -29.7472E+06    -141.197E+06    -29.1907E+06    -140.335E+06    -24.8436E+06    -8.24422E+06
            1636     86.4231E-03     2.92136E-03     86.3737E-03     53.6200E-03    -26.7554E-03    -26.8647E-03    -26.7700E-03     53.5926E-03    -26.8228E-03     2.91310E-03     55.3275E-03     109.159E+06    -23.3038E+06    -27.4456E+06    -134.458E+06    -26.7548E+06    -131.934E+06    -26.5187E+06    -16.1357E+06
            1637     86.4639E-03     3.89442E-03     86.3761E-03     53.6976E-03    -26.8032E-03    -26.8940E-03    -26.8299E-03     53.6467E-03    -26.8163E-03     4.00528E-03     56.7103E-03     115.450E+06    -21.7706E+06    -29.3172E+06    -140.771E+06    -26.3172E+06    -136.734E+06    -28.8080E+06    -21.2472E+06
            1638     86.5188E-03     4.86849E-03     86.3817E-03     53.6674E-03    -26.7838E-03    -26.8838E-03    -26.7814E-03     53.5867E-03    -26.8055E-03     5.06424E-03     58.3494E-03     112.747E+06    -19.4362E+06    -28.6304E+06    -136.487E+06    -24.0889E+06    -131.834E+06    -28.6304E+06    -22.6173E+06
            1639     86.5841E-03     5.84204E-03     86.3867E-03     53.6491E-03    -26.7897E-03    -26.8621E-03    -26.7288E-03     53.5244E-03    -26.7983E-03     6.28292E-03     60.3887E-03     107.122E+06    -17.2017E+06    -24.8122E+06    -127.919E+06    -23.1344E+06    -121.987E+06    -24.8122E+06    -24.7945E+06
            1640     86.6631E-03     6.81572E-03     86.3947E-03     53.5620E-03    -26.7635E-03    -26.8025E-03    -26.5989E-03     53.3761E-03    -26.7812E-03     7.68539E-03     62.8810E-03     108.530E+06    -13.6357E+06    -23.4970E+06    -126.739E+06    -21.9840E+06    -118.390E+06    -23.4970E+06    -29.4543E+06
            1641     86.7529E-03     7.78997E-03     86.4024E-03     53.5053E-03    -26.7069E-03    -26.7834E-03    -26.4936E-03     53.2332E-03    -26.7246E-03     9.27242E-03     66.0600E-03     105.436E+06    -9.49525E+06    -26.4430E+06    -122.226E+06    -19.9341E+06    -111.788E+06    -26.4430E+06    -32.4719E+06
            1642     86.8570E-03     8.76435E-03     86.4137E-03     53.5926E-03    -26.7068E-03    -26.8721E-03    -26.5425E-03     53.2630E-03    -26.7068E-03     10.2710E-03     70.1154E-03     102.304E+06    -6.11594E+06    -23.3764E+06    -115.818E+06    -16.4864E+06    -105.447E+06    -23.3764E+06    -31.9036E+06
            1643     86.9704E-03     9.73786E-03     86.4235E-03     53.6836E-03    -26.6855E-03    -27.0249E-03    -26.5822E-03     53.2409E-03    -26.6855E-03     11.8263E-03     75.3270E-03     99.8772E+06    -1.50367E+06    -22.7626E+06    -109.957E+06    -12.7116E+06    -98.7495E+06    -22.7626E+06    -32.8155E+06
            1644     87.0990E-03     10.7120E-03     86.4378E-03     53.5480E-03    -26.5791E-03    -27.0138E-03    -26.3843E-03     52.9185E-03    -26.5791E-03     14.1538E-03     81.3401E-03     91.7390E+06     3.17417E+06    -36.1024E+06    -100.984E+06    -10.6795E+06    -87.1304E+06    -36.1024E+06    -35.3116E+06
            1645     87.2390E-03     11.6861E-03     86.4527E-03     53.5417E-03    -26.4810E-03    -27.1041E-03    -26.2459E-03     52.6835E-03    -26.4810E-03     16.4840E-03     88.9160E-03     78.0342E+06     4.30272E+06    -45.4604E+06    -85.2131E+06    -10.3155E+06    -70.5950E+06    -45.4604E+06    -32.9264E+06
            1646     87.3933E-03     12.6606E-03     86.4714E-03     54.1285E-03    -26.3862E-03    -27.7648E-03    -26.2300E-03     52.5937E-03    -26.3862E-03     21.8738E-03     100.798E-03     63.1135E+06     8.11048E+06    -39.5759E+06    -63.4391E+06    -10.1435E+06    -34.8972E+06    -49.8637E+06    -26.0247E+06
            1647     87.5659E-03     13.6341E-03     86.4980E-03     54.3833E-03    -26.3087E-03    -28.0741E-03    -25.8086E-03     52.1178E-03    -26.3087E-03     26.9103E-03     117.288E-03     73.5773E+06     37.9574E+06    -23.0444E+06    -43.5894E+06    -9.95965E+06     24.8726E+06    -43.5894E+06    -18.8017E+06
            1648     87.7520E-03     14.6098E-03     86.5273E-03     57.1425E-03    -26.1383E-03    -31.0015E-03    -25.5337E-03     51.6747E-03    -26.1383E-03     40.9474E-03     148.544E-03     131.488E+06     96.4545E+06    -11.2035E+06    -49.8095E+06    -9.23710E+06     94.4881E+06    -49.8095E+06    -12.0339E+06
            1649     87.9738E-03     15.5843E-03     86.5825E-03     68.0451E-03    -26.1044E-03    -41.9388E-03    -25.8752E-03     51.9815E-03    -26.1044E-03     76.0829E-03     218.573E-03     178.974E+06     155.056E+06    -3.47665E+06    -36.8830E+06    -8.21977E+06     154.742E+06    -31.8256E+06    -4.77907E+06
            1650     88.2539E-03     16.5618E-03     86.6859E-03     63.5709E-03    -25.3353E-03    -38.2330E-03    -24.9912E-03     51.4475E-03    -26.4537E-03     55.7523E-03     225.956E-03     189.054E+06     201.158E+06     59.4131E+06    -5.24311E+06    -5.23921E+06     201.154E+06     59.4131E+06    -683.869E+03
            1651     87.4285E-03     973.442E-06     87.4231E-03     53.8465E-03    -26.7656E-03    -27.0813E-03    -26.8665E-03     53.8413E-03    -26.9752E-03     616.472E-06     54.2335E-03     129.820E+06    -28.0790E+06    -33.2406E+06    -160.300E+06    -29.9395E+06    -159.543E+06    -32.1375E+06    -3.12375E+06
            1652     87.4473E-03     1.94728E-03     87.4256E-03     53.6675E-03    -26.7354E-03    -26.9324E-03    -26.7814E-03     53.6526E-03    -26.8715E-03     2.12453E-03     54.4829E-03     104.812E+06    -24.1360E+06    -30.3735E+06    -131.859E+06    -26.9831E+06    -130.333E+06    -29.0520E+06    -12.2350E+06
            1653     87.4756E-03     2.92063E-03     87.4268E-03     53.7569E-03    -26.8101E-03    -26.9473E-03    -26.8699E-03     53.7267E-03    -26.8572E-03     3.07224E-03     55.4229E-03     97.2914E+06    -23.0934E+06    -26.2509E+06    -121.913E+06    -26.4011E+06    -119.333E+06    -25.5232E+06    -15.4750E+06
            1654     87.5186E-03     3.89482E-03     87.4319E-03     53.8078E-03    -26.8545E-03    -26.9529E-03    -26.8837E-03     53.7614E-03    -26.8774E-03     3.85097E-03     56.7879E-03     106.659E+06    -20.9893E+06    -25.7435E+06    -129.888E+06    -26.2136E+06    -125.173E+06    -25.2343E+06    -21.9908E+06
            1655     87.5704E-03     4.86795E-03     87.4350E-03     53.7049E-03    -26.8090E-03    -26.8965E-03    -26.7621E-03     53.6222E-03    -26.8607E-03     5.06800E-03     58.3345E-03     110.284E+06    -17.4087E+06    -26.6776E+06    -131.939E+06    -24.4239E+06    -124.924E+06    -26.6776E+06    -27.0372E+06
            1656     87.6372E-03     5.84206E-03     87.4423E-03     53.6307E-03    -26.7899E-03    -26.8441E-03    -26.6706E-03     53.5051E-03    -26.8377E-03     6.34044E-03     60.3448E-03     106.504E+06    -11.3661E+06    -22.3133E+06    -122.883E+06    -19.3979E+06    -114.851E+06    -22.3133E+06    -28.5023E+06
            1657     87.7132E-03     6.81596E-03     87.4480E-03     53.6338E-03    -26.7987E-03    -26.8368E-03    -26.6338E-03     53.4540E-03    -26.8219E-03     7.54200E-03     63.0002E-03     106.203E+06    -7.82002E+06    -17.9924E+06    -118.719E+06    -16.9060E+06    -109.634E+06    -17.9924E+06    -30.3342E+06
            1658     87.8037E-03     7.78969E-03     87.4575E-03     53.6064E-03    -26.7695E-03    -26.8335E-03    -26.5660E-03     53.3432E-03    -26.7737E-03     9.15074E-03     66.2221E-03     102.987E+06    -6.24280E+06    -20.7475E+06    -115.634E+06    -17.9160E+06    -103.961E+06    -20.7475E+06    -33.6654E+06
            1659     87.9048E-03     8.76337E-03     87.4669E-03     53.5493E-03    -26.7181E-03    -26.8291E-03    -26.4957E-03     53.2232E-03    -26.7253E-03     10.2120E-03     70.0815E-03     104.058E+06    -2.42794E+06    -24.1984E+06    -115.459E+06    -16.7894E+06    -101.097E+06    -24.1984E+06    -37.4294E+06
            1660     88.0193E-03     9.73773E-03     87.4790E-03     53.5348E-03    -26.6773E-03    -26.8860E-03    -26.4305E-03     53.0865E-03    -26.6845E-03     11.8916E-03     75.1983E-03     101.868E+06     3.68698E+06    -24.3057E+06    -109.007E+06    -12.0763E+06    -93.2433E+06    -24.3057E+06    -38.7736E+06
            1661     88.1443E-03     10.7116E-03     87.4910E-03     53.5059E-03    -26.6035E-03    -26.9430E-03    -26.3224E-03     52.8852E-03    -26.6035E-03     14.0472E-03     81.4293E-03     92.4479E+06     5.55880E+06    -31.7442E+06    -99.2596E+06    -10.0306E+06    -83.6702E+06    -31.7442E+06    -37.1993E+06
            1662     88.2839E-03     11.6865E-03     87.5070E-03     53.5846E-03    -26.5022E-03    -27.1058E-03    -26.2372E-03     52.7161E-03    -26.5022E-03     16.5615E-03     89.0975E-03     80.8389E+06     4.48171E+06    -43.2473E+06    -88.1095E+06    -11.5938E+06    -72.0340E+06    -43.2473E+06    -34.8926E+06
            1663     88.4363E-03     12.6605E-03     87.5254E-03     54.0052E-03    -26.3928E-03    -27.6201E-03    -26.0864E-03     52.4716E-03    -26.3928E-03     21.8706E-03     100.800E-03     67.4236E+06     8.07925E+06    -45.0330E+06    -66.9022E+06    -11.5747E+06    -41.1469E+06    -51.1343E+06    -30.1601E+06
            1664     88.6076E-03     13.6359E-03     87.5521E-03     54.1282E-03    -26.2933E-03    -27.8309E-03    -25.5754E-03     51.8727E-03    -26.2933E-03     26.7600E-03     117.196E-03     76.0363E+06     37.3439E+06    -27.7091E+06    -45.8212E+06    -8.97834E+06     18.6132E+06    -45.8212E+06    -22.8741E+06
            1665     88.7903E-03     14.6107E-03     87.5799E-03     57.0042E-03    -26.1005E-03    -30.9013E-03    -25.4213E-03     51.5242E-03    -26.1005E-03     40.9666E-03     148.719E-03     129.341E+06     91.0186E+06    -11.3580E+06    -54.1631E+06    -8.07243E+06     87.7330E+06    -54.1631E+06    -15.7641E+06
            1666     89.0122E-03     15.5867E-03     87.6369E-03     68.1693E-03    -26.0609E-03    -42.1068E-03    -26.1352E-03     52.1977E-03    -26.0609E-03     76.0853E-03     218.536E-03     175.920E+06     147.704E+06    -5.98320E+06    -41.5752E+06    -8.38906E+06     147.049E+06    -38.5144E+06    -7.86538E+06
            1667     89.2885E-03     16.5590E-03     87.7396E-03     63.5691E-03    -25.1736E-03    -38.3942E-03    -25.1553E-03     51.5823E-03    -26.4256E-03     55.2592E-03     225.568E-03     188.608E+06     198.510E+06     56.2995E+06    -7.34425E+06    -5.56680E+06     198.470E+06     54.5625E+06    -1.27266E+06
            1668     88.4837E-03     973.319E-06     88.4783E-03     53.7697E-03    -26.7276E-03    -27.0424E-03    -26.9432E-03     53.7647E-03    -26.8217E-03     691.747E-06     54.1253E-03     121.068E+06    -18.4756E+06    -25.6309E+06    -142.862E+06    -20.1766E+06    -141.909E+06    -24.8836E+06    -7.48880E+06
            1669     88.5004E-03     1.94746E-03     88.4790E-03     53.8300E-03    -26.7771E-03    -27.0527E-03    -26.9474E-03     53.8136E-03    -26.8661E-03     2.20111E-03     54.6281E-03     98.1226E+06    -21.0007E+06    -27.3907E+06    -122.087E+06    -24.1471E+06    -119.907E+06    -26.4249E+06    -14.2717E+06
            1670     88.5313E-03     2.92099E-03     88.4831E-03     53.8883E-03    -26.8945E-03    -26.9928E-03    -26.9572E-03     53.8580E-03    -26.8998E-03     3.11453E-03     55.5634E-03     91.5399E+06    -19.5208E+06    -23.4013E+06    -112.915E+06    -22.9785E+06    -109.676E+06    -23.1828E+06    -16.8956E+06
            1671     88.5712E-03     3.89380E-03     88.4856E-03     53.8628E-03    -26.8955E-03    -26.9652E-03    -26.8795E-03     53.8152E-03    -26.9336E-03     3.86694E-03     56.8706E-03     99.3321E+06    -16.4536E+06    -18.6859E+06    -116.875E+06    -21.4397E+06    -111.889E+06    -18.6859E+06    -21.6861E+06
            1672     88.6245E-03     4.86803E-03     88.4907E-03     53.7779E-03    -26.8611E-03    -26.9153E-03    -26.7798E-03     53.6966E-03    -26.9153E-03     5.05076E-03     58.4108E-03     105.800E+06    -12.4746E+06    -20.1702E+06    -121.746E+06    -20.9790E+06    -113.242E+06    -20.1702E+06    -28.9702E+06
            1673     88.6881E-03     5.84157E-03     88.4956E-03     53.6660E-03    -26.8108E-03    -26.8570E-03    -26.6844E-03     53.5396E-03    -26.8570E-03     6.33137E-03     60.3288E-03     104.247E+06    -8.01151E+06    -24.5187E+06    -119.446E+06    -19.6300E+06    -107.827E+06    -24.5187E+06    -33.7681E+06
            1674     88.7655E-03     6.81541E-03     88.5035E-03     53.6695E-03    -26.8100E-03    -26.8603E-03    -26.6592E-03     53.4932E-03    -26.8349E-03     7.49522E-03     63.0016E-03     104.008E+06    -4.15398E+06    -20.8744E+06    -115.377E+06    -15.5586E+06    -103.972E+06    -20.8744E+06    -33.4334E+06
            1675     88.8531E-03     7.78936E-03     88.5110E-03     53.6728E-03    -26.7881E-03    -26.8804E-03    -26.5998E-03     53.4092E-03    -26.8051E-03     9.13698E-03     66.2822E-03     100.656E+06     601.698E+03    -17.5096E+06    -107.762E+06    -12.0259E+06    -95.1345E+06    -17.5096E+06    -34.4773E+06
            1676     88.9550E-03     8.76343E-03     88.5223E-03     53.5034E-03    -26.7003E-03    -26.8023E-03    -26.4179E-03     53.1712E-03    -26.7525E-03     10.3023E-03     70.0117E-03     102.923E+06     5.18115E+06    -19.8917E+06    -107.872E+06    -11.3919E+06    -91.2985E+06    -19.8917E+06    -39.8903E+06
            1677     89.0654E-03     9.73749E-03     88.5315E-03     53.3969E-03    -26.6488E-03    -26.7795E-03    -26.2912E-03     52.9439E-03    -26.6841E-03     11.9181E-03     74.9821E-03     102.178E+06     5.36248E+06    -26.7950E+06    -108.816E+06    -12.7765E+06    -90.6774E+06    -26.7950E+06    -41.6985E+06
            1678     89.1920E-03     10.7123E-03     88.5464E-03     53.4766E-03    -26.6024E-03    -26.9162E-03    -26.3065E-03     52.8668E-03    -26.6024E-03     13.9397E-03     81.3437E-03     92.2939E+06     5.10486E+06    -34.2272E+06    -100.037E+06    -13.0860E+06    -81.8460E+06    -34.2272E+06    -39.7010E+06
            1679     89.3276E-03     11.6856E-03     88.5599E-03     53.6009E-03    -26.5082E-03    -27.1104E-03    -26.2397E-03     52.7302E-03    -26.5082E-03     16.5402E-03     89.0153E-03     84.3335E+06     6.97918E+06    -43.6864E+06    -89.4436E+06    -11.3885E+06    -71.0759E+06    -43.6864E+06    -37.7864E+06
            1680     89.4801E-03     12.6605E-03     88.5799E-03     53.8972E-03    -26.3875E-03    -27.5193E-03    -26.0218E-03     52.3998E-03    -26.3875E-03     21.6694E-03     100.716E-03     74.9434E+06     11.8323E+06    -50.3269E+06    -70.2331E+06    -10.3738E+06    -44.6323E+06    -53.7217E+06    -34.4212E+06
            1681     89.6473E-03     13.6348E-03     88.6043E-03     54.1073E-03    -26.2903E-03    -27.8225E-03    -25.7052E-03     51.9899E-03    -26.2903E-03     25.9637E-03     117.221E-03     80.1437E+06     37.3750E+06    -34.1816E+06    -48.8752E+06    -9.25402E+06     12.4474E+06    -48.8752E+06    -28.8393E+06
            1682     89.8303E-03     14.6105E-03     88.6341E-03     56.9272E-03    -26.1113E-03    -30.8156E-03    -25.5416E-03     51.6532E-03    -26.1113E-03     40.0974E-03     148.882E-03     125.868E+06     85.0250E+06    -13.1470E+06    -56.3985E+06    -7.38393E+06     79.2620E+06    -56.3985E+06    -19.7911E+06
            1683     90.0485E-03     15.5845E-03     88.6897E-03     67.8960E-03    -26.0317E-03    -41.8650E-03    -25.7679E-03     51.7989E-03    -26.0317E-03     75.9279E-03     218.855E-03     172.103E+06     139.343E+06    -8.45832E+06    -46.7258E+06    -7.52177E+06     138.406E+06    -46.7258E+06    -9.52460E+06
            1684     90.3267E-03     16.5621E-03     88.7953E-03     63.3639E-03    -25.0890E-03    -38.2763E-03    -24.8092E-03     51.1708E-03    -26.3630E-03     54.9330E-03     224.972E-03     188.067E+06     193.507E+06     51.1880E+06    -12.4422E+06    -6.05388E+06     193.434E+06     44.8731E+06    -2.29282E+06
            1685     89.5384E-03     974.586E-06     89.5331E-03     53.7772E-03    -26.6015E-03    -27.1763E-03    -27.1668E-03     53.7728E-03    -26.6067E-03     1.14441E-03     54.1083E-03     111.731E+06    -12.4746E+06    -21.1842E+06    -128.278E+06    -17.0215E+06    -127.523E+06    -17.3926E+06    -8.90248E+06
            1686     89.5559E-03     1.94673E-03     89.5347E-03     54.1144E-03    -26.9155E-03    -27.1991E-03    -27.1730E-03     54.1008E-03    -26.9280E-03     2.01475E-03     54.9196E-03     92.1020E+06    -13.9207E+06    -18.9858E+06    -108.419E+06    -17.1231E+06    -106.280E+06    -17.9227E+06    -13.2548E+06
            1687     89.5850E-03     2.92028E-03     89.5374E-03     53.8322E-03    -26.8519E-03    -26.9790E-03    -26.8343E-03     53.8035E-03    -26.9679E-03     3.01050E-03     55.5312E-03     88.2832E+06    -13.0651E+06    -17.6448E+06    -103.524E+06    -17.6563E+06    -99.2485E+06    -17.3291E+06    -18.9570E+06
            1688     89.6256E-03     3.89465E-03     89.5409E-03     53.8003E-03    -26.8319E-03    -26.9668E-03    -26.8020E-03     53.7490E-03    -26.9454E-03     4.01838E-03     56.8100E-03     93.5595E+06    -9.42079E+06    -14.4477E+06    -105.346E+06    -15.5631E+06    -99.2041E+06    -14.4477E+06    -23.3589E+06
            1689     89.6771E-03     4.86768E-03     89.5449E-03     53.8542E-03    -26.9055E-03    -26.9475E-03    -26.8442E-03     53.7715E-03    -26.9261E-03     5.13288E-03     58.5118E-03     99.2351E+06    -5.05604E+06    -13.7770E+06    -108.278E+06    -13.9910E+06    -99.3428E+06    -13.7770E+06    -28.8489E+06
            1690     89.7412E-03     5.84154E-03     89.5508E-03     53.7498E-03    -26.8670E-03    -26.8837E-03    -26.7344E-03     53.6172E-03    -26.8836E-03     6.47893E-03     60.4225E-03     101.426E+06    -2.67013E+06    -18.5120E+06    -110.989E+06    -15.2055E+06    -98.4532E+06    -18.5120E+06    -34.5169E+06
            1691     89.8162E-03     6.81540E-03     89.5573E-03     53.7242E-03    -26.8347E-03    -26.8923E-03    -26.6930E-03     53.5308E-03    -26.8406E-03     7.86392E-03     63.0151E-03     104.191E+06     168.360E+03    -21.9230E+06    -113.213E+06    -14.8643E+06    -98.1799E+06    -21.9230E+06    -38.1419E+06
            1692     89.9043E-03     7.78910E-03     89.5662E-03     53.6368E-03    -26.7665E-03    -26.8547E-03    -26.5504E-03     53.3690E-03    -26.8030E-03     9.22680E-03     66.2226E-03     101.018E+06     6.87960E+06    -18.3381E+06    -104.295E+06    -10.3240E+06    -87.0918E+06    -18.3381E+06    -39.8226E+06
            1693     90.0033E-03     8.76324E-03     89.5756E-03     53.5045E-03    -26.7058E-03    -26.7802E-03    -26.3815E-03     53.1802E-03    -26.7802E-03     10.1772E-03     70.0522E-03     101.205E+06     9.98350E+06    -13.0186E+06    -100.645E+06    -7.29827E+06    -83.3629E+06    -13.0186E+06    -40.0467E+06
            1694     90.1141E-03     9.73757E-03     89.5865E-03     53.5182E-03    -26.6765E-03    -26.8625E-03    -26.3834E-03     53.0770E-03    -26.7145E-03     11.7840E-03     75.1472E-03     102.199E+06     9.82055E+06    -20.6457E+06    -103.582E+06    -7.92144E+06    -85.8399E+06    -20.6457E+06    -41.0744E+06
            1695     90.2375E-03     10.7113E-03     89.5995E-03     53.4655E-03    -26.6261E-03    -26.8821E-03    -26.2785E-03     52.8619E-03    -26.6261E-03     13.8605E-03     81.4660E-03     96.2577E+06     11.1219E+06    -30.9245E+06    -98.7579E+06    -9.10479E+06    -78.5313E+06    -30.9245E+06    -42.5279E+06
            1696     90.3736E-03     11.6865E-03     89.6148E-03     53.5059E-03    -26.5333E-03    -26.9988E-03    -26.1442E-03     52.6513E-03    -26.5333E-03     16.3849E-03     89.0388E-03     90.0979E+06     11.7996E+06    -39.7788E+06    -91.1036E+06    -9.44417E+06    -69.8598E+06    -39.7788E+06    -41.6040E+06
            1697     90.5222E-03     12.6606E-03     89.6325E-03     53.8921E-03    -26.3863E-03    -27.5122E-03    -26.0070E-03     52.3869E-03    -26.3863E-03     21.6719E-03     100.638E-03     82.3992E+06     16.4746E+06    -50.8784E+06    -73.8393E+06    -8.43605E+06    -46.4064E+06    -53.4007E+06    -38.9592E+06
            1698     90.6903E-03     13.6352E-03     89.6594E-03     54.3605E-03    -26.2861E-03    -28.0749E-03    -25.8327E-03     52.1184E-03    -26.2861E-03     26.7539E-03     117.468E-03     84.8566E+06     38.9213E+06    -37.5333E+06    -52.1130E+06    -7.28640E+06     7.20810E+06    -50.6468E+06     -33.604E+06
            1699     90.8689E-03     14.6090E-03     89.6869E-03     57.0792E-03    -26.1111E-03    -30.9674E-03    -25.5222E-03     51.6340E-03    -26.1111E-03     40.8733E-03     148.470E-03     121.393E+06     76.5421E+06    -15.3548E+06    -60.3197E+06    -6.87079E+06     68.0581E+06    -60.3197E+06    -23.5697E+06
            1700     91.0871E-03     15.5857E-03     89.7438E-03     67.8139E-03    -25.9810E-03    -41.8329E-03    -25.3934E-03     51.3744E-03    -25.9810E-03     76.5389E-03     218.162E-03     167.773E+06     128.014E+06    -7.84206E+06    -57.3556E+06    -6.24405E+06     126.416E+06    -57.3556E+06    -11.3302E+06
            1701     91.3595E-03     16.5609E-03     89.8460E-03     63.3891E-03    -25.0899E-03    -38.2997E-03    -24.6705E-03     50.9535E-03    -26.2835E-03     55.0494E-03     224.908E-03     187.600E+06     189.059E+06     49.5586E+06    -19.8268E+06    -4.59268E+06     188.965E+06     34.4188E+06    -3.53563E+06
            1702     90.5931E-03     973.056E-06     90.5879E-03     54.0392E-03    -26.7094E-03    -27.3304E-03    -27.1471E-03     54.0325E-03    -26.8860E-03     1.34479E-03     54.3786E-03     105.060E+06    -4.88123E+06    -14.8349E+06    -114.562E+06    -11.0425E+06    -113.480E+06    -9.75600E+06    -10.2619E+06
            1703     90.6114E-03     1.94707E-03     90.5905E-03     54.0176E-03    -26.8629E-03    -27.1551E-03    -26.9987E-03     54.0030E-03    -27.0047E-03     2.13887E-03     54.8312E-03     87.9650E+06    -4.82201E+06    -11.7614E+06    -96.0066E+06    -8.99707E+06    -94.1819E+06    -9.41101E+06    -12.1940E+06
            1704     90.6389E-03     2.92047E-03     90.5919E-03     53.8876E-03    -26.8732E-03    -27.0142E-03    -26.8745E-03     53.8586E-03    -26.9839E-03     2.99948E-03     55.5756E-03     83.2125E+06    -5.34079E+06    -9.79176E+06    -90.6264E+06     -9.9157E+06    -86.3672E+06    -9.47602E+06    -17.8599E+06
            1705     90.6792E-03     3.89399E-03     90.5955E-03     53.7592E-03    -26.7727E-03    -26.9866E-03    -26.7565E-03     53.7070E-03    -26.9506E-03     4.06711E-03     56.7305E-03     87.6349E+06    -3.03228E+06    -9.03895E+06    -93.4720E+06    -10.8245E+06    -85.6798E+06    -9.03895E+06    -25.2132E+06
            1706     90.7308E-03     4.86808E-03     90.6001E-03     53.7965E-03    -26.8321E-03    -26.9646E-03    -26.7931E-03     53.7141E-03    -26.9213E-03     5.11589E-03     58.4347E-03     95.4264E+06     2.08870E+06    -8.22526E+06    -98.0570E+06    -8.66804E+06    -87.3002E+06    -8.22526E+06    -30.8440E+06
            1707     90.7932E-03     5.84166E-03     90.6050E-03     53.8280E-03    -26.8970E-03    -26.9309E-03    -26.7922E-03     53.7012E-03    -26.9089E-03     6.35559E-03     60.5518E-03     100.841E+06     6.59372E+06    -6.29406E+06    -100.057E+06    -5.96559E+06    -87.4981E+06    -6.29406E+06    -34.3532E+06
            1708     90.8684E-03     6.81540E-03     90.6125E-03     53.7231E-03    -26.8262E-03    -26.8964E-03    -26.6669E-03     53.5290E-03    -26.8617E-03     7.85472E-03     63.0567E-03     104.652E+06     9.98385E+06    -11.1686E+06    -103.422E+06    -6.20860E+06      -87.23E+06    -11.1686E+06    -39.4567E+06
            1709     90.9546E-03     7.78927E-03     90.6205E-03     53.5995E-03    -26.7329E-03    -26.8539E-03    -26.5292E-03     53.3274E-03    -26.7856E-03     9.31581E-03     66.1637E-03     101.966E+06     12.7670E+06    -17.4786E+06    -100.864E+06    -7.66971E+06    -80.4278E+06    -17.4786E+06    -43.5948E+06
            1710     91.0529E-03     8.76333E-03     90.6302E-03     53.5793E-03    -26.7402E-03    -26.8225E-03    -26.4585E-03     53.2446E-03    -26.7696E-03     10.3416E-03     70.1580E-03     101.961E+06     12.5139E+06    -13.2265E+06    -99.6410E+06    -6.75862E+06    -80.3685E+06    -13.2265E+06    -42.1617E+06
            1711     91.1620E-03     9.73719E-03     90.6405E-03     53.5472E-03    -26.7102E-03    -26.8471E-03    -26.3844E-03     53.0944E-03    -26.7201E-03     11.9664E-03     75.2147E-03     100.225E+06     13.8572E+06    -16.4444E+06    -97.3929E+06    -5.49711E+06    -78.0386E+06    -16.4444E+06    -41.9959E+06
            1712     91.2846E-03     10.7118E-03     90.6540E-03     53.4830E-03    -26.6353E-03    -26.8788E-03    -26.2595E-03     52.8637E-03    -26.6353E-03     14.0272E-03     81.4936E-03     97.0910E+06     15.6925E+06    -25.8617E+06    -95.1597E+06    -5.58512E+06    -73.8820E+06    -25.8617E+06    -43.6421E+06
            1713     91.4180E-03     11.6855E-03     90.6681E-03     53.4251E-03    -26.5396E-03    -26.9150E-03    -26.0419E-03     52.5519E-03    -26.5396E-03     16.5579E-03     89.0991E-03     94.7595E+06     17.5864E+06    -34.9962E+06    -90.6693E+06    -5.52920E+06    -67.5537E+06    -34.9962E+06    -44.1962E+06
            1714     91.5668E-03     12.6603E-03     90.6873E-03     53.7735E-03    -26.3851E-03    -27.4000E-03    -25.8481E-03     52.2216E-03    -26.3851E-03     21.9328E-03     100.386E-03     88.5242E+06     22.9895E+06    -49.2578E+06    -74.0059E+06    -5.23639E+06    -45.7800E+06    -49.2578E+06    -43.6827E+06
            1715     91.7305E-03     13.6356E-03     90.7114E-03     54.2043E-03    -26.2724E-03    -27.9318E-03    -25.6069E-03     51.8794E-03    -26.2724E-03     27.1880E-03     117.540E-03     86.1661E+06     39.1963E+06    -39.3986E+06    -52.6799E+06    -4.39185E+06     156.893E+03    -48.6472E+06    -37.7693E+06
            1716     91.9115E-03     14.6113E-03     90.7427E-03     56.8913E-03    -26.0824E-03    -30.8109E-03    -25.4521E-03     51.5325E-03    -26.0824E-03     40.6561E-03     148.535E-03     115.375E+06     69.4110E+06    -16.1118E+06    -60.6025E+06    -3.70854E+06     57.0078E+06    -60.6025E+06    -26.9379E+06
            1717     92.1217E-03     15.5860E-03     90.7936E-03     67.7571E-03    -25.9086E-03    -41.8505E-03    -25.6126E-03     51.5192E-03    -25.9086E-03     76.0412E-03     217.899E-03     163.567E+06     116.215E+06    -7.65344E+06    -68.0140E+06    -4.92679E+06     113.488E+06    -68.0140E+06    -14.6091E+06
            1718     92.3987E-03     16.5628E-03     90.9021E-03     63.3514E-03    -25.0537E-03    -38.2973E-03    -24.7741E-03     50.9743E-03    -26.1997E-03     55.2089E-03     225.339E-03     186.653E+06     181.879E+06     46.2906E+06    -29.2183E+06    -3.83440E+06     181.613E+06     21.1720E+06    -4.96752E+06
            1719     91.6485E-03     973.398E-06     91.6433E-03     54.2243E-03    -26.9415E-03    -27.2830E-03    -26.9351E-03     54.2180E-03    -27.2830E-03     1.31865E-03     54.5720E-03     102.930E+06     3.59160E+06    -2.45536E+06    -102.178E+06    -491.412E+03    -101.006E+06     454.841E+03    -10.7016E+06
            1720     91.6653E-03     1.94712E-03     91.6447E-03     53.8371E-03    -26.7787E-03    -27.0588E-03    -26.7806E-03     53.8233E-03    -27.0432E-03     2.05619E-03     54.6636E-03     84.3516E+06     4.98762E+06    -870.273E+03    -82.0911E+06    -237.818E+03    -79.8725E+06     2.13664E+06    -12.6248E+06
            1721     91.6940E-03     2.92079E-03     91.6475E-03     53.8903E-03    -26.8837E-03    -27.0073E-03    -26.9020E-03     53.8615E-03    -26.9602E-03     2.98907E-03     55.5826E-03     83.4046E+06     8.38414E+06    -10.0505E+03    -78.6841E+06     2.66575E+06    -73.9380E+06     962.182E+03    -19.0480E+06
            1722     91.7329E-03     3.89421E-03     91.6502E-03     53.8746E-03    -26.8689E-03    -27.0065E-03    -26.8740E-03     53.8218E-03    -26.9485E-03     4.09873E-03     56.8254E-03     87.0702E+06     11.9113E+06     3.11523E+06    -79.0267E+06     4.08743E+06    -71.2029E+06     3.11523E+06    -25.3316E+06
            1723     91.7837E-03     4.86797E-03     91.6545E-03     53.7486E-03    -26.7722E-03    -26.9772E-03    -26.7354E-03     53.6633E-03    -26.9287E-03     5.19800E-03     58.3619E-03     94.9918E+06     13.8707E+06     2.97218E+06    -86.0643E+06     2.79361E+06    -74.9873E+06     2.97218E+06    -31.2085E+06
            1724     91.8465E-03     5.84160E-03     91.6605E-03     53.7185E-03    -26.8040E-03    -26.9147E-03    -26.6999E-03     53.5828E-03    -26.8832E-03     6.55105E-03     60.4316E-03     100.001E+06     15.8154E+06    -367.241E+03    -91.2070E+06     2.26281E+06    -77.6544E+06    -367.241E+03    -35.5791E+06
            1725     91.9195E-03     6.81537E-03     91.6665E-03     53.6445E-03    -26.7912E-03    -26.8535E-03    -26.6164E-03     53.4428E-03    -26.8267E-03     8.00706E-03     62.9267E-03     101.045E+06     18.1311E+06    -4.90033E+06    -92.2546E+06     1.93858E+06    -76.0621E+06    -4.90033E+06    -38.9451E+06
            1726     92.0054E-03     7.78968E-03     91.6750E-03     53.5561E-03    -26.7214E-03    -26.8286E-03    -26.5129E-03     53.2736E-03    -26.7544E-03     9.48016E-03     66.0255E-03     98.2012E+06     17.8633E+06    -12.1174E+06    -91.8073E+06    -1.14622E+06    -72.7977E+06    -12.1174E+06    -41.4651E+06
            1727     92.1022E-03     8.76349E-03     91.6843E-03     53.5185E-03    -26.7185E-03    -26.7973E-03    -26.4384E-03     53.1622E-03    -26.7211E-03     10.6644E-03     69.9483E-03     102.060E+06     17.0777E+06    -14.0426E+06    -96.7706E+06    -4.03808E+06    -75.6548E+06    -14.0426E+06    -44.1518E+06
            1728     92.2106E-03     9.73768E-03     91.6950E-03     53.4261E-03    -26.6618E-03    -26.7748E-03    -26.2866E-03     52.9405E-03    -26.6644E-03     12.3688E-03     74.8748E-03     101.589E+06     20.0446E+06    -16.9337E+06    -94.4038E+06    -2.52929E+06    -71.8299E+06    -16.9337E+06    -45.4583E+06
            1729     92.3308E-03     10.7118E-03     91.7073E-03     53.3771E-03    -26.5709E-03    -26.8286E-03    -26.1532E-03     52.7016E-03    -26.5709E-03     14.6186E-03     81.1148E-03     99.8129E+06     22.8616E+06    -24.6238E+06    -91.7923E+06     -83.633E+03    -68.8471E+06    -24.6238E+06    -45.8553E+06
            1730     92.4643E-03     11.6865E-03     91.7228E-03     53.3795E-03    -26.4653E-03    -26.9519E-03    -26.0223E-03     52.4499E-03    -26.4653E-03     17.1089E-03     88.7397E-03     100.109E+06     26.5632E+06    -35.2833E+06    -87.9919E+06     1.12509E+06    -62.5538E+06    -35.2833E+06    -47.4424E+06
            1731     92.6088E-03     12.6618E-03     91.7391E-03     53.8163E-03    -26.3198E-03    -27.5164E-03    -25.9001E-03     52.2000E-03    -26.3198E-03     22.4035E-03     100.108E-03     96.4693E+06     31.6044E+06    -50.0247E+06    -73.5183E+06     1.29440E+06    -43.2083E+06    -50.0247E+06    -47.3938E+06
            1732     92.7746E-03     13.6358E-03     91.7670E-03     54.1505E-03    -26.2197E-03    -27.9281E-03    -25.5982E-03     51.8206E-03    -26.2197E-03     27.2360E-03     117.131E-03     91.2753E+06     42.1130E+06    -43.0801E+06    -54.1315E+06     1.19520E+06    -6.35501E+06    -49.9388E+06    -42.4998E+06
            1733     92.9484E-03     14.6111E-03     91.7929E-03     56.9343E-03    -26.0575E-03    -30.8778E-03    -25.5023E-03     51.5588E-03    -26.0575E-03     40.6653E-03     148.704E-03     108.745E+06     62.8040E+06    -17.2578E+06    -58.9502E+06     1.62661E+06     43.9197E+06    -58.9502E+06    -30.5458E+06
            1734     93.1637E-03     15.5862E-03     91.8507E-03     67.7805E-03    -25.8528E-03    -41.9308E-03    -25.8859E-03     51.7356E-03    -25.8528E-03     75.8138E-03     217.927E-03     156.662E+06     104.186E+06    -4.67088E+06    -74.6563E+06    -812.827E+03     100.328E+06    -74.6563E+06    -15.7513E+06
            1735     93.4297E-03     16.5616E-03     91.9501E-03     63.2734E-03    -25.0611E-03    -38.2120E-03    -24.9676E-03     51.0904E-03    -26.1225E-03     55.3970E-03     224.882E-03     186.073E+06     173.833E+06     43.3195E+06    -38.6807E+06    -3.22647E+06     173.530E+06     8.16778E+06    -5.18096E+06
            1736     92.7034E-03     973.258E-06     92.6982E-03     54.2178E-03    -26.9554E-03    -27.2623E-03    -27.0697E-03     54.2129E-03    -27.1431E-03     841.935E-06     54.5725E-03     106.665E+06     20.8538E+06     15.8106E+06    -88.1960E+06     15.3647E+06    -87.4126E+06     20.5164E+06    -5.96734E+06
            1737     92.7204E-03     1.94682E-03     92.6999E-03     53.8799E-03    -26.8349E-03    -27.0450E-03    -26.8212E-03     53.8662E-03    -27.0450E-03     2.01701E-03     54.7058E-03     86.9738E+06     22.2478E+06     15.0117E+06    -68.0220E+06     16.0603E+06    -65.5122E+06     18.6894E+06    -13.3765E+06
            1738     92.7479E-03     2.92073E-03     92.7019E-03     53.7198E-03    -26.7753E-03    -26.9454E-03    -26.7593E-03     53.6870E-03    -26.9285E-03     3.18665E-03     55.3907E-03     83.2484E+06     23.6488E+06     11.9514E+06    -64.6990E+06     16.9581E+06    -58.9805E+06     12.9236E+06    -21.3622E+06
            1739     92.7873E-03     3.89459E-03     92.7056E-03     53.7557E-03    -26.8391E-03    -26.9163E-03    -26.8256E-03     53.6988E-03    -26.8729E-03     4.25067E-03     56.6634E-03     85.5354E+06     23.9460E+06     9.37928E+06    -67.7842E+06     16.1719E+06    -60.0101E+06     9.37928E+06    -25.4585E+06
            1740     92.8371E-03     4.86793E-03     92.7094E-03     53.6489E-03    -26.7637E-03    -26.8847E-03    -26.6974E-03     53.5560E-03    -26.8581E-03     5.40854E-03     58.2087E-03     90.8005E+06     24.6951E+06     10.7364E+06    -72.1554E+06     14.5771E+06    -62.0374E+06     10.7364E+06    -29.4933E+06
            1741     92.8984E-03     5.84241E-03     92.7145E-03     53.5074E-03    -26.6826E-03    -26.8256E-03    -26.5446E-03     53.3598E-03    -26.8159E-03     6.83670E-03     60.1357E-03     98.6792E+06     25.4085E+06     8.21086E+06    -80.6825E+06     12.0926E+06    -67.3666E+06     8.21086E+06    -35.1296E+06
            1742     92.9717E-03     6.81641E-03     92.7215E-03     53.5263E-03    -26.7015E-03    -26.8242E-03    -26.5617E-03     53.3120E-03    -26.7497E-03     8.25493E-03     62.6796E-03     99.7247E+06     26.2480E+06     2.52102E+06    -83.1083E+06     10.2933E+06    -67.1536E+06     2.52102E+06    -38.5274E+06
            1743     93.0556E-03     7.79002E-03     92.7289E-03     53.4556E-03    -26.6655E-03    -26.7817E-03    -26.4526E-03     53.1547E-03    -26.6936E-03     9.77013E-03     65.8290E-03     98.5932E+06     27.2632E+06    -1.39872E+06    -82.4753E+06     9.73483E+06    -64.9469E+06    -1.39872E+06    -40.1903E+06
            1744     93.1524E-03     8.76434E-03     92.7392E-03     53.2917E-03    -26.6122E-03    -26.6828E-03    -26.2611E-03     52.9008E-03    -26.6429E-03     11.1327E-03     69.5359E-03     102.572E+06     28.9071E+06    -4.76852E+06    -86.2388E+06     8.72971E+06    -66.0614E+06    -4.76852E+06    -43.6468E+06
            1745     93.2584E-03     9.73869E-03     92.7485E-03     53.2810E-03    -26.5554E-03    -26.7277E-03    -26.1953E-03     52.7512E-03    -26.5580E-03     12.9150E-03     74.5102E-03     105.383E+06     30.4196E+06    -12.2476E+06    -89.4755E+06     6.61212E+06    -65.6680E+06    -12.2476E+06    -47.7621E+06
            1746     93.3785E-03     10.7132E-03     92.7619E-03     53.2809E-03    -26.4621E-03    -26.8224E-03    -26.1114E-03     52.5699E-03    -26.4621E-03     15.0001E-03     80.8567E-03     105.768E+06     32.4664E+06    -20.2031E+06    -89.1561E+06     6.37482E+06    -63.0646E+06    -20.2031E+06    -49.8693E+06
            1747     93.5086E-03     11.6881E-03     92.7753E-03     53.4246E-03    -26.3779E-03    -27.0843E-03    -26.1322E-03     52.4725E-03    -26.3779E-03     17.3436E-03     88.5082E-03     104.381E+06     35.5184E+06    -28.8935E+06    -84.4156E+06     7.12979E+06    -56.0270E+06    -28.8935E+06    -50.9022E+06
            1748     93.6543E-03     12.6616E-03     92.7945E-03     53.8188E-03    -26.2564E-03    -27.5895E-03    -25.9756E-03     52.2049E-03    -26.2564E-03     22.4084E-03     100.113E-03     101.030E+06     37.0261E+06    -45.0824E+06    -74.0196E+06     5.44196E+06    -42.4355E+06    -45.0824E+06    -49.8975E+06
            1749     93.8147E-03     13.6374E-03     92.8182E-03     54.2074E-03    -26.1645E-03    -28.0429E-03    -25.6372E-03     51.8016E-03    -26.1645E-03     27.6665E-03     116.916E-03     92.6671E+06     42.7473E+06    -44.8201E+06    -54.0664E+06     2.76336E+06    -10.7302E+06    -48.1723E+06    -44.9215E+06
            1750     93.9914E-03     14.6120E-03     92.8487E-03     57.2140E-03    -26.0228E-03    -31.1901E-03    -25.7385E-03     51.7624E-03    -26.0228E-03     41.2296E-03     148.858E-03     101.969E+06     53.1140E+06    -24.1610E+06    -59.4900E+06    -592.213E+03     29.2731E+06    -59.2179E+06    -33.3693E+06
            1751     94.1995E-03     15.5880E-03     92.9008E-03     67.8085E-03    -25.8026E-03    -42.0065E-03    -26.0914E-03     51.8933E-03    -25.8026E-03     75.6005E-03     217.943E-03     150.145E+06     91.2148E+06    -8.80958E+06    -81.2418E+06    -3.05616E+06     85.4614E+06    -81.2418E+06    -17.3049E+06
            1752     94.4702E-03     16.5631E-03     93.0069E-03     62.9607E-03    -24.8541E-03    -38.1071E-03    -24.8333E-03     50.8588E-03    -26.0260E-03     55.5925E-03     224.319E-03     184.540E+06     166.322E+06     35.3869E+06    -44.5626E+06    -3.46399E+06     165.951E+06    -5.34069E+06    -5.56212E+06
            1753     93.7593E-03     973.821E-06     93.7543E-03     53.7503E-03    -26.7544E-03    -26.9963E-03    -26.9416E-03     53.7437E-03    -26.8026E-03     979.990E-06     54.1154E-03     105.526E+06     37.6791E+06     26.6307E+06    -72.8517E+06     32.8168E+06    -71.8197E+06     30.4610E+06    -4.93798E+06
            1754     93.7749E-03     1.94731E-03     93.7547E-03     53.7688E-03    -26.7870E-03    -26.9816E-03    -26.8896E-03     53.7518E-03    -26.8621E-03     2.29118E-03     54.5742E-03     88.6739E+06     39.9685E+06     30.0332E+06    -53.1397E+06     34.6344E+06    -50.5111E+06     32.7386E+06    -14.7920E+06
            1755     93.8024E-03     2.92114E-03     93.7569E-03     53.5598E-03    -26.6869E-03    -26.8732E-03    -26.6936E-03     53.5216E-03    -26.8282E-03     3.42905E-03     55.1988E-03     83.2725E+06     36.3674E+06     29.2046E+06    -50.1447E+06     31.9191E+06    -45.6963E+06     29.2046E+06    -18.6222E+06
            1756     93.8410E-03     3.89493E-03     93.7602E-03     53.3877E-03    -26.6359E-03    -26.7510E-03    -26.5694E-03     53.3211E-03    -26.7510E-03     4.58816E-03     56.2659E-03     84.6910E+06     33.7449E+06     21.2009E+06    -56.3373E+06     26.5219E+06    -49.1143E+06     21.2009E+06    -24.0064E+06
            1757     93.8904E-03     4.86937E-03     93.7640E-03     53.3971E-03    -26.6611E-03    -26.7349E-03    -26.5972E-03     53.2936E-03    -26.6953E-03     5.71323E-03     57.8728E-03     88.1985E+06     34.4902E+06     16.9043E+06    -61.1108E+06     24.0621E+06    -50.6827E+06     16.9043E+06    -29.7178E+06
            1758     93.9510E-03     5.84272E-03     93.7691E-03     53.3720E-03    -26.6336E-03    -26.7387E-03    -26.5246E-03     53.2144E-03    -26.6901E-03     7.05618E-03     59.8986E-03     97.0991E+06     36.1875E+06     19.6587E+06    -68.0645E+06     23.4622E+06    -55.3392E+06     19.6587E+06    -34.1162E+06
            1759     94.0229E-03     6.81705E-03     93.7754E-03     53.1808E-03    -26.4928E-03    -26.6846E-03    -26.3090E-03     52.9403E-03    -26.6280E-03     8.67641E-03     62.2060E-03     101.923E+06     37.7034E+06     14.2080E+06    -73.6243E+06     22.4653E+06    -58.3861E+06     14.2080E+06    -38.1822E+06
            1760     94.1071E-03     7.79135E-03     93.7840E-03     53.0858E-03    -26.4272E-03    -26.6482E-03    -26.1881E-03     52.7409E-03    -26.5423E-03     10.4122E-03     65.2772E-03     102.602E+06     39.1837E+06     7.68754E+06    -75.4362E+06     21.4560E+06    -57.7085E+06     7.68754E+06    -41.4377E+06
            1761     94.2007E-03     8.76586E-03     93.7919E-03     53.0753E-03    -26.4654E-03    -26.6153E-03    -26.1440E-03     52.6321E-03    -26.4936E-03     11.8263E-03     69.0910E-03     103.653E+06     39.8957E+06     6.64700E+06    -76.2840E+06     20.5548E+06    -56.9431E+06     6.64700E+06    -43.2471E+06
            1762     94.3077E-03     9.74038E-03     93.8033E-03     53.1405E-03    -26.4230E-03    -26.7372E-03    -26.1578E-03     52.5611E-03    -26.4230E-03     13.5114E-03     74.1660E-03     105.773E+06     41.0313E+06    -31.1552E+03    -79.0024E+06     18.4952E+06    -56.4663E+06    -31.1552E+03    -46.8282E+06
            1763     94.4243E-03     10.7148E-03     93.8144E-03     53.2940E-03    -26.3338E-03    -26.9806E-03    -26.2116E-03     52.5250E-03    -26.3338E-03     15.5929E-03     80.6387E-03     107.731E+06     41.4474E+06    -11.6501E+06    -82.3187E+06     14.9780E+06    -55.8493E+06    -11.6501E+06    -50.6737E+06
            1764     94.5557E-03     11.6886E-03     93.8305E-03     53.4195E-03    -26.2596E-03    -27.1978E-03    -26.1438E-03     52.3654E-03    -26.2596E-03     18.2293E-03     88.2446E-03     103.828E+06     39.2396E+06    -22.2264E+06    -80.5104E+06     10.2277E+06    -51.4985E+06    -22.2264E+06    -51.2513E+06
            1765     94.6974E-03     12.6641E-03     93.8468E-03     53.9020E-03    -26.1581E-03    -27.7704E-03    -26.0819E-03     52.2135E-03    -26.1581E-03     23.0355E-03     99.8811E-03     99.4507E+06     37.6643E+06    -38.7488E+06    -73.0208E+06     5.86307E+06    -41.2195E+06    -38.7488E+06    -49.9258E+06
            1766     94.8580E-03     13.6381E-03     93.8724E-03     54.3922E-03    -26.0954E-03    -28.2990E-03    -25.8556E-03     51.9488E-03    -26.0954E-03     27.9475E-03     117.026E-03     87.2431E+06     38.2089E+06    -43.7244E+06    -53.2818E+06     956.998E+03    -16.0299E+06    -43.7244E+06    -43.9422E+06
            1767     95.0311E-03     14.6139E-03     93.9007E-03     57.5929E-03    -25.9908E-03    -31.6030E-03    -26.0388E-03     52.0288E-03    -25.9908E-03     41.8535E-03     149.202E-03     91.2022E+06     43.8788E+06    -28.3527E+06    -55.9847E+06    -3.56649E+06     17.5453E+06    -54.4374E+06    -33.7768E+06
            1768     95.2408E-03     15.5867E-03     93.9568E-03     67.7848E-03    -25.7460E-03    -42.0386E-03    -26.1826E-03     51.9288E-03    -25.7460E-03     75.5034E-03     218.291E-03     142.925E+06     79.1048E+06    -14.2182E+06    -85.2121E+06    -5.49215E+06     70.3787E+06    -85.2121E+06    -21.9131E+06
            1769     95.5035E-03     16.5633E-03     94.0562E-03     62.2271E-03    -24.5170E-03    -37.7106E-03    -24.3311E-03     50.2277E-03    -25.8971E-03     55.3952E-03     224.128E-03     181.400E+06     155.970E+06     24.9685E+06    -50.1188E+06    -4.07370E+06     154.834E+06    -19.9407E+06    -8.59868E+06
            1770     94.8131E-03     974.287E-06     94.8081E-03     53.1183E-03    -26.3950E-03    -26.7237E-03    -26.6921E-03     53.1120E-03    -26.4204E-03     1.10491E-03     53.4906E-03     102.054E+06     52.1152E+06     40.1367E+06    -55.3631E+06     47.5929E+06    -54.0188E+06     43.3147E+06    -9.32047E+06
            1771     94.8300E-03     1.94822E-03     94.8100E-03     53.2037E-03    -26.5355E-03    -26.6683E-03    -26.6500E-03     53.1854E-03    -26.5355E-03     2.35946E-03     54.0020E-03     84.4277E+06     46.7321E+06     38.5522E+06    -41.3827E+06     43.6994E+06    -38.3500E+06     38.5522E+06    -15.7227E+06
            1772     94.8564E-03     2.92171E-03     94.8114E-03     53.1502E-03    -26.5029E-03    -26.6474E-03    -26.5401E-03     53.1075E-03    -26.5675E-03     3.60981E-03     54.7713E-03     84.5115E+06     48.0053E+06     41.3723E+06    -39.5474E+06     43.9486E+06    -35.4907E+06     41.3723E+06    -18.2762E+06
            1773     94.8943E-03     3.89625E-03     94.8143E-03     52.9886E-03    -26.4209E-03    -26.5680E-03    -26.3769E-03     52.9109E-03    -26.5343E-03     4.92450E-03     55.8182E-03     88.2667E+06     50.7570E+06     40.2419E+06    -42.2244E+06     45.0085E+06    -36.4759E+06     40.2419E+06    -22.0923E+06
            1774     94.9434E-03     4.87001E-03     94.8184E-03     52.9129E-03    -26.4022E-03    -26.5110E-03    -26.3112E-03     52.7823E-03    -26.4714E-03     6.35174E-03     57.3158E-03     91.7058E+06     50.7527E+06     34.5489E+06    -47.9290E+06     41.8616E+06    -39.0379E+06     34.5489E+06    -27.9741E+06
            1775     95.0033E-03     5.84464E-03     94.8234E-03     52.9005E-03    -26.4060E-03    -26.4948E-03    -26.2698E-03     52.6959E-03    -26.4264E-03     7.98212E-03     59.2425E-03     97.3426E+06     49.2747E+06     29.9516E+06    -56.1938E+06     37.6934E+06    -44.6126E+06     29.9516E+06    -32.8287E+06
            1776     95.0743E-03     6.81858E-03     94.8295E-03     52.7221E-03    -26.2805E-03    -26.4386E-03    -26.0585E-03     52.4290E-03    -26.3675E-03     9.55815E-03     61.5085E-03     101.252E+06     48.4245E+06     24.6844E+06    -62.3355E+06     34.4285E+06    -48.3395E+06     24.6844E+06    -36.7298E+06
            1777     95.1562E-03     7.79390E-03     94.8365E-03     52.6224E-03    -26.1982E-03    -26.4212E-03    -25.9218E-03     52.2100E-03    -26.2852E-03     11.3319E-03     64.4399E-03     102.188E+06     47.2768E+06     17.2394E+06    -66.4027E+06     30.4403E+06    -49.5662E+06     17.2394E+06    -40.3002E+06
            1778     95.2512E-03     8.76819E-03     94.8468E-03     52.7334E-03    -26.2338E-03    -26.5045E-03    -25.9845E-03     52.2134E-03    -26.2338E-03     12.7727E-03     68.2406E-03     103.562E+06     46.9362E+06     13.9216E+06    -69.1059E+06     27.3539E+06    -49.5235E+06     13.9216E+06    -43.4373E+06
            1779     95.3545E-03     9.74272E-03     94.8555E-03     52.9276E-03    -26.1877E-03    -26.7667E-03    -26.0722E-03     52.2330E-03    -26.1877E-03     14.7152E-03     73.3584E-03     103.152E+06     46.9902E+06     8.86958E+06    -69.6760E+06     25.2940E+06    -47.9798E+06     8.86958E+06    -45.3710E+06
            1780     95.4730E-03     10.7171E-03     94.8696E-03     53.1590E-03    -26.1273E-03    -27.0745E-03    -26.1703E-03     52.2548E-03    -26.1273E-03     16.9022E-03     79.9261E-03     101.685E+06     44.1450E+06    -2.24790E+06    -72.3609E+06     20.3431E+06    -48.5589E+06    -2.24790E+06    -46.9524E+06
            1781     95.6001E-03     11.6921E-03     94.8824E-03     53.4263E-03    -26.0772E-03    -27.3880E-03    -26.2117E-03     52.2500E-03    -26.0772E-03     19.2860E-03     87.6301E-03     100.337E+06     41.9882E+06    -13.0492E+06    -73.5920E+06     14.8490E+06    -46.4527E+06    -13.0492E+06    -48.9039E+06
            1782     95.7432E-03     12.6660E-03     94.9017E-03     54.0923E-03    -26.0024E-03    -28.1011E-03    -26.2723E-03     52.2635E-03    -26.0024E-03     24.0604E-03     99.2298E-03     96.1982E+06     39.2488E+06    -29.3200E+06    -69.4243E+06     9.89694E+06    -40.0724E+06    -29.3200E+06    -48.1352E+06
            1783     95.9005E-03     13.6405E-03     94.9254E-03     54.7503E-03    -25.9630E-03    -28.7804E-03    -26.1503E-03     52.1201E-03    -25.9630E-03     29.0897E-03     116.502E-03     83.1824E+06     35.7867E+06    -37.1678E+06    -53.9202E+06     5.32328E+06    -23.4568E+06    -37.1678E+06    -41.8210E+06
            1784     96.0729E-03     14.6143E-03     94.9549E-03     57.9226E-03    -25.8680E-03    -32.0551E-03    -25.8690E-03     51.7366E-03    -25.8680E-03     44.0296E-03     148.443E-03     84.7775E+06     41.4992E+06    -25.5750E+06    -52.1324E+06     2.61135E+06     9.72638E+06    -48.5460E+06    -33.3047E+06
            1785     96.2811E-03     15.5905E-03     95.0105E-03     68.2585E-03    -25.6096E-03    -42.6503E-03    -26.2036E-03     51.8118E-03    -25.6096E-03     77.5364E-03     217.672E-03     133.162E+06     70.5397E+06    -11.3715E+06    -82.9149E+06     217.241E+03     58.9509E+06    -82.9149E+06    -24.5383E+06
            1786     96.5401E-03     16.5657E-03     95.1082E-03     62.4586E-03    -24.4057E-03    -38.0526E-03    -24.6800E-03     50.3948E-03    -25.7146E-03     55.6796E-03     223.522E-03     174.218E+06     143.663E+06     17.8991E+06    -52.4015E+06    -1.71386E+06     141.548E+06    -30.6733E+06    -11.8566E+06
            1787     95.8675E-03     974.145E-06     95.8625E-03     52.3221E-03    -25.9655E-03    -26.3560E-03    -26.2521E-03     52.3099E-03    -26.0572E-03     1.55611E-03     52.6837E-03     100.364E+06     65.4872E+06     56.4025E+06    -39.0748E+06     60.3976E+06    -38.1867E+06     60.6041E+06    -9.04805E+06
            1788     95.8834E-03     1.94853E-03     95.8636E-03     52.4305E-03    -26.1493E-03    -26.2810E-03    -26.2562E-03     52.4057E-03    -26.1493E-03     2.72443E-03     53.2038E-03     84.9432E+06     61.4481E+06     54.3415E+06    -26.7930E+06     57.9914E+06    -24.3598E+06     55.3651E+06    -13.3113E+06
            1789     95.9101E-03     2.92354E-03     95.8655E-03     52.3215E-03    -26.1012E-03    -26.2205E-03    -26.1352E-03     52.2722E-03    -26.1371E-03     3.85730E-03     53.8918E-03     84.2648E+06     60.6273E+06     48.1056E+06    -29.0935E+06     55.3722E+06    -23.8384E+06     48.1056E+06    -20.7770E+06
            1790     95.9475E-03     3.89733E-03     95.8683E-03     52.1358E-03    -26.0028E-03    -26.1331E-03    -25.9343E-03     52.0337E-03    -26.0994E-03     5.54409E-03     54.8362E-03     88.7347E+06     62.4259E+06     46.4319E+06    -33.1327E+06     55.6921E+06    -26.3989E+06     46.4319E+06    -24.3713E+06
            1791     95.9956E-03     4.87256E-03     95.8718E-03     52.0095E-03    -25.9584E-03    -26.0519E-03    -25.7808E-03     51.8319E-03    -26.0519E-03     7.35523E-03     56.2194E-03     92.4616E+06     63.0016E+06     47.6402E+06    -36.1431E+06     55.6703E+06    -28.8118E+06     47.6402E+06    -25.9131E+06
            1792     96.0550E-03     5.84716E-03     95.8769E-03     51.9906E-03    -25.9615E-03    -26.0290E-03    -25.7327E-03     51.7271E-03    -25.9943E-03     9.00463E-03     58.0477E-03     98.0774E+06     61.4595E+06     44.7336E+06    -43.7991E+06     52.2234E+06    -34.5630E+06     44.7336E+06    -29.6251E+06
            1793     96.1250E-03     6.82244E-03     95.8826E-03     52.0877E-03    -25.9407E-03    -26.1422E-03    -25.7674E-03     51.7129E-03    -25.9407E-03     10.7275E-03     60.4760E-03     101.864E+06     59.6750E+06     39.6829E+06    -50.5946E+06     47.8129E+06    -38.7325E+06     39.6829E+06    -34.0173E+06
            1794     96.2064E-03     7.79634E-03     95.8900E-03     52.1403E-03    -25.8842E-03    -26.2572E-03    -25.7207E-03     51.6038E-03    -25.8842E-03     12.8233E-03     63.4049E-03     103.210E+06     58.8703E+06     32.7060E+06    -54.8001E+06     44.3602E+06    -40.2899E+06     32.7060E+06    -37.8220E+06
            1795     96.2994E-03     8.77184E-03     95.8991E-03     52.2308E-03    -25.8324E-03    -26.4022E-03    -25.7125E-03     51.5410E-03    -25.8324E-03     14.5901E-03     66.9992E-03     103.388E+06     56.5100E+06     25.0333E+06    -58.9461E+06     39.7397E+06    -42.1759E+06     25.0333E+06    -40.5231E+06
            1796     96.4037E-03     9.74652E-03     95.9098E-03     52.5310E-03    -25.7877E-03    -26.7496E-03    -25.8649E-03     51.6462E-03    -25.7877E-03     16.5642E-03     72.0095E-03     99.0859E+06     50.5855E+06     15.8322E+06    -61.1102E+06     32.4016E+06    -42.9263E+06     15.8322E+06    -41.0611E+06
            1797     96.5191E-03     10.7215E-03     95.9218E-03     52.9652E-03    -25.7496E-03    -27.2422E-03    -26.1049E-03     51.8279E-03    -25.7496E-03     18.8870E-03     78.5476E-03     95.1562E+06     46.3630E+06     4.50913E+06    -62.4128E+06     25.6779E+06    -41.7277E+06     4.50913E+06    -42.5376E+06
            1798     96.6474E-03     11.6952E-03     95.9372E-03     53.4688E-03    -25.7304E-03    -27.7748E-03    -26.3327E-03     52.0267E-03    -25.7304E-03     21.3404E-03     86.3341E-03     95.5030E+06     45.7844E+06    -7.51452E+06    -64.1288E+06     20.3966E+06    -38.7410E+06    -7.51452E+06    -46.2189E+06
            1799     96.7870E-03     12.6697E-03     95.9542E-03     54.2911E-03    -25.7096E-03    -28.5879E-03    -26.4097E-03     52.1128E-03    -25.7096E-03     26.2707E-03     98.1769E-03     95.1069E+06     42.8324E+06    -22.7138E+06    -65.9585E+06     16.3802E+06    -39.5062E+06    -22.7138E+06    -46.6198E+06
            1800     96.9445E-03     13.6442E-03     95.9795E-03     55.0053E-03    -25.6951E-03    -29.2981E-03    -26.3279E-03     52.0352E-03    -25.6951E-03     31.0342E-03     115.319E-03     84.9039E+06     38.1129E+06    -32.8717E+06    -54.9457E+06     13.3772E+06    -30.2100E+06    -32.8717E+06    -40.7821E+06
            1801     97.1142E-03     14.6196E-03     96.0075E-03     57.9123E-03    -25.6226E-03    -32.2886E-03    -25.9519E-03     51.5756E-03    -25.6226E-03     44.7440E-03     147.091E-03     82.3353E+06     42.2650E+06    -24.9376E+06    -48.1661E+06     9.43530E+06     4.02105E+06    -44.2951E+06    -33.2778E+06
            1802     97.3201E-03     15.5954E-03     96.0624E-03     68.4028E-03    -25.4142E-03    -42.9886E-03    -26.1714E-03     51.5856E-03    -25.4142E-03     78.4153E-03     216.968E-03     118.033E+06     61.1748E+06    -9.29151E+06    -74.3883E+06     4.39892E+06     47.4844E+06    -74.3883E+06    -24.7393E+06
            1803     97.5811E-03     16.5693E-03     96.1641E-03     63.1563E-03    -24.8800E-03    -38.2723E-03    -25.3747E-03     50.8678E-03    -25.4892E-03     55.2810E-03     222.863E-03     160.585E+06     130.081E+06     11.1421E+06    -47.3234E+06     1.12321E+06     127.374E+06    -34.5972E+06    -12.1406E+06
            1804     96.9203E-03     975.728E-06     96.9154E-03     50.9544E-03    -25.3856E-03    -25.5679E-03    -25.4595E-03     50.9377E-03    -25.4773E-03     2.12806E-03     51.3650E-03     94.7629E+06     73.4804E+06     64.8601E+06    -25.2457E+06     69.6900E+06    -24.3935E+06     67.7983E+06    -8.65306E+06
            1805     96.9366E-03     1.95030E-03     96.9169E-03     51.1160E-03    -25.4748E-03    -25.6406E-03    -25.6004E-03     51.0758E-03    -25.4748E-03     3.41035E-03     51.8426E-03     80.1333E+06     73.6777E+06     66.0389E+06    -9.96146E+06     70.1860E+06    -7.49335E+06     67.0625E+06    -12.9362E+06
            1806     96.9628E-03     2.92436E-03     96.9187E-03     50.9907E-03    -25.4372E-03    -25.5531E-03    -25.4398E-03     50.9134E-03    -25.4732E-03     4.72727E-03     52.4599E-03     83.7086E+06     74.1113E+06     61.5296E+06    -15.0721E+06     68.7103E+06    -9.67115E+06     61.5296E+06    -20.9827E+06
            1807     96.9989E-03     3.90054E-03     96.9204E-03     50.7888E-03    -25.3545E-03    -25.4343E-03    -25.2204E-03     50.6395E-03    -25.4190E-03     6.59684E-03     53.3277E-03     90.2381E+06     72.7262E+06     55.8242E+06    -24.7059E+06     65.4535E+06    -17.4331E+06     55.8242E+06    -25.5509E+06
            1808     97.0469E-03     4.87556E-03     96.9244E-03     50.7112E-03    -25.3184E-03    -25.3929E-03    -25.1032E-03     50.4624E-03    -25.3594E-03     8.59695E-03     54.6229E-03     94.2954E+06     72.0600E+06     54.6208E+06    -29.6858E+06     64.1107E+06    -21.7366E+06     54.6208E+06    -27.2992E+06
            1809     97.1054E-03     5.85130E-03     96.9289E-03     50.7331E-03    -25.3026E-03    -25.4299E-03    -25.0438E-03     50.3594E-03    -25.3150E-03     10.5121E-03     56.4070E-03     99.8706E+06     73.1921E+06     56.2478E+06    -33.9981E+06     64.8881E+06    -25.6941E+06     56.2478E+06    -28.6457E+06
            1810     97.1750E-03     6.82638E-03     96.9350E-03     50.9011E-03    -25.2584E-03    -25.6377E-03    -25.0929E-03     50.3563E-03    -25.2584E-03     12.7312E-03     58.6876E-03     104.515E+06     73.6202E+06     52.0001E+06    -39.8480E+06     63.4610E+06    -29.6888E+06     52.0001E+06    -32.2544E+06
            1811     97.2558E-03     7.80255E-03     96.9423E-03     51.1697E-03    -25.2007E-03    -25.9666E-03    -25.2060E-03     50.4091E-03    -25.2007E-03     15.1305E-03     61.6136E-03     104.362E+06     70.4007E+06     42.8153E+06    -44.9567E+06     58.8621E+06    -33.4180E+06     42.8153E+06    -34.4575E+06
            1812     97.3477E-03     8.77727E-03     96.9512E-03     51.4861E-03    -25.1765E-03    -26.3152E-03    -25.3121E-03     50.4830E-03    -25.1765E-03     17.4338E-03     65.2016E-03     100.877E+06     63.2132E+06     35.3073E+06    -48.6622E+06     51.4274E+06    -36.8764E+06     35.3073E+06    -34.1211E+06
            1813     97.4512E-03     9.75269E-03     96.9620E-03     52.0168E-03    -25.1516E-03    -26.8666E-03    -25.5857E-03     50.7359E-03    -25.1516E-03     19.7741E-03     70.1068E-03     97.2446E+06     58.6149E+06     24.8675E+06    -50.8069E+06     45.1185E+06    -37.3106E+06     24.8675E+06    -35.8421E+06
            1814     97.5664E-03     10.7272E-03     96.9749E-03     52.7250E-03    -25.1383E-03    -27.5874E-03    -25.9676E-03     51.1051E-03    -25.1383E-03     22.4244E-03     76.5730E-03     94.1808E+06     56.8543E+06     13.2302E+06    -51.0597E+06     40.2556E+06     -34.461E+06     13.2302E+06    -38.6752E+06
            1815     97.6935E-03     11.7023E-03     96.9901E-03     53.4243E-03    -25.1512E-03    -28.2860E-03    -26.3220E-03     51.4603E-03    -25.1512E-03     24.9377E-03     84.3080E-03     91.4490E+06     53.3774E+06        -961.734    -51.9963E+06     33.0323E+06    -31.6512E+06        -961.734    -41.2345E+06
            1816     97.8323E-03     12.6765E-03     97.0075E-03     54.6550E-03    -25.1792E-03    -29.4757E-03    -26.7442E-03     51.9236E-03    -25.1792E-03     29.6126E-03     96.6002E-03     91.8495E+06     45.2258E+06    -19.7315E+06    -59.5940E+06     23.3704E+06    -37.7386E+06    -19.7315E+06    -42.3600E+06
            1817     97.9886E-03     13.6503E-03     97.0332E-03     55.7229E-03    -25.2248E-03    -30.4858E-03    -27.0392E-03     52.2763E-03    -25.2248E-03     33.7462E-03     113.828E-03     86.6454E+06     38.4520E+06    -35.7425E+06    -55.7700E+06     15.7547E+06    -33.0727E+06    -35.7425E+06    -40.0660E+06
            1818     98.1562E-03     14.6238E-03     97.0607E-03     58.7300E-03    -25.2367E-03    -33.4893E-03    -26.9494E-03     52.1901E-03    -25.2367E-03     46.1629E-03     145.859E-03     84.9977E+06     41.7612E+06    -28.0863E+06    -51.1124E+06     12.1410E+06    -1.77713E+06    -47.8014E+06    -34.1399E+06
            1819     98.3603E-03     15.5976E-03     97.1157E-03     68.8855E-03    -25.1685E-03    -43.7151E-03    -26.7082E-03     51.8787E-03    -25.1685E-03     79.1885E-03     215.992E-03     102.698E+06     51.7174E+06    -8.46594E+06    -66.1269E+06     7.48382E+06     35.7677E+06    -66.1269E+06    -23.5672E+06
            1820     98.6187E-03     16.5756E-03     97.2157E-03     63.6431E-03    -25.2474E-03    -38.3920E-03    -25.9483E-03     51.2165E-03    -25.2645E-03     55.4643E-03     222.425E-03     143.725E+06     116.591E+06     5.14320E+06    -38.7273E+06     1.90980E+06     113.899E+06    -32.8027E+06    -9.88447E+06
            1821     97.9711E-03     975.403E-06     97.9663E-03     49.1215E-03    -24.4343E-03    -24.6869E-03    -24.5226E-03     49.1014E-03    -24.5784E-03     2.12603E-03     49.5235E-03     91.3483E+06     82.1845E+06     77.5998E+06    -11.2815E+06     78.3598E+06    -9.66002E+06     79.8031E+06    -7.58414E+06
            1822     97.9880E-03     1.95188E-03     97.9685E-03     48.7344E-03    -24.2320E-03    -24.5022E-03    -24.2140E-03     48.6690E-03    -24.4549E-03     4.20320E-03     49.3925E-03     75.5611E+06     83.2287E+06     75.3037E+06     4.12463E+06     79.2314E+06     7.93479E+06     75.4908E+06    -16.5039E+06
            1823     98.0134E-03     2.92884E-03     97.9696E-03     48.8537E-03    -24.3086E-03    -24.5449E-03    -24.3360E-03     48.7235E-03    -24.3873E-03     6.07167E-03     50.1883E-03     82.9200E+06     85.0335E+06     74.7169E+06    -2.53065E+06     79.4622E+06     3.04064E+06     74.7169E+06    -21.3664E+06
            1824     98.0493E-03     3.90408E-03     97.9715E-03     48.9587E-03    -24.3710E-03    -24.5878E-03    -24.3533E-03     48.7242E-03    -24.3710E-03     8.13410E-03     51.2585E-03     92.6407E+06     84.3295E+06     71.0799E+06    -14.1573E+06     77.9994E+06    -7.82721E+06     71.0799E+06    -24.0906E+06
            1825     98.0964E-03     4.88069E-03     97.9749E-03     48.8099E-03    -24.2977E-03    -24.5118E-03    -24.1149E-03     48.4130E-03    -24.2977E-03     10.5729E-03     52.2895E-03     95.1238E+06     82.7377E+06     60.8524E+06    -21.2211E+06     74.8570E+06    -13.3404E+06     60.8524E+06    -27.3839E+06
            1826     98.1544E-03     5.85697E-03     97.9795E-03     48.8485E-03    -24.2169E-03    -24.6298E-03    -24.0234E-03     48.2422E-03    -24.2169E-03     13.1096E-03     53.8499E-03     98.4368E+06     81.4359E+06     52.9726E+06    -27.7862E+06     71.9834E+06    -18.3337E+06     52.9726E+06    -30.6473E+06
            1827     98.2235E-03     6.83395E-03     97.9855E-03     49.1149E-03    -24.1789E-03    -24.9335E-03    -24.0772E-03     48.2586E-03    -24.1789E-03     15.6596E-03     56.0393E-03     100.257E+06     78.2751E+06     51.2950E+06    -32.3992E+06     68.9542E+06    -23.0784E+06     51.2950E+06    -30.6198E+06
            1828     98.3035E-03     7.80982E-03     97.9928E-03     49.5784E-03    -24.1593E-03    -25.4173E-03    -24.2510E-03     48.4122E-03    -24.1593E-03     18.3576E-03     58.9040E-03     100.211E+06     71.7682E+06     47.0656E+06    -38.4281E+06     63.2980E+06    -29.9578E+06     47.0656E+06    -29.2844E+06
            1829     98.3952E-03     8.78654E-03     98.0021E-03     50.1938E-03    -24.1510E-03    -26.0443E-03    -24.5212E-03     48.6707E-03    -24.1510E-03     21.1513E-03     62.4344E-03     98.1752E+06     68.0614E+06     40.6851E+06    -40.7978E+06     58.6909E+06    -31.4273E+06     40.6851E+06    -30.4043E+06
            1830     98.4981E-03     9.76226E-03     98.0131E-03     51.1316E-03    -24.1570E-03    -26.9709E-03    -24.9940E-03     49.1547E-03    -24.1570E-03     24.3375E-03     67.3217E-03     96.3312E+06     66.3660E+06     31.4179E+06    -42.3780E+06     55.0947E+06    -31.1066E+06     31.4179E+06    -33.1006E+06
            1831     98.6131E-03     10.7378E-03     98.0267E-03     52.2787E-03    -24.1952E-03    -28.0820E-03    -25.6784E-03     49.8751E-03    -24.1952E-03     27.2302E-03     73.8879E-03     90.7377E+06     61.1074E+06     18.7426E+06    -42.8848E+06     48.5103E+06    -30.2878E+06     18.7426E+06    -33.7846E+06
            1832     98.7392E-03     11.7123E-03     98.0421E-03     53.5355E-03    -24.3134E-03    -29.2279E-03    -26.4607E-03     50.7683E-03    -24.3134E-03     29.6232E-03     82.0508E-03     80.6945E+06     51.3455E+06     10.9842E+06    -40.8264E+06     37.9523E+06    -27.4333E+06     10.9842E+06    -32.4254E+06
            1833     98.8783E-03     12.6862E-03     98.0611E-03     55.3210E-03    -24.4459E-03    -30.8715E-03    -27.3412E-03     51.7907E-03    -24.4459E-03     33.9956E-03     94.6390E-03     79.1716E+06     41.7490E+06    -6.57995E+06    -47.9435E+06     26.3024E+06    -32.4970E+06    -6.57995E+06    -33.7763E+06
            1834     99.0333E-03     13.6595E-03     98.0867E-03     56.8810E-03    -24.5665E-03    -32.3016E-03    -28.0329E-03     52.6123E-03    -24.5665E-03     38.0216E-03     112.031E-03     80.8780E+06     37.1005E+06    -30.1975E+06    -51.8320E+06     16.8838E+06    -31.6153E+06    -30.1975E+06    -36.9935E+06
            1835     99.2010E-03     14.6320E-03     98.1160E-03     60.2543E-03    -24.6744E-03    -35.5689E-03    -28.3004E-03     52.9858E-03    -24.6744E-03     49.8702E-03     144.039E-03     84.4466E+06     37.4836E+06    -29.2931E+06    -56.0333E+06     10.1805E+06    -8.00145E+06    -50.0218E+06    -33.7906E+06
            1836     99.4010E-03     15.6059E-03     98.1683E-03     70.7369E-03    -24.7960E-03    -45.9386E-03    -28.6307E-03     53.4290E-03    -24.7960E-03     81.6663E-03     214.358E-03     87.5320E+06     40.6384E+06    -11.7148E+06    -60.0430E+06     4.77026E+06     24.1534E+06    -60.0430E+06    -21.9489E+06
            1837     99.6579E-03     16.5774E-03     98.2694E-03     64.2411E-03    -24.8137E-03    -39.4268E-03    -26.7887E-03     51.7937E-03    -25.0044E-03     56.5059E-03     222.548E-03     124.896E+06     103.638E+06     2.25077E+06    -30.2416E+06    -15.2242E+03     101.011E+06    -25.3487E+06    -8.16488E+06
            1838     99.0211E-03     977.254E-06     99.0163E-03     46.1925E-03    -22.8961E-03    -23.2962E-03    -23.1228E-03     46.1633E-03    -23.0402E-03     2.52746E-03     46.5292E-03     93.7430E+06     103.006E+06     98.9366E+06     7.35059E+06     101.135E+06     8.93289E+06     99.2254E+06    -6.52777E+06
            1839     99.0351E-03     1.95509E-03     99.0158E-03     45.8031E-03    -22.7629E-03    -23.0407E-03    -22.7206E-03     45.7057E-03    -22.9858E-03     4.99246E-03     46.3662E-03     80.4517E+06     101.825E+06     94.9179E+06     18.2358E+06     98.1153E+06     21.7582E+06     95.1050E+06    -16.4754E+06
            1840     99.0617E-03     2.93273E-03     99.0183E-03     45.8044E-03    -22.7835E-03    -23.0217E-03    -22.7234E-03     45.5982E-03    -22.8756E-03     7.35726E-03     46.9476E-03     83.3164E+06     97.3552E+06     87.8692E+06     9.74826E+06     92.4856E+06     14.6178E+06     87.8692E+06    -19.9492E+06
            1841     99.0977E-03     3.91067E-03     99.0205E-03     45.9848E-03    -22.8000E-03    -23.1854E-03    -22.8016E-03     45.6144E-03    -22.8133E-03     9.91145E-03     47.9471E-03     93.0950E+06     94.8384E+06     77.6664E+06    -5.37313E+06     88.7865E+06     678.791E+03     77.6664E+06    -23.7913E+06
            1842     99.1433E-03     4.88806E-03     99.0227E-03     46.0596E-03    -22.7224E-03    -23.3367E-03    -22.7075E-03     45.4304E-03    -22.7224E-03     12.9532E-03     49.0006E-03     91.9356E+06     91.6619E+06     62.3083E+06    -11.1178E+06     84.5126E+06    -3.96849E+06     62.3083E+06    -26.0225E+06
            1843     99.2010E-03     5.86629E-03     99.0274E-03     46.2499E-03    -22.6567E-03    -23.5916E-03    -22.6325E-03     45.2907E-03    -22.6567E-03     16.0694E-03     50.4369E-03     91.9948E+06     84.3394E+06     50.8277E+06    -19.5963E+06      76.165E+06    -11.4219E+06     50.8277E+06    -27.7678E+06
            1844     99.2693E-03     6.84369E-03     99.0332E-03     46.6987E-03    -22.6432E-03    -24.0546E-03    -22.7050E-03     45.3491E-03    -22.6432E-03     19.1417E-03     52.5262E-03     93.0823E+06     74.4122E+06     46.3853E+06    -29.2317E+06     66.9648E+06    -21.7843E+06     46.3853E+06    -26.5355E+06
            1845     99.3493E-03     7.82194E-03     99.0409E-03     47.4520E-03    -22.6548E-03    -24.7981E-03    -22.9683E-03     45.6222E-03    -22.6548E-03     22.4855E-03     55.3143E-03     91.2429E+06     68.2527E+06     44.1918E+06    -32.4958E+06     61.1290E+06    -25.3721E+06     44.1918E+06    -25.7225E+06
            1846     99.4405E-03     8.79893E-03     99.0504E-03     48.3973E-03    -22.6792E-03    -25.7212E-03    -23.4063E-03     46.0823E-03    -22.6792E-03     25.6001E-03     58.8110E-03     89.5140E+06     65.7215E+06     38.3286E+06    -34.2017E+06     56.5912E+06    -25.0714E+06     38.3286E+06    -28.6716E+06
            1847     99.5434E-03     9.77618E-03     99.0621E-03     49.7875E-03    -22.7540E-03    -27.0321E-03    -24.1012E-03     46.8567E-03    -22.7540E-03     29.2296E-03     63.7502E-03     86.4862E+06     59.3127E+06     31.2239E+06    -37.5797E+06     49.8566E+06    -28.1236E+06     31.2239E+06    -28.7304E+06
            1848     99.6587E-03     10.7523E-03     99.0770E-03     51.6131E-03    -22.8865E-03    -28.7277E-03    -25.2650E-03     48.1504E-03    -22.8865E-03     32.4947E-03     70.5835E-03     76.6356E+06     47.0927E+06     19.9292E+06    -38.8563E+06     39.1091E+06    -30.8727E+06     19.9292E+06    -24.7129E+06
            1849     99.7854E-03     11.7270E-03     99.0939E-03     53.5700E-03    -23.1184E-03    -30.4545E-03    -26.5509E-03     49.6664E-03    -23.1184E-03     35.2364E-03     79.2409E-03     65.7122E+06     40.4787E+06     16.3041E+06    -33.3925E+06     30.2088E+06    -23.1226E+06     16.3041E+06    -24.6744E+06
            1850     99.9246E-03     12.7003E-03     99.1142E-03     56.1158E-03    -23.3673E-03    -32.7495E-03    -27.9446E-03     51.3109E-03    -23.3673E-03     40.0297E-03     92.0404E-03     69.9104E+06     40.3966E+06     2.20806E+06    -38.5914E+06     26.8177E+06    -25.0125E+06     2.20806E+06    -29.5417E+06
            1851     100.080E-03     13.6724E-03     99.1414E-03     58.3530E-03    -23.6435E-03    -34.7055E-03    -29.2922E-03     52.9396E-03    -23.6435E-03     43.4965E-03     110.178E-03     67.7530E+06     31.9377E+06    -20.2976E+06    -44.3672E+06     18.8411E+06    -31.2706E+06    -20.2976E+06    -28.3224E+06
            1852     100.246E-03     14.6443E-03     99.1707E-03     62.3192E-03    -23.9237E-03    -38.3857E-03    -30.3575E-03     54.2910E-03    -23.9237E-03     53.9709E-03     142.727E-03     70.2636E+06     28.4270E+06    -24.3004E+06    -50.9702E+06     4.06011E+06    -8.22603E+06    -42.6777E+06    -25.9152E+06
            1853     100.446E-03     15.6143E-03     99.2247E-03     72.9289E-03    -24.2289E-03    -48.6973E-03    -30.8593E-03     55.0910E-03    -24.2289E-03     84.7782E-03     212.921E-03     73.9470E+06     28.5291E+06    -20.7414E+06    -56.1344E+06    -4.19364E+06     11.9813E+06    -56.1344E+06    -22.4339E+06
            1854     100.702E-03     16.5860E-03     99.3265E-03     65.5058E-03    -24.4576E-03    -41.0468E-03    -28.2260E-03     52.8757E-03    -24.6483E-03     56.6707E-03     222.721E-03     106.556E+06     91.9844E+06     9.18817E+06    -25.8385E+06    -2.66154E+06     85.8231E+06    -7.82749E+06    -9.97873E+06
            1855     100.065E-03     979.844E-06     100.061E-03     41.8209E-03    -20.7207E-03    -21.1000E-03    -21.0575E-03     41.7784E-03    -20.7207E-03     2.73671E-03     42.1054E-03     85.2074E+06     112.946E+06     107.372E+06     25.1130E+06     111.461E+06     26.0502E+06     107.919E+06    -7.70675E+06
            1856     100.081E-03     1.95890E-03     100.062E-03     41.9810E-03    -20.8672E-03    -21.1139E-03    -20.9632E-03     41.8303E-03    -20.8672E-03     5.90105E-03     42.4368E-03     71.6045E+06     105.570E+06     98.7936E+06     30.8338E+06     103.699E+06     32.7048E+06     98.7936E+06    -11.1458E+06
            1857     100.106E-03     2.93847E-03     100.062E-03     41.8509E-03    -20.8254E-03    -21.0260E-03    -20.6889E-03     41.5272E-03    -20.8387E-03     8.79822E-03     42.7469E-03     72.9466E+06     100.766E+06     90.7928E+06     23.3995E+06     97.3528E+06     26.8122E+06     90.7928E+06    -15.8159E+06
            1858     100.142E-03     3.91858E-03     100.065E-03     41.9127E-03    -20.7238E-03    -21.1894E-03    -20.6033E-03     41.3400E-03    -20.7372E-03     11.7659E-03     43.4712E-03     83.0345E+06     96.6324E+06     75.5514E+06     5.35873E+06     90.8044E+06     11.1867E+06     75.5514E+06    -22.1730E+06
            1859     100.187E-03     4.89853E-03     100.067E-03     42.2977E-03    -20.6478E-03    -21.6491E-03    -20.7057E-03     41.3543E-03    -20.6478E-03     15.1902E-03     44.6605E-03     84.2223E+06     89.5812E+06     59.9549E+06    -5.36560E+06     83.1969E+06     1.01865E+06     59.9549E+06    -23.6939E+06
            1860     100.244E-03     5.87783E-03     100.072E-03     42.8061E-03    -20.6105E-03    -22.1946E-03    -20.7394E-03     41.3509E-03    -20.6105E-03     18.9933E-03     46.1331E-03     82.0274E+06     79.1188E+06     49.2849E+06    -13.4454E+06     74.1354E+06    -8.46201E+06     49.2849E+06    -20.7965E+06
            1861     100.312E-03     6.85795E-03     100.078E-03     43.6186E-03    -20.6050E-03    -23.0142E-03    -20.9593E-03     41.5637E-03    -20.6050E-03     22.8146E-03     48.2148E-03     82.9860E+06     69.3072E+06     39.7641E+06    -24.2509E+06     64.4254E+06    -19.3691E+06     39.7641E+06    -20.7355E+06
            1862     100.392E-03     7.83692E-03     100.086E-03     44.7993E-03    -20.6498E-03    -24.1506E-03    -21.4122E-03     42.0610E-03    -20.6498E-03     26.7100E-03     51.0714E-03     78.3617E+06     60.8984E+06     34.4662E+06    -27.2361E+06     55.2340E+06    -21.5717E+06     34.4662E+06    -21.4411E+06
            1863     100.484E-03     8.81605E-03     100.096E-03     46.2920E-03    -20.7698E-03    -25.5237E-03    -22.1362E-03     42.9046E-03    -20.7698E-03     30.2707E-03     54.7899E-03     70.4750E+06     50.7117E+06     32.0021E+06    -26.9158E+06     43.8109E+06    -20.7844E+06     32.7714E+06    -20.5917E+06
            1864     100.586E-03     9.79380E-03     100.108E-03     48.3545E-03    -20.9679E-03    -27.3867E-03    -23.2395E-03     44.2073E-03    -20.9679E-03     34.2902E-03     60.0980E-03     68.0179E+06     39.4179E+06     26.5174E+06    -33.8631E+06     31.1877E+06    -28.1444E+06     29.0288E+06    -19.1219E+06
            1865     100.703E-03     10.7707E-03     100.126E-03     50.8318E-03    -21.2165E-03    -29.6105E-03    -24.7641E-03     45.9854E-03    -21.2165E-03     38.1396E-03     67.1693E-03     63.2331E+06     31.9196E+06     18.7923E+06    -36.7776E+06     24.7560E+06    -31.3561E+06     20.5344E+06    -18.0714E+06
            1866     100.831E-03     11.7455E-03     100.144E-03     53.4533E-03    -21.5557E-03    -31.8934E-03    -26.6304E-03     48.1903E-03    -21.5557E-03     40.9546E-03     76.2150E-03     53.4447E+06     32.5175E+06     17.5138E+06    -26.6730E+06     21.9361E+06    -16.0916E+06     17.5138E+06    -20.7677E+06
            1867     100.971E-03     12.7194E-03     100.166E-03     56.7395E-03    -21.9785E-03    -34.7633E-03    -28.7369E-03     50.7131E-03    -21.9785E-03     45.3426E-03     89.7383E-03     53.4414E+06     26.2947E+06     2.34979E+06    -33.4824E+06     12.1923E+06    -21.6289E+06     4.59860E+06    -22.2505E+06
            1868     101.127E-03     13.6909E-03     100.196E-03     60.0035E-03    -22.4724E-03    -37.5316E-03    -31.1236E-03     53.5955E-03    -22.4724E-03     48.3033E-03     108.726E-03     49.8721E+06     11.9094E+06    -19.4166E+06    -44.2779E+06     1.09260E+06    -35.7100E+06    -17.1678E+06    -19.0312E+06
            1869     101.294E-03     14.6590E-03     100.228E-03     64.6609E-03    -22.9930E-03    -41.6652E-03    -32.9407E-03     55.9365E-03    -22.9930E-03     57.9011E-03     142.743E-03     55.1393E+06     23.1262E+06    -19.2955E+06    -38.6683E+06    -3.08966E+06    -728.894E+03    -31.0190E+06    -19.3817E+06
            1870     101.494E-03     15.6269E-03     100.284E-03     74.4656E-03    -23.5039E-03    -50.9607E-03    -33.3579E-03     56.8629E-03    -23.5039E-03     86.0313E-03     212.777E-03     65.0900E+06     24.5154E+06    -23.5290E+06    -48.8288E+06    -6.15976E+06     7.14623E+06    -48.8288E+06    -20.6656E+06
            1871     101.743E-03     16.5978E-03     100.380E-03     67.9126E-03    -24.1844E-03    -43.7274E-03    -31.7086E-03     55.8939E-03    -24.1844E-03     54.0076E-03     223.239E-03     99.3572E+06     80.9749E+06     16.1491E+06    -32.9551E+06    -7.47956E+06     69.0757E+06     2.57285E+06    -14.0894E+06
            1872     101.106E-03     982.309E-06     101.101E-03     36.5160E-03    -18.0770E-03    -18.4391E-03    -18.3020E-03     36.4440E-03    -18.1422E-03     3.47227E-03     36.7213E-03     76.2263E+06     111.184E+06     107.860E+06     33.3663E+06     108.624E+06     33.8473E+06     109.938E+06    -2.67227E+06
            1873     101.121E-03     1.96439E-03     101.102E-03     36.8269E-03    -18.2155E-03    -18.6112E-03    -18.3927E-03     36.6085E-03    -18.2155E-03     6.72287E-03     37.1685E-03     59.8292E+06     105.443E+06     97.1795E+06     42.0830E+06     103.573E+06     42.9288E+06     98.2038E+06    -6.43165E+06
            1874     101.146E-03     2.94638E-03     101.103E-03     36.9377E-03    -18.2091E-03    -18.7285E-03    -18.2502E-03     36.4594E-03    -18.2091E-03     10.0430E-03     37.5949E-03     59.1258E+06     98.5848E+06     84.8727E+06     33.9309E+06     96.3283E+06     36.1874E+06     84.8727E+06    -11.6174E+06
            1875     101.180E-03     3.92836E-03     101.104E-03     37.2039E-03    -18.1745E-03    -19.0293E-03    -18.1622E-03     36.3368E-03    -18.1745E-03     13.6147E-03     38.3276E-03     65.1131E+06     88.6399E+06     72.3397E+06     17.2105E+06     85.0642E+06     20.7863E+06     72.3397E+06    -15.0308E+06
            1876     101.227E-03     4.91062E-03     101.108E-03     37.6669E-03    -18.1126E-03    -19.5540E-03    -18.1741E-03     36.2870E-03    -18.1126E-03     17.3252E-03     39.3746E-03     67.4644E+06     73.8200E+06     52.9718E+06    -1.18114E+06     70.3500E+06     2.28882E+06     52.9718E+06    -14.9520E+06
            1877     101.283E-03     5.89315E-03     101.111E-03     38.5287E-03    -18.0458E-03    -20.4832E-03    -18.3996E-03     36.4450E-03    -18.0458E-03     21.5496E-03     40.9309E-03     61.2732E+06     58.8024E+06     30.2524E+06    -10.6925E+06     56.1442E+06    -8.03431E+06     30.2524E+06    -13.0824E+06
            1878     101.351E-03     6.87475E-03     101.118E-03     39.8845E-03    -18.0833E-03    -21.8016E-03    -18.8890E-03     36.9720E-03    -18.0833E-03     25.9754E-03     43.2542E-03     55.5926E+06     45.5647E+06     19.1655E+06    -17.5762E+06     42.9155E+06    -14.9271E+06     19.1655E+06    -12.5773E+06
            1879     101.431E-03     7.85610E-03     101.127E-03     41.6585E-03    -18.2445E-03    -23.4132E-03    -19.6236E-03     37.8689E-03    -18.2445E-03     30.3097E-03     46.4309E-03     52.0745E+06     34.6918E+06     17.7352E+06    -23.6563E+06     29.8111E+06    -20.6175E+06     19.5771E+06    -12.5845E+06
            1880     101.523E-03     8.83643E-03     101.138E-03     43.9417E-03    -18.4982E-03    -25.4424E-03    -20.8207E-03     39.3200E-03    -18.4982E-03     34.4749E-03     50.7110E-03     49.1019E+06     29.2651E+06     18.2230E+06    -24.1426E+06     20.6861E+06    -21.6060E+06     24.2655E+06    -10.4463E+06
            1881     101.627E-03     9.81534E-03     101.152E-03     46.8084E-03    -18.8576E-03    -27.9503E-03    -22.4799E-03     41.3380E-03    -18.8576E-03     38.8297E-03     56.6751E-03     53.7297E+06     29.7548E+06     18.3175E+06    -28.3539E+06     15.7085E+06    -25.7448E+06     29.7548E+06    -10.5104E+06
            1882     101.745E-03     10.7925E-03     101.171E-03     50.0468E-03    -19.2602E-03    -30.7832E-03    -24.5274E-03     43.7911E-03    -19.2602E-03     43.1373E-03     64.2923E-03     55.4327E+06     27.7650E+06     15.5331E+06    -32.4739E+06     13.0684E+06    -26.1434E+06     23.8992E+06    -16.1532E+06
            1883     101.875E-03     11.7680E-03     101.193E-03     53.6030E-03    -19.7789E-03    -33.8227E-03    -27.2686E-03     47.0489E-03    -19.7789E-03     45.9980E-03     74.2041E-03     44.2542E+06     23.0216E+06     10.7035E+06    -25.4171E+06     7.61363E+06    -17.0915E+06     17.7859E+06    -13.9809E+06
            1884     102.017E-03     12.7396E-03     101.219E-03     57.8319E-03    -20.4706E-03    -37.3626E-03    -30.4579E-03     50.9272E-03    -20.4706E-03     49.3683E-03     89.2049E-03     36.5528E+06     13.6141E+06     1.80379E+06    -26.8679E+06    -1.86772E+06    -21.8264E+06     12.2441E+06    -8.37589E+06
            1885     102.175E-03     13.7089E-03     101.252E-03     61.8268E-03    -21.1975E-03    -40.6231E-03    -33.5610E-03     54.7647E-03    -21.1975E-03     51.8824E-03     108.720E-03     41.0054E+06     7.10636E+06    -14.7490E+06    -38.6246E+06    -6.76095E+06    -29.2447E+06    -10.2616E+06    -16.1004E+06
            1886     102.346E-03     14.6753E-03     101.288E-03     66.4700E-03    -21.9835E-03    -44.4841E-03    -35.7128E-03     57.6987E-03    -21.9835E-03     59.5927E-03     143.165E-03     47.3817E+06     20.8741E+06    -19.5688E+06    -30.9121E+06    -6.46364E+06    -235.181E+03    -22.9080E+06    -20.2494E+06
            1887     102.543E-03     15.6411E-03     101.343E-03     76.1832E-03    -22.7546E-03    -53.4348E-03    -37.1182E-03     59.8666E-03    -22.7546E-03     85.0546E-03     214.231E-03     57.2381E+06     21.6422E+06    -21.7100E+06    -42.0485E+06    -7.14629E+06     7.07849E+06    -42.0485E+06    -17.9674E+06
            1888     102.792E-03     16.6043E-03     101.442E-03     71.7882E-03    -23.7135E-03    -48.0772E-03    -37.0989E-03     60.8099E-03    -23.7135E-03     51.9383E-03     225.696E-03     92.8565E+06     72.9931E+06     18.5542E+06    -34.1681E+06    -5.26781E+06     61.0921E+06     1.55495E+06    -17.8788E+06
            1889     102.140E-03     985.380E-06     102.135E-03     30.4631E-03    -15.0964E-03    -15.3666E-03    -15.1952E-03     30.3569E-03    -15.1616E-03     4.14972E-03     30.6394E-03     63.7554E+06     103.334E+06     94.7965E+06     36.4003E+06     101.420E+06     36.7821E+06     96.3286E+06    -1.75524E+06
            1890     102.155E-03     1.97020E-03     102.136E-03     30.6687E-03    -15.1277E-03    -15.5405E-03    -15.2242E-03     30.3523E-03    -15.1277E-03     7.31029E-03     30.8906E-03     43.6103E+06     97.9922E+06     85.7991E+06     50.1373E+06     96.5581E+06     50.5472E+06     86.8234E+06    -3.87079E+06
            1891     102.179E-03     2.95541E-03     102.137E-03     31.1297E-03    -15.1284E-03    -16.0010E-03    -15.3229E-03     30.4516E-03    -15.1284E-03     10.9765E-03     31.5414E-03     42.6990E+06     86.4384E+06     72.9281E+06     38.6855E+06     85.5763E+06     39.5476E+06     72.9281E+06    -4.03035E+06
            1892     102.215E-03     3.94046E-03     102.139E-03     31.7386E-03    -15.1548E-03    -16.5839E-03    -15.3817E-03     30.5364E-03    -15.1548E-03     14.8351E-03     32.4353E-03     45.1898E+06     70.8473E+06     59.1433E+06     21.2263E+06     69.6419E+06     22.4317E+06     59.1433E+06    -2.00655E+06
            1893     102.260E-03     4.92532E-03     102.141E-03     32.6346E-03    -15.1685E-03    -17.4664E-03    -15.5785E-03     30.7467E-03    -15.1685E-03     18.8900E-03     33.7225E-03     47.2101E+06     53.3831E+06     39.3619E+06     1.21391E+06     52.2729E+06     2.32415E+06     39.3619E+06    -799.097E+03
            1894     102.317E-03     5.90983E-03     102.146E-03     34.0085E-03    -15.2052E-03    -18.8043E-03    -16.0384E-03     31.2426E-03    -15.2052E-03     23.3455E-03     35.6230E-03     42.5299E+06     35.8836E+06     18.6603E+06    -11.1331E+06     33.4869E+06    -8.73640E+06     18.6603E+06     610.282E+03
            1895     102.385E-03     6.89397E-03     102.153E-03     35.8360E-03    -15.3505E-03    -20.4857E-03    -16.7214E-03     32.0717E-03    -15.3505E-03     27.9952E-03     38.2251E-03     32.9547E+06     20.2106E+06     6.92504E+06    -15.9958E+06     15.2974E+06    -13.3859E+06     9.22830E+06     1.03297E+06
            1896     102.466E-03     7.87713E-03     102.163E-03     38.2990E-03    -15.6240E-03    -22.6739E-03    -17.8387E-03     33.4637E-03    -15.6240E-03     32.8314E-03     41.9019E-03     30.1507E+06     13.0491E+06     1.51794E+06    -20.6823E+06     2.11495E+06    -18.8101E+06     10.5799E+06    -1.06852E+06
            1897     102.560E-03     8.85878E-03     102.176E-03     41.3780E-03    -15.9954E-03    -25.3835E-03    -19.4947E-03     35.4892E-03    -15.9954E-03     37.7628E-03     46.7681E-03     33.9763E+06     12.6461E+06    -3.69347E+06    -25.1433E+06    -6.40096E+06    -22.4358E+06     12.6461E+06    -2.94135E+06
            1898     102.666E-03     9.83857E-03     102.193E-03     45.1782E-03    -16.5070E-03    -28.6725E-03    -21.8000E-03     38.3056E-03    -16.5070E-03     42.8223E-03     53.5192E-03     42.7309E+06     19.9479E+06    -1.08695E+06    -28.3701E+06    -9.48743E+06    -19.9697E+06     19.9479E+06    -6.46601E+06
            1899     102.785E-03     10.8162E-03     102.215E-03     49.5572E-03    -17.1467E-03    -32.4106E-03    -24.8837E-03     42.0304E-03    -17.1467E-03     47.2890E-03     62.4107E-03     47.6701E+06     20.7184E+06    -1.64532E+06    -32.1208E+06    -13.5591E+06    -20.2070E+06     20.7184E+06    -9.96443E+06
            1900     102.918E-03     11.7902E-03     102.241E-03     54.1809E-03    -17.9300E-03    -36.2501E-03    -28.5649E-03     46.4957E-03    -17.9300E-03     50.3951E-03     73.5194E-03     43.4040E+06     15.2256E+06    -7.44413E+06    -32.9510E+06    -16.3304E+06    -24.0647E+06     15.2256E+06    -8.56991E+06
            1901     103.065E-03     12.7609E-03     102.272E-03     59.5673E-03    -18.8958E-03    -40.6704E-03    -32.7734E-03     51.6703E-03    -18.8958E-03     53.9832E-03     89.7134E-03     40.0907E+06     17.2313E+06     1.98276E+06    -27.5227E+06    -7.24869E+06    -18.2913E+06     17.2313E+06    -9.87660E+06
            1902     103.226E-03     13.7267E-03     102.309E-03     64.3455E-03    -19.9336E-03    -44.4088E-03    -36.7520E-03     56.6887E-03    -19.9336E-03     55.5774E-03     110.689E-03     40.4675E+06     16.8180E+06    -480.275E+03    -27.9603E+06     1.67879E+06    -16.3096E+06     3.00822E+06    -16.9944E+06
            1903     103.398E-03     14.6901E-03     102.349E-03     69.4744E-03    -21.0489E-03    -48.4238E-03    -39.9539E-03     61.0044E-03    -21.0489E-03     60.7728E-03     145.631E-03     40.2054E+06     18.9353E+06    -12.8009E+06    -24.9514E+06    -346.849E+03    -4.44836E+06    -14.0218E+06    -18.6108E+06
            1904     103.596E-03     15.6510E-03     102.407E-03     78.4195E-03    -22.1375E-03    -56.2871E-03    -41.6907E-03     63.8231E-03    -22.1375E-03     82.7618E-03     217.017E-03     54.0231E+06     26.2372E+06    -16.0926E+06    -33.6452E+06    -2.36062E+06     11.9488E+06    -33.0888E+06    -19.9761E+06
            1905     103.845E-03     16.6120E-03     102.508E-03     74.9934E-03    -23.3730E-03    -51.6234E-03    -41.8781E-03     65.2480E-03    -23.3730E-03     50.8141E-03     227.932E-03     80.8497E+06     66.4507E+06     16.2536E+06    -26.4979E+06    -614.953E+03     56.3432E+06     478.137E+03    -19.8587E+06
            1906     103.168E-03     987.999E-06     103.163E-03     23.8821E-03    -11.8123E-03    -12.0697E-03    -11.9340E-03     23.7463E-03    -11.8123E-03     4.11936E-03     24.0237E-03     38.1710E+06     79.7853E+06     68.0302E+06     37.7428E+06     75.4842E+06     40.0237E+06     70.0504E+06    -5.95393E+06
            1907     103.182E-03     1.97722E-03     103.163E-03     24.0340E-03    -11.7878E-03    -12.2460E-03    -11.8284E-03     23.6163E-03    -11.7878E-03     7.47144E-03     24.1535E-03     20.6135E+06     70.6620E+06     58.5162E+06     47.1569E+06     69.0508E+06     50.7743E+06     56.5100E+06    -666.094E+03
            1908     103.208E-03     2.96529E-03     103.165E-03     24.7640E-03    -11.8070E-03    -12.9569E-03    -12.0731E-03     23.8802E-03    -11.8070E-03     11.2124E-03     24.9705E-03     26.9069E+06     59.6693E+06     46.1586E+06     29.3136E+06     56.2464E+06     33.9515E+06     44.9436E+06     5.90036E+06
            1909     103.242E-03     3.95324E-03     103.166E-03     25.8494E-03    -11.8885E-03    -13.9610E-03    -12.4345E-03     24.3230E-03    -11.8885E-03     15.0984E-03     26.2146E-03     35.1552E+06     49.2164E+06     31.8754E+06     9.23283E+06     41.8388E+06     16.6104E+06     31.8754E+06     12.3586E+06
            1910     103.288E-03     4.94098E-03     103.170E-03     27.4598E-03    -12.0524E-03    -15.4074E-03    -13.0303E-03     25.0827E-03    -12.0524E-03     19.4598E-03     28.0891E-03     41.8895E+06     35.4156E+06     22.0644E+06    -10.7133E+06     24.9518E+06    -249.483E+03     22.0644E+06     15.6638E+06
            1911     103.345E-03     5.92766E-03     103.175E-03     29.5090E-03    -12.3060E-03    -17.2030E-03    -13.8020E-03     26.1080E-03    -12.3060E-03     24.1422E-03     30.5673E-03     44.0613E+06     22.0986E+06     17.4642E+06    -23.9883E+06     9.63161E+06    -12.4288E+06     18.3717E+06     17.1210E+06
            1912     103.414E-03     6.91361E-03     103.183E-03     31.9083E-03    -12.5908E-03    -19.3169E-03    -14.7612E-03     27.3526E-03    -12.5908E-03     29.0537E-03     33.6438E-03     38.6329E+06     14.3022E+06     9.88015E+06    -26.1533E+06    -2.14272E+06    -12.9192E+06     13.0909E+06     16.2900E+06
            1913     103.496E-03     7.89844E-03     103.194E-03     34.9977E-03    -12.9661E-03    -22.0305E-03    -16.1864E-03     29.1535E-03    -12.9661E-03     34.4951E-03     37.8252E-03     35.0297E+06     10.7530E+06    -1.77314E+06    -28.0290E+06    -13.0383E+06    -15.9143E+06     9.90350E+06     12.0254E+06
            1914     103.592E-03     8.88168E-03     103.210E-03     38.8434E-03    -13.4745E-03    -25.3701E-03    -18.3214E-03     31.7947E-03    -13.4745E-03     40.0908E-03     43.3511E-03     35.0774E+06     11.1092E+06    -10.6949E+06    -28.8096E+06    -21.4902E+06    -18.0144E+06     11.1092E+06     6.45646E+06
            1915     103.700E-03     9.86280E-03     103.230E-03     43.7657E-03    -14.1546E-03    -29.6122E-03    -21.4768E-03     35.6303E-03    -14.1546E-03     46.0455E-03     51.1787E-03     40.7263E+06     15.8820E+06    -12.2729E+06    -30.3290E+06    -28.0682E+06    -14.5336E+06     15.8820E+06     741.864E+03
            1916     103.825E-03     10.8397E-03     103.257E-03     49.4140E-03    -15.0404E-03    -34.3744E-03    -25.6027E-03     40.6423E-03    -15.0404E-03     51.2552E-03     61.4133E-03     46.6025E+06     20.5289E+06    -13.3496E+06    -32.0930E+06    -29.3153E+06    -16.1273E+06     20.5289E+06    -4.27747E+06
            1917     103.961E-03     11.8124E-03     103.288E-03     55.2324E-03    -16.1008E-03    -39.1306E-03    -30.2171E-03     46.3188E-03    -16.1008E-03     55.1525E-03     73.8732E-03     48.7355E+06     20.4684E+06    -5.89560E+06    -33.8625E+06    -21.1100E+06    -18.6481E+06     20.4684E+06    -13.1422E+06
            1918     104.113E-03     12.7807E-03     103.325E-03     61.5430E-03    -17.3229E-03    -44.2173E-03    -35.0542E-03     52.3799E-03    -17.3229E-03     59.4692E-03     90.4783E-03     49.4543E+06     21.1598E+06     9.45217E+06    -32.5963E+06    -9.56186E+06    -11.3341E+06     18.9116E+06    -22.0357E+06
            1919     104.279E-03     13.7447E-03     103.369E-03     67.6270E-03    -18.6813E-03    -48.9452E-03    -40.3351E-03     59.0169E-03    -18.6813E-03     60.8173E-03     113.114E-03     43.5205E+06     16.0820E+06     4.33855E+06    -31.7400E+06    -1.83932E+06    -15.0686E+06     5.58844E+06    -21.0969E+06
            1920     104.454E-03     14.7031E-03     103.414E-03     74.1138E-03    -20.1728E-03    -53.9382E-03    -44.9733E-03     65.1489E-03    -20.1728E-03     65.2952E-03     149.715E-03     35.3163E+06     16.8193E+06    -6.69585E+06    -21.8741E+06     879.764E+03    -5.93459E+06    -6.69585E+06    -16.4366E+06
            1921     104.656E-03     15.6566E-03     103.478E-03     82.3827E-03    -21.6481E-03    -60.7327E-03    -46.9782E-03     68.6282E-03    -21.6481E-03     83.7515E-03     219.813E-03     52.2864E+06     34.9083E+06    -12.0407E+06    -20.5810E+06    -425.914E+03     21.9526E+06    -19.2400E+06    -20.7585E+06
            1922     104.896E-03     16.6131E-03     103.572E-03     77.8945E-03    -23.2115E-03    -54.6830E-03    -45.9128E-03     69.1243E-03    -23.2115E-03     51.4043E-03     229.122E-03     72.9061E+06     61.9247E+06     14.6227E+06    -18.4935E+06    -2.05157E+06     47.9731E+06     12.1323E+06    -20.0988E+06
            1923     104.188E-03     992.044E-06     104.183E-03     17.3516E-03    -8.50204E-03    -8.84973E-03    -8.68941E-03     17.1913E-03    -8.50204E-03     3.86516E-03     17.4413E-03     19.5833E+06     55.5301E+06     48.4811E+06     33.7837E+06     47.0095E+06     40.2841E+06     50.5013E+06    -1.94225E+06
            1924     104.203E-03     1.98288E-03     104.184E-03     17.8203E-03    -8.59394E-03    -9.22664E-03    -8.74920E-03     17.3429E-03    -8.59394E-03     6.87953E-03     17.8900E-03     19.1938E+06     49.8254E+06     37.4884E+06     28.2096E+06     38.8801E+06     41.1610E+06     35.4822E+06     6.38440E+06
            1925     104.228E-03     2.97483E-03     104.185E-03     18.6441E-03    -8.64000E-03    -10.0039E-03    -8.98640E-03     17.6266E-03    -8.64000E-03     10.4443E-03     18.7462E-03     32.9931E+06     41.3142E+06     17.7053E+06     3.65117E+06     24.7097E+06     21.4707E+06     16.4903E+06     17.5993E+06
            1926     104.263E-03     3.96590E-03     104.188E-03     20.1971E-03    -8.79873E-03    -11.3978E-03    -9.63802E-03     18.4373E-03    -8.79873E-03     14.3652E-03     20.3890E-03     45.8581E+06     33.7312E+06     7.37405E+06    -18.7263E+06     9.92887E+06     5.07599E+06     7.37405E+06     25.5774E+06
            1927     104.309E-03     4.95576E-03     104.192E-03     22.4014E-03    -9.10461E-03    -13.2965E-03    -10.5364E-03     19.6414E-03    -9.10461E-03     18.9465E-03     22.7883E-03     56.4363E+06     26.0392E+06     9.12291E+06    -36.0841E+06    -1.59959E+06    -8.44531E+06     9.12291E+06     30.7333E+06
            1928     104.368E-03     5.94487E-03     104.199E-03     25.0225E-03    -9.48766E-03    -15.5349E-03    -11.6022E-03     21.0899E-03    -9.48766E-03     23.9040E-03     25.7631E-03     57.9437E+06     19.0067E+06     12.1441E+06    -41.9592E+06    -9.29677E+06    -14.5632E+06     13.0516E+06     29.6763E+06
            1929     104.438E-03     6.93267E-03     104.208E-03     28.0738E-03    -9.89912E-03    -18.1743E-03    -12.8867E-03     22.7862E-03    -9.89912E-03     29.3399E-03     29.4078E-03     53.0244E+06     13.9282E+06     11.0039E+06    -40.4756E+06    -13.7011E+06    -13.7538E+06     11.9114E+06     26.4828E+06
            1930     104.523E-03     7.91912E-03     104.222E-03     31.9820E-03    -10.4170E-03    -21.5646E-03    -14.7627E-03     25.1802E-03    -10.4170E-03     35.6006E-03     34.3576E-03     49.2558E+06     15.2277E+06     7.30696E+06    -37.0186E+06    -16.9140E+06    -11.9302E+06     14.3602E+06     22.3276E+06
            1931     104.620E-03     8.90366E-03     104.240E-03     36.8544E-03    -11.1129E-03    -25.7418E-03    -17.6494E-03     28.7620E-03    -11.1129E-03     41.9651E-03     40.9452E-03     47.0396E+06     22.7724E+06     137.276E+03    -30.4162E+06    -18.1193E+06    -12.1597E+06     22.7724E+06     14.4771E+06
            1932     104.733E-03     9.88444E-03     104.266E-03     42.7430E-03    -11.9910E-03    -30.7516E-03    -21.4044E-03     33.3958E-03    -11.9910E-03     48.9316E-03     49.7285E-03     47.2575E+06     30.7523E+06    -3.38423E+06    -22.9703E+06    -16.6778E+06    -9.67668E+06     30.7523E+06     7.93007E+06
            1933     104.861E-03     10.8615E-03     104.297E-03     49.4094E-03    -13.0554E-03    -36.3543E-03    -26.0348E-03     39.0898E-03    -13.0554E-03     55.7255E-03     60.7582E-03     46.7311E+06     34.1782E+06       3.712E+03    -18.9285E+06    -13.8273E+06    -5.09746E+06     34.1782E+06    -2.62157E+06
            1934     105.005E-03     11.8338E-03     104.336E-03     56.4424E-03    -14.3178E-03    -42.1235E-03    -31.4775E-03     45.7963E-03    -14.3178E-03     61.0922E-03     74.1837E-03     51.4649E+06     30.7863E+06     11.8266E+06    -25.6498E+06    -10.8510E+06    -2.97227E+06     30.7863E+06    -17.5498E+06
            1935     105.161E-03     12.8004E-03     104.379E-03     63.9639E-03    -15.7767E-03    -48.1840E-03    -37.3332E-03     53.1132E-03    -15.7767E-03     66.2398E-03     91.6991E-03     52.7068E+06     21.8729E+06     14.2496E+06    -34.1859E+06    -10.7361E+06    -6.95200E+06     19.6248E+06    -24.4886E+06
            1936     105.334E-03     13.7622E-03     104.431E-03     71.4173E-03    -17.4258E-03    -53.9885E-03    -43.6799E-03     61.1087E-03    -17.4258E-03     68.7091E-03     115.203E-03     46.6000E+06     11.5422E+06    -129.389E+03    -39.6123E+06    -12.0039E+06    -18.1014E+06     1.90576E+06    -23.6463E+06
            1937     105.517E-03     14.7164E-03     104.486E-03     78.4333E-03    -19.2446E-03    -59.1852E-03    -48.9720E-03     68.2201E-03    -19.2446E-03     72.1041E-03     152.553E-03     41.1760E+06     15.0825E+06    -6.19952E+06    -31.0095E+06    -7.90839E+06    -8.01865E+06    -6.19952E+06    -21.4900E+06
            1938     105.719E-03     15.6693E-03     104.551E-03     87.4178E-03    -21.0816E-03    -66.3359E-03    -52.0659E-03     73.1477E-03    -21.0816E-03     88.7869E-03     221.315E-03     53.7303E+06     40.6176E+06    -7.68492E+06    -15.5273E+06    -3.08390E+06     28.5644E+06    -8.07508E+06    -21.1326E+06
            1939     105.962E-03     16.6165E-03     104.651E-03     82.7516E-03    -22.9672E-03    -59.7853E-03    -50.8781E-03     73.8444E-03    -22.9672E-03     52.8999E-03     229.046E-03     62.3368E+06     55.4910E+06     13.7258E+06    -9.96940E+06    -2.35068E+06     40.9060E+06     20.6921E+06    -18.5460E+06
            1940     105.203E-03     994.588E-06     105.199E-03     11.5685E-03    -5.63577E-03    -5.93277E-03    -5.76858E-03     11.4043E-03    -5.63577E-03     3.22861E-03     11.6330E-03     25.4202E+06     36.6591E+06     20.3246E+06     8.23132E+06     14.8170E+06     30.0734E+06     20.3246E+06      9.1135E+06
            1941     105.217E-03     1.98909E-03     105.198E-03     12.3730E-03    -5.80255E-03    -6.57054E-03    -6.08378E-03     11.8862E-03    -5.80255E-03     5.81807E-03     12.4420E-03     42.7828E+06     36.4992E+06     10.5053E+06    -11.7737E+06     2.93983E+06     21.7857E+06     10.5053E+06     21.0649E+06
            1942     105.242E-03     2.98260E-03     105.200E-03     13.5789E-03    -5.98359E-03    -7.59505E-03    -6.53017E-03     12.5140E-03    -5.98359E-03     9.13055E-03     13.6773E-03     57.0839E+06     30.3780E+06    -638.610E+03    -34.9502E+06    -9.40431E+06     4.83208E+06    -638.610E+03     31.5830E+06
            1943     105.278E-03     3.97599E-03     105.203E-03     15.3483E-03    -6.23350E-03    -9.11439E-03    -7.22187E-03     13.4558E-03    -6.23350E-03     12.9644E-03     15.5177E-03     67.1472E+06     24.0159E+06    -5.70939E+06    -52.2155E+06    -18.8211E+06    -9.37843E+06    -5.70939E+06     37.6836E+06
            1944     105.327E-03     4.96856E-03     105.209E-03     17.8059E-03    -6.58564E-03    -11.2197E-03    -8.25091E-03     14.8371E-03    -6.58564E-03     17.5080E-03     18.1447E-03     70.6772E+06     18.9732E+06    -2.55401E+06    -59.8686E+06    -22.7393E+06    -18.1561E+06    -2.55401E+06     39.1685E+06
            1945     105.386E-03     5.95978E-03     105.217E-03     20.6596E-03    -6.99980E-03    -13.6595E-03    -9.39745E-03     16.3976E-03    -6.99980E-03     22.5644E-03     21.2922E-03     67.8176E+06     17.7651E+06     2.30777E+06    -56.2534E+06    -23.0756E+06    -15.4127E+06     2.30777E+06     36.5676E+06
            1946     105.458E-03     6.94977E-03     105.229E-03     24.3068E-03    -7.49850E-03    -16.8085E-03    -10.9797E-03     18.4779E-03    -7.49850E-03     28.6234E-03     25.4827E-03     60.1703E+06     14.8384E+06     7.06287E+06    -48.5675E+06    -21.5002E+06    -13.8211E+06     8.65494E+06     30.5031E+06
            1947     105.544E-03     7.93816E-03     105.245E-03     29.2739E-03    -8.14158E-03    -21.1326E-03    -13.4957E-03     21.6370E-03    -8.14158E-03     36.1026E-03     31.4738E-03     53.5897E+06     20.5348E+06     12.7498E+06    -36.2960E+06    -15.5729E+06    -7.95540E+06     20.5168E+06     24.0156E+06
            1948     105.646E-03     8.92297E-03     105.269E-03     35.1265E-03    -8.96775E-03    -26.1585E-03    -16.8846E-03     25.8526E-03    -8.96775E-03     43.8676E-03     38.9841E-03     50.7913E+06     31.0196E+06     9.61422E+06    -26.0205E+06    -10.0457E+06    -6.36060E+06     31.0196E+06     17.3677E+06
            1949     105.762E-03     9.90447E-03     105.298E-03     41.8629E-03    -9.97267E-03    -31.8894E-03    -20.9048E-03     30.8783E-03    -9.97267E-03     52.4497E-03     48.4155E-03     45.9291E+06     37.9871E+06     6.54573E+06    -14.3266E+06    -5.29254E+06    -2.48833E+06     37.9871E+06     8.50143E+06
            1950     105.897E-03     10.8823E-03     105.336E-03     49.5453E-03    -11.1705E-03    -38.3735E-03    -25.9130E-03     37.0848E-03    -11.1705E-03     61.2325E-03     60.1772E-03     41.4527E+06     43.9926E+06     14.0454E+06    -3.20506E+06     996.562E+03     9.84374E+06     43.9926E+06    -2.80693E+06
            1951     106.047E-03     11.8546E-03     105.382E-03     57.5929E-03    -12.5939E-03    -44.9974E-03    -32.1009E-03     44.6965E-03    -12.5939E-03     67.9014E-03     74.3483E-03     44.2799E+06     39.3638E+06     17.0107E+06    -9.60785E+06      12.904E+03     7.38997E+06     39.3638E+06    -10.8292E+06
            1952     106.211E-03     12.8210E-03     105.434E-03     66.5138E-03    -14.2644E-03    -52.2479E-03    -39.1243E-03     53.3901E-03    -14.2644E-03     74.3702E-03     93.4111E-03     44.5456E+06     25.0066E+06     8.51130E+06    -23.4329E+06    -10.6297E+06    -4.29184E+06     25.0066E+06    -13.1637E+06
            1953     106.391E-03     13.7790E-03     105.495E-03     75.0792E-03    -16.1551E-03    -58.9202E-03    -46.1574E-03     62.3164E-03    -16.1551E-03     78.4808E-03     117.422E-03     49.9020E+06     20.2847E+06     1.41988E+06    -35.6973E+06    -16.1407E+06    -7.15023E+06     9.29831E+06    -22.8947E+06
            1954     106.582E-03     14.7325E-03     105.559E-03     82.8302E-03    -18.2171E-03    -64.6007E-03    -52.4467E-03     70.6762E-03    -18.2171E-03     81.0098E-03     154.979E-03     54.7754E+06     20.3668E+06    -5.22840E+06    -42.1602E+06    -11.3264E+06    -10.4670E+06    -5.22840E+06    -30.0994E+06
            1955     106.787E-03     15.6788E-03     105.629E-03     92.2738E-03    -20.3484E-03    -71.9178E-03    -56.7623E-03     77.1183E-03    -20.3484E-03     94.7431E-03     223.180E-03     68.0597E+06     48.3796E+06    -5.78775E+06    -25.7154E+06    -5.56033E+06     28.3494E+06    -5.91258E+06    -24.4259E+06
            1956     107.033E-03     16.6264E-03     105.733E-03     88.6291E-03    -22.5406E-03    -66.0896E-03    -57.0116E-03     79.5510E-03    -22.5406E-03     52.7289E-03     227.544E-03     66.9237E+06     54.8389E+06     8.76766E+06    -16.7419E+06    -3.08076E+06     34.7899E+06     15.1554E+06    -18.6858E+06
            1957     106.211E-03     996.559E-06     106.206E-03     7.26353E-03    -3.52352E-03    -3.74015E-03    -3.58227E-03     7.11759E-03    -3.53546E-03     2.37731E-03     7.35258E-03     46.2323E+06     18.4821E+06    -10.4504E+06    -34.1360E+06    -16.0745E+06     420.508E+03    -10.4504E+06     22.8720E+06
            1958     106.227E-03     1.99314E-03     106.208E-03     8.13919E-03    -3.69605E-03    -4.44318E-03    -3.96882E-03     7.66483E-03    -3.69605E-03     4.64621E-03     8.26727E-03     67.9907E+06     24.5577E+06    -11.5705E+06    -52.8111E+06    -23.7504E+06    -4.50300E+06    -11.5705E+06     36.6306E+06
            1959     106.252E-03     2.98882E-03     106.210E-03     9.67898E-03    -3.96257E-03    -5.71624E-03    -4.59774E-03     8.56048E-03    -3.96257E-03     7.86343E-03     9.87602E-03     77.4912E+06     22.8734E+06    -7.76096E+06    -65.1094E+06    -27.1970E+06    -15.0391E+06    -7.76096E+06     42.9510E+06
            1960     106.289E-03     3.98378E-03     106.215E-03     11.8186E-03    -4.28550E-03    -7.53300E-03    -5.46374E-03     9.74937E-03    -4.28550E-03     11.8741E-03     12.1110E-03     81.3330E+06     21.3402E+06    -4.26114E+06    -69.5123E+06    -25.4913E+06    -22.6809E+06    -4.26114E+06     44.7354E+06
            1961     106.338E-03     4.97787E-03     106.222E-03     14.2632E-03    -4.65140E-03    -9.61157E-03    -6.44404E-03     11.0957E-03    -4.65140E-03     16.1347E-03     14.6906E-03     78.1365E+06     19.7543E+06    -2.29112E+06    -66.9898E+06    -23.1396E+06    -24.0959E+06    -2.29112E+06     42.8128E+06
            1962     106.399E-03     5.97100E-03     106.232E-03     17.0749E-03    -5.06341E-03    -12.0113E-03    -7.53501E-03     12.5986E-03    -5.06341E-03     20.9381E-03     17.7440E-03     69.5365E+06     19.6163E+06     1.63488E+06    -57.0378E+06    -20.0436E+06    -17.3779E+06     1.63488E+06     37.7498E+06
            1963     106.473E-03     6.96339E-03     106.245E-03     21.2161E-03    -5.59178E-03    -15.6244E-03    -9.37008E-03     14.9618E-03    -5.59178E-03     27.6226E-03     22.4168E-03     60.8892E+06     20.0760E+06     10.4348E+06    -44.8783E+06    -15.6474E+06    -10.7470E+06     12.0269E+06     31.1136E+06
            1964     106.562E-03     7.95273E-03     106.265E-03     26.7489E-03    -6.28021E-03    -20.4686E-03    -12.0710E-03     18.3513E-03    -6.28021E-03     36.0670E-03     28.9095E-03     52.5313E+06     24.9610E+06     14.6032E+06    -31.6584E+06    -11.9991E+06    -4.24699E+06     24.1520E+06     23.1124E+06
            1965     106.668E-03     8.93968E-03     106.293E-03     33.0129E-03    -7.11661E-03    -25.8956E-03    -15.3393E-03     22.4566E-03    -7.11661E-03     45.1235E-03     36.6307E-03     44.9953E+06     30.4834E+06     12.7014E+06    -20.5289E+06    -6.38586E+06    -1.44158E+06     30.4834E+06     16.1868E+06
            1966     106.790E-03     9.92299E-03     106.328E-03     40.6451E-03    -8.13379E-03    -32.5106E-03    -19.5522E-03     27.6867E-03    -8.13379E-03     55.7780E-03     46.7499E-03     38.7369E+06     36.2745E+06     13.9290E+06    -8.10978E+06    -1.38579E+06     7.20499E+06     36.2745E+06     8.19896E+06
            1967     106.929E-03     10.9015E-03     106.372E-03     49.6400E-03    -9.40408E-03    -40.2348E-03    -25.1959E-03     34.6010E-03    -9.40408E-03     66.9844E-03     59.6609E-03     42.6048E+06     44.0213E+06     21.8540E+06    -3.93894E+06    -2.18571E+06     20.1008E+06     44.0213E+06    -220.817E+03
            1968     107.087E-03     11.8746E-03     106.427E-03     58.8520E-03    -10.9493E-03    -47.9018E-03    -32.2246E-03     43.1748E-03    -10.9493E-03     75.3951E-03     74.9191E-03     44.7241E+06     41.5103E+06     15.8727E+06    -8.57006E+06    -3.14149E+06     10.4441E+06     41.5103E+06    -3.97598E+06
            1969     107.259E-03     12.8399E-03     106.488E-03     68.6552E-03    -12.7657E-03    -55.8895E-03    -39.7918E-03     52.5574E-03    -12.7657E-03     83.4391E-03     94.8269E-03     39.6983E+06     35.7699E+06     12.2060E+06    -8.70670E+06     3.13118E+06     368.158E+03     35.7699E+06    -7.50837E+06
            1970     107.450E-03     13.7994E-03     106.560E-03     78.2327E-03    -14.8083E-03    -63.4276E-03    -47.5264E-03     62.3315E-03    -14.8083E-03     89.2028E-03     119.450E-03     44.7521E+06     39.1105E+06     21.0722E+06    -11.3350E+06     5.90204E+06     14.3001E+06     28.6454E+06    -18.9565E+06
            1971     107.648E-03     14.7501E-03     106.632E-03     87.7165E-03    -17.0580E-03    -70.6448E-03    -55.6898E-03     72.7615E-03    -17.0580E-03     92.4781E-03     158.032E-03     55.1845E+06     25.8283E+06     1.10157E+06    -37.2745E+06    -747.973E+03    -10.6983E+06     1.10157E+06    -27.1249E+06
            1972     107.863E-03     15.6944E-03     106.715E-03     98.2812E-03    -19.4641E-03    -78.8012E-03    -62.1418E-03     81.6218E-03    -19.4641E-03     103.310E-03     225.633E-03     84.0436E+06     56.7031E+06    -8.19706E+06    -34.7756E+06    -4.77421E+06     26.7018E+06    -8.19706E+06    -26.5646E+06
            1973     108.106E-03     16.6322E-03     106.819E-03     95.8716E-03    -22.0427E-03    -73.8296E-03    -64.5212E-03     86.5632E-03    -22.0427E-03     55.6639E-03     226.226E-03     86.0073E+06     59.6122E+06     4.97821E+06    -31.0102E+06    -2.10669E+06     26.7132E+06     8.97370E+06    -21.9411E+06
            1974     107.218E-03     998.262E-06     107.213E-03     4.52429E-03    -2.15212E-03    -2.37219E-03    -2.23404E-03     4.39808E-03    -2.16407E-03     1.70574E-03     4.67207E-03     48.1394E+06    -21.0541E+06    -50.2104E+06    -76.4193E+06    -52.2628E+06    -45.2106E+06    -50.2104E+06     26.9193E+06
            1975     107.232E-03     1.99539E-03     107.214E-03     5.34184E-03    -2.34430E-03    -2.99765E-03    -2.53002E-03     4.87421E-03    -2.34430E-03     3.71536E-03     5.57044E-03     70.3188E+06     2.00416E+06    -32.5585E+06    -78.3490E+06    -42.5513E+06    -33.7935E+06    -32.5585E+06     39.5168E+06
            1976     107.259E-03     2.99311E-03     107.217E-03     6.88461E-03    -2.58522E-03    -4.29940E-03    -3.12634E-03     5.71155E-03    -2.58522E-03     6.77366E-03     7.21103E-03     78.8459E+06     11.6172E+06    -17.4098E+06     -77.544E+06    -32.0036E+06    -33.9231E+06    -17.4098E+06     44.5512E+06
            1977     107.297E-03     3.98964E-03     107.222E-03     9.17259E-03    -2.89555E-03    -6.27685E-03    -4.08140E-03     6.97714E-03    -2.89555E-03     10.7361E-03     9.62010E-03     81.1580E+06     16.1784E+06    -7.40528E+06    -74.0359E+06    -24.4007E+06    -33.4568E+06    -7.40528E+06     44.6889E+06
            1978     107.347E-03     4.98486E-03     107.232E-03     11.5871E-03    -3.25570E-03    -8.33127E-03    -5.00270E-03     8.25857E-03    -3.25570E-03     14.8212E-03     12.1453E-03     78.3333E+06     19.4558E+06    -1.68750E+06    -67.2449E+06    -18.2482E+06    -29.5409E+06    -1.68750E+06     42.8944E+06
            1979     107.409E-03     5.97969E-03     107.242E-03     14.6273E-03    -3.65672E-03    -10.9705E-03    -6.21234E-03     9.86912E-03    -3.65672E-03     19.8801E-03     15.4131E-03     66.8723E+06     22.3242E+06     3.65123E+06    -51.7189E+06    -12.9561E+06    -16.4385E+06     3.65123E+06     36.6345E+06
            1980     107.485E-03     6.97253E-03     107.258E-03     19.1353E-03    -4.19183E-03    -14.9435E-03    -8.12357E-03     12.3154E-03    -4.19183E-03     27.2285E-03     20.4290E-03     55.8538E+06     22.6183E+06     13.2024E+06    -37.0039E+06    -7.13798E+06    -8.47731E+06     14.4322E+06     28.6895E+06
            1981     107.577E-03     7.96379E-03     107.282E-03     24.6752E-03    -4.86612E-03    -19.8089E-03    -10.5075E-03     15.3737E-03    -4.86612E-03     36.1304E-03     26.8079E-03     50.4338E+06     28.0696E+06     20.7797E+06    -25.3012E+06    -1.46890E+06    -1.37087E+06     26.3879E+06     23.6836E+06
            1982     107.686E-03     8.95220E-03     107.313E-03     31.0102E-03    -5.65196E-03    -25.3577E-03    -13.4492E-03     19.1017E-03    -5.65196E-03     45.9613E-03     34.4314E-03     41.1738E+06     32.5364E+06     18.2876E+06     -13.263E+06     1.03967E+06     4.85754E+06     31.6638E+06     16.0061E+06
            1983     107.812E-03     9.93808E-03     107.353E-03     39.3084E-03    -6.62931E-03    -32.6789E-03    -17.6836E-03     24.3131E-03    -6.62931E-03     58.4012E-03     45.0764E-03     36.2513E+06     39.4886E+06     19.2814E+06    -2.29121E+06     3.38134E+06     13.6089E+06     39.4886E+06     8.94010E+06
            1984     107.960E-03     10.9193E-03     107.406E-03     49.4320E-03    -7.88358E-03    -41.5489E-03    -23.8016E-03     31.6846E-03    -7.88358E-03     71.9934E-03     59.0235E-03     43.8876E+06     50.2266E+06     29.4750E+06     501.022E+03     5.38323E+06     24.5928E+06     50.2266E+06     6.54521E+06
            1985     108.126E-03     11.8930E-03     107.470E-03     59.6983E-03    -9.44249E-03    -50.2562E-03    -31.2595E-03     40.7015E-03    -9.44249E-03     82.9585E-03     75.0608E-03     47.0602E+06      51.593E+06     27.3819E+06    -1.57074E+06     7.60898E+06     18.2022E+06      51.593E+06    -1.72120E+06
            1986     108.308E-03     12.8597E-03     107.541E-03     70.2548E-03    -11.2783E-03    -58.9765E-03    -39.1669E-03     50.4452E-03    -11.2783E-03     92.9530E-03     95.1288E-03     42.8449E+06     44.0142E+06     23.0035E+06    -4.29153E+06     11.0267E+06     7.68525E+06     44.0142E+06    -12.2459E+06
            1987     108.506E-03     13.8193E-03     107.622E-03     81.2273E-03    -13.4045E-03    -67.8283E-03    -47.9667E-03     61.3656E-03    -13.4045E-03     101.039E-03     121.014E-03     40.1537E+06     43.6120E+06     33.0013E+06    -586.329E+03     11.7151E+06     23.1543E+06     41.1575E+06    -13.4638E+06
            1988     108.718E-03     14.7703E-03     107.710E-03     92.5282E-03    -15.8135E-03    -76.7131E-03    -58.0676E-03     73.8827E-03    -15.8135E-03     105.690E-03     160.519E-03     50.7573E+06     33.0472E+06     16.3697E+06    -23.7368E+06     9.11140E+06    -1.61540E+06     18.1842E+06    -19.0412E+06
            1989     108.940E-03     15.7103E-03     107.802E-03     105.562E-03    -18.4829E-03    -87.0724E-03    -67.8408E-03     86.3308E-03    -18.4829E-03     115.448E-03     227.724E-03     82.3838E+06     64.2745E+06     5.17766E+06    -25.5259E+06     8.11919E+06     30.6294E+06     5.17766E+06    -26.3173E+06
            1990     109.194E-03     16.6443E-03     107.918E-03     105.495E-03    -21.4984E-03    -83.9967E-03    -73.7306E-03     95.2290E-03    -21.4984E-03     61.9937E-03     225.256E-03     96.2374E+06     60.5539E+06     11.8068E+06    -39.7848E+06     6.69823E+06     12.0122E+06     13.8655E+06    -19.7526E+06
            1991     108.220E-03     998.050E-06     108.215E-03     3.03646E-03    -1.46222E-03    -1.57419E-03    -1.48074E-03     2.95591E-03    -1.47514E-03     1.06196E-03     3.15853E-03     66.7282E+06    -72.3665E+06    -129.822E+06    -144.279E+06    -129.354E+06    -82.8127E+06    -134.301E+06     14.6213E+06
            1992     108.236E-03     1.99706E-03     108.218E-03     3.58890E-03    -1.55956E-03    -2.02937E-03    -1.66679E-03     3.22632E-03    -1.55956E-03     2.66750E-03     3.78224E-03     81.9142E+06    -39.7933E+06    -104.031E+06    -128.438E+06    -106.847E+06    -56.5331E+06    -108.882E+06     21.6292E+06
            1993     108.262E-03     2.99477E-03     108.221E-03     5.06642E-03    -1.78888E-03    -3.27757E-03    -2.23131E-03     4.02017E-03    -1.78888E-03     5.46852E-03     5.38380E-03     69.4652E+06    -26.7149E+06    -71.8462E+06    -102.526E+06    -76.8466E+06    -49.4101E+06    -74.8309E+06     25.9492E+06
            1994     108.302E-03     3.99225E-03     108.229E-03     6.98316E-03    -2.06282E-03    -4.92019E-03    -2.90839E-03     4.97137E-03    -2.06282E-03     8.90399E-03     7.43163E-03     60.8395E+06    -13.0462E+06    -46.1968E+06    -79.8590E+06    -47.8680E+06    -43.7240E+06    -47.5100E+06     29.3784E+06
            1995     108.353E-03     4.98928E-03     108.238E-03     9.25609E-03    -2.37948E-03    -6.87647E-03    -3.74689E-03     6.12652E-03    -2.37948E-03     12.7482E-03     9.82428E-03     57.0973E+06     2.08314E+06    -23.5791E+06    -61.4432E+06    -22.9993E+06    -36.3608E+06    -23.5791E+06     30.4134E+06
            1996     108.416E-03     5.98498E-03     108.251E-03     12.6606E-03    -2.75198E-03    -9.90849E-03    -5.07250E-03     7.82466E-03    -2.75198E-03     18.5011E-03     13.4924E-03     57.9388E+06     20.4363E+06    -4.39646E+06    -45.4278E+06    -6.86503E+06    -18.1265E+06    -4.39646E+06     31.1359E+06
            1997     108.494E-03     6.97921E-03     108.269E-03     17.3989E-03    -3.24667E-03    -14.1521E-03    -6.89995E-03     10.1468E-03    -3.24667E-03     26.5265E-03     18.7204E-03     53.6806E+06     25.6220E+06     7.96585E+06    -34.2152E+06    -2.94534E+06    -6.87758E+06     9.19556E+06     28.4630E+06
            1998     108.589E-03     7.97137E-03     108.296E-03     22.8757E-03    -3.84996E-03    -19.0256E-03    -8.95409E-03     12.8041E-03    -3.84996E-03     35.7790E-03     24.9243E-03     44.4660E+06     23.4310E+06     17.1161E+06    -23.6767E+06    -1.78864E+06     313.220E+03     18.3458E+06     22.5507E+06
            1999     108.701E-03     8.96209E-03     108.330E-03     29.4487E-03    -4.57983E-03    -24.8686E-03    -11.6764E-03     16.2565E-03    -4.57983E-03     46.5461E-03     32.6866E-03     36.2444E+06     33.1923E+06     24.2962E+06    -5.99059E+06     5.18647E+06     14.4475E+06     31.8639E+06     13.8348E+06
            2000     108.831E-03     9.94931E-03     108.375E-03     38.4335E-03    -5.52304E-03    -32.9104E-03    -15.9741E-03     21.4972E-03    -5.52304E-03     60.6658E-03     43.9120E-03     39.1244E+06     48.5273E+06     28.0857E+06     3.60722E+06     14.9430E+06     16.7499E+06     48.5273E+06     5.81816E+06
            2001     108.985E-03     10.9320E-03     108.435E-03     49.0588E-03    -6.68689E-03    -42.3718E-03    -21.8039E-03     28.4908E-03    -6.68689E-03     76.2496E-03     58.0972E-03     39.7324E+06     59.6721E+06     35.4097E+06     13.9947E+06     26.3228E+06     23.0816E+06     59.6721E+06     5.21885E+06
            2002     109.160E-03     11.9091E-03     108.509E-03     59.6716E-03    -8.14099E-03    -51.5305E-03    -28.8812E-03     37.0223E-03    -8.14099E-03     89.3769E-03     73.9392E-03     38.1168E+06     67.7228E+06     39.8720E+06     25.3793E+06     33.4329E+06     31.8184E+06     67.7228E+06     293.558E+03
            2003     109.351E-03     12.8791E-03     108.590E-03     71.2181E-03    -9.91454E-03    -61.3036E-03    -37.5617E-03     47.4762E-03    -9.91454E-03     101.459E-03     94.3321E-03     53.1076E+06     59.0764E+06     35.8891E+06     1.66263E+06     28.0201E+06     9.53172E+06     59.0764E+06    -3.15739E+06
            2004     109.561E-03     13.8403E-03     108.684E-03     83.8919E-03    -12.0465E-03    -71.8440E-03    -47.6878E-03     59.7357E-03    -12.0465E-03     112.544E-03     121.322E-03     59.5052E+06     60.6389E+06     49.5903E+06    -3.30873E+06     19.8434E+06     28.9474E+06     58.1298E+06    -6.09821E+06
            2005     109.787E-03     14.7911E-03     108.786E-03     97.2196E-03    -14.5513E-03    -82.6668E-03    -59.7548E-03     74.3076E-03    -14.5513E-03     119.584E-03     161.017E-03     65.1668E+06     54.2758E+06     39.6450E+06    -16.8128E+06     20.9928E+06     14.6558E+06     41.4594E+06    -19.3472E+06
            2006     110.025E-03     15.7311E-03     108.894E-03     113.711E-03    -17.4828E-03    -96.2285E-03    -73.7106E-03     91.1934E-03    -17.4828E-03     129.847E-03     229.673E-03     77.8922E+06     67.0760E+06     25.1738E+06    -19.5803E+06     18.5647E+06     28.9309E+06     25.1738E+06    -20.2626E+06
            2007     110.291E-03     16.6553E-03     109.026E-03     116.261E-03    -20.9834E-03    -95.2774E-03    -83.6493E-03     104.633E-03    -20.9834E-03     69.2342E-03     225.947E-03     99.9760E+06     63.6081E+06     20.0298E+06    -45.8642E+06     8.12500E+06    -2.36451E+06     32.0132E+06    -8.21656E+06
            2008     109.223E-03     998.192E-06     109.219E-03     3.36087E-03    -1.63654E-03    -1.72428E-03    -1.68747E-03     3.33696E-03    -1.64945E-03     507.214E-06     3.45155E-03     86.0928E+06    -92.1673E+06    -175.082E+06    -181.053E+06    -174.252E+06    -92.9976E+06    -181.053E+06    -2.06770E+06
            2009     109.238E-03     1.99573E-03     109.220E-03     3.66878E-03    -1.68414E-03    -1.98459E-03    -1.80734E-03     3.49152E-03    -1.68414E-03     1.62583E-03     3.81973E-03     102.862E+06    -62.1851E+06    -161.426E+06    -168.248E+06    -160.611E+06    -63.6966E+06    -167.551E+06    -4.30909E+06
            2010     109.266E-03     2.99395E-03     109.225E-03     4.47508E-03    -1.82180E-03    -2.65331E-03    -2.03577E-03     3.85753E-03    -1.82180E-03     3.78948E-03     4.74820E-03     88.0970E+06    -53.6487E+06    -139.307E+06    -143.940E+06    -137.482E+06    -56.1698E+06    -143.243E+06    -3.99557E+06
            2011     109.305E-03     3.99157E-03     109.232E-03     5.57505E-03    -1.92982E-03    -3.64528E-03    -2.31569E-03     4.24546E-03    -1.92982E-03     6.35079E-03     5.92214E-03     81.2781E+06    -40.0207E+06    -114.987E+06    -126.000E+06    -107.260E+06    -49.2306E+06    -124.517E+06    -3.40163E+06
            2012     109.357E-03     4.98918E-03     109.243E-03     7.34422E-03    -2.09647E-03    -5.24778E-03    -2.87130E-03     4.96773E-03    -2.09647E-03     9.81405E-03     7.75051E-03     74.5432E+06    -23.3659E+06    -85.0291E+06    -105.716E+06    -73.7955E+06    -41.3926E+06    -98.9224E+06    -1.43743E+06
            2013     109.421E-03     5.98622E-03     109.257E-03     10.5610E-03    -2.42526E-03    -8.13651E-03    -3.98199E-03     6.40646E-03    -2.42526E-03     15.5289E-03     11.1936E-03     59.5964E+06    -4.44297E+06    -46.4700E+06    -71.6649E+06    -38.5764E+06    -27.9511E+06    -56.0503E+06     5.47045E+06
            2014     109.501E-03     6.98190E-03     109.278E-03     15.1073E-03    -2.86248E-03    -12.2457E-03    -5.55010E-03     8.41168E-03    -2.86248E-03     23.5132E-03     16.1914E-03     47.4508E+06     14.5072E+06    -13.3382E+06    -38.7063E+06    -7.57367E+06    -13.6731E+06    -16.2905E+06     16.6977E+06
            2015     109.598E-03     7.97565E-03     109.307E-03     20.5620E-03    -3.36532E-03    -17.1968E-03    -7.42450E-03     10.7897E-03    -3.36532E-03     33.0700E-03     22.3090E-03     34.8675E+06     26.5135E+06     10.0253E+06    -11.4270E+06     10.0256E+06     5.06087E+06     10.0253E+06     17.2951E+06
            2016     109.712E-03     8.96749E-03     109.344E-03     27.6418E-03    -4.02439E-03    -23.6173E-03    -10.1506E-03     14.1750E-03    -4.02439E-03     45.1156E-03     30.5181E-03     30.3307E+06     38.0310E+06     27.2377E+06     4.52530E+06     15.5283E+06     20.0842E+06     34.1815E+06     11.0454E+06
            2017     109.847E-03     9.95671E-03     109.395E-03     37.0498E-03    -4.86693E-03    -32.1827E-03    -14.1384E-03     19.0055E-03    -4.86693E-03     60.7595E-03     41.9153E-03     43.3098E+06     50.3213E+06     34.2214E+06     1.61068E+06     14.3180E+06     21.5141E+06     50.3213E+06     6.10503E+06
            2018     110.007E-03     10.9412E-03     109.461E-03     47.8664E-03    -5.87551E-03    -41.9906E-03    -19.1489E-03     25.0247E-03    -5.87551E-03     78.1922E-03     55.7981E-03     44.4896E+06     55.2108E+06     33.4811E+06     4.95725E+06     13.8627E+06     24.5757E+06     55.2108E+06    -609.046E+03
            2019     110.189E-03     11.9216E-03     109.542E-03     58.9289E-03    -7.15875E-03    -51.7705E-03    -25.8619E-03     33.0203E-03    -7.15875E-03     93.5970E-03     71.4269E-03     42.9762E+06     63.7171E+06     35.9935E+06     16.0742E+06     17.1926E+06     34.8751E+06     63.7171E+06    -411.316E+03
            2020     110.391E-03     12.8948E-03     109.636E-03     71.4039E-03    -8.80880E-03    -62.5947E-03    -35.1887E-03     43.9980E-03    -8.80880E-03     107.903E-03     91.9204E-03     62.0975E+06     62.0402E+06     34.4507E+06    -5.58960E+06     22.6461E+06     6.21498E+06     62.0402E+06     2.27040E+06
            2021     110.613E-03     13.8579E-03     109.742E-03     85.6659E-03    -10.8742E-03    -74.7897E-03    -46.6380E-03     57.5142E-03    -10.8742E-03     121.832E-03     119.489E-03     77.1828E+06     81.2576E+06     58.3857E+06    -3.57890E+06     25.5202E+06     39.7189E+06     70.8252E+06     26.1708E+03
            2022     110.854E-03     14.8109E-03     109.860E-03     101.749E-03    -13.4332E-03    -88.3139E-03    -61.3587E-03     74.7934E-03    -13.4332E-03     132.170E-03     159.729E-03     78.2321E+06     72.7070E+06     54.1513E+06    -12.9595E+06     18.7294E+06     37.7025E+06     57.4670E+06    -15.2192E+06
            2023     111.111E-03     15.7468E-03     109.990E-03     122.061E-03    -16.5834E-03    -105.478E-03    -79.2594E-03     95.8431E-03    -16.5834E-03     145.138E-03     231.410E-03     60.6028E+06     47.5917E+06     25.2223E+06    -19.6039E+06     12.6511E+06     12.0210E+06      28.538E+06    -16.9851E+06
            2024     111.401E-03     16.6657E-03     110.147E-03     126.300E-03    -20.4960E-03    -105.804E-03    -92.4208E-03     112.917E-03    -20.4960E-03     78.5205E-03     228.598E-03     88.0792E+06     53.9072E+06     20.0416E+06    -44.9448E+06     9.61178E+06    -20.2690E+06     39.6612E+06     5.11914E+06
            2025     110.227E-03     996.900E-06     110.223E-03     5.52225E-03    -2.64839E-03    -2.87384E-03    -2.84066E-03     5.51270E-03    -2.67202E-03     524.320E-06     5.63959E-03     65.8526E+06    -82.3921E+06    -145.208E+06    -150.714E+06    -147.697E+06    -83.9173E+06    -146.700E+06    -9.41972E+06
            2026     110.243E-03     1.99382E-03     110.225E-03     5.97973E-03    -2.81520E-03    -3.16454E-03    -3.11898E-03     5.93417E-03    -2.81520E-03     839.790E-06     6.18575E-03     94.1950E+06    -52.2677E+06    -142.863E+06    -149.582E+06    -145.351E+06    -55.2241E+06    -144.137E+06    -16.0367E+06
            2027     110.270E-03     2.99012E-03     110.229E-03     6.09756E-03    -2.90883E-03    -3.18876E-03    -3.00802E-03     5.92379E-03    -2.91580E-03     1.91858E-03     6.45359E-03     100.227E+06    -43.8847E+06    -140.576E+06    -147.193E+06    -140.796E+06    -49.3301E+06    -141.527E+06    -21.9277E+06
            2028     110.309E-03     3.98729E-03     110.237E-03     6.26424E-03    -2.85225E-03    -3.41202E-03    -2.87148E-03     5.79317E-03    -2.92173E-03     3.43763E-03     6.72592E-03     106.669E+06    -34.8943E+06    -130.115E+06    -149.309E+06    -132.560E+06    -43.4268E+06    -138.332E+06    -27.7234E+06
            2029     110.360E-03     4.98428E-03     110.247E-03     7.19714E-03    -2.89489E-03    -4.30216E-03    -3.08380E-03     6.04129E-03    -2.95740E-03     6.24718E-03     7.77395E-03     105.510E+06    -26.9318E+06    -112.832E+06    -144.530E+06    -118.645E+06    -38.9236E+06    -126.725E+06    -31.8305E+06
            2030     110.425E-03     5.98107E-03     110.263E-03     9.38610E-03    -3.11114E-03    -6.27568E-03    -3.73145E-03     6.84188E-03    -3.11114E-03     11.1820E-03     10.1270E-03     86.0035E+06    -21.9066E+06    -91.6234E+06    -117.917E+06    -95.3095E+06    -34.9341E+06    -101.204E+06    -30.0592E+06
            2031     110.506E-03     6.97704E-03     110.286E-03     12.7301E-03    -3.31652E-03    -9.41447E-03    -4.64362E-03     7.95926E-03    -3.31652E-03     18.0521E-03     13.6236E-03     75.3994E+06    -3.75324E+06    -71.5993E+06    -84.1912E+06    -58.5158E+06    -26.0681E+06    -74.9599E+06    -22.1482E+06
            2032     110.604E-03     7.97279E-03     110.317E-03     17.4818E-03    -3.61734E-03    -13.8647E-03    -6.03786E-03     9.65501E-03    -3.61734E-03     27.0918E-03     18.6782E-03     61.4847E+06     21.4715E+06    -34.1454E+06    -43.7636E+06    -17.1312E+06     933.215E+03    -40.2396E+06    -9.67414E+06
            2033     110.720E-03     8.96640E-03     110.357E-03     24.7055E-03    -4.17899E-03    -20.5265E-03    -8.54523E-03     12.7242E-03    -4.17899E-03     39.9127E-03     26.7701E-03     36.9440E+06     32.4273E+06     10.2091E+06    -8.86949E+06     9.91127E+06     14.4726E+06     9.38309E+06     3.11393E+06
            2034     110.860E-03     9.95632E-03     110.412E-03     34.1088E-03    -4.88708E-03    -29.2214E-03    -11.9376E-03     16.8249E-03    -4.88708E-03     56.4182E-03     37.7572E-03     36.5152E+06     44.4133E+06     36.7629E+06     5.00768E+06     19.7254E+06     22.4431E+06     44.0153E+06     9.76230E+06
            2035     111.023E-03     10.9443E-03     110.483E-03     45.0644E-03    -5.73253E-03    -39.3316E-03    -16.3761E-03     22.1089E-03    -5.73253E-03     75.1030E-03     51.3189E-03     49.0865E+06     61.3725E+06     41.3189E+06     6.83097E+06     16.5431E+06     32.0048E+06     60.9745E+06     6.89451E+06
            2036     111.213E-03     11.9274E-03     110.572E-03     56.9406E-03    -6.82333E-03    -50.1187E-03    -22.9033E-03     29.7252E-03    -6.82333E-03     93.1583E-03     67.1056E-03     55.1774E+06     68.0091E+06     34.6043E+06     5.13759E+06     9.46255E+06     30.2793E+06     68.0091E+06     4.33780E+06
            2037     111.425E-03     12.9032E-03     110.675E-03     70.4274E-03    -8.26168E-03    -62.1662E-03    -32.3397E-03     40.6008E-03    -8.26168E-03     110.587E-03     87.3465E-03     60.2068E+06     65.7393E+06     26.2844E+06    -2.22532E+06     10.2127E+06     13.8464E+06     65.7393E+06    -1.70012E+06
            2038     111.661E-03     13.8701E-03     110.796E-03     86.5498E-03    -10.1916E-03    -76.3565E-03    -45.2323E-03     55.4256E-03    -10.1916E-03     127.851E-03     115.368E-03     68.9179E+06     77.5508E+06     38.2622E+06    -647.599E+03     14.1783E+06     31.3594E+06     69.6276E+06     1.98858E+06
            2039     111.920E-03     14.8229E-03     110.934E-03     105.159E-03    -12.7510E-03    -92.4070E-03    -61.4370E-03     74.1889E-03    -12.7510E-03     143.284E-03     154.537E-03     86.0832E+06     85.6628E+06     61.0256E+06    -9.15963E+06     3.82904E+06     61.3062E+06     72.3936E+06     5.49680E+06
            2040     112.201E-03     15.7575E-03     111.089E-03     129.663E-03    -15.9126E-03    -113.750E-03    -81.4975E-03     97.4106E-03    -15.9126E-03     164.694E-03     227.151E-03     65.6928E+06     34.0932E+06     23.0252E+06    -36.1417E+06    -18.0153E+06     12.0751E+06     26.9168E+06    -8.98998E+06
            2041     112.514E-03     16.6731E-03     111.272E-03     136.412E-03    -20.0149E-03    -116.399E-03    -99.2704E-03     119.283E-03    -20.0149E-03     97.5250E-03     233.102E-03     80.5559E+06     27.1924E+06    -12.2012E+06    -60.2094E+06    -20.2488E+06    -50.3315E+06     25.3621E+06    -1.79692E+06
            2042     111.234E-03     996.146E-06     111.230E-03     9.15314E-03    -4.40025E-03    -4.75297E-03    -4.53675E-03     9.14416E-03    -4.60749E-03     106.857E-06     9.27059E-03     38.2037E+06    -64.3810E+06    -96.3089E+06    -105.226E+06    -100.861E+06    -68.7459E+06    -96.3089E+06    -8.05982E+06
            2043     111.251E-03     1.99041E-03     111.233E-03     9.71121E-03    -4.66827E-03    -5.04301E-03    -5.03653E-03     9.70474E-03    -4.66827E-03    -116.153E-06     9.92093E-03     64.6548E+06    -35.0451E+06    -93.9721E+06    -104.077E+06    -99.7533E+06    -39.3685E+06    -93.9721E+06    -15.8019E+06
            2044     111.277E-03     2.98519E-03     111.237E-03     9.89625E-03    -4.81897E-03    -5.07723E-03    -5.04743E-03     9.87342E-03    -4.82594E-03    -91.9305E-06     10.2817E-03     76.2646E+06    -25.3626E+06    -92.5799E+06    -107.659E+06    -98.3322E+06    -34.6896E+06    -92.5799E+06    -25.4939E+06
            2045     111.315E-03     3.97989E-03     111.244E-03     9.79337E-03    -4.84634E-03    -4.94693E-03    -4.82114E-03     9.73705E-03    -4.91582E-03     671.983E-06     10.3753E-03     84.0717E+06    -15.9345E+06    -83.5917E+06    -109.398E+06    -95.6830E+06    -29.6498E+06    -83.5917E+06    -32.7778E+06
            2046     111.366E-03     4.97521E-03     111.255E-03     10.1650E-03    -4.91347E-03    -5.25111E-03    -4.94335E-03     9.91975E-03    -4.97598E-03     2.66805E-03     11.0628E-03     90.3575E+06    -9.67750E+06    -75.3259E+06    -112.443E+06    -94.0332E+06    -28.0874E+06    -75.3259E+06    -39.1743E+06
            2047     111.431E-03     5.96993E-03     111.271E-03     11.1017E-03    -5.01910E-03    -6.08203E-03    -5.20098E-03     10.2206E-03    -5.01910E-03     6.28758E-03     12.3402E-03     96.7104E+06    -6.47839E+06    -76.7197E+06    -116.231E+06    -92.6467E+06    -30.0629E+06    -76.7197E+06    -44.6973E+06
            2048     111.512E-03     6.96485E-03     111.294E-03     12.7302E-03    -5.06254E-03    -7.66724E-03    -5.46536E-03     10.5283E-03    -5.06254E-03     11.5888E-03     14.1275E-03     106.816E+06     1.46809E+06    -79.9119E+06    -116.130E+06    -89.0801E+06    -25.1741E+06    -80.3201E+06    -48.7383E+06
            2049     111.609E-03     7.95919E-03     111.325E-03     15.8095E-03    -5.18464E-03    -10.6252E-03    -6.12024E-03     11.3046E-03    -5.18464E-03     19.1527E-03     17.1964E-03     103.112E+06     9.14192E+06    -65.1872E+06    -104.933E+06    -77.1576E+06    -12.5388E+06    -71.2814E+06    -42.4213E+06
            2050     111.728E-03     8.95344E-03     111.368E-03     21.2611E-03    -5.44649E-03    -15.8150E-03    -7.47370E-03     12.9199E-03    -5.44649E-03     30.6223E-03     22.6928E-03     75.7840E+06     12.2901E+06    -41.3869E+06    -71.9603E+06    -51.5131E+06    -2.85277E+06    -46.6912E+06    -24.1087E+06
            2051     111.870E-03     9.94641E-03     111.426E-03     29.4617E-03    -5.91363E-03    -23.5484E-03    -9.82179E-03     15.7351E-03    -5.91363E-03     46.3555E-03     31.6023E-03     58.0277E+06     28.3732E+06    -2.62714E+06    -34.3919E+06    -20.0814E+06     13.6809E+06    -2.24541E+06    -8.47296E+06
            2052     112.036E-03     10.9358E-03     111.501E-03     40.2769E-03    -6.62302E-03    -33.6543E-03    -13.6259E-03     20.2485E-03    -6.62302E-03     65.7000E-03     44.2968E-03     56.9359E+06     60.9245E+06     31.4275E+06    -2.26018E+06     8.14401E+06     29.1100E+06     52.8379E+06     2.38544E+06
            2053     112.232E-03     11.9209E-03     111.597E-03     52.8792E-03    -7.50713E-03    -45.3730E-03    -19.6875E-03     27.1937E-03    -7.50713E-03     86.3180E-03     60.0133E-03     60.2333E+06     81.7553E+06     37.5159E+06     13.7392E+06     24.1055E+06     27.1496E+06     81.7553E+06     9.16945E+06
            2054     112.453E-03     12.9005E-03     111.710E-03     67.7828E-03    -8.69151E-03    -59.0919E-03    -29.3918E-03     38.0827E-03    -8.69151E-03     107.330E-03     80.5081E-03     68.8199E+06     82.7907E+06     37.5663E+06     4.82225E+06     19.0060E+06     23.3825E+06     82.7907E+06     10.0029E+06
            2055     112.703E-03     13.8690E-03     111.846E-03     85.6905E-03    -10.4259E-03    -75.2636E-03    -42.8281E-03     53.2550E-03    -10.4259E-03     128.943E-03     108.160E-03     72.0060E+06     78.1386E+06     28.5148E+06    -2.57258E+06     7.48436E+06     18.4578E+06     78.1386E+06     9.80401E+06
            2056     112.981E-03     14.8233E-03     112.005E-03     104.773E-03    -12.7926E-03    -91.9801E-03    -57.3425E-03     70.1355E-03    -12.7926E-03     149.660E-03     142.731E-03     102.363E+06     97.6358E+06     61.5732E+06    -12.6649E+06     2.05761E+06     52.1968E+06     92.2897E+06     26.8708E+06
            2057     113.284E-03     15.7669E-03     112.181E-03     133.457E-03    -15.6040E-03    -117.853E-03    -77.4315E-03     93.0352E-03    -15.6040E-03     184.268E-03     211.835E-03     99.9627E+06     72.4784E+06     51.5069E+06    -34.8535E+06    -13.9884E+06     47.5494E+06     55.5708E+06     23.4406E+06
            2058     113.634E-03     16.6873E-03     112.402E-03     145.415E-03    -19.5315E-03    -125.887E-03    -102.052E-03     121.580E-03    -19.5315E-03     128.212E-03     238.305E-03     111.502E+06     47.7427E+06    -4.28431E+06    -74.4808E+06    -22.9742E+06    -44.2293E+06     36.1811E+06    -11.1507E+06
            2059     112.245E-03     992.257E-06     112.241E-03     14.6309E-03    -6.95423E-03    -7.67677E-03    -7.46953E-03     14.6073E-03    -7.13784E-03    -314.865E-06     14.7738E-03     27.9634E+06    -38.3584E+06    -54.3881E+06    -68.1586E+06    -55.1385E+06    -52.0488E+06    -53.7178E+06    -5.85864E+06
            2060     112.262E-03     1.98606E-03     112.245E-03     14.6194E-03    -7.15782E-03    -7.46170E-03    -7.29084E-03     14.5847E-03    -7.29395E-03    -1.61950E-03     14.7782E-03     40.4904E+06    -15.9668E+06    -50.5647E+06    -60.4439E+06    -52.5661E+06    -23.8446E+06    -50.5647E+06    -15.9665E+06
            2061     112.289E-03     2.97800E-03     112.250E-03     14.8685E-03    -7.21432E-03    -7.65445E-03    -7.46764E-03     14.8179E-03    -7.35045E-03    -2.04839E-03     15.1368E-03     50.4785E+06    -7.99373E+06    -47.8438E+06    -64.6661E+06    -53.2879E+06    -19.3719E+06    -47.8438E+06    -22.2580E+06
            2062     112.326E-03     3.97057E-03     112.256E-03     15.2727E-03    -7.44647E-03    -7.82651E-03    -7.78188E-03     15.2281E-03    -7.44647E-03    -1.77306E-03     15.7356E-03     61.5649E+06    -2.53002E+06    -48.2873E+06    -72.5089E+06    -58.6996E+06    -16.3394E+06    -48.2873E+06    -27.6937E+06
            2063     112.377E-03     4.96237E-03     112.268E-03     15.6837E-03    -7.59377E-03    -8.08984E-03    -8.06066E-03     15.6545E-03    -7.59377E-03    -473.248E-06     16.4711E-03     72.3486E+06     2.51070E+06    -45.9432E+06    -80.4431E+06    -62.9295E+06    -15.0030E+06    -45.9432E+06    -33.7151E+06
            2064     112.441E-03     5.95410E-03     112.284E-03     16.1995E-03    -7.76389E-03    -8.43530E-03    -8.31977E-03     16.0839E-03    -7.76389E-03     1.69115E-03     17.4489E-03     82.0259E+06     4.99240E+06    -43.0539E+06    -89.4025E+06    -67.0383E+06    -17.3718E+06    -43.0539E+06    -39.8460E+06
            2065     112.521E-03     6.94563E-03     112.306E-03     17.0163E-03    -7.95539E-03    -9.06086E-03    -8.57422E-03     16.5297E-03    -7.95539E-03     5.25979E-03     18.7479E-03     92.6103E+06     8.39338E+06    -37.7420E+06    -97.5211E+06    -73.5294E+06    -15.5984E+06    -37.7420E+06    -44.0617E+06
            2066     112.618E-03     7.93713E-03     112.338E-03     18.6442E-03    -8.15729E-03    -10.4872E-03    -9.01748E-03     17.1744E-03    -8.15729E-03     10.7444E-03     20.6744E-03     97.6446E+06     6.80381E+06    -35.6093E+06    -103.934E+06    -80.9389E+06    -16.1909E+06    -35.6093E+06    -44.8917E+06
            2067     112.735E-03     8.92761E-03     112.381E-03     21.4877E-03    -8.32257E-03    -13.1654E-03    -9.57679E-03     17.8990E-03    -8.32257E-03     18.9714E-03     23.5331E-03     97.5188E+06     3.84362E+06    -44.8716E+06    -103.759E+06    -84.8236E+06    -15.0917E+06    -44.8716E+06    -40.3592E+06
            2068     112.876E-03     9.91865E-03     112.439E-03     26.2785E-03    -8.61831E-03    -17.6602E-03    -10.3766E-03     18.9948E-03    -8.61831E-03     31.0174E-03     28.3005E-03     95.0218E+06     15.1347E+06    -27.4783E+06    -89.2715E+06    -77.0965E+06     2.95973E+06    -27.4783E+06    -32.5658E+06
            2069     113.046E-03     10.9091E-03     112.518E-03     33.9546E-03    -9.11457E-03    -24.8405E-03    -12.2273E-03     21.3415E-03    -9.11457E-03     47.3835E-03     36.4291E-03     92.1044E+06     36.3583E+06     5.68233E+06    -64.1979E+06    -56.7955E+06     17.2378E+06     17.4004E+06    -23.9629E+06
            2070     113.244E-03     11.8976E-03     112.618E-03     44.9648E-03    -9.75426E-03    -35.2106E-03    -16.3752E-03     26.1294E-03    -9.75426E-03     67.6588E-03     48.9319E-03     90.2365E+06     58.1151E+06     18.1371E+06    -41.6895E+06    -31.3854E+06     11.6986E+06     54.2496E+06    -7.71064E+06
            2071     113.475E-03     12.8791E-03     112.742E-03     60.9247E-03    -10.6881E-03    -50.2363E-03    -24.9573E-03     35.6456E-03    -10.6881E-03     93.1012E-03     68.7436E-03     91.0916E+06     84.7672E+06     27.0857E+06    -17.1146E+06    -5.68594E+06     15.6570E+06     84.7672E+06     9.15257E+06
            2072     113.738E-03     13.8497E-03     112.892E-03     79.7997E-03    -12.0700E-03    -67.7295E-03    -37.0871E-03     49.1572E-03    -12.0700E-03     119.627E-03     94.6202E-03     93.3154E+06     98.7553E+06     32.2876E+06    -4.41579E+06     10.9445E+06     16.9273E+06     98.7553E+06     15.7726E+06
            2073     114.032E-03     14.8110E-03     113.066E-03     97.8624E-03    -13.8917E-03    -83.9719E-03    -49.1929E-03     63.0834E-03    -13.8917E-03     142.987E-03     123.908E-03     105.269E+06     97.3088E+06     56.0481E+06    -17.3352E+06     22.1529E+06     16.5601E+06     97.3088E+06     30.7890E+06
            2074     114.349E-03     15.7633E-03     113.257E-03     129.380E-03    -16.1295E-03    -113.252E-03    -67.8289E-03     83.9566E-03    -16.1295E-03     189.161E-03     185.165E-03     100.174E+06     118.133E+06     87.3535E+06     7.94929E+06     44.2397E+06     73.7627E+06     95.4335E+06     40.1477E+06
            2075     114.743E-03     16.6981E-03     113.522E-03     147.331E-03    -19.4654E-03    -127.867E-03    -97.3784E-03     116.842E-03    -19.4654E-03     153.506E-03     228.420E-03     131.466E+06     101.965E+06     55.6243E+06    -45.3864E+06     42.6782E+06     1.43364E+06     68.0908E+06     16.4119E+06
            2076     113.264E-03     989.948E-06     113.260E-03     21.5091E-03    -9.65689E-03    -11.8523E-03    -10.0841E-03     21.4076E-03    -11.3235E-03    -2.36767E-03     21.7657E-03     41.8619E+06     790.526E+03    -21.4825E+06    -44.9238E+06    -9.63850E+06    -35.1651E+06    -20.8122E+06    -11.1086E+06
            2077     113.279E-03     1.97818E-03     113.262E-03     20.6151E-03    -10.0917E-03    -10.5236E-03    -10.0511E-03     20.5537E-03    -10.5028E-03    -2.71880E-03     20.7130E-03     30.9300E+06     4.01004E+06    -22.6516E+06    -29.7553E+06    -14.7964E+06    -10.9489E+06    -22.6516E+06    -15.6801E+06
            2078     113.306E-03     2.96977E-03     113.267E-03     20.8898E-03    -10.2322E-03    -10.6578E-03    -10.3944E-03     20.8088E-03    -10.4145E-03    -3.13994E-03     21.0337E-03     32.3379E+06     4.38304E+06    -19.7717E+06    -32.2150E+06    -18.7174E+06    -9.11461E+06    -19.7717E+06    -17.1051E+06
            2079     113.344E-03     3.95845E-03     113.275E-03     21.8816E-03    -10.5269E-03    -11.3550E-03    -11.2661E-03     21.7926E-03    -10.5269E-03    -3.42109E-03     22.1701E-03     39.6436E+06     8.05480E+06     -20.525E+06    -37.1231E+06    -23.1439E+06    -5.92438E+06     -20.525E+06    -20.0396E+06
            2080     113.394E-03     4.94683E-03     113.287E-03     22.9098E-03    -10.8015E-03    -12.1087E-03    -12.0505E-03     22.8516E-03    -10.8015E-03    -2.75729E-03     23.4028E-03     49.8253E+06     9.50109E+06    -19.7916E+06    -47.0057E+06    -33.0055E+06    -4.49915E+06    -19.7916E+06    -23.5101E+06
            2081     113.459E-03     5.93445E-03     113.303E-03     24.1099E-03    -11.1843E-03    -12.9258E-03    -12.8941E-03     24.0782E-03    -11.1843E-03    -1.73476E-03     24.9407E-03     58.2053E+06     7.23719E+06    -15.7880E+06    -58.1393E+06    -44.8078E+06    -7.52468E+06    -14.3576E+06    -25.7483E+06
            2082     113.538E-03     6.92109E-03     113.327E-03     25.5035E-03    -11.6050E-03    -13.8972E-03    -13.8476E-03     25.4540E-03    -11.6050E-03    -91.4862E-06     26.8075E-03     69.4830E+06     8.03915E+06    -13.2902E+06    -69.2555E+06    -55.5358E+06    -7.11088E+06    -11.8599E+06    -28.7395E+06
            2083     113.634E-03     7.90659E-03     113.359E-03     27.1690E-03    -12.0946E-03    -15.0749E-03    -14.8882E-03     26.9823E-03    -12.0946E-03     2.76501E-03     29.0733E-03      77.542E+06     7.45358E+06    -11.9173E+06    -77.8641E+06    -62.9484E+06    -11.5380E+06    -7.84131E+06    -31.0021E+06
            2084     113.750E-03     8.89149E-03     113.402E-03     29.2007E-03    -12.6343E-03    -16.5716E-03    -15.9270E-03     28.5561E-03    -12.6343E-03     7.12738E-03     31.7966E-03     83.5956E+06     6.84474E+06    -7.27266E+06    -82.7082E+06    -67.3591E+06    -13.2374E+06    -2.53967E+06    -32.3504E+06
            2085     113.889E-03     9.87419E-03     113.461E-03     31.3350E-03    -13.1622E-03    -18.1752E-03    -16.3601E-03     29.5199E-03    -13.1622E-03     13.9300E-03     34.3248E-03     91.8614E+06     14.9181E+06     768.924E+03    -82.8101E+06    -69.4909E+06    -157.940E+03     2.52576E+06    -32.6567E+06
            2086     114.055E-03     10.8577E-03     113.537E-03     34.3227E-03    -13.6892E-03    -20.6331E-03    -16.5252E-03     30.2148E-03    -13.6892E-03     24.0671E-03     37.4036E-03     98.2290E+06     20.0554E+06     5.87357E+06    -84.2212E+06    -75.3692E+06     8.29076E+06     8.78622E+06    -27.1073E+06
            2087     114.253E-03     11.8404E-03     113.638E-03     40.0182E-03    -14.2887E-03    -25.7303E-03    -17.9418E-03     32.2297E-03    -14.2887E-03     38.1484E-03     43.6081E-03     100.736E+06     24.0225E+06     2.94081E+06    -84.5208E+06    -77.1218E+06    -592.625E+03     20.1569E+06    -21.9856E+06
            2088     114.485E-03     12.8239E-03     113.765E-03     50.5083E-03    -15.0807E-03    -35.4280E-03    -22.0403E-03     37.1207E-03    -15.0807E-03     59.2727E-03     55.7555E-03     108.002E+06     46.4299E+06     5.32976E+06    -68.6188E+06    -62.2621E+06    -1.02694E+06     46.4299E+06    -17.0094E+06
            2089     114.764E-03     13.8016E-03     113.931E-03     62.9605E-03    -16.0671E-03    -46.8939E-03    -27.3430E-03     43.4096E-03    -16.0671E-03     82.9027E-03     71.1582E-03     114.870E+06     69.8734E+06     13.9667E+06    -55.5198E+06    -42.7423E+06     1.18921E+06     69.8734E+06    -118.324E+03
            2090     115.065E-03     14.7698E-03     114.113E-03     79.6673E-03    -17.2811E-03    -62.3876E-03    -36.8796E-03     54.1593E-03    -17.2811E-03     108.790E-03     95.5581E-03     115.962E+06     82.0307E+06     34.0248E+06    -49.2952E+06    -17.6058E+06     2.33536E+06     82.0307E+06     5.22486E+06
            2091     115.396E-03     15.7301E-03     114.319E-03     110.251E-03    -18.8556E-03    -91.3977E-03    -52.6448E-03     71.4985E-03    -18.8556E-03     158.627E-03     145.762E-03     108.375E+06     103.325E+06     69.5304E+06    -17.1335E+06     8.99608E+06     54.5388E+06     92.1874E+06     7.82141E+06
            2092     115.817E-03     16.6759E-03     114.610E-03     131.029E-03    -21.0656E-03    -109.964E-03    -74.9376E-03     96.0019E-03    -21.0656E-03     160.486E-03     190.534E-03     110.408E+06     73.7156E+06     46.3430E+06    -46.6344E+06     8.11840E+06     13.9024E+06     51.4033E+06     28.8935E+06
            2093     114.288E-03     984.346E-06     114.284E-03     28.7489E-03    -12.5657E-03    -16.1833E-03    -13.8258E-03     28.6125E-03    -14.7867E-03    -4.62450E-03     29.0307E-03     48.6475E+06     33.9858E+06     12.4294E+06    -20.0276E+06     24.5671E+06    -13.9651E+06     15.7856E+06    -15.0295E+06
            2094     114.303E-03     1.97361E-03     114.286E-03     27.0589E-03    -13.1117E-03    -13.9472E-03    -13.0583E-03     27.0055E-03    -13.9472E-03    -2.87290E-03     27.1292E-03     27.0435E+06     17.7472E+06     439.993E+03    -12.0382E+06     10.2564E+06    -4.54729E+06     439.993E+03    -12.0022E+06
            2095     114.330E-03     2.95849E-03     114.291E-03     27.8665E-03    -13.7196E-03    -14.1467E-03    -14.0422E-03     27.8144E-03    -13.7720E-03    -2.72817E-03     27.9384E-03     21.7442E+06     10.2354E+06    -2.76632E+06    -14.4497E+06    -944.835E+03    -3.26946E+06    -2.76632E+06    -11.7430E+06
            2096     114.369E-03     3.94502E-03     114.301E-03     29.3888E-03    -14.0035E-03    -15.3849E-03    -15.3150E-03     29.3189E-03    -14.0035E-03    -3.30892E-03     29.5276E-03     23.6923E+06     9.74391E+06    -4.54439E+06    -17.4760E+06    -7.67746E+06    -54.5871E+03    -4.54439E+06    -12.0203E+06
            2097     114.420E-03     4.92908E-03     114.314E-03     31.5697E-03    -14.5028E-03    -17.0668E-03    -16.9911E-03     31.4941E-03    -14.5028E-03    -3.79904E-03     31.8385E-03     29.0917E+06     10.2963E+06    -2.90668E+06    -22.5417E+06    -16.1169E+06     575.475E+03     389.321E+03    -10.8222E+06
            2098     114.485E-03     5.91153E-03     114.332E-03     34.1788E-03    -15.2101E-03    -18.9690E-03    -18.8963E-03     34.1061E-03    -15.2101E-03    -3.91526E-03     34.6807E-03     37.2886E+06     13.1095E+06    -722.266E+03    -28.2526E+06    -23.2015E+06    -3.47359E+06     10.8098E+06    -11.0111E+06
            2099     114.565E-03     6.89142E-03     114.358E-03     37.2852E-03    -16.0436E-03    -21.2400E-03    -21.1711E-03     37.2163E-03    -16.0436E-03    -3.92195E-03     38.1681E-03     51.8785E+06     22.7499E+06    -126.133E+03    -34.6567E+06    -29.4667E+06    -1.44643E+06     18.8802E+06    -12.6503E+06
            2100     114.661E-03     7.86920E-03     114.391E-03     40.7188E-03    -17.0254E-03    -23.6939E-03    -23.6226E-03     40.6475E-03    -17.0254E-03    -3.68241E-03     42.1789E-03     66.2879E+06     29.6641E+06    -2.99349E+06    -43.4412E+06    -36.7821E+06    -5.78295E+06     25.7944E+06    -15.2608E+06
            2101     114.779E-03     8.84338E-03     114.437E-03     44.0165E-03    -18.0919E-03    -25.9293E-03    -25.8423E-03     43.9296E-03    -18.0919E-03    -3.00564E-03     46.2712E-03     73.2932E+06     29.5432E+06     1.12652E+06    -50.1663E+06    -41.7291E+06    -7.31073E+06     29.5432E+06    -18.7431E+06
            2102     114.916E-03     9.81637E-03     114.496E-03     47.0370E-03    -19.1906E-03    -27.8486E-03    -27.6516E-03     46.8400E-03    -19.1906E-03    -1.85094E-03     50.2603E-03     76.9218E+06     29.6512E+06     8.44824E+06    -53.5800E+06    -46.3713E+06     1.23957E+06     29.6512E+06    -19.4272E+06
            2103     115.079E-03     10.7866E-03     114.572E-03     49.7121E-03    -20.3416E-03    -29.3712E-03    -28.8085E-03     49.1495E-03    -20.3416E-03     246.108E-06     53.9863E-03     77.1380E+06     31.2198E+06     5.02054E+06    -52.9376E+06    -48.5825E+06     665.495E+03     31.2198E+06    -13.6447E+06
            2104     115.272E-03     11.7567E-03     114.671E-03     52.4886E-03    -21.5319E-03    -30.9578E-03    -29.6957E-03     51.2264E-03    -21.5319E-03     4.32797E-03     58.0452E-03     82.2579E+06     35.7636E+06     7.42498E+06    -54.5483E+06    -49.5478E+06     2.42449E+06     35.7636E+06    -12.0449E+06
            2105     115.501E-03     12.7213E-03     114.798E-03     53.5546E-03    -22.6550E-03    -30.9002E-03    -28.1931E-03     50.8475E-03    -22.6550E-03     13.0369E-03     60.3425E-03     92.0269E+06     30.8986E+06     3.31908E+06    -67.6806E+06    -59.5683E+06    -4.79320E+06     30.8986E+06    -13.7481E+06
            2106     115.769E-03     13.6868E-03     114.958E-03     53.1752E-03    -22.4208E-03    -30.7552E-03    -24.2740E-03     47.8652E-03    -23.5919E-03     25.6114E-03     61.2095E-03     94.0377E+06     31.9785E+06    -4.72760E+06    -71.0376E+06    -62.4052E+06    -13.3600E+06     31.9785E+06    -12.0065E+06
            2107     116.068E-03     14.6668E-03     115.138E-03     63.9342E-03    -23.5092E-03    -40.4247E-03    -30.2848E-03     54.9654E-03    -24.6803E-03     44.7586E-03     76.9122E-03     102.325E+06     60.2135E+06     13.0128E+06    -56.8240E+06     -49.368E+06     5.55679E+06     60.2135E+06    -15.3709E+06
            2108     116.427E-03     15.6248E-03     115.374E-03     79.1072E-03    -24.1652E-03    -54.9416E-03    -37.2135E-03     63.3104E-03    -26.0966E-03     67.2044E-03     102.732E-03     105.885E+06     67.6626E+06     24.5984E+06    -51.6751E+06    -42.6750E+06     15.5983E+06     67.6626E+06    -4.11435E+06
            2109     116.825E-03     16.5869E-03     115.641E-03     76.5554E-03    -13.8220E-03    -62.7337E-03    -30.5906E-03     57.6151E-03    -27.0249E-03     78.6013E-03     110.215E-03     106.694E+06     34.8120E+06     12.9781E+06    -79.2531E+06    -29.7842E+06     2.08790E+06    -3.76675E+06     12.8499E+06


