********************************************************************************
Field Output Report, written Mon Apr 21 01:53:36 2025

Source 1
---------

   ODB: F:/Abaqus_calc/Vel_20/odb/Correct/1020_2a_16_rd_1500_cal_0_v_20_f_025.odb
   Step: Step-1
   Frame: Increment   6228142: Step Time =   0.7791

Loc 1 : Nodal values from source 1

Output sorted by column "Nodal Label".

Field Output reported at nodes for region: DIE_2A_16_D0_36-1.Region_1
   Computation algorithm: EXTRAPOLATE_COMPUTE_AVERAGE
   Averaged at nodes
   Averaging regions: ODB_REGIONS

      Node Label  COORD.Magnitude     COORD.COOR1     COORD.COOR2
                          @Loc 1          @Loc 1          @Loc 1
------------------------------------------------------------------
               1     216.726E-03     17.4293E-03     216.024E-03


Field Output reported at nodes for region: DIE_2A_16_D0_36-1.Region_2
   Computation algorithm: EXTRAPOLATE_COMPUTE_AVERAGE
   Averaged at nodes
   Averaging regions: ODB_REGIONS

      Node Label  COORD.Magnitude     COORD.COOR1     COORD.COOR2
                          @Loc 1          @Loc 1          @Loc 1
------------------------------------------------------------------
               1     216.726E-03     17.4293E-03     216.024E-03


Field Output reported at nodes for part: WIRE_1-1
   Computation algorithm: EXTRAPOLATE_COMPUTE_AVERAGE
   Averaged at nodes
   Averaging regions: ODB_REGIONS

      Node Label  COORD.Magnitude     COORD.COOR1     COORD.COOR2    PE.Max. Prin    PE.Mid. Prin    PE.Min. Prin         PE.PE11         PE.PE22         PE.PE33         PE.PE12            PEEQ         S.Mises     S.Max. Prin     S.Mid. Prin     S.Min. Prin           S.S11           S.S22           S.S33           S.S12
                          @Loc 1          @Loc 1          @Loc 1          @Loc 1          @Loc 1          @Loc 1          @Loc 1          @Loc 1          @Loc 1          @Loc 1          @Loc 1          @Loc 1          @Loc 1          @Loc 1          @Loc 1          @Loc 1          @Loc 1          @Loc 1          @Loc 1
----------------------------------------------------------------------------------------------------------------------------------------------------------------------------------------------------------------------------------------------------------------------------------------------------------------------------------
               1     79.0896E-03     15.2396E-03     77.6074E-03     346.263E-03    -167.660E-03    -178.604E-03    -172.968E-03     340.628E-03    -167.660E-03     108.184E-03     408.389E-03     140.594E+06     147.988E+06     97.5306E+06    -10.8648E+06    -8.51763E+06     95.1834E+06     147.988E+06    -3.36218E+06
               2     76.3667E-03    -4.48001E-06     76.3667E-03     341.187E-03    -165.439E-03    -175.748E-03    -166.896E-03     341.080E-03    -174.184E-03     14.3602E-03     342.266E-03     157.895E+06    -108.486E+06    -128.892E+06    -275.564E+06    -120.021E+06    -275.536E+06    -117.384E+06     1.73066E+06
               3     2.70842E-06    -2.70842E-06    -235.922E-18     453.698E-03    -226.657E-03    -227.041E-03    -227.018E-03     453.674E-03    -226.657E-03     7.99946E-03     453.931E-03     182.098E+06    -84.9501E+06    -86.5729E+06    -267.854E+06    -85.0508E+06    -267.753E+06    -86.5729E+06     4.28956E+06
               4     15.0967E-03     15.0967E-03    -235.922E-18     500.239E-03    -170.694E-03    -329.544E-03    -320.813E-03     491.507E-03    -170.694E-03     169.340E-03     540.094E-03     138.188E+06     162.426E+06     89.2171E+06     3.03617E+06     3.13916E+06     89.1141E+06     162.426E+06     2.97738E+06
               5     155.526E-03     15.3174E-03     154.770E-03     230.553E-03    -66.1123E-03    -164.441E-03    -66.0937E-03     230.535E-03    -164.441E-03    -4.69762E-03     305.963E-03     123.647E+06     48.7598E+06    -3.64919E+06    -92.4603E+06    -80.3209E+06    -15.7886E+06     48.7598E+06     30.5082E+06
               6     151.487E-03    -2.23860E-06     151.487E-03     391.019E-03    -193.883E-03    -197.136E-03    -196.454E-03     390.336E-03    -193.883E-03    -40.0415E-03     400.009E-03     118.751E+06     95.3118E+06     94.9549E+06    -23.6171E+06     93.6218E+06    -22.2840E+06     95.3118E+06    -12.5018E+06
               7     78.7879E-03     14.3959E-03     77.4615E-03     345.441E-03    -167.545E-03    -177.896E-03    -171.031E-03     338.576E-03    -167.545E-03     118.579E-03     409.337E-03     127.221E+06     135.151E+06     87.8900E+06    -8.92188E+06    -7.21174E+06     86.1799E+06     135.151E+06    -1.73911E+06
               8     78.4652E-03     13.5498E-03     77.2864E-03     342.977E-03    -167.394E-03    -175.583E-03    -168.097E-03     335.491E-03    -167.394E-03     123.487E-03     403.184E-03     101.552E+06     100.865E+06     59.2026E+06    -14.8417E+06    -14.2945E+06     58.6554E+06     100.865E+06     84.7103E+03
               9     78.1681E-03     12.7025E-03     77.1291E-03     338.605E-03    -166.890E-03    -171.715E-03    -165.497E-03     332.923E-03    -167.425E-03     106.353E-03     390.238E-03     82.9186E+06     73.1330E+06     34.6448E+06    -21.9868E+06    -21.7293E+06     34.3873E+06     73.1330E+06    -2.12226E+06
              10     77.9378E-03     11.8493E-03     77.0317E-03     335.349E-03    -166.444E-03    -168.905E-03    -162.884E-03     330.538E-03    -167.654E-03     97.7012E-03     378.400E-03     74.4490E+06     60.3541E+06     28.3793E+06    -24.5877E+06    -21.6384E+06     25.4301E+06     60.3541E+06     2.86616E+06
              11     77.6934E-03     10.9918E-03     76.9119E-03     335.392E-03    -166.930E-03    -168.462E-03    -163.223E-03     331.211E-03    -167.988E-03     90.3930E-03     370.355E-03     72.2989E+06     43.2832E+06     19.1817E+06    -37.9565E+06    -35.2317E+06     16.4569E+06     43.2832E+06     4.51010E+06
              12     77.4824E-03     10.1448E-03     76.8154E-03     337.334E-03    -167.784E-03    -169.551E-03    -166.118E-03     334.353E-03    -168.235E-03     77.2389E-03     368.282E-03     74.1890E+06     29.3444E+06     9.46468E+06    -52.6488E+06    -52.5007E+06     9.31662E+06     29.3444E+06    -2.10476E+06
              13     77.2845E-03     9.30330E-03     76.7225E-03     337.661E-03    -168.019E-03    -169.641E-03    -167.023E-03     335.378E-03    -168.355E-03     67.5215E-03     365.236E-03     76.5641E+06     30.4020E+06     15.8464E+06    -52.1619E+06    -50.8933E+06     14.5778E+06     30.4020E+06     860.878E+03
              14     77.1024E-03     8.45244E-03     76.6377E-03     337.182E-03    -168.129E-03    -169.053E-03    -167.222E-03     335.619E-03    -168.397E-03     55.9224E-03     361.432E-03     74.6769E+06     21.8970E+06     10.4015E+06    -57.7377E+06    -55.7655E+06      8.4293E+06     21.8970E+06     558.727E+03
              15     76.9492E-03     7.60823E-03     76.5721E-03     338.564E-03    -168.329E-03    -170.236E-03    -168.976E-03     337.305E-03    -168.329E-03     50.5352E-03     359.500E-03     72.2635E+06     10.3282E+06    -4.10744E+06    -67.9750E+06    -66.5764E+06    -5.50603E+06     10.3282E+06     2.23043E+06
              16     76.8018E-03     6.76639E-03     76.5031E-03     339.209E-03    -168.061E-03    -171.148E-03    -170.192E-03     338.253E-03    -168.061E-03     43.5481E-03     357.306E-03     63.5394E+06    -5.23647E+06    -36.2109E+06    -75.3349E+06    -72.5742E+06    -38.9716E+06    -5.23647E+06     4.74192E+06
              17     76.6861E-03     5.92444E-03     76.4570E-03     337.752E-03    -167.678E-03    -170.074E-03    -169.487E-03     337.166E-03    -167.678E-03     34.1695E-03     353.292E-03      61.268E+06    -31.5295E+06    -76.9937E+06    -100.852E+06    -83.0102E+06    -94.8356E+06    -31.5295E+06     299.483E+03
              18     76.5905E-03     5.08082E-03     76.4218E-03     335.023E-03    -166.814E-03    -168.208E-03    -167.184E-03     334.659E-03    -167.475E-03     26.6076E-03     347.116E-03     78.1658E+06    -48.1284E+06    -90.0446E+06    -137.588E+06    -90.3657E+06    -137.267E+06    -48.1284E+06    -2.84736E+06
              19     76.5123E-03     4.22715E-03     76.3954E-03     334.177E-03    -166.388E-03    -167.789E-03    -166.526E-03     333.983E-03    -167.457E-03     19.1721E-03     343.082E-03     80.5923E+06    -66.2320E+06    -97.7183E+06    -157.733E+06    -98.1564E+06    -157.295E+06    -66.2320E+06    -4.17162E+06
              20     76.4485E-03     3.38384E-03     76.3736E-03     333.455E-03    -165.460E-03    -167.995E-03    -165.704E-03     333.368E-03    -167.664E-03     11.7637E-03     339.504E-03     83.7243E+06    -85.4404E+06    -105.521E+06    -176.941E+06    -105.895E+06    -176.567E+06    -85.4404E+06    -3.56433E+06
              21     76.4014E-03     2.53565E-03     76.3593E-03     333.081E-03    -164.498E-03    -168.583E-03    -164.546E-03     333.052E-03    -168.506E-03     6.33834E-03     336.884E-03     101.954E+06    -97.4691E+06    -113.349E+06    -206.326E+06    -113.640E+06    -206.035E+06    -97.4691E+06    -3.69976E+06
              22     76.3818E-03     1.68715E-03     76.3632E-03     337.140E-03    -166.346E-03    -170.794E-03    -167.379E-03     337.068E-03    -169.689E-03     10.5092E-03     339.485E-03     106.034E+06    -104.169E+06    -116.935E+06    -215.855E+06    -117.213E+06    -215.577E+06    -104.169E+06    -747.976E+03
              23     76.3628E-03     842.226E-06     76.3581E-03     340.723E-03    -166.704E-03    -174.018E-03    -168.402E-03     340.609E-03    -172.207E-03     14.9885E-03     342.114E-03     130.495E+06     -107.83E+06    -122.338E+06    -244.836E+06    -118.068E+06    -244.657E+06    -112.279E+06     2.00320E+06
              24     74.9286E-03    -10.2824E-06     74.9286E-03     341.151E-03    -164.540E-03    -176.611E-03    -167.666E-03     340.952E-03    -173.286E-03    -7.30187E-03     342.198E-03     151.711E+06    -108.029E+06    -126.250E+06    -267.971E+06    -119.573E+06    -267.935E+06    -114.742E+06     2.24094E+06
              25     73.5579E-03     15.5280E-06     73.5579E-03     326.907E-03    -159.279E-03    -167.627E-03    -167.419E-03     326.698E-03    -159.279E-03    -6.73791E-03     327.802E-03     152.720E+06    -122.494E+06    -129.576E+06    -278.531E+06    -122.853E+06    -278.172E+06    -129.576E+06    -4.26597E+06
              26     72.1801E-03    -7.02062E-06     72.1801E-03     334.751E-03    -163.227E-03    -171.523E-03    -168.208E-03     334.708E-03    -166.501E-03     4.59713E-03     335.865E-03     161.074E+06    -122.561E+06    -124.833E+06    -284.755E+06    -123.098E+06    -284.218E+06    -124.833E+06    -1.17634E+06
              27     70.7497E-03     1.32055E-06     70.7497E-03     344.951E-03    -170.132E-03    -174.819E-03    -171.536E-03     344.942E-03    -173.406E-03     895.121E-06     345.868E-03     164.214E+06    -105.189E+06    -112.830E+06    -273.053E+06    -111.132E+06    -272.848E+06    -107.093E+06     2.87477E+06
              28     69.3376E-03     961.473E-09     69.3376E-03     336.647E-03    -167.250E-03    -169.397E-03    -168.656E-03     336.640E-03    -167.984E-03     3.10183E-03     337.293E-03     154.825E+06    -108.927E+06    -118.050E+06    -268.101E+06    -114.691E+06    -268.075E+06    -112.312E+06    -2.00034E+06
              29     67.9590E-03    -2.40126E-06     67.9590E-03     330.518E-03    -162.554E-03    -167.964E-03    -162.542E-03     330.506E-03    -167.964E-03     3.92070E-03     331.140E-03     152.509E+06    -114.049E+06    -122.492E+06    -270.599E+06    -119.158E+06    -270.548E+06    -117.435E+06     882.195E+03
              30     66.5643E-03    -5.64411E-06     66.5643E-03     333.864E-03    -163.749E-03    -170.115E-03    -163.738E-03     333.853E-03    -170.115E-03     3.49489E-03     334.584E-03     150.240E+06    -118.956E+06    -129.433E+06    -274.158E+06    -124.203E+06    -273.969E+06    -124.375E+06    -1.56760E+06
              31     65.1581E-03     2.57308E-06     65.1581E-03     334.601E-03    -166.003E-03    -168.598E-03    -166.901E-03     334.594E-03    -167.692E-03     2.77790E-03     335.324E-03     149.082E+06    -125.651E+06    -131.639E+06    -277.573E+06    -125.931E+06    -277.293E+06    -131.639E+06    -141.793E+03
              32     63.7725E-03    -1.22257E-06     63.7725E-03     334.000E-03    -166.317E-03    -167.684E-03    -167.677E-03     333.993E-03    -166.317E-03     2.18926E-03     334.613E-03     157.913E+06    -114.388E+06    -118.985E+06    -274.523E+06    -118.550E+06    -274.389E+06    -114.957E+06     3.53184E+06
              33     62.3792E-03     1.87706E-06     62.3792E-03     337.280E-03    -168.135E-03    -169.145E-03    -169.142E-03     337.277E-03    -168.135E-03     1.36439E-03     337.985E-03     163.197E+06    -106.870E+06    -116.095E+06    -274.481E+06    -110.945E+06    -274.435E+06    -112.067E+06    -1.58862E+06
              34     60.9642E-03    -1.16277E-06     60.9642E-03     335.687E-03    -167.293E-03    -168.394E-03    -168.387E-03     335.681E-03    -167.293E-03    -22.9237E-06     336.376E-03     159.505E+06    -111.594E+06    -121.035E+06    -275.608E+06    -116.001E+06    -275.446E+06    -116.790E+06     1.04136E+06
              35     59.5825E-03     1.99815E-06     59.5825E-03     330.653E-03    -163.283E-03    -167.370E-03    -163.831E-03     330.649E-03    -166.818E-03    -607.004E-06     331.220E-03     159.419E+06    -116.890E+06    -122.343E+06    -278.942E+06    -122.721E+06    -278.564E+06    -116.890E+06    -1.60825E+06
              36     58.1945E-03    -8.11519E-06     58.1945E-03     334.185E-03    -162.477E-03    -171.708E-03    -162.471E-03     334.180E-03    -171.708E-03     3.18068E-03     334.747E-03     172.452E+06    -117.262E+06    -123.672E+06    -292.800E+06    -118.793E+06    -292.476E+06    -122.464E+06    -2.15011E+06
              37     56.7786E-03    -1.72350E-06     56.7786E-03     337.892E-03    -165.210E-03    -172.683E-03    -165.205E-03     337.888E-03    -172.683E-03     2.75623E-03     338.480E-03     171.783E+06    -110.937E+06    -123.074E+06    -288.454E+06    -117.983E+06    -288.342E+06    -116.139E+06     501.302E+03
              38     55.3825E-03    -1.32482E-06     55.3825E-03     328.784E-03    -160.858E-03    -167.927E-03    -166.138E-03     328.772E-03    -162.634E-03    -2.61899E-03     329.510E-03     161.487E+06    -108.978E+06    -127.080E+06    -278.709E+06    -116.060E+06    -278.561E+06    -120.146E+06     972.386E+03
              39     54.0127E-03     10.0622E-06     54.0127E-03     328.632E-03    -160.489E-03    -168.143E-03    -168.056E-03     328.545E-03    -160.489E-03     5.27491E-03     329.399E-03     158.598E+06    -110.608E+06    -135.952E+06    -280.325E+06    -125.001E+06    -280.110E+06    -121.775E+06     46.9243E+03
              40     52.6161E-03    -6.03803E-06     52.6161E-03     337.979E-03    -167.276E-03    -170.703E-03    -169.503E-03     337.846E-03    -168.343E-03     997.793E-06     338.718E-03     160.401E+06    -108.392E+06    -135.671E+06    -280.677E+06    -122.721E+06    -280.525E+06    -121.494E+06    -4.62418E+06
              41     51.2042E-03     3.86996E-06     51.2042E-03     336.817E-03    -167.723E-03    -169.094E-03    -167.926E-03     336.716E-03    -168.790E-03    -1.17094E-03     337.493E-03     163.334E+06    -109.874E+06    -130.391E+06    -282.424E+06    -117.560E+06    -282.153E+06    -122.976E+06     2.49787E+06
              42     49.8130E-03    -3.46932E-06     49.8130E-03     338.096E-03    -167.901E-03    -170.195E-03    -168.162E-03     338.053E-03    -169.891E-03     5.89990E-03     338.800E-03     162.022E+06    -113.955E+06    -123.162E+06    -280.312E+06    -121.634E+06    -280.048E+06    -115.747E+06     2.74897E+06
              43     48.4011E-03    -38.8324E-09     48.4011E-03     338.409E-03    -168.084E-03    -170.325E-03    -168.331E-03     338.405E-03    -170.074E-03     1.18854E-03     339.123E-03     162.721E+06    -120.298E+06    -123.323E+06    -284.510E+06    -120.329E+06    -284.479E+06    -123.323E+06    -1.97184E+06
              44     47.0027E-03     315.923E-09     47.0027E-03     335.033E-03    -165.435E-03    -169.597E-03    -165.677E-03     335.023E-03    -169.346E-03     4.31807E-03     335.622E-03     164.162E+06    -110.396E+06    -114.769E+06    -276.693E+06    -113.560E+06    -276.669E+06    -111.629E+06    -1.76794E+06
              45     45.6197E-03    -7.00668E-06     45.6197E-03     335.111E-03    -162.934E-03    -172.176E-03    -162.925E-03     335.102E-03    -172.176E-03     901.311E-06     335.902E-03     162.853E+06    -111.817E+06    -118.848E+06    -278.069E+06    -114.980E+06    -278.046E+06    -115.708E+06    -917.197E+03
              46     44.2038E-03    -2.17805E-06     44.2038E-03     334.902E-03    -163.463E-03    -171.439E-03    -166.099E-03     334.894E-03    -168.795E-03     856.838E-06     335.607E-03     154.236E+06    -125.320E+06    -133.376E+06    -283.425E+06    -129.837E+06    -283.072E+06    -129.212E+06     5.38959E+06
              47     42.8198E-03     6.55594E-06     42.8198E-03     336.748E-03    -166.609E-03    -170.139E-03    -170.133E-03     336.742E-03    -166.609E-03     1.84247E-03     337.168E-03     160.012E+06    -111.032E+06    -116.603E+06    -273.732E+06    -116.091E+06    -272.837E+06    -112.440E+06    -1.86493E+06
              48     41.4225E-03    -5.19781E-06     41.4225E-03     335.610E-03    -165.529E-03    -170.081E-03    -166.411E-03     335.607E-03    -169.195E-03    -2.34552E-03     336.205E-03     170.629E+06    -116.179E+06    -120.475E+06    -288.911E+06    -116.729E+06    -288.361E+06    -120.475E+06    -6.15262E+06
              49     40.0169E-03    -1.17127E-06     40.0169E-03     333.068E-03    -163.495E-03    -169.573E-03    -165.903E-03     333.064E-03    -167.161E-03    -555.644E-06     333.537E-03     163.768E+06    -125.714E+06    -133.783E+06    -293.353E+06    -131.219E+06    -293.028E+06    -128.603E+06     5.64888E+06
              50     38.6268E-03     5.18889E-06     38.6268E-03     332.082E-03    -162.442E-03    -169.640E-03    -169.636E-03     332.078E-03    -162.442E-03    -503.979E-06     332.373E-03     161.168E+06    -110.097E+06    -123.165E+06    -277.386E+06    -115.636E+06    -277.028E+06    -117.984E+06     3.09530E+06
              51     37.2387E-03     2.71484E-06     37.2387E-03     331.966E-03    -163.586E-03    -168.380E-03    -168.360E-03     331.954E-03    -163.594E-03     1.29283E-03     332.395E-03     165.178E+06    -113.941E+06    -130.653E+06    -286.839E+06    -123.152E+06    -286.454E+06    -121.828E+06    -7.05012E+06
              52     35.8427E-03    -2.71744E-06     35.8427E-03     338.096E-03    -165.755E-03    -172.340E-03    -165.742E-03     338.083E-03    -172.340E-03     5.02549E-03     338.760E-03     173.992E+06    -112.922E+06    -132.824E+06    -296.004E+06    -122.419E+06    -295.333E+06    -123.999E+06     365.576E+03
              53     34.4325E-03    -8.60249E-06     34.4325E-03     341.518E-03    -163.910E-03    -177.608E-03    -163.902E-03     341.510E-03    -177.608E-03     82.7608E-06     342.302E-03     165.564E+06    -107.702E+06    -131.009E+06    -283.659E+06    -120.339E+06    -283.252E+06    -118.779E+06     3.23334E+06
              54     33.0294E-03    -3.38875E-06     33.0294E-03     336.841E-03    -164.165E-03    -172.676E-03    -164.161E-03     336.837E-03    -172.676E-03    -2.00167E-03     337.436E-03     161.617E+06    -106.193E+06    -129.277E+06    -278.090E+06    -118.519E+06    -277.995E+06    -117.047E+06    -1.19271E+06
              55     31.6309E-03     805.959E-09     31.6309E-03     332.069E-03    -165.316E-03    -166.753E-03    -165.312E-03     332.065E-03    -166.753E-03     1.98727E-03     332.565E-03     162.661E+06    -114.401E+06    -129.399E+06    -283.964E+06    -118.828E+06    -283.683E+06    -125.254E+06    -3.29451E+06
              56     30.2397E-03    -969.555E-09     30.2397E-03     329.023E-03    -163.718E-03    -165.304E-03    -165.243E-03     329.009E-03    -163.766E-03    -1.13074E-03     329.421E-03     164.692E+06    -123.155E+06    -132.231E+06    -292.196E+06    -127.600E+06    -291.896E+06    -128.085E+06    -2.70644E+06
              57     28.8698E-03     3.35644E-06     28.8698E-03     331.084E-03    -163.731E-03    -167.353E-03    -165.254E-03     331.068E-03    -165.814E-03    -862.688E-06     331.394E-03     172.943E+06    -111.043E+06    -124.859E+06    -290.440E+06    -119.963E+06    -290.405E+06    -115.974E+06     2.11340E+06
              58     27.4575E-03    -6.87548E-06     27.4575E-03     335.662E-03    -163.202E-03    -172.460E-03    -163.196E-03     335.656E-03    -172.460E-03     1.82018E-03     336.051E-03     171.534E+06    -104.343E+06    -129.862E+06    -287.086E+06    -113.266E+06    -287.048E+06    -120.976E+06     2.21156E+06
              59     26.0599E-03    -5.55146E-06     26.0599E-03     335.596E-03    -162.596E-03    -173.000E-03    -165.822E-03     335.594E-03    -169.771E-03    -2.04912E-03     335.999E-03     163.127E+06    -94.8982E+06    -131.001E+06    -272.984E+06    -114.431E+06    -272.921E+06    -111.532E+06     3.15943E+06
              60     24.6653E-03     11.0999E-06     24.6653E-03     334.646E-03    -165.166E-03    -169.480E-03    -169.459E-03     334.626E-03    -165.166E-03     2.70177E-03     334.938E-03     159.908E+06    -104.176E+06    -131.118E+06    -275.412E+06    -123.989E+06    -275.069E+06    -111.648E+06    -3.91446E+06
              61     23.2657E-03    -9.50614E-06     23.2657E-03     331.757E-03    -161.327E-03    -170.431E-03    -162.391E-03     331.736E-03    -169.345E-03     2.72122E-03     332.099E-03     172.883E+06    -111.314E+06    -132.124E+06    -293.600E+06    -111.933E+06    -292.981E+06    -132.124E+06     111.837E+03
              62     21.8812E-03    -4.37236E-06     21.8812E-03     328.727E-03    -159.759E-03    -168.968E-03    -160.943E-03     328.721E-03    -167.778E-03    -3.23642E-03     329.004E-03     172.546E+06    -110.526E+06    -140.240E+06    -295.964E+06    -127.472E+06    -295.394E+06    -123.864E+06     914.704E+03
              63     20.4971E-03     6.43992E-06     20.4971E-03     328.652E-03    -162.919E-03    -165.733E-03    -164.105E-03     328.648E-03    -164.543E-03    -748.102E-06     328.780E-03     173.165E+06    -113.957E+06    -147.537E+06    -301.452E+06    -130.600E+06    -301.185E+06    -131.161E+06    -4.66487E+06
              64     19.1021E-03    -9.50536E-06     19.1021E-03     324.651E-03    -160.244E-03    -164.407E-03    -160.237E-03     324.645E-03    -164.407E-03    -1.40833E-03     324.781E-03     183.059E+06    -107.468E+06    -136.335E+06    -303.166E+06    -119.221E+06    -303.075E+06    -124.673E+06     2.58026E+06
              65     17.7259E-03     5.20561E-06     17.7259E-03     316.696E-03    -156.681E-03    -160.015E-03    -157.471E-03     316.690E-03    -159.220E-03    -1.79428E-03     316.811E-03     172.537E+06    -114.077E+06    -130.605E+06    -294.218E+06    -130.715E+06    -294.108E+06    -114.077E+06     1.58395E+06
              66     16.3610E-03    -3.91527E-06     16.3610E-03     305.011E-03    -150.723E-03    -154.287E-03    -151.508E-03     305.000E-03    -153.492E-03    -2.50838E-03     305.111E-03     166.829E+06    -121.940E+06    -130.485E+06    -292.872E+06    -126.864E+06    -292.814E+06    -125.619E+06      630.32E+03
              67     15.0157E-03    -1.00880E-06     15.0157E-03     290.643E-03    -143.711E-03    -146.932E-03    -144.149E-03     290.628E-03    -146.479E-03    -5.00847E-03     290.671E-03     175.639E+06    -112.978E+06    -117.851E+06    -290.989E+06    -113.110E+06    -290.857E+06    -117.851E+06    -1.02414E+06
              68     13.6896E-03     1.69842E-06     13.6896E-03     275.447E-03    -137.077E-03    -138.369E-03    -138.348E-03     275.425E-03    -137.077E-03    -5.62178E-03     275.436E-03     166.314E+06    -118.917E+06    -122.997E+06    -287.226E+06    -122.059E+06    -286.970E+06    -120.112E+06     651.808E+03
              69     12.3839E-03    -278.426E-09     12.3839E-03     257.928E-03    -128.477E-03    -129.451E-03    -129.424E-03     257.901E-03    -128.477E-03    -6.52834E-03     257.930E-03     147.998E+06    -132.751E+06    -136.946E+06    -282.797E+06    -135.850E+06    -282.585E+06    -134.060E+06     5.40586E+06
              70     11.1039E-03     434.292E-09     11.1039E-03     244.023E-03    -121.429E-03    -122.594E-03    -122.572E-03     244.001E-03    -121.429E-03    -5.72831E-03     244.046E-03     138.862E+06    -140.642E+06    -145.070E+06    -281.656E+06    -140.859E+06    -281.438E+06    -145.070E+06    -1.56061E+06
              71     9.83734E-03     1.29186E-06     9.83734E-03     239.497E-03    -118.825E-03    -120.672E-03    -120.654E-03     239.479E-03    -118.825E-03    -4.94018E-03     239.577E-03     140.789E+06    -141.860E+06    -155.540E+06    -288.849E+06    -152.606E+06    -288.664E+06    -144.979E+06    -2.36745E+06
              72     8.56913E-03     218.824E-09     8.56913E-03     246.988E-03    -123.021E-03    -123.967E-03    -123.961E-03     246.982E-03    -123.021E-03    -2.35019E-03     247.137E-03     145.145E+06    -140.978E+06    -153.994E+06    -292.014E+06    -151.639E+06    -291.914E+06    -143.433E+06    -1.40123E+06
              73     7.28216E-03    -76.5764E-09     7.28216E-03     269.852E-03    -134.603E-03    -135.249E-03    -134.726E-03     269.845E-03    -135.119E-03     2.08355E-03     270.038E-03     149.929E+06    -142.736E+06    -146.746E+06    -294.627E+06    -142.818E+06    -294.546E+06    -146.746E+06    -2.48071E+06
              74     5.95198E-03    -902.844E-09     5.95198E-03     306.760E-03    -152.973E-03    -153.787E-03    -153.256E-03     306.745E-03    -153.489E-03     5.20404E-03     307.014E-03     175.395E+06    -124.727E+06    -129.233E+06    -302.330E+06    -124.728E+06    -302.330E+06    -129.233E+06     189.196E+03
              75     4.56745E-03     1.25135E-06     4.56745E-03     353.169E-03    -176.272E-03    -176.897E-03    -176.534E-03     353.132E-03    -176.599E-03     8.47586E-03     353.384E-03     192.816E+06    -107.937E+06    -113.725E+06    -303.581E+06    -110.896E+06    -303.459E+06    -110.887E+06     3.54409E+06
              76     3.10582E-03    -1.90265E-06     3.10582E-03     400.942E-03    -200.013E-03    -200.930E-03    -200.569E-03     400.908E-03    -200.339E-03     8.50554E-03     401.168E-03     188.765E+06    -103.080E+06    -106.159E+06    -293.351E+06    -106.284E+06    -293.226E+06    -103.080E+06     2.70543E+06
              77     1.57607E-03     2.57765E-06     1.57607E-03     438.684E-03    -218.951E-03    -219.734E-03    -219.715E-03     438.666E-03    -218.951E-03     6.88239E-03     438.965E-03     186.063E+06    -91.8633E+06    -92.9156E+06    -278.449E+06    -92.1589E+06    -278.395E+06    -92.6747E+06     1.50418E+06
              78     792.928E-06     792.928E-06    -235.922E-18     450.095E-03    -224.084E-03    -226.011E-03    -224.255E-03     450.074E-03    -225.819E-03     7.54215E-03     450.176E-03     166.131E+06    -62.4953E+06    -79.6631E+06    -235.859E+06    -78.9314E+06    -235.780E+06    -63.3067E+06     757.530E+03
              79     1.59439E-03     1.59439E-03    -235.922E-18     440.401E-03    -217.018E-03    -223.383E-03    -216.994E-03     440.377E-03    -223.383E-03     7.95696E-03     440.438E-03     151.486E+06    -41.5687E+06    -67.5597E+06    -204.245E+06    -68.0597E+06    -203.745E+06    -41.5687E+06     4.37928E+06
              80     2.40121E-03     2.40121E-03    -235.922E-18     427.025E-03    -207.338E-03    -219.687E-03    -207.289E-03     426.976E-03    -219.687E-03     10.9233E-03     427.306E-03     137.381E+06    -46.9358E+06    -61.2837E+06    -190.897E+06    -61.9687E+06    -190.212E+06    -46.9358E+06     2.23211E+06
              81     3.21643E-03     3.21643E-03    -235.922E-18     411.306E-03    -196.123E-03    -215.183E-03    -196.036E-03     411.219E-03    -215.183E-03     14.4454E-03     411.896E-03     111.191E+06    -50.8751E+06    -59.8516E+06    -166.282E+06    -60.5419E+06    -165.592E+06    -50.8751E+06     1.21863E+06
              82     4.04159E-03     4.04159E-03    -235.922E-18     393.411E-03    -183.330E-03    -210.081E-03    -183.214E-03     393.294E-03    -210.081E-03     16.3607E-03     394.438E-03     90.1706E+06    -49.1127E+06    -60.2265E+06    -144.261E+06    -60.8301E+06    -143.658E+06    -49.1127E+06     2.61005E+06
              83     4.88039E-03     4.88039E-03    -235.922E-18     374.131E-03    -169.688E-03    -204.443E-03    -169.575E-03     374.018E-03    -204.443E-03     15.6607E-03     375.655E-03     65.5590E+06    -44.1517E+06    -58.8122E+06    -115.688E+06    -59.0835E+06    -115.417E+06    -44.1517E+06    -421.000E+03
              84     5.73148E-03     5.73148E-03    -235.922E-18     355.132E-03    -156.664E-03    -198.468E-03    -156.570E-03     355.038E-03    -198.468E-03     13.8640E-03     357.012E-03     40.3718E+06    -37.7281E+06    -55.9022E+06    -83.2370E+06    -56.4074E+06    -82.7317E+06    -37.7281E+06     226.625E+03
              85     6.59253E-03     6.59253E-03    -235.922E-18     338.236E-03    -145.797E-03    -192.439E-03    -145.690E-03     338.129E-03    -192.439E-03     14.2852E-03     340.496E-03     28.5471E+06    -26.1407E+06    -42.0847E+06    -58.7442E+06    -52.4980E+06    -42.7510E+06    -31.7206E+06    -2.47822E+06
              86     7.46009E-03     7.46009E-03    -235.922E-18     324.986E-03    -138.286E-03    -186.700E-03    -138.136E-03     324.836E-03    -186.700E-03     16.5712E-03     328.373E-03     33.1777E+06    -7.53249E+06    -26.1422E+06    -45.5203E+06    -44.4532E+06    -8.59951E+06    -26.1422E+06    -5.60888E+06
              87     8.33463E-03     8.33463E-03    -235.922E-18     314.746E-03    -133.230E-03    -181.515E-03    -133.072E-03     314.587E-03    -181.515E-03     16.8127E-03     319.430E-03     37.1843E+06     6.75350E+06    -17.1956E+06    -36.0634E+06    -34.9388E+06     5.62884E+06    -17.1956E+06    -6.18711E+06
              88     9.21212E-03     9.21212E-03    -235.922E-18     306.461E-03    -129.530E-03    -176.931E-03    -129.342E-03     306.273E-03    -176.931E-03     17.9685E-03     311.382E-03     37.7827E+06     13.8813E+06    -1.63313E+06    -28.5363E+06    -28.4103E+06     13.7552E+06    -1.63313E+06    -1.17996E+06
              89     10.0907E-03     10.0907E-03    -235.922E-18     300.573E-03    -127.677E-03    -172.896E-03    -127.421E-03     300.317E-03    -172.896E-03     20.9088E-03     306.290E-03     41.1409E+06     17.5719E+06     11.1876E+06    -26.3044E+06    -26.2960E+06     17.5634E+06     11.1876E+06     578.421E+03
              90     10.9717E-03     10.9717E-03    -235.922E-18     297.178E-03    -127.734E-03    -169.444E-03    -127.472E-03     296.917E-03    -169.444E-03     21.0686E-03     304.387E-03     47.0609E+06     26.6273E+06     15.5963E+06    -24.6254E+06    -24.2947E+06     17.0548E+06     24.8382E+06     2.74298E+06
              91     11.8549E-03     11.8549E-03    -235.922E-18     298.824E-03    -132.115E-03    -166.709E-03    -131.937E-03     298.646E-03    -166.709E-03     17.1608E-03     306.886E-03     59.9896E+06     46.1907E+06     16.8583E+06    -22.4210E+06    -21.7578E+06     16.1950E+06     46.1907E+06     30.9952E+03
              92     12.7359E-03     12.7359E-03    -235.922E-18     311.762E-03    -146.764E-03    -164.998E-03    -146.519E-03     311.517E-03    -164.998E-03     20.4295E-03     321.008E-03     79.7398E+06     72.9603E+06     33.3593E+06    -18.5619E+06    -17.9863E+06     32.7838E+06     72.9603E+06     282.330E+03
              93     13.5799E-03     13.5799E-03    -235.922E-18     345.124E-03    -161.517E-03    -183.606E-03    -179.061E-03     344.056E-03    -164.995E-03     45.1036E-03     357.773E-03     108.171E+06     105.818E+06     59.5347E+06    -17.7941E+06    -17.5434E+06     59.2840E+06     105.818E+06     3.44693E+06
              94     14.3921E-03     14.3921E-03    -235.922E-18     434.260E-03    -168.112E-03    -266.148E-03    -260.905E-03     429.017E-03    -168.112E-03     116.276E-03     461.796E-03     131.597E+06     142.672E+06     79.2940E+06    -8.45376E+06    -8.39280E+06     79.2331E+06     142.672E+06     2.13861E+06
              95     15.2862E-03     15.1813E-03     1.78751E-03     454.740E-03    -169.791E-03    -284.949E-03    -275.619E-03     445.410E-03    -169.791E-03     164.362E-03     522.672E-03     139.072E+06     154.100E+06     84.9019E+06    -5.92399E+06    -5.76381E+06     84.7418E+06     154.100E+06    -786.441E+03
              96     15.5540E-03     15.2175E-03     3.21756E-03     384.183E-03    -168.653E-03    -215.530E-03    -206.476E-03     375.129E-03    -168.653E-03     146.257E-03     478.999E-03     139.830E+06      153.28E+06     87.8429E+06    -7.27012E+06    -7.14518E+06     87.7179E+06      153.28E+06    -1.39754E+06
              97     15.9095E-03     15.2332E-03     4.58942E-03     361.140E-03    -167.920E-03    -193.220E-03    -187.312E-03     355.232E-03    -167.920E-03     111.499E-03     431.856E-03     139.197E+06     157.547E+06     91.6027E+06    -2.36648E+06    -2.34951E+06     91.5857E+06     157.547E+06     1.05843E+06
              98     16.3882E-03     15.2367E-03     6.03475E-03     362.967E-03    -167.291E-03    -195.676E-03    -192.002E-03     359.293E-03    -167.291E-03     90.3125E-03     408.034E-03     137.080E+06     154.386E+06     89.5128E+06    -3.08792E+06    -3.08447E+06     89.5093E+06     154.386E+06     536.726E+03
              99     16.9703E-03     15.2408E-03     7.46399E-03     362.715E-03    -167.168E-03    -195.547E-03    -191.843E-03     359.011E-03    -167.168E-03     90.6368E-03     405.445E-03     135.843E+06     156.689E+06     92.3463E+06     630.311E+03     692.598E+03     92.2840E+06     156.689E+06     2.00442E+06
             100     17.6446E-03     15.2367E-03     8.89816E-03     362.558E-03    -167.238E-03    -195.320E-03    -191.587E-03     358.825E-03    -167.238E-03     90.9667E-03     406.657E-03     135.383E+06     153.945E+06     89.5226E+06    -1.61813E+06    -1.50778E+06     89.4122E+06     153.945E+06     129.905E+03
             101     18.4081E-03     15.2365E-03     10.3301E-03     363.767E-03    -167.359E-03    -196.408E-03    -192.266E-03     359.625E-03    -167.359E-03     95.8891E-03     409.573E-03     134.605E+06     142.821E+06     79.2514E+06    -11.7961E+06    -11.5086E+06     78.9640E+06     142.821E+06    -4.79548E+06
             102     19.2477E-03     15.2314E-03     11.7677E-03     361.561E-03    -167.477E-03    -194.084E-03    -189.388E-03     356.865E-03    -167.477E-03     101.695E-03     408.570E-03     134.836E+06     151.778E+06     88.6871E+06    -3.03639E+06    -2.26903E+06     87.9198E+06     151.778E+06     1.64149E+06
             103     20.1549E-03     15.2412E-03     13.1880E-03     357.175E-03    -167.510E-03    -189.665E-03    -184.646E-03     352.156E-03    -167.510E-03     104.286E-03     406.214E-03     133.412E+06     155.624E+06     94.0495E+06     2.54576E+06     3.07930E+06     93.5160E+06     155.624E+06     5.27561E+06
             104     21.1043E-03     15.2329E-03     14.6065E-03     357.319E-03    -167.528E-03    -189.790E-03    -184.766E-03     352.294E-03    -167.528E-03     104.367E-03     408.576E-03     132.790E+06     140.776E+06     79.3328E+06    -11.6076E+06    -11.5548E+06       79.28E+06     140.776E+06    -1.15067E+06
             105     22.1179E-03     15.2362E-03     16.0331E-03     356.797E-03    -167.686E-03    -189.111E-03    -183.918E-03     351.604E-03    -167.686E-03     105.918E-03     409.449E-03     134.128E+06     146.970E+06     84.5670E+06    -6.98976E+06    -6.85687E+06     84.4341E+06     146.970E+06     443.481E+03
             106     23.1598E-03     15.2311E-03     17.4467E-03     352.467E-03    -167.850E-03    -184.618E-03    -179.349E-03     347.199E-03    -167.850E-03     105.849E-03     406.155E-03     131.720E+06     147.674E+06     88.8737E+06    -3.18638E+06    -3.05134E+06     88.7386E+06     147.674E+06     3.49987E+06
             107     24.2391E-03     15.2352E-03     18.8526E-03     347.981E-03    -167.841E-03    -180.140E-03    -174.489E-03     342.329E-03    -167.841E-03     108.496E-03     402.345E-03     131.664E+06     141.930E+06     84.0269E+06    -8.75493E+06    -8.29578E+06     83.5678E+06     141.930E+06    -2.79378E+06
             108     25.3477E-03     15.2400E-03     20.2546E-03     348.052E-03    -167.712E-03    -180.340E-03    -174.600E-03     342.312E-03    -167.712E-03     109.405E-03     402.862E-03     135.932E+06     155.965E+06     92.8994E+06    -34.0045E+03     392.733E+03     92.4727E+06     155.965E+06    -3.38789E+06
             109     26.4909E-03     15.2366E-03     21.6706E-03     347.388E-03    -167.701E-03    -179.687E-03    -174.425E-03     342.126E-03    -167.701E-03     104.791E-03     401.032E-03     135.291E+06     151.486E+06     88.9403E+06    -3.74598E+06    -3.61315E+06     88.8075E+06     151.486E+06     3.24456E+06
             110     27.6452E-03     15.2384E-03     23.0661E-03     344.423E-03    -167.782E-03    -176.641E-03    -171.090E-03     338.872E-03    -167.782E-03     106.960E-03     397.709E-03     133.869E+06     144.160E+06     83.5951E+06    -9.28632E+06    -9.16989E+06     83.4786E+06     144.160E+06     1.89799E+06
             111     28.8246E-03     15.2380E-03     24.4676E-03     343.707E-03    -167.734E-03    -175.973E-03    -170.340E-03     338.075E-03    -167.734E-03     107.608E-03     397.544E-03     135.831E+06     153.727E+06     91.1507E+06    -2.11243E+06    -2.08574E+06     91.1240E+06     153.727E+06     654.023E+03
             112     30.0223E-03     15.2428E-03     25.8650E-03     345.959E-03    -167.619E-03    -178.341E-03    -172.953E-03     340.572E-03    -167.619E-03     105.739E-03     399.343E-03     135.945E+06     154.953E+06     92.8699E+06    -947.159E+03    -833.552E+03     92.7563E+06     154.953E+06    -1.01010E+06
             113     31.2425E-03     15.2360E-03     27.2756E-03     348.557E-03    -167.658E-03    -180.898E-03    -175.873E-03     343.531E-03    -167.658E-03     102.631E-03     401.622E-03     134.414E+06     147.945E+06     87.4111E+06    -6.09091E+06    -5.99607E+06     87.3162E+06     147.945E+06    -1.59345E+06
             114     32.4799E-03     15.2360E-03     28.6847E-03     345.703E-03    -167.877E-03    -177.826E-03    -172.910E-03     340.788E-03    -167.877E-03     100.954E-03     399.130E-03     132.296E+06     146.668E+06     88.4298E+06    -4.74847E+06    -4.67801E+06     88.3593E+06     146.668E+06     2.21400E+06
             115     33.7139E-03     15.2341E-03     30.0758E-03     342.234E-03    -168.007E-03    -174.227E-03    -169.454E-03     337.461E-03    -168.007E-03     98.7832E-03     396.942E-03     130.968E+06     145.701E+06     89.2786E+06    -4.02080E+06    -3.95400E+06     89.2118E+06     145.701E+06     1.54205E+06
             116     34.9661E-03     15.2354E-03     31.4724E-03     343.573E-03    -168.014E-03    -175.559E-03    -170.726E-03     338.740E-03    -168.014E-03     99.6526E-03     398.856E-03     132.560E+06     146.014E+06     87.8325E+06    -5.68503E+06    -5.67356E+06     87.8210E+06     146.014E+06     493.378E+03
             117     36.2476E-03     15.2326E-03     32.8916E-03     342.207E-03    -168.081E-03    -174.127E-03    -168.585E-03     336.665E-03    -168.081E-03     106.338E-03     398.575E-03     134.152E+06     149.768E+06     90.0474E+06    -3.87285E+06    -3.85801E+06     90.0326E+06     149.768E+06     1.15274E+06
             118     37.5142E-03     15.2380E-03     34.2799E-03     339.008E-03    -168.075E-03    -170.933E-03    -164.704E-03     332.779E-03    -168.075E-03     111.982E-03     397.183E-03     132.715E+06     148.884E+06     91.3520E+06    -2.88086E+06    -2.87655E+06     91.3477E+06     148.884E+06     450.696E+03
             119     38.7862E-03     15.2368E-03     35.6680E-03     341.920E-03    -168.009E-03    -173.912E-03    -168.043E-03     336.052E-03    -168.009E-03     109.164E-03     399.567E-03     133.335E+06     149.193E+06     91.0141E+06    -3.33169E+06    -3.09302E+06     90.7754E+06     149.193E+06    -3.34713E+06
             120     40.0869E-03     15.2319E-03     37.0803E-03     343.338E-03    -168.061E-03    -175.277E-03    -169.447E-03     337.509E-03    -168.061E-03     109.137E-03     400.747E-03     135.961E+06     149.882E+06     88.8613E+06    -5.89961E+06    -5.54107E+06     88.5028E+06     149.882E+06     -962.53E+03
             121     41.3748E-03     15.2382E-03     38.4665E-03     342.126E-03    -168.064E-03    -174.063E-03    -167.748E-03     335.812E-03    -168.064E-03     113.469E-03     401.061E-03     135.061E+06     149.890E+06     90.4309E+06    -4.69694E+06    -4.56406E+06     90.2980E+06     149.890E+06     1.59833E+06
             122     42.6853E-03     15.2334E-03     39.8745E-03     343.357E-03    -168.056E-03    -175.301E-03    -169.306E-03     337.362E-03    -168.056E-03     110.871E-03     402.585E-03     134.743E+06     149.524E+06     90.8301E+06    -4.61052E+06    -4.45214E+06     90.6717E+06     149.524E+06     1.84770E+06
             123     43.9866E-03     15.2341E-03     41.2643E-03     343.206E-03    -168.022E-03    -175.184E-03    -168.911E-03     336.934E-03    -168.022E-03     113.284E-03     402.943E-03     133.251E+06     145.264E+06     89.3411E+06    -6.81521E+06    -6.54457E+06     89.0704E+06     145.264E+06     5.09027E+06
             124     45.3076E-03     15.2396E-03     42.6677E-03     341.667E-03    -167.911E-03    -173.757E-03    -167.448E-03     335.358E-03    -167.911E-03     113.303E-03     402.612E-03     132.857E+06     150.055E+06     96.2155E+06    -1.27066E+06    -284.527E+03     95.2294E+06     150.055E+06    -3.99590E+06
             125     46.6189E-03     15.2373E-03     44.0585E-03     342.381E-03    -167.874E-03    -174.508E-03    -168.522E-03     336.395E-03    -167.874E-03     110.603E-03     402.838E-03     134.134E+06     147.363E+06     92.2683E+06    -5.54518E+06    -4.60805E+06     91.3312E+06     147.363E+06    -4.52798E+06
             126     47.9471E-03     15.2364E-03     45.4618E-03     344.181E-03    -167.980E-03    -176.201E-03    -170.317E-03     338.297E-03    -167.980E-03     110.029E-03     402.965E-03     134.366E+06     144.176E+06     87.8807E+06    -9.17789E+06    -9.03388E+06     87.7366E+06     144.176E+06     113.438E+03
             127     49.2778E-03     15.2309E-03     46.8649E-03     343.586E-03    -168.115E-03    -175.470E-03    -169.170E-03     337.285E-03    -168.115E-03     113.549E-03     402.444E-03     132.511E+06     151.450E+06     94.8031E+06     31.9835E+03     143.468E+03     94.6916E+06     151.450E+06    -387.554E+03
             128     50.6044E-03     15.2380E-03     48.2556E-03     343.455E-03    -168.073E-03    -175.382E-03    -168.869E-03     336.942E-03    -168.073E-03     115.471E-03     402.621E-03     131.864E+06     144.301E+06     88.9187E+06    -6.21700E+06    -6.14150E+06     88.8432E+06     144.301E+06     2.66739E+06
             129     51.9440E-03     15.2315E-03     49.6606E-03     343.811E-03    -168.075E-03    -175.736E-03    -169.769E-03     337.844E-03    -168.075E-03     110.703E-03     402.385E-03     135.251E+06     150.820E+06     94.4448E+06    -3.49737E+06    -3.26083E+06     94.2083E+06     150.820E+06    -1.92039E+06
             130     53.2758E-03     15.2365E-03     51.0505E-03     343.307E-03    -168.054E-03    -175.252E-03    -169.004E-03     337.058E-03    -168.054E-03     113.080E-03     402.762E-03     135.036E+06     151.607E+06     93.0728E+06    -2.81307E+06    -2.54381E+06     92.8036E+06     151.607E+06    -1.42971E+06
             131     54.6258E-03     15.2361E-03     52.4580E-03     344.358E-03    -167.969E-03    -176.390E-03    -170.154E-03     338.122E-03    -167.969E-03     113.187E-03     404.627E-03     134.026E+06     148.767E+06     91.4657E+06    -4.36634E+06    -4.25650E+06     91.3558E+06     148.767E+06     244.064E+03
             132     55.9690E-03     15.2345E-03     53.8557E-03     343.459E-03    -168.081E-03    -175.378E-03    -169.408E-03     337.489E-03    -168.081E-03     110.638E-03     404.429E-03     134.796E+06     149.276E+06     94.1678E+06    -4.34216E+06    -4.28429E+06     94.1100E+06     149.276E+06    -705.082E+03
             133     57.3160E-03     15.2323E-03     55.2549E-03     340.717E-03    -168.201E-03    -172.516E-03    -165.992E-03     334.193E-03    -168.201E-03     114.948E-03     401.420E-03     133.376E+06     144.474E+06     91.7376E+06    -7.19834E+06    -7.07028E+06     91.6095E+06     144.474E+06     3.17475E+06
             134     58.6581E-03     15.2365E-03     56.6447E-03     343.669E-03    -168.095E-03    -175.574E-03    -168.807E-03     336.902E-03    -168.095E-03     117.767E-03     403.960E-03     131.770E+06     143.403E+06     92.9454E+06    -6.13939E+06    -6.00828E+06     92.8142E+06     143.403E+06     3.26684E+06
             135     60.0125E-03     15.2317E-03     58.0474E-03     346.335E-03    -168.063E-03    -178.272E-03    -172.195E-03     340.258E-03    -168.063E-03     112.148E-03     406.871E-03     134.100E+06     148.582E+06     95.0814E+06    -3.99361E+06    -3.93085E+06     95.0187E+06     148.582E+06    -649.337E+03
             136     61.3746E-03     15.2338E-03     59.4539E-03     341.106E-03    -168.194E-03    -172.912E-03    -166.779E-03     334.972E-03    -168.194E-03     111.413E-03     402.573E-03     132.988E+06     151.550E+06     97.1035E+06    -19.4883E+03     44.7420E+03     97.0393E+06     151.550E+06    -626.895E+03
             137     62.7105E-03     15.2362E-03     60.8315E-03     341.560E-03    -168.104E-03    -173.456E-03    -166.961E-03     335.065E-03    -168.104E-03     114.880E-03     402.769E-03     133.431E+06     147.966E+06     94.1574E+06    -3.96736E+06    -3.91663E+06     94.1066E+06     147.966E+06    -403.458E+03
             138     64.0790E-03     15.2343E-03     62.2417E-03     344.441E-03    -167.987E-03    -176.454E-03    -170.483E-03     338.470E-03    -167.987E-03     110.886E-03     404.471E-03     136.760E+06     149.361E+06     93.4618E+06    -6.49165E+06    -6.45719E+06     93.4273E+06     149.361E+06    -1.11118E+06
             139     65.4410E-03     15.2369E-03     63.6425E-03     342.981E-03    -168.046E-03    -174.935E-03    -168.684E-03     336.729E-03    -168.046E-03     113.018E-03     404.321E-03     135.463E+06     150.137E+06     95.9141E+06    -4.02552E+06    -3.94579E+06     95.8344E+06     150.137E+06     2.18776E+06
             140     66.7948E-03     15.2332E-03     65.0345E-03     343.870E-03    -168.125E-03    -175.744E-03    -169.740E-03     337.865E-03    -168.125E-03     110.829E-03     406.415E-03     135.052E+06     148.795E+06     96.9340E+06    -4.50039E+06    -4.36408E+06     96.7977E+06     148.795E+06     286.485E+03
             141     68.1613E-03     15.2307E-03     66.4379E-03     343.226E-03    -168.281E-03    -174.945E-03    -169.031E-03     337.312E-03    -168.281E-03     109.884E-03     404.870E-03     136.533E+06     147.579E+06     94.1567E+06    -7.58250E+06    -7.52515E+06     94.0993E+06     147.579E+06    -1.74184E+06
             142     69.5268E-03     15.2315E-03     67.8379E-03     341.570E-03    -168.288E-03    -173.282E-03    -166.426E-03     334.714E-03    -168.288E-03     118.007E-03     402.075E-03     136.319E+06     152.726E+06     96.7562E+06    -2.66301E+06    -2.66234E+06     96.7555E+06     152.726E+06     144.566E+03
             143     70.8812E-03     15.2385E-03     69.2238E-03     342.541E-03    -168.045E-03    -174.495E-03    -167.965E-03     336.010E-03    -168.045E-03     115.339E-03     401.843E-03     136.497E+06     154.437E+06     99.0834E+06    -1.02745E+06    -1.02648E+06     99.0824E+06     154.437E+06     305.802E+03
             144     72.2529E-03     15.2354E-03     70.6284E-03     345.216E-03    -168.023E-03    -177.193E-03    -171.658E-03     339.681E-03    -168.023E-03     106.894E-03     403.858E-03     138.888E+06     152.969E+06     97.6591E+06    -5.04807E+06    -5.04142E+06     97.6524E+06     152.969E+06     697.405E+03
             145     73.6235E-03     15.2288E-03     72.0313E-03     345.815E-03    -168.275E-03    -177.540E-03    -172.087E-03     340.362E-03    -168.275E-03     106.234E-03     405.923E-03     137.827E+06     149.594E+06     95.8798E+06    -6.98532E+06    -6.81900E+06     95.7135E+06     149.594E+06    -2.29974E+06
             146     74.9952E-03     15.2286E-03     73.4328E-03     340.375E-03    -167.935E-03    -172.440E-03    -165.695E-03     334.108E-03    -168.413E-03     112.492E-03     400.864E-03     136.645E+06     148.164E+06     97.3297E+06    -6.61151E+06    -6.37529E+06     97.0935E+06     148.164E+06    -873.858E+03
             147     76.3570E-03     15.2384E-03     74.8210E-03     336.514E-03    -167.707E-03    -168.807E-03    -161.271E-03     329.457E-03    -168.185E-03     118.525E-03     397.862E-03     133.964E+06     152.961E+06     104.572E+06     1.53178E+06     1.96013E+06     104.144E+06     152.961E+06     6.20694E+06
             148     77.7143E-03     15.2410E-03     76.2052E-03     340.654E-03    -167.799E-03    -172.856E-03    -166.425E-03     334.224E-03    -167.799E-03     113.847E-03     402.447E-03     135.807E+06     152.290E+06     103.359E+06    -1.19690E+06     834.928E+03     101.327E+06     152.290E+06    -5.14834E+06
             149     80.4763E-03     15.2362E-03     79.0208E-03     348.315E-03    -167.835E-03    -180.480E-03    -174.978E-03     342.812E-03    -167.835E-03     107.295E-03     410.582E-03     136.698E+06     144.674E+06       95.33E+06    -9.83564E+06    -9.01933E+06     94.5137E+06     144.674E+06     3.25710E+06
             150     81.8524E-03     15.2297E-03     80.4231E-03     343.408E-03    -168.063E-03    -175.346E-03    -169.345E-03     337.408E-03    -168.063E-03     110.642E-03     403.810E-03     130.725E+06     149.563E+06     100.902E+06     1.48592E+06     2.02850E+06     100.359E+06     149.563E+06     1.62564E+06
             151     83.2221E-03     15.2427E-03     81.8142E-03     341.568E-03    -168.195E-03    -173.374E-03    -167.103E-03     335.297E-03    -168.195E-03     112.847E-03     401.863E-03     134.220E+06     148.407E+06     100.134E+06    -3.26728E+06    -2.59809E+06     99.4644E+06     148.407E+06     498.122E+03
             152     84.6043E-03     15.2196E-03     83.2241E-03     343.355E-03    -168.433E-03    -174.922E-03    -168.834E-03     337.267E-03    -168.433E-03     111.647E-03     404.559E-03     137.101E+06     145.028E+06     93.6570E+06    -10.3001E+06    -9.95598E+06     93.3130E+06     145.028E+06    -2.02869E+06
             153     85.9677E-03     15.2358E-03     84.6068E-03     339.872E-03    -168.387E-03    -171.484E-03    -164.515E-03     332.902E-03    -168.387E-03     118.450E-03     401.989E-03     133.933E+06     147.229E+06     97.8652E+06    -4.31934E+06    -4.16018E+06     97.7061E+06     147.229E+06     4.02410E+06
             154     87.3340E-03     15.2371E-03     85.9946E-03     344.593E-03    -167.981E-03    -176.612E-03    -170.021E-03     338.002E-03    -167.981E-03     116.030E-03     406.867E-03     136.339E+06     150.025E+06     101.881E+06    -3.83820E+06    -3.62374E+06     101.667E+06     150.025E+06     4.74223E+06
             155     88.7373E-03     15.2332E-03     87.4200E-03     348.399E-03    -167.940E-03    -180.459E-03    -174.654E-03     342.594E-03    -167.940E-03     110.184E-03     409.734E-03     136.712E+06     148.888E+06     98.4958E+06    -5.86817E+06    -5.69765E+06     98.3253E+06     148.888E+06     1.00963E+06
             156     90.1092E-03     15.2339E-03     88.8122E-03     340.811E-03    -168.097E-03    -172.715E-03    -166.376E-03     334.472E-03    -168.097E-03     113.323E-03     400.800E-03     134.973E+06     145.645E+06     98.9915E+06    -6.43682E+06    -5.76438E+06     98.3191E+06     145.645E+06    -7.32558E+06
             157     91.4747E-03     15.2406E-03     90.1961E-03     338.244E-03    -167.923E-03    -170.321E-03    -163.589E-03     331.513E-03    -167.923E-03     116.242E-03     397.460E-03     133.081E+06     146.205E+06     99.9681E+06    -3.79267E+06    -3.12024E+06     99.2957E+06     146.205E+06    -4.25521E+06
             158     92.8557E-03     15.2418E-03     91.5962E-03     344.318E-03    -167.696E-03    -176.622E-03    -170.168E-03     337.864E-03    -167.696E-03     115.188E-03     404.369E-03     135.226E+06     148.192E+06     96.2872E+06    -5.28885E+06    -5.23003E+06     96.2284E+06     148.192E+06     727.192E+03
             159     94.2445E-03     15.2360E-03     93.0048E-03     346.276E-03    -167.731E-03    -178.545E-03    -172.400E-03     340.132E-03    -167.731E-03     112.904E-03     406.082E-03     135.553E+06     152.968E+06     97.3277E+06    -1.53522E+06    -1.44799E+06     97.2405E+06     152.968E+06     1.08235E+06
             160     95.6201E-03     15.2414E-03     94.3976E-03     341.728E-03    -167.933E-03    -173.796E-03    -167.950E-03     335.883E-03    -167.933E-03     109.143E-03     401.542E-03     134.937E+06     153.143E+06     97.3893E+06    -725.250E+03    -645.187E+03     97.3092E+06     153.143E+06     1.36988E+06
             161     96.9968E-03     15.2316E-03     95.7934E-03     341.538E-03    -168.106E-03    -173.432E-03    -167.400E-03     335.507E-03    -168.106E-03     110.735E-03     402.208E-03     141.006E+06     148.950E+06     94.7864E+06    -11.0918E+06    -11.0773E+06     94.7720E+06     148.950E+06     211.245E+03
             162     98.3778E-03     15.2364E-03     97.1907E-03     341.493E-03    -168.038E-03    -173.455E-03    -166.787E-03     334.825E-03    -168.038E-03     116.425E-03     400.229E-03     136.919E+06     150.757E+06     102.239E+06    -3.80008E+06    -3.78997E+06     102.229E+06     150.757E+06     532.486E+03
             163     99.7560E-03     15.2417E-03     98.5847E-03     342.681E-03    -167.836E-03    -174.845E-03    -168.362E-03     336.198E-03    -167.836E-03     115.062E-03     399.774E-03     129.212E+06     150.277E+06     103.707E+06     4.26415E+06     4.28371E+06     103.687E+06     150.277E+06     767.794E+03
             164     101.138E-03     15.2346E-03     99.9837E-03     347.851E-03    -167.882E-03    -179.970E-03    -174.502E-03     342.383E-03    -167.882E-03     106.648E-03     403.271E-03     136.301E+06     144.004E+06     95.7807E+06    -9.80823E+06    -9.73294E+06     95.7054E+06     144.004E+06    -843.099E+03
             165     102.533E-03     15.2295E-03     101.395E-03     344.576E-03    -168.149E-03    -176.427E-03    -170.744E-03     338.893E-03    -168.149E-03     107.796E-03     398.893E-03     139.925E+06     151.810E+06     101.736E+06    -6.20400E+06    -6.07310E+06     101.606E+06     151.810E+06    -3.73764E+06
             166     103.911E-03     15.2393E-03     102.787E-03     337.973E-03    -168.199E-03    -169.774E-03    -163.313E-03     331.512E-03    -168.199E-03     113.822E-03     392.813E-03     142.040E+06     154.467E+06     102.875E+06    -6.11846E+06    -6.04396E+06     102.800E+06     154.467E+06    -1.95883E+06
             167     105.280E-03     15.2360E-03     104.171E-03     339.540E-03    -168.031E-03    -171.510E-03    -165.432E-03     333.463E-03    -168.031E-03     110.755E-03     393.962E-03     139.655E+06     153.248E+06     104.051E+06    -4.33537E+06    -4.06619E+06     103.782E+06     153.248E+06     3.63978E+06
             168     106.665E-03     15.2383E-03     105.571E-03     344.446E-03    -167.935E-03    -176.511E-03    -171.029E-03     338.964E-03    -167.935E-03     106.257E-03     400.806E-03     136.821E+06     149.832E+06     102.875E+06    -4.25283E+06    -3.97358E+06     102.595E+06     149.832E+06     2.89937E+06
             169     108.052E-03     15.2317E-03     106.973E-03     342.400E-03    -168.024E-03    -174.376E-03    -169.054E-03     337.078E-03    -168.024E-03     104.315E-03     402.049E-03     143.374E+06     157.056E+06     112.395E+06    -3.32776E+06    -3.22036E+06     112.288E+06     157.056E+06     1.62681E+06
             170     109.435E-03     15.2415E-03     108.369E-03     336.884E-03    -167.716E-03    -169.168E-03    -162.868E-03     330.915E-03    -168.047E-03     109.125E-03     397.872E-03     145.017E+06     158.168E+06     115.354E+06    -3.43361E+06    -3.22094E+06     115.141E+06     158.168E+06    -246.587E+03
             171     110.808E-03     15.2381E-03     109.755E-03     340.960E-03    -167.672E-03    -173.287E-03    -166.991E-03     334.994E-03    -168.003E-03     109.947E-03     401.040E-03     144.119E+06     156.692E+06     110.017E+06    -4.90165E+06    -4.62979E+06     109.746E+06     156.692E+06     289.892E+03
             172     112.206E-03     15.2312E-03     111.168E-03     344.523E-03    -168.119E-03    -176.404E-03    -170.856E-03     338.975E-03    -168.119E-03     106.943E-03     404.556E-03     145.734E+06     159.531E+06     112.260E+06    -3.89547E+06    -3.34745E+06     111.712E+06     159.531E+06    -1.96624E+06
             173     113.579E-03     15.2353E-03     112.552E-03     341.393E-03    -168.084E-03    -173.309E-03    -166.811E-03     334.895E-03    -168.084E-03     114.637E-03     402.057E-03     146.332E+06     157.679E+06     112.968E+06    -5.77783E+06    -4.35069E+06     111.541E+06     157.679E+06     2.74562E+06
             174     114.976E-03     15.2431E-03     113.961E-03     341.052E-03    -167.807E-03    -173.245E-03    -166.321E-03     334.128E-03    -167.807E-03     118.468E-03     401.230E-03     152.913E+06     166.350E+06     125.704E+06    -2.60920E+06    -1.57190E+06     124.667E+06     166.350E+06     7.97822E+06
             175     116.351E-03     15.2424E-03     115.349E-03     342.019E-03    -167.666E-03    -174.353E-03    -168.345E-03     336.011E-03    -167.666E-03     110.669E-03     403.041E-03     160.798E+06     167.064E+06     130.235E+06    -8.94400E+06    -8.81423E+06     130.105E+06     167.064E+06    -2.60852E+06
             176     117.734E-03     15.2405E-03     116.744E-03     341.293E-03    -167.740E-03    -173.553E-03    -168.037E-03     335.777E-03    -167.740E-03     106.005E-03     402.473E-03     158.560E+06     170.430E+06     128.263E+06    -4.91254E+06    -4.77583E+06     128.127E+06     170.430E+06    -3.70050E+06
             177     119.124E-03     15.2416E-03     118.144E-03     339.260E-03    -167.779E-03    -171.481E-03    -165.334E-03     333.113E-03    -167.779E-03     111.204E-03     398.364E-03     161.178E+06     174.256E+06     132.392E+06    -3.66427E+06    -3.29547E+06     132.023E+06     174.256E+06     4.29826E+06
             178     120.506E-03     15.2451E-03     119.538E-03     340.594E-03    -167.587E-03    -173.007E-03    -166.040E-03     333.627E-03    -167.587E-03     118.824E-03     399.870E-03     168.953E+06     174.728E+06     142.003E+06    -8.11044E+06    -7.71069E+06     141.603E+06     174.728E+06     6.81415E+06
             179     121.890E-03     15.2477E-03     120.933E-03     345.062E-03    -167.279E-03    -177.784E-03    -171.183E-03     338.461E-03    -167.279E-03     116.639E-03     403.659E-03     169.546E+06     173.937E+06     144.285E+06    -8.46213E+06    -8.06642E+06     143.889E+06     173.937E+06    -3.34278E+06
             180     123.285E-03     15.2480E-03     122.338E-03     343.467E-03    -167.115E-03    -176.352E-03    -169.676E-03     336.791E-03    -167.115E-03     116.900E-03     397.969E-03     172.477E+06     183.247E+06     148.496E+06    -3.95343E+06    -3.58563E+06     148.128E+06     183.247E+06    -4.15312E+06
             181     124.675E-03     15.2596E-03     123.738E-03     338.029E-03    -167.026E-03    -171.003E-03    -163.631E-03     330.657E-03    -167.026E-03     121.619E-03     392.954E-03     177.953E+06     189.305E+06     157.081E+06    -2.49579E+06    -2.21601E+06     156.802E+06     189.305E+06     5.60499E+06
             182     126.047E-03     15.2533E-03     125.121E-03     335.392E-03    -166.719E-03    -168.674E-03    -161.336E-03     328.055E-03    -166.719E-03     120.742E-03     391.718E-03     179.109E+06     185.122E+06     154.673E+06    -7.23555E+06    -6.90406E+06     154.342E+06     185.122E+06     6.91320E+06
             183     127.399E-03     15.2755E-03     126.480E-03     336.795E-03    -166.029E-03    -170.766E-03    -164.603E-03     330.632E-03    -166.029E-03     110.729E-03     393.414E-03     184.187E+06     185.428E+06     152.734E+06    -12.9080E+06    -12.4481E+06     152.274E+06     185.428E+06    -3.51107E+06
             184     128.798E-03     15.2722E-03     127.889E-03     338.287E-03    -165.302E-03    -172.985E-03    -167.297E-03     332.599E-03    -165.302E-03     107.108E-03     394.398E-03     184.628E+06     189.940E+06     157.516E+06    -8.74631E+06    -7.92921E+06     156.699E+06     189.940E+06      70.094E+03
             185     130.191E-03     15.2954E-03     129.289E-03     333.315E-03    -164.702E-03    -168.613E-03    -161.859E-03     326.561E-03    -164.702E-03     115.538E-03     391.650E-03     180.977E+06     195.757E+06     161.079E+06    -45.9734E+03     377.009E+03     160.656E+06     195.757E+06     5.40835E+06
             186     131.551E-03     15.2988E-03     130.658E-03     336.969E-03    -163.934E-03    -173.036E-03    -166.094E-03     330.028E-03    -163.934E-03     118.094E-03     397.732E-03     184.200E+06     193.561E+06     160.993E+06    -4.71821E+06    -4.37998E+06     160.654E+06     193.561E+06    -5.81123E+06
             187     132.952E-03     15.3071E-03     132.068E-03     347.272E-03    -163.190E-03    -184.082E-03    -177.816E-03     341.006E-03    -163.190E-03     114.655E-03     405.424E-03     183.356E+06     192.208E+06     155.847E+06    -6.46748E+06    -6.13083E+06     155.510E+06     192.208E+06    -5.62586E+06
             188     134.356E-03     15.3118E-03     133.480E-03     350.263E-03    -162.782E-03    -187.481E-03    -181.261E-03     344.043E-03    -162.782E-03     114.963E-03     407.365E-03     181.222E+06     194.361E+06     141.356E+06    -7.27836E+06    -7.24440E+06     141.322E+06     194.361E+06    -1.80353E+06
             189     135.760E-03     15.3154E-03     134.894E-03     350.168E-03    -162.619E-03    -187.549E-03    -181.059E-03     343.678E-03    -162.619E-03     117.428E-03     409.221E-03     185.429E+06     201.832E+06     120.126E+06    -9.52510E+06    -9.14800E+06     119.749E+06     201.832E+06    -5.96630E+06
             190     137.157E-03     15.3187E-03     136.298E-03     351.329E-03    -162.474E-03    -188.854E-03    -182.393E-03     344.867E-03    -162.474E-03     117.452E-03     412.483E-03     188.581E+06     211.625E+06     95.7829E+06    -5.36418E+06    -4.62944E+06     95.0482E+06     211.625E+06    -8.54933E+06
             191     138.557E-03     15.3201E-03     137.708E-03     361.407E-03    -162.135E-03    -199.272E-03    -192.406E-03     354.541E-03    -162.135E-03     123.321E-03     421.555E-03     193.000E+06     212.287E+06     73.0513E+06    -7.83688E+06    -6.94407E+06     72.1585E+06     212.287E+06    -8.40086E+06
             192     139.999E-03     15.3211E-03     139.158E-03     374.590E-03    -161.720E-03    -212.871E-03    -205.840E-03     367.560E-03    -161.720E-03     127.725E-03     432.978E-03     189.573E+06     209.562E+06     59.2667E+06    -3.15168E+06    -2.36823E+06     58.4832E+06     209.562E+06    -1.59610E+06
             193     141.437E-03     15.3215E-03     140.604E-03     378.190E-03    -161.565E-03    -216.625E-03    -210.055E-03     371.620E-03    -161.565E-03     124.324E-03     435.884E-03     186.962E+06     200.559E+06     51.1355E+06    -8.90695E+06    -8.23320E+06     50.4618E+06     200.559E+06    -981.413E+03
             194     142.871E-03     15.3206E-03     142.047E-03     376.568E-03    -161.598E-03    -214.970E-03    -208.682E-03     370.279E-03    -161.598E-03     121.330E-03     432.765E-03     185.108E+06     193.521E+06     37.9320E+06    -9.98011E+06    -8.42983E+06     36.3817E+06     193.521E+06    -7.43489E+06
             195     144.300E-03     15.3214E-03     143.485E-03     376.167E-03    -161.584E-03    -214.583E-03    -208.517E-03     370.101E-03    -161.584E-03     119.093E-03     430.578E-03     178.976E+06     186.476E+06     17.5490E+06    -826.031E+03     461.417E+03     16.2616E+06     186.476E+06    -4.56513E+06
             196     145.743E-03     15.3208E-03     144.935E-03     375.399E-03    -161.609E-03    -213.791E-03    -207.752E-03     369.361E-03    -161.609E-03     118.670E-03     429.263E-03     186.428E+06     177.713E+06     2.27462E+06    -17.7357E+06    -7.67705E+06    -7.78404E+06     177.713E+06    -7.98039E+06
             197     147.172E-03     15.3211E-03     146.372E-03     378.276E-03    -161.539E-03    -216.738E-03    -210.476E-03     372.014E-03    -161.539E-03     121.439E-03     432.595E-03     203.474E+06     175.893E+06     3.21571E+06    -47.4581E+06    -2.41641E+06    -41.8260E+06     175.893E+06    -11.0147E+06
             198     148.610E-03     15.3229E-03     147.818E-03     380.300E-03    -161.360E-03    -218.940E-03    -213.695E-03     375.055E-03    -161.360E-03     111.039E-03     432.443E-03     220.915E+06     162.527E+06    -7.80304E+06    -87.0304E+06    -10.8836E+06    -83.9499E+06     162.527E+06    -14.2757E+06
             199     150.051E-03     15.3234E-03     149.267E-03     375.017E-03    -161.271E-03    -213.746E-03    -209.369E-03     370.640E-03    -161.271E-03     101.100E-03     425.220E-03     227.178E+06     143.199E+06     7.98179E+06    -115.479E+06     5.05336E+06    -112.551E+06     143.199E+06    -5.88649E+06
             200     151.476E-03     15.3265E-03     150.698E-03     366.161E-03    -161.286E-03    -204.875E-03    -200.941E-03     362.228E-03    -161.286E-03     94.1832E-03     414.661E-03     228.407E+06     117.188E+06    -4.00164E+06    -145.105E+06    -9.22042E+06    -139.886E+06     117.188E+06    -12.1447E+06
             201     152.892E-03     15.3263E-03     152.122E-03     353.802E-03    -161.247E-03    -192.555E-03    -188.685E-03     349.932E-03    -161.247E-03     91.2495E-03     401.703E-03     231.991E+06     104.621E+06     23.1203E+06    -149.272E+06     22.2852E+06    -139.834E+06     96.0177E+06     6.00436E+06
             202     154.301E-03     15.3357E-03     153.537E-03     288.579E-03    -113.636E-03    -174.943E-03    -123.531E-03     286.332E-03    -162.800E-03     46.2433E-03     351.191E-03     177.416E+06     80.0521E+06     45.2445E+06    -110.211E+06     11.0294E+06    -67.3928E+06     71.4490E+06     37.9750E+06
             203     155.320E-03     14.3026E-03     154.660E-03     238.857E-03    -72.0651E-03    -166.792E-03    -71.6950E-03     238.487E-03    -166.792E-03    -17.6515E-03     309.502E-03     151.684E+06     74.6960E+06     32.3038E+06    -92.7681E+06    -82.6823E+06     38.4056E+06     58.5083E+06    -4.05523E+06
             204     154.972E-03     13.3772E-03     154.393E-03     243.804E-03    -72.5377E-03    -171.266E-03    -70.1856E-03     241.452E-03    -171.266E-03    -50.0704E-03     303.816E-03     144.758E+06     51.1910E+06     23.0979E+06    -105.536E+06    -67.2669E+06     1.01628E+06     35.0033E+06    -40.9834E+06
             205     154.635E-03     12.4464E-03     154.133E-03     245.696E-03    -69.9591E-03    -175.737E-03    -63.8885E-03     239.626E-03    -175.737E-03    -85.5152E-03     294.949E-03     95.0368E+06     29.2305E+06    -12.1881E+06    -76.3493E+06    -41.9995E+06    -46.5379E+06     29.2305E+06    -22.9218E+06
             206     154.287E-03     11.5412E-03     153.855E-03     256.491E-03    -76.2378E-03    -180.253E-03    -66.5899E-03     246.843E-03    -180.253E-03    -111.418E-03     297.448E-03     86.8150E+06     63.2716E+06     7.09199E+06    -36.3303E+06    -33.8090E+06     4.57070E+06     63.2716E+06    -9.00265E+06
             207     153.943E-03     10.6538E-03     153.574E-03     270.236E-03    -85.7527E-03    -184.483E-03    -72.7901E-03     257.274E-03    -184.483E-03    -133.181E-03     304.510E-03     96.7927E+06     71.4464E+06     8.13818E+06    -39.5611E+06    -30.3747E+06    -1.04814E+06     71.4464E+06    -17.3828E+06
             208     153.621E-03     9.77781E-03     153.310E-03     289.766E-03    -101.500E-03    -188.266E-03    -85.3768E-03     273.643E-03    -188.266E-03    -155.526E-03     317.630E-03     103.832E+06     79.1121E+06     1.17923E+06    -38.7273E+06    -26.0581E+06    -11.4900E+06     79.1121E+06    -18.5676E+06
             209     153.310E-03     8.91954E-03     153.051E-03     309.857E-03    -118.617E-03    -191.240E-03    -99.8748E-03     291.115E-03    -191.240E-03    -175.241E-03     332.090E-03     107.947E+06     88.0624E+06     4.67600E+06    -33.8640E+06    -21.5818E+06    -7.60611E+06     88.0624E+06    -17.9478E+06
             210     153.015E-03     8.07906E-03     152.802E-03     326.475E-03    -133.045E-03    -193.429E-03    -113.105E-03     306.534E-03    -193.429E-03    -187.215E-03     344.090E-03     109.704E+06     94.3531E+06     12.3115E+06    -30.1822E+06    -12.2552E+06    -5.61550E+06     94.3531E+06    -20.7021E+06
             211     152.745E-03     7.24958E-03     152.573E-03     341.622E-03    -146.619E-03    -195.004E-03    -126.713E-03     321.717E-03    -195.004E-03    -193.088E-03     355.430E-03     111.466E+06     96.9540E+06     14.7911E+06    -29.9015E+06    -1.35263E+06    -13.7578E+06     96.9540E+06    -20.2492E+06
             212     152.497E-03     6.42748E-03     152.361E-03     354.181E-03    -158.156E-03    -196.025E-03    -139.440E-03     335.465E-03    -196.025E-03    -192.044E-03     364.779E-03     106.500E+06     98.2700E+06     13.3055E+06    -20.9781E+06     4.53190E+06    -12.2045E+06     98.2700E+06    -14.7222E+06
             213     152.272E-03     5.61589E-03     152.168E-03     364.875E-03    -168.314E-03    -196.561E-03    -151.723E-03     348.284E-03    -196.561E-03    -185.027E-03     372.829E-03     95.9616E+06     96.7011E+06     25.0077E+06    -11.4199E+06     12.4834E+06     1.10446E+06     96.7011E+06    -17.3024E+06
             214     152.082E-03     4.80592E-03     152.006E-03     375.230E-03    -178.636E-03    -196.594E-03    -164.591E-03     361.185E-03    -196.594E-03    -173.716E-03     381.582E-03     99.8276E+06     95.1896E+06     35.5910E+06    -19.9795E+06     24.9700E+06    -9.35855E+06     95.1896E+06    -19.8410E+06
             215     151.914E-03     4.00410E-03     151.861E-03     380.308E-03    -184.241E-03    -196.067E-03    -173.633E-03     369.700E-03    -196.067E-03    -152.738E-03     385.769E-03     93.5960E+06     94.3589E+06     42.0304E+06    -13.6971E+06     38.5322E+06    -10.1988E+06     94.3589E+06    -13.3079E+06
             216     151.757E-03     3.20063E-03     151.723E-03     380.583E-03    -184.934E-03    -195.649E-03    -176.962E-03     372.611E-03    -195.649E-03    -133.131E-03     385.362E-03     75.7857E+06     81.5096E+06     54.3322E+06    -2.76970E+06     51.2090E+06     353.482E+03     81.5096E+06    -12.8806E+06
             217     151.651E-03     2.39103E-03     151.633E-03     383.249E-03    -187.099E-03    -196.149E-03    -181.123E-03     377.273E-03    -196.149E-03    -115.565E-03     388.190E-03     86.6206E+06     81.3501E+06     72.8320E+06    -9.14952E+06     68.6158E+06    -4.93334E+06     81.3501E+06    -17.9831E+06
             218     151.561E-03     1.58114E-03     151.553E-03     389.864E-03    -192.868E-03    -196.996E-03    -189.573E-03     386.208E-03    -196.635E-03    -90.6789E-03     394.639E-03     99.8358E+06     87.2457E+06     83.6521E+06    -14.3162E+06     80.1395E+06    -10.8036E+06     87.2457E+06    -18.1482E+06
             219     151.524E-03     795.838E-06     151.522E-03     392.479E-03    -195.245E-03    -197.234E-03    -195.657E-03     390.902E-03    -195.245E-03    -58.1618E-03     399.062E-03     109.151E+06      89.379E+06     88.6230E+06    -20.1477E+06     86.4712E+06    -17.9959E+06      89.379E+06    -14.6943E+06
             220     150.045E-03     4.64215E-06     150.045E-03     340.678E-03    -169.282E-03    -171.396E-03    -170.993E-03     340.275E-03    -169.282E-03    -27.3437E-03     346.075E-03     79.5595E+06     22.2882E+06     19.6996E+06    -58.4571E+06     19.7519E+06    -56.0993E+06     19.8781E+06    -12.0069E+06
             221     148.673E-03    -4.12205E-06     148.673E-03     259.646E-03    -129.563E-03    -130.084E-03    -129.976E-03     259.573E-03    -129.597E-03    -4.45010E-03     260.905E-03     27.5027E+06    -85.7361E+06    -95.2171E+06    -114.561E+06    -94.4316E+06    -105.865E+06    -95.2171E+06    -7.69959E+06
             222     147.414E-03     4.21869E-06     147.414E-03     208.286E-03    -102.299E-03    -105.987E-03    -105.865E-03     208.198E-03    -102.333E-03     9.43797E-03     208.856E-03     40.7827E+06    -152.560E+06    -191.901E+06    -194.646E+06    -192.575E+06    -154.630E+06    -191.901E+06    -9.05309E+06
             223     146.217E-03     2.08454E-06     146.217E-03     182.027E-03    -87.7423E-03    -94.2848E-03    -91.1056E-03     181.737E-03    -90.6311E-03     17.1602E-03     182.414E-03     92.0872E+06    -201.549E+06    -291.904E+06    -295.237E+06    -292.122E+06    -203.604E+06    -292.965E+06    -12.6009E+06
             224     145.027E-03    -8.27992E-06     145.027E-03     179.716E-03    -87.7070E-03    -92.0086E-03    -87.4659E-03     179.474E-03    -92.0086E-03     14.3881E-03     180.007E-03     96.8291E+06    -237.377E+06    -329.065E+06    -338.081E+06    -336.151E+06    -238.246E+06    -330.125E+06    -9.26178E+06
             225     143.830E-03     5.49680E-06     143.830E-03     192.558E-03    -93.6475E-03    -98.9103E-03    -97.3886E-03     192.449E-03    -95.0603E-03     10.9134E-03     192.937E-03     65.3774E+06    -228.689E+06    -266.434E+06    -299.251E+06    -270.723E+06    -257.217E+06    -266.434E+06     1.04282E+06
             226     142.614E-03     924.889E-09     142.614E-03     210.858E-03    -103.399E-03    -107.459E-03    -107.261E-03     210.659E-03    -103.399E-03     15.8474E-03     211.496E-03     66.0622E+06    -175.548E+06    -187.836E+06    -246.871E+06    -176.434E+06    -245.985E+06    -187.836E+06     6.45467E+06
             227     141.340E-03    -1.29884E-06     141.340E-03     220.206E-03    -109.983E-03    -110.223E-03    -110.046E-03     220.029E-03    -109.983E-03     15.0759E-03     220.804E-03     89.8336E+06    -136.581E+06    -151.350E+06    -232.830E+06    -143.496E+06    -232.540E+06    -144.726E+06     4.90545E+06
             228     140.124E-03     1.00018E-06     140.124E-03     232.106E-03    -115.251E-03    -116.855E-03    -115.140E-03     231.967E-03    -116.826E-03     13.8968E-03     232.794E-03     107.783E+06    -118.277E+06    -127.853E+06    -230.466E+06    -125.563E+06    -229.805E+06    -121.229E+06    -1.75244E+06
             229     138.846E-03    -4.18803E-06     138.846E-03     260.436E-03    -128.280E-03    -132.156E-03    -128.137E-03     260.293E-03    -132.156E-03     14.8924E-03     261.423E-03     116.254E+06    -115.044E+06    -118.958E+06    -233.192E+06    -116.519E+06    -232.679E+06    -117.996E+06    -7.15862E+06
             230     137.509E-03    -102.823E-09     137.509E-03     284.624E-03    -139.660E-03    -144.964E-03    -142.514E-03     284.474E-03    -141.960E-03     15.9792E-03     285.463E-03     120.127E+06    -119.696E+06    -122.877E+06    -241.377E+06    -120.778E+06    -241.257E+06    -121.915E+06    -536.103E+03
             231     136.174E-03     4.95758E-06     136.174E-03     292.715E-03    -143.287E-03    -149.427E-03    -149.335E-03     292.622E-03    -143.287E-03     11.2653E-03     293.354E-03     122.744E+06    -113.531E+06    -117.361E+06    -238.144E+06    -115.184E+06    -238.102E+06    -115.750E+06     1.56449E+06
             232     134.852E-03     227.403E-09     134.852E-03     298.734E-03    -146.292E-03    -152.442E-03    -149.399E-03     298.705E-03    -149.307E-03     6.96167E-03     299.381E-03     132.159E+06    -120.271E+06    -122.588E+06    -253.570E+06    -122.979E+06    -253.180E+06    -120.271E+06    -5.24899E+06
             233     133.490E-03    -5.61946E-06     133.490E-03     310.954E-03    -151.336E-03    -159.618E-03    -151.289E-03     310.908E-03    -159.618E-03     9.25389E-03     312.070E-03     139.706E+06    -129.454E+06    -131.904E+06    -270.366E+06    -130.571E+06    -269.954E+06    -131.198E+06    -3.98927E+06
             234     132.104E-03    -3.72988E-06     132.104E-03     314.981E-03    -153.943E-03    -161.038E-03    -153.916E-03     314.954E-03    -161.038E-03     6.00681E-03     316.258E-03     136.512E+06    -134.133E+06    -137.044E+06    -272.077E+06    -135.411E+06    -271.966E+06    -135.878E+06     3.66080E+06
             235     130.751E-03     347.643E-09     130.751E-03     313.511E-03    -155.105E-03    -158.407E-03    -156.544E-03     313.477E-03    -156.933E-03     6.73915E-03     314.602E-03     127.678E+06    -135.231E+06    -138.813E+06    -264.656E+06    -139.072E+06    -264.397E+06    -135.231E+06    -721.761E+03
             236     129.377E-03     1.88006E-06     129.377E-03     321.130E-03    -157.576E-03    -163.554E-03    -163.520E-03     321.096E-03    -157.576E-03     6.45315E-03     322.175E-03     125.020E+06    -141.790E+06    -147.693E+06    -269.654E+06    -144.567E+06    -269.293E+06    -145.277E+06    -6.72525E+06
             237     127.998E-03     5.43329E-06     127.998E-03     326.059E-03    -160.326E-03    -165.733E-03    -164.829E-03     326.058E-03    -161.230E-03     1.04803E-03     326.980E-03     137.127E+06    -152.733E+06    -158.956E+06    -292.861E+06    -153.065E+06    -292.529E+06    -158.956E+06    -350.356E+03
             238     126.615E-03    -7.19872E-06     126.615E-03     327.375E-03    -161.298E-03    -166.077E-03    -161.297E-03     327.374E-03    -166.077E-03    -51.2106E-06     328.320E-03     138.203E+06    -154.090E+06    -159.206E+06    -294.781E+06    -154.406E+06    -294.465E+06    -159.206E+06    -213.135E+03
             239     125.225E-03     406.166E-09     125.225E-03     324.659E-03    -156.570E-03    -168.089E-03    -164.062E-03     324.507E-03    -160.445E-03    -12.4673E-03     325.589E-03     140.149E+06    -148.995E+06    -153.142E+06    -291.169E+06    -151.042E+06    -290.889E+06    -151.375E+06    -661.812E+03
             240     123.859E-03     12.1385E-06     123.859E-03     318.307E-03    -155.239E-03    -163.067E-03    -162.673E-03     318.097E-03    -155.423E-03    -4.72741E-03     319.508E-03     155.787E+06    -138.880E+06    -145.351E+06    -297.784E+06    -145.813E+06    -297.323E+06    -138.880E+06    -2.52885E+06
             241     122.473E-03    -12.5035E-06     122.473E-03     330.141E-03    -161.651E-03    -168.490E-03    -161.584E-03     330.074E-03    -168.490E-03     10.3942E-03     331.466E-03     158.308E+06    -143.420E+06    -152.115E+06    -305.896E+06    -148.645E+06    -305.374E+06    -147.411E+06    -1.69845E+06
             242     121.058E-03     992.307E-09     121.058E-03     343.289E-03    -167.217E-03    -176.072E-03    -169.406E-03     343.279E-03    -173.873E-03     1.59394E-03     344.346E-03     158.284E+06    -139.516E+06    -151.822E+06    -303.555E+06    -148.431E+06    -302.956E+06    -143.507E+06    -2.16621E+06
             243     119.657E-03     2.62466E-06     119.657E-03     339.202E-03    -166.695E-03    -172.507E-03    -172.503E-03     339.198E-03    -166.695E-03     68.3698E-06     340.097E-03     164.092E+06    -144.614E+06    -154.090E+06    -313.117E+06    -153.990E+06    -312.056E+06    -145.775E+06     1.44624E+06
             244     118.254E-03     3.22845E-06     118.254E-03     334.420E-03    -164.052E-03    -170.368E-03    -167.613E-03     334.368E-03    -166.755E-03     8.46687E-03     335.411E-03     168.261E+06    -131.560E+06    -143.555E+06    -305.294E+06    -132.189E+06    -304.665E+06    -143.555E+06     6.59730E+06
             245     116.848E-03    -8.41205E-06     116.848E-03     329.663E-03    -163.013E-03    -166.650E-03    -162.959E-03     329.609E-03    -166.650E-03     9.15330E-03     330.814E-03     166.195E+06    -108.596E+06    -132.740E+06    -285.520E+06    -121.983E+06    -285.444E+06    -119.430E+06    -2.91736E+06
             246     115.471E-03     6.77805E-06     115.471E-03     323.423E-03    -160.889E-03    -162.534E-03    -160.863E-03     323.397E-03    -162.534E-03     6.63228E-03     324.554E-03     174.791E+06    -116.572E+06    -143.028E+06    -303.073E+06    -129.956E+06    -302.999E+06    -129.718E+06    -1.93053E+06
             247     114.104E-03    -8.41542E-06     114.104E-03     329.892E-03    -161.278E-03    -168.614E-03    -161.250E-03     329.864E-03    -168.614E-03     7.09575E-03     331.128E-03     179.462E+06    -120.459E+06    -139.899E+06    -308.774E+06    -126.830E+06    -308.698E+06    -133.605E+06     2.86619E+06
             248     112.705E-03    -2.91618E-06     112.705E-03     341.173E-03    -164.934E-03    -176.239E-03    -164.920E-03     341.159E-03    -176.239E-03    -120.090E-06     342.495E-03     169.058E+06    -120.146E+06    -127.876E+06    -292.887E+06    -127.951E+06    -292.812E+06    -120.146E+06     2.50109E+06
             249     111.282E-03    -5.08354E-06     111.282E-03     340.914E-03    -168.035E-03    -172.879E-03    -168.187E-03     340.902E-03    -172.715E-03    -367.724E-06     341.921E-03     166.945E+06    -112.175E+06    -115.387E+06    -280.703E+06    -113.624E+06    -280.690E+06    -113.951E+06     1.06334E+06
             250     109.887E-03     5.12459E-06     109.887E-03     336.622E-03    -168.118E-03    -168.504E-03    -168.270E-03     336.609E-03    -168.340E-03     5.06445E-03     337.832E-03     168.815E+06    -125.301E+06    -129.913E+06    -296.372E+06    -128.464E+06    -296.045E+06    -127.078E+06    -4.07177E+06
             251     108.481E-03    -5.67262E-06     108.481E-03     333.954E-03    -166.128E-03    -167.826E-03    -167.591E-03     333.941E-03    -166.350E-03     5.08524E-03     335.382E-03     180.944E+06    -121.581E+06    -132.952E+06    -307.889E+06    -125.600E+06    -306.705E+06    -130.117E+06     4.14977E+06
             252     107.094E-03     7.92684E-06     107.094E-03     339.162E-03    -166.726E-03    -172.436E-03    -172.428E-03     339.154E-03    -166.726E-03     3.86174E-03     340.223E-03     183.713E+06    -104.191E+06    -122.354E+06    -296.304E+06    -115.671E+06    -294.450E+06    -112.727E+06     299.857E+03
             253     105.698E-03    -952.352E-09     105.698E-03     343.504E-03    -166.219E-03    -177.286E-03    -170.446E-03     343.498E-03    -173.052E-03    -480.094E-06     344.533E-03     175.526E+06    -119.523E+06    -139.255E+06    -304.080E+06    -130.160E+06    -303.070E+06    -129.629E+06    -7.39918E+06
             254     104.266E-03    -10.9848E-06     104.266E-03     336.919E-03    -164.769E-03    -172.150E-03    -164.733E-03     336.883E-03    -172.150E-03     3.64820E-03     337.923E-03     173.577E+06    -113.972E+06    -134.681E+06    -296.973E+06    -124.902E+06    -296.646E+06    -124.078E+06     6.47193E+06
             255     102.865E-03     9.89625E-06     102.865E-03     334.378E-03    -164.862E-03    -169.516E-03    -168.930E-03     334.339E-03    -165.409E-03     8.26983E-03     335.332E-03     173.116E+06    -109.163E+06    -129.899E+06    -291.712E+06    -120.304E+06    -291.174E+06    -119.295E+06     238.339E+03
             256     101.508E-03    -3.38581E-06     101.508E-03     339.677E-03    -166.561E-03    -173.116E-03    -173.109E-03     339.670E-03    -166.561E-03     2.09760E-03     340.635E-03     170.740E+06    -122.730E+06    -141.909E+06    -302.249E+06    -132.027E+06    -301.998E+06    -132.862E+06    -3.64179E+06
             257     100.058E-03     7.41327E-06     100.058E-03     338.872E-03    -167.710E-03    -171.162E-03    -171.122E-03     338.832E-03    -167.710E-03     5.80185E-03     339.584E-03     167.048E+06    -114.207E+06    -135.699E+06    -290.934E+06    -123.313E+06    -290.875E+06    -126.653E+06     3.03374E+06
             258     98.6673E-03    -6.12732E-06     98.6673E-03     331.240E-03    -161.599E-03    -169.641E-03    -162.542E-03     331.179E-03    -168.637E-03     10.8036E-03     331.990E-03     163.927E+06    -107.403E+06    -131.508E+06    -282.048E+06    -119.158E+06    -281.952E+06    -119.848E+06     3.94511E+06
             259     97.3013E-03    -5.95363E-06     97.3013E-03     333.584E-03    -161.778E-03    -171.806E-03    -161.757E-03     333.564E-03    -171.806E-03     4.60911E-03     334.641E-03     163.000E+06    -114.547E+06    -132.616E+06    -285.759E+06    -126.623E+06    -285.343E+06    -120.956E+06    -3.64297E+06
             260     95.8828E-03     651.983E-09     95.8828E-03     336.482E-03    -165.744E-03    -170.738E-03    -165.734E-03     336.473E-03    -170.738E-03     3.14346E-03     337.610E-03     169.056E+06    -122.841E+06    -132.481E+06    -296.485E+06    -126.443E+06    -296.115E+06    -129.250E+06    -4.90272E+06
             261     94.4850E-03    -4.19121E-06     94.4850E-03     330.127E-03    -160.377E-03    -169.750E-03    -167.734E-03     330.116E-03    -162.382E-03     4.34382E-03     331.062E-03     158.073E+06    -134.214E+06    -142.329E+06    -296.174E+06    -137.774E+06    -295.846E+06    -139.098E+06     5.54734E+06
             262     93.1017E-03     16.3917E-06     93.1017E-03     330.356E-03    -158.868E-03    -171.488E-03    -171.401E-03     330.269E-03    -158.868E-03     10.6162E-03     331.349E-03     158.668E+06    -121.099E+06    -130.670E+06    -284.333E+06    -126.170E+06    -283.949E+06    -125.983E+06     2.62476E+06
             263     91.7118E-03    -7.81828E-06     91.7118E-03     337.069E-03    -163.567E-03    -173.502E-03    -168.732E-03     336.981E-03    -168.249E-03     7.51297E-03     338.141E-03     167.576E+06    -112.702E+06    -121.675E+06    -284.584E+06    -117.501E+06    -284.473E+06    -116.987E+06    -190.976E+03
             264     90.3138E-03    -358.238E-09     90.3138E-03     337.749E-03    -164.488E-03    -173.261E-03    -164.483E-03     337.744E-03    -173.261E-03    -527.500E-06     338.747E-03     160.632E+06    -111.525E+06    -121.509E+06    -276.912E+06    -117.300E+06    -276.835E+06    -115.811E+06     653.955E+03
             265     88.9018E-03    -6.75081E-06     88.9018E-03     332.157E-03    -163.140E-03    -169.017E-03    -164.924E-03     332.155E-03    -167.232E-03     1.51602E-03     333.166E-03     164.664E+06    -107.198E+06    -124.104E+06    -279.603E+06    -112.922E+06    -279.578E+06    -118.405E+06    -1.39444E+06
             266     87.5199E-03     9.48322E-06     87.5199E-03     327.406E-03    -159.670E-03    -167.736E-03    -167.736E-03     327.406E-03    -159.670E-03    -216.323E-06     328.409E-03     162.788E+06    -110.169E+06    -135.890E+06    -284.243E+06    -124.691E+06    -284.235E+06    -121.377E+06     787.865E+03
             267     86.1471E-03     1.15690E-06     86.1471E-03     333.187E-03    -160.303E-03    -172.884E-03    -166.508E-03     333.111E-03    -166.603E-03     8.24117E-03     334.549E-03     158.965E+06    -108.884E+06    -134.570E+06    -279.094E+06    -123.423E+06    -279.069E+06    -120.057E+06    -439.352E+03
             268     84.7232E-03    -12.2083E-06     84.7232E-03     345.234E-03    -164.690E-03    -180.544E-03    -164.610E-03     345.154E-03    -180.544E-03     10.7845E-03     346.885E-03     153.077E+06    -109.755E+06    -132.299E+06    -272.849E+06    -121.166E+06    -272.809E+06    -120.928E+06     28.3745E+03
             269     83.3042E-03    -3.84889E-06     83.3042E-03     338.077E-03    -163.245E-03    -174.831E-03    -165.267E-03     338.066E-03    -172.799E-03    -551.047E-06     339.229E-03     148.393E+06    -110.737E+06    -132.692E+06    -268.880E+06    -122.134E+06    -268.853E+06    -121.322E+06     733.306E+03
             270     81.9230E-03     7.07005E-06     81.9230E-03     322.900E-03    -158.649E-03    -164.251E-03    -164.224E-03     322.873E-03    -158.649E-03     1.83999E-03     323.837E-03     155.787E+06    -106.189E+06    -125.140E+06    -270.567E+06    -114.569E+06    -270.552E+06    -116.774E+06    -1.43891E+06
             271     80.5649E-03    -1.09116E-06     80.5649E-03     330.416E-03    -162.022E-03    -168.395E-03    -165.550E-03     330.375E-03    -164.825E-03     9.08684E-03     331.553E-03     165.603E+06    -106.337E+06    -120.870E+06    -278.711E+06    -114.781E+06    -278.633E+06    -112.504E+06    -3.35399E+06
             272     79.1383E-03    -3.90190E-06     79.1383E-03     337.871E-03    -166.695E-03    -171.176E-03    -168.350E-03     337.848E-03    -169.498E-03     3.33622E-03     338.736E-03     163.076E+06    -114.720E+06    -126.496E+06    -283.364E+06    -120.442E+06    -283.251E+06    -120.887E+06    -570.912E+03
             273     77.7393E-03     6.72488E-06     77.7393E-03     332.745E-03    -164.751E-03    -167.994E-03    -167.917E-03     332.668E-03    -164.751E-03     7.37527E-03     333.471E-03     159.195E+06    -114.571E+06    -129.078E+06    -280.504E+06    -120.228E+06    -280.455E+06    -123.468E+06     2.25409E+06
             274     77.4115E-03     14.3951E-03     76.0613E-03     342.596E-03    -167.817E-03    -174.779E-03    -166.904E-03     334.721E-03    -167.817E-03     125.835E-03     405.815E-03     123.698E+06     132.939E+06     86.6028E+06    -7.22098E+06    -5.45237E+06     84.8342E+06     132.939E+06    -3.35926E+06
             275     77.0928E-03     13.5457E-03     75.8934E-03     341.526E-03    -167.932E-03    -173.594E-03    -165.054E-03     332.987E-03    -167.932E-03     131.275E-03     399.897E-03      97.772E+06     93.3631E+06     50.0166E+06    -18.1542E+06    -17.3078E+06     49.1702E+06     93.3631E+06     491.845E+03
             276     76.7990E-03     12.6871E-03     75.7438E-03     338.439E-03    -167.657E-03    -170.782E-03    -164.079E-03     332.271E-03    -168.192E-03     110.375E-03     387.797E-03     81.5250E+06     69.5008E+06     28.0239E+06    -24.1526E+06    -23.7919E+06     27.6633E+06     69.5008E+06    -1.17609E+06
             277     76.5556E-03     11.8355E-03     75.6352E-03     340.499E-03    -167.816E-03    -172.684E-03    -168.039E-03     336.390E-03    -168.351E-03     90.9573E-03     383.578E-03     79.4244E+06     60.0979E+06     24.9943E+06    -30.6590E+06    -27.7554E+06     22.0907E+06     60.0979E+06     3.52236E+06
             278     76.3147E-03     10.9939E-03     75.5186E-03     340.448E-03    -168.291E-03    -172.157E-03    -169.156E-03     337.447E-03    -168.291E-03     77.3989E-03     376.231E-03     77.6099E+06     51.6356E+06     23.3513E+06    -36.1033E+06    -33.3498E+06     20.5977E+06     51.6356E+06     6.65030E+06
             279     76.0930E-03     10.1464E-03     75.4135E-03     337.951E-03    -167.717E-03    -170.234E-03    -167.460E-03     335.685E-03    -168.225E-03     67.4547E-03     368.533E-03     75.4646E+06     44.4628E+06     23.0832E+06    -39.1849E+06    -38.1533E+06     22.0516E+06     44.4628E+06     2.76763E+06
             280     75.8902E-03     9.29997E-03     75.3182E-03     337.560E-03    -167.691E-03    -169.869E-03    -167.419E-03     335.619E-03    -168.199E-03     62.3915E-03     364.442E-03     74.4129E+06     31.9945E+06     18.7163E+06    -47.9412E+06    -46.7616E+06     17.5367E+06     31.9945E+06    -862.600E+03
             281     75.7175E-03     8.45848E-03     75.2436E-03     337.770E-03    -168.156E-03    -169.613E-03    -168.086E-03     336.243E-03    -168.156E-03     55.4533E-03     360.902E-03     73.4640E+06     22.1526E+06     9.84267E+06    -56.5306E+06    -56.0808E+06     9.39288E+06     22.1526E+06    -1.64126E+06
             282     75.5506E-03     7.61203E-03     75.1662E-03     337.695E-03    -168.035E-03    -169.660E-03    -168.430E-03     336.470E-03    -168.040E-03     49.7074E-03     357.607E-03     67.7409E+06     8.40905E+06    -7.38645E+06    -65.7904E+06    -65.1880E+06    -7.98881E+06     8.40905E+06     1.20562E+06
             283     75.4082E-03     6.76634E-03     75.1040E-03     336.515E-03    -167.288E-03    -169.227E-03    -167.617E-03     335.566E-03    -167.949E-03     43.5805E-03     353.827E-03     60.3655E+06    -6.72827E+06    -39.5872E+06     -73.613E+06    -71.1204E+06    -42.0798E+06    -6.72827E+06     621.451E+03
             284     75.2864E-03     5.91972E-03     75.0533E-03     335.790E-03    -166.921E-03    -168.869E-03    -167.208E-03     335.149E-03    -167.941E-03     35.6313E-03     351.024E-03     64.1261E+06    -21.5495E+06    -69.3428E+06    -93.9670E+06    -75.9907E+06    -87.3191E+06    -21.5495E+06     1.81125E+06
             285     75.1975E-03     5.07352E-03     75.0262E-03     336.546E-03    -167.456E-03    -169.090E-03    -168.259E-03     336.105E-03    -167.846E-03     29.6137E-03     348.997E-03     79.2031E+06    -43.6869E+06    -85.6903E+06    -134.308E+06    -86.1825E+06    -133.816E+06    -43.6869E+06     392.145E+03
             286     75.1163E-03     4.23486E-03     74.9968E-03     335.947E-03    -167.091E-03    -168.856E-03    -168.003E-03     335.652E-03    -167.649E-03     23.2898E-03     345.162E-03     86.9851E+06    -62.2019E+06    -93.5226E+06    -160.277E+06    -93.8026E+06    -159.997E+06    -62.2019E+06    -1.20886E+06
             287     75.0516E-03     3.38826E-03     74.9751E-03     333.032E-03    -164.883E-03    -168.149E-03    -165.076E-03     332.893E-03    -167.817E-03     14.6013E-03     339.343E-03     88.2530E+06    -81.9125E+06    -101.101E+06    -177.778E+06    -101.409E+06    -177.471E+06    -81.9125E+06     597.449E+03
             288     75.0207E-03     2.53599E-03     74.9778E-03     333.385E-03    -164.168E-03    -169.217E-03    -164.543E-03     333.325E-03    -168.782E-03     9.84644E-03     337.301E-03     103.506E+06    -97.2746E+06    -108.903E+06    -205.954E+06    -108.092E+06    -205.759E+06    -98.2797E+06     340.845E+03
             289     74.9792E-03     1.68152E-03     74.9603E-03     338.023E-03    -166.554E-03    -171.469E-03    -168.056E-03     337.953E-03    -169.897E-03     4.97951E-03     340.053E-03     110.454E+06    -108.380E+06    -114.971E+06    -221.869E+06    -114.522E+06    -221.312E+06    -109.385E+06    -4.73205E+06
             290     74.9512E-03     836.216E-06     74.9465E-03     340.903E-03    -166.301E-03    -174.603E-03    -168.952E-03     340.755E-03    -171.804E-03    -3.28836E-03     342.073E-03     128.555E+06    -111.954E+06    -122.398E+06    -245.275E+06    -119.471E+06    -244.846E+06    -115.310E+06    -2.83534E+06
             291     76.0384E-03     14.3771E-03     74.6668E-03     339.766E-03    -168.081E-03    -171.685E-03    -163.465E-03     331.785E-03    -168.320E-03     126.285E-03     403.255E-03     123.317E+06     132.207E+06     86.8525E+06    -7.35092E+06    -6.63183E+06     86.1335E+06     132.207E+06     632.835E+03
             292     75.7148E-03     13.5242E-03     74.4971E-03     342.284E-03    -168.530E-03    -173.754E-03    -166.299E-03     334.830E-03    -168.530E-03     121.560E-03     403.143E-03     99.7653E+06     99.1826E+06     55.3182E+06    -14.5174E+06    -13.6915E+06     54.4923E+06     99.1826E+06    -3.54538E+06
             293     75.4294E-03     12.6771E-03     74.3564E-03     342.433E-03    -168.561E-03    -173.872E-03    -168.857E-03     337.418E-03    -168.561E-03     99.9230E-03     393.037E-03     82.5458E+06     69.4208E+06     26.9832E+06    -25.4871E+06    -24.6212E+06     26.1174E+06     69.4208E+06     579.098E+03
             294     75.1567E-03     11.8379E-03     74.2186E-03     343.828E-03    -168.347E-03    -175.482E-03    -171.961E-03     340.308E-03    -168.347E-03     84.8722E-03     387.598E-03     77.5492E+06     43.2224E+06     11.5257E+06    -44.6606E+06     -42.441E+06     9.30610E+06     43.2224E+06    -3.44305E+06
             295     74.9259E-03     11.0015E-03     74.1138E-03     342.267E-03    -168.054E-03    -174.213E-03    -171.395E-03     339.449E-03    -168.054E-03     75.7980E-03     380.244E-03     76.7076E+06     44.4269E+06     19.3912E+06    -41.4710E+06    -39.6841E+06     17.6043E+06     44.4269E+06    -4.37210E+06
             296     74.7128E-03     10.1590E-03     74.0189E-03     338.027E-03    -167.412E-03    -170.615E-03    -167.670E-03     335.591E-03    -167.920E-03     69.7468E-03     369.098E-03     78.9915E+06     53.1434E+06     28.2363E+06    -35.2390E+06    -34.3288E+06     27.3260E+06     53.1434E+06     4.63373E+06
             297     74.5092E-03     9.30778E-03     73.9256E-03     336.442E-03    -167.388E-03    -169.053E-03    -166.448E-03     334.344E-03    -167.896E-03     64.6418E-03     362.995E-03     76.5881E+06     36.9857E+06     20.8409E+06    -46.0682E+06    -45.0647E+06     19.8374E+06     36.9857E+06     4.02607E+06
             298     74.3206E-03     8.45790E-03     73.8377E-03     337.677E-03    -167.846E-03    -169.831E-03    -168.179E-03     336.025E-03    -167.846E-03     57.4926E-03     360.552E-03     71.8259E+06     22.1884E+06     10.9548E+06    -54.4627E+06    -54.2518E+06     10.7438E+06     22.1884E+06    -74.2928E+03
             299     74.1614E-03     7.61536E-03     73.7694E-03     336.737E-03    -167.648E-03    -169.090E-03    -167.813E-03     335.546E-03    -167.732E-03     48.9006E-03     356.352E-03     63.8089E+06     9.73736E+06     -5.5504E+06    -60.2459E+06      -59.84E+06    -5.95625E+06     9.73736E+06    -537.370E+03
             300     74.0161E-03     6.76800E-03     73.7060E-03     334.057E-03    -166.298E-03    -167.759E-03    -165.460E-03     333.219E-03    -167.759E-03     40.6625E-03     350.854E-03     54.1052E+06    -12.4982E+06    -42.6986E+06    -72.5518E+06    -70.9910E+06    -44.2594E+06    -12.4982E+06    -789.086E+03
             301     73.8985E-03     5.91839E-03     73.6611E-03     333.770E-03    -165.732E-03    -168.037E-03    -165.203E-03     333.240E-03    -168.037E-03     32.2233E-03     348.231E-03     64.2778E+06    -27.5075E+06    -74.2802E+06    -100.226E+06    -81.0293E+06    -93.4766E+06    -27.5075E+06    -522.280E+03
             302     73.7969E-03     5.07133E-03     73.6224E-03     335.331E-03    -166.167E-03    -169.165E-03    -166.657E-03     334.946E-03    -168.289E-03     27.5798E-03     347.381E-03     80.2058E+06    -39.3368E+06    -83.9049E+06    -131.441E+06    -84.9714E+06    -130.374E+06    -39.3368E+06     1.77751E+06
             303     73.7140E-03     4.22443E-03     73.5929E-03     335.332E-03    -165.961E-03    -169.371E-03    -166.557E-03     335.052E-03    -168.496E-03     22.3416E-03     344.439E-03     90.2103E+06    -56.6293E+06    -90.7679E+06    -158.516E+06    -91.2313E+06    -158.052E+06    -56.6293E+06     4.31802E+06
             304     73.6659E-03     3.37591E-03     73.5885E-03     335.895E-03    -166.305E-03    -169.590E-03    -166.990E-03     335.756E-03    -168.766E-03     15.0957E-03     342.224E-03     92.9870E+06    -78.7432E+06    -100.825E+06    -180.505E+06    -101.077E+06    -180.253E+06    -78.7432E+06     4.40240E+06
             305     73.6182E-03     2.53065E-03     73.5747E-03     339.132E-03    -167.423E-03    -171.709E-03    -170.517E-03     339.061E-03    -168.544E-03     11.3550E-03     343.117E-03     95.8919E+06    -94.4375E+06    -106.757E+06    -195.746E+06    -105.971E+06    -195.527E+06    -95.4425E+06     1.52519E+06
             306     73.5751E-03     1.69858E-03     73.5554E-03     338.762E-03    -166.988E-03    -171.774E-03    -171.705E-03     338.694E-03    -166.988E-03     5.05165E-03     340.743E-03     111.090E+06    -104.645E+06    -112.146E+06    -219.192E+06    -111.740E+06    -218.593E+06    -105.650E+06    -2.02735E+06
             307     73.5502E-03     859.702E-06     73.5452E-03     331.694E-03    -162.537E-03    -169.157E-03    -169.011E-03     331.549E-03    -162.537E-03    -3.51399E-03     332.756E-03     136.514E+06    -116.457E+06    -122.754E+06    -255.959E+06    -119.866E+06    -255.306E+06    -119.997E+06    -3.74451E+06
             308     74.6781E-03     14.3813E-03     73.2803E-03     342.812E-03    -168.178E-03    -174.634E-03    -167.617E-03     336.034E-03    -168.417E-03     117.501E-03     407.246E-03     126.107E+06     132.950E+06     87.7886E+06    -9.50092E+06    -9.21928E+06     87.5070E+06     132.950E+06     2.04951E+06
             309     74.3410E-03     13.5339E-03     73.0987E-03     344.719E-03    -168.320E-03    -176.399E-03    -170.581E-03     338.901E-03    -168.320E-03     108.601E-03     408.584E-03     105.980E+06     100.595E+06     59.2934E+06    -19.6762E+06    -19.2674E+06     58.8845E+06     100.595E+06     75.2832E+03
             310     74.0467E-03     12.6935E-03     72.9506E-03     341.823E-03    -168.041E-03    -173.782E-03    -169.697E-03     337.825E-03    -168.129E-03     90.3478E-03     393.596E-03     88.3820E+06     75.3095E+06     33.8933E+06    -26.1487E+06    -25.0649E+06     32.8096E+06     75.3095E+06     2.18682E+06
             311     73.7762E-03     11.8467E-03     72.8189E-03     338.036E-03    -166.927E-03    -171.109E-03    -166.429E-03     334.465E-03    -168.036E-03     84.7887E-03     380.888E-03     75.3427E+06     53.7532E+06     23.6442E+06    -31.5262E+06    -29.0110E+06     21.1290E+06     53.7532E+06    -319.553E+03
             312     73.5361E-03     10.9945E-03     72.7096E-03     338.561E-03    -167.021E-03    -171.539E-03    -167.219E-03     335.262E-03    -168.043E-03     81.5747E-03     376.366E-03     69.2006E+06     33.5194E+06     14.3773E+06    -43.1037E+06    -40.9150E+06     12.1886E+06     33.5194E+06    -8.04665E+06
             313     73.3224E-03     10.1489E-03     72.6166E-03     340.626E-03    -167.975E-03    -172.651E-03    -169.878E-03     337.853E-03    -167.975E-03     75.0293E-03     372.133E-03     73.0106E+06     29.5496E+06     12.0330E+06    -50.4543E+06    -49.3238E+06     10.9024E+06     29.5496E+06    -5.88537E+06
             314     73.1262E-03     9.30666E-03     72.5315E-03     339.710E-03    -167.793E-03    -171.917E-03    -169.622E-03     337.415E-03    -167.793E-03     68.2702E-03     366.171E-03     76.7326E+06     32.3769E+06     17.0842E+06    -50.6837E+06    -49.7989E+06     16.1994E+06     32.3769E+06    -3.01029E+06
             315     72.9303E-03     8.46249E-03     72.4376E-03     337.712E-03    -167.598E-03    -170.114E-03    -168.393E-03     335.991E-03    -167.598E-03     58.5484E-03     360.473E-03     72.4858E+06     23.5437E+06     11.1903E+06    -54.3091E+06    -53.9870E+06     10.8683E+06     23.5437E+06     830.295E+03
             316     72.7675E-03     7.61618E-03     72.3678E-03     335.705E-03    -167.346E-03    -168.359E-03    -167.117E-03     334.609E-03    -167.492E-03     46.7447E-03     355.559E-03     68.6893E+06     10.6091E+06    -7.43252E+06    -64.9902E+06    -64.0721E+06    -8.35065E+06     10.6091E+06     5.40242E+06
             317     72.6302E-03     6.76992E-03     72.3140E-03     333.646E-03    -166.128E-03    -167.519E-03    -165.355E-03     332.874E-03    -167.519E-03     39.0985E-03     350.932E-03     56.0695E+06    -9.47514E+06    -35.7849E+06    -73.1948E+06    -71.4793E+06    -37.5003E+06    -9.47514E+06     7.30673E+06
             318     72.5076E-03     5.92258E-03     72.2653E-03     332.972E-03    -165.228E-03    -167.745E-03    -164.667E-03     332.412E-03    -167.745E-03     33.1893E-03     347.913E-03     56.1258E+06    -36.9952E+06    -69.8891E+06    -101.501E+06    -80.9568E+06    -90.4331E+06    -36.9952E+06     2.47138E+06
             319     72.4045E-03     5.07480E-03     72.2265E-03     333.231E-03    -165.045E-03    -168.186E-03    -164.695E-03     332.880E-03    -168.186E-03     25.8708E-03     345.118E-03     74.5200E+06      -52.02E+06    -92.2058E+06    -137.896E+06    -93.3029E+06    -136.799E+06      -52.02E+06    -288.167E+03
             320     72.3242E-03     4.22364E-03     72.2007E-03     334.822E-03    -165.980E-03    -168.843E-03    -166.026E-03     334.682E-03    -168.656E-03     15.9007E-03     343.475E-03     88.4363E+06    -59.8182E+06    -98.9454E+06    -160.825E+06    -99.5972E+06    -160.173E+06    -59.8182E+06     1.98100E+06
             321     72.2628E-03     3.37813E-03     72.1838E-03     338.489E-03    -167.859E-03    -170.630E-03    -169.776E-03     338.443E-03    -168.667E-03     9.57957E-03     344.314E-03     95.8064E+06    -68.7701E+06    -98.6988E+06    -175.601E+06    -98.8578E+06    -175.442E+06    -68.7701E+06     3.11041E+06
             322     72.2105E-03     2.54000E-03     72.1658E-03     338.860E-03    -167.275E-03    -171.585E-03    -170.910E-03     338.813E-03    -167.903E-03     9.63074E-03     342.532E-03     100.409E+06    -85.8416E+06    -104.972E+06    -194.073E+06    -105.501E+06    -193.545E+06    -85.8416E+06     3.22065E+06
             323     72.1697E-03     1.69262E-03     72.1498E-03     335.111E-03    -164.772E-03    -170.339E-03    -167.937E-03     335.062E-03    -167.124E-03     8.97537E-03     337.225E-03     111.165E+06    -99.7505E+06    -112.864E+06    -216.794E+06    -113.494E+06    -216.165E+06    -99.7505E+06     4.77405E+06
             324     72.1686E-03     842.537E-06     72.1637E-03     333.867E-03    -163.343E-03    -170.524E-03    -167.122E-03     333.825E-03    -166.703E-03     5.87661E-03     335.173E-03     139.157E+06    -111.882E+06    -119.049E+06    -254.309E+06    -118.335E+06    -253.886E+06    -113.018E+06     2.32373E+06
             325     73.3046E-03     14.3856E-03     71.8792E-03     347.350E-03    -168.116E-03    -179.234E-03    -172.645E-03     340.762E-03    -168.116E-03     116.598E-03     411.941E-03     127.583E+06     133.472E+06     85.8133E+06    -11.0328E+06    -10.7775E+06     85.5580E+06     133.472E+06    -117.329E+03
             326     72.9626E-03     13.5466E-03     71.6940E-03     345.791E-03    -167.826E-03    -177.965E-03    -171.419E-03     339.245E-03    -167.826E-03     115.742E-03     408.790E-03     105.503E+06     101.937E+06     62.0909E+06    -17.5748E+06    -17.3205E+06     61.8366E+06     101.937E+06     1.74549E+06
             327     72.6691E-03     12.7010E-03     71.5505E-03     338.597E-03    -167.218E-03    -171.379E-03    -166.195E-03     333.919E-03    -167.724E-03     96.7846E-03     390.035E-03     87.2908E+06     76.1624E+06     36.6921E+06    -23.7272E+06    -23.2930E+06     36.2579E+06     76.1624E+06     2.54073E+06
             328     72.4118E-03     11.8472E-03     71.4361E-03     334.566E-03    -166.381E-03    -168.185E-03    -162.598E-03     330.506E-03    -167.908E-03     89.8124E-03     377.094E-03     74.5346E+06     56.4784E+06     23.0738E+06    -28.7731E+06    -28.2479E+06     22.5487E+06     56.4784E+06     3.51938E+06
             329     72.1589E-03     10.9930E-03     71.3166E-03     337.024E-03    -167.118E-03    -169.905E-03    -165.415E-03     333.555E-03    -168.140E-03     83.0297E-03     372.871E-03     67.1984E+06     38.6534E+06     17.9397E+06    -36.3090E+06    -35.5664E+06     17.1971E+06     38.6534E+06     81.4593E+03
             330     71.9290E-03     10.1467E-03     71.2098E-03     340.863E-03    -168.093E-03    -172.770E-03    -170.277E-03     338.370E-03    -168.093E-03     71.2252E-03     371.891E-03     67.4654E+06     23.9723E+06     12.6398E+06    -48.3309E+06    -47.1503E+06     11.4591E+06     23.9723E+06    -4.60070E+06
             331     71.7294E-03     9.30691E-03     71.1231E-03     341.725E-03    -167.750E-03    -173.975E-03    -171.885E-03     339.635E-03    -167.750E-03     65.5036E-03     368.482E-03     68.5981E+06     14.1592E+06     7.27296E+06    -57.5662E+06    -56.7144E+06     6.83896E+06     13.7414E+06    -5.76376E+06
             332     71.5428E-03     8.46474E-03     71.0403E-03     338.462E-03    -167.417E-03    -171.045E-03    -169.375E-03     336.791E-03    -167.417E-03     57.9875E-03     361.401E-03     72.5602E+06     9.54567E+06     2.56715E+06    -66.1689E+06    -65.1044E+06     1.92051E+06     9.12785E+06    -5.49646E+06
             333     71.3785E-03     7.61811E-03     70.9708E-03     334.765E-03    -166.843E-03    -167.921E-03    -166.324E-03     333.653E-03    -167.329E-03     46.9372E-03     355.141E-03     71.9935E+06     8.66895E+06    -7.32071E+06    -69.4078E+06    -67.5128E+06    -9.21570E+06     8.66895E+06    -1.70693E+06
             334     71.2403E-03     6.77103E-03     70.9178E-03     333.447E-03    -166.004E-03    -167.443E-03    -165.212E-03     332.655E-03    -167.443E-03     39.6703E-03     351.107E-03     64.9519E+06    -355.218E+03    -35.0432E+06    -73.6913E+06    -67.2776E+06    -41.4568E+06    -355.218E+03     4.93571E+06
             335     71.1195E-03     5.92212E-03     70.8725E-03     333.460E-03    -165.823E-03    -167.637E-03    -165.207E-03     332.844E-03    -167.637E-03     34.9224E-03     348.521E-03     63.6211E+06    -20.7244E+06    -63.1714E+06    -92.9365E+06    -73.1611E+06    -82.9467E+06    -20.7244E+06     8.54389E+06
             336     71.0125E-03     5.07297E-03     70.8311E-03     334.308E-03    -166.293E-03    -168.015E-03    -166.126E-03     333.955E-03    -167.828E-03     25.6053E-03     346.076E-03     73.6109E+06    -44.5657E+06    -82.0199E+06    -128.397E+06    -84.8762E+06    -125.541E+06    -44.5657E+06     4.44303E+06
             337     70.9306E-03     4.22911E-03     70.8044E-03     335.218E-03    -166.900E-03    -168.318E-03    -167.115E-03     335.060E-03    -167.944E-03     17.3651E-03     343.818E-03     88.2688E+06    -63.7418E+06    -96.4254E+06    -163.313E+06    -97.0978E+06    -162.641E+06    -63.7418E+06    -2.08105E+06
             338     70.8585E-03     3.38574E-03     70.7776E-03     335.664E-03    -166.533E-03    -169.131E-03    -167.540E-03     335.532E-03    -167.992E-03     15.4100E-03     341.764E-03     97.5211E+06    -72.5425E+06    -102.865E+06    -181.503E+06    -103.184E+06    -181.184E+06    -72.5425E+06    -2.16163E+06
             339     70.8106E-03     2.53895E-03     70.7651E-03     334.821E-03    -165.627E-03    -169.194E-03    -166.483E-03     334.725E-03    -168.242E-03     13.1131E-03     338.528E-03     103.623E+06    -81.9231E+06    -105.034E+06    -194.830E+06    -105.502E+06    -194.362E+06    -81.9231E+06     4.05383E+06
             340     70.7850E-03     1.68986E-03     70.7648E-03     335.097E-03    -165.744E-03    -169.352E-03    -165.702E-03     335.055E-03    -169.352E-03     8.15861E-03     337.146E-03     108.382E+06    -95.4464E+06    -108.453E+06    -209.552E+06    -108.431E+06    -208.988E+06    -96.0321E+06     6.87620E+06
             341     70.7640E-03     840.050E-06     70.7590E-03     340.622E-03    -168.098E-03    -172.524E-03    -168.792E-03     340.609E-03    -171.817E-03     2.92168E-03     341.828E-03     137.373E+06    -103.500E+06    -112.251E+06    -244.887E+06    -110.941E+06    -244.659E+06    -105.038E+06     3.99769E+06
             342     71.9284E-03     14.3932E-03     70.4736E-03     345.675E-03    -167.913E-03    -177.762E-03    -170.720E-03     338.633E-03    -167.913E-03     119.830E-03     409.216E-03     125.950E+06     132.554E+06     80.8203E+06    -10.9579E+06    -10.8714E+06     80.7338E+06     132.554E+06    -1.44396E+06
             343     71.5894E-03     13.5434E-03     70.2966E-03     341.819E-03    -167.297E-03    -174.522E-03    -166.652E-03     334.493E-03    -167.841E-03     121.677E-03     403.032E-03     102.117E+06     100.608E+06     57.8625E+06    -15.8123E+06    -15.6234E+06     57.6736E+06     100.608E+06     59.1194E+03
             344     71.2943E-03     12.6922E-03     70.1554E-03     338.355E-03    -167.002E-03    -171.353E-03    -165.038E-03     333.002E-03    -167.964E-03     103.511E-03     388.612E-03     83.9348E+06     75.3921E+06     35.0157E+06    -20.7283E+06    -20.6143E+06     34.9017E+06     75.3921E+06     1.55556E+06
             345     71.0443E-03     11.8426E-03     70.0503E-03     340.606E-03    -167.613E-03    -172.994E-03    -168.367E-03     336.398E-03    -168.031E-03     92.2271E-03     383.435E-03      75.952E+06     58.3358E+06     20.7116E+06    -28.7979E+06    -28.5242E+06     20.4379E+06     58.3358E+06     2.34553E+06
             346     70.7751E-03     10.9974E-03     69.9155E-03     339.705E-03    -167.945E-03    -171.761E-03    -168.535E-03     336.479E-03    -167.945E-03     80.4900E-03     375.373E-03     71.0186E+06     46.2110E+06     22.9967E+06    -33.1503E+06    -32.7368E+06     22.5832E+06     46.2110E+06     4.71261E+06
             347     70.5458E-03     10.1526E-03     69.8115E-03     338.312E-03    -167.838E-03    -170.474E-03    -168.016E-03     335.854E-03    -167.838E-03     70.4936E-03     369.188E-03     67.5106E+06     31.9055E+06     20.5069E+06    -40.5004E+06    -40.2058E+06     20.2124E+06     31.9055E+06     3.75346E+06
             348     70.3335E-03     9.30549E-03     69.7152E-03     339.219E-03    -167.670E-03    -171.549E-03    -169.519E-03     337.189E-03    -167.670E-03     64.1276E-03     366.828E-03     67.4257E+06     19.9046E+06     13.5353E+06    -50.4333E+06    -50.2007E+06     13.7205E+06     19.4868E+06     723.833E+03
             349     70.1510E-03     8.46325E-03     69.6386E-03     337.187E-03    -167.238E-03    -169.949E-03    -168.149E-03     335.607E-03    -167.458E-03     56.3859E-03     360.845E-03     64.7589E+06     7.64850E+06     2.70852E+06    -59.3970E+06    -58.4994E+06     3.91072E+06     5.54874E+06    -3.92144E+06
             350     69.9921E-03     7.61835E-03     69.5762E-03     334.634E-03    -166.745E-03    -167.888E-03    -165.903E-03     333.367E-03    -167.464E-03     50.2039E-03     355.202E-03     63.7958E+06     1.68476E+06    -15.5235E+06    -67.8331E+06    -64.7616E+06    -16.9130E+06     2.81937E+03    -8.89274E+06
             351     69.8520E-03     6.76923E-03     69.5232E-03     334.800E-03    -166.694E-03    -168.105E-03    -166.234E-03     333.857E-03    -167.623E-03     43.0729E-03     352.628E-03     69.2414E+06    -2.17079E+06    -47.5810E+06    -79.8688E+06    -72.7638E+06     -54.686E+06    -2.17079E+06    -3.35362E+06
             352     69.7291E-03     5.92268E-03     69.4771E-03     335.497E-03    -167.066E-03    -168.431E-03    -167.203E-03     334.852E-03    -167.649E-03     35.8854E-03     350.143E-03     71.5076E+06    -14.7905E+06    -72.1181E+06    -94.8053E+06    -79.6101E+06    -87.3133E+06    -14.7905E+06     6.43952E+06
             353     69.6176E-03     5.07893E-03     69.4321E-03     335.276E-03    -167.233E-03    -168.043E-03    -167.321E-03     334.878E-03    -167.557E-03     27.3833E-03     346.718E-03     72.3838E+06    -32.7648E+06    -77.3784E+06    -114.656E+06    -79.9109E+06    -112.123E+06    -32.7648E+06     5.98922E+06
             354     69.5347E-03     4.23234E-03     69.4057E-03     334.509E-03    -166.804E-03    -167.705E-03    -166.788E-03     334.306E-03    -167.518E-03     19.8199E-03     343.132E-03     87.5406E+06    -56.2648E+06    -86.4682E+06    -153.668E+06    -87.2201E+06    -152.916E+06    -56.2648E+06     2.36615E+06
             355     69.4680E-03     3.38130E-03     69.3857E-03     333.384E-03    -165.641E-03    -167.744E-03    -165.503E-03     333.247E-03    -167.744E-03     14.6048E-03     339.556E-03     97.5372E+06    -80.3464E+06    -99.9638E+06    -185.976E+06    -100.668E+06    -185.272E+06    -80.3464E+06    -2.04587E+06
             356     69.4164E-03     2.52992E-03     69.3703E-03     334.301E-03    -165.876E-03    -168.425E-03    -165.890E-03     334.224E-03    -168.334E-03     7.37449E-03     338.014E-03     99.3148E+06    -91.8443E+06    -105.842E+06    -197.165E+06    -106.348E+06    -196.658E+06    -91.8443E+06    -4.12189E+06
             357     69.3834E-03     1.68439E-03     69.3629E-03     337.256E-03    -167.484E-03    -169.771E-03    -168.476E-03     337.217E-03    -168.741E-03     2.45926E-03     339.200E-03     105.043E+06    -97.5048E+06    -107.980E+06    -207.196E+06    -107.832E+06    -206.758E+06    -98.0906E+06    -1.15351E+06
             358     69.3569E-03     845.148E-06     69.3518E-03     337.675E-03    -167.652E-03    -170.023E-03    -169.281E-03     337.659E-03    -168.377E-03     2.05996E-03     338.657E-03     130.913E+06    -105.115E+06    -113.726E+06    -240.037E+06    -111.530E+06    -239.954E+06    -107.393E+06    -317.667E+03
             359     70.5616E-03     14.3884E-03     69.0790E-03     342.803E-03    -168.061E-03    -174.742E-03    -167.099E-03     335.160E-03    -168.061E-03     124.439E-03     406.458E-03     124.576E+06     134.707E+06     82.6109E+06    -7.40427E+06    -7.26578E+06     82.4724E+06     134.707E+06     492.588E+03
             360     70.2200E-03     13.5388E-03     68.9025E-03     341.058E-03    -167.595E-03    -173.463E-03    -165.758E-03     333.897E-03    -168.139E-03     119.694E-03     402.250E-03     102.048E+06     98.1263E+06     53.2636E+06    -18.6193E+06    -18.4375E+06     53.0818E+06     98.1263E+06     662.197E+03
             361     69.9344E-03     12.6814E-03     68.7750E-03     342.172E-03    -167.611E-03    -174.560E-03    -169.116E-03     337.271E-03    -168.155E-03     99.5469E-03     391.959E-03     83.5497E+06     74.1831E+06     33.9904E+06    -21.6359E+06    -21.5792E+06     33.9337E+06     74.1831E+06     764.397E+03
             362     69.6377E-03     11.8420E-03     68.6234E-03     343.906E-03    -167.928E-03    -175.977E-03    -172.342E-03     340.270E-03    -167.928E-03     86.1282E-03     387.347E-03     75.2869E+06     59.1874E+06     21.8517E+06    -27.2788E+06    -27.0409E+06     21.6138E+06     59.1874E+06     285.004E+03
             363     69.4032E-03     11.0075E-03     68.5247E-03     339.985E-03    -167.648E-03    -172.337E-03    -169.305E-03     336.953E-03    -167.648E-03     78.5145E-03     377.497E-03     73.8720E+06     46.7403E+06     18.1524E+06    -36.7788E+06    -36.4574E+06     17.8310E+06     46.7403E+06     312.421E+03
             364     69.1641E-03     10.1557E-03     68.4144E-03     337.199E-03    -167.555E-03    -169.644E-03    -166.869E-03     334.424E-03    -167.555E-03     74.6321E-03     367.990E-03     72.4375E+06     39.7774E+06     22.5879E+06    -39.4345E+06    -39.1661E+06     22.3196E+06     39.7774E+06     2.65892E+06
             365     68.9477E-03     9.31030E-03     68.3162E-03     335.711E-03    -166.783E-03    -168.928E-03    -166.022E-03     333.601E-03    -167.580E-03     64.7375E-03     363.450E-03     69.5067E+06     28.9282E+06     20.6993E+06    -44.2087E+06    -44.0338E+06     20.5244E+06     28.9282E+06     2.48933E+06
             366     68.7626E-03     8.46102E-03     68.2400E-03     334.193E-03    -166.068E-03    -168.125E-03    -164.976E-03     332.665E-03    -167.689E-03     55.1247E-03     358.805E-03     65.5261E+06     16.8629E+06     10.2628E+06    -51.6443E+06    -51.3299E+06     11.6304E+06     15.1809E+06     3.23610E+06
             367     68.6066E-03     7.61024E-03     68.1832E-03     335.003E-03    -166.948E-03    -168.055E-03    -165.876E-03     333.729E-03    -167.853E-03     50.4235E-03     355.858E-03     61.4024E+06     287.444E+03    -18.0188E+06    -67.3217E+06    -64.9510E+06    -18.7076E+06    -1.39450E+06     192.603E+03
             368     68.4572E-03     6.76527E-03     68.1221E-03     336.867E-03    -167.840E-03    -169.027E-03    -167.947E-03     335.867E-03    -167.920E-03     44.6269E-03     355.119E-03     65.3188E+06    -12.4333E+06    -55.0035E+06    -86.1877E+06    -78.6158E+06    -62.5754E+06    -12.4333E+06    -4.93018E+06
             369     68.3336E-03     5.92289E-03     68.0764E-03     337.021E-03    -167.794E-03    -169.227E-03    -168.532E-03     336.326E-03    -167.794E-03     37.3359E-03     351.927E-03     69.4412E+06    -19.9344E+06    -77.0275E+06    -96.9950E+06    -82.9801E+06    -91.0424E+06    -19.9344E+06    -1.52189E+06
             370     68.2243E-03     5.07599E-03     68.0352E-03     335.702E-03    -167.405E-03    -168.297E-03    -167.684E-03     335.259E-03    -167.575E-03     29.4370E-03     347.174E-03     64.6703E+06    -42.7447E+06    -90.3637E+06    -115.451E+06    -90.5341E+06    -115.280E+06    -42.7447E+06     1.97194E+06
             371     68.1409E-03     4.22924E-03     68.0095E-03     335.721E-03    -167.028E-03    -168.692E-03    -168.136E-03     335.508E-03    -167.372E-03     20.1757E-03     344.288E-03     77.6993E+06    -60.8143E+06    -95.5966E+06    -148.581E+06    -96.0734E+06    -148.104E+06    -60.8143E+06     2.79420E+06
             372     68.0733E-03     3.38717E-03     67.9890E-03     335.694E-03    -166.337E-03    -169.356E-03    -168.644E-03     335.626E-03    -166.981E-03     10.0235E-03     341.514E-03     92.6719E+06    -75.2268E+06    -97.4520E+06    -176.194E+06    -98.0356E+06    -175.611E+06    -75.2268E+06     1.24159E+06
             373     68.0241E-03     2.54390E-03     67.9765E-03     334.113E-03    -165.990E-03    -168.123E-03    -167.627E-03     334.088E-03    -166.461E-03     3.53075E-03     337.646E-03     100.284E+06    -95.6868E+06    -105.427E+06    -200.293E+06    -105.959E+06    -199.761E+06    -95.6868E+06    -3.60528E+06
             374     67.9799E-03     1.69887E-03     67.9586E-03     332.931E-03    -165.605E-03    -167.326E-03    -166.923E-03     332.894E-03    -165.971E-03     2.39697E-03     334.808E-03     106.983E+06    -105.189E+06    -113.371E+06    -215.976E+06    -113.794E+06    -215.553E+06    -105.189E+06    -5.48868E+06
             375     67.9614E-03     851.362E-06     67.9560E-03     331.549E-03    -163.769E-03    -167.780E-03    -164.684E-03     331.524E-03    -166.840E-03     2.98894E-03     332.416E-03     129.114E+06    -109.856E+06    -119.312E+06    -243.381E+06    -117.747E+06    -243.254E+06    -111.549E+06    -1.68746E+06
             376     69.1863E-03     14.3817E-03     67.6751E-03     342.755E-03    -168.305E-03    -174.449E-03    -167.301E-03     335.607E-03    -168.305E-03     120.542E-03     408.015E-03     124.923E+06     138.255E+06     86.3576E+06    -4.23022E+06    -4.11970E+06     86.2471E+06     138.255E+06     2.13027E+06
             377     68.8607E-03     13.5301E-03     67.5184E-03     345.338E-03    -168.216E-03    -177.122E-03    -170.665E-03     338.880E-03    -168.216E-03     114.877E-03     408.511E-03     101.647E+06     105.620E+06     61.2645E+06    -10.6200E+06    -10.4950E+06     61.1396E+06     105.620E+06     1.38714E+06
             378     68.5427E-03     12.6979E-03     67.3562E-03     345.214E-03    -167.914E-03    -177.299E-03    -172.492E-03     340.406E-03    -167.914E-03     99.3461E-03     395.919E-03     82.7808E+06     69.2756E+06     31.2954E+06    -25.6460E+06    -25.1687E+06     30.8181E+06     69.2756E+06     2.05738E+06
             379     68.2682E-03     11.8561E-03     67.2308E-03     341.050E-03    -167.628E-03    -173.421E-03    -169.719E-03     337.348E-03    -167.628E-03     86.5753E-03     383.616E-03     73.0021E+06     48.1400E+06     16.4085E+06    -35.2389E+06    -34.6259E+06     15.7956E+06     48.1400E+06     950.019E+03
             380     68.0161E-03     10.9985E-03     67.1210E-03     338.849E-03    -167.496E-03    -171.353E-03    -168.219E-03     335.715E-03    -167.496E-03     79.5483E-03     375.941E-03     71.8793E+06     43.7514E+06     17.4498E+06    -37.3864E+06    -37.1672E+06     17.2306E+06     43.7514E+06    -3.17343E+06
             381     67.7852E-03     10.1586E-03     67.0197E-03     337.216E-03    -167.227E-03    -169.989E-03    -166.945E-03     334.400E-03    -167.455E-03     75.2322E-03     368.364E-03     73.7856E+06     38.7394E+06     17.3629E+06    -43.2142E+06    -43.0893E+06     17.2379E+06     38.7394E+06    -67.6693E+03
             382     67.5640E-03     9.30865E-03     66.9197E-03     333.804E-03    -165.897E-03    -167.907E-03    -164.091E-03     331.654E-03    -167.562E-03     65.0450E-03     361.193E-03     71.9238E+06     27.7603E+06     14.6877E+06    -49.5152E+06    -49.4557E+06     14.6281E+06     27.7603E+06     1.22056E+06
             383     67.3852E-03     8.45784E-03     66.8523E-03     333.460E-03    -165.635E-03    -167.825E-03    -164.158E-03     331.982E-03    -167.825E-03     54.0918E-03     357.693E-03     72.9668E+06     19.4976E+06     11.1834E+06    -57.1523E+06    -56.8758E+06     10.9068E+06     19.4976E+06     1.80719E+06
             384     67.2133E-03     7.61159E-03     66.7809E-03     335.335E-03    -167.114E-03    -168.221E-03    -166.152E-03     334.171E-03    -168.019E-03     48.2426E-03     356.107E-03     66.5956E+06     8.73115E+06    -5.34660E+06    -63.4615E+06    -62.6417E+06    -6.16647E+06     8.73115E+06     5.30879E+06
             385     67.0670E-03     6.76569E-03     66.7249E-03     336.744E-03    -167.881E-03    -168.862E-03    -167.787E-03     335.822E-03    -168.035E-03     43.0147E-03     354.716E-03     58.9538E+06    -14.3099E+06    -47.6569E+06    -80.6491E+06    -71.2571E+06    -57.0490E+06    -14.3099E+06     1.15566E+06
             386     66.9340E-03     5.91886E-03     66.6718E-03     336.922E-03    -167.954E-03    -168.968E-03    -168.345E-03     336.299E-03    -167.954E-03     35.0597E-03     351.680E-03     66.8013E+06    -28.3409E+06    -79.0927E+06    -103.267E+06    -82.1004E+06    -100.260E+06    -28.3409E+06    -5.82068E+06
             387     66.8335E-03     5.07556E-03     66.6405E-03     336.686E-03    -167.745E-03    -168.941E-03    -168.553E-03     336.298E-03    -167.745E-03     27.8157E-03     348.356E-03     68.7462E+06    -40.4677E+06    -87.7398E+06    -118.339E+06    -89.6364E+06    -116.442E+06    -40.4677E+06    -1.01264E+06
             388     66.7410E-03     4.23173E-03     66.6067E-03     336.634E-03    -167.324E-03    -169.310E-03    -169.018E-03     336.393E-03    -167.375E-03     21.5628E-03     345.281E-03     74.2058E+06    -60.8028E+06    -96.2790E+06    -145.047E+06    -96.8979E+06    -144.428E+06    -60.8028E+06     2.18903E+06
             389     66.6729E-03     3.38889E-03     66.5867E-03     335.717E-03    -166.473E-03    -169.244E-03    -168.698E-03     335.567E-03    -166.869E-03     16.3434E-03     341.738E-03     86.3349E+06    -78.8706E+06    -105.025E+06    -174.866E+06    -105.231E+06    -174.660E+06    -78.8706E+06     1.03580E+06
             390     66.6287E-03     2.54582E-03     66.5801E-03     333.983E-03    -166.014E-03    -167.970E-03    -167.485E-03     333.843E-03    -166.358E-03     15.4198E-03     337.760E-03     97.3324E+06    -91.9106E+06    -109.136E+06    -196.447E+06    -109.284E+06    -196.299E+06    -91.9106E+06     2.01076E+06
             391     66.5956E-03     1.69606E-03     66.5740E-03     332.150E-03    -165.616E-03    -166.534E-03    -165.886E-03     332.055E-03    -166.170E-03     13.1071E-03     334.100E-03     107.448E+06    -105.930E+06    -114.394E+06    -217.193E+06    -114.550E+06    -217.037E+06    -105.930E+06    -326.963E+03
             392     66.5711E-03     844.174E-06     66.5658E-03     332.582E-03    -164.423E-03    -168.159E-03    -164.389E-03     332.548E-03    -168.159E-03     7.04124E-03     333.528E-03     129.721E+06    -117.415E+06    -124.871E+06    -250.682E+06    -122.358E+06    -250.486E+06    -120.125E+06    -1.70565E+06
             393     67.8267E-03     14.3825E-03     66.2843E-03     344.548E-03    -168.208E-03    -176.339E-03    -169.889E-03     338.097E-03    -168.208E-03     114.960E-03     409.809E-03     125.926E+06     133.306E+06     84.2546E+06    -9.67747E+06    -9.62088E+06     84.1980E+06     133.306E+06    -313.301E+03
             394     67.4812E-03     13.5440E-03     66.1080E-03     346.365E-03    -167.989E-03    -178.376E-03    -171.798E-03     339.787E-03    -167.989E-03     116.605E-03     408.629E-03     102.766E+06     98.8961E+06     55.7749E+06    -18.2466E+06    -18.1932E+06     55.7214E+06     98.8961E+06     869.177E+03
             395     67.1632E-03     12.6945E-03     65.9526E-03     343.775E-03    -167.725E-03    -176.050E-03    -170.978E-03     338.703E-03    -167.725E-03     101.335E-03     394.688E-03     83.8177E+06     70.7885E+06     30.3040E+06    -25.5465E+06    -25.0113E+06     29.7688E+06     70.7885E+06     1.75410E+06
             396     66.8923E-03     11.8438E-03     65.8354E-03     339.708E-03    -167.546E-03    -172.162E-03    -168.478E-03     336.024E-03    -167.546E-03     86.1714E-03     382.261E-03     73.6448E+06     58.0843E+06     26.0286E+06    -25.9368E+06    -25.2196E+06     25.3113E+06     58.0843E+06     2.52182E+06
             397     66.6370E-03     11.0073E-03     65.7216E-03     337.858E-03    -167.447E-03    -170.410E-03    -167.260E-03     334.712E-03    -167.452E-03     79.5730E-03     373.826E-03     68.7085E+06     42.8266E+06     22.5349E+06    -33.6293E+06    -33.0510E+06     21.9565E+06     42.8266E+06     2.40211E+06
             398     66.4013E-03     10.1573E-03     65.6198E-03     335.996E-03    -167.261E-03    -168.735E-03    -165.730E-03     333.224E-03    -167.494E-03     74.5097E-03     366.915E-03     71.6041E+06     31.6348E+06     13.8627E+06    -47.1416E+06    -46.6453E+06     13.3664E+06     31.6348E+06     727.915E+03
             399     66.1916E-03     9.30854E-03     65.5338E-03     334.998E-03    -166.783E-03    -168.215E-03    -165.140E-03     332.792E-03    -167.651E-03     66.0731E-03     361.680E-03     75.6789E+06     28.5122E+06     11.8281E+06    -54.0406E+06    -53.8775E+06     11.6650E+06     28.5122E+06    -33.9037E+03
             400     65.9962E-03     8.46088E-03     65.4516E-03     335.145E-03    -166.968E-03    -168.177E-03    -165.864E-03     333.639E-03    -167.775E-03     54.7024E-03     357.728E-03     73.4137E+06     21.0113E+06     12.0703E+06    -56.3442E+06    -56.2880E+06     12.0141E+06     21.0113E+06     773.981E+03
             401     65.8293E-03     7.61313E-03     65.3876E-03     335.368E-03    -167.520E-03    -167.848E-03    -166.364E-03     334.212E-03    -167.848E-03     48.1294E-03     355.281E-03     65.8174E+06     5.51025E+06    -7.27875E+06    -65.1816E+06    -64.7285E+06    -7.73181E+06     5.51025E+06     2.97409E+06
             402     65.6722E-03     6.76553E-03     65.3228E-03     335.637E-03    -167.535E-03    -168.101E-03    -166.840E-03     334.739E-03    -167.899E-03     42.2926E-03     352.944E-03     56.2183E+06    -12.6760E+06    -41.8720E+06    -76.3054E+06    -72.2611E+06    -45.9163E+06    -12.6760E+06     2.25102E+06
             403     65.5429E-03     5.92167E-03     65.2749E-03     335.989E-03    -167.710E-03    -168.279E-03    -167.500E-03     335.411E-03    -167.911E-03     33.7700E-03     350.432E-03     64.4796E+06    -30.8167E+06    -72.1918E+06    -104.766E+06    -81.0617E+06    -95.8962E+06    -30.8167E+06    -3.11521E+06
             404     65.4351E-03     5.07481E-03     65.2380E-03     336.121E-03    -167.491E-03    -168.630E-03    -167.865E-03     335.716E-03    -167.851E-03     28.5352E-03     348.129E-03     76.3855E+06    -44.6936E+06    -90.0269E+06    -132.653E+06    -92.5599E+06    -130.120E+06    -44.6936E+06    -3.48033E+06
             405     65.3435E-03     4.23088E-03     65.2064E-03     335.193E-03    -166.780E-03    -168.413E-03    -167.119E-03     334.918E-03    -167.799E-03     22.9993E-03     344.244E-03     80.4306E+06    -56.3773E+06    -94.4726E+06    -147.760E+06    -96.0641E+06    -146.168E+06    -56.3773E+06     2.43925E+06
             406     65.2817E-03     3.38099E-03     65.1941E-03     334.542E-03    -166.624E-03    -167.918E-03    -166.470E-03     334.387E-03    -167.918E-03     16.3825E-03     340.874E-03     87.5782E+06    -73.3038E+06    -97.7191E+06    -169.860E+06    -98.2789E+06    -169.300E+06    -73.3038E+06     3.87179E+06
             407     65.2309E-03     2.52955E-03     65.1818E-03     335.796E-03    -167.429E-03    -168.366E-03    -167.607E-03     335.672E-03    -168.064E-03     11.8330E-03     339.730E-03     96.6615E+06    -91.8482E+06    -109.187E+06    -195.901E+06    -109.312E+06    -195.776E+06    -91.8482E+06     372.715E+03
             408     65.1984E-03     1.68767E-03     65.1766E-03     336.545E-03    -167.696E-03    -168.849E-03    -168.595E-03     336.478E-03    -167.883E-03     7.13330E-03     338.507E-03     105.063E+06    -105.490E+06    -118.624E+06    -216.339E+06    -118.755E+06    -216.208E+06    -105.490E+06     166.450E+03
             409     65.1753E-03     846.611E-06     65.1698E-03     335.447E-03    -166.649E-03    -168.798E-03    -167.748E-03     335.429E-03    -167.681E-03     3.99088E-03     336.393E-03     127.961E+06    -117.475E+06    -125.038E+06    -248.903E+06    -122.202E+06    -248.745E+06    -120.468E+06     280.138E+03
             410     66.4617E-03     14.3925E-03     64.8846E-03     345.412E-03    -168.031E-03    -177.380E-03    -170.411E-03     338.443E-03    -168.031E-03     119.514E-03     410.156E-03     123.774E+06     129.921E+06     83.1465E+06    -10.3811E+06    -10.3037E+06     83.0692E+06     129.921E+06    -411.251E+03
             411     66.1105E-03     13.5393E-03     64.7093E-03     346.184E-03    -167.834E-03    -178.350E-03    -171.216E-03     339.050E-03    -167.834E-03     121.300E-03     406.859E-03     102.691E+06     95.9185E+06     54.7403E+06    -20.8771E+06    -20.7262E+06     54.5894E+06     95.9185E+06     1.42922E+06
             412     65.7898E-03     12.6966E-03     64.5531E-03     342.090E-03    -167.659E-03    -174.431E-03    -169.519E-03     337.178E-03    -167.659E-03     99.1770E-03     393.101E-03     87.5145E+06     72.5199E+06     31.3664E+06    -27.9287E+06    -27.6852E+06     31.1229E+06     72.5199E+06     355.111E+03
             413     65.5176E-03     11.8571E-03     64.4357E-03     338.305E-03    -167.582E-03    -170.724E-03    -166.982E-03     334.564E-03    -167.582E-03     86.5610E-03     381.814E-03     78.1176E+06     59.7721E+06     23.2141E+06    -29.8048E+06    -29.2500E+06     22.6593E+06     59.7721E+06     1.78938E+06
             414     65.2590E-03     11.0018E-03     64.3249E-03     337.379E-03    -167.594E-03    -169.785E-03    -166.332E-03     333.931E-03    -167.599E-03     82.7602E-03     373.614E-03     73.5684E+06     47.7015E+06     21.2802E+06    -35.1584E+06    -34.3697E+06     20.4914E+06     47.7015E+06     5.96134E+06
             415     65.0273E-03     10.1528E-03     64.2298E-03     336.592E-03    -167.646E-03    -168.946E-03    -166.226E-03     333.876E-03    -167.650E-03     73.7675E-03     367.415E-03     71.4535E+06     36.7186E+06     20.6628E+06    -41.1112E+06    -40.6514E+06     20.2031E+06     36.7186E+06     1.93030E+06
             416     64.8040E-03     9.30550E-03     64.1324E-03     336.264E-03    -167.699E-03    -168.565E-03    -166.368E-03     334.076E-03    -167.707E-03     66.0904E-03     362.466E-03     70.5874E+06     26.2865E+06     16.7015E+06    -48.4855E+06    -48.2596E+06     16.4756E+06     26.2865E+06     1.19960E+06
             417     64.6123E-03     8.46079E-03     64.0559E-03     336.932E-03    -167.667E-03    -169.265E-03    -167.634E-03     335.329E-03    -167.695E-03     56.6779E-03     359.211E-03     71.6653E+06     12.7768E+06     6.09851E+06    -61.9118E+06    -61.6881E+06     5.87479E+06     12.7768E+06     3.67846E+06
             418     64.4402E-03     7.61491E-03     63.9887E-03     336.660E-03    -167.566E-03    -169.094E-03    -167.941E-03     335.535E-03    -167.594E-03     47.3103E-03     356.695E-03     66.3647E+06     2.57649E+06    -8.73377E+06    -68.2920E+06    -67.3448E+06    -9.68094E+06     2.57649E+06    -858.014E+03
             419     64.2845E-03     6.76956E-03     63.9271E-03     334.449E-03    -166.530E-03    -167.919E-03    -166.056E-03     333.643E-03    -167.587E-03     40.0318E-03     352.003E-03     59.0708E+06    -9.39886E+06    -41.2611E+06    -74.3463E+06    -72.6467E+06    -42.9607E+06    -9.39886E+06    -3.62538E+06
             420     64.1498E-03     5.91999E-03     63.8761E-03     333.908E-03    -166.159E-03    -167.749E-03    -165.582E-03     333.326E-03    -167.744E-03     33.8509E-03     348.479E-03     63.2614E+06    -27.5149E+06    -73.4437E+06    -98.2941E+06    -80.9658E+06    -90.7720E+06    -27.5149E+06     812.271E+03
             421     64.0412E-03     5.07523E-03     63.8398E-03     334.471E-03    -166.524E-03    -167.946E-03    -166.145E-03     334.086E-03    -167.941E-03     27.5747E-03     346.399E-03     76.8812E+06    -46.3034E+06    -87.2650E+06    -134.125E+06    -88.0414E+06    -133.349E+06    -46.3034E+06    -1.00852E+06
             422     63.9513E-03     4.22530E-03     63.8116E-03     334.776E-03    -166.606E-03    -168.170E-03    -166.386E-03     334.556E-03    -168.170E-03     20.2440E-03     343.786E-03     87.6276E+06    -57.7039E+06    -93.4128E+06    -157.260E+06    -95.5096E+06    -155.163E+06    -57.7039E+06    -4.39948E+06
             423     63.8851E-03     3.38071E-03     63.7955E-03     336.074E-03    -167.342E-03    -168.732E-03    -167.678E-03     335.992E-03    -168.314E-03     12.2060E-03     342.135E-03     93.3568E+06    -68.7684E+06    -98.3142E+06    -172.670E+06    -99.9870E+06    -170.998E+06    -68.7684E+06     562.106E+03
             424     63.8328E-03     2.54026E-03     63.7822E-03     336.832E-03    -167.926E-03    -168.905E-03    -168.572E-03     336.789E-03    -168.217E-03     7.10367E-03     340.505E-03     101.401E+06    -84.7911E+06    -102.987E+06    -193.613E+06    -103.374E+06    -193.225E+06    -84.7911E+06     2.99928E+06
             425     63.7952E-03     1.69387E-03     63.7727E-03     336.661E-03    -167.852E-03    -168.809E-03    -168.782E-03     336.634E-03    -167.852E-03     4.31031E-03     338.621E-03     110.681E+06    -96.7803E+06    -109.515E+06    -213.236E+06    -109.736E+06    -213.015E+06    -96.7803E+06     194.357E+03
             426     63.7776E-03     847.623E-06     63.7720E-03     335.282E-03    -166.956E-03    -168.326E-03    -168.315E-03     335.272E-03    -166.956E-03     2.88862E-03     336.169E-03     136.300E+06    -107.857E+06    -116.583E+06    -248.181E+06    -116.371E+06    -248.108E+06    -108.142E+06     1.20023E+06
             427     65.0903E-03     14.3817E-03     63.4816E-03     344.872E-03    -167.966E-03    -176.905E-03    -169.962E-03     337.929E-03    -167.966E-03     119.349E-03     409.220E-03     123.642E+06     133.748E+06     85.2532E+06    -6.75711E+06    -6.68509E+06     85.1812E+06     133.748E+06    -42.6709E+03
             428     64.7427E-03     13.5439E-03     63.3102E-03     344.602E-03    -167.823E-03    -176.779E-03    -169.664E-03     337.486E-03    -167.823E-03     120.817E-03     405.381E-03     100.303E+06     98.8497E+06     54.7635E+06    -15.5859E+06    -14.5374E+06     53.7151E+06     98.8497E+06     3.40976E+06
             429     64.4114E-03     12.6992E-03     63.1471E-03     339.879E-03    -167.785E-03    -172.094E-03    -166.676E-03     334.461E-03    -167.785E-03     104.088E-03     390.454E-03     81.7964E+06     70.3740E+06     28.1089E+06    -23.7393E+06    -22.5454E+06     26.9151E+06     70.3740E+06     2.64932E+06
             430     64.1522E-03     11.8428E-03     63.0496E-03     339.195E-03    -167.833E-03    -171.362E-03    -167.121E-03     334.953E-03    -167.833E-03     92.4886E-03     382.136E-03     76.6942E+06     55.1004E+06     18.7886E+06    -32.8498E+06    -32.3669E+06     18.3056E+06     55.1004E+06    -855.151E+03
             431     63.8782E-03     10.9976E-03     62.9244E-03     340.115E-03    -167.800E-03    -172.315E-03    -168.968E-03     336.768E-03    -167.800E-03     81.6339E-03     376.620E-03     77.5068E+06     50.7801E+06     21.5994E+06    -36.9312E+06    -36.5312E+06     21.1993E+06     50.7801E+06     2.56312E+06
             432     63.6460E-03     10.1556E-03     62.8306E-03     338.100E-03    -167.674E-03    -170.426E-03    -168.066E-03     335.740E-03    -167.674E-03     69.0923E-03     369.760E-03     72.7748E+06     44.3967E+06     26.0411E+06    -35.5026E+06    -35.0644E+06     25.6028E+06     44.3967E+06     4.39196E+06
             433     63.4251E-03     9.30869E-03     62.7383E-03     336.318E-03    -167.587E-03    -168.732E-03    -166.753E-03     334.347E-03    -167.595E-03     62.7851E-03     362.976E-03     68.7680E+06     27.9309E+06     18.6987E+06    -44.8301E+06    -44.3256E+06     18.1942E+06     27.9309E+06     5.14003E+06
             434     63.2257E-03     8.45859E-03     62.6574E-03     336.083E-03    -167.103E-03    -168.980E-03    -166.902E-03     334.497E-03    -167.595E-03     56.4538E-03     358.941E-03     69.5310E+06     16.7721E+06     8.23382E+06    -56.5721E+06    -55.5226E+06     7.18438E+06     16.7721E+06     344.981E+03
             435     63.0428E-03     7.61834E-03     62.5808E-03     336.489E-03    -167.077E-03    -169.412E-03    -167.650E-03     335.210E-03    -167.561E-03     50.3093E-03     357.126E-03      66.747E+06     10.4885E+06    -6.17823E+06    -62.3485E+06    -59.9873E+06    -8.53939E+06     10.4885E+06    -2.70525E+06
             436     62.9030E-03     6.77322E-03     62.5372E-03     335.508E-03    -166.632E-03    -168.876E-03    -167.100E-03     334.579E-03    -167.479E-03     42.8163E-03     353.232E-03     58.3115E+06    -7.53105E+06    -41.3627E+06    -71.8332E+06    -69.3425E+06    -43.8534E+06    -7.53105E+06     779.694E+03
             437     62.7620E-03     5.92425E-03     62.4817E-03     333.800E-03    -165.545E-03    -168.255E-03    -165.643E-03     333.185E-03    -167.542E-03     34.6126E-03     348.179E-03     61.7807E+06    -27.8195E+06    -75.0929E+06    -96.7422E+06    -81.0350E+06    -90.8000E+06    -27.8195E+06     943.005E+03
             438     62.6492E-03     5.07377E-03     62.4434E-03     333.545E-03    -165.764E-03    -167.780E-03    -165.431E-03     333.211E-03    -167.780E-03     25.5213E-03     345.152E-03     74.5258E+06    -41.3314E+06    -85.9471E+06    -126.295E+06    -86.2816E+06    -125.961E+06    -41.3314E+06    -1.33875E+06
             439     62.5584E-03     4.22919E-03     62.4153E-03     334.850E-03    -166.882E-03    -167.968E-03    -166.695E-03     334.663E-03    -167.968E-03     19.0725E-03     343.606E-03     83.9825E+06    -62.2330E+06    -93.8351E+06    -156.409E+06    -94.9791E+06    -155.265E+06    -62.2330E+06    -3.69774E+06
             440     62.4846E-03     3.38286E-03     62.3930E-03     335.897E-03    -167.486E-03    -168.412E-03    -167.808E-03     335.802E-03    -167.994E-03     13.3273E-03     341.807E-03     91.9429E+06    -82.8518E+06    -104.778E+06    -183.261E+06    -106.501E+06    -181.538E+06    -82.8518E+06    -4.50402E+06
             441     62.4340E-03     2.53523E-03     62.3825E-03     335.869E-03    -167.472E-03    -168.397E-03    -167.848E-03     335.819E-03    -167.971E-03     9.58953E-03     339.507E-03     100.266E+06    -87.4045E+06    -104.996E+06    -194.744E+06    -105.830E+06    -193.910E+06    -87.4045E+06    -500.048E+03
             442     62.3999E-03     1.68983E-03     62.3770E-03     335.639E-03    -167.527E-03    -168.113E-03    -167.527E-03     335.609E-03    -168.082E-03     6.98105E-03     337.620E-03     110.831E+06    -93.5852E+06    -105.583E+06    -209.827E+06    -105.849E+06    -209.561E+06    -93.5852E+06     2.11681E+06
             443     62.3779E-03     844.332E-06     62.3722E-03     336.509E-03    -167.819E-03    -168.690E-03    -168.336E-03     336.499E-03    -168.163E-03     3.24918E-03     337.495E-03     139.755E+06    -104.412E+06    -113.492E+06    -248.479E+06    -110.991E+06    -248.382E+06    -107.010E+06     295.065E+03
             444     63.7340E-03     14.3964E-03     62.0868E-03     344.570E-03    -167.933E-03    -176.637E-03    -169.420E-03     337.353E-03    -167.933E-03     121.078E-03     408.400E-03     126.572E+06     133.394E+06     81.9804E+06    -10.7281E+06    -10.2525E+06     81.5048E+06     133.394E+06     1.59526E+06
             445     63.3707E-03     13.5437E-03     61.9064E-03     341.833E-03    -167.912E-03    -173.921E-03    -166.603E-03     334.515E-03    -167.912E-03     121.244E-03     403.072E-03     102.297E+06     100.342E+06     53.2786E+06    -16.6626E+06    -14.4008E+06     51.0168E+06     100.342E+06     1.68211E+06
             446     63.0586E-03     12.6845E-03     61.7697E-03     338.916E-03    -168.000E-03    -170.915E-03    -165.794E-03     333.795E-03    -168.000E-03     100.863E-03     388.959E-03     80.4922E+06     74.8380E+06     33.5949E+06    -17.7230E+06    -15.3458E+06     31.2177E+06     74.8380E+06     875.731E+03
             447     62.7648E-03     11.8410E-03     61.6377E-03     340.772E-03    -168.002E-03    -172.769E-03    -168.907E-03     336.910E-03    -168.002E-03     88.5816E-03     383.788E-03     71.2956E+06     57.0627E+06     22.3504E+06    -24.5508E+06    -23.9208E+06     21.7204E+06     57.0627E+06     909.822E+03
             448     62.5000E-03     11.0031E-03     61.5238E-03     340.824E-03    -167.852E-03    -172.972E-03    -169.809E-03     337.661E-03    -167.852E-03     80.0536E-03     378.074E-03     71.2543E+06     45.5141E+06     18.8118E+06    -34.5328E+06    -34.2868E+06     18.5658E+06     45.5141E+06    -597.389E+03
             449     62.2632E-03     10.1557E-03     61.4294E-03     339.002E-03    -167.689E-03    -171.312E-03    -168.732E-03     336.422E-03    -167.689E-03     72.2328E-03     370.485E-03     74.6374E+06     38.7462E+06     19.2898E+06    -43.6843E+06    -43.1750E+06     18.7805E+06     38.7462E+06     1.80480E+06
             450     62.0452E-03     9.31079E-03     61.3426E-03     337.722E-03    -167.578E-03    -170.144E-03    -167.953E-03     335.531E-03    -167.578E-03     66.2725E-03     364.892E-03     74.4475E+06     35.0762E+06     19.4610E+06    -45.8627E+06    -45.4484E+06     19.0466E+06     35.0762E+06     3.07908E+06
             451     61.8418E-03     8.46767E-03     61.2593E-03     335.033E-03    -166.788E-03    -168.245E-03    -165.707E-03     333.279E-03    -167.572E-03     59.1226E-03     358.240E-03     69.6268E+06     27.7109E+06     18.2451E+06    -46.0490E+06    -43.7289E+06     16.3784E+06     27.2574E+06     2.57172E+06
             452     61.6629E-03     7.61022E-03     61.1915E-03     334.848E-03    -166.817E-03    -168.032E-03    -165.808E-03     333.488E-03    -167.680E-03     51.7634E-03     355.205E-03     64.2205E+06     8.12824E+06    -9.30365E+06    -62.0877E+06    -59.1569E+06    -11.7811E+06     7.67479E+06     3.31823E+06
             453     61.5004E-03     6.76400E-03     61.1273E-03     336.789E-03    -167.597E-03    -169.192E-03    -168.201E-03     335.877E-03    -167.676E-03     42.3658E-03     354.594E-03     59.1482E+06    -5.49638E+06    -41.6662E+06    -72.2645E+06    -71.0966E+06    -42.8341E+06    -5.49638E+06     3.86629E+06
             454     61.3762E-03     5.92460E-03     61.0896E-03     336.336E-03    -166.884E-03    -169.452E-03    -168.249E-03     335.747E-03    -167.498E-03     34.1343E-03     351.029E-03     64.6501E+06    -19.8128E+06    -66.0183E+06    -93.1463E+06    -75.3135E+06    -83.8511E+06    -19.8128E+06     2.46257E+06
             455     61.2587E-03     5.07865E-03     61.0478E-03     334.399E-03    -166.229E-03    -168.170E-03    -166.682E-03     334.063E-03    -167.381E-03     25.5226E-03     346.137E-03     73.7643E+06    -41.3694E+06    -84.2186E+06    -125.833E+06    -84.8338E+06    -125.218E+06    -41.3694E+06    -160.187E+03
             456     61.1648E-03     4.22944E-03     61.0184E-03     333.611E-03    -166.170E-03    -167.441E-03    -165.992E-03     333.434E-03    -167.441E-03     18.6383E-03     342.281E-03     80.7857E+06    -63.4300E+06    -92.4026E+06    -153.549E+06    -92.6609E+06    -153.291E+06    -63.4300E+06    -644.994E+03
             457     61.0890E-03     3.38323E-03     60.9953E-03     334.014E-03    -166.383E-03    -167.630E-03    -166.289E-03     333.919E-03    -167.630E-03     13.2169E-03     340.086E-03     89.3079E+06    -83.2545E+06    -97.5299E+06    -178.651E+06    -98.2150E+06    -177.965E+06    -83.2545E+06    -3.73511E+06
             458     61.0390E-03     2.53777E-03     60.9862E-03     335.182E-03    -167.093E-03    -168.089E-03    -167.332E-03     335.149E-03    -167.816E-03     7.74322E-03     339.073E-03     101.277E+06    -94.8795E+06    -106.458E+06    -201.326E+06    -107.065E+06    -200.719E+06    -94.8795E+06    -6.13406E+06
             459     61.0000E-03     1.69111E-03     60.9766E-03     335.790E-03    -167.284E-03    -168.506E-03    -167.942E-03     335.781E-03    -167.840E-03     3.04742E-03     337.638E-03     110.495E+06    -100.135E+06    -112.220E+06    -216.077E+06    -112.509E+06    -215.789E+06    -100.135E+06    -2.66124E+06
             460     60.9813E-03     844.394E-06     60.9754E-03     335.687E-03    -167.199E-03    -168.487E-03    -168.139E-03     335.682E-03    -167.543E-03     219.325E-06     336.549E-03     135.005E+06    -106.338E+06    -115.924E+06    -245.867E+06    -113.580E+06    -245.612E+06    -108.936E+06     288.861E+03
             461     62.3729E-03     14.3849E-03     60.6915E-03     343.924E-03    -168.117E-03    -175.807E-03    -168.055E-03     336.172E-03    -168.117E-03     125.479E-03     408.462E-03     122.917E+06     133.979E+06     80.2932E+06    -6.55704E+06    -5.89570E+06     79.6318E+06     133.979E+06     793.771E+03
             462     62.0110E-03     13.5350E-03     60.5158E-03     345.080E-03    -168.073E-03    -177.008E-03    -169.787E-03     337.860E-03    -168.073E-03     120.897E-03     407.035E-03     102.683E+06     105.465E+06     55.8280E+06    -12.5854E+06    -11.0115E+06     54.2541E+06     105.465E+06    -1.94198E+06
             463     61.6906E-03     12.6970E-03     60.3698E-03     342.185E-03    -167.907E-03    -174.278E-03    -169.655E-03     337.563E-03    -167.907E-03     96.8987E-03     393.083E-03     84.5876E+06     73.6846E+06     33.8770E+06    -23.4258E+06    -22.0472E+06     32.4984E+06     73.6846E+06    -637.229E+03
             464     61.3945E-03     11.8496E-03     60.2401E-03     338.507E-03    -167.208E-03    -171.300E-03    -166.975E-03     334.781E-03    -167.806E-03     86.7683E-03     381.838E-03     71.0855E+06     50.3449E+06     17.4537E+06    -30.8753E+06    -30.4145E+06     16.9930E+06     50.3449E+06     2.88571E+06
             465     61.1203E-03     10.9952E-03     60.1231E-03     337.377E-03    -167.263E-03    -170.114E-03    -166.304E-03     334.165E-03    -167.861E-03     80.2069E-03     374.777E-03     67.9014E+06     43.1589E+06     15.5893E+06    -33.5525E+06    -33.4233E+06     15.4601E+06     43.1589E+06    -489.301E+03
             466     60.8839E-03     10.1500E-03     60.0318E-03     338.767E-03    -167.866E-03    -170.901E-03    -168.286E-03     336.152E-03    -167.866E-03     72.6773E-03     369.823E-03     70.9125E+06     38.9110E+06     19.6241E+06    -39.3714E+06    -39.2554E+06     19.5081E+06     38.9110E+06    -1.11467E+06
             467     60.6540E-03     9.30628E-03     59.9358E-03     338.150E-03    -167.763E-03    -170.387E-03    -168.245E-03     336.008E-03    -167.763E-03     65.4962E-03     364.889E-03     71.3628E+06     30.3349E+06     17.9493E+06    -46.2866E+06    -46.2749E+06     17.9376E+06     30.3349E+06    -410.622E+03
             468     60.4634E-03     8.45654E-03     59.8692E-03     337.062E-03    -167.370E-03    -169.692E-03    -167.715E-03     335.386E-03    -167.670E-03     57.8938E-03     360.433E-03     73.7463E+06     21.4563E+06     10.9701E+06    -56.7535E+06    -55.0654E+06     9.73542E+06     21.0029E+06     6.46693E+06
             469     60.2753E-03     7.61715E-03     59.7920E-03     336.298E-03    -167.208E-03    -169.089E-03    -167.496E-03     335.084E-03    -167.587E-03     49.0022E-03     356.729E-03     71.6149E+06     11.0376E+06    -1.22281E+06    -65.3622E+06    -63.3498E+06    -2.78175E+06     10.5842E+06      8.4835E+06
             470     60.1145E-03     6.77067E-03     59.7320E-03     335.577E-03    -167.345E-03    -168.233E-03    -167.334E-03     334.836E-03    -167.502E-03     38.3191E-03     353.518E-03     61.9922E+06    -5.78806E+06    -36.6272E+06    -73.1020E+06    -70.0788E+06    -39.6504E+06    -5.78806E+06     370.156E+03
             471     59.9760E-03     5.92137E-03     59.6829E-03     335.992E-03    -167.287E-03    -168.706E-03    -168.145E-03     335.510E-03    -167.365E-03     30.9892E-03     351.201E-03     62.9933E+06    -19.9385E+06    -67.8425E+06    -90.8164E+06    -72.8369E+06    -85.8220E+06    -19.9385E+06     393.496E+03
             472     59.8680E-03     5.08003E-03     59.6520E-03     335.208E-03    -166.956E-03    -168.253E-03    -167.729E-03     334.877E-03    -167.148E-03     25.5598E-03     347.322E-03     75.5964E+06    -36.2909E+06    -77.4026E+06    -122.677E+06    -77.8361E+06    -122.244E+06    -36.2909E+06     2.78269E+06
             473     59.7740E-03     4.23525E-03     59.6238E-03     333.593E-03    -166.273E-03    -167.321E-03    -166.332E-03     333.386E-03    -167.054E-03     19.9429E-03     342.267E-03     87.2425E+06    -54.1262E+06    -86.3036E+06    -152.572E+06    -86.5706E+06    -152.305E+06    -54.1262E+06     1.04903E+06
             474     59.6989E-03     3.38522E-03     59.6028E-03     333.584E-03    -166.275E-03    -167.309E-03    -166.398E-03     333.487E-03    -167.089E-03     13.3164E-03     339.359E-03     92.1032E+06    -72.4861E+06    -95.6639E+06    -173.611E+06    -95.9836E+06    -173.291E+06    -72.4861E+06     1.01903E+06
             475     59.6393E-03     2.53742E-03     59.5853E-03     334.539E-03    -166.750E-03    -167.789E-03    -167.535E-03     334.510E-03    -166.975E-03     6.66532E-03     338.038E-03     101.862E+06    -92.6570E+06    -106.495E+06    -200.607E+06    -106.698E+06    -200.404E+06    -92.6570E+06    -38.3612E+03
             476     59.6044E-03     1.69395E-03     59.5803E-03     334.394E-03    -166.447E-03    -167.948E-03    -167.942E-03     334.389E-03    -166.447E-03     1.82352E-03     336.143E-03     110.628E+06    -105.535E+06    -113.813E+06    -220.003E+06    -113.735E+06    -219.799E+06    -105.818E+06    -3.57883E+06
             477     59.5825E-03     850.179E-06     59.5765E-03     332.229E-03    -164.664E-03    -167.564E-03    -165.794E-03     332.225E-03    -166.431E-03    -288.756E-06     333.018E-03     134.690E+06    -113.858E+06    -119.569E+06    -251.254E+06    -119.602E+06    -250.938E+06    -114.140E+06    -3.26110E+06
             478     61.0086E-03     14.3791E-03     59.2899E-03     344.158E-03    -168.134E-03    -176.023E-03    -169.242E-03     337.376E-03    -168.134E-03     117.735E-03     408.546E-03     123.053E+06     131.024E+06     80.1855E+06    -9.12936E+06    -8.89219E+06     79.9483E+06     131.024E+06    -1.93081E+06
             479     60.6427E-03     13.5399E-03     59.1118E-03     345.437E-03    -167.949E-03    -177.488E-03    -171.046E-03     338.995E-03    -167.949E-03     114.986E-03     407.145E-03     99.3603E+06     91.8077E+06     46.7562E+06    -21.8446E+06    -21.5787E+06     46.4903E+06     91.8077E+06    -1.56558E+06
             480     60.3121E-03     12.6944E-03     58.9610E-03     341.710E-03    -167.760E-03    -173.950E-03    -169.126E-03     336.885E-03    -167.760E-03     99.0938E-03     392.993E-03     78.2803E+06     64.3677E+06     23.5452E+06    -25.7524E+06    -25.6204E+06     23.4133E+06     64.3677E+06    -920.389E+03
             481     60.0322E-03     11.8498E-03     58.8510E-03     338.574E-03    -167.128E-03    -171.446E-03    -166.935E-03     334.661E-03    -167.726E-03     88.8934E-03     381.967E-03     72.6251E+06     56.3875E+06     22.8928E+06    -26.5749E+06    -26.4938E+06     22.8117E+06     56.3875E+06    -1.02215E+06
             482     59.7554E-03     11.0007E-03     58.7341E-03     337.106E-03    -167.187E-03    -169.919E-03    -166.124E-03     333.909E-03    -167.785E-03     79.9909E-03     373.949E-03     70.6028E+06     49.6627E+06     25.1833E+06    -29.6701E+06    -29.6386E+06     25.1518E+06     49.6627E+06     674.361E+03
             483     59.4971E-03     10.1530E-03     58.6244E-03     336.825E-03    -167.833E-03    -168.992E-03    -166.562E-03     334.395E-03    -167.833E-03     69.7353E-03     368.539E-03     66.4100E+06     37.3320E+06     20.8198E+06    -35.4538E+06    -35.3961E+06     20.7621E+06     37.3320E+06     1.62827E+06
             484     59.2796E-03     9.30512E-03     58.5448E-03     337.618E-03    -167.817E-03    -169.801E-03    -167.886E-03     335.703E-03    -167.817E-03     62.0578E-03     364.932E-03     69.4352E+06     27.9267E+06     16.6808E+06    -46.3700E+06    -45.7559E+06     16.0667E+06     27.9267E+06     3.77757E+06
             485     59.0714E-03     8.46341E-03     58.4619E-03     338.745E-03    -167.657E-03    -171.088E-03    -169.517E-03     337.174E-03    -167.657E-03     56.3483E-03     361.983E-03     76.0548E+06     20.3791E+06     9.64309E+06    -60.2275E+06      -58.39E+06     8.13277E+06     20.0519E+06     756.403E+03
             486     58.8869E-03     7.61746E-03     58.3921E-03     337.420E-03    -167.413E-03    -170.007E-03    -168.800E-03     336.212E-03    -167.413E-03     49.2780E-03     357.959E-03     72.5838E+06     15.8355E+06     201.726E+03    -61.7548E+06    -60.1197E+06    -1.10615E+06     15.5083E+06    -657.629E+03
             487     58.7274E-03     6.77232E-03     58.3356E-03     335.130E-03    -167.173E-03    -167.958E-03    -167.009E-03     334.260E-03    -167.251E-03     41.5837E-03     352.793E-03     60.4067E+06     692.330E+03    -30.8201E+06    -65.8474E+06    -60.1734E+06    -36.4940E+06     692.330E+03     2.15360E+06
             488     58.5881E-03     5.92814E-03     58.2875E-03     334.322E-03    -166.872E-03    -167.450E-03    -166.526E-03     333.752E-03    -167.226E-03     33.2379E-03     349.267E-03     64.7738E+06    -19.2935E+06    -66.8078E+06    -92.9208E+06    -70.8694E+06    -88.8592E+06    -19.2935E+06     1.16335E+06
             489     58.4733E-03     5.07778E-03     58.2524E-03     334.712E-03    -166.896E-03    -167.816E-03    -167.197E-03     334.369E-03    -167.172E-03     25.9915E-03     346.640E-03     78.1428E+06    -36.7591E+06    -83.9905E+06    -126.506E+06    -84.4517E+06    -126.045E+06    -36.7591E+06     3.48623E+06
             490     58.3824E-03     4.23108E-03     58.2289E-03     335.326E-03    -166.914E-03    -168.412E-03    -168.199E-03     335.113E-03    -166.914E-03     20.2981E-03     343.936E-03     85.0525E+06    -54.1764E+06    -93.8568E+06    -151.664E+06    -94.4311E+06    -151.090E+06    -54.1764E+06     5.12392E+06
             491     58.3042E-03     3.38839E-03     58.2057E-03     334.210E-03    -166.528E-03    -167.681E-03    -167.582E-03     334.110E-03    -166.528E-03     13.5643E-03     339.921E-03     90.5810E+06    -70.3361E+06    -101.346E+06    -172.109E+06    -101.737E+06    -171.718E+06    -70.3361E+06     5.18261E+06
             492     58.2464E-03     2.54408E-03     58.1908E-03     332.543E-03    -165.689E-03    -166.853E-03    -166.211E-03     332.494E-03    -166.283E-03     8.62517E-03     336.011E-03     97.2179E+06    -89.7713E+06    -106.757E+06    -193.994E+06    -107.089E+06    -193.662E+06    -89.7713E+06     4.84315E+06
             493     58.2080E-03     1.69590E-03     58.1832E-03     332.159E-03    -164.933E-03    -167.226E-03    -165.740E-03     332.132E-03    -166.392E-03     5.73304E-03     334.101E-03     107.398E+06    -103.643E+06    -112.518E+06    -215.089E+06    -112.366E+06    -214.959E+06    -103.926E+06     196.653E+03
             494     58.1935E-03     847.035E-06     58.1873E-03     333.235E-03    -163.646E-03    -169.589E-03    -164.100E-03     333.226E-03    -169.126E-03     3.81614E-03     334.155E-03     142.699E+06    -112.571E+06    -120.222E+06    -258.807E+06    -117.545E+06    -258.600E+06    -115.455E+06    -2.64600E+06
             495     59.6579E-03     14.3974E-03     57.8946E-03     346.282E-03    -167.942E-03    -178.340E-03    -171.185E-03     339.126E-03    -167.942E-03     121.008E-03     410.190E-03     121.582E+06     128.377E+06     80.4987E+06    -9.77946E+06    -9.74171E+06     80.4610E+06     128.377E+06     184.761E+03
             496     59.2797E-03     13.5461E-03     57.7112E-03     343.426E-03    -167.782E-03    -175.644E-03    -168.699E-03     336.480E-03    -167.782E-03     118.517E-03     405.360E-03     95.4776E+06     93.2156E+06     52.3021E+06    -15.7285E+06    -15.6423E+06     52.2159E+06     93.2156E+06    -961.125E+03
             497     58.9562E-03     12.6941E-03     57.5734E-03     339.882E-03    -167.752E-03    -172.129E-03    -167.347E-03     335.099E-03    -167.752E-03     98.0122E-03     391.132E-03     78.7234E+06     70.4527E+06     29.6764E+06    -20.1515E+06    -19.9789E+06     29.5038E+06     70.4527E+06    -1.69490E+06
             498     58.6527E-03     11.8435E-03     57.4445E-03     339.066E-03    -167.740E-03    -171.326E-03    -167.615E-03     335.355E-03    -167.740E-03     86.6289E-03     382.863E-03     73.1073E+06     57.1344E+06     20.5304E+06    -26.8073E+06    -26.6048E+06     20.3279E+06     57.1344E+06    -1.57183E+06
             499     58.3831E-03     11.0036E-03     57.3368E-03     337.974E-03    -167.716E-03    -170.258E-03    -166.910E-03     334.626E-03    -167.716E-03     82.1903E-03     375.013E-03     69.6832E+06     43.4426E+06     19.2962E+06    -34.7402E+06    -34.4411E+06     18.9971E+06     43.4426E+06     725.524E+03
             500     58.1273E-03     10.1540E-03     57.2336E-03     337.151E-03    -167.745E-03    -169.406E-03    -166.679E-03     334.424E-03    -167.745E-03     73.8229E-03     368.486E-03     70.8417E+06     31.7258E+06     14.6971E+06    -46.0273E+06    -45.5291E+06     14.1989E+06     31.7258E+06     611.773E+03
             501     57.8958E-03     9.30675E-03     57.1429E-03     338.102E-03    -167.729E-03    -170.373E-03    -168.320E-03     336.049E-03    -167.729E-03     64.3286E-03     365.858E-03     74.0216E+06     30.5613E+06     15.9500E+06    -49.6229E+06    -48.6169E+06     14.9441E+06     30.5613E+06     246.777E+03
             502     57.6833E-03     8.46050E-03     57.0594E-03     337.572E-03    -167.466E-03    -170.105E-03    -168.387E-03     335.955E-03    -167.568E-03     57.0343E-03     361.215E-03     70.5506E+06     23.9666E+06     16.7272E+06    -49.7947E+06    -48.0577E+06     16.1143E+06     22.8425E+06    -1.94595E+06
             503     57.5001E-03     7.61731E-03     56.9933E-03     335.712E-03    -167.142E-03    -168.570E-03    -166.969E-03     334.446E-03    -167.477E-03     50.3413E-03     356.232E-03     62.2961E+06     12.0253E+06    -6.01671E+06    -55.3229E+06    -53.6622E+06    -6.55329E+06     10.9012E+06    -6.55318E+06
             504     57.3390E-03     6.77087E-03     56.9378E-03     335.038E-03    -167.072E-03    -167.966E-03    -166.480E-03     334.019E-03    -167.539E-03     45.1244E-03     352.503E-03     62.6490E+06     4.26578E+06    -39.6759E+06    -66.7843E+06    -61.7449E+06    -44.7154E+06     4.26578E+06     2.08391E+06
             505     57.1983E-03     5.92223E-03     56.8909E-03     335.593E-03    -167.018E-03    -168.575E-03    -167.355E-03     334.884E-03    -167.528E-03     37.3748E-03     350.183E-03     72.6141E+06    -15.4320E+06    -68.0928E+06    -97.8723E+06    -75.0390E+06    -90.9260E+06    -15.4320E+06     8.56648E+06
             506     57.0849E-03     5.07798E-03     56.8586E-03     336.474E-03    -167.027E-03    -169.447E-03    -168.795E-03     336.099E-03    -167.303E-03     27.0579E-03     348.092E-03     80.8579E+06    -32.7989E+06    -82.2424E+06    -126.026E+06    -83.7252E+06    -124.543E+06    -32.7989E+06     5.60258E+06
             507     56.9830E-03     4.23448E-03     56.8254E-03     335.614E-03    -166.609E-03    -169.005E-03    -168.546E-03     335.427E-03    -166.881E-03     19.1620E-03     344.273E-03     84.6310E+06    -47.3249E+06    -88.0586E+06    -144.260E+06    -88.5708E+06    -143.748E+06    -47.3249E+06     4.18670E+06
             508     56.9104E-03     3.38999E-03     56.8094E-03     333.684E-03    -166.240E-03    -167.444E-03    -167.062E-03     333.573E-03    -166.512E-03     14.6866E-03     339.833E-03     92.5458E+06    -65.4767E+06    -94.2904E+06    -168.661E+06    -94.6054E+06    -168.346E+06    -65.4767E+06     2.87015E+06
             509     56.8570E-03     2.54016E-03     56.8002E-03     332.098E-03    -165.571E-03    -166.528E-03    -165.535E-03     332.034E-03    -166.499E-03     10.3075E-03     335.848E-03     100.956E+06    -79.5960E+06    -99.1900E+06    -188.568E+06    -99.4296E+06    -188.328E+06    -79.5960E+06     2.18630E+06
             510     56.8178E-03     1.69014E-03     56.7927E-03     332.109E-03    -164.991E-03    -167.118E-03    -164.963E-03     332.081E-03    -167.118E-03     5.26257E-03     333.938E-03     110.391E+06    -95.5604E+06    -107.545E+06    -211.108E+06    -107.698E+06    -210.954E+06    -95.5604E+06     2.01984E+06
             511     56.7972E-03     841.664E-06     56.7909E-03     335.376E-03    -165.220E-03    -170.155E-03    -165.212E-03     335.367E-03    -170.155E-03     2.86247E-03     336.237E-03     144.856E+06    -107.211E+06    -117.556E+06    -256.844E+06    -115.084E+06    -256.714E+06    -109.812E+06     786.866E+03
             512     58.2912E-03     14.3830E-03     56.4888E-03     345.248E-03    -168.070E-03    -177.178E-03    -169.341E-03     337.411E-03    -168.070E-03     126.647E-03     409.844E-03     122.564E+06     131.043E+06     83.8542E+06    -8.03717E+06    -7.82777E+06     83.6448E+06     131.043E+06     17.1818E+03
             513     57.9242E-03     13.5384E-03     56.3198E-03     345.663E-03    -167.979E-03    -177.684E-03    -170.144E-03     338.122E-03    -167.979E-03     124.145E-03     408.206E-03     102.903E+06     103.131E+06     61.8033E+06    -13.8886E+06    -13.4967E+06     61.4114E+06     103.131E+06    -551.404E+03
             514     57.5860E-03     12.6960E-03     56.1690E-03     342.577E-03    -167.829E-03    -174.748E-03    -169.665E-03     337.495E-03    -167.829E-03     101.399E-03     393.762E-03     85.2721E+06     73.0610E+06     33.2571E+06    -24.6589E+06    -23.8288E+06     32.4271E+06     73.0610E+06    -812.874E+03
             515     57.2935E-03     11.8538E-03     56.0538E-03     339.447E-03    -167.695E-03    -171.752E-03    -168.015E-03     335.710E-03    -167.695E-03     86.9728E-03     382.882E-03      71.886E+06     48.0465E+06     11.3018E+06    -34.7622E+06    -34.0279E+06     10.5676E+06     48.0465E+06    -2.22374E+06
             516     57.0094E-03     10.9967E-03     55.9388E-03     337.884E-03    -167.666E-03    -170.217E-03    -167.120E-03     334.787E-03    -167.666E-03     78.6837E-03     374.899E-03     71.0305E+06     40.5914E+06     11.8556E+06    -40.0603E+06    -39.5272E+06     11.3225E+06     40.5914E+06    -620.592E+03
             517     56.7518E-03     10.1518E-03     55.8364E-03     337.583E-03    -167.667E-03    -169.916E-03    -167.362E-03     335.029E-03    -167.667E-03     71.5317E-03     368.391E-03     75.0306E+06     39.3576E+06     19.2215E+06    -43.5551E+06    -42.7029E+06     18.3692E+06     39.3576E+06    -708.609E+03
             518     56.5117E-03     9.30861E-03     55.7398E-03     337.186E-03    -167.594E-03    -169.592E-03    -167.484E-03     335.078E-03    -167.594E-03     65.0397E-03     364.135E-03     72.2044E+06     27.9762E+06     16.1948E+06    -49.3078E+06    -46.8333E+06     15.5143E+06     26.1822E+06    -7.43854E+06
             519     56.3028E-03     8.46480E-03     55.6628E-03     335.367E-03    -166.949E-03    -168.417E-03    -166.170E-03     333.763E-03    -167.593E-03     56.5700E-03     359.424E-03     69.7259E+06     21.4944E+06     13.3011E+06    -51.9192E+06    -49.8776E+06     13.8504E+06     18.9035E+06    -7.04329E+06
             520     56.1162E-03     7.61332E-03     55.5974E-03     334.498E-03    -166.788E-03    -167.709E-03    -165.518E-03     333.227E-03    -167.709E-03     50.3170E-03     355.277E-03     66.1029E+06     7.62824E+06    -5.08326E+06    -62.9305E+06    -60.4373E+06    -6.77953E+06     6.83138E+06     3.25217E+06
             521     55.9520E-03     6.76461E-03     55.5416E-03     335.705E-03    -167.314E-03    -168.391E-03    -166.947E-03     334.772E-03    -167.826E-03     42.7480E-03     353.323E-03     67.6115E+06    -9.72579E+06    -47.7235E+06    -84.0414E+06    -75.9754E+06    -55.7894E+06    -9.72579E+06     3.08195E+06
             522     55.8081E-03     5.91919E-03     55.4933E-03     336.758E-03    -167.485E-03    -169.272E-03    -168.368E-03     336.152E-03    -167.784E-03     34.6080E-03     351.424E-03     74.3679E+06    -16.1839E+06    -75.6099E+06    -98.9191E+06    -81.6605E+06    -92.8686E+06    -16.1839E+06     3.11408E+06
             523     55.6818E-03     5.07755E-03     55.4498E-03     336.650E-03    -167.334E-03    -169.315E-03    -168.767E-03     336.267E-03    -167.501E-03     27.4683E-03     348.239E-03     75.3692E+06    -31.3204E+06    -82.5204E+06    -116.682E+06    -83.6537E+06    -115.548E+06    -31.3204E+06     3.65354E+06
             524     55.5933E-03     4.23443E-03     55.4318E-03     335.333E-03    -166.805E-03    -168.528E-03    -167.936E-03     335.115E-03    -167.179E-03     20.7993E-03     344.082E-03     81.1136E+06    -50.1564E+06    -88.9752E+06    -143.045E+06    -89.0994E+06    -142.920E+06    -50.1564E+06     1.69456E+06
             525     55.5185E-03     3.38377E-03     55.4153E-03     334.521E-03    -166.648E-03    -167.873E-03    -167.487E-03     334.407E-03    -166.920E-03     14.3589E-03     340.726E-03     92.0949E+06    -62.6624E+06    -91.6939E+06    -165.408E+06    -91.9156E+06    -165.186E+06    -62.6624E+06     1.68495E+06
             526     55.4618E-03     2.54032E-03     55.4036E-03     334.381E-03    -166.171E-03    -168.210E-03    -167.845E-03     334.351E-03    -166.506E-03     6.18005E-03     338.002E-03     99.8892E+06    -82.3736E+06    -101.913E+06    -190.286E+06    -102.047E+06    -190.152E+06    -82.3736E+06    -423.565E+03
             527     55.4279E-03     1.69519E-03     55.4020E-03     333.318E-03    -165.073E-03    -168.245E-03    -167.575E-03     333.316E-03    -165.741E-03     12.6557E-06     334.963E-03     107.658E+06    -98.9200E+06    -112.589E+06    -212.346E+06    -112.673E+06    -212.263E+06    -98.9200E+06     173.528E+03
             528     55.3968E-03     849.276E-06     55.3903E-03     330.615E-03    -162.726E-03    -167.889E-03    -166.660E-03     330.608E-03    -163.948E-03    -2.29203E-03     331.463E-03     136.363E+06    -104.974E+06    -119.547E+06    -247.782E+06    -114.096E+06    -247.650E+06    -110.557E+06     1.40412E+06
             529     56.9409E-03     14.3838E-03     55.0942E-03     343.700E-03    -168.205E-03    -175.495E-03    -168.162E-03     336.366E-03    -168.205E-03     122.361E-03     408.259E-03     126.032E+06     132.773E+06     86.4231E+06    -9.81849E+06    -9.56107E+06     86.1657E+06     132.773E+06     827.174E+03
             530     56.5586E-03     13.5357E-03     54.9150E-03     345.027E-03    -168.116E-03    -176.910E-03    -169.990E-03     338.106E-03    -168.116E-03     118.874E-03     407.498E-03     103.225E+06     94.7442E+06     52.2025E+06    -22.0029E+06    -21.4634E+06     51.6630E+06     94.7442E+06     19.7952E+03
             531     56.2170E-03     12.6904E-03     54.7659E-03     342.511E-03    -167.974E-03    -174.536E-03    -169.563E-03     337.537E-03    -167.974E-03     100.585E-03     394.001E-03     82.5560E+06     67.2706E+06     25.8368E+06    -27.1361E+06    -26.1561E+06     24.8569E+06     67.2706E+06    -2.70508E+06
             532     55.9219E-03     11.8424E-03     54.6536E-03     342.323E-03    -167.811E-03    -174.512E-03    -170.660E-03     338.470E-03    -167.811E-03     88.7519E-03     385.550E-03     75.7112E+06     60.8736E+06     23.4541E+06    -26.1858E+06    -25.4319E+06     22.7003E+06     60.8736E+06    -1.79016E+06
             533     55.6399E-03     11.0082E-03     54.5401E-03     340.943E-03    -167.539E-03    -173.404E-03    -170.398E-03     337.937E-03    -167.539E-03     78.0411E-03     377.538E-03     72.0152E+06     46.9759E+06     19.5512E+06    -34.0722E+06    -33.7108E+06     19.1898E+06     46.9759E+06    -785.246E+03
             534     55.3814E-03     10.1606E-03     54.4414E-03     336.687E-03    -166.978E-03    -169.710E-03    -166.915E-03     334.276E-03    -167.361E-03     69.5272E-03     367.368E-03     68.2903E+06     33.2411E+06     19.7492E+06    -40.5290E+06    -39.9382E+06     19.1585E+06     33.2411E+06    -2.29699E+06
             535     55.1345E-03     9.30914E-03     54.3429E-03     333.810E-03    -165.935E-03    -167.875E-03    -164.267E-03     331.706E-03    -167.440E-03     64.6840E-03     360.149E-03     67.3321E+06     21.0749E+06     13.5788E+06    -49.6589E+06    -47.2422E+06     12.9562E+06     19.2809E+06    -3.69193E+06
             536     54.9218E-03     8.45841E-03     54.2666E-03     334.354E-03    -165.993E-03    -168.361E-03    -165.069E-03     332.726E-03    -167.657E-03     56.6882E-03     357.830E-03     71.2594E+06     11.6699E+06     4.24718E+06    -62.9598E+06    -60.7214E+06     3.80276E+06     9.87588E+06    -6.06268E+06
             537     54.7367E-03     7.61248E-03     54.2047E-03     335.985E-03    -167.202E-03    -168.783E-03    -167.036E-03     334.824E-03    -167.789E-03     48.1538E-03     356.607E-03     75.1522E+06     9.82765E+06    -3.52040E+06    -70.5553E+06    -68.2647E+06    -5.81102E+06     9.82765E+06     4.96346E+06
             538     54.5600E-03     6.76825E-03     54.1385E-03     336.627E-03    -167.674E-03    -168.953E-03    -168.089E-03     335.808E-03    -167.719E-03     40.2816E-03     354.289E-03     68.1943E+06    -3.07886E+06    -36.7805E+06    -77.8865E+06    -71.6966E+06    -42.9704E+06    -3.07886E+06     5.23303E+06
             539     54.4171E-03     5.92594E-03     54.0935E-03     335.792E-03    -167.404E-03    -168.388E-03    -167.662E-03     335.258E-03    -167.595E-03     32.5604E-03     350.603E-03     68.9252E+06    -20.3160E+06    -74.0733E+06    -97.0146E+06    -80.0623E+06    -91.0256E+06    -20.3160E+06    -5.07577E+06
             540     54.2923E-03     5.07531E-03     54.0545E-03     334.361E-03    -166.821E-03    -167.540E-03    -166.500E-03     334.040E-03    -167.540E-03     24.7052E-03     346.169E-03     71.1861E+06    -38.7267E+06    -88.7744E+06    -119.081E+06    -90.0755E+06    -117.780E+06    -38.7267E+06    -3.26133E+06
             541     54.1973E-03     4.22582E-03     54.0323E-03     335.386E-03    -166.929E-03    -168.457E-03    -167.765E-03     335.222E-03    -167.457E-03     17.6765E-03     344.409E-03     76.7392E+06    -56.4508E+06    -96.6973E+06    -144.324E+06    -96.7480E+06    -144.273E+06    -56.4508E+06    -567.042E+03
             542     54.1212E-03     3.38757E-03     54.0151E-03     335.998E-03    -167.087E-03    -168.911E-03    -168.834E-03     335.921E-03    -167.087E-03     11.7072E-03     342.221E-03     87.1161E+06    -72.1221E+06    -105.351E+06    -170.858E+06    -105.456E+06    -170.753E+06    -72.1221E+06     274.632E+03
             543     54.0667E-03     2.54150E-03     54.0069E-03     334.531E-03    -166.006E-03    -168.525E-03    -167.998E-03     334.491E-03    -166.493E-03     7.80135E-03     338.161E-03     94.6986E+06    -88.8669E+06    -109.332E+06    -191.666E+06    -109.822E+06    -191.176E+06    -88.8669E+06     2.80343E+06
             544     54.0282E-03     1.69956E-03     54.0014E-03     333.248E-03    -165.019E-03    -168.229E-03    -167.461E-03     333.186E-03    -165.725E-03     7.44406E-03     334.937E-03     103.290E+06    -101.376E+06    -114.240E+06    -210.304E+06    -113.508E+06    -209.880E+06    -102.531E+06     2.42510E+06
             545     54.0155E-03     854.797E-06     54.0087E-03     330.642E-03    -162.651E-03    -167.991E-03    -167.692E-03     330.561E-03    -162.869E-03     6.22839E-03     331.545E-03     130.808E+06    -110.130E+06    -129.366E+06    -249.324E+06    -122.759E+06    -249.192E+06    -116.869E+06     383.224E+03
             546     55.5955E-03     14.3864E-03     53.7019E-03     343.801E-03    -168.028E-03    -175.773E-03    -168.739E-03     336.767E-03    -168.028E-03     119.727E-03     408.004E-03     122.775E+06     129.350E+06     83.4116E+06    -9.69015E+06    -9.58398E+06     83.3055E+06     129.350E+06     1.45951E+06
             547     55.1974E-03     13.5415E-03     53.5105E-03     342.746E-03    -167.971E-03    -174.776E-03    -167.992E-03     335.963E-03    -167.971E-03     117.144E-03     405.014E-03     97.1986E+06     95.7247E+06     56.4160E+06    -13.9750E+06    -13.4767E+06     55.9177E+06     95.7247E+06    -1.50429E+06
             548     54.8673E-03     12.6908E-03     53.3794E-03     341.164E-03    -167.932E-03    -173.233E-03    -168.623E-03     336.555E-03    -167.932E-03     96.4489E-03     392.391E-03     80.9547E+06     72.9856E+06     31.8295E+06    -19.4219E+06    -18.2111E+06     30.6187E+06     72.9856E+06    -1.71946E+06
             549     54.5426E-03     11.8473E-03     53.2403E-03     340.568E-03    -167.578E-03    -172.989E-03    -169.078E-03     336.913E-03    -167.835E-03     86.2367E-03     383.684E-03     76.8306E+06     57.9009E+06     18.8560E+06    -30.4393E+06    -29.2215E+06     17.6383E+06     57.9009E+06     625.729E+03
             550     54.2639E-03     11.0003E-03     53.1372E-03     340.541E-03    -167.408E-03    -173.133E-03    -169.486E-03     337.151E-03    -167.664E-03     83.0743E-03     377.151E-03     71.4342E+06     45.2530E+06     16.8929E+06    -35.3776E+06    -34.7465E+06     16.2618E+06     45.2530E+06    -66.1853E+03
             551     54.0043E-03     10.1600E-03     53.0400E-03     338.634E-03    -167.098E-03    -171.536E-03    -168.324E-03     335.806E-03    -167.482E-03     75.5298E-03     369.174E-03     65.7073E+06     30.1618E+06     17.1022E+06    -40.6493E+06    -40.2771E+06     16.7300E+06     30.1618E+06    -155.980E+03
             552     53.7735E-03     9.31203E-03     52.9611E-03     335.645E-03    -165.956E-03    -169.688E-03    -165.942E-03     333.403E-03    -167.461E-03     66.9683E-03     362.107E-03     66.7488E+06     18.7554E+06     11.3640E+06    -51.3576E+06    -50.7524E+06     10.7588E+06     18.7554E+06     2.68152E+06
             553     53.5422E-03     8.45972E-03     52.8697E-03     335.857E-03    -166.397E-03    -169.459E-03    -166.756E-03     334.275E-03    -167.519E-03     55.7310E-03     358.794E-03     70.5076E+06     12.8354E+06     6.05160E+06    -60.7867E+06    -60.1778E+06     5.44265E+06     12.8354E+06     1.53889E+06
             554     53.3466E-03     7.61641E-03     52.8001E-03     336.342E-03    -167.486E-03    -168.857E-03    -167.842E-03     335.328E-03    -167.486E-03     45.1697E-03     356.707E-03     71.3475E+06     9.42261E+06    -9.48532E+06    -68.3937E+06    -66.1261E+06    -11.7529E+06     9.42261E+06    -4.23724E+06
             555     53.1759E-03     6.77091E-03     52.7430E-03     334.975E-03    -166.815E-03    -168.160E-03    -166.740E-03     334.162E-03    -167.422E-03     40.3040E-03     352.675E-03     63.7621E+06     920.090E+03    -35.8038E+06    -71.5725E+06    -68.9399E+06    -38.4364E+06     920.090E+03     339.737E+03
             556     53.0237E-03     5.92186E-03     52.6920E-03     334.312E-03    -166.665E-03    -167.647E-03    -166.324E-03     333.744E-03    -167.420E-03     33.4111E-03     349.118E-03     63.4094E+06    -19.6292E+06    -62.6214E+06    -91.9887E+06    -74.3775E+06    -80.2327E+06    -19.6292E+06    -821.138E+03
             557     52.9076E-03     5.07933E-03     52.6632E-03     334.622E-03    -166.873E-03    -167.748E-03    -166.838E-03     334.286E-03    -167.447E-03     25.3359E-03     346.681E-03     74.7558E+06    -37.4154E+06    -85.0680E+06    -123.375E+06    -86.3669E+06    -122.076E+06    -37.4154E+06    -4.19742E+06
             558     52.8026E-03     4.23448E-03     52.6325E-03     334.548E-03    -166.292E-03    -168.256E-03    -166.942E-03     334.354E-03    -167.411E-03     18.8925E-03     343.658E-03     80.2753E+06    -54.6440E+06    -96.8694E+06    -146.516E+06    -97.0047E+06    -146.380E+06    -54.6440E+06    -477.966E+03
             559     52.7230E-03     3.38447E-03     52.6142E-03     334.315E-03    -166.090E-03    -168.224E-03    -166.868E-03     334.221E-03    -167.353E-03     13.0262E-03     340.501E-03     84.3326E+06    -80.5534E+06    -107.065E+06    -174.365E+06    -107.286E+06    -174.143E+06    -80.5534E+06    -1.51663E+06
             560     52.6749E-03     2.53986E-03     52.6137E-03     334.029E-03    -166.229E-03    -167.800E-03    -166.505E-03     333.977E-03    -167.472E-03     9.65065E-03     337.819E-03     88.8469E+06    -91.0117E+06    -106.856E+06    -186.361E+06    -107.614E+06    -185.603E+06    -91.0117E+06    -1.35748E+06
             561     52.6360E-03     1.68525E-03     52.6090E-03     334.541E-03    -166.637E-03    -167.905E-03    -166.553E-03     334.458E-03    -167.905E-03     5.86996E-03     336.402E-03     100.419E+06    -100.696E+06    -110.580E+06    -205.607E+06    -110.067E+06    -204.965E+06    -101.852E+06     1.66690E+06
             562     52.6157E-03     836.351E-06     52.6091E-03     336.595E-03    -167.144E-03    -169.452E-03    -168.201E-03     336.472E-03    -168.271E-03     1.65315E-03     337.543E-03     135.320E+06    -111.162E+06    -128.508E+06    -254.174E+06    -120.899E+06    -254.076E+06    -118.869E+06    -1.32926E+06
             563     54.2422E-03     14.3949E-03     52.2972E-03     344.381E-03    -167.919E-03    -176.462E-03    -169.245E-03     337.164E-03    -167.919E-03     121.429E-03     408.420E-03     123.214E+06     135.864E+06     86.9075E+06    -4.21606E+06    -4.08848E+06     86.7799E+06     135.864E+06    -171.992E+03
             564     53.8615E-03     13.5393E-03     52.1320E-03     343.353E-03    -167.840E-03    -175.513E-03    -168.389E-03     336.229E-03    -167.840E-03     120.418E-03     405.385E-03     103.737E+06     102.905E+06     64.4842E+06    -14.5002E+06    -13.4867E+06     63.4708E+06     102.905E+06     932.097E+03
             565     53.4892E-03     12.6968E-03     51.9604E-03     340.314E-03    -167.784E-03    -172.530E-03    -167.534E-03     335.318E-03    -167.784E-03     100.102E-03     391.120E-03     84.6269E+06     63.7892E+06     25.7890E+06    -32.7818E+06    -31.0439E+06     24.0512E+06     63.7892E+06     2.85047E+06
             566     53.1966E-03     11.8503E-03     51.8599E-03     337.955E-03    -167.558E-03    -170.397E-03    -166.181E-03     333.995E-03    -167.814E-03     89.2638E-03     380.509E-03     68.4452E+06     49.0312E+06     14.9984E+06    -29.5402E+06    -28.3866E+06     13.8448E+06     49.0312E+06    -328.819E+03
             567     52.8903E-03     10.9958E-03     51.7347E-03     337.753E-03    -167.383E-03    -170.370E-03    -166.426E-03     334.344E-03    -167.918E-03     82.4440E-03     374.153E-03     67.2255E+06     45.5171E+06     18.9942E+06    -30.7423E+06    -29.6630E+06     17.9149E+06     45.5171E+06    -3.08638E+06
             568     52.6261E-03     10.1462E-03     51.6388E-03     339.307E-03    -167.623E-03    -171.684E-03    -168.862E-03     336.764E-03    -167.902E-03     71.4569E-03     370.744E-03     72.2491E+06     37.7254E+06     16.9172E+06    -42.3355E+06    -41.5950E+06     16.1768E+06     37.7254E+06    -463.742E+03
             569     52.3909E-03     9.30496E-03     51.5580E-03     340.581E-03    -167.669E-03    -172.912E-03    -170.782E-03     338.451E-03    -167.669E-03     65.8026E-03     367.820E-03     73.9464E+06     34.8734E+06     19.4439E+06    -45.3784E+06    -45.0864E+06     19.1519E+06     34.8734E+06     2.04907E+06
             570     52.1633E-03     8.46837E-03     51.4713E-03     338.063E-03    -167.362E-03    -170.701E-03    -169.002E-03     336.363E-03    -167.362E-03     58.2793E-03     361.019E-03     72.7150E+06     24.6841E+06     15.4657E+06    -52.0655E+06    -51.5246E+06     14.9248E+06     24.6841E+06     2.80818E+06
             571     51.9645E-03     7.62010E-03     51.4027E-03     335.015E-03    -167.146E-03    -167.869E-03    -166.631E-03     333.827E-03    -167.196E-03     48.4513E-03     355.492E-03     61.4756E+06     993.956E+03    -16.1102E+06    -65.5738E+06    -62.4447E+06    -19.2393E+06     993.956E+03    -4.57439E+06
             572     51.7922E-03     6.77264E-03     51.3474E-03     333.694E-03    -166.364E-03    -167.330E-03    -165.560E-03     332.820E-03    -167.261E-03     41.5966E-03     351.626E-03     57.8517E+06    -12.6588E+06    -49.6523E+06    -79.0404E+06    -73.1288E+06    -55.5638E+06    -12.6588E+06    -7.26250E+06
             573     51.6414E-03     5.92481E-03     51.3004E-03     333.541E-03    -166.106E-03    -167.435E-03    -165.489E-03     332.924E-03    -167.435E-03     34.7975E-03     348.367E-03     65.1644E+06    -18.8582E+06    -65.2270E+06    -93.2448E+06    -79.6520E+06    -78.8197E+06    -18.8582E+06     2.31577E+06
             574     51.5103E-03     5.07491E-03     51.2597E-03     334.678E-03    -166.868E-03    -167.810E-03    -166.790E-03     334.298E-03    -167.509E-03     27.1563E-03     346.669E-03     72.6263E+06    -39.3093E+06    -82.3687E+06    -122.276E+06    -85.9771E+06    -118.668E+06    -39.3093E+06     3.14353E+06
             575     51.4129E-03     4.22945E-03     51.2386E-03     334.510E-03    -166.666E-03    -167.844E-03    -166.783E-03     334.300E-03    -167.518E-03     19.7849E-03     343.555E-03     82.1538E+06    -58.7238E+06    -94.7382E+06    -152.430E+06    -95.0219E+06    -152.146E+06    -58.7238E+06    -1.21959E+06
             576     51.3331E-03     3.38265E-03     51.2215E-03     333.867E-03    -166.194E-03    -167.673E-03    -166.136E-03     333.784E-03    -167.648E-03     10.8418E-03     340.170E-03     84.5983E+06    -73.5278E+06    -97.9524E+06    -167.110E+06    -98.3525E+06    -166.710E+06    -73.5278E+06    -1.85332E+06
             577     51.2775E-03     2.53227E-03     51.2149E-03     334.843E-03    -166.899E-03    -167.944E-03    -166.978E-03     334.824E-03    -167.847E-03     4.65531E-03     338.769E-03     88.2241E+06    -97.3975E+06    -108.515E+06    -190.484E+06    -108.910E+06    -190.089E+06    -97.3975E+06    -3.56125E+06
             578     51.2382E-03     1.69519E-03     51.2102E-03     335.803E-03    -167.469E-03    -168.335E-03    -167.734E-03     335.766E-03    -168.032E-03     1.40075E-03     337.804E-03     101.623E+06    -104.075E+06    -115.377E+06    -210.800E+06    -115.633E+06    -210.544E+06    -104.075E+06    -1.95280E+06
             579     51.2168E-03     851.930E-06     51.2097E-03     336.370E-03    -167.551E-03    -168.818E-03    -167.825E-03     336.285E-03    -168.461E-03    -1.04559E-03     337.290E-03     136.495E+06    -101.837E+06    -119.492E+06    -246.212E+06    -113.082E+06    -246.071E+06    -108.388E+06     1.79188E+06
             580     52.9007E-03     14.3830E-03     50.9079E-03     345.591E-03    -167.981E-03    -177.611E-03    -170.316E-03     338.297E-03    -167.981E-03     122.363E-03     409.591E-03     127.496E+06     137.333E+06     85.9746E+06    -7.75772E+06    -7.45288E+06     85.6698E+06     137.333E+06    -29.2546E+03
             581     52.4985E-03     13.5465E-03     50.7206E-03     344.445E-03    -167.833E-03    -176.612E-03    -169.423E-03     337.256E-03    -167.833E-03     121.216E-03     406.759E-03     106.483E+06     99.1990E+06     55.6096E+06    -22.0015E+06    -21.1030E+06     54.7110E+06     99.1990E+06     3.17699E+06
             582     52.1491E-03     12.6935E-03     50.5807E-03     339.163E-03    -167.795E-03    -171.369E-03    -166.362E-03     334.157E-03    -167.795E-03     100.022E-03     389.781E-03     81.4901E+06     71.6318E+06     32.2915E+06    -21.9447E+06    -20.8683E+06     31.2152E+06     71.6318E+06     3.09039E+06
             583     51.8243E-03     11.8391E-03     50.4538E-03     338.175E-03    -167.833E-03    -170.342E-03    -166.588E-03     334.421E-03    -167.833E-03     86.7793E-03     381.293E-03     67.4714E+06     53.5506E+06     23.5059E+06    -23.5235E+06    -22.8677E+06     22.8502E+06     53.5506E+06    -1.44828E+06
             584     51.5303E-03     11.0009E-03     50.3423E-03     338.063E-03    -167.574E-03    -170.489E-03    -167.163E-03     335.015E-03    -167.852E-03     78.0420E-03     375.057E-03     66.3955E+06     38.3486E+06     16.4921E+06    -36.1577E+06    -35.1667E+06     15.5011E+06     38.3486E+06    -3.36783E+06
             585     51.2583E-03     10.1531E-03     50.2427E-03     338.520E-03    -167.560E-03    -170.960E-03    -168.320E-03     336.159E-03    -167.838E-03     68.9711E-03     369.943E-03     72.2500E+06     36.9339E+06     16.6637E+06    -43.2466E+06    -41.9657E+06     15.3829E+06     36.9339E+06    -4.07426E+06
             586     51.0019E-03     9.30933E-03     50.1451E-03     339.201E-03    -167.685E-03    -171.515E-03    -169.575E-03     337.260E-03    -167.685E-03     62.6414E-03     366.703E-03     75.7446E+06     35.4119E+06     17.5824E+06    -47.5537E+06    -46.9210E+06     16.9497E+06     35.4119E+06    -3.00818E+06
             587     50.7839E-03     8.46191E-03     50.0739E-03     336.919E-03    -167.474E-03    -169.445E-03    -167.765E-03     335.252E-03    -167.487E-03     57.9790E-03     360.410E-03     73.0046E+06     24.6465E+06     14.7931E+06    -52.6516E+06    -52.1893E+06     14.3308E+06     24.6465E+06     3.53072E+06
             588     50.5828E-03     7.61667E-03     50.0060E-03     335.394E-03    -167.346E-03    -168.048E-03    -166.622E-03     334.030E-03    -167.408E-03     52.0953E-03     355.998E-03     63.5587E+06     4.95285E+06    -8.95586E+06    -63.3268E+06    -61.6343E+06    -10.6484E+06     4.95285E+06     3.58852E+06
             589     50.4091E-03     6.76966E-03     49.9525E-03     335.529E-03    -167.078E-03    -168.451E-03    -167.239E-03     334.606E-03    -167.367E-03     42.7705E-03     353.182E-03     55.7713E+06    -17.1521E+06    -51.6215E+06    -79.1877E+06    -75.2283E+06    -55.5809E+06    -17.1521E+06    -2.93789E+06
             590     50.2548E-03     5.92264E-03     49.9046E-03     334.848E-03    -166.624E-03    -168.224E-03    -166.950E-03     334.276E-03    -167.326E-03     33.3915E-03     349.600E-03     63.6173E+06    -30.2011E+06    -76.4385E+06    -101.775E+06    -86.0893E+06    -92.1241E+06    -30.2011E+06    -3.13975E+06
             591     50.1233E-03     5.07725E-03     49.8655E-03     333.712E-03    -166.200E-03    -167.511E-03    -166.065E-03     333.419E-03    -167.353E-03     23.5212E-03     345.472E-03     71.1089E+06    -41.5090E+06    -84.1472E+06    -122.528E+06    -89.1297E+06    -117.546E+06    -41.5090E+06     82.8543E+03
             592     50.0176E-03     4.22997E-03     49.8384E-03     333.804E-03    -166.322E-03    -167.482E-03    -166.217E-03     333.674E-03    -167.457E-03     15.9264E-03     342.831E-03     79.4578E+06    -58.7729E+06    -93.3040E+06    -148.395E+06    -93.5071E+06    -148.192E+06    -58.7729E+06    -1.37995E+06
             593     49.9402E-03     3.38559E-03     49.8253E-03     334.364E-03    -166.781E-03    -167.583E-03    -166.728E-03     334.286E-03    -167.558E-03     10.8178E-03     341.020E-03     85.9521E+06    -76.7591E+06    -103.626E+06    -172.814E+06    -103.937E+06    -172.503E+06    -76.7591E+06    -2.68953E+06
             594     49.8822E-03     2.54314E-03     49.8173E-03     334.480E-03    -166.644E-03    -167.836E-03    -166.694E-03     334.433E-03    -167.738E-03     7.33842E-03     338.511E-03     94.4892E+06    -87.9099E+06    -107.730E+06    -190.449E+06    -108.019E+06    -190.160E+06    -87.9099E+06     775.741E+03
             595     49.8407E-03     1.68902E-03     49.8121E-03     335.122E-03    -166.679E-03    -168.443E-03    -166.952E-03     335.092E-03    -168.139E-03     6.55620E-03     337.044E-03     105.398E+06    -98.7951E+06    -112.344E+06    -210.066E+06    -111.705E+06    -209.886E+06    -99.6145E+06     2.46184E+06
             596     49.8193E-03     841.282E-06     49.8122E-03     336.943E-03    -167.445E-03    -169.498E-03    -167.766E-03     336.906E-03    -169.140E-03     6.28080E-03     337.832E-03     133.719E+06    -111.854E+06    -122.123E+06    -250.222E+06    -120.556E+06    -250.074E+06    -113.570E+06     2.23240E+06
             597     51.5500E-03     14.3918E-03     49.5003E-03     344.878E-03    -167.985E-03    -176.894E-03    -169.761E-03     337.745E-03    -167.985E-03     120.771E-03     408.890E-03     122.384E+06     127.438E+06     79.8507E+06    -11.5373E+06    -11.2947E+06     79.6080E+06     127.438E+06     551.859E+03
             598     51.1504E-03     13.5386E-03     49.3261E-03     344.167E-03    -167.872E-03    -176.295E-03    -169.257E-03     337.129E-03    -167.872E-03     119.752E-03     407.164E-03     98.5541E+06     99.4909E+06     60.4911E+06    -12.4186E+06    -12.0099E+06     60.0824E+06     99.4909E+06    -1.32619E+06
             599     50.7954E-03     12.6944E-03     49.1836E-03     341.278E-03    -167.799E-03    -173.479E-03    -168.615E-03     336.414E-03    -167.799E-03     99.1070E-03     392.190E-03     82.6516E+06     80.5033E+06     42.3024E+06    -14.1361E+06    -13.4740E+06     41.6403E+06     80.5033E+06    -2.56382E+06
             600     50.4698E-03     11.8548E-03     49.0578E-03     338.994E-03    -167.717E-03    -171.276E-03    -167.595E-03     335.312E-03    -167.717E-03     86.1468E-03     382.035E-03     76.4210E+06     53.3927E+06     18.7439E+06    -34.0069E+06    -32.9745E+06     17.7115E+06     53.3927E+06     313.418E+03
             601     50.1662E-03     10.9992E-03     48.9456E-03     338.425E-03    -167.685E-03    -170.739E-03    -167.612E-03     335.298E-03    -167.685E-03     79.3628E-03     375.351E-03     75.0279E+06     43.3773E+06     14.2132E+06    -41.6787E+06    -40.6968E+06     13.2313E+06     43.3773E+06     3.09383E+06
             602     49.8851E-03     10.1558E-03     48.8404E-03     338.131E-03    -167.609E-03    -170.522E-03    -167.920E-03     335.529E-03    -167.609E-03     72.5005E-03     369.240E-03     70.4338E+06     34.3773E+06     17.1244E+06    -42.5361E+06    -41.2402E+06     15.8286E+06     34.3773E+06     2.47075E+06
             603     49.6298E-03     9.30838E-03     48.7491E-03     336.226E-03    -167.547E-03    -168.680E-03    -166.688E-03     334.235E-03    -167.547E-03     63.0272E-03     363.506E-03     67.6679E+06     18.6332E+06     10.6748E+06    -52.4830E+06    -51.4987E+06     9.69042E+06     18.6332E+06    -501.178E+03
             604     49.4066E-03     8.46141E-03     48.6767E-03     335.741E-03    -167.565E-03    -168.176E-03    -166.680E-03     334.258E-03    -167.578E-03     54.4655E-03     359.753E-03     72.4294E+06     15.2359E+06     6.99415E+06    -60.9176E+06    -60.0234E+06     6.09993E+06     15.2359E+06    -1.63719E+06
             605     49.2019E-03     7.61244E-03     48.6095E-03     336.320E-03    -167.539E-03    -168.781E-03    -167.644E-03     335.196E-03    -167.552E-03     47.1429E-03     357.478E-03     71.0945E+06     12.1143E+06    -4.54396E+06    -65.2341E+06    -63.9338E+06    -5.84429E+06     12.1143E+06     1.49365E+06
             606     49.0197E-03     6.76854E-03     48.5501E-03     336.421E-03    -167.379E-03    -169.041E-03    -168.274E-03     335.654E-03    -167.379E-03     39.0258E-03     354.398E-03     60.0957E+06    -5.93965E+06    -43.0032E+06    -71.8391E+06    -69.2189E+06    -45.6234E+06    -5.93965E+06     3.51852E+06
             607     48.8659E-03     5.92781E-03     48.5050E-03     335.492E-03    -167.151E-03    -168.341E-03    -167.822E-03     334.973E-03    -167.151E-03     32.0443E-03     350.348E-03     59.0745E+06    -28.8189E+06    -75.5211E+06    -93.6914E+06    -78.2998E+06    -90.9127E+06    -28.8189E+06    -2.81362E+06
             608     48.7362E-03     5.08167E-03     48.4706E-03     333.366E-03    -166.055E-03    -167.311E-03    -165.937E-03     333.038E-03    -167.101E-03     25.0964E-03     345.105E-03     71.6223E+06    -42.7010E+06    -85.7163E+06    -123.817E+06    -87.5018E+06    -122.031E+06    -42.7010E+06    -4.84394E+06
             609     48.6304E-03     4.23310E-03     48.4458E-03     332.264E-03    -164.916E-03    -167.347E-03    -164.727E-03     332.074E-03    -167.347E-03     18.9230E-03     341.022E-03     80.6664E+06    -56.9209E+06    -93.7872E+06    -148.170E+06    -94.0983E+06    -147.859E+06    -56.9209E+06    -2.42797E+06
             610     48.5461E-03     3.38245E-03     48.4281E-03     333.262E-03    -165.472E-03    -167.790E-03    -165.365E-03     333.155E-03    -167.790E-03     14.1023E-03     339.563E-03     89.2390E+06    -74.2608E+06    -100.748E+06    -173.164E+06    -100.928E+06    -172.984E+06    -74.2608E+06    -1.05862E+06
             611     48.4869E-03     2.53229E-03     48.4207E-03     335.102E-03    -166.549E-03    -168.553E-03    -166.804E-03     335.046E-03    -168.242E-03     9.47590E-03     338.957E-03     99.6119E+06    -85.4121E+06    -104.499E+06    -192.949E+06    -105.012E+06    -192.436E+06    -85.4121E+06    -623.316E+03
             612     48.4478E-03     1.69042E-03     48.4183E-03     336.418E-03    -167.136E-03    -169.282E-03    -167.804E-03     336.401E-03    -168.596E-03     4.98934E-03     338.307E-03     103.135E+06    -98.2310E+06    -111.934E+06    -207.309E+06    -111.583E+06    -206.840E+06    -99.0505E+06     1.76160E+06
             613     48.4146E-03     844.770E-06     48.4073E-03     337.625E-03    -167.715E-03    -169.910E-03    -168.211E-03     337.621E-03    -169.410E-03     2.17019E-03     338.578E-03     132.738E+06    -114.289E+06    -121.176E+06    -250.132E+06    -118.967E+06    -250.009E+06    -116.621E+06     1.04281E+06
             614     50.2105E-03     14.3860E-03     48.1054E-03     344.715E-03    -168.012E-03    -176.703E-03    -169.404E-03     337.415E-03    -168.012E-03     122.311E-03     409.124E-03     119.265E+06     128.693E+06     83.3160E+06    -6.48083E+06    -6.36891E+06     83.2040E+06     128.693E+06    -168.053E+03
             615     49.8070E-03     13.5410E-03     47.9310E-03     344.699E-03    -167.887E-03    -176.813E-03    -169.848E-03     337.735E-03    -167.887E-03     119.323E-03     407.744E-03     98.6310E+06     96.7231E+06     62.2533E+06    -14.4804E+06    -14.1139E+06     61.8867E+06     96.7231E+06    -2.31011E+06
             616     49.4343E-03     12.6955E-03     47.7763E-03     341.750E-03    -167.761E-03    -173.989E-03    -169.064E-03     336.825E-03    -167.761E-03     99.8433E-03     393.482E-03     84.9705E+06     66.7979E+06     31.6469E+06    -29.9554E+06    -29.3427E+06     31.0342E+06     66.7979E+06    -3.65461E+06
             617     49.1137E-03     11.8444E-03     47.6641E-03     339.941E-03    -167.668E-03    -172.273E-03    -168.407E-03     336.074E-03    -167.668E-03     88.6004E-03     383.093E-03     78.0897E+06     52.4058E+06     18.9151E+06    -36.5760E+06    -35.7921E+06     18.1311E+06     52.4058E+06     580.072E+03
             618     48.8035E-03     11.0043E-03     47.5467E-03     339.441E-03    -167.577E-03    -171.864E-03    -168.545E-03     336.122E-03    -167.577E-03     81.9542E-03     375.682E-03     75.7375E+06     46.2842E+06     19.8256E+06    -38.7250E+06    -37.6118E+06     18.7124E+06     46.2842E+06     2.50425E+06
             619     48.5167E-03     10.1560E-03     47.4419E-03     337.675E-03    -167.475E-03    -170.200E-03    -167.721E-03     335.196E-03    -167.475E-03     70.4824E-03     368.868E-03     73.0473E+06     37.4337E+06     19.0923E+06    -42.4219E+06    -41.3950E+06     18.0654E+06     37.4337E+06     1.70116E+06
             620     48.2613E-03     9.30887E-03     47.3550E-03     335.597E-03    -167.420E-03    -168.177E-03    -166.389E-03     333.815E-03    -167.426E-03     59.5824E-03     362.721E-03     70.1241E+06     26.6753E+06     16.4416E+06    -47.5622E+06    -47.1082E+06     15.9877E+06     26.6753E+06     3.38669E+06
             621     48.0290E-03     8.46149E-03     47.2778E-03     335.723E-03    -167.409E-03    -168.314E-03    -166.875E-03     334.289E-03    -167.415E-03     53.5741E-03     359.367E-03     69.9562E+06     16.4884E+06     8.39388E+06    -57.1222E+06    -55.9079E+06     7.17951E+06     16.4884E+06    -201.579E+03
             622     47.8197E-03     7.62079E-03     47.2085E-03     335.847E-03    -167.279E-03    -168.568E-03    -167.321E-03     334.696E-03    -167.375E-03     47.6624E-03     356.827E-03     67.1484E+06     8.64160E+06    -11.3803E+06    -65.4051E+06    -62.5989E+06    -14.1865E+06     8.64160E+06    -3.37004E+06
             623     47.6374E-03     6.77447E-03     47.1532E-03     334.304E-03    -166.347E-03    -167.957E-03    -166.017E-03     333.398E-03    -167.380E-03     42.1997E-03     352.401E-03     61.1267E+06    -2.63223E+06    -42.6530E+06    -71.3533E+06    -67.3919E+06    -46.6144E+06    -2.63223E+06    -1.47947E+06
             624     47.4771E-03     5.92371E-03     47.1061E-03     333.685E-03    -165.894E-03    -167.792E-03    -165.465E-03     332.965E-03    -167.501E-03     37.5267E-03     348.954E-03     61.3370E+06    -20.7598E+06    -68.5749E+06    -89.1130E+06    -73.9442E+06    -83.7437E+06    -20.7598E+06     1.80371E+06
             625     47.3496E-03     5.07710E-03     47.0766E-03     334.400E-03    -166.448E-03    -167.952E-03    -166.288E-03     333.919E-03    -167.631E-03     30.8055E-03     346.648E-03     69.5752E+06    -44.0970E+06    -83.6222E+06    -123.136E+06    -84.0163E+06    -122.742E+06    -44.0970E+06    -854.180E+03
             626     47.2423E-03     4.22939E-03     47.0526E-03     334.879E-03    -166.271E-03    -168.608E-03    -166.899E-03     334.624E-03    -167.724E-03     21.7222E-03     343.662E-03     80.9324E+06    -59.1002E+06    -92.2805E+06    -150.981E+06    -92.6157E+06    -150.646E+06    -59.1002E+06    -3.09865E+06
             627     47.1570E-03     3.38215E-03     47.0355E-03     334.573E-03    -166.096E-03    -168.477E-03    -166.635E-03     334.498E-03    -167.862E-03     11.3793E-03     340.450E-03     90.5352E+06    -69.6050E+06    -95.3785E+06    -169.641E+06    -95.6088E+06    -169.410E+06    -69.6050E+06    -1.87994E+06
             628     47.0898E-03     2.53670E-03     47.0214E-03     335.077E-03    -166.671E-03    -168.406E-03    -166.964E-03     335.058E-03    -168.094E-03     5.95715E-03     338.631E-03      103.27E+06    -90.8974E+06    -107.098E+06    -201.210E+06    -107.506E+06    -200.802E+06    -90.8974E+06    -1.70477E+06
             629     47.0434E-03     1.69077E-03     47.0130E-03     336.602E-03    -167.536E-03    -169.066E-03    -168.453E-03     336.586E-03    -168.133E-03     5.26626E-03     338.459E-03     107.351E+06    -101.468E+06    -113.766E+06    -214.296E+06    -114.304E+06    -213.758E+06    -101.468E+06    -2.08914E+06
             630     47.0197E-03     847.827E-06     47.0121E-03     336.171E-03    -166.734E-03    -169.436E-03    -167.468E-03     336.157E-03    -168.690E-03     4.96582E-03     337.067E-03      133.54E+06    -104.134E+06    -111.587E+06    -241.049E+06    -111.284E+06    -240.735E+06    -104.750E+06    -1.78198E+06
             631     48.8687E-03     14.3855E-03     46.7034E-03     345.368E-03    -168.024E-03    -177.344E-03    -170.320E-03     338.344E-03    -168.024E-03     120.163E-03     410.213E-03     124.619E+06     131.276E+06     82.0656E+06    -10.3042E+06    -10.1617E+06     81.9231E+06     131.276E+06    -942.169E+03
             632     48.4588E-03     13.5420E-03     46.5281E-03     344.393E-03    -167.856E-03    -176.537E-03    -169.865E-03     337.721E-03    -167.856E-03     116.767E-03     408.095E-03     105.090E+06     97.2538E+06     57.7953E+06    -21.7356E+06    -21.5788E+06     57.6385E+06     97.2538E+06     388.324E+03
             633     48.0894E-03     12.6936E-03     46.3839E-03     340.594E-03    -167.752E-03    -172.842E-03    -168.076E-03     335.828E-03    -167.752E-03     98.0480E-03     391.637E-03     84.8020E+06     73.5251E+06     35.2856E+06    -23.4792E+06    -22.2610E+06     34.0674E+06     73.5251E+06     2.99488E+06
             634     47.7559E-03     11.8505E-03     46.2622E-03     340.405E-03    -167.642E-03    -172.763E-03    -169.033E-03     336.676E-03    -167.642E-03     87.1088E-03     383.834E-03     73.0011E+06     54.1293E+06     18.9448E+06    -29.3100E+06    -27.9338E+06     17.5686E+06     54.1293E+06     2.23154E+06
             635     47.4396E-03     11.0017E-03     46.1463E-03     339.894E-03    -167.459E-03    -172.435E-03    -169.237E-03     336.696E-03    -167.459E-03     80.6022E-03     376.928E-03     69.5434E+06     38.3036E+06     16.6134E+06    -38.5380E+06    -37.8522E+06     15.9276E+06     38.3036E+06    -2.48213E+06
             636     47.1508E-03     10.1593E-03     46.0433E-03     337.389E-03    -167.347E-03    -170.043E-03    -167.524E-03     334.871E-03    -167.347E-03     71.0495E-03     368.552E-03     72.6876E+06     32.8410E+06     18.0214E+06    -45.9002E+06    -44.9424E+06     17.0637E+06     32.8410E+06    -5.44192E+06
             637     46.8927E-03     9.31402E-03     45.9584E-03     335.763E-03    -167.342E-03    -168.422E-03    -166.445E-03     333.792E-03    -167.347E-03     62.5742E-03     362.954E-03     75.1631E+06     33.4905E+06     18.3171E+06    -47.8632E+06    -47.2759E+06     17.7298E+06     33.4905E+06    -2.04122E+06
             638     46.6577E-03     8.46694E-03     45.8830E-03     334.494E-03    -166.493E-03    -168.001E-03    -165.374E-03     332.779E-03    -167.405E-03     58.3483E-03     357.845E-03     71.2145E+06     24.5917E+06     13.5879E+06    -51.4392E+06    -50.7664E+06     12.9151E+06     24.5917E+06     4.61498E+06
             639     46.4371E-03     7.61480E-03     45.8085E-03     333.694E-03    -165.815E-03    -167.879E-03    -164.695E-03     332.265E-03    -167.571E-03     53.1819E-03     354.050E-03     63.4379E+06     5.33451E+06    -12.4789E+06    -64.3909E+06    -62.0783E+06    -14.7915E+06     5.33451E+06     1.84526E+06
             640     46.2590E-03     6.76643E-03     45.7614E-03     333.882E-03    -166.042E-03    -167.840E-03    -165.008E-03     332.836E-03    -167.828E-03     45.4236E-03     351.421E-03     57.3650E+06    -10.9351E+06    -46.4015E+06    -76.0451E+06    -73.7385E+06    -48.7081E+06    -10.9351E+06    -2.58234E+06
             641     46.0949E-03     5.91757E-03     45.7134E-03     334.364E-03    -166.248E-03    -168.116E-03    -165.576E-03     333.679E-03    -168.103E-03     36.1843E-03     349.440E-03     61.9977E+06    -24.3398E+06    -72.1374E+06    -93.6965E+06    -81.0035E+06    -84.8303E+06    -24.3398E+06    -441.149E+03
             642     45.9582E-03     5.06807E-03     45.6779E-03     335.870E-03    -167.324E-03    -168.546E-03    -167.241E-03     335.484E-03    -168.243E-03     26.9877E-03     348.106E-03     66.5350E+06    -43.0200E+06    -87.1855E+06    -118.465E+06    -87.2579E+06    -118.392E+06    -43.0200E+06     114.004E+03
             643     45.8443E-03     4.22651E-03     45.6491E-03     336.943E-03    -167.873E-03    -169.070E-03    -168.584E-03     336.736E-03    -168.152E-03     19.5635E-03     346.144E-03     76.1303E+06    -62.0790E+06    -93.5932E+06    -148.247E+06    -93.6457E+06    -148.194E+06    -62.0790E+06    -972.616E+03
             644     45.7608E-03     3.38666E-03     45.6353E-03     336.391E-03    -167.634E-03    -168.758E-03    -168.322E-03     336.270E-03    -167.948E-03     14.5916E-03     342.804E-03     89.7851E+06    -80.4919E+06    -102.636E+06    -179.144E+06    -102.812E+06    -178.968E+06    -80.4919E+06    -3.15628E+06
             645     45.6983E-03     2.54002E-03     45.6277E-03     335.966E-03    -167.149E-03    -168.818E-03    -168.110E-03     335.891E-03    -167.781E-03     10.7789E-03     339.759E-03     103.850E+06    -87.5016E+06    -106.630E+06    -199.530E+06    -106.817E+06    -199.343E+06    -87.5016E+06    -1.59556E+06
             646     45.6483E-03     1.69048E-03     45.6170E-03     335.488E-03    -166.811E-03    -168.677E-03    -167.875E-03     335.464E-03    -167.588E-03     5.30984E-03     337.242E-03     110.236E+06    -96.6223E+06    -107.957E+06    -211.843E+06    -108.229E+06    -211.572E+06    -96.6223E+06    -1.35924E+06
             647     45.6146E-03     843.991E-06     45.6068E-03     335.074E-03    -165.013E-03    -170.061E-03    -165.248E-03     335.062E-03    -169.814E-03     1.71532E-03     335.946E-03     134.052E+06    -110.446E+06    -115.295E+06    -246.853E+06    -113.582E+06    -246.620E+06    -112.392E+06    -2.20861E+06
             648     47.5369E-03     14.3916E-03     45.3060E-03     344.860E-03    -167.923E-03    -176.937E-03    -169.901E-03     337.824E-03    -167.923E-03     119.915E-03     409.639E-03     125.465E+06     134.702E+06     83.7027E+06    -8.21352E+06    -7.89749E+06     83.3867E+06     134.702E+06    -1.62736E+06
             649     47.1165E-03     13.5430E-03     45.1282E-03     343.184E-03    -167.824E-03    -175.361E-03    -168.612E-03     336.435E-03    -167.824E-03     116.861E-03     406.898E-03     105.344E+06     108.282E+06     63.9692E+06    -11.9175E+06    -11.6184E+06     63.6701E+06     108.282E+06    -731.576E+03
             650     46.7469E-03     12.6972E-03     44.9895E-03     341.024E-03    -167.722E-03    -173.302E-03    -168.374E-03     336.096E-03    -167.722E-03     100.088E-03     391.258E-03     85.2798E+06     74.0993E+06     34.0680E+06    -23.8048E+06    -22.8079E+06     33.0712E+06     74.0993E+06     4.40621E+06
             651     46.3978E-03     11.8476E-03     44.8596E-03     340.986E-03    -167.598E-03    -173.388E-03    -169.354E-03     336.952E-03    -167.598E-03     90.5343E-03     383.676E-03     73.4529E+06     54.4673E+06     18.4722E+06    -29.7923E+06    -28.7393E+06     17.4192E+06     54.4673E+06     2.46565E+06
             652     46.0812E-03     11.0072E-03     44.7473E-03     338.886E-03    -167.472E-03    -171.414E-03    -168.186E-03     335.659E-03    -167.472E-03     80.8143E-03     376.103E-03     70.1221E+06     45.0662E+06     18.0927E+06    -33.7631E+06    -32.6437E+06     16.9733E+06     45.0662E+06     2.27591E+06
             653     45.7880E-03     10.1568E-03     44.6473E-03     336.223E-03    -167.342E-03    -168.881E-03    -166.126E-03     333.556E-03    -167.429E-03     73.1054E-03     367.323E-03     69.2238E+06     30.6702E+06     16.9345E+06    -44.0778E+06    -42.5721E+06     15.4288E+06     30.6702E+06     255.799E+03
             654     45.5234E-03     9.30735E-03     44.5618E-03     335.327E-03    -167.173E-03    -168.154E-03    -165.630E-03     333.142E-03    -167.511E-03     66.0514E-03     362.469E-03     69.8717E+06     20.1620E+06     11.3529E+06    -53.5783E+06    -53.0534E+06     10.8280E+06     20.1620E+06    -3.95141E+06
             655     45.2829E-03     8.46017E-03     44.4856E-03     334.336E-03    -166.354E-03    -167.981E-03    -164.873E-03     332.566E-03    -167.694E-03     59.2538E-03     358.135E-03     72.8717E+06     16.5696E+06     7.16159E+06    -60.4294E+06    -59.7874E+06     6.51951E+06     16.5696E+06    -2.24690E+06
             656     45.0704E-03     7.61134E-03     44.4231E-03     333.822E-03    -165.870E-03    -167.952E-03    -164.540E-03     332.492E-03    -167.952E-03     51.1746E-03     354.466E-03     69.8506E+06     9.25827E+06    -4.04953E+06    -65.9134E+06    -64.9915E+06    -4.97148E+06     9.25827E+06     1.48290E+06
             657     44.8703E-03     6.76181E-03     44.3579E-03     335.440E-03    -167.159E-03    -168.282E-03    -166.434E-03     334.586E-03    -168.152E-03     40.9360E-03     353.099E-03     60.7535E+06    -8.50410E+06    -42.4842E+06    -74.2973E+06    -72.9265E+06    -43.8549E+06    -8.50410E+06      1.3913E+06
             658     44.7111E-03     5.91949E-03     44.3175E-03     336.506E-03    -167.942E-03    -168.564E-03    -167.808E-03     335.999E-03    -168.191E-03     31.6676E-03     351.306E-03     61.0707E+06    -25.3469E+06    -78.4928E+06    -91.5681E+06    -82.1418E+06    -87.9191E+06    -25.3469E+06    -1.61645E+06
             659     44.5669E-03     5.07693E-03     44.2768E-03     335.499E-03    -167.015E-03    -168.483E-03    -166.968E-03     335.174E-03    -168.206E-03     25.0547E-03     347.139E-03     69.9351E+06    -40.6821E+06    -89.6138E+06    -119.617E+06    -89.7085E+06    -119.523E+06    -40.6821E+06    -1.03902E+06
             660     44.4516E-03     4.22841E-03     44.2500E-03     334.937E-03    -166.527E-03    -168.410E-03    -166.371E-03     334.746E-03    -168.376E-03     18.9359E-03     344.064E-03     77.1878E+06    -57.5287E+06    -93.2072E+06    -145.618E+06    -93.2612E+06    -145.564E+06    -57.5287E+06    -1.01559E+06
             661     44.3665E-03     3.37586E-03     44.2379E-03     336.526E-03    -167.604E-03    -168.922E-03    -167.894E-03     336.404E-03    -168.510E-03     14.6500E-03     342.913E-03     86.2619E+06    -81.2292E+06    -102.794E+06    -175.818E+06    -102.819E+06    -175.794E+06    -81.2292E+06    -608.031E+03
             662     44.2962E-03     2.53300E-03     44.2237E-03     337.897E-03    -168.301E-03    -169.596E-03    -169.513E-03     337.814E-03    -168.301E-03     11.6543E-03     341.715E-03     101.373E+06    -93.6817E+06    -107.101E+06    -200.925E+06    -106.517E+06    -200.665E+06    -94.5262E+06    -3.59997E+06
             663     44.2492E-03     1.69637E-03     44.2166E-03     336.651E-03    -167.624E-03    -169.027E-03    -168.805E-03     336.609E-03    -167.804E-03     7.24805E-03     338.690E-03     109.130E+06    -100.812E+06    -111.660E+06    -214.729E+06    -111.176E+06    -214.369E+06    -101.657E+06    -4.17633E+06
             664     44.2281E-03     848.456E-06     44.2200E-03     335.128E-03    -165.310E-03    -169.818E-03    -166.950E-03     335.106E-03    -168.156E-03     2.78554E-03     336.140E-03     131.054E+06    -118.540E+06    -127.129E+06    -253.596E+06    -125.469E+06    -253.310E+06    -120.486E+06     1.70818E+06
             665     46.2088E-03     14.3895E-03     43.9112E-03     343.330E-03    -167.854E-03    -175.476E-03    -168.305E-03     336.159E-03    -167.854E-03     120.720E-03     407.805E-03     125.848E+06     132.723E+06     82.6378E+06    -10.4445E+06     -9.0319E+06     81.2251E+06     132.723E+06    -604.171E+03
             666     45.7787E-03     13.5420E-03     43.7298E-03     342.841E-03    -167.799E-03    -175.041E-03    -168.111E-03     335.910E-03    -167.799E-03     118.378E-03     405.896E-03     102.620E+06     98.5826E+06     55.1460E+06    -18.5083E+06    -17.4205E+06     54.0583E+06     98.5826E+06     1.48402E+06
             667     45.4039E-03     12.6927E-03     43.5937E-03     341.798E-03    -167.717E-03    -174.082E-03    -169.050E-03     336.767E-03    -167.717E-03     101.250E-03     392.468E-03     82.5309E+06     72.2803E+06     32.4578E+06    -22.5953E+06    -22.4506E+06     32.3132E+06     72.2803E+06    -165.851E+03
             668     45.0437E-03     11.8504E-03     43.4569E-03     340.028E-03    -167.621E-03    -172.407E-03    -168.433E-03     336.054E-03    -167.621E-03     89.6451E-03     381.979E-03     76.6185E+06     57.2067E+06     23.5175E+06    -30.3799E+06    -30.1328E+06     23.2704E+06     57.2067E+06     1.82639E+06
             669     44.7234E-03     11.0005E-03     43.3494E-03     336.959E-03    -167.620E-03    -169.340E-03    -166.163E-03     333.782E-03    -167.620E-03     79.9036E-03     373.689E-03     75.7390E+06     47.7624E+06     20.0613E+06    -37.8919E+06    -36.2836E+06     18.4530E+06     47.7624E+06     2.93606E+06
             670     44.4302E-03     10.1545E-03     43.2542E-03     335.731E-03    -167.633E-03    -168.098E-03    -165.282E-03     333.017E-03    -167.735E-03     73.6557E-03     367.220E-03     73.3970E+06     43.2835E+06     23.2816E+06    -37.8273E+06    -35.6878E+06     21.1421E+06     43.2835E+06     4.41929E+06
             671     44.1572E-03     9.30697E-03     43.1652E-03     335.299E-03    -167.435E-03    -167.864E-03    -165.277E-03     333.141E-03    -167.864E-03     65.5396E-03     362.491E-03     69.7035E+06     26.1941E+06     16.2936E+06    -47.7665E+06    -46.9493E+06     15.4764E+06     26.1941E+06     3.58532E+06
             672     43.9139E-03     8.45785E-03     43.0917E-03     336.004E-03    -167.472E-03    -168.532E-03    -166.361E-03     334.343E-03    -167.982E-03     57.6586E-03     359.422E-03     70.2468E+06     12.0530E+06     5.79563E+06    -61.0359E+06    -60.4075E+06     5.16724E+06     12.0530E+06    -1.18377E+06
             673     43.6910E-03     7.61237E-03     43.0227E-03     336.851E-03    -167.602E-03    -169.249E-03    -167.573E-03     335.598E-03    -168.024E-03     50.0707E-03     357.320E-03     69.0199E+06     6.34038E+06    -6.01331E+06    -67.4822E+06    -65.8006E+06    -7.69496E+06     6.34038E+06    -3.08474E+06
             674     43.4933E-03     6.76825E-03     42.9635E-03     336.090E-03    -167.286E-03    -168.804E-03    -167.242E-03     335.254E-03    -168.012E-03     40.6737E-03     353.914E-03     61.6745E+06    -7.51329E+06    -41.9054E+06    -74.5354E+06    -72.7679E+06    -43.6728E+06    -7.51329E+06    -1.32463E+06
             675     43.3184E-03     5.92022E-03     42.9120E-03     335.241E-03    -166.820E-03    -168.421E-03    -166.628E-03     334.689E-03    -168.061E-03     33.1170E-03     350.264E-03     60.2331E+06    -23.7607E+06    -73.2234E+06    -90.2277E+06    -78.9383E+06    -84.5129E+06    -23.7607E+06    -1.72485E+06
             676     43.1809E-03     5.07298E-03     42.8819E-03     334.970E-03    -166.505E-03    -168.464E-03    -166.375E-03     334.597E-03    -168.222E-03     26.9803E-03     346.590E-03     74.9668E+06    -37.7063E+06    -84.3142E+06    -123.447E+06    -85.3928E+06    -122.368E+06    -37.7063E+06    -3.66985E+06
             677     43.0643E-03     4.22413E-03     42.8567E-03     335.585E-03    -166.799E-03    -168.786E-03    -167.003E-03     335.391E-03    -168.387E-03     19.0785E-03     344.348E-03     84.0771E+06    -57.0723E+06    -96.6612E+06    -153.510E+06    -96.8083E+06    -153.362E+06    -57.0723E+06    -2.22935E+06
             678     42.9690E-03     3.38274E-03     42.8356E-03     336.802E-03    -167.754E-03    -169.049E-03    -168.350E-03     336.732E-03    -168.381E-03     11.3381E-03     342.822E-03     84.3104E+06    -74.0620E+06    -98.5587E+06    -167.367E+06    -98.7152E+06    -167.211E+06    -74.0620E+06     929.452E+03
             679     42.8967E-03     2.53748E-03     42.8215E-03     336.405E-03    -167.776E-03    -168.628E-03    -168.057E-03     336.375E-03    -168.319E-03     6.10275E-03     340.087E-03     99.9105E+06    -94.3645E+06    -107.749E+06    -200.125E+06    -107.357E+06    -199.673E+06    -95.2090E+06     546.803E+03
             680     42.8511E-03     1.68412E-03     42.8180E-03     336.468E-03    -167.702E-03    -168.766E-03    -168.050E-03     336.436E-03    -168.385E-03     4.22258E-03     338.578E-03     113.271E+06    -108.893E+06    -119.086E+06    -226.701E+06    -118.315E+06    -226.243E+06    -110.122E+06    -3.30125E+06
             681     42.8244E-03     843.592E-06     42.8161E-03     337.031E-03    -167.393E-03    -169.639E-03    -169.475E-03     337.009E-03    -167.534E-03     2.99395E-03     337.951E-03     137.115E+06    -108.986E+06    -116.095E+06    -249.398E+06    -115.570E+06    -248.835E+06    -110.074E+06    -3.27603E+06
             682     44.8801E-03     14.3911E-03     42.5102E-03     343.149E-03    -167.893E-03    -175.256E-03    -167.962E-03     335.855E-03    -167.893E-03     121.819E-03     407.581E-03     123.666E+06     130.044E+06     80.7445E+06    -10.6646E+06    -9.32267E+06     79.4025E+06     130.044E+06     245.237E+03
             683     44.4542E-03     13.5411E-03     42.3416E-03     344.257E-03    -167.821E-03    -176.436E-03    -169.382E-03     337.203E-03    -167.821E-03     119.905E-03     406.610E-03     101.681E+06     95.5834E+06     52.8502E+06    -20.4282E+06    -19.3693E+06     51.7913E+06     95.5834E+06     2.56286E+06
             684     44.0551E-03     12.6973E-03     42.1857E-03     341.851E-03    -167.719E-03    -174.133E-03    -169.088E-03     336.807E-03    -167.719E-03     101.240E-03     392.381E-03     83.8119E+06     73.5671E+06     33.1446E+06    -22.7571E+06    -22.0881E+06     32.4757E+06     73.5671E+06     2.55405E+06
             685     43.7006E-03     11.8501E-03     42.0633E-03     337.913E-03    -167.699E-03    -170.213E-03    -166.254E-03     333.953E-03    -167.699E-03     89.2315E-03     380.258E-03     76.0865E+06     57.3785E+06     21.5303E+06    -29.9187E+06    -29.0415E+06     20.6531E+06     57.3785E+06     2.63297E+06
             686     43.3747E-03     11.0016E-03     41.9563E-03     336.105E-03    -167.828E-03    -168.277E-03    -164.982E-03     332.810E-03    -167.828E-03     81.0541E-03     372.945E-03     74.7779E+06     49.0382E+06     22.4502E+06    -35.1816E+06    -34.3969E+06     21.6655E+06     49.0382E+06    -2.35611E+06
             687     43.0704E-03     10.1506E-03     41.8572E-03     336.123E-03    -167.938E-03    -168.184E-03    -165.410E-03     333.421E-03    -168.011E-03     73.5390E-03     367.826E-03     77.2841E+06     42.4466E+06     21.0981E+06    -43.2464E+06    -41.8096E+06     19.6613E+06     42.4466E+06    -1.48470E+06
             688     42.7933E-03     9.30168E-03     41.7702E-03     336.509E-03    -167.986E-03    -168.523E-03    -166.226E-03     334.361E-03    -168.134E-03     65.4989E-03     364.000E-03     74.4153E+06     32.6004E+06     17.9188E+06    -47.8877E+06    -46.6284E+06     16.6596E+06     32.6004E+06     3.57897E+06
             689     42.5413E-03     8.45576E-03     41.6925E-03     337.627E-03    -168.071E-03    -169.557E-03    -167.812E-03     335.959E-03    -168.147E-03     57.9853E-03     360.932E-03     70.2513E+06     21.7195E+06     14.3455E+06    -51.8796E+06    -51.5321E+06     13.9980E+06     21.7195E+06     2.87563E+06
             690     42.3100E-03     7.61134E-03     41.6198E-03     337.663E-03    -167.902E-03    -169.761E-03    -168.308E-03     336.375E-03    -168.066E-03     50.8612E-03     358.325E-03     66.4853E+06     6.26435E+06    -8.36215E+06    -65.7300E+06    -63.9006E+06    -10.1916E+06     6.26435E+06     560.698E+03
             691     42.1101E-03     6.76724E-03     41.5628E-03     336.034E-03    -167.343E-03    -168.690E-03    -167.105E-03     335.122E-03    -168.016E-03     42.7005E-03     354.057E-03     58.4337E+06    -10.1618E+06    -41.2170E+06    -76.3311E+06    -73.3412E+06    -44.2069E+06    -10.1618E+06    -2.09008E+06
             692     41.9411E-03     5.92002E-03     41.5212E-03     335.119E-03    -166.819E-03    -168.300E-03    -166.441E-03     334.524E-03    -168.083E-03     34.1623E-03     349.977E-03     56.9113E+06    -28.3419E+06    -71.5418E+06    -92.6335E+06    -82.2995E+06    -81.8758E+06    -28.3419E+06    -4.76741E+06
             693     41.7906E-03     5.07112E-03     41.4818E-03     336.302E-03    -167.345E-03    -168.957E-03    -167.874E-03     335.994E-03    -168.119E-03     24.4253E-03     348.049E-03     69.2469E+06    -44.8904E+06    -88.9026E+06    -123.819E+06    -90.0357E+06    -122.686E+06    -44.8904E+06    -4.19729E+06
             694     41.6715E-03     4.22963E-03     41.4563E-03     336.979E-03    -167.912E-03    -169.067E-03    -168.907E-03     336.838E-03    -167.931E-03     16.5633E-03     345.863E-03     84.6485E+06    -60.6808E+06    -97.1177E+06    -157.046E+06    -97.3052E+06    -156.858E+06    -60.6808E+06    -3.32807E+06
             695     41.5708E-03     3.38312E-03     41.4329E-03     335.622E-03    -167.378E-03    -168.245E-03    -167.879E-03     335.557E-03    -167.678E-03     11.1009E-03     341.876E-03     89.6007E+06    -77.0713E+06    -106.000E+06    -177.243E+06    -106.209E+06    -177.034E+06    -77.0713E+06    -50.1775E+03
             696     41.5043E-03     2.53747E-03     41.4266E-03     334.982E-03    -166.741E-03    -168.241E-03    -167.373E-03     334.957E-03    -167.584E-03     5.62201E-03     338.716E-03     98.8353E+06    -90.3299E+06    -111.810E+06    -197.755E+06    -112.105E+06    -197.460E+06    -90.3299E+06     4.73416E+06
             697     41.4562E-03     1.69631E-03     41.4215E-03     335.064E-03    -166.871E-03    -168.193E-03    -167.498E-03     335.052E-03    -167.554E-03     1.83342E-03     336.751E-03     109.776E+06    -103.704E+06    -114.108E+06    -218.134E+06    -113.949E+06    -217.909E+06    -104.088E+06     3.01414E+06
             698     41.4208E-03     845.862E-06     41.4122E-03     335.224E-03    -166.386E-03    -168.838E-03    -166.856E-03     335.217E-03    -168.361E-03    -620.933E-06     335.983E-03     140.552E+06    -113.923E+06    -117.959E+06    -256.436E+06    -115.748E+06    -256.114E+06    -116.455E+06    -3.03242E+06
             699     43.5641E-03     14.3857E-03     41.1204E-03     344.643E-03    -167.976E-03    -176.667E-03    -169.545E-03     337.521E-03    -167.976E-03     120.747E-03     408.957E-03     125.074E+06     133.841E+06     83.6931E+06    -8.48782E+06    -8.20195E+06     83.4072E+06     133.841E+06     1.50533E+06
             700     43.1169E-03     13.5409E-03     40.9355E-03     344.733E-03    -167.869E-03    -176.864E-03    -169.744E-03     337.613E-03    -167.869E-03     120.783E-03     406.725E-03     105.354E+06     107.182E+06     62.8769E+06    -12.9570E+06    -12.5839E+06     62.5038E+06     107.182E+06    -842.831E+03
             701     42.7180E-03     12.6960E-03     40.7877E-03     340.396E-03    -167.785E-03    -172.611E-03    -167.516E-03     335.301E-03    -167.785E-03     101.062E-03     391.112E-03     85.5630E+06     73.7810E+06     30.7237E+06    -24.6519E+06    -23.9530E+06     30.0248E+06     73.7810E+06     2.05423E+06
             702     42.3624E-03     11.8451E-03     40.6727E-03     337.008E-03    -167.831E-03    -169.177E-03    -165.301E-03     333.132E-03    -167.831E-03     88.1791E-03     380.472E-03     72.8814E+06     51.9721E+06     16.1036E+06    -31.7398E+06    -31.0908E+06     15.4545E+06     51.9721E+06     503.778E+03
             703     42.0217E-03     10.9949E-03     40.5578E-03     337.092E-03    -167.963E-03    -169.130E-03    -165.867E-03     333.829E-03    -167.963E-03     80.6028E-03     373.863E-03     70.2320E+06     42.5942E+06     16.7454E+06    -36.6989E+06    -36.5112E+06     16.5577E+06     42.5942E+06    -2.01480E+06
             704     41.7168E-03     10.1494E-03     40.4633E-03     336.883E-03    -168.018E-03    -168.865E-03    -166.383E-03     334.459E-03    -168.076E-03     69.6494E-03     367.827E-03     73.4708E+06     35.9892E+06     15.7631E+06    -45.3894E+06    -45.0443E+06     15.4180E+06     35.9892E+06    -2.11982E+06
             705     41.4292E-03     9.30274E-03     40.3713E-03     336.987E-03    -168.090E-03    -168.896E-03    -166.815E-03     334.963E-03    -168.148E-03     63.7478E-03     364.107E-03     73.6912E+06     31.8977E+06     17.3393E+06    -47.8616E+06    -47.2317E+06     16.7094E+06     31.8977E+06    -1.37466E+06
             706     41.1691E-03     8.45756E-03     40.2910E-03     337.680E-03    -168.149E-03    -169.531E-03    -167.895E-03     336.044E-03    -168.149E-03     57.2802E-03     361.515E-03     73.6444E+06     25.1859E+06     13.8844E+06    -53.4286E+06    -52.8979E+06     13.3537E+06     25.1859E+06     1.05931E+06
             707     40.9336E-03     7.61205E-03     40.2196E-03     336.520E-03    -167.727E-03    -168.793E-03    -167.212E-03     335.344E-03    -168.132E-03     48.4979E-03     357.817E-03     70.0413E+06     15.5266E+06    -3.16835E+06    -61.4783E+06    -60.3542E+06    -4.29242E+06     15.5266E+06     2.55877E+06
             708     40.7322E-03     6.76290E-03     40.1668E-03     336.018E-03    -167.700E-03    -168.318E-03    -167.076E-03     335.203E-03    -168.127E-03     40.1708E-03     354.172E-03     59.6907E+06    -4.79693E+06    -36.9169E+06    -72.5643E+06    -68.3651E+06    -41.1161E+06    -4.79693E+06     1.53222E+06
             709     40.5531E-03     5.91821E-03     40.1189E-03     336.981E-03    -168.002E-03    -168.979E-03    -168.414E-03     336.440E-03    -168.026E-03     32.7799E-03     351.515E-03     54.1124E+06    -31.1606E+06    -72.3179E+06    -92.2728E+06    -80.5324E+06    -84.0584E+06    -31.1606E+06     65.1507E+03
             710     40.4036E-03     5.07753E-03     40.0833E-03     337.284E-03    -167.764E-03    -169.519E-03    -169.179E-03     336.943E-03    -167.764E-03     25.8999E-03     349.005E-03     62.6461E+06    -51.6914E+06    -91.3092E+06    -122.919E+06    -91.5028E+06    -122.726E+06    -51.6914E+06    -388.256E+03
             711     40.2743E-03     4.23189E-03     40.0513E-03     336.411E-03    -167.431E-03    -168.980E-03    -168.813E-03     336.245E-03    -167.431E-03     17.5531E-03     345.295E-03     83.7269E+06    -61.7023E+06    -97.4070E+06    -156.993E+06    -97.5303E+06    -156.870E+06    -61.7023E+06    -2.34917E+06
             712     40.1855E-03     3.38721E-03     40.0425E-03     334.732E-03    -166.818E-03    -167.914E-03    -167.557E-03     334.676E-03    -167.119E-03     10.2732E-03     340.817E-03     94.3484E+06    -78.4945E+06    -106.134E+06    -182.638E+06    -106.234E+06    -182.538E+06    -78.4945E+06    -1.71565E+06
             713     40.1066E-03     2.53896E-03     40.0262E-03     333.951E-03    -166.184E-03    -167.767E-03    -167.007E-03     333.928E-03    -166.921E-03     6.52979E-03     337.621E-03     94.2921E+06    -95.9182E+06    -111.503E+06    -196.388E+06    -111.694E+06    -196.197E+06    -95.9182E+06    -25.2625E+03
             714     40.0585E-03     1.69144E-03     40.0228E-03     333.911E-03    -166.326E-03    -167.585E-03    -167.137E-03     333.899E-03    -166.762E-03     4.12264E-03     335.586E-03     102.362E+06    -104.828E+06    -115.812E+06    -212.200E+06    -116.098E+06    -211.914E+06    -104.828E+06     2.06145E+06
             715     40.0331E-03     848.121E-06     40.0241E-03     333.405E-03    -165.074E-03    -168.331E-03    -166.491E-03     333.399E-03    -166.907E-03     1.20239E-03     334.074E-03     136.175E+06    -118.566E+06    -127.869E+06    -259.088E+06    -126.689E+06    -258.824E+06    -120.010E+06     5.04018E+06
             716     42.2371E-03     14.3903E-03     39.7101E-03     344.594E-03    -168.000E-03    -176.593E-03    -169.532E-03     337.532E-03    -168.000E-03     120.093E-03     408.889E-03     127.752E+06     135.219E+06     84.5030E+06    -10.0015E+06    -9.86501E+06     84.3665E+06     135.219E+06     566.529E+03
             717     41.8016E-03     13.5442E-03     39.5465E-03     343.661E-03    -167.914E-03    -175.747E-03    -168.496E-03     336.410E-03    -167.914E-03     121.599E-03     406.671E-03     106.228E+06     102.137E+06     58.6730E+06    -18.7141E+06    -18.2863E+06     58.2452E+06     102.137E+06     453.862E+03
             718     41.3810E-03     12.6916E-03     39.3867E-03     339.796E-03    -167.910E-03    -171.886E-03    -166.814E-03     334.724E-03    -167.910E-03     100.542E-03     390.934E-03     84.3148E+06     74.2652E+06     29.8588E+06    -22.8504E+06    -22.3836E+06     29.3920E+06     74.2652E+06    -548.442E+03
             719     41.0288E-03     11.8468E-03     39.2812E-03     339.061E-03    -167.928E-03    -171.133E-03    -167.450E-03     335.378E-03    -167.928E-03     86.3613E-03     381.856E-03     73.9513E+06     58.3090E+06     18.4624E+06    -26.7988E+06    -26.6996E+06     18.3631E+06     58.3090E+06    -1.43633E+06
             720     40.6765E-03     10.9989E-03     39.1613E-03     338.327E-03    -167.711E-03    -170.616E-03    -167.438E-03     335.338E-03    -167.900E-03     77.3704E-03     374.922E-03     69.5243E+06     44.9333E+06     17.5334E+06    -33.5747E+06    -33.5639E+06     17.5226E+06     44.9333E+06    -231.718E+03
             721     40.3593E-03     10.1530E-03     39.0614E-03     336.259E-03    -167.672E-03    -168.586E-03    -166.038E-03     333.974E-03    -167.936E-03     67.6960E-03     367.592E-03     69.8325E+06     36.6817E+06     19.3295E+06    -40.0796E+06    -39.8850E+06     19.1349E+06     36.6817E+06    -977.209E+03
             722     40.0746E-03     9.30513E-03     38.9793E-03     337.009E-03    -167.941E-03    -169.068E-03    -166.811E-03     334.827E-03    -168.016E-03     66.2684E-03     363.813E-03     73.1484E+06     29.0609E+06     14.7472E+06    -50.1810E+06    -49.7786E+06     14.3448E+06     29.0609E+06    -1.23432E+06
             723     39.7947E-03     8.45775E-03     38.8856E-03     337.516E-03    -168.009E-03    -169.507E-03    -167.837E-03     335.846E-03    -168.009E-03     57.3740E-03     360.735E-03     73.4424E+06     20.7074E+06     9.70108E+06    -57.5273E+06    -57.0663E+06     9.24008E+06     20.7074E+06     433.425E+03
             724     39.5651E-03     7.61174E-03     38.8261E-03     336.455E-03    -167.718E-03    -168.738E-03    -167.465E-03     335.423E-03    -167.958E-03     45.4938E-03     357.257E-03     68.2467E+06     10.8653E+06    -6.36379E+06    -63.6258E+06    -63.1340E+06    -6.85557E+06     10.8653E+06     207.039E+03
             725     39.3511E-03     6.76738E-03     38.7649E-03     335.889E-03    -167.468E-03    -168.421E-03    -167.229E-03     335.151E-03    -167.922E-03     38.2708E-03     353.701E-03     59.9811E+06    -5.11361E+06    -39.6196E+06    -73.1010E+06    -70.4313E+06    -42.2893E+06    -5.11361E+06     3.17601E+06
             726     39.1706E-03     5.92215E-03     38.7204E-03     335.864E-03    -167.258E-03    -168.606E-03    -167.454E-03     335.323E-03    -167.869E-03     32.9452E-03     350.754E-03     57.3155E+06    -25.5958E+06    -68.1236E+06    -90.6958E+06    -77.0017E+06    -81.8176E+06    -25.5958E+06     7.40412E+06
             727     39.0106E-03     5.07470E-03     38.6791E-03     335.987E-03    -167.290E-03    -168.697E-03    -167.796E-03     335.576E-03    -167.780E-03     28.5850E-03     347.926E-03     64.1530E+06    -45.4321E+06    -85.8088E+06    -118.864E+06    -87.2311E+06    -117.442E+06    -45.4321E+06     4.48583E+06
             728     38.8874E-03     4.23071E-03     38.6566E-03     336.324E-03    -167.486E-03    -168.838E-03    -168.517E-03     336.094E-03    -167.578E-03     21.0507E-03     345.289E-03     81.2913E+06    -64.5920E+06    -98.2887E+06    -156.059E+06    -98.5338E+06    -155.814E+06    -64.5920E+06     1.52491E+06
             729     38.7870E-03     3.38605E-03     38.6390E-03     336.308E-03    -167.131E-03    -169.178E-03    -169.086E-03     336.217E-03    -167.131E-03     12.8112E-03     342.384E-03     94.5387E+06    -79.0771E+06    -101.465E+06    -181.906E+06    -101.836E+06    -181.535E+06    -79.0771E+06    -1.62110E+06
             730     38.7210E-03     2.54253E-03     38.6374E-03     334.487E-03    -166.106E-03    -168.381E-03    -167.922E-03     334.464E-03    -166.542E-03     6.38466E-03     338.006E-03     96.4188E+06    -96.4157E+06    -108.265E+06    -197.859E+06    -108.650E+06    -197.474E+06    -96.4157E+06    -2.58374E+06
             731     38.6632E-03     1.69385E-03     38.6261E-03     332.729E-03    -165.686E-03    -167.043E-03    -166.545E-03     332.724E-03    -166.179E-03     1.29945E-03     334.381E-03     107.299E+06    -106.562E+06    -117.373E+06    -218.828E+06    -117.762E+06    -218.438E+06    -106.562E+06    -1.02131E+06
             732     38.6365E-03     845.519E-06     38.6273E-03     332.275E-03    -164.218E-03    -168.057E-03    -167.998E-03     332.272E-03    -164.274E-03    -968.345E-06     332.861E-03     139.370E+06    -106.376E+06    -119.868E+06    -251.970E+06    -116.331E+06    -251.564E+06    -110.319E+06     860.302E+03
             733     40.9351E-03     14.3864E-03     38.3238E-03     344.378E-03    -168.031E-03    -176.347E-03    -169.077E-03     337.108E-03    -168.031E-03     121.894E-03     408.455E-03     126.421E+06     137.405E+06     84.6267E+06    -6.74243E+06    -6.60082E+06     84.4851E+06     137.405E+06     658.874E+03
             734     40.4690E-03     13.5361E-03     38.1381E-03     343.783E-03    -167.922E-03    -175.861E-03    -169.068E-03     336.989E-03    -167.922E-03     117.169E-03     407.219E-03     105.321E+06     98.9843E+06     56.9039E+06    -20.7450E+06    -19.9742E+06     56.1331E+06     98.9843E+06    -854.006E+03
             735     40.0652E-03     12.6931E-03     38.0014E-03     339.933E-03    -167.842E-03    -172.092E-03    -167.514E-03     335.356E-03    -167.842E-03     95.8341E-03     391.395E-03     84.7278E+06     67.5007E+06     29.1932E+06    -29.3575E+06    -28.5534E+06     28.3891E+06     67.5007E+06    -2.27169E+06
             736     39.6811E-03     11.8422E-03     37.8729E-03     338.970E-03    -167.574E-03    -171.396E-03    -167.531E-03     335.366E-03    -167.835E-03     85.4041E-03     382.031E-03     74.6926E+06     58.6798E+06     22.5414E+06    -26.8112E+06    -26.6695E+06     22.3997E+06     58.6798E+06    -2.36384E+06
             737     39.3322E-03     11.0039E-03     37.7615E-03     337.947E-03    -167.384E-03    -170.562E-03    -166.995E-03     334.830E-03    -167.835E-03     79.1529E-03     374.947E-03     71.6522E+06     50.0068E+06     21.7109E+06    -30.9152E+06    -30.8635E+06     21.6591E+06     50.0068E+06    -1.15336E+06
             738     39.0168E-03     10.1522E-03     37.6729E-03     337.602E-03    -167.561E-03    -170.041E-03    -167.308E-03     335.133E-03    -167.825E-03     70.2385E-03     368.697E-03     72.5575E+06     37.2234E+06     18.6193E+06    -42.5491E+06    -41.5211E+06     17.5914E+06     37.2234E+06     1.81804E+06
             739     38.7112E-03     9.30373E-03     37.5766E-03     337.700E-03    -167.686E-03    -170.014E-03    -167.917E-03     335.677E-03    -167.760E-03     63.7286E-03     363.966E-03     71.9100E+06     24.8496E+06     14.2023E+06    -51.6232E+06    -50.3138E+06     12.9805E+06     24.7620E+06     1.39620E+06
             740     38.4314E-03     8.46016E-03     37.4886E-03     336.472E-03    -167.679E-03    -168.793E-03    -167.271E-03     334.951E-03    -167.679E-03     54.7376E-03     359.344E-03     68.0264E+06     12.9067E+06     8.50913E+06    -57.0705E+06    -56.6926E+06     8.21878E+06     12.8191E+06    -1.10546E+06
             741     38.1904E-03     7.61552E-03     37.4234E-03     335.756E-03    -167.516E-03    -168.241E-03    -167.101E-03     334.752E-03    -167.651E-03     44.8582E-03     356.152E-03     62.4759E+06     2.29687E+06    -12.7643E+06    -64.5300E+06    -64.2947E+06    -12.9996E+06     2.29687E+06    -335.041E+03
             742     37.9768E-03     6.76950E-03     37.3686E-03     335.063E-03    -167.058E-03    -168.005E-03    -166.582E-03     334.279E-03    -167.697E-03     39.5525E-03     352.358E-03     61.5992E+06    -4.53485E+06    -46.6411E+06    -72.9706E+06    -71.2408E+06    -48.3708E+06    -4.53485E+06     2.62558E+06
             743     37.7896E-03     5.92118E-03     37.3229E-03     334.756E-03    -166.865E-03    -167.891E-03    -166.408E-03     334.175E-03    -167.766E-03     33.9636E-03     349.533E-03     64.1741E+06    -17.0906E+06    -70.0881E+06    -87.5981E+06    -78.8743E+06    -78.8119E+06    -17.0906E+06     5.92267E+06
             744     37.6278E-03     5.07415E-03     37.2841E-03     334.876E-03    -166.944E-03    -167.932E-03    -166.714E-03     334.522E-03    -167.808E-03     25.8905E-03     346.655E-03     66.1204E+06    -38.3304E+06    -81.8568E+06    -112.824E+06    -84.9385E+06    -109.742E+06    -38.3304E+06     5.47374E+06
             745     37.4934E-03     4.22634E-03     37.2545E-03     335.092E-03    -166.790E-03    -168.302E-03    -167.061E-03     334.914E-03    -167.852E-03     18.4181E-03     343.907E-03     80.3352E+06    -58.9354E+06    -90.8892E+06    -149.112E+06    -91.2611E+06    -148.740E+06    -58.9354E+06     4.42252E+06
             746     37.3932E-03     3.38242E-03     37.2399E-03     336.306E-03    -167.132E-03    -169.174E-03    -168.482E-03     336.211E-03    -167.729E-03     13.3192E-03     342.608E-03     95.7332E+06    -77.6397E+06    -103.148E+06    -183.124E+06    -103.774E+06    -182.498E+06    -77.6397E+06     2.60625E+06
             747     37.3203E-03     2.53961E-03     37.2338E-03     336.465E-03    -167.194E-03    -169.272E-03    -169.232E-03     336.426E-03    -167.194E-03     8.53787E-03     340.304E-03     102.439E+06    -90.7475E+06    -111.504E+06    -201.638E+06    -112.056E+06    -201.086E+06    -90.7475E+06     922.833E+03
             748     37.2763E-03     1.69811E-03     37.2376E-03     334.198E-03    -166.385E-03    -167.813E-03    -167.726E-03     334.167E-03    -166.441E-03     5.56105E-03     336.117E-03     108.336E+06    -102.658E+06    -116.085E+06    -216.764E+06    -114.882E+06    -216.442E+06    -104.183E+06     93.8786E+03
             749     37.2441E-03     850.221E-06     37.2344E-03     332.288E-03    -164.772E-03    -167.516E-03    -167.431E-03     332.264E-03    -164.833E-03     2.86685E-03     333.100E-03     138.370E+06    -112.681E+06    -125.755E+06    -257.110E+06    -120.733E+06    -256.664E+06    -118.149E+06    -3.99473E+06
             750     39.6218E-03     14.3862E-03     36.9178E-03     344.777E-03    -168.007E-03    -176.770E-03    -169.756E-03     337.763E-03    -168.007E-03     119.577E-03     408.760E-03     126.998E+06     137.588E+06     81.0959E+06    -7.85244E+06    -7.63106E+06     80.8745E+06     137.588E+06     763.140E+03
             751     39.1604E-03     13.5473E-03     36.7425E-03     344.070E-03    -167.869E-03    -176.201E-03    -169.495E-03     337.364E-03    -167.869E-03     116.468E-03     407.362E-03     104.880E+06     106.418E+06     61.0316E+06    -13.4273E+06    -12.5618E+06     60.1661E+06     106.418E+06     878.813E+03
             752     38.7431E-03     12.6969E-03     36.6035E-03     340.637E-03    -167.741E-03    -172.896E-03    -168.116E-03     335.857E-03    -167.741E-03     98.2329E-03     391.836E-03     85.2893E+06     73.5472E+06     37.5603E+06    -23.7565E+06    -22.9010E+06     36.7049E+06     73.5472E+06    -1.18960E+06
             753     38.3547E-03     11.8551E-03     36.4765E-03     337.545E-03    -167.477E-03    -170.068E-03    -165.978E-03     333.716E-03    -167.738E-03     87.4630E-03     381.177E-03     75.0385E+06     52.4129E+06     20.9876E+06    -33.1258E+06    -33.0529E+06     20.9147E+06     52.4129E+06    -1.11930E+06
             754     37.9983E-03     10.9934E-03     36.3733E-03     337.877E-03    -167.525E-03    -170.352E-03    -166.971E-03     334.757E-03    -167.786E-03     79.2598E-03     374.645E-03     71.0768E+06     39.7519E+06     13.6306E+06    -40.3511E+06    -40.2854E+06     13.5649E+06     39.7519E+06    -453.964E+03
             755     37.6571E-03     10.1523E-03     36.2628E-03     340.345E-03    -167.667E-03    -172.678E-03    -170.265E-03     337.932E-03    -167.667E-03     69.7157E-03     370.940E-03     73.0975E+06     35.7011E+06     17.8766E+06    -44.3478E+06    -42.8943E+06     16.4231E+06     35.7011E+06     510.028E+03
             756     37.3593E-03     9.31543E-03     36.1793E-03     338.454E-03    -167.388E-03    -171.066E-03    -169.219E-03     336.607E-03    -167.388E-03     61.1802E-03     364.850E-03     70.5755E+06     25.4994E+06     18.2277E+06    -48.2732E+06    -46.2855E+06     16.3275E+06     25.4118E+06     1.11315E+06
             757     37.0733E-03     8.46519E-03     36.0939E-03     334.949E-03    -166.806E-03    -168.143E-03    -166.191E-03     333.451E-03    -167.260E-03     54.4742E-03     357.918E-03     67.2018E+06     11.0242E+06     8.10728E+06    -57.5362E+06    -56.9029E+06     7.56152E+06     10.9366E+06     1.98268E+06
             758     36.8211E-03     7.61617E-03     36.0248E-03     333.670E-03    -166.304E-03    -167.366E-03    -165.296E-03     332.661E-03    -167.365E-03     44.6443E-03     353.993E-03     66.4226E+06     3.61754E+06    -10.6969E+06    -67.1757E+06    -66.8911E+06    -10.9814E+06     3.61754E+06     2.07864E+06
             759     36.6050E-03     6.76826E-03     35.9738E-03     334.281E-03    -166.601E-03    -167.681E-03    -166.037E-03     333.536E-03    -167.499E-03     38.5453E-03     351.420E-03     64.6880E+06    -8.93785E+06    -49.2224E+06    -79.8626E+06    -76.7733E+06    -52.3117E+06    -8.93785E+06    -406.433E+03
             760     36.4096E-03     5.92236E-03     35.9248E-03     335.181E-03    -167.230E-03    -167.951E-03    -167.108E-03     334.629E-03    -167.521E-03     33.0831E-03     349.402E-03     63.2807E+06    -20.4618E+06    -73.4664E+06    -89.8240E+06    -80.1657E+06    -83.1248E+06    -20.4618E+06    -2.79091E+06
             761     36.2421E-03     5.07851E-03     35.8845E-03     334.841E-03    -167.082E-03    -167.759E-03    -167.086E-03     334.542E-03    -167.456E-03     23.7898E-03     346.422E-03     68.0107E+06    -34.6087E+06    -79.9604E+06    -111.195E+06    -82.6361E+06    -108.519E+06    -34.6087E+06     786.686E+03
             762     36.1110E-03     4.23234E-03     35.8621E-03     333.619E-03    -166.040E-03    -167.580E-03    -165.974E-03     333.499E-03    -167.525E-03     15.1925E-03     342.172E-03     83.4123E+06    -53.5070E+06    -92.4646E+06    -148.641E+06    -93.0893E+06    -148.016E+06    -53.5070E+06     5.48718E+06
             763     35.9998E-03     3.38139E-03     35.8406E-03     333.125E-03    -165.148E-03    -167.977E-03    -165.168E-03     333.068E-03    -167.901E-03     10.0987E-03     339.345E-03     96.2800E+06    -70.7447E+06    -101.142E+06    -178.242E+06    -101.698E+06    -177.686E+06    -70.7447E+06     5.40868E+06
             764     35.9231E-03     2.53398E-03     35.8336E-03     334.746E-03    -165.759E-03    -168.987E-03    -166.206E-03     334.714E-03    -168.508E-03     7.67155E-03     338.868E-03     103.068E+06    -85.6533E+06    -106.227E+06    -197.115E+06    -106.562E+06    -196.779E+06    -85.6533E+06     3.16809E+06
             765     35.8770E-03     1.68680E-03     35.8373E-03     337.312E-03    -167.678E-03    -169.634E-03    -168.339E-03     337.280E-03    -168.941E-03     6.96308E-03     339.394E-03     106.176E+06    -99.5208E+06    -114.269E+06    -211.974E+06    -112.927E+06    -211.791E+06    -101.045E+06     1.78094E+06
             766     35.8511E-03     843.550E-06     35.8412E-03     338.223E-03    -167.242E-03    -170.980E-03    -167.508E-03     338.198E-03    -170.690E-03     5.75855E-03     339.205E-03     140.226E+06    -110.159E+06    -126.231E+06    -257.673E+06    -119.614E+06    -257.227E+06    -117.222E+06     1.34789E+06
             767     38.3324E-03     14.3941E-03     35.5272E-03     343.531E-03    -168.006E-03    -175.525E-03    -167.928E-03     335.934E-03    -168.006E-03     123.722E-03     408.121E-03     123.708E+06     131.865E+06     77.2275E+06    -9.74265E+06    -9.57407E+06     77.0589E+06     131.865E+06    -2.14390E+06
             768     37.8454E-03     13.5358E-03     35.3420E-03     343.789E-03    -167.995E-03    -175.794E-03    -168.104E-03     336.099E-03    -167.995E-03     124.754E-03     406.586E-03     101.377E+06     99.5926E+06     55.0206E+06    -16.3576E+06    -15.8931E+06      54.556E+06     99.5926E+06     1.35737E+06
             769     37.4211E-03     12.6946E-03     35.2020E-03     341.703E-03    -167.968E-03    -173.735E-03    -168.370E-03     336.338E-03    -167.968E-03     104.355E-03     392.270E-03     82.9126E+06      75.129E+06     38.9828E+06    -19.6330E+06    -19.2145E+06     38.5643E+06      75.129E+06     1.76948E+06
             770     37.0287E-03     11.8399E-03     35.0847E-03     342.166E-03    -167.856E-03    -174.311E-03    -170.306E-03     338.161E-03    -167.856E-03     90.2062E-03     385.396E-03     76.5615E+06     59.4860E+06     25.8436E+06    -28.0619E+06    -27.8792E+06     25.6609E+06     59.4860E+06     1.85895E+06
             771     36.6644E-03     11.0053E-03     34.9737E-03     341.449E-03    -167.588E-03    -173.861E-03    -170.980E-03     338.568E-03    -167.588E-03     76.5961E-03     377.714E-03     72.2512E+06     46.3562E+06     20.0113E+06    -35.0557E+06    -34.7532E+06     19.7088E+06     46.3562E+06     983.130E+03
             772     36.3096E-03     10.1591E-03     34.8594E-03     338.001E-03    -166.955E-03    -171.045E-03    -168.376E-03     335.695E-03    -167.319E-03     68.2382E-03     368.441E-03     68.2293E+06     29.4255E+06     16.0584E+06    -44.1064E+06    -42.8797E+06     14.8316E+06     29.4255E+06    -1.20605E+06
             773     36.0013E-03     9.30949E-03     34.7768E-03     337.134E-03    -166.802E-03    -170.332E-03    -167.978E-03     335.145E-03    -167.167E-03     63.2056E-03     363.637E-03     69.5990E+06     17.2224E+06     9.55996E+06    -55.7312E+06    -54.2769E+06     8.10565E+06     17.2224E+06     2.57687E+06
             774     35.7181E-03     8.46826E-03     34.6997E-03     335.810E-03    -166.629E-03    -169.181E-03    -167.186E-03     334.268E-03    -167.082E-03     55.4504E-03     358.970E-03     72.4980E+06     16.2990E+06     7.03470E+06    -60.3002E+06    -59.8104E+06     6.54500E+06     16.2990E+06     5.00231E+06
             775     35.4612E-03     7.61988E-03     34.6328E-03     334.000E-03    -166.143E-03    -167.857E-03    -165.890E-03     332.959E-03    -167.069E-03     45.2672E-03     354.015E-03     69.0035E+06     11.0221E+06     -4.8251E+06    -63.7287E+06    -63.4241E+06    -5.12973E+06     11.0221E+06     2.80264E+06
             776     35.2339E-03     6.77193E-03     34.5770E-03     334.529E-03    -166.557E-03    -167.973E-03    -166.823E-03     333.851E-03    -167.029E-03     36.7002E-03     351.710E-03     57.6601E+06    -7.62288E+06    -38.8260E+06    -71.7845E+06     -69.554E+06    -41.0565E+06    -7.62288E+06    -2.64412E+06
             777     35.0310E-03     5.92629E-03     34.5261E-03     333.886E-03    -166.318E-03    -167.569E-03    -166.437E-03     333.418E-03    -166.981E-03     30.3522E-03     348.230E-03     60.7103E+06    -24.8737E+06    -71.5771E+06    -93.3973E+06    -78.3972E+06    -86.5772E+06    -24.8737E+06    -4.70150E+06
             778     34.8598E-03     5.07839E-03     34.4879E-03     332.862E-03    -165.638E-03    -167.223E-03    -165.521E-03     332.565E-03    -167.044E-03     24.0454E-03     344.715E-03     72.4207E+06    -40.1081E+06    -89.7945E+06    -122.919E+06    -90.8282E+06    -121.885E+06    -40.1081E+06    -521.405E+03
             779     34.7233E-03     4.23262E-03     34.4644E-03     332.888E-03    -165.633E-03    -167.254E-03    -165.517E-03     332.717E-03    -167.199E-03     18.0524E-03     341.764E-03     78.8484E+06    -58.3764E+06    -98.1458E+06    -148.523E+06    -98.6300E+06    -148.039E+06    -58.3764E+06     3.36456E+06
             780     34.6170E-03     3.38790E-03     34.4509E-03     332.526E-03    -164.950E-03    -167.576E-03    -164.878E-03     332.454E-03    -167.576E-03     10.8523E-03     338.654E-03     87.5270E+06    -74.0881E+06    -100.311E+06    -171.358E+06    -100.585E+06    -171.084E+06    -74.0881E+06     2.89543E+06
             781     34.5357E-03     2.53364E-03     34.4426E-03     333.323E-03    -164.947E-03    -168.376E-03    -164.931E-03     333.306E-03    -168.376E-03     4.21656E-03     337.067E-03     95.1472E+06    -90.6609E+06    -106.211E+06    -192.366E+06    -106.315E+06    -192.262E+06    -90.6609E+06     716.556E+03
             782     34.4726E-03     1.68542E-03     34.4313E-03     336.636E-03    -167.175E-03    -169.461E-03    -167.167E-03     336.628E-03    -169.461E-03    -83.9716E-06     338.463E-03     105.827E+06    -100.786E+06    -112.511E+06    -211.845E+06    -112.694E+06    -211.662E+06    -100.786E+06     1.29287E+06
             783     34.4441E-03     841.875E-06     34.4338E-03     340.123E-03    -166.307E-03    -173.816E-03    -166.300E-03     340.116E-03    -173.816E-03    -980.494E-06     341.054E-03     139.370E+06    -104.740E+06    -122.506E+06    -252.050E+06    -117.255E+06    -251.762E+06    -110.279E+06     2.61062E+06
             784     37.0348E-03     14.3787E-03     34.1296E-03     342.455E-03    -168.102E-03    -174.353E-03    -166.872E-03     334.975E-03    -168.102E-03     122.911E-03     407.494E-03     122.052E+06     132.802E+06     80.9694E+06    -6.54731E+06    -6.47453E+06     80.8967E+06     132.802E+06     143.365E+03
             785     36.5482E-03     13.5383E-03     33.9483E-03     343.267E-03    -168.101E-03    -175.166E-03    -168.229E-03     336.330E-03    -168.101E-03     117.807E-03     405.898E-03     99.6100E+06     95.7919E+06     53.3911E+06    -17.8416E+06    -17.7493E+06     53.2988E+06     95.7919E+06    -425.115E+03
             786     36.1040E-03     12.6821E-03     33.8033E-03     341.695E-03    -168.008E-03    -173.687E-03    -169.210E-03     337.217E-03    -168.008E-03     95.0633E-03     391.684E-03     81.7117E+06     65.6204E+06     29.7440E+06    -27.7676E+06    -27.6286E+06     29.6049E+06     65.6204E+06    -1.49526E+06
             787     35.7024E-03     11.8469E-03     33.6795E-03     343.549E-03    -167.769E-03    -175.780E-03    -172.147E-03     339.916E-03    -167.769E-03     86.4240E-03     386.194E-03     73.6627E+06     51.0519E+06     20.7990E+06    -32.8696E+06    -32.3994E+06     20.3288E+06     51.0519E+06     1.90759E+06
             788     35.3121E-03     11.0070E-03     33.5528E-03     341.332E-03    -167.440E-03    -173.893E-03    -170.871E-03     338.311E-03    -167.440E-03     78.3877E-03     378.125E-03     72.7544E+06     42.2467E+06     19.9232E+06    -38.6565E+06    -36.7840E+06     18.0507E+06     42.2467E+06    -2.96767E+06
             789     34.9910E-03     10.1627E-03     33.4827E-03     338.065E-03    -166.862E-03    -171.203E-03    -168.227E-03     335.454E-03    -167.226E-03     72.6156E-03     368.666E-03     74.3014E+06     36.4566E+06     20.6781E+06    -43.9129E+06    -40.3845E+06     17.1498E+06     36.4566E+06     1.68534E+06
             790     34.6464E-03     9.31214E-03     33.3715E-03     336.856E-03    -166.595E-03    -170.261E-03    -167.733E-03     334.847E-03    -167.115E-03     62.8181E-03     362.822E-03     74.8145E+06     31.2217E+06     17.2175E+06    -49.2922E+06    -47.2137E+06     15.1390E+06     31.2217E+06     9.17791E+06
             791     34.3618E-03     8.46546E-03     33.3026E-03     335.966E-03    -166.820E-03    -169.146E-03    -167.640E-03     334.615E-03    -166.975E-03     52.1078E-03     359.461E-03     72.5215E+06     23.5696E+06     11.7282E+06    -54.1263E+06    -53.7921E+06     11.3941E+06     23.5696E+06     1.07534E+06
             792     34.0987E-03     7.62091E-03     33.2362E-03     335.737E-03    -166.774E-03    -168.963E-03    -167.877E-03     334.650E-03    -166.774E-03     46.4959E-03     355.931E-03     63.6370E+06     11.0152E+06    -5.62748E+06    -58.5384E+06    -58.1021E+06    -6.06379E+06     11.0152E+06    -2.26192E+06
             793     33.8627E-03     6.77805E-03     33.1774E-03     334.601E-03    -166.569E-03    -168.033E-03    -167.278E-03     333.847E-03    -166.569E-03     38.7038E-03     352.041E-03     57.0373E+06    -3.15227E+06    -33.9093E+06    -67.7658E+06    -66.7784E+06    -34.8967E+06    -3.15227E+06    -868.190E+03
             794     33.6593E-03     5.93186E-03     33.1325E-03     332.437E-03    -165.541E-03    -166.896E-03    -165.449E-03     331.946E-03    -166.498E-03     30.6745E-03     347.057E-03     64.2201E+06    -23.6287E+06    -69.0717E+06      -96.61E+06    -81.7766E+06    -83.9050E+06    -23.6287E+06     2.79686E+06
             795     33.4865E-03     5.08210E-03     33.0986E-03     330.492E-03    -163.778E-03    -166.714E-03    -163.489E-03     330.203E-03    -166.714E-03     23.8607E-03     342.359E-03     71.9242E+06    -45.8320E+06    -92.7877E+06    -128.233E+06    -93.0559E+06    -127.965E+06    -45.8320E+06     1.85728E+06
             796     33.3386E-03     4.23019E-03     33.0692E-03     331.557E-03    -164.409E-03    -167.148E-03    -164.220E-03     331.368E-03    -167.148E-03     18.9225E-03     340.549E-03     77.8555E+06    -59.5859E+06    -95.3123E+06    -148.446E+06    -95.3759E+06    -148.383E+06    -59.5859E+06    -28.2203E+03
             797     33.2272E-03     3.38076E-03     33.0548E-03     334.476E-03    -166.413E-03    -168.063E-03    -167.065E-03     334.399E-03    -167.334E-03     11.6247E-03     340.597E-03     81.4658E+06    -79.6329E+06    -103.171E+06    -169.959E+06    -103.233E+06    -169.898E+06    -79.6329E+06     902.092E+03
             798     33.1430E-03     2.54209E-03     33.0453E-03     334.766E-03    -166.516E-03    -168.249E-03    -167.547E-03     334.744E-03    -167.196E-03     5.21390E-03     338.295E-03     87.6723E+06    -98.1662E+06    -112.097E+06    -191.726E+06    -112.192E+06    -191.630E+06    -98.1662E+06     710.597E+03
             799     33.0815E-03     1.69570E-03     33.0380E-03     333.738E-03    -166.077E-03    -167.660E-03    -166.380E-03     333.717E-03    -167.337E-03     2.32205E-03     335.474E-03     103.368E+06    -105.495E+06    -115.120E+06    -213.234E+06    -115.384E+06    -212.970E+06    -105.495E+06    -659.729E+03
             800     33.0403E-03     846.154E-06     33.0295E-03     335.244E-03    -165.124E-03    -170.120E-03    -165.109E-03     335.228E-03    -170.120E-03    -30.4526E-06     336.044E-03     136.339E+06    -107.422E+06    -123.100E+06    -250.844E+06    -117.927E+06    -250.591E+06    -112.849E+06    -972.061E+03
             801     35.7571E-03     14.3915E-03     32.7331E-03     344.692E-03    -168.023E-03    -176.669E-03    -169.592E-03     337.615E-03    -168.023E-03     119.845E-03     409.790E-03     125.729E+06     134.048E+06     80.2277E+06    -9.57346E+06    -9.50500E+06     80.1593E+06     134.048E+06     553.864E+03
             802     35.2521E-03     13.5398E-03     32.5482E-03     344.988E-03    -167.860E-03    -177.128E-03    -170.634E-03     338.493E-03    -167.860E-03     114.073E-03     408.500E-03     104.509E+06     103.632E+06     57.7159E+06    -15.8551E+06    -15.6930E+06     57.5538E+06     103.632E+06     1.46720E+06
             803     34.8103E-03     12.7031E-03     32.4096E-03     341.790E-03    -167.628E-03    -174.161E-03    -169.827E-03     337.455E-03    -167.628E-03     93.8560E-03     390.869E-03     84.0612E+06     69.9801E+06     31.1016E+06    -26.4177E+06    -24.6782E+06     29.3621E+06     69.9801E+06     4.37906E+06
             804     34.3766E-03     11.8526E-03     32.2686E-03     338.736E-03    -167.387E-03    -171.349E-03    -167.483E-03     334.939E-03    -167.456E-03     87.1560E-03     381.064E-03     68.8882E+06     40.3315E+06     15.7337E+06    -36.9142E+06    -33.8967E+06     12.7162E+06     40.3315E+06     538.249E+03
             805     33.9971E-03     10.9993E-03     32.1686E-03     338.217E-03    -167.324E-03    -170.894E-03    -167.885E-03     335.277E-03    -167.392E-03     76.8382E-03     375.247E-03     66.6416E+06     31.0114E+06     16.9071E+06    -41.1918E+06    -37.8001E+06     13.5155E+06     31.0114E+06    -4.18467E+06
             806     33.6355E-03     10.1521E-03     32.0668E-03     340.402E-03    -167.248E-03    -173.154E-03    -170.738E-03     337.986E-03    -167.248E-03     69.8472E-03     371.998E-03     79.1368E+06     38.9488E+06     21.0362E+06    -47.4394E+06    -42.8836E+06     16.4804E+06     38.9488E+06    -1.19045E+06
             807     33.3082E-03     9.31820E-03     31.9782E-03     337.843E-03    -166.818E-03    -171.026E-03    -169.043E-03     336.015E-03    -166.973E-03     60.1222E-03     364.858E-03     80.3905E+06     42.0933E+06     24.0934E+06    -45.6653E+06    -43.0463E+06     21.4744E+06     42.0933E+06     983.994E+03
             808     33.0121E-03     8.46931E-03     31.9072E-03     334.789E-03    -166.569E-03    -168.219E-03    -166.648E-03     333.407E-03    -166.760E-03     52.5450E-03     358.217E-03     71.5487E+06     26.9856E+06     16.2646E+06    -49.2992E+06    -49.0417E+06     16.0072E+06     26.9856E+06    -973.656E+03
             809     32.7335E-03     7.62438E-03     31.8332E-03     334.481E-03    -166.428E-03    -168.053E-03    -166.649E-03     333.300E-03    -166.652E-03     48.4243E-03     354.922E-03     66.3905E+06     8.90932E+06    -4.75277E+06    -63.0502E+06    -62.6402E+06    -5.16279E+06     8.90932E+06    -1.25838E+06
             810     32.4994E-03     6.77671E-03     31.7850E-03     333.789E-03    -166.393E-03    -167.396E-03    -166.298E-03     332.879E-03    -166.581E-03     42.5611E-03     351.513E-03     61.2663E+06    -5.19563E+06    -36.1643E+06    -73.0158E+06    -72.2285E+06    -36.9516E+06    -5.19563E+06     2.37517E+06
             811     32.2843E-03     5.92895E-03     31.7352E-03     333.137E-03    -166.269E-03    -166.869E-03    -165.977E-03     332.539E-03    -166.562E-03     33.9238E-03     347.898E-03     67.4207E+06    -19.6829E+06    -68.2481E+06    -95.4908E+06    -78.4967E+06    -85.2422E+06    -19.6829E+06     4.17282E+06
             812     32.1151E-03     5.08276E-03     31.7103E-03     332.359E-03    -165.058E-03    -167.301E-03    -165.461E-03     332.050E-03    -166.588E-03     24.6691E-03     344.163E-03     75.2522E+06    -34.9179E+06    -83.0481E+06    -121.392E+06    -83.6682E+06    -120.772E+06    -34.9179E+06     4.36786E+06
             813     31.9617E-03     4.23308E-03     31.6801E-03     332.176E-03    -164.867E-03    -167.309E-03    -165.338E-03     332.010E-03    -166.672E-03     17.5495E-03     340.987E-03     80.4957E+06    -55.0481E+06    -92.5275E+06    -147.017E+06    -93.0148E+06    -146.530E+06    -55.0481E+06     3.01563E+06
             814     31.8347E-03     3.38755E-03     31.6540E-03     332.875E-03    -165.424E-03    -167.451E-03    -166.099E-03     332.821E-03    -166.722E-03     9.79907E-03     338.852E-03     81.3471E+06    -80.9898E+06    -105.798E+06    -171.509E+06    -105.938E+06    -171.369E+06    -80.9898E+06     489.473E+03
             815     31.7469E-03     2.53877E-03     31.6453E-03     333.655E-03    -165.919E-03    -167.736E-03    -166.988E-03     333.636E-03    -166.649E-03     5.98149E-03     337.229E-03     89.7935E+06    -92.4755E+06    -107.262E+06    -188.499E+06    -107.381E+06    -188.381E+06    -92.4755E+06    -378.477E+03
             816     31.6920E-03     1.69335E-03     31.6468E-03     333.429E-03    -166.150E-03    -167.279E-03    -167.022E-03     333.408E-03    -166.387E-03     6.01029E-03     335.160E-03     104.951E+06    -103.351E+06    -112.556E+06    -212.421E+06    -112.761E+06    -212.216E+06    -103.351E+06    -1.53670E+06
             817     31.6471E-03     847.123E-06     31.6358E-03     332.514E-03    -165.513E-03    -167.002E-03    -166.032E-03     332.500E-03    -166.467E-03     4.28289E-03     333.236E-03     134.384E+06    -115.708E+06    -126.031E+06    -254.859E+06    -120.891E+06    -254.572E+06    -121.135E+06    -2.81755E+06
             818     34.4908E-03     14.3885E-03     31.3462E-03     347.189E-03    -167.915E-03    -179.274E-03    -171.691E-03     339.607E-03    -167.915E-03     123.331E-03     411.783E-03     125.629E+06     133.803E+06     79.7039E+06    -9.78982E+06    -9.60778E+06     79.5218E+06     133.803E+06     1.18820E+06
             819     33.9582E-03     13.5472E-03     31.1390E-03     347.644E-03    -167.662E-03    -179.982E-03    -172.531E-03     340.193E-03    -167.662E-03     122.107E-03     410.516E-03     106.686E+06     104.682E+06      56.358E+06    -17.4910E+06    -17.1543E+06     56.0213E+06     104.682E+06     3.16397E+06
             820     33.5094E-03     12.6989E-03     31.0099E-03     342.145E-03    -167.386E-03    -174.759E-03    -170.228E-03     337.614E-03    -167.386E-03     96.1873E-03     391.221E-03     87.3363E+06     77.3663E+06     34.8409E+06    -23.0426E+06    -20.8049E+06     32.6031E+06     77.3663E+06     3.65695E+06
             821     33.0767E-03     11.8514E-03     30.8806E-03     338.405E-03    -167.145E-03    -171.261E-03    -167.559E-03     334.772E-03    -167.213E-03     84.9444E-03     382.022E-03     73.9654E+06     59.8157E+06     29.5179E+06    -23.7331E+06    -20.2912E+06     26.0760E+06     59.8157E+06    -939.810E+03
             822     32.6802E-03     11.0058E-03     30.7712E-03     337.899E-03    -167.023E-03    -170.876E-03    -168.196E-03     335.288E-03    -167.092E-03     72.5826E-03     374.580E-03     70.9256E+06     44.7521E+06     23.2014E+06    -33.8668E+06    -30.7667E+06     20.1013E+06     44.7521E+06     4.63240E+06
             823     32.3018E-03     10.1671E-03     30.6600E-03     337.352E-03    -166.779E-03    -170.573E-03    -168.318E-03     335.202E-03    -166.884E-03     65.6832E-03     368.856E-03     70.8586E+06     27.3379E+06     8.27122E+06    -51.0538E+06    -47.3947E+06     8.68316E+06     23.2669E+06    -700.928E+03
             824     31.9688E-03     9.31450E-03     30.5818E-03     335.636E-03    -166.635E-03    -169.001E-03    -167.138E-03     333.879E-03    -166.741E-03     59.3657E-03     363.479E-03     70.9420E+06     23.0098E+06     8.11019E+06    -54.1189E+06    -52.0936E+06     10.1559E+06     18.9388E+06    -9.46753E+06
             825     31.6625E-03     8.47173E-03     30.5081E-03     334.408E-03    -166.679E-03    -167.729E-03    -166.164E-03     332.879E-03    -166.715E-03     55.2749E-03     357.825E-03     73.3256E+06     23.6720E+06     13.1240E+06    -54.3359E+06    -54.2184E+06     13.0065E+06     23.6720E+06    -1.86878E+06
             826     31.3842E-03     7.62063E-03     30.4449E-03     333.376E-03    -166.490E-03    -166.886E-03    -165.445E-03     332.158E-03    -166.713E-03     49.1290E-03     353.474E-03     66.0173E+06     10.6511E+06    -3.52567E+06    -60.9904E+06    -60.7982E+06    -3.71789E+06     10.6511E+06     372.393E+03
             827     31.1305E-03     6.77217E-03     30.3850E-03     333.263E-03    -166.276E-03    -166.987E-03    -165.664E-03     332.430E-03    -166.766E-03     40.1730E-03     350.773E-03     58.1512E+06    -4.47695E+06    -42.2569E+06    -66.8392E+06    -66.4301E+06    -42.6660E+06    -4.47695E+06     911.093E+03
             828     30.9169E-03     5.92642E-03     30.3436E-03     333.569E-03    -166.488E-03    -167.081E-03    -166.261E-03     333.051E-03    -166.790E-03     31.7491E-03     348.601E-03     64.5092E+06    -19.3076E+06    -72.6735E+06    -89.5362E+06    -74.1633E+06    -88.0463E+06    -19.3076E+06     3.17152E+06
             829     30.7324E-03     5.07978E-03     30.3097E-03     334.845E-03    -166.607E-03    -168.238E-03    -167.907E-03     334.515E-03    -166.607E-03     25.5542E-03     346.801E-03     74.4783E+06    -35.0909E+06    -83.4144E+06    -120.687E+06    -84.4432E+06    -119.658E+06    -35.0909E+06     4.47958E+06
             830     30.5799E-03     4.24007E-03     30.2845E-03     333.956E-03    -166.138E-03    -167.819E-03    -167.503E-03     333.759E-03    -166.255E-03     19.6015E-03     342.686E-03     83.6108E+06    -48.9365E+06    -90.7824E+06    -144.870E+06    -91.2899E+06    -144.362E+06    -48.9365E+06     3.64893E+06
             831     30.4534E-03     3.39071E-03     30.2640E-03     331.220E-03    -164.966E-03    -166.254E-03    -164.983E-03     331.127E-03    -166.144E-03     12.6968E-03     337.111E-03     88.7006E+06    -62.9419E+06    -92.8597E+06    -162.322E+06    -93.1120E+06    -162.070E+06    -62.9419E+06     2.64780E+06
             832     30.3611E-03     2.54081E-03     30.2546E-03     331.754E-03    -165.235E-03    -166.519E-03    -165.432E-03     331.728E-03    -166.296E-03     6.65065E-03     335.333E-03     94.6662E+06    -86.5036E+06    -103.791E+06    -188.262E+06    -103.982E+06    -188.071E+06    -86.5036E+06     223.277E+03
             833     30.2929E-03     1.69344E-03     30.2455E-03     333.448E-03    -166.012E-03    -167.436E-03    -167.428E-03     333.440E-03    -166.012E-03     3.18333E-03     335.127E-03     106.252E+06    -102.066E+06    -114.762E+06    -213.795E+06    -114.839E+06    -213.718E+06    -102.066E+06    -310.257E+03
             834     30.2576E-03     848.935E-06     30.2457E-03     331.358E-03    -164.682E-03    -166.676E-03    -166.643E-03     331.348E-03    -164.706E-03     280.667E-06     332.012E-03     137.407E+06    -112.473E+06    -123.304E+06    -254.722E+06    -121.013E+06    -254.547E+06    -114.939E+06    -1.14998E+06
             835     33.2209E-03     14.3891E-03     29.9430E-03     347.912E-03    -167.876E-03    -180.036E-03    -172.511E-03     340.387E-03    -167.876E-03     123.076E-03     412.626E-03     123.007E+06     130.870E+06     78.3077E+06    -9.66449E+06    -9.46687E+06     78.1100E+06     130.870E+06     1.90854E+06
             836     32.6748E-03     13.5416E-03     29.7366E-03     348.408E-03    -167.549E-03    -180.859E-03    -173.642E-03     341.192E-03    -167.549E-03     119.885E-03     411.443E-03     102.376E+06     101.085E+06     55.0995E+06    -16.0895E+06    -15.1393E+06     54.1492E+06     101.085E+06    -1.18574E+06
             837     32.2171E-03     12.7022E-03     29.6073E-03     342.722E-03    -167.198E-03    -175.524E-03    -171.543E-03     338.741E-03    -167.198E-03     90.4140E-03     392.473E-03     86.6186E+06     82.6108E+06     40.1419E+06    -16.9635E+06    -15.6143E+06     38.7927E+06     82.6108E+06    -5.36978E+06
             838     31.7800E-03     11.8604E-03     29.4839E-03     340.443E-03    -166.889E-03    -173.554E-03    -170.173E-03     337.062E-03    -166.889E-03     82.8620E-03     384.636E-03     82.5312E+06     67.5055E+06     26.4603E+06    -27.4904E+06    -26.4593E+06     25.4292E+06     67.5055E+06     429.545E+03
             839     31.3672E-03     11.0176E-03     29.3686E-03     336.463E-03    -166.345E-03    -170.118E-03    -166.907E-03     333.600E-03    -166.693E-03     75.8349E-03     372.617E-03     78.4477E+06     52.7812E+06     19.4309E+06    -36.6073E+06    -34.6885E+06     17.5121E+06     52.7812E+06     9.61468E+06
             840     30.9852E-03     10.1630E-03     29.2711E-03     333.861E-03    -166.196E-03    -167.666E-03    -164.741E-03     331.390E-03    -166.649E-03     70.0544E-03     364.382E-03     68.3650E+06     39.6627E+06     18.3929E+06    -36.7110E+06    -33.8980E+06     19.6509E+06     35.5917E+06     5.45797E+06
             841     30.6374E-03     9.31741E-03     29.1862E-03     334.143E-03    -166.566E-03    -167.577E-03    -165.594E-03     332.265E-03    -166.671E-03     61.0371E-03     361.061E-03     63.4931E+06     21.8715E+06     8.53594E+06    -47.1358E+06    -45.4535E+06     12.9920E+06     15.7332E+06    -3.73066E+06
             842     30.3183E-03     8.46614E-03     29.1122E-03     334.550E-03    -166.693E-03    -167.857E-03    -166.477E-03     333.170E-03    -166.693E-03     52.3640E-03     358.091E-03     68.9061E+06     14.8096E+06     4.31925E+06    -58.7181E+06    -58.2269E+06     5.89535E+06     12.7423E+06    -5.06887E+06
             843     30.0336E-03     7.62252E-03     29.0502E-03     333.679E-03    -166.453E-03    -167.226E-03    -165.929E-03     332.602E-03    -166.672E-03     46.3077E-03     353.966E-03     66.3765E+06     6.74287E+06    -7.23101E+06    -65.3077E+06    -64.7935E+06    -7.74526E+06     6.74287E+06    -767.136E+03
             844     29.7706E-03     6.77725E-03     28.9889E-03     332.902E-03    -166.091E-03    -166.811E-03    -165.423E-03     332.128E-03    -166.704E-03     38.7755E-03     350.219E-03     62.2743E+06    -10.8818E+06    -50.1041E+06    -77.7066E+06    -74.9305E+06    -52.8802E+06    -10.8818E+06     1.37904E+06
             845     29.5521E-03     5.92786E-03     28.9515E-03     333.368E-03    -166.343E-03    -167.026E-03    -166.130E-03     332.866E-03    -166.736E-03     31.4463E-03     348.108E-03     63.5479E+06    -24.4725E+06    -80.7020E+06    -92.3662E+06    -81.6472E+06    -91.4209E+06    -24.4725E+06     1.49150E+06
             846     29.3527E-03     5.08178E-03     28.9095E-03     333.971E-03    -166.240E-03    -167.731E-03    -167.001E-03     333.627E-03    -166.626E-03     25.9825E-03     345.656E-03     69.0737E+06    -38.3629E+06    -84.6692E+06    -116.270E+06    -85.4226E+06    -115.516E+06    -38.3629E+06     408.737E+03
             847     29.1948E-03     4.23330E-03     28.8863E-03     333.524E-03    -166.055E-03    -167.468E-03    -166.885E-03     333.327E-03    -166.442E-03     19.4847E-03     342.246E-03     80.3199E+06    -51.6971E+06    -90.8562E+06    -143.837E+06    -91.2270E+06    -143.466E+06    -51.6971E+06    -1.89022E+06
             848     29.0725E-03     3.38894E-03     28.8743E-03     332.802E-03    -165.943E-03    -166.859E-03    -166.417E-03     332.690E-03    -166.273E-03     14.5986E-03     338.743E-03     89.1178E+06    -62.4651E+06    -97.1270E+06    -163.603E+06    -97.5782E+06    -163.152E+06    -62.4651E+06     7.54475E+03
             849     28.9723E-03     2.54231E-03     28.8606E-03     332.575E-03    -165.741E-03    -166.833E-03    -166.448E-03     332.521E-03    -166.072E-03     9.92679E-03     336.105E-03     99.4873E+06    -79.6958E+06    -105.287E+06    -188.906E+06    -105.604E+06    -188.589E+06    -79.6958E+06     3.46194E+06
             850     28.9014E-03     1.69642E-03     28.8515E-03     332.098E-03    -165.273E-03    -166.825E-03    -166.308E-03     332.081E-03    -165.772E-03     4.80383E-03     333.861E-03     107.886E+06    -95.9601E+06    -112.227E+06    -210.579E+06    -111.785E+06    -210.322E+06    -96.6590E+06     3.28523E+06
             851     28.8631E-03     849.539E-06     28.8506E-03     331.307E-03    -164.165E-03    -167.142E-03    -165.590E-03     331.296E-03    -165.706E-03     758.127E-06     331.998E-03     141.188E+06    -106.289E+06    -119.986E+06    -253.611E+06    -116.904E+06    -253.528E+06    -109.454E+06     1.82232E+06
             852     31.9574E-03     14.3888E-03     28.5349E-03     348.974E-03    -167.671E-03    -181.303E-03    -174.267E-03     341.938E-03    -167.671E-03     119.990E-03     414.021E-03     123.396E+06     131.537E+06     79.5632E+06    -9.24685E+06    -9.07047E+06     79.3868E+06     131.537E+06    -1.16407E+06
             853     31.4091E-03     13.5532E-03     28.3345E-03     346.525E-03    -167.280E-03    -179.245E-03    -172.606E-03     339.886E-03    -167.280E-03     115.318E-03     410.448E-03     102.277E+06     101.055E+06     58.9003E+06    -15.4837E+06    -14.4665E+06     57.8832E+06     101.055E+06    -7.12826E+06
             854     30.9352E-03     12.7061E-03     28.2054E-03     340.833E-03    -166.997E-03    -173.836E-03    -169.508E-03     336.506E-03    -166.997E-03     93.7565E-03     390.212E-03     86.8518E+06     75.7272E+06     34.6689E+06    -23.9509E+06    -21.9709E+06     32.6889E+06     75.7272E+06    -1.55212E+06
             855     30.4826E-03     11.8629E-03     28.0795E-03     339.417E-03    -166.812E-03    -172.605E-03    -168.551E-03     335.363E-03    -166.812E-03     90.4348E-03     382.843E-03     79.5331E+06     57.8858E+06     20.6027E+06    -33.1641E+06    -31.2984E+06     18.7370E+06     57.8858E+06     2.85408E+06
             856     30.0692E-03     11.0130E-03     27.9799E-03     337.030E-03    -166.370E-03    -170.660E-03    -167.035E-03     333.752E-03    -166.718E-03     81.1807E-03     372.743E-03     76.2904E+06     52.0106E+06     20.9896E+06    -34.7398E+06    -33.6526E+06     19.9023E+06     52.0106E+06     1.42152E+06
             857     29.6766E-03     10.1655E-03     27.8812E-03     335.698E-03    -166.330E-03    -169.368E-03    -166.500E-03     333.178E-03    -166.678E-03     70.7915E-03     365.731E-03     76.0092E+06     47.1088E+06     22.2862E+06    -38.0133E+06    -37.1723E+06     21.4452E+06     47.1088E+06     4.23074E+06
             858     29.3078E-03     9.31466E-03     27.7882E-03     334.474E-03    -166.476E-03    -167.998E-03    -166.173E-03     332.750E-03    -166.577E-03     58.4335E-03     360.888E-03     68.4301E+06     29.1333E+06     15.8600E+06    -44.8542E+06    -43.7650E+06     16.8381E+06     27.0660E+06     2.72425E+06
             859     28.9838E-03     8.47289E-03     27.7177E-03     333.685E-03    -166.376E-03    -167.309E-03    -165.849E-03     332.366E-03    -166.517E-03     51.2066E-03     357.200E-03     62.8687E+06     13.5646E+06     5.86334E+06    -52.7281E+06    -51.9911E+06     7.19369E+06     11.4973E+06    -1.40162E+06
             860     28.6834E-03     7.62448E-03     27.6515E-03     333.056E-03    -166.103E-03    -166.953E-03    -165.400E-03     331.972E-03    -166.572E-03     46.2358E-03     353.510E-03     64.9756E+06     7.96929E+06    -11.9124E+06    -62.4453E+06    -61.9416E+06    -12.4161E+06     7.96929E+06     829.346E+03
             861     28.4200E-03     6.77344E-03     27.6010E-03     332.665E-03    -165.999E-03    -166.666E-03    -165.183E-03     331.849E-03    -166.666E-03     40.1884E-03     349.739E-03     65.2089E+06    -2.38259E+06    -47.2350E+06    -73.9038E+06    -70.3321E+06    -50.8067E+06    -2.38259E+06     4.11989E+06
             862     28.1807E-03     5.92811E-03     27.5501E-03     333.150E-03    -166.251E-03    -166.900E-03    -165.864E-03     332.575E-03    -166.712E-03     33.6278E-03     347.361E-03     65.6745E+06    -19.5000E+06    -74.6241E+06    -91.2013E+06    -78.0672E+06    -87.7582E+06    -19.5000E+06    -1.25757E+06
             863     27.9839E-03     5.08186E-03     27.5186E-03     332.832E-03    -165.913E-03    -166.919E-03    -165.741E-03     332.472E-03    -166.731E-03     26.5691E-03     344.358E-03     70.8240E+06    -35.7731E+06    -83.8821E+06    -115.653E+06    -84.7000E+06    -114.835E+06    -35.7731E+06    -3.51630E+06
             864     27.8152E-03     4.23429E-03     27.4910E-03     332.843E-03    -165.970E-03    -166.874E-03    -165.880E-03     332.653E-03    -166.773E-03     18.7987E-03     341.585E-03     77.9853E+06    -53.5185E+06    -91.4013E+06    -142.567E+06    -91.9417E+06    -142.027E+06    -53.5185E+06    -618.907E+03
             865     27.6857E-03     3.38619E-03     27.4778E-03     333.605E-03    -166.422E-03    -167.184E-03    -166.797E-03     333.505E-03    -166.708E-03     14.1769E-03     339.696E-03     83.4909E+06    -76.3078E+06    -102.915E+06    -169.271E+06    -103.616E+06    -168.570E+06    -76.3078E+06    -2.23747E+06
             866     27.5820E-03     2.54154E-03     27.4646E-03     333.341E-03    -166.162E-03    -167.180E-03    -166.661E-03     333.268E-03    -166.607E-03     11.8723E-03     336.930E-03     97.6254E+06    -87.1366E+06    -109.620E+06    -193.633E+06    -110.081E+06    -193.172E+06    -87.1366E+06    -1.73708E+06
             867     27.5118E-03     1.69417E-03     27.4595E-03     332.586E-03    -165.630E-03    -166.956E-03    -165.800E-03     332.559E-03    -166.759E-03     6.58918E-03     334.386E-03     104.519E+06    -95.6584E+06    -113.197E+06    -207.473E+06    -112.903E+06    -207.068E+06    -96.3573E+06     3.17406E+06
             868     27.4755E-03     843.108E-06     27.4625E-03     333.993E-03    -164.301E-03    -169.692E-03    -164.294E-03     333.986E-03    -169.692E-03     2.76596E-03     334.741E-03     135.418E+06    -105.568E+06    -123.817E+06    -248.968E+06    -114.962E+06    -248.808E+06    -114.584E+06     3.66253E+06
             869     30.7147E-03     14.4025E-03     27.1286E-03     348.893E-03    -167.448E-03    -181.445E-03    -174.239E-03     341.687E-03    -167.448E-03     121.266E-03     413.384E-03     125.317E+06     135.521E+06     85.4004E+06    -6.93034E+06    -6.74759E+06     85.2177E+06     135.521E+06    -1.87907E+06
             870     30.1532E-03     13.5524E-03     26.9360E-03     343.832E-03    -167.140E-03    -176.692E-03    -169.700E-03     336.840E-03    -167.140E-03     118.151E-03     406.816E-03     105.614E+06     101.719E+06     62.5665E+06    -17.8165E+06    -17.4798E+06     62.2298E+06     101.719E+06    -1.73080E+06
             871     29.6698E-03     12.7046E-03     26.8121E-03     338.299E-03    -167.042E-03    -171.257E-03    -166.622E-03     333.664E-03    -167.042E-03     96.6747E-03     386.889E-03     87.4449E+06     70.3249E+06     29.8799E+06    -29.8432E+06    -28.5021E+06     28.5388E+06     70.3249E+06     2.26417E+06
             872     29.1970E-03     11.8505E-03     26.6839E-03     338.252E-03    -167.001E-03    -171.250E-03    -167.316E-03     334.317E-03    -167.001E-03     88.5176E-03     381.564E-03     74.3505E+06     53.7284E+06     18.5781E+06    -31.3815E+06    -29.7692E+06     16.9658E+06     53.7284E+06     792.286E+03
             873     28.7691E-03     11.0062E-03     26.5805E-03     339.166E-03    -166.849E-03    -172.317E-03    -169.346E-03     336.196E-03    -166.849E-03     77.3871E-03     375.226E-03     71.9561E+06     42.9398E+06     17.5332E+06    -37.8104E+06    -36.8681E+06     16.5909E+06     42.9398E+06    -4.94214E+06
             874     28.3627E-03     10.1654E-03     26.4785E-03     337.959E-03    -166.614E-03    -171.345E-03    -168.968E-03     335.581E-03    -166.614E-03     69.1308E-03     368.077E-03     75.3257E+06     35.9530E+06     15.1540E+06    -47.3385E+06    -46.7750E+06     14.5905E+06     35.9530E+06    -4.35161E+06
             875     27.9956E-03     9.32497E-03     26.3969E-03     334.395E-03    -166.362E-03    -168.032E-03    -166.121E-03     332.585E-03    -166.464E-03     59.9630E-03     360.423E-03     73.5393E+06     30.4828E+06     15.1643E+06    -49.4197E+06    -48.9325E+06     14.6771E+06     30.4828E+06    -264.823E+03
             876     27.6525E-03     8.47018E-03     26.3233E-03     332.796E-03    -166.232E-03    -166.563E-03    -164.868E-03     331.336E-03    -166.468E-03     53.6856E-03     355.637E-03     69.9059E+06     22.0854E+06     12.1620E+06    -52.1382E+06    -50.9816E+06     11.0054E+06     22.0854E+06     4.75232E+06
             877     27.3428E-03     7.62211E-03     26.2589E-03     332.857E-03    -166.189E-03    -166.668E-03    -165.238E-03     331.771E-03    -166.533E-03     46.2065E-03     352.732E-03     64.8266E+06     7.84706E+06    -13.0785E+06    -62.6946E+06    -61.8745E+06    -13.8985E+06     7.84706E+06     4.25787E+06
             878     27.0682E-03     6.77745E-03     26.2060E-03     332.547E-03    -165.790E-03    -166.757E-03    -165.138E-03     331.759E-03    -166.621E-03     39.5566E-03     349.408E-03     60.6114E+06    -3.39505E+06    -45.3564E+06    -71.1456E+06    -69.2944E+06    -47.2076E+06    -3.39505E+06     559.976E+03
             879     26.8200E-03     5.92771E-03     26.1567E-03     332.090E-03    -165.333E-03    -166.757E-03    -164.750E-03     331.507E-03    -166.757E-03     33.8003E-03     346.169E-03     63.0155E+06    -17.7768E+06    -66.9073E+06    -88.4171E+06    -74.4571E+06    -80.8673E+06    -17.7768E+06    -847.789E+03
             880     26.6125E-03     5.07900E-03     26.1234E-03     332.511E-03    -165.590E-03    -166.921E-03    -165.226E-03     332.146E-03    -166.921E-03     26.6945E-03     343.995E-03     71.0519E+06    -38.5776E+06    -84.8704E+06    -119.736E+06    -86.1507E+06    -118.455E+06    -38.5776E+06    -1.12088E+06
             881     26.4378E-03     4.23203E-03     26.0969E-03     333.242E-03    -166.213E-03    -167.029E-03    -166.006E-03     333.035E-03    -167.029E-03     19.9008E-03     341.953E-03     76.5807E+06    -59.0855E+06    -97.7069E+06    -146.630E+06    -97.9879E+06    -146.349E+06    -59.0855E+06     838.131E+03
             882     26.3008E-03     3.38595E-03     26.0819E-03     333.722E-03    -166.677E-03    -167.045E-03    -166.580E-03     333.623E-03    -167.043E-03     13.4951E-03     339.675E-03     78.9981E+06    -77.6812E+06    -99.2644E+06    -164.301E+06    -100.011E+06    -163.554E+06    -77.6812E+06     1.78999E+06
             883     26.1928E-03     2.53715E-03     26.0697E-03     333.565E-03    -166.449E-03    -167.116E-03    -166.405E-03     333.519E-03    -167.114E-03     8.39753E-03     337.041E-03     93.6140E+06    -94.5721E+06    -107.073E+06    -193.797E+06    -104.374E+06    -193.170E+06    -97.8967E+06    -2.29156E+06
             884     26.1204E-03     1.68966E-03     26.0657E-03     334.082E-03    -166.548E-03    -167.534E-03    -166.669E-03     334.067E-03    -167.398E-03     4.07626E-03     335.839E-03     108.211E+06    -100.335E+06    -114.184E+06    -214.691E+06    -111.657E+06    -213.894E+06    -103.659E+06    -5.49923E+06
             885     26.0758E-03     847.581E-06     26.0620E-03     335.271E-03    -164.835E-03    -170.436E-03    -166.583E-03     335.268E-03    -168.686E-03     2.99314E-06     336.006E-03     136.544E+06    -95.6607E+06    -120.222E+06    -242.544E+06    -112.588E+06    -241.862E+06    -103.977E+06    -1.15975E+06
             886     29.4779E-03     14.3938E-03     25.7248E-03     346.646E-03    -167.467E-03    -179.180E-03    -171.942E-03     339.409E-03    -167.467E-03     121.423E-03     410.679E-03     127.802E+06     136.623E+06     84.2307E+06    -8.89034E+06    -8.80562E+06     84.1460E+06     136.623E+06     630.555E+03
             887     28.9148E-03     13.5501E-03     25.5433E-03     343.033E-03    -167.240E-03    -175.792E-03    -168.961E-03     336.202E-03    -167.240E-03     116.646E-03     405.788E-03     106.059E+06     100.621E+06     60.1988E+06    -19.6337E+06    -19.5075E+06     60.0726E+06     100.621E+06     1.19981E+06
             888     28.4122E-03     12.7010E-03     25.4153E-03     339.829E-03    -167.106E-03    -172.723E-03    -168.302E-03     335.408E-03    -167.106E-03     94.7706E-03     388.150E-03     85.4478E+06     72.2847E+06     33.2632E+06    -25.5700E+06    -25.3298E+06     33.0230E+06     72.2847E+06    -1.79625E+06
             889     27.9333E-03     11.8597E-03     25.2907E-03     340.668E-03    -166.899E-03    -173.769E-03    -170.255E-03     337.154E-03    -166.899E-03     84.2332E-03     383.011E-03     75.4886E+06     53.3741E+06     16.8787E+06    -33.3428E+06    -33.1567E+06     16.6927E+06     53.3741E+06    -844.108E+03
             890     27.4807E-03     11.0137E-03     25.1771E-03     337.886E-03    -166.241E-03    -171.645E-03    -168.785E-03     335.398E-03    -166.613E-03     70.8848E-03     373.806E-03     68.8212E+06     38.1993E+06     14.7330E+06    -38.7873E+06    -38.2365E+06     14.1822E+06     38.1993E+06    -2.33697E+06
             891     27.0631E-03     10.1672E-03     25.0806E-03     334.192E-03    -165.460E-03    -168.732E-03    -165.515E-03     332.017E-03    -166.502E-03     65.9161E-03     364.190E-03     66.9845E+06     31.2571E+06     16.9977E+06    -41.6836E+06    -41.0808E+06     16.3949E+06     31.2571E+06    -4.09704E+06
             892     26.6809E-03     9.31402E-03     25.0024E-03     334.065E-03    -165.877E-03    -168.188E-03    -165.589E-03     332.136E-03    -166.548E-03     61.9529E-03     359.302E-03     72.3829E+06     26.3793E+06     11.1570E+06    -52.4000E+06    -52.2220E+06     10.9789E+06     26.3793E+06    -2.34866E+06
             893     26.3308E-03     8.47231E-03     24.9306E-03     334.247E-03    -166.453E-03    -167.794E-03    -166.235E-03     332.782E-03    -166.548E-03     53.8905E-03     356.316E-03     77.3132E+06     20.6884E+06     5.87768E+06    -62.9508E+06    -62.1000E+06     5.02685E+06     20.6884E+06     1.68043E+06
             894     26.0072E-03     7.62456E-03     24.8644E-03     332.833E-03    -165.909E-03    -166.924E-03    -165.219E-03     331.749E-03    -166.530E-03     46.3769E-03     352.145E-03     68.1386E+06     8.37272E+06    -9.23346E+06    -66.5535E+06    -65.7809E+06    -10.0061E+06     8.37272E+06     3.55349E+06
             895     25.7186E-03     6.77543E-03     24.8101E-03     332.487E-03    -165.576E-03    -166.910E-03    -165.084E-03     331.662E-03    -166.578E-03     40.3594E-03     349.063E-03     56.1583E+06    -12.1600E+06    -43.2223E+06    -75.7625E+06    -74.2946E+06    -44.6902E+06    -12.1600E+06     307.950E+03
             896     25.4678E-03     5.92769E-03     24.7683E-03     332.418E-03    -165.536E-03    -166.882E-03    -165.182E-03     331.867E-03    -166.685E-03     32.8050E-03     346.163E-03     57.7937E+06    -28.4905E+06    -74.6819E+06    -93.0206E+06    -85.1250E+06    -82.5774E+06    -28.4905E+06     454.876E+03
             897     25.2426E-03     5.07917E-03     24.7263E-03     332.239E-03    -165.420E-03    -166.819E-03    -165.120E-03     331.938E-03    -166.819E-03     23.8904E-03     343.277E-03     64.7952E+06    -45.8636E+06    -90.7109E+06    -118.943E+06    -92.1628E+06    -117.491E+06    -45.8636E+06     1.22848E+06
             898     25.0643E-03     4.23145E-03     24.7045E-03     332.933E-03    -166.014E-03    -166.919E-03    -165.860E-03     332.779E-03    -166.919E-03     17.3217E-03     341.368E-03     68.2683E+06    -67.9585E+06    -100.192E+06    -145.689E+06    -100.548E+06    -145.334E+06    -67.9585E+06    -1.10115E+06
             899     24.9126E-03     3.38467E-03     24.6816E-03     333.906E-03    -166.719E-03    -167.188E-03    -166.935E-03     333.833E-03    -166.898E-03     11.2694E-03     339.693E-03     73.2802E+06    -84.2102E+06    -106.691E+06    -165.439E+06    -107.451E+06    -164.679E+06    -84.2102E+06    -1.75275E+06
             900     24.8076E-03     2.54103E-03     24.6771E-03     333.840E-03    -166.550E-03    -167.290E-03    -167.055E-03     333.826E-03    -166.770E-03     4.94084E-03     337.337E-03     91.6296E+06    -90.8691E+06    -109.367E+06    -190.135E+06    -106.778E+06    -189.400E+06    -94.1937E+06    -12.6259E+03
             901     24.7258E-03     1.69447E-03     24.6677E-03     333.216E-03    -166.086E-03    -167.130E-03    -166.446E-03     333.211E-03    -166.765E-03     2.99291E-03     334.957E-03     110.924E+06    -98.5514E+06    -111.692E+06    -215.280E+06    -106.857E+06    -214.582E+06    -104.084E+06    -3.84933E+06
             902     24.6796E-03     845.205E-06     24.6651E-03     333.838E-03    -165.544E-03    -168.295E-03    -167.823E-03     333.825E-03    -166.002E-03     2.94240E-03     334.487E-03     138.645E+06    -103.997E+06    -121.396E+06    -250.168E+06    -116.196E+06    -249.425E+06    -109.942E+06    -5.63212E+06
             903     28.2628E-03     14.3958E-03     24.3217E-03     345.835E-03    -167.604E-03    -178.231E-03    -171.151E-03     338.755E-03    -167.604E-03     120.381E-03     410.319E-03     126.341E+06     133.993E+06     79.9254E+06    -10.3063E+06    -10.2605E+06     79.8796E+06     133.993E+06     1.51029E+06
             904     27.6883E-03     13.5486E-03     24.1470E-03     345.542E-03    -167.318E-03    -178.223E-03    -171.797E-03     339.115E-03    -167.318E-03     113.755E-03     408.518E-03     103.438E+06     100.482E+06     55.0670E+06    -17.6649E+06    -17.5677E+06     54.9698E+06     100.482E+06    -146.001E+03
             905     27.1709E-03     12.7037E-03     24.0182E-03     343.087E-03    -166.968E-03    -176.120E-03    -171.983E-03     338.951E-03    -166.968E-03     92.2072E-03     391.039E-03     83.8002E+06     75.6911E+06     33.0324E+06    -20.7525E+06    -20.5888E+06     32.8687E+06     75.6911E+06    -2.56235E+06
             906     26.6646E-03     11.8589E-03     23.8824E-03     340.546E-03    -166.613E-03    -173.933E-03    -170.481E-03     337.094E-03    -166.613E-03     83.7399E-03     381.995E-03     75.9500E+06     59.3456E+06     23.2367E+06    -27.8173E+06    -27.5717E+06     22.9911E+06     59.3456E+06    -1.75486E+06
             907     26.2083E-03     11.0206E-03     23.7787E-03     335.563E-03    -166.039E-03    -169.524E-03    -166.558E-03     332.969E-03    -166.410E-03     72.0058E-03     370.727E-03     72.5722E+06     48.0676E+06     20.9471E+06    -33.9953E+06    -33.7985E+06     20.7504E+06     48.0676E+06    -832.345E+03
             908     25.7885E-03     10.1667E-03     23.6999E-03     332.993E-03    -165.365E-03    -167.627E-03    -164.469E-03     330.877E-03    -166.407E-03     64.8275E-03     362.237E-03     70.9511E+06     35.2788E+06     16.0054E+06    -43.2192E+06    -42.9736E+06     15.7598E+06     35.2788E+06     1.80926E+06
             909     25.3778E-03     9.31776E-03     23.6054E-03     333.370E-03    -165.337E-03    -168.033E-03    -165.171E-03     331.640E-03    -166.469E-03     58.5304E-03     357.723E-03     72.0737E+06     23.8437E+06     10.1590E+06    -53.9830E+06    -53.2714E+06     9.44746E+06     23.8437E+06     4.34972E+06
             910     25.0078E-03     8.46956E-03     23.5299E-03     333.513E-03    -165.894E-03    -167.619E-03    -165.758E-03     332.226E-03    -166.468E-03     50.5257E-03     355.114E-03      70.657E+06     10.4958E+06     228.327E+03    -64.6675E+06    -63.8754E+06    -563.753E+03     10.4958E+06    -74.1781E+03
             911     24.6809E-03     7.62358E-03     23.4740E-03     333.157E-03    -165.826E-03    -167.332E-03    -165.674E-03     332.137E-03    -166.463E-03     44.9862E-03     352.002E-03     67.1184E+06     3.23832E+06    -11.7318E+06    -69.7617E+06    -69.4597E+06    -12.0339E+06     3.23832E+06    -2.86565E+06
             912     24.3774E-03     6.77419E-03     23.4173E-03     333.347E-03    -165.910E-03    -167.438E-03    -166.189E-03     332.625E-03    -166.435E-03     37.4505E-03     349.266E-03     61.3430E+06    -5.84605E+06    -34.3660E+06    -75.2181E+06    -74.4373E+06    -35.1468E+06    -5.84605E+06     2.39055E+06
             913     24.1091E-03     5.92927E-03     23.3687E-03     333.013E-03    -166.236E-03    -166.777E-03    -166.263E-03     332.593E-03    -166.330E-03     28.5880E-03     346.323E-03     57.7505E+06    -28.0419E+06    -70.3790E+06    -93.3395E+06    -84.5448E+06    -79.1737E+06    -28.0419E+06     2.32002E+06
             914     23.8846E-03     5.08366E-03     23.3373E-03     332.404E-03    -165.748E-03    -166.656E-03    -165.914E-03     332.162E-03    -166.248E-03     21.6383E-03     343.122E-03     64.3184E+06    -43.9937E+06    -88.0786E+06    -116.927E+06    -89.3921E+06    -115.613E+06    -43.9937E+06    -1.72639E+06
             915     23.6888E-03     4.23555E-03     23.3070E-03     332.080E-03    -165.529E-03    -166.551E-03    -165.769E-03     331.967E-03    -166.198E-03     14.4092E-03     340.202E-03     73.0889E+06    -58.6729E+06    -94.0454E+06    -142.014E+06    -94.8935E+06    -141.166E+06    -58.6729E+06    -1.29978E+06
             916     23.5346E-03     3.38859E-03     23.2893E-03     331.573E-03    -165.084E-03    -166.489E-03    -165.326E-03     331.527E-03    -166.201E-03     9.35474E-03     337.267E-03     77.1471E+06    -82.0505E+06    -105.482E+06    -167.343E+06    -105.991E+06    -166.834E+06    -82.0505E+06    -2.27644E+06
             917     23.4140E-03     2.54100E-03     23.2757E-03     332.182E-03    -165.371E-03    -166.810E-03    -165.865E-03     332.158E-03    -166.293E-03     6.63262E-03     335.669E-03     89.8837E+06    -95.2206E+06    -110.722E+06    -191.471E+06    -111.411E+06    -190.782E+06    -95.2206E+06    -3.64728E+06
             918     23.3414E-03     1.69505E-03     23.2798E-03     332.887E-03    -165.673E-03    -167.213E-03    -166.676E-03     332.875E-03    -166.199E-03     4.64488E-03     334.497E-03     105.382E+06    -102.190E+06    -118.712E+06    -214.534E+06    -116.929E+06    -214.109E+06    -104.398E+06    -193.647E+03
             919     23.2851E-03     847.047E-06     23.2697E-03     332.249E-03    -163.227E-03    -169.022E-03    -164.540E-03     332.235E-03    -167.695E-03     3.36021E-03     332.834E-03     140.915E+06    -110.170E+06    -129.774E+06    -259.623E+06    -117.518E+06    -259.265E+06    -122.783E+06     1.43860E+06
             920     27.0645E-03     14.3889E-03     22.9226E-03     347.373E-03    -167.607E-03    -179.766E-03    -173.100E-03     340.707E-03    -167.607E-03     117.262E-03     411.849E-03     124.421E+06     133.788E+06     82.0658E+06    -8.03887E+06    -7.87819E+06     81.9052E+06     133.788E+06     168.856E+03
             921     26.4708E-03     13.5469E-03     22.7417E-03     347.738E-03    -167.157E-03    -180.581E-03    -174.749E-03     341.906E-03    -167.157E-03     108.666E-03     410.663E-03     102.719E+06     102.299E+06     58.8384E+06    -14.7156E+06    -14.5504E+06     58.6733E+06     102.299E+06    -357.981E+03
             922     25.9373E-03     12.7108E-03     22.6092E-03     342.582E-03    -166.671E-03    -175.911E-03    -172.036E-03     338.707E-03    -166.671E-03     89.2181E-03     390.428E-03     83.7977E+06     71.6828E+06     30.2272E+06    -24.5922E+06    -24.3405E+06     29.9755E+06     71.6828E+06    -1.26208E+06
             923     25.4291E-03     11.8699E-03     22.4887E-03     337.041E-03    -166.409E-03    -170.632E-03    -167.249E-03     333.658E-03    -166.409E-03     82.3718E-03     378.253E-03     75.8416E+06     57.3507E+06      22.967E+06    -29.3934E+06    -28.6321E+06     22.2057E+06     57.3507E+06    -340.363E+03
             924     24.9495E-03     11.0098E-03     22.3888E-03     335.105E-03    -166.323E-03    -168.782E-03    -166.269E-03     332.592E-03    -166.323E-03     70.6809E-03     369.421E-03     75.2050E+06     43.8005E+06     16.2491E+06    -41.1951E+06    -40.4968E+06     15.5508E+06     43.8005E+06     456.647E+03
             925     24.5083E-03     10.1688E-03     22.2992E-03     335.912E-03    -166.190E-03    -169.721E-03    -167.795E-03     333.985E-03    -166.190E-03     62.0852E-03     364.613E-03     75.1554E+06     36.0866E+06     14.8588E+06    -47.2967E+06    -46.9130E+06     14.4751E+06     36.0866E+06     1.90826E+06
             926     24.0931E-03     9.32465E-03     22.2155E-03     333.614E-03    -165.573E-03    -168.040E-03    -166.062E-03     332.096E-03    -166.035E-03     54.8915E-03     357.183E-03     72.7519E+06     29.5319E+06     16.7255E+06    -48.6566E+06    -47.9050E+06     15.9740E+06     29.5319E+06     5.61102E+06
             927     23.7054E-03     8.47352E-03     22.1392E-03     332.118E-03    -165.391E-03    -166.727E-03    -165.112E-03     331.077E-03    -165.965E-03     44.9501E-03     352.760E-03     69.2672E+06     15.6180E+06     7.18450E+06    -57.4606E+06    -56.5288E+06     6.25265E+06     15.6180E+06     2.57380E+06
             928     23.3571E-03     7.62371E-03     22.0779E-03     333.139E-03    -165.741E-03    -167.398E-03    -166.587E-03     332.440E-03    -165.853E-03     36.9228E-03     351.389E-03     65.2007E+06     969.849E+03    -13.5939E+06    -69.7856E+06    -69.3196E+06    -14.0599E+06     969.849E+03    -1.03346E+06
             929     23.0393E-03     6.78257E-03     22.0184E-03     332.546E-03    -165.646E-03    -166.900E-03    -166.382E-03     332.049E-03    -165.667E-03     31.0081E-03     347.915E-03     60.7601E+06    -7.82242E+06    -36.6688E+06    -76.6970E+06    -75.6542E+06    -37.7116E+06    -7.82242E+06    -1.97314E+06
             930     22.7649E-03     5.93466E-03     21.9777E-03     331.455E-03    -165.487E-03    -165.968E-03    -165.640E-03     331.148E-03    -165.508E-03     24.5051E-03     344.281E-03     60.7347E+06    -19.2453E+06    -64.0167E+06    -87.6259E+06    -78.4179E+06    -73.2248E+06    -19.2453E+06    -1.16020E+06
             931     22.5225E-03     5.08614E-03     21.9407E-03     331.160E-03    -165.202E-03    -165.958E-03    -165.624E-03     330.965E-03    -165.341E-03     19.5003E-03     341.388E-03     67.4303E+06    -42.0168E+06    -90.7205E+06    -117.900E+06    -92.0328E+06    -116.588E+06    -42.0168E+06    -282.053E+03
             932     22.3208E-03     4.24194E-03     21.9141E-03     330.340E-03    -164.791E-03    -165.549E-03    -165.037E-03     330.233E-03    -165.196E-03     14.0527E-03     338.028E-03     73.3215E+06    -59.8440E+06    -99.9716E+06    -143.920E+06    -101.246E+06    -142.645E+06    -59.8440E+06    -10.6227E+03
             933     22.1608E-03     3.39305E-03     21.8995E-03     329.443E-03    -164.077E-03    -165.366E-03    -164.202E-03     329.400E-03    -165.198E-03     8.40230E-03     334.807E-03     77.8348E+06    -76.0439E+06    -101.749E+06    -162.615E+06    -101.900E+06    -162.464E+06    -76.0439E+06    -108.651E+03
             934     22.0359E-03     2.54029E-03     21.8890E-03     329.874E-03    -164.377E-03    -165.497E-03    -164.527E-03     329.855E-03    -165.329E-03     3.89337E-03     333.146E-03     87.1134E+06    -99.2660E+06    -112.076E+06    -191.804E+06    -112.421E+06    -191.459E+06    -99.2660E+06    -2.61410E+06
             935     21.9426E-03     1.69214E-03     21.8772E-03     331.180E-03    -165.145E-03    -166.035E-03    -165.926E-03     331.169E-03    -165.243E-03     969.222E-06     332.815E-03     103.837E+06    -110.464E+06    -123.666E+06    -219.955E+06    -124.199E+06    -219.422E+06    -110.464E+06    -3.41875E+06
             936     21.8967E-03     850.692E-06     21.8802E-03     330.232E-03    -162.418E-03    -167.814E-03    -163.799E-03     330.226E-03    -166.427E-03    -1.61157E-03     330.845E-03     143.506E+06    -109.594E+06    -132.887E+06    -263.041E+06    -126.706E+06    -262.553E+06    -116.263E+06    -748.593E+03
             937     25.8877E-03     14.3976E-03     21.5147E-03     349.013E-03    -167.463E-03    -181.550E-03    -174.907E-03     342.370E-03    -167.463E-03     117.144E-03     412.873E-03     126.867E+06     137.971E+06     85.3164E+06    -6.58101E+06    -6.38285E+06     85.1182E+06     137.971E+06    -802.793E+03
             938     25.2795E-03     13.5609E-03     21.3344E-03     346.974E-03    -166.982E-03    -179.993E-03    -173.776E-03     340.758E-03    -166.982E-03     112.194E-03     408.613E-03     105.298E+06     104.236E+06     62.0884E+06    -15.4780E+06    -15.2851E+06     61.8956E+06     104.236E+06    -1.08486E+06
             939     24.7285E-03     12.7131E-03     21.2103E-03     341.346E-03    -166.558E-03    -174.787E-03    -170.694E-03     337.252E-03    -166.558E-03     91.1995E-03     388.826E-03     84.3777E+06     68.3967E+06     29.2167E+06    -28.3977E+06    -27.5705E+06     28.3895E+06     68.3967E+06     2.30514E+06
             940     24.2018E-03     11.8592E-03     21.0971E-03     338.816E-03    -166.242E-03    -172.574E-03    -169.406E-03     335.648E-03    -166.242E-03     79.7164E-03     379.922E-03     75.9336E+06     47.9147E+06     15.5378E+06    -38.7096E+06    -37.4257E+06     14.2539E+06     47.9147E+06     2.60460E+06
             941     23.7123E-03     11.0222E-03     20.9948E-03     337.535E-03    -165.935E-03    -171.600E-03    -169.459E-03     335.394E-03    -165.935E-03     65.4971E-03     371.249E-03     73.9976E+06     40.9834E+06     17.5181E+06    -41.7679E+06    -40.3968E+06     16.1470E+06     40.9834E+06     3.69886E+06
             942     23.2423E-03     10.1740E-03     20.8972E-03     335.947E-03    -165.571E-03    -170.376E-03    -168.853E-03     334.424E-03    -165.571E-03     55.2450E-03     364.423E-03     71.9508E+06     31.3358E+06     15.6365E+06    -47.0755E+06    -45.7310E+06     14.2921E+06     31.3358E+06     581.957E+03
             943     22.8165E-03     9.32806E-03     20.8226E-03     334.564E-03    -165.204E-03    -169.360E-03    -168.210E-03     333.414E-03    -165.204E-03     47.6400E-03     357.995E-03     72.3372E+06     23.9087E+06     11.4194E+06    -53.8412E+06    -53.3313E+06     10.9095E+06     23.9087E+06    -2.05848E+06
             944     22.4149E-03     8.48378E-03     20.7474E-03     333.220E-03    -164.850E-03    -168.371E-03    -167.582E-03     332.432E-03    -164.850E-03     39.2165E-03     352.754E-03     74.6406E+06     24.6305E+06     11.9488E+06    -55.5236E+06    -55.2770E+06     11.7022E+06     24.6305E+06     2.11216E+06
             945     22.0470E-03     7.64165E-03     20.6803E-03     331.146E-03    -164.484E-03    -166.662E-03    -166.183E-03     330.667E-03    -164.484E-03     30.5980E-03     348.383E-03     68.7054E+06     12.4822E+06    -3.24422E+06    -62.2957E+06    -62.0491E+06    -3.49079E+06     12.4822E+06     3.04933E+06
             946     21.7184E-03     6.78993E-03     20.6297E-03     329.120E-03    -164.182E-03    -164.938E-03    -164.603E-03     328.806E-03    -164.204E-03     24.6280E-03     343.888E-03     58.1725E+06    -11.5797E+06    -39.8262E+06    -77.0130E+06    -74.9674E+06    -41.8718E+06    -11.5797E+06    -4.15370E+06
             947     21.4252E-03     5.94165E-03     20.5849E-03     328.312E-03    -163.941E-03    -164.371E-03    -164.022E-03     328.101E-03    -164.079E-03     19.9719E-03     340.371E-03     62.4750E+06    -25.1944E+06    -73.8528E+06    -95.1053E+06    -84.4898E+06    -84.4683E+06    -25.1944E+06    -4.17372E+06
             948     21.1727E-03     5.09560E-03     20.5504E-03     327.541E-03    -163.340E-03    -164.201E-03    -163.429E-03     327.420E-03    -163.992E-03     15.0469E-03     337.136E-03     65.4809E+06    -41.2683E+06    -90.1965E+06    -114.612E+06    -91.1339E+06    -113.675E+06    -41.2683E+06     2.00109E+06
             949     20.9602E-03     4.24260E-03     20.5263E-03     327.168E-03    -163.203E-03    -163.965E-03    -163.133E-03     327.098E-03    -163.965E-03     11.0532E-03     334.297E-03     68.8144E+06    -61.8256E+06    -95.9529E+06    -140.267E+06    -97.0433E+06    -139.177E+06    -61.8256E+06    -1.47966E+06
             950     20.7875E-03     3.39425E-03     20.5085E-03     328.209E-03    -163.683E-03    -164.526E-03    -164.268E-03     328.177E-03    -163.909E-03     6.77564E-03     333.144E-03     84.5492E+06    -74.1408E+06    -104.446E+06    -169.612E+06    -105.017E+06    -169.041E+06    -74.1408E+06    -1.88983E+06
             951     20.6574E-03     2.55157E-03     20.4992E-03     327.956E-03    -163.604E-03    -164.352E-03    -164.307E-03     327.942E-03    -163.636E-03     3.30328E-03     330.965E-03     92.2286E+06     -89.304E+06    -111.950E+06    -190.437E+06    -112.198E+06    -190.190E+06     -89.304E+06     2.94322E+06
             952     20.5610E-03     1.70249E-03     20.4904E-03     326.622E-03    -162.959E-03    -163.663E-03    -163.054E-03     326.610E-03    -163.556E-03     1.06746E-03     328.097E-03     105.567E+06    -105.084E+06    -115.626E+06    -215.420E+06    -115.930E+06    -215.117E+06    -105.084E+06     885.965E+03
             953     20.5072E-03     846.639E-06     20.4897E-03     327.431E-03    -162.725E-03    -164.705E-03    -163.323E-03     327.426E-03    -164.103E-03    -495.763E-06     327.925E-03     146.018E+06    -112.610E+06    -132.652E+06    -267.351E+06    -124.412E+06    -266.988E+06    -121.212E+06    -3.13468E+06
             954     24.7360E-03     14.3991E-03     20.1130E-03     349.213E-03    -167.483E-03    -181.730E-03    -174.389E-03     341.872E-03    -167.483E-03     123.179E-03     412.731E-03     125.195E+06     133.245E+06     78.7436E+06    -9.88303E+06    -8.79225E+06     77.6528E+06     133.245E+06     1.24065E+06
             955     24.0996E-03     13.5468E-03     19.9317E-03     347.571E-03    -167.046E-03    -180.525E-03    -173.947E-03     340.993E-03    -167.046E-03     114.830E-03     408.373E-03     102.559E+06     101.540E+06     55.5557E+06    -15.7959E+06    -14.8976E+06     54.6573E+06     101.540E+06     3.71076E+06
             956     23.5339E-03     12.7050E-03     19.8097E-03     344.589E-03    -166.534E-03    -178.055E-03    -174.462E-03     340.996E-03    -166.534E-03     85.5654E-03     392.432E-03     85.8623E+06     79.9993E+06     35.8922E+06    -18.9340E+06    -18.2967E+06     35.2550E+06     79.9993E+06     2.60900E+06
             957     22.9970E-03     11.8717E-03     19.6958E-03     343.035E-03    -165.871E-03    -177.165E-03    -174.631E-03     340.502E-03    -165.871E-03     72.0522E-03     384.569E-03     77.2423E+06     58.3456E+06     18.8150E+06    -30.4211E+06    -28.9081E+06     17.3020E+06     58.3456E+06     3.62256E+06
             958     22.4790E-03     11.0271E-03     19.5885E-03     339.394E-03    -165.183E-03    -174.210E-03    -172.457E-03     337.641E-03    -165.183E-03     59.5407E-03     373.158E-03     74.2484E+06     47.1260E+06     18.7841E+06    -36.3788E+06    -34.0013E+06     16.4067E+06     47.1260E+06     1.82386E+06
             959     22.0081E-03     10.1863E-03     19.5089E-03     336.286E-03    -164.545E-03    -171.741E-03    -170.516E-03     335.061E-03    -164.545E-03     49.6147E-03     364.210E-03     74.0726E+06     37.8370E+06     21.4582E+06    -42.9560E+06    -40.4094E+06     18.9116E+06     37.8370E+06     709.478E+03
             960     21.5512E-03     9.34187E-03     19.4212E-03     334.856E-03    -163.895E-03    -170.961E-03    -170.103E-03     333.998E-03    -163.895E-03     41.3764E-03     357.743E-03     72.2959E+06     27.4154E+06     15.2168E+06    -50.1700E+06    -49.0780E+06     14.1248E+06     27.4154E+06     458.336E+03
             961     21.1374E-03     8.50040E-03     19.3529E-03     332.506E-03    -163.230E-03    -169.276E-03    -168.695E-03     331.924E-03    -163.230E-03     33.8859E-03     351.370E-03     74.2199E+06     20.5142E+06     7.33163E+06    -59.3838E+06    -59.2883E+06     7.23617E+06     20.5142E+06     344.652E+03
             962     20.7519E-03     7.65098E-03     19.2900E-03     328.942E-03    -162.649E-03    -166.292E-03    -165.937E-03     328.587E-03    -162.649E-03     25.7339E-03     345.226E-03     73.4076E+06     14.1166E+06    -1.65000E+06    -65.8197E+06    -65.2373E+06    -2.23243E+06     14.1166E+06    -1.51012E+06
             963     20.4121E-03     6.80591E-03     19.2441E-03     326.039E-03    -162.232E-03    -163.808E-03    -163.622E-03     325.854E-03    -162.232E-03     18.7495E-03     339.917E-03     64.0032E+06    -1.08979E+06    -30.9986E+06    -72.4148E+06    -68.8336E+06    -34.5798E+06    -1.08979E+06    -1.42300E+06
             964     20.1010E-03     5.95618E-03     19.1983E-03     324.093E-03    -161.696E-03    -162.397E-03    -161.986E-03     323.981E-03    -161.995E-03     14.3518E-03     335.178E-03     61.7160E+06    -24.7997E+06    -70.5015E+06    -94.9103E+06    -79.3660E+06    -86.0458E+06    -24.7997E+06    -24.6117E+03
             965     19.8346E-03     5.10271E-03     19.1670E-03     323.323E-03    -161.200E-03    -162.124E-03    -161.375E-03     323.271E-03    -161.896E-03     9.19427E-03     332.209E-03     65.1449E+06    -40.5142E+06    -85.6371E+06    -114.706E+06    -86.4469E+06    -113.897E+06    -40.5142E+06    -2.43974E+06
             966     19.6095E-03     4.25407E-03     19.1425E-03     323.337E-03    -161.271E-03    -162.066E-03    -161.481E-03     323.319E-03    -161.838E-03     4.80371E-03     329.917E-03     74.7432E+06    -55.1683E+06    -90.7266E+06    -139.862E+06    -92.1076E+06    -138.481E+06    -55.1683E+06    -751.795E+03
             967     19.4224E-03     3.40295E-03     19.1219E-03     323.200E-03    -160.960E-03    -162.240E-03    -161.400E-03     323.192E-03    -161.791E-03     2.24736E-03     327.621E-03     88.7383E+06    -75.2616E+06    -101.603E+06    -173.811E+06    -103.345E+06    -172.069E+06    -75.2616E+06    -358.337E+03
             968     19.2800E-03     2.54946E-03     19.1107E-03     323.256E-03    -160.906E-03    -162.350E-03    -161.437E-03     323.239E-03    -161.802E-03     1.24568E-03     325.959E-03     98.3481E+06    -86.5145E+06    -106.188E+06    -192.834E+06    -106.915E+06    -192.107E+06    -86.5145E+06    -307.115E+03
             969     19.1866E-03     1.69885E-03     19.1113E-03     323.388E-03    -161.090E-03    -162.298E-03    -161.484E-03     323.373E-03    -161.890E-03     670.009E-06     324.675E-03     108.718E+06    -98.1872E+06    -110.724E+06    -212.570E+06    -110.916E+06    -212.377E+06    -98.1872E+06     3.73616E+06
             970     19.1246E-03     851.122E-06     19.1057E-03     324.021E-03    -160.533E-03    -163.489E-03    -160.836E-03     324.016E-03    -163.180E-03    -553.837E-06     324.423E-03     148.378E+06    -107.988E+06    -127.090E+06    -264.867E+06    -118.665E+06    -264.690E+06     -116.59E+06     3.96051E+06
             971     23.6006E-03     14.3874E-03     18.7080E-03     350.774E-03    -167.578E-03    -183.197E-03    -176.476E-03     344.054E-03    -167.578E-03     118.521E-03     414.041E-03     124.082E+06     130.551E+06     78.6158E+06    -11.0028E+06    -9.58860E+06     77.2016E+06     130.551E+06    -292.880E+03
             972     22.9559E-03     13.5543E-03     18.5272E-03     350.931E-03    -166.925E-03    -184.006E-03    -178.436E-03     345.360E-03    -166.925E-03     106.280E-03     412.020E-03     105.433E+06     102.119E+06     58.0856E+06    -17.9900E+06    -16.0867E+06     56.1823E+06     102.119E+06     5.06669E+06
             973     22.3661E-03     12.7177E-03     18.3985E-03     347.491E-03    -166.091E-03    -181.400E-03    -178.422E-03     344.514E-03    -166.091E-03     78.9797E-03     395.507E-03     87.6661E+06     78.2316E+06     33.9422E+06    -22.3581E+06    -21.0217E+06     32.6058E+06     78.2316E+06     933.616E+03
             974     21.8040E-03     11.8780E-03     18.2846E-03     344.415E-03    -165.178E-03    -179.237E-03    -177.028E-03     342.206E-03    -165.178E-03     67.6050E-03     385.974E-03     77.6589E+06     64.9357E+06     21.1855E+06    -24.5880E+06    -22.9959E+06     19.5935E+06     64.9357E+06    -1.64864E+06
             975     21.2819E-03     11.0413E-03     18.1936E-03     341.218E-03    -164.213E-03    -177.005E-03    -175.489E-03     339.703E-03    -164.213E-03     55.6792E-03     374.908E-03     74.6252E+06     51.0686E+06     18.2986E+06    -33.8004E+06    -30.1879E+06     14.6862E+06     51.0686E+06     2.88911E+06
             976     20.7790E-03     10.1986E-03     18.1040E-03     338.676E-03    -163.204E-03    -175.472E-03    -174.495E-03     337.699E-03    -163.204E-03     44.1922E-03     366.242E-03     75.2249E+06     45.7984E+06     24.2217E+06    -37.7723E+06    -34.3867E+06     20.8361E+06     45.7984E+06     3.50662E+06
             977     20.3135E-03     9.35957E-03     18.0288E-03     334.205E-03    -162.181E-03    -172.024E-03    -171.410E-03     333.591E-03    -162.181E-03     34.6373E-03     356.705E-03     72.9328E+06     36.8152E+06     21.7611E+06    -42.3669E+06    -41.6099E+06      21.004E+06     36.8152E+06     2.52797E+06
             978     19.8735E-03     8.51301E-03     17.9578E-03     329.801E-03    -161.265E-03    -168.536E-03    -168.150E-03     329.415E-03    -161.265E-03     27.1334E-03     348.233E-03     70.3192E+06     23.5970E+06     12.5487E+06    -51.5258E+06    -51.3755E+06     12.3983E+06     23.5970E+06    -1.29957E+06
             979     19.4789E-03     7.67146E-03     17.9046E-03     326.629E-03    -160.475E-03    -166.154E-03    -165.953E-03     326.429E-03    -160.475E-03     19.3415E-03     342.133E-03     67.3994E+06     12.4621E+06    -2.87287E+06    -61.0703E+06    -60.1447E+06    -3.79845E+06     12.4621E+06    -2.56245E+06
             980     19.1159E-03     6.82151E-03     17.8573E-03     323.613E-03    -159.786E-03    -163.827E-03    -163.732E-03     323.518E-03    -159.786E-03     12.9791E-03     336.427E-03     62.9367E+06    -3.58787E+06    -36.9251E+06    -74.4244E+06    -70.6020E+06    -40.7475E+06    -3.58787E+06    -73.0586E+03
             981     18.7962E-03     5.97098E-03     17.8226E-03     320.934E-03    -159.037E-03    -161.897E-03    -161.669E-03     320.889E-03    -159.220E-03     7.20118E-03     331.124E-03     61.5707E+06    -19.7114E+06    -67.4189E+06    -88.8339E+06    -76.7391E+06    -79.5136E+06    -19.7114E+06     273.743E+03
             982     18.5095E-03     5.12033E-03     17.7872E-03     318.936E-03    -158.587E-03    -160.349E-03    -160.151E-03     318.922E-03    -158.770E-03     1.57257E-03     326.881E-03     68.2611E+06    -39.4037E+06    -86.0732E+06    -116.377E+06    -87.2769E+06    -115.174E+06    -39.4037E+06    -1.30256E+06
             983     18.2683E-03     4.26763E-03     17.7628E-03     317.555E-03    -158.384E-03    -159.171E-03    -159.112E-03     317.543E-03    -158.431E-03    -2.12321E-03     323.431E-03     77.0433E+06    -56.9913E+06    -95.0274E+06    -144.566E+06    -96.4470E+06    -143.146E+06    -56.9913E+06     308.516E+03
             984     18.0725E-03     3.41468E-03     17.7470E-03     316.182E-03    -157.527E-03    -158.655E-03    -157.925E-03     316.160E-03    -158.235E-03    -4.79967E-03     320.228E-03     82.2922E+06    -76.0523E+06    -96.7264E+06    -165.879E+06    -98.5527E+06    -164.052E+06    -76.0523E+06     153.336E+03
             985     17.9206E-03     2.56010E-03     17.7368E-03     315.880E-03    -157.381E-03    -158.500E-03    -157.561E-03     315.851E-03    -158.289E-03    -6.87088E-03     318.347E-03     96.8158E+06    -92.8358E+06    -104.454E+06    -194.928E+06    -105.313E+06    -194.069E+06    -92.8358E+06    -3.04718E+06
             986     17.8101E-03     1.70636E-03     17.7282E-03     316.679E-03    -157.971E-03    -158.708E-03    -158.255E-03     316.655E-03    -158.399E-03    -6.26663E-03     317.884E-03     112.861E+06    -100.790E+06    -113.246E+06    -219.348E+06    -113.559E+06    -219.034E+06    -100.790E+06    -2.45813E+06
             987     17.7485E-03     853.094E-06     17.7280E-03     316.883E-03    -157.363E-03    -159.520E-03    -158.059E-03     316.873E-03    -158.814E-03    -3.31852E-03     317.271E-03     144.952E+06    -109.047E+06    -123.062E+06    -260.465E+06    -123.289E+06    -260.239E+06    -109.047E+06     309.329E+03
             988     22.5051E-03     14.3989E-03     17.2959E-03     354.952E-03    -167.417E-03    -187.534E-03    -181.229E-03     348.646E-03    -167.417E-03     115.908E-03     417.912E-03     124.436E+06     129.766E+06     80.5337E+06    -11.5622E+06    -11.0477E+06     80.0192E+06     129.766E+06     328.927E+03
             989     21.8337E-03     13.5597E-03     17.1128E-03     353.586E-03    -166.480E-03    -187.106E-03    -181.736E-03     348.216E-03    -166.480E-03     105.421E-03     414.228E-03     107.095E+06     95.5557E+06     57.9885E+06    -25.2319E+06    -22.5596E+06     55.3162E+06     95.5557E+06    -2.72410E+06
             990     21.2244E-03     12.7242E-03     16.9874E-03     348.500E-03    -165.457E-03    -183.043E-03    -180.035E-03     345.493E-03    -165.457E-03     79.5674E-03     395.807E-03     86.9080E+06     71.2400E+06     30.9890E+06    -27.9427E+06    -25.1362E+06     28.1825E+06     71.2400E+06    -3.76425E+06
             991     20.6458E-03     11.8882E-03     16.8795E-03     346.257E-03    -164.344E-03    -181.912E-03    -179.873E-03     344.217E-03    -164.344E-03     64.7391E-03     387.737E-03     75.2392E+06     58.8241E+06     17.1567E+06    -27.9342E+06    -27.1746E+06     16.3971E+06     58.8241E+06    -4.44038E+06
             992     20.0958E-03     11.0490E-03     16.7858E-03     343.844E-03    -163.079E-03    -180.765E-03    -179.500E-03     342.579E-03    -163.079E-03     51.1330E-03     377.295E-03     75.4895E+06     55.0454E+06     21.2322E+06    -31.2288E+06    -29.1235E+06     19.1269E+06     55.0454E+06     2.16322E+06
             993     19.5771E-03     10.2181E-03     16.6989E-03     339.871E-03    -161.682E-03    -178.190E-03    -177.393E-03     339.075E-03    -161.682E-03     39.9399E-03     367.148E-03     76.8631E+06     46.1721E+06     20.0736E+06    -40.2716E+06    -38.0486E+06     17.8506E+06     46.1721E+06     4.65660E+06
             994     19.0954E-03     9.37897E-03     16.6334E-03     334.425E-03    -160.269E-03    -174.156E-03    -173.729E-03     333.998E-03    -160.269E-03     29.2638E-03     356.810E-03     73.2614E+06     34.8546E+06     17.0460E+06    -45.5596E+06    -45.1595E+06     16.6459E+06     34.8546E+06     1.94551E+06
             995     18.6424E-03     8.53731E-03     16.5727E-03     328.738E-03    -158.968E-03    -169.770E-03    -169.541E-03     328.509E-03    -158.968E-03     20.5026E-03     346.676E-03     67.3106E+06     26.7020E+06     18.6555E+06    -44.1371E+06    -43.5315E+06     18.0499E+06     26.7020E+06     2.46735E+06
             996     18.2182E-03     7.68678E-03     16.5172E-03     324.205E-03    -157.809E-03    -166.396E-03    -166.306E-03     324.115E-03    -157.809E-03     10.7576E-03     338.982E-03     61.8431E+06     10.6981E+06    -2.22748E+06    -55.8534E+06    -54.6706E+06    -3.41031E+06     10.6981E+06     929.276E+03
             997     17.8440E-03     6.84093E-03     16.4806E-03     321.213E-03    -156.717E-03    -164.495E-03    -164.462E-03     321.180E-03    -156.717E-03     3.42022E-03     333.194E-03     58.9938E+06    -3.88031E+06    -37.0065E+06    -70.8031E+06    -68.4938E+06    -39.3158E+06    -3.88031E+06    -618.695E+03
             998     17.5000E-03     5.99344E-03     16.4417E-03     318.024E-03    -155.613E-03    -162.412E-03    -162.390E-03     318.002E-03    -155.613E-03    -2.56968E-03     327.524E-03     64.8783E+06    -17.4495E+06    -66.1924E+06    -90.5501E+06    -77.2984E+06    -79.4441E+06    -17.4495E+06    -1.78183E+06
             999     17.2046E-03     5.14290E-03     16.4179E-03     313.777E-03    -154.587E-03    -159.190E-03    -159.149E-03     313.736E-03    -154.587E-03    -7.36858E-03     321.021E-03     72.2198E+06    -33.5402E+06    -81.2959E+06    -115.312E+06    -82.5607E+06    -114.048E+06    -33.5402E+06    -1.50251E+06
            1000     16.9455E-03     4.28788E-03     16.3940E-03     310.037E-03    -153.791E-03    -156.246E-03    -156.176E-03     309.966E-03    -153.791E-03    -10.4840E-03     315.318E-03     78.0216E+06    -53.2623E+06    -90.2646E+06    -142.064E+06    -90.7586E+06    -141.570E+06    -53.2623E+06    -3.05575E+06
            1001     16.7363E-03     3.43174E-03     16.3807E-03     307.948E-03    -153.218E-03    -154.730E-03    -154.648E-03     307.865E-03    -153.218E-03    -11.8694E-03     311.571E-03     86.7092E+06    -70.8254E+06    -98.4853E+06    -167.291E+06    -99.1103E+06    -166.666E+06    -70.8254E+06    -1.14414E+06
            1002     16.5717E-03     2.57622E-03     16.3702E-03     306.460E-03    -152.764E-03    -153.696E-03    -153.615E-03     306.392E-03    -152.777E-03    -11.0335E-03     308.537E-03     100.537E+06    -85.3787E+06    -102.848E+06    -192.952E+06    -103.475E+06    -192.325E+06    -85.3787E+06      2.4542E+06
            1003     16.4560E-03     1.71792E-03     16.3661E-03     305.242E-03    -152.322E-03    -152.920E-03    -152.681E-03     305.197E-03    -152.516E-03    -8.90769E-03     306.236E-03     116.300E+06    -97.8625E+06    -110.408E+06    -219.922E+06    -110.932E+06    -219.398E+06    -97.8625E+06    -593.527E+03
            1004     16.3842E-03     858.178E-06     16.3617E-03     304.924E-03    -151.406E-03    -153.518E-03    -151.932E-03     304.903E-03    -152.971E-03    -4.99504E-03     305.258E-03     144.630E+06    -111.501E+06    -122.396E+06    -261.219E+06    -120.699E+06    -261.076E+06    -113.340E+06    -1.05363E+06
            1005     21.4325E-03     14.3963E-03     15.8776E-03     357.660E-03    -167.155E-03    -190.505E-03    -184.242E-03     351.397E-03    -167.155E-03     116.047E-03     420.716E-03     124.341E+06     131.869E+06     81.9087E+06    -9.40753E+06    -9.23699E+06     81.7382E+06     131.869E+06     2.18547E+06
            1006     20.7477E-03     13.5667E-03     15.6975E-03     354.658E-03    -166.046E-03    -188.611E-03    -183.394E-03     349.441E-03    -166.046E-03     103.724E-03     416.020E-03     102.298E+06     98.6462E+06     62.5588E+06    -16.7448E+06    -14.5720E+06     60.3860E+06     98.6462E+06    -57.2787E+03
            1007     20.1183E-03     12.7302E-03     15.5785E-03     350.313E-03    -164.837E-03    -185.476E-03    -182.677E-03     347.515E-03    -164.837E-03     77.0920E-03     397.334E-03     83.7204E+06     69.6882E+06     31.2586E+06    -26.0701E+06    -23.5767E+06     28.7652E+06     69.6882E+06    -4.34528E+06
            1008     19.5097E-03     11.8970E-03     15.4626E-03     348.940E-03    -163.455E-03    -185.485E-03    -183.565E-03     347.020E-03    -163.455E-03     63.1673E-03     389.999E-03     75.3048E+06     56.0160E+06     15.4028E+06    -30.8695E+06    -29.9043E+06     14.4375E+06     56.0160E+06    -5.40716E+06
            1009     18.9472E-03     11.0707E-03     15.3764E-03     345.452E-03    -161.865E-03    -183.587E-03    -182.458E-03     344.323E-03    -161.865E-03     48.6016E-03     378.971E-03     74.5362E+06     49.6361E+06     13.8605E+06    -35.9280E+06    -35.3542E+06     13.2867E+06     49.6361E+06    -3.62586E+06
            1010     18.4020E-03     10.2304E-03     15.2961E-03     340.591E-03    -160.139E-03    -180.452E-03    -179.774E-03     339.913E-03    -160.139E-03     36.8864E-03     367.813E-03     74.9314E+06     40.6488E+06     15.7351E+06    -43.1623E+06    -42.3497E+06     14.9225E+06     40.6488E+06    -1.79680E+06
            1011     17.8983E-03     9.39375E-03     15.2350E-03     336.385E-03    -158.305E-03    -178.079E-03    -177.767E-03     336.072E-03    -158.305E-03     23.7817E-03     358.792E-03     72.0747E+06     34.8225E+06     19.9925E+06    -43.3956E+06    -42.5081E+06     19.1050E+06     34.8225E+06    -327.285E+03
            1012     17.4260E-03     8.55574E-03     15.1811E-03     330.606E-03    -156.398E-03    -174.208E-03    -174.102E-03     330.500E-03    -156.398E-03     11.2000E-03     348.835E-03     71.6833E+06     26.5342E+06     15.1201E+06    -49.9714E+06    -49.4910E+06     14.6397E+06     26.5342E+06     3.27585E+06
            1013     16.9934E-03     7.71669E-03     15.1402E-03     323.840E-03    -154.548E-03    -169.292E-03    -169.269E-03     323.818E-03    -154.548E-03     119.225E-06     338.486E-03     71.0831E+06     17.6540E+06     3.76218E+06    -58.6960E+06    -55.6767E+06      742.87E+03     17.6540E+06     6.50928E+06
            1014     16.5882E-03     6.86912E-03     15.0991E-03     318.245E-03    -152.777E-03    -165.468E-03    -165.412E-03     318.189E-03    -152.777E-03    -8.13108E-03     329.896E-03     62.7866E+06     3.11838E+06    -25.7670E+06    -66.8316E+06    -62.1085E+06    -30.4901E+06     3.11838E+06     3.21767E+06
            1015     16.2306E-03     6.02049E-03     15.0727E-03     312.651E-03    -151.077E-03    -161.573E-03    -161.451E-03     312.529E-03    -151.077E-03    -13.6922E-03     321.867E-03     61.1814E+06    -18.7099E+06    -63.7687E+06    -87.7827E+06    -74.5734E+06    -76.9781E+06    -18.7099E+06    -3.82272E+06
            1016     15.9137E-03     5.16836E-03     15.0510E-03     307.129E-03    -149.536E-03    -157.593E-03    -157.428E-03     306.963E-03    -149.536E-03    -16.7733E-03     314.039E-03     72.7519E+06    -32.7675E+06    -80.9288E+06    -115.281E+06    -81.9691E+06    -114.241E+06    -32.7675E+06    -5.38187E+06
            1017     15.6455E-03     4.31402E-03     15.0390E-03     301.948E-03    -148.175E-03    -153.773E-03    -153.585E-03     301.760E-03    -148.175E-03    -18.1185E-03     306.771E-03     81.0153E+06    -50.1237E+06    -90.2740E+06    -142.528E+06    -90.7197E+06    -142.082E+06    -50.1237E+06    -1.90700E+06
            1018     15.4184E-03     3.45427E-03     15.0265E-03     297.488E-03    -147.085E-03    -150.402E-03    -150.215E-03     297.300E-03    -147.085E-03    -18.0092E-03     300.612E-03     90.1666E+06    -69.1508E+06    -100.647E+06    -170.314E+06    -100.813E+06    -170.148E+06    -69.1508E+06     144.245E+03
            1019     15.2427E-03     2.59146E-03     15.0208E-03     294.338E-03    -146.293E-03    -148.046E-03    -147.893E-03     294.186E-03    -146.293E-03    -15.9287E-03     296.143E-03     100.136E+06    -85.5601E+06    -108.683E+06    -194.841E+06    -108.974E+06    -194.550E+06    -85.5601E+06     1.66195E+06
            1020     15.1167E-03     1.72872E-03     15.0175E-03     292.296E-03    -145.724E-03    -146.572E-03    -146.489E-03     292.213E-03    -145.724E-03    -11.4667E-03     293.118E-03     109.929E+06    -100.085E+06    -112.462E+06    -215.429E+06    -112.878E+06    -215.013E+06    -100.085E+06     4.40274E+06
            1021     15.0411E-03     866.001E-06     15.0162E-03     291.086E-03    -144.603E-03    -146.483E-03    -145.070E-03     291.057E-03    -145.987E-03    -6.84992E-03     291.312E-03     146.646E+06    -109.320E+06    -115.687E+06    -258.945E+06    -113.449E+06    -258.747E+06    -111.757E+06     1.77852E+06
            1022     20.4140E-03     14.4079E-03     14.4618E-03     359.151E-03    -166.978E-03    -192.173E-03    -185.709E-03     352.688E-03    -166.978E-03     117.871E-03     421.813E-03     125.474E+06     132.857E+06     81.3157E+06    -10.0034E+06    -9.92677E+06     81.2390E+06     132.857E+06    -989.770E+03
            1023     19.6993E-03     13.5702E-03     14.2798E-03     357.837E-03    -165.739E-03    -192.098E-03    -186.620E-03     352.358E-03    -165.739E-03     106.346E-03     419.710E-03     104.661E+06     106.868E+06     69.4697E+06    -11.3053E+06    -10.6993E+06     68.8636E+06     106.868E+06     2.64833E+06
            1024     19.0501E-03     12.7414E-03     14.1620E-03     353.684E-03    -164.261E-03    -189.423E-03    -186.592E-03     350.854E-03    -164.261E-03     78.1095E-03     400.797E-03     83.2192E+06     74.0364E+06     37.9256E+06    -20.8473E+06    -19.0861E+06     36.1644E+06     74.0364E+06     3.90335E+06
            1025     18.4179E-03     11.9105E-03     14.0484E-03     351.142E-03    -162.570E-03    -188.572E-03    -186.613E-03     349.183E-03    -162.570E-03     63.9027E-03     392.266E-03     72.9388E+06     50.6093E+06     14.8828E+06    -33.1926E+06    -31.4822E+06     13.1724E+06     50.6093E+06    -1.86489E+06
            1026     17.8197E-03     11.0742E-03     13.9607E-03     347.988E-03    -160.627E-03    -187.361E-03    -186.381E-03     347.008E-03    -160.627E-03     44.5805E-03     382.574E-03     71.0201E+06     37.7956E+06     9.85304E+06    -42.5156E+06    -41.0111E+06     8.34856E+06     37.7956E+06    -6.43307E+06
            1027     17.2648E-03     10.2478E-03     13.8945E-03     343.740E-03    -158.436E-03    -185.304E-03    -184.865E-03     343.301E-03    -158.436E-03     28.7540E-03     372.294E-03     71.5351E+06     34.3116E+06     14.7628E+06    -44.5904E+06    -42.9002E+06     13.0726E+06     34.3116E+06    -8.00493E+06
            1028     16.7303E-03     9.41567E-03     13.8293E-03     338.017E-03    -156.052E-03    -181.965E-03    -181.838E-03     337.889E-03    -156.052E-03     13.9725E-03     361.575E-03     73.9868E+06     29.8205E+06     14.4029E+06    -50.5975E+06    -49.3735E+06     13.1789E+06     29.8205E+06    -7.58696E+06
            1029     16.2416E-03     8.58343E-03     13.7882E-03     331.677E-03    -153.529E-03    -178.147E-03    -178.130E-03     331.659E-03    -153.529E-03     1.63184E-03     351.097E-03     76.9894E+06     24.0425E+06     8.11160E+06    -59.6459E+06    -59.1097E+06     7.57549E+06     24.0425E+06    -3.19108E+06
            1030     15.7850E-03     7.74394E-03     13.7549E-03     324.169E-03    -150.933E-03    -173.236E-03    -173.197E-03     324.131E-03    -150.933E-03    -7.26873E-03     339.421E-03     79.2142E+06     20.1864E+06     4.81561E+06    -65.4948E+06    -63.2341E+06     2.55489E+06     20.1864E+06     5.95187E+06
            1031     15.3663E-03     6.90320E-03     13.7285E-03     315.397E-03    -148.367E-03    -167.030E-03    -166.892E-03     315.259E-03    -148.367E-03    -15.4303E-03     327.252E-03     71.4185E+06     1.66776E+06    -19.1208E+06    -76.3486E+06    -71.2463E+06    -24.2231E+06     1.66776E+06     7.37101E+06
            1032     14.9868E-03     6.05350E-03     13.7099E-03     306.926E-03    -145.987E-03    -160.939E-03    -160.665E-03     306.652E-03    -145.987E-03    -22.2618E-03     316.206E-03     58.2089E+06    -22.8582E+06    -60.6564E+06    -86.9381E+06    -78.7911E+06    -68.8034E+06    -22.8582E+06     1.05071E+06
            1033     14.6519E-03     5.19870E-03     13.6986E-03     299.511E-03    -143.853E-03    -155.658E-03    -155.279E-03     299.131E-03    -143.853E-03    -25.8352E-03     306.381E-03     64.4176E+06    -42.6883E+06    -88.2539E+06    -114.906E+06    -88.5749E+06    -114.585E+06    -42.6883E+06    -2.50638E+06
            1034     14.3627E-03     4.33933E-03     13.6915E-03     292.766E-03    -141.933E-03    -150.833E-03    -150.414E-03     292.347E-03    -141.933E-03    -26.6669E-03     297.546E-03     78.5867E+06    -58.2083E+06    -98.8613E+06    -148.331E+06    -99.3962E+06    -147.796E+06    -58.2083E+06    -2.43573E+06
            1035     14.1246E-03     3.47816E-03     13.6897E-03     286.340E-03    -140.265E-03    -146.075E-03    -145.698E-03     285.963E-03    -140.265E-03    -25.0614E-03     289.376E-03     83.9386E+06    -75.7859E+06    -106.259E+06    -170.196E+06    -106.618E+06    -169.837E+06    -75.7859E+06     354.128E+03
            1036     13.9355E-03     2.61227E-03     13.6885E-03     281.064E-03    -138.990E-03    -142.073E-03    -141.794E-03     280.784E-03    -138.990E-03    -21.4767E-03     282.777E-03     91.5866E+06    -95.0644E+06    -114.816E+06    -194.718E+06    -114.926E+06    -194.608E+06    -95.0644E+06    -782.611E+03
            1037     13.7993E-03     1.74234E-03     13.6889E-03     277.570E-03    -138.164E-03    -139.406E-03    -139.247E-03     277.412E-03    -138.164E-03    -15.6474E-03     278.348E-03     102.253E+06    -107.233E+06    -117.963E+06    -214.175E+06    -118.162E+06    -213.975E+06    -107.233E+06    -284.157E+03
            1038     13.7162E-03     870.105E-06     13.6886E-03     275.830E-03    -137.464E-03    -138.367E-03    -138.310E-03     275.774E-03    -137.464E-03    -8.82707E-03     276.020E-03     136.408E+06    -115.844E+06    -120.181E+06    -254.330E+06    -119.855E+06    -254.060E+06    -116.441E+06     1.59481E+06
            1039     19.4270E-03     14.3973E-03     13.0431E-03     360.390E-03    -166.898E-03    -193.492E-03    -186.896E-03     353.794E-03    -166.898E-03     119.300E-03     422.505E-03     124.805E+06     134.801E+06     81.7007E+06    -7.66982E+06    -7.31399E+06     81.3448E+06     134.801E+06     677.890E+03
            1040     18.6922E-03     13.5719E-03     12.8531E-03     360.750E-03    -165.510E-03    -195.240E-03    -189.642E-03     355.152E-03    -165.510E-03     107.852E-03     423.351E-03     106.080E+06     99.4963E+06     59.9457E+06    -20.6189E+06    -20.4485E+06     59.7753E+06     99.4963E+06    -3.03180E+06
            1041     18.0196E-03     12.7433E-03     12.7403E-03     357.563E-03    -163.794E-03    -193.769E-03    -191.007E-03     354.801E-03    -163.794E-03     77.6315E-03     406.050E-03     89.2270E+06     75.6018E+06     39.3972E+06    -25.8755E+06    -25.0097E+06     38.5314E+06     75.6018E+06     2.09579E+06
            1042     17.3630E-03     11.9162E-03     12.6285E-03     355.212E-03    -161.728E-03    -193.483E-03    -191.702E-03     353.430E-03    -161.728E-03     60.9737E-03     398.449E-03     76.1265E+06     55.7251E+06     20.7057E+06    -31.5121E+06    -30.7205E+06     19.9141E+06     55.7251E+06     2.92912E+06
            1043     16.7476E-03     11.0956E-03     12.5447E-03     351.422E-03    -159.314E-03    -192.108E-03    -191.343E-03     350.656E-03    -159.314E-03     39.8666E-03     387.902E-03     69.4144E+06     41.0546E+06     16.1469E+06    -36.9542E+06    -35.8976E+06     15.0903E+06     41.0546E+06    -3.28567E+06
            1044     16.1584E-03     10.2690E-03     12.4756E-03     346.447E-03    -156.612E-03    -189.835E-03    -189.532E-03     346.144E-03    -156.612E-03     24.3995E-03     377.277E-03     71.9810E+06     33.0352E+06     14.0960E+06    -46.4848E+06    -45.0897E+06     12.7009E+06     33.0352E+06    -6.27054E+06
            1045     15.6101E-03     9.44265E-03     12.4303E-03     339.216E-03    -153.695E-03    -185.521E-03    -185.448E-03     339.142E-03    -153.695E-03     10.6053E-03     364.862E-03     74.9807E+06     24.3061E+06     6.12565E+06    -58.0676E+06    -57.1100E+06     5.16811E+06     24.3061E+06    -5.07966E+06
            1046     15.0884E-03     8.60660E-03     12.3930E-03     331.597E-03    -150.618E-03    -180.978E-03    -180.955E-03     331.573E-03    -150.618E-03    -2.22323E-03     352.674E-03     75.1003E+06     15.9468E+06     659.697E+03    -65.6124E+06    -64.7510E+06    -201.660E+03     15.9468E+06    -3.67603E+06
            1047     14.6104E-03     7.77295E-03     12.3711E-03     323.280E-03    -147.413E-03    -175.868E-03    -175.765E-03     323.177E-03    -147.413E-03    -13.1698E-03     340.375E-03     74.9658E+06     7.15880E+06    -6.89016E+06    -73.7848E+06    -73.5305E+06    -7.14447E+06     7.15880E+06    -2.16865E+06
            1048     14.1693E-03     6.93020E-03     12.3589E-03     313.319E-03    -144.187E-03    -169.133E-03    -168.876E-03     313.062E-03    -144.187E-03    -21.5391E-03     326.727E-03     70.3444E+06    -1.79241E+06    -20.0893E+06    -79.0123E+06    -77.7325E+06    -21.3690E+06    -1.79241E+06     3.31070E+06
            1049     13.7709E-03     6.08347E-03     12.3543E-03     303.017E-03    -141.072E-03    -161.946E-03    -161.500E-03     302.572E-03    -141.072E-03    -28.3079E-03     313.384E-03     61.7903E+06    -20.8129E+06    -54.4957E+06    -90.1534E+06    -84.3884E+06    -60.2607E+06    -20.8129E+06     6.37441E+06
            1050     13.4169E-03     5.23006E-03     12.3556E-03     292.888E-03    -138.159E-03    -154.729E-03    -154.138E-03     292.298E-03    -138.159E-03    -32.3524E-03     300.610E-03     58.7128E+06    -48.1998E+06    -91.1500E+06    -114.862E+06    -97.1114E+06    -108.901E+06    -48.1998E+06     3.76557E+06
            1051     13.1092E-03     4.37048E-03     12.3592E-03     283.316E-03    -135.580E-03    -147.736E-03    -147.095E-03     282.675E-03    -135.580E-03    -33.1671E-03     288.707E-03     68.9549E+06    -69.4683E+06    -106.877E+06    -148.352E+06    -107.322E+06    -147.907E+06    -69.4683E+06    -735.858E+03
            1052     12.8536E-03     3.50309E-03     12.3671E-03     274.982E-03    -133.375E-03    -141.607E-03    -141.038E-03     274.413E-03    -133.375E-03    -30.6449E-03     278.443E-03     73.9221E+06    -87.3318E+06    -115.472E+06    -171.093E+06    -115.758E+06    -170.806E+06    -87.3318E+06    -1.85444E+06
            1053     12.6511E-03     2.63178E-03     12.3744E-03     268.180E-03    -131.559E-03    -136.621E-03    -136.213E-03     267.772E-03    -131.559E-03    -25.4515E-03     270.096E-03     81.8389E+06    -103.280E+06    -120.521E+06    -192.031E+06    -120.687E+06    -191.866E+06    -103.280E+06    -1.53234E+06
            1054     12.5051E-03     1.75725E-03     12.3810E-03     262.872E-03    -130.168E-03    -132.703E-03    -132.469E-03     262.638E-03    -130.168E-03    -18.8341E-03     263.743E-03     98.0820E+06    -113.755E+06    -125.294E+06    -217.080E+06    -125.371E+06    -217.003E+06    -113.755E+06    -2.52694E+06
            1055     12.4147E-03     880.340E-06     12.3835E-03     259.234E-03    -129.027E-03    -130.207E-03    -130.121E-03     259.148E-03    -129.027E-03    -10.7960E-03     259.465E-03     125.077E+06    -124.800E+06    -132.632E+06    -253.512E+06    -132.108E+06    -253.382E+06    -125.455E+06     1.64046E+06
            1056     18.5118E-03     14.4097E-03     11.6210E-03     363.487E-03    -166.769E-03    -196.718E-03    -190.419E-03     357.189E-03    -166.769E-03     117.163E-03     426.148E-03     125.824E+06     139.004E+06     85.3539E+06    -4.61120E+06    -3.86535E+06     84.6081E+06     139.004E+06     2.48077E+06
            1057     17.7465E-03     13.5757E-03     11.4297E-03     362.612E-03    -165.176E-03    -197.437E-03    -192.098E-03     357.274E-03    -165.176E-03     105.479E-03     427.332E-03     106.106E+06     102.991E+06     61.3859E+06    -17.5762E+06    -17.0670E+06     60.8767E+06     102.991E+06     1.51338E+06
            1058     17.0445E-03     12.7511E-03     11.3104E-03     359.718E-03    -163.230E-03    -196.488E-03    -193.941E-03     357.171E-03    -163.230E-03     74.9909E-03     410.245E-03     88.5662E+06     73.0894E+06     35.4935E+06    -28.0543E+06    -27.8651E+06     35.3043E+06     73.0894E+06    -700.788E+03
            1059     16.3652E-03     11.9322E-03     11.2001E-03     357.900E-03    -160.908E-03    -196.993E-03    -195.239E-03     356.147E-03    -160.908E-03     61.3372E-03     403.819E-03     77.4605E+06     60.6083E+06     23.3272E+06    -28.3742E+06    -28.1857E+06     23.1387E+06     60.6083E+06    -1.77066E+06
            1060     15.7178E-03     11.1072E-03     11.1211E-03     353.514E-03    -158.207E-03    -195.307E-03    -194.429E-03     352.637E-03    -158.207E-03     43.0550E-03     392.430E-03     73.1142E+06     50.2767E+06     17.5209E+06    -33.2313E+06    -32.9294E+06     17.2191E+06     50.2767E+06     831.560E+03
            1061     15.1036E-03     10.2843E-03     11.0613E-03     347.758E-03    -155.164E-03    -192.594E-03    -192.233E-03     347.397E-03    -155.164E-03     26.7175E-03     381.644E-03     72.1496E+06     38.0021E+06     15.7999E+06    -42.4569E+06    -41.8061E+06     15.1491E+06     38.0021E+06     2.00092E+06
            1062     14.5236E-03     9.45636E-03     11.0233E-03     341.145E-03    -151.817E-03    -189.328E-03    -189.246E-03     341.063E-03    -151.817E-03     11.0753E-03     370.429E-03     71.6311E+06     25.3493E+06     7.90992E+06    -53.3830E+06    -52.8009E+06     7.32781E+06     25.3493E+06     911.866E+03
            1063     13.9815E-03     8.63162E-03     10.9990E-03     332.652E-03    -148.213E-03    -184.439E-03    -184.410E-03     332.623E-03    -148.213E-03    -3.13972E-03     357.391E-03     72.2317E+06     13.6913E+06    -1.04618E+06    -64.6967E+06    -64.1174E+06    -1.62546E+06     13.6913E+06     913.898E+03
            1064     13.4731E-03     7.79558E-03     10.9888E-03     322.407E-03    -144.459E-03    -177.948E-03    -177.808E-03     322.266E-03    -144.459E-03    -15.6833E-03     343.199E-03     71.4638E+06     1.53992E+06    -9.24090E+06    -74.6677E+06    -73.9640E+06    -9.94457E+06     1.53992E+06    -1.97252E+06
            1065     13.0091E-03     6.95750E-03     10.9923E-03     311.227E-03    -140.702E-03    -170.526E-03    -170.195E-03     310.897E-03    -140.702E-03    -24.8933E-03     328.144E-03     67.1150E+06    -9.48444E+06    -29.1016E+06    -83.4719E+06    -83.1234E+06    -29.4500E+06    -9.48444E+06    -1.28471E+06
            1066     12.5855E-03     6.11050E-03     11.0026E-03     299.265E-03    -137.046E-03    -162.219E-03    -161.713E-03     298.760E-03    -137.046E-03    -30.3945E-03     312.615E-03     60.9904E+06    -24.4584E+06    -61.8940E+06    -93.6616E+06    -92.1544E+06    -63.4011E+06    -24.4584E+06     3.70257E+06
            1067     12.2092E-03     5.25667E-03     11.0197E-03     287.296E-03    -133.601E-03    -153.695E-03    -153.079E-03     286.680E-03    -133.601E-03    -32.8803E-03     297.352E-03     59.4608E+06    -43.6442E+06    -89.1322E+06    -110.606E+06    -99.0016E+06    -100.736E+06    -43.6442E+06     6.33430E+06
            1068     11.8823E-03     4.39382E-03     11.0401E-03     275.929E-03    -130.475E-03    -145.455E-03    -144.811E-03     275.286E-03    -130.475E-03    -32.8852E-03     282.932E-03     64.2827E+06    -68.5805E+06    -106.637E+06    -141.798E+06    -108.401E+06    -140.034E+06    -68.5805E+06     5.50043E+06
            1069     11.6078E-03     3.52507E-03     11.0596E-03     265.850E-03    -127.755E-03    -138.095E-03    -137.514E-03     265.269E-03    -127.755E-03    -30.5661E-03     270.342E-03     66.5068E+06    -92.1141E+06    -119.575E+06    -167.864E+06    -120.220E+06    -167.219E+06    -92.1141E+06     228.433E+03
            1070     11.3895E-03     2.64984E-03     11.0769E-03     257.425E-03    -125.494E-03    -131.931E-03    -131.502E-03     256.996E-03    -125.494E-03    -25.6615E-03     259.973E-03     75.5755E+06    -110.105E+06    -129.600E+06    -193.127E+06    -129.847E+06    -192.880E+06    -110.105E+06    -1.32212E+06
            1071     11.2306E-03     1.77020E-03     11.0902E-03     250.719E-03    -123.686E-03    -127.033E-03    -126.795E-03     250.481E-03    -123.686E-03    -18.5921E-03     251.881E-03     89.4446E+06    -125.748E+06    -137.666E+06    -220.455E+06    -137.751E+06    -220.369E+06    -125.748E+06     172.603E+03
            1072     11.1364E-03     886.219E-06     11.1010E-03     245.917E-03    -122.161E-03    -123.756E-03    -123.672E-03     245.833E-03    -122.161E-03    -10.2144E-03     246.241E-03     115.876E+06    -136.246E+06    -143.106E+06    -255.312E+06    -141.009E+06    -255.195E+06    -138.460E+06    -1.28317E+06
            1073     17.6479E-03     14.4055E-03     10.1946E-03     366.244E-03    -166.573E-03    -199.671E-03    -193.378E-03     359.951E-03    -166.573E-03     116.903E-03     429.836E-03     128.173E+06     134.864E+06     80.7262E+06    -11.3222E+06    -10.7826E+06     80.1867E+06     134.864E+06    -1.10862E+06
            1074     16.8687E-03     13.5849E-03     10.0002E-03     365.140E-03    -164.832E-03    -200.308E-03    -194.529E-03     359.361E-03    -164.832E-03     110.482E-03     431.960E-03     108.953E+06     108.112E+06     65.7529E+06    -15.6216E+06    -15.1319E+06     65.2632E+06     108.112E+06     3.04583E+06
            1075     16.1392E-03     12.7615E-03     9.88024E-03     360.626E-03    -162.758E-03    -197.868E-03    -194.975E-03     357.733E-03    -162.758E-03     80.0126E-03     413.128E-03     86.9581E+06     78.8079E+06     40.5955E+06    -20.6840E+06    -20.4909E+06     40.4024E+06     78.8079E+06     1.93740E+06
            1076     15.4250E-03     11.9340E-03     9.77295E-03     358.205E-03    -160.335E-03    -197.870E-03    -195.856E-03     356.190E-03    -160.335E-03     65.8839E-03     407.267E-03     75.6006E+06     58.6099E+06     23.3429E+06    -28.1118E+06    -27.4157E+06     22.6468E+06     58.6099E+06     1.37631E+06
            1077     14.7484E-03     11.1147E-03     9.69433E-03     354.471E-03    -157.521E-03    -196.950E-03    -195.985E-03     353.506E-03    -157.521E-03     45.1201E-03     397.409E-03     75.0912E+06     48.2492E+06     16.4206E+06    -37.3644E+06    -36.4421E+06     15.4983E+06     48.2492E+06     659.198E+03
            1078     14.1052E-03     10.2920E-03     9.64527E-03     349.038E-03    -154.289E-03    -194.749E-03    -194.371E-03     348.660E-03    -154.289E-03     27.6311E-03     387.658E-03     75.0989E+06     40.7055E+06     14.8664E+06    -43.7442E+06    -42.8873E+06     14.0095E+06     40.7055E+06     3.41090E+06
            1079     13.4937E-03     9.47113E-03     9.61134E-03     341.656E-03    -150.685E-03    -190.971E-03    -190.869E-03     341.554E-03    -150.685E-03     12.9080E-03     376.550E-03     70.9230E+06     27.1889E+06     7.99874E+06    -51.2423E+06    -50.2911E+06     7.04755E+06     27.1889E+06     6.14622E+06
            1080     12.9184E-03     8.64236E-03     9.60184E-03     332.269E-03    -146.848E-03    -185.421E-03    -185.400E-03     332.248E-03    -146.848E-03     636.970E-06     363.152E-03     70.8256E+06     17.7920E+06     2.92068E+06    -59.2059E+06    -58.4948E+06     2.20961E+06     17.7920E+06     5.04516E+06
            1081     12.3835E-03     7.81268E-03     9.60802E-03     320.944E-03    -142.897E-03    -178.048E-03    -177.972E-03     320.869E-03    -142.897E-03    -9.52630E-03     347.461E-03     73.1774E+06     7.01695E+06    -4.80864E+06    -71.2810E+06    -70.2344E+06    -5.85521E+06     7.01695E+06     3.99204E+06
            1082     11.8869E-03     6.97233E-03     9.62737E-03     308.429E-03    -138.979E-03    -169.449E-03    -169.267E-03     308.247E-03    -138.979E-03    -16.7392E-03     330.707E-03     67.0048E+06    -10.7336E+06    -31.5808E+06    -84.5692E+06    -83.5879E+06    -32.5621E+06    -10.7336E+06     1.34578E+06
            1083     11.4366E-03     6.12523E-03     9.65801E-03     295.860E-03    -135.228E-03    -160.632E-03    -160.360E-03     295.588E-03    -135.228E-03    -20.6084E-03     313.970E-03     59.0371E+06    -28.8842E+06    -66.9795E+06    -95.9125E+06    -94.4077E+06    -68.4843E+06    -28.8842E+06     3.12241E+06
            1084     11.0308E-03     5.26844E-03     9.69134E-03     283.884E-03    -131.697E-03    -152.187E-03    -151.840E-03     283.538E-03    -131.697E-03    -23.2377E-03     297.715E-03     59.9844E+06    -46.3996E+06    -95.5284E+06    -112.897E+06    -105.058E+06    -103.367E+06    -46.3996E+06     5.42306E+06
            1085     10.6790E-03     4.40589E-03     9.72779E-03     272.529E-03    -128.427E-03    -144.102E-03    -143.723E-03     272.150E-03    -128.427E-03    -24.0620E-03     282.297E-03     64.6893E+06    -64.0066E+06    -111.056E+06    -136.249E+06    -113.321E+06    -133.984E+06    -64.0066E+06     6.62150E+06
            1086     10.3816E-03     3.53533E-03     9.76111E-03     261.862E-03    -125.485E-03    -136.377E-03    -136.036E-03     261.520E-03    -125.485E-03    -22.3764E-03     268.170E-03     64.2865E+06    -87.0651E+06    -119.319E+06    -159.998E+06    -120.846E+06    -158.471E+06    -87.0651E+06     4.88413E+06
            1087     10.1457E-03     2.65858E-03     9.79114E-03     252.622E-03    -123.063E-03    -129.559E-03    -129.308E-03     252.371E-03    -123.063E-03    -18.7337E-03     256.207E-03     76.0579E+06    -108.755E+06    -131.236E+06    -193.292E+06    -131.715E+06    -192.813E+06    -108.755E+06     1.22966E+06
            1088     9.97349E-03     1.77510E-03     9.81425E-03     245.550E-03    -121.243E-03    -124.308E-03    -124.164E-03     245.407E-03    -121.243E-03    -13.9193E-03     247.195E-03     87.6869E+06    -125.000E+06    -139.494E+06    -218.828E+06    -139.593E+06    -218.729E+06    -125.000E+06    -42.7448E+03
            1089     9.87000E-03     888.608E-06     9.82991E-03     241.056E-03    -119.646E-03    -121.410E-03    -121.354E-03     241.001E-03    -119.646E-03    -8.17760E-03     241.540E-03     113.031E+06    -137.979E+06    -148.844E+06    -255.951E+06    -147.387E+06    -255.849E+06    -139.539E+06    -1.69284E+06
            1090     16.8699E-03     14.4129E-03     8.76712E-03     365.974E-03    -166.437E-03    -199.537E-03    -193.122E-03     359.559E-03    -166.437E-03     117.082E-03     430.240E-03     127.364E+06     136.831E+06     79.9776E+06    -8.97504E+06    -8.83324E+06     79.8359E+06     136.831E+06    -1.11630E+06
            1091     16.0585E-03     13.5833E-03     8.56557E-03     365.944E-03    -164.670E-03    -201.274E-03    -195.067E-03     359.737E-03    -164.670E-03     114.599E-03     435.184E-03     107.925E+06     104.249E+06     59.1410E+06    -18.8850E+06    -18.5125E+06     58.7686E+06     104.249E+06    -2.53558E+06
            1092     15.3046E-03     12.7588E-03     8.45235E-03     361.504E-03    -162.557E-03    -198.947E-03    -195.917E-03     358.474E-03    -162.557E-03     82.0710E-03     416.834E-03     89.3326E+06     79.0730E+06     38.1361E+06    -23.3195E+06    -22.9712E+06     37.7878E+06     79.0730E+06    -237.890E+03
            1093     14.5660E-03     11.9405E-03     8.34224E-03     358.813E-03    -160.056E-03    -198.757E-03    -196.681E-03     356.737E-03    -160.056E-03     67.0129E-03     411.952E-03      77.333E+06     60.9959E+06     23.7808E+06    -27.8236E+06    -27.2404E+06     23.1976E+06     60.9959E+06     4.44906E+06
            1094     13.8555E-03     11.1174E-03     8.26911E-03     354.067E-03    -157.157E-03    -196.910E-03    -195.941E-03     353.098E-03    -157.157E-03     44.8912E-03     401.278E-03     71.8286E+06     45.4927E+06     16.0679E+06    -36.2196E+06    -34.8460E+06     14.6943E+06     45.4927E+06     4.39740E+06
            1095     13.1780E-03     10.2979E-03     8.22262E-03     346.214E-03    -154.001E-03    -192.214E-03    -191.800E-03     345.801E-03    -154.001E-03     29.3885E-03     390.377E-03     72.5422E+06     36.8617E+06     11.1283E+06    -45.0338E+06    -43.8098E+06     9.90428E+06     36.8617E+06     4.23514E+06
            1096     12.5313E-03     9.47173E-03     8.20486E-03     337.052E-03    -150.716E-03    -186.336E-03    -186.085E-03     336.801E-03    -150.716E-03     21.4806E-03     379.078E-03     72.6687E+06     30.4963E+06     6.85813E+06    -50.9328E+06    -50.0997E+06     6.02504E+06     30.4963E+06     6.36536E+06
            1097     11.9188E-03     8.64331E-03     8.20671E-03     327.731E-03    -147.329E-03    -180.402E-03    -180.243E-03     327.572E-03    -147.329E-03     14.2562E-03     365.568E-03     72.0776E+06     21.4770E+06     3.28452E+06    -57.7918E+06    -56.6894E+06     2.18220E+06     21.4770E+06     7.02776E+06
            1098     11.3426E-03     7.80616E-03     8.22915E-03     316.865E-03    -143.929E-03    -172.936E-03    -172.830E-03     316.759E-03    -143.929E-03     7.84793E-03     349.532E-03     72.9823E+06     13.0597E+06    -1.58970E+06    -66.0468E+06    -64.7665E+06    -2.87002E+06     13.0597E+06     8.04633E+06
            1099     10.8113E-03     6.96382E-03     8.26973E-03     305.783E-03    -140.621E-03    -165.162E-03    -165.050E-03     305.671E-03    -140.621E-03     4.66433E-03     333.872E-03     68.0791E+06    -1.98667E+06    -26.1550E+06    -77.8144E+06    -75.7385E+06    -28.2309E+06    -1.98667E+06     6.90591E+06
            1100     10.3202E-03     6.11292E-03     8.31503E-03     295.732E-03    -137.417E-03    -158.315E-03    -158.198E-03     295.615E-03    -137.417E-03     1.95410E-03     319.057E-03     65.8113E+06    -21.4983E+06    -65.7686E+06    -96.1733E+06    -89.5476E+06    -72.3942E+06    -21.4983E+06     6.78567E+06
            1101     9.88069E-03     5.25788E-03     8.36557E-03     285.617E-03    -134.302E-03    -151.315E-03    -151.204E-03     285.506E-03    -134.302E-03    -1.66177E-03     303.526E-03     65.9850E+06    -39.6194E+06    -92.4836E+06    -113.131E+06    -102.040E+06    -103.575E+06    -39.6194E+06     7.88220E+06
            1102     9.49423E-03     4.39466E-03     8.41590E-03     275.571E-03    -131.383E-03    -144.188E-03    -144.079E-03     275.462E-03    -131.383E-03    -3.91989E-03     288.432E-03     68.2821E+06    -58.8635E+06    -109.864E+06    -135.777E+06    -114.205E+06    -131.436E+06    -58.8635E+06     4.15840E+06
            1103     9.16949E-03     3.52553E-03     8.46464E-03     266.388E-03    -128.759E-03    -137.629E-03    -137.540E-03     266.299E-03    -128.759E-03    -5.13663E-03     274.854E-03     68.2119E+06    -80.3165E+06    -122.013E+06    -157.976E+06    -123.484E+06    -156.505E+06    -80.3165E+06     3.73507E+06
            1104     8.90885E-03     2.64942E-03     8.50577E-03     258.426E-03    -126.537E-03    -131.888E-03    -131.827E-03     258.364E-03    -126.537E-03    -5.52508E-03     263.274E-03     74.2465E+06    -104.057E+06    -128.877E+06    -186.096E+06    -129.530E+06    -185.443E+06    -104.057E+06     2.97202E+06
            1105     8.71958E-03     1.76994E-03     8.53806E-03     252.256E-03    -124.864E-03    -127.392E-03    -127.354E-03     252.218E-03    -124.864E-03    -4.73365E-03     254.504E-03     88.0460E+06    -122.485E+06    -138.000E+06    -217.164E+06    -138.067E+06    -217.097E+06    -122.485E+06    -1.63085E+06
            1106     8.60475E-03     885.933E-06     8.55903E-03     248.328E-03    -123.596E-03    -124.732E-03    -124.715E-03     248.311E-03    -123.596E-03    -3.18421E-03     249.009E-03     117.948E+06    -134.874E+06    -148.494E+06    -258.895E+06    -147.356E+06    -258.806E+06    -136.102E+06    -1.93795E+06
            1107     16.1721E-03     14.4103E-03     7.34031E-03     366.261E-03    -166.350E-03    -199.910E-03    -193.426E-03     359.776E-03    -166.350E-03     117.644E-03     431.491E-03     127.303E+06     138.003E+06     81.8978E+06    -7.59907E+06    -7.47489E+06     81.7736E+06     138.003E+06    -238.985E+03
            1108     15.3456E-03     13.5851E-03     7.13682E-03     366.131E-03    -164.550E-03    -201.580E-03    -195.298E-03     359.848E-03    -164.550E-03     115.214E-03     438.377E-03     105.873E+06     102.888E+06     58.9213E+06    -17.8349E+06    -17.3593E+06     58.4456E+06     102.888E+06    -1.86988E+06
            1109     14.5653E-03     12.7643E-03     7.01581E-03     361.882E-03    -162.384E-03    -199.499E-03    -196.569E-03     358.952E-03    -162.384E-03     80.7156E-03     419.847E-03     86.1046E+06     73.4951E+06     33.3088E+06    -25.2886E+06    -24.6288E+06     32.6491E+06     73.4951E+06    -2.23012E+06
            1110     13.7982E-03     11.9399E-03     6.91586E-03     358.034E-03    -159.862E-03    -198.173E-03    -196.199E-03     356.061E-03    -159.862E-03     65.4059E-03     414.145E-03     75.2722E+06     56.3926E+06     18.3483E+06    -30.2961E+06    -29.8531E+06     17.9053E+06     56.3926E+06     349.291E+03
            1111     13.0553E-03     11.1212E-03     6.83816E-03     348.530E-03    -157.186E-03    -191.344E-03    -190.419E-03     347.604E-03    -157.186E-03     43.2609E-03     397.816E-03     70.0971E+06     45.9749E+06     13.4711E+06    -34.3666E+06    -33.4975E+06     12.6019E+06     45.9749E+06     5.67894E+06
            1112     12.3450E-03     10.2929E-03     6.81585E-03     336.359E-03    -154.679E-03    -181.680E-03    -181.150E-03     335.829E-03    -154.679E-03     32.7296E-03     382.220E-03     69.7485E+06     37.8095E+06     10.9748E+06    -41.2749E+06    -39.9374E+06     9.63731E+06     37.8095E+06     7.58740E+06
            1113     11.6517E-03     9.45624E-03     6.80747E-03     326.771E-03    -152.456E-03    -174.315E-03    -173.700E-03     326.156E-03    -152.456E-03     34.3030E-03     371.025E-03     71.9566E+06     31.8367E+06     7.77751E+06    -49.0288E+06    -47.9469E+06     6.69557E+06     31.8367E+06     7.02367E+06
            1114     10.9882E-03     8.61490E-03     6.82091E-03     318.887E-03    -150.397E-03    -168.491E-03    -167.927E-03     318.324E-03    -150.397E-03     31.9358E-03     358.284E-03     73.5606E+06     24.0761E+06     2.53824E+06    -57.6816E+06    -56.6157E+06     1.47232E+06     24.0761E+06     6.73466E+06
            1115     10.3662E-03     7.77091E-03     6.86084E-03     311.118E-03    -148.472E-03    -162.646E-03    -162.073E-03     310.545E-03    -148.472E-03     30.5917E-03     345.901E-03     75.5047E+06     17.3551E+06    -2.61552E+06    -66.0203E+06    -64.7011E+06    -3.93473E+06     17.3551E+06     7.93326E+06
            1116     9.78189E-03     6.91999E-03     6.91369E-03     305.400E-03    -146.634E-03    -158.767E-03    -158.078E-03     304.712E-03    -146.634E-03     32.6171E-03     336.417E-03     75.7028E+06     7.71741E+06    -26.1284E+06    -77.3686E+06    -74.3814E+06    -29.1157E+06     7.71741E+06     10.5107E+06
            1117     9.24137E-03     6.06884E-03     6.96936E-03     300.424E-03    -144.719E-03    -155.705E-03    -155.047E-03     299.766E-03    -144.719E-03     31.2027E-03     326.310E-03     74.3503E+06    -9.26977E+06    -62.4546E+06    -93.3049E+06    -85.2655E+06    -70.4940E+06    -9.26977E+06     10.8382E+06
            1118     8.75405E-03     5.21294E-03     7.03269E-03     294.587E-03    -142.706E-03    -151.880E-03    -151.349E-03     294.055E-03    -142.706E-03     27.0464E-03     314.669E-03     71.1451E+06    -28.5782E+06    -86.0052E+06    -107.731E+06    -95.9901E+06    -97.7457E+06    -28.5782E+06     6.99998E+06
            1119     8.32492E-03     4.35310E-03     7.09611E-03     288.624E-03    -140.718E-03    -147.905E-03    -147.521E-03     288.240E-03    -140.718E-03     22.3449E-03     303.433E-03     71.8966E+06    -49.6655E+06    -100.604E+06    -131.027E+06    -105.000E+06    -126.631E+06    -49.6655E+06     3.04097E+06
            1120     7.95929E-03     3.48881E-03     7.15392E-03     282.884E-03    -138.851E-03    -144.033E-03    -143.795E-03     282.646E-03    -138.851E-03     16.8696E-03     292.828E-03     77.3709E+06    -72.4958E+06    -114.104E+06    -160.849E+06    -115.387E+06    -159.566E+06    -72.4958E+06     68.5288E+03
            1121     7.66704E-03     2.62201E-03     7.20476E-03     277.564E-03    -137.188E-03    -140.376E-03    -140.244E-03     277.432E-03    -137.188E-03     11.6933E-03     283.381E-03     78.6640E+06    -96.8382E+06    -123.976E+06    -184.094E+06    -124.709E+06    -183.360E+06    -96.8382E+06     1.02702E+06
            1122     7.45265E-03     1.74970E-03     7.24434E-03     273.279E-03    -135.903E-03    -137.376E-03    -137.318E-03     273.220E-03    -135.903E-03     7.33886E-03     276.033E-03     90.4060E+06    -119.203E+06    -132.148E+06    -214.945E+06    -132.312E+06    -214.781E+06    -119.203E+06     768.659E+03
            1123     7.32213E-03     875.686E-06     7.26957E-03     270.671E-03    -134.994E-03    -135.676E-03    -135.400E-03     270.653E-03    -135.252E-03     3.76188E-03     271.511E-03     126.088E+06    -135.309E+06    -141.608E+06    -264.250E+06    -139.674E+06    -264.179E+06    -137.314E+06    -2.16172E+06
            1124     15.5769E-03     14.4131E-03     5.90782E-03     367.499E-03    -166.485E-03    -201.014E-03    -193.739E-03     360.224E-03    -166.485E-03     123.404E-03     438.565E-03     128.952E+06     138.787E+06     82.9892E+06    -8.54191E+06    -8.40808E+06     82.8554E+06     138.787E+06    -235.955E+03
            1125     14.7387E-03     13.5893E-03     5.70599E-03     369.158E-03    -164.656E-03    -204.502E-03    -197.048E-03     361.704E-03    -164.656E-03     125.891E-03     449.251E-03     107.360E+06     104.212E+06     60.0920E+06    -18.1227E+06    -17.8391E+06     59.8084E+06     104.212E+06     249.123E+03
            1126     13.9312E-03     12.7629E-03     5.58448E-03     362.076E-03    -162.457E-03    -199.620E-03    -196.269E-03     358.725E-03    -162.457E-03     85.9931E-03     424.622E-03     85.7572E+06     71.8127E+06     32.8580E+06    -26.4815E+06    -25.5425E+06     31.9190E+06     71.8127E+06     1.55947E+06
            1127     13.1440E-03     11.9463E-03     5.48192E-03     349.922E-03    -160.249E-03    -189.673E-03    -187.225E-03     347.475E-03    -160.249E-03     71.4404E-03     410.737E-03     74.1735E+06     48.7482E+06     15.2913E+06    -36.1910E+06    -35.1682E+06     14.2685E+06     48.7482E+06     554.567E+03
            1128     12.3705E-03     11.1159E-03     5.42822E-03     334.559E-03    -158.462E-03    -176.097E-03    -174.102E-03     332.652E-03    -158.550E-03     58.7126E-03     388.316E-03     71.0377E+06     39.6897E+06     9.06196E+06    -41.4440E+06    -41.0109E+06     8.62880E+06     39.6897E+06     1.97172E+06
            1129     11.6176E-03     10.2727E-03     5.42572E-03     322.842E-03    -155.779E-03    -167.064E-03    -163.214E-03     320.732E-03    -157.518E-03     58.2425E-03     372.722E-03     72.2264E+06     37.0345E+06     8.50615E+06    -45.0208E+06    -44.2693E+06     7.75460E+06     37.0345E+06     5.43644E+06
            1130     10.8744E-03     9.42173E-03     5.42984E-03     316.051E-03    -152.616E-03    -163.434E-03    -156.302E-03     313.325E-03    -157.023E-03     66.2396E-03     364.210E-03     73.5155E+06     33.0538E+06     7.85954E+06    -49.6993E+06    -48.5947E+06     6.75492E+06     33.0538E+06     7.05667E+06
            1131     10.1536E-03     8.56634E-03     5.45094E-03     311.966E-03    -150.980E-03    -160.986E-03    -152.613E-03     309.499E-03    -156.885E-03     62.9132E-03     351.580E-03     77.1636E+06     30.5081E+06     4.98258E+06    -56.1463E+06    -55.1369E+06     3.97320E+06     30.5081E+06     7.06006E+06
            1132     9.46937E-03     7.70587E-03     5.50349E-03     310.371E-03    -151.053E-03    -159.318E-03    -151.291E-03     308.192E-03    -156.901E-03     60.4278E-03     343.787E-03     80.7072E+06     23.8746E+06    -5.30992E+06    -67.0859E+06    -65.9639E+06    -6.43187E+06     23.8746E+06     7.23797E+06
            1133     8.81776E-03     6.84817E-03     5.55476E-03     310.752E-03    -151.638E-03    -159.115E-03    -151.758E-03     308.669E-03    -156.912E-03     60.5386E-03     340.099E-03     78.0642E+06     11.9829E+06    -32.1185E+06    -76.3478E+06    -74.3466E+06    -34.1197E+06     11.9829E+06     8.07231E+06
            1134     8.21202E-03     5.99163E-03     5.61584E-03     311.175E-03    -152.090E-03    -159.085E-03    -152.613E-03     309.404E-03    -156.791E-03     56.4637E-03     335.089E-03     71.5172E+06    -3.79137E+06    -59.7487E+06    -84.0046E+06    -79.9184E+06    -63.8349E+06    -3.79137E+06     6.04052E+06
            1135     7.66080E-03     5.13693E-03     5.68329E-03     311.591E-03    -152.989E-03    -158.602E-03    -153.641E-03     310.117E-03    -156.476E-03     51.6552E-03     330.487E-03     67.7884E+06    -24.8914E+06    -78.5755E+06    -100.171E+06    -86.3308E+06    -92.4156E+06    -24.8914E+06     1.95175E+06
            1136     7.17021E-03     4.28366E-03     5.74997E-03     311.785E-03    -153.853E-03    -157.932E-03    -154.703E-03     310.646E-03    -155.943E-03     45.2770E-03     326.077E-03     69.4362E+06    -48.9400E+06    -92.7224E+06    -127.352E+06    -93.9274E+06    -126.147E+06    -48.9400E+06     161.541E+03
            1137     6.75035E-03     3.43026E-03     5.81382E-03     310.901E-03    -154.145E-03    -156.756E-03    -154.894E-03     310.139E-03    -155.245E-03     36.7809E-03     320.735E-03     79.7185E+06    -71.3634E+06    -100.515E+06    -160.789E+06    -101.754E+06    -159.550E+06    -71.3634E+06    -100.249E+03
            1138     6.40869E-03     2.57367E-03     5.86921E-03     309.434E-03    -153.991E-03    -155.444E-03    -154.473E-03     309.000E-03    -154.527E-03     27.5693E-03     315.371E-03     91.5046E+06    -90.1797E+06    -109.848E+06    -189.519E+06    -110.498E+06    -188.869E+06    -90.1797E+06    -233.701E+03
            1139     6.15697E-03     1.71755E-03     5.91255E-03     308.058E-03    -153.737E-03    -154.321E-03    -153.958E-03     307.859E-03    -153.901E-03     18.2792E-03     310.919E-03     103.790E+06    -104.531E+06    -118.021E+06    -213.918E+06    -118.412E+06    -213.528E+06    -104.531E+06     2.13418E+06
            1140     6.00264E-03     858.818E-06     5.94089E-03     307.104E-03    -153.298E-03    -153.805E-03    -153.488E-03     307.044E-03    -153.557E-03     9.41203E-03     308.018E-03     144.094E+06    -117.777E+06    -125.358E+06    -265.288E+06    -123.298E+06    -265.094E+06    -120.030E+06     2.16291E+06
            1141     15.0864E-03     14.4032E-03     4.48861E-03     373.127E-03    -167.050E-03    -206.077E-03    -197.285E-03     364.335E-03    -167.050E-03     138.716E-03     456.461E-03     129.624E+06     139.538E+06     82.5448E+06    -8.73225E+06    -8.62132E+06     82.4339E+06     139.538E+06     309.171E+03
            1142     14.2249E-03     13.5711E-03     4.26301E-03     375.661E-03    -164.987E-03    -210.673E-03    -203.341E-03     368.329E-03    -164.987E-03     122.579E-03     452.184E-03     106.584E+06     103.628E+06     56.9065E+06    -18.2187E+06    -17.7397E+06     56.4275E+06     103.628E+06     1.32013E+06
            1143     13.4168E-03     12.7615E-03     4.14183E-03     353.819E-03    -162.879E-03    -190.940E-03    -188.373E-03     351.253E-03    -162.879E-03     72.6182E-03     407.914E-03     85.2065E+06     72.4757E+06     31.0034E+06    -25.4674E+06    -24.5654E+06     30.1014E+06     72.4757E+06     4.53281E+06
            1144     12.6020E-03     11.9237E-03     4.07858E-03     331.288E-03    -157.903E-03    -173.385E-03    -167.356E-03     329.043E-03    -161.687E-03     66.0703E-03     381.767E-03     74.4434E+06     51.4692E+06     18.5723E+06    -33.6406E+06    -32.1546E+06     17.0862E+06     51.4692E+06     4.91551E+06
            1145     11.7820E-03     11.0656E-03     4.04596E-03     316.281E-03    -151.667E-03    -164.614E-03    -152.520E-03     314.188E-03    -161.668E-03     61.3511E-03     359.049E-03     71.0903E+06     37.8489E+06     10.4439E+06    -42.8568E+06    -41.7581E+06     9.34518E+06     37.8489E+06     2.84903E+06
            1146     10.9794E-03     10.2023E-03     4.05728E-03     310.097E-03    -147.555E-03    -162.543E-03    -145.103E-03     307.645E-03    -162.543E-03     64.5201E-03     348.064E-03     71.8452E+06     32.9060E+06     5.54351E+06    -48.5933E+06    -48.4014E+06     5.35162E+06     32.9060E+06     693.617E+03
            1147     10.1823E-03     9.33545E-03     4.06541E-03     308.288E-03    -144.246E-03    -164.041E-03    -141.110E-03     305.151E-03    -164.041E-03     73.0575E-03     345.301E-03     75.2189E+06     33.2232E+06     5.09723E+06    -51.9965E+06    -51.7850E+06     4.88576E+06     33.2232E+06     882.666E+03
            1148     9.40524E-03     8.46854E-03     4.09176E-03     310.041E-03    -144.105E-03    -165.935E-03    -141.120E-03     307.055E-03    -165.935E-03     71.9655E-03     339.931E-03     77.1161E+06     30.9422E+06     4.81562E+06    -55.8177E+06    -55.2179E+06     4.21573E+06     30.9422E+06     4.05559E+06
            1149     8.66180E-03     7.60951E-03     4.13788E-03     315.876E-03    -147.965E-03    -167.911E-03    -145.082E-03     312.992E-03    -167.911E-03     72.5371E-03     341.346E-03     71.6592E+06     21.8812E+06    -5.29325E+06    -59.1637E+06    -58.6615E+06    -5.79543E+06     21.8812E+06     3.66719E+06
            1150     7.94465E-03     6.75257E-03     4.18573E-03     322.125E-03    -152.342E-03    -169.783E-03    -149.578E-03     319.361E-03    -169.783E-03     72.0473E-03     344.538E-03     62.8806E+06     5.76776E+06    -29.9877E+06    -66.1097E+06    -63.2117E+06    -32.8857E+06     5.76776E+06    -937.882E+03
            1151     7.26645E-03     5.89808E-03     4.24428E-03     327.785E-03    -156.243E-03    -171.541E-03    -153.906E-03     325.447E-03    -171.541E-03     67.0261E-03     345.823E-03     55.4457E+06    -11.9742E+06    -54.7462E+06    -74.0177E+06    -66.7825E+06    -61.9814E+06    -11.9742E+06    -3.34623E+06
            1152     6.63342E-03     5.04649E-03     4.30525E-03     334.006E-03    -160.850E-03    -173.156E-03    -158.891E-03     332.047E-03    -173.156E-03     62.0333E-03     348.552E-03     60.3212E+06    -30.0913E+06    -69.6826E+06    -97.8158E+06    -71.5051E+06    -95.9933E+06    -30.0913E+06    -1.58362E+06
            1153     6.05859E-03     4.19924E-03     4.36726E-03     340.178E-03    -165.690E-03    -174.488E-03    -164.145E-03     338.633E-03    -174.488E-03     55.6467E-03     351.426E-03     71.8912E+06    -51.1713E+06    -78.4185E+06    -131.751E+06    -79.3428E+06    -130.827E+06    -51.1713E+06     1.06783E+06
            1154     5.55602E-03     3.35605E-03     4.42789E-03     345.514E-03    -170.077E-03    -175.437E-03    -168.984E-03     344.421E-03    -175.437E-03     47.1197E-03     353.485E-03     85.7285E+06    -69.9549E+06    -86.5800E+06    -162.392E+06    -87.6011E+06    -161.371E+06    -69.9549E+06     1.71468E+06
            1155     5.14074E-03     2.51704E-03     4.48237E-03     349.261E-03    -173.249E-03    -176.012E-03    -172.590E-03     348.603E-03    -176.012E-03     36.6094E-03     354.176E-03     105.630E+06    -82.0779E+06    -93.4177E+06    -192.838E+06    -94.0907E+06    -192.165E+06    -82.0779E+06     2.53949E+06
            1156     4.82561E-03     1.67707E-03     4.52481E-03     351.388E-03    -175.064E-03    -176.324E-03    -174.764E-03     351.070E-03    -176.307E-03     25.1724E-03     353.770E-03     119.779E+06    -88.8430E+06    -100.462E+06    -213.904E+06    -101.132E+06    -213.234E+06    -88.8430E+06     2.68844E+06
            1157     4.62947E-03     839.337E-06     4.55274E-03     352.658E-03    -175.988E-03    -176.670E-03    -176.048E-03     352.551E-03    -176.503E-03     13.9337E-03     353.417E-03     158.939E+06    -99.1148E+06    -109.149E+06    -262.643E+06    -107.979E+06    -262.338E+06    -100.590E+06     2.66575E+06
            1158     14.6880E-03     14.3743E-03     3.01933E-03     388.146E-03    -167.349E-03    -220.797E-03    -213.093E-03     380.442E-03    -167.349E-03     131.583E-03     469.175E-03     129.737E+06     139.153E+06     80.8581E+06    -9.44474E+06    -9.13335E+06     80.5467E+06     139.153E+06     76.2630E+03
            1159     13.8783E-03     13.5932E-03     2.79860E-03     368.639E-03    -164.895E-03    -203.744E-03    -199.904E-03     364.799E-03    -164.895E-03     84.8590E-03     420.682E-03     104.073E+06     103.539E+06     56.2873E+06    -15.6728E+06    -15.0708E+06     55.6853E+06     103.539E+06     3.23446E+06
            1160     13.0505E-03     12.7600E-03     2.73826E-03     333.301E-03    -160.004E-03    -173.297E-03    -168.396E-03     331.910E-03    -163.514E-03     52.7754E-03     366.637E-03     82.5297E+06     71.0212E+06     29.0535E+06    -24.0208E+06    -23.2870E+06     28.3197E+06     71.0212E+06     4.91199E+06
            1161     12.2048E-03     11.9014E-03     2.70474E-03     313.915E-03    -149.219E-03    -164.696E-03    -148.735E-03     312.487E-03    -163.752E-03     51.3815E-03     341.721E-03     74.1887E+06     54.4842E+06     18.7823E+06    -30.7040E+06    -29.4998E+06     17.5781E+06     54.4842E+06     5.87364E+06
            1162     11.3555E-03     11.0320E-03     2.69138E-03     303.780E-03    -138.557E-03    -165.223E-03    -137.343E-03     302.566E-03    -165.223E-03     46.1427E-03     325.535E-03     69.0264E+06     43.2608E+06     16.5948E+06    -35.0432E+06    -34.0517E+06     15.6033E+06     43.2608E+06     4.45596E+06
            1163     10.5088E-03     10.1559E-03     2.70037E-03     301.975E-03    -134.401E-03    -167.574E-03    -133.129E-03     300.702E-03    -167.574E-03     46.7982E-03     319.575E-03     64.1201E+06     29.4447E+06     10.2695E+06    -41.6212E+06    -41.4161E+06     10.0644E+06     29.4447E+06     288.436E+03
            1164     9.66774E-03     9.27988E-03     2.71092E-03     304.182E-03    -133.585E-03    -170.598E-03    -132.119E-03     302.717E-03    -170.598E-03     50.4382E-03     320.028E-03     62.6185E+06     19.2900E+06     4.23504E+06    -48.7790E+06    -48.4637E+06     4.46249E+06     18.7473E+06    -3.00341E+06
            1165     8.83518E-03     8.40189E-03     2.73288E-03     309.924E-03    -135.769E-03    -174.155E-03    -134.307E-03     308.462E-03    -174.155E-03     50.4526E-03     323.422E-03     62.4097E+06     15.2663E+06     570.910E+03    -52.8306E+06    -52.1013E+06     2.56483E+06     12.5431E+06    -4.33669E+06
            1166     8.01723E-03     7.52681E-03     2.76101E-03     320.152E-03    -142.202E-03    -177.949E-03    -140.580E-03     318.530E-03    -177.949E-03     53.1029E-03     333.055E-03     54.5024E+06     7.76081E+06    -8.94311E+06    -52.9810E+06    -51.8115E+06    -3.67639E+06     1.32467E+06    -5.07859E+06
            1167     7.22752E-03     6.66359E-03     2.79887E-03     331.889E-03    -150.134E-03    -181.755E-03    -148.438E-03     330.193E-03    -181.755E-03     54.9992E-03     343.893E-03     41.0739E+06    -10.8857E+06    -31.9299E+06    -57.5142E+06    -53.6126E+06    -31.5759E+06    -15.1413E+06    -6.78510E+06
            1168     6.46805E-03     5.80869E-03     2.84514E-03     343.779E-03    -158.305E-03    -185.473E-03    -156.705E-03     342.178E-03    -185.473E-03     55.0390E-03     354.006E-03     39.2894E+06    -30.2127E+06    -55.0976E+06    -74.8619E+06    -59.8901E+06    -70.0694E+06    -30.2127E+06    -5.17040E+06
            1169     5.74384E-03     4.96144E-03     2.89410E-03     355.643E-03    -166.612E-03    -189.032E-03    -165.183E-03     354.215E-03    -189.032E-03     53.4184E-03     364.253E-03     58.9945E+06    -41.0167E+06    -65.3398E+06    -107.237E+06    -65.6940E+06    -106.883E+06    -41.0167E+06    -689.100E+03
            1170     5.06370E-03     4.12038E-03     2.94338E-03     367.181E-03    -174.848E-03    -192.333E-03    -173.674E-03     366.008E-03    -192.333E-03     49.5568E-03     373.994E-03     78.6576E+06    -50.8723E+06    -69.0318E+06    -136.725E+06    -69.7433E+06    -136.014E+06    -50.8723E+06     2.81717E+06
            1171     4.44322E-03     3.28641E-03     2.99027E-03     378.379E-03    -183.133E-03    -195.246E-03    -182.248E-03     377.494E-03    -195.246E-03     43.8406E-03     383.249E-03     99.4669E+06    -60.0360E+06    -72.9364E+06    -165.285E+06    -74.0504E+06    -164.171E+06    -60.0360E+06     4.86344E+06
            1172     3.90552E-03     2.45867E-03     3.03448E-03     388.217E-03    -190.663E-03    -197.554E-03    -190.085E-03     387.639E-03    -197.554E-03     35.8591E-03     391.205E-03     120.322E+06    -67.9198E+06    -78.8310E+06    -193.316E+06    -79.7975E+06    -192.349E+06    -67.9198E+06     5.19178E+06
            1173     3.48106E-03     1.63765E-03     3.07179E-03     395.214E-03    -196.082E-03    -199.132E-03    -195.789E-03     394.921E-03    -199.132E-03     25.4057E-03     396.652E-03     131.891E+06    -72.9977E+06    -85.2736E+06    -210.525E+06    -86.1431E+06    -209.656E+06    -72.9977E+06     4.89965E+06
            1174     3.20188E-03     816.840E-06     3.09594E-03     399.403E-03    -199.064E-03    -200.339E-03    -199.259E-03     399.304E-03    -200.044E-03     14.0390E-03     399.896E-03     163.832E+06    -88.5821E+06    -97.5653E+06    -256.530E+06    -98.1246E+06    -255.970E+06    -88.5821E+06     3.80192E+06
            1175     14.5023E-03     14.4258E-03     1.48753E-03     416.231E-03    -167.682E-03    -248.549E-03    -242.903E-03     410.585E-03    -167.682E-03     116.118E-03     465.772E-03     130.495E+06     142.280E+06     80.5261E+06    -7.54016E+06    -7.26758E+06     80.2535E+06     142.280E+06     1.87619E+06
            1176     13.6728E-03     13.6009E-03     1.40068E-03     351.453E-03    -163.085E-03    -188.367E-03    -185.243E-03     350.067E-03    -164.824E-03     53.0193E-03     376.472E-03     105.345E+06     105.523E+06     58.7234E+06    -15.0990E+06    -14.7818E+06     58.4062E+06     105.523E+06     3.91432E+06
            1177     12.8074E-03     12.7350E-03     1.35978E-03     316.530E-03    -151.824E-03    -164.706E-03    -151.278E-03     315.729E-03    -164.451E-03     35.6348E-03     333.537E-03     80.9219E+06     70.5441E+06     30.5331E+06    -22.4303E+06    -21.7691E+06     29.8720E+06     70.5441E+06     2.47509E+06
            1178     11.9455E-03     11.8695E-03     1.34548E-03     303.525E-03    -137.739E-03    -165.786E-03    -136.956E-03     302.742E-03    -165.786E-03     33.5663E-03     317.116E-03     66.6162E+06     50.7280E+06     18.0226E+06    -25.6910E+06    -24.9877E+06     17.3193E+06     50.7280E+06     2.26941E+06
            1179     11.0744E-03     10.9924E-03     1.34498E-03     298.721E-03    -130.557E-03    -168.164E-03    -129.827E-03     297.992E-03    -168.164E-03     33.2758E-03     310.261E-03     57.1387E+06     35.0648E+06     16.6451E+06    -28.6398E+06    -28.3163E+06     17.2162E+06     34.1702E+06     2.96727E+06
            1180     10.2016E-03     10.1117E-03     1.35143E-03     300.134E-03    -128.800E-03    -171.334E-03    -128.053E-03     299.387E-03    -171.334E-03     33.4414E-03     310.164E-03     49.4455E+06     21.6632E+06     12.8332E+06    -31.3391E+06    -31.1790E+06     15.8653E+06     18.4711E+06     1.68383E+06
            1181     9.32928E-03     9.22999E-03     1.35743E-03     304.961E-03    -129.818E-03    -175.143E-03    -129.094E-03     304.237E-03    -175.143E-03     32.2879E-03     313.127E-03     44.3895E+06     10.7948E+06     2.04294E+06    -36.3949E+06    -36.0638E+06     10.0118E+06     2.49479E+06    -2.49860E+06
            1182     8.46425E-03     8.35246E-03     1.37110E-03     312.487E-03    -132.942E-03    -179.544E-03    -132.333E-03     311.877E-03    -179.544E-03     30.0266E-03     319.275E-03     44.3199E+06     5.47504E+06    -9.22276E+06    -42.8723E+06    -41.5984E+06     4.20111E+06    -9.22276E+06    -7.38028E+06
            1183     7.60672E-03     7.47993E-03     1.38305E-03     323.032E-03    -138.587E-03    -184.444E-03    -138.069E-03     322.513E-03    -184.444E-03     28.4400E-03     328.534E-03     39.8626E+06    -4.78396E+06    -20.5249E+06    -49.4699E+06    -47.7764E+06    -6.47744E+06    -20.5249E+06    -8.07610E+06
            1184     6.75726E-03     6.61029E-03     1.40167E-03     336.647E-03    -146.936E-03    -189.711E-03    -146.467E-03     336.178E-03    -189.711E-03     27.1732E-03     341.092E-03     30.3509E+06    -23.3326E+06    -40.2763E+06    -57.6840E+06    -53.1235E+06    -37.7911E+06    -30.3782E+06    -4.69056E+06
            1185     5.92460E-03     5.75047E-03     1.42582E-03     352.733E-03    -157.630E-03    -195.103E-03    -157.133E-03     352.236E-03    -195.103E-03     28.3173E-03     356.752E-03     37.5873E+06    -37.9107E+06    -56.9930E+06    -80.3016E+06    -57.8371E+06    -79.4574E+06    -37.9107E+06    -1.41176E+06
            1186     5.11275E-03     4.90171E-03     1.45376E-03     369.730E-03    -169.376E-03    -200.354E-03    -168.865E-03     369.219E-03    -200.354E-03     29.8398E-03     373.259E-03     63.2732E+06    -44.6003E+06    -61.1590E+06    -114.251E+06    -61.5411E+06    -113.869E+06    -44.6003E+06     368.632E+03
            1187     4.32579E-03     4.06383E-03     1.48248E-03     386.448E-03    -181.148E-03    -205.300E-03    -180.681E-03     385.981E-03    -205.300E-03     29.5023E-03     389.180E-03     85.8773E+06    -49.8793E+06    -63.4294E+06    -141.647E+06    -63.9043E+06    -141.172E+06    -49.8793E+06     2.02995E+06
            1188     3.56973E-03     3.23478E-03     1.50969E-03     402.245E-03    -192.431E-03    -209.814E-03    -192.061E-03     401.875E-03    -209.814E-03     26.6350E-03     404.093E-03     107.886E+06    -53.1074E+06    -64.9004E+06    -166.344E+06    -65.8205E+06    -165.424E+06    -53.1074E+06     3.70477E+06
            1189     2.86090E-03     2.41543E-03     1.53311E-03     416.592E-03    -202.877E-03    -213.715E-03    -202.628E-03     416.343E-03    -213.715E-03     21.7834E-03     417.670E-03     131.857E+06    -53.9110E+06    -66.7235E+06    -191.680E+06    -67.6251E+06    -190.778E+06    -53.9110E+06     4.30395E+06
            1190     2.23366E-03     1.60440E-03     1.55407E-03     428.292E-03    -211.569E-03    -216.723E-03    -211.440E-03     428.163E-03    -216.723E-03     15.6561E-03     428.757E-03     144.156E+06    -53.2130E+06    -74.0233E+06    -206.492E+06    -74.7329E+06    -205.782E+06    -53.2130E+06     5.25424E+06
            1191     1.76418E-03     802.341E-06     1.57117E-03     435.976E-03    -217.126E-03    -218.850E-03    -217.472E-03     435.931E-03    -218.459E-03     9.62080E-03     436.213E-03     165.832E+06    -71.9445E+06    -86.0857E+06    -243.856E+06    -86.1666E+06    -243.369E+06    -72.3502E+06     3.81724E+06
            1192     77.7634E-03     853.632E-06     77.7587E-03     333.916E-03    -165.449E-03    -168.468E-03    -168.026E-03     333.844E-03    -165.817E-03     7.22269E-03     335.056E-03     134.754E+06    -110.787E+06    -122.863E+06    -251.080E+06    -118.584E+06    -250.910E+06    -115.236E+06     3.21898E+06
            1193     77.7853E-03     1.69422E-03     77.7669E-03     335.500E-03    -166.824E-03    -168.677E-03    -168.271E-03     335.463E-03    -167.193E-03     5.04080E-03     337.702E-03     106.851E+06    -100.196E+06    -113.786E+06    -213.041E+06    -114.022E+06    -212.805E+06    -100.196E+06     3.42104E+06
            1194     77.7980E-03     2.53550E-03     77.7567E-03     335.526E-03    -167.072E-03    -168.453E-03    -167.882E-03     335.469E-03    -167.587E-03     8.65443E-03     339.574E-03     99.2216E+06    -89.8408E+06    -109.027E+06    -197.229E+06    -109.308E+06    -196.947E+06    -89.8408E+06    -1.14185E+06
            1195     77.8428E-03     3.38141E-03     77.7693E-03     334.348E-03    -166.345E-03    -168.002E-03    -166.588E-03     334.179E-03    -167.591E-03     17.8537E-03     340.754E-03     87.4358E+06    -80.6342E+06    -105.598E+06    -177.599E+06    -105.796E+06    -177.401E+06    -80.6342E+06    -2.26077E+06
            1196     77.9066E-03     4.23242E-03     77.7916E-03     334.405E-03    -166.138E-03    -168.267E-03    -166.662E-03     334.165E-03    -167.504E-03     21.8594E-03     343.201E-03     80.0147E+06    -63.3974E+06    -99.7237E+06    -154.478E+06    -99.9529E+06    -154.249E+06    -63.3974E+06    -1.47648E+06
            1197     77.9790E-03     5.07496E-03     77.8137E-03     336.256E-03    -166.982E-03    -169.273E-03    -168.276E-03     335.893E-03    -167.617E-03     26.6494E-03     347.999E-03     79.0666E+06    -43.9119E+06    -90.5293E+06    -134.706E+06    -91.4360E+06    -133.800E+06    -43.9119E+06    -4.15555E+06
            1198     78.0879E-03     5.92103E-03     77.8631E-03     338.105E-03    -167.896E-03    -170.209E-03    -169.656E-03     337.552E-03    -167.896E-03     33.3445E-03     352.947E-03     66.6976E+06    -30.5534E+06    -81.1831E+06    -104.549E+06    -84.0230E+06    -101.709E+06    -30.5534E+06    -4.08641E+06
            1199     78.1997E-03     6.76307E-03     77.9067E-03     338.081E-03    -167.811E-03    -170.270E-03    -168.983E-03     337.128E-03    -168.145E-03     43.2297E-03     355.905E-03     57.6360E+06    -13.2654E+06    -45.3376E+06    -74.9866E+06    -72.5347E+06    -47.7895E+06    -13.2654E+06    -1.96163E+06
            1200     78.3448E-03     7.60886E-03     77.9744E-03     336.706E-03    -167.526E-03    -169.180E-03    -166.986E-03     335.219E-03    -168.233E-03     54.4522E-03     357.688E-03     70.6547E+06     11.6941E+06     1.91065E+06    -63.2084E+06    -59.5110E+06    -1.78681E+06     11.6941E+06     2.11377E+06
            1201     78.4943E-03     8.45515E-03     78.0376E-03     336.884E-03    -167.528E-03    -169.356E-03    -166.765E-03     334.934E-03    -168.169E-03     62.3390E-03     360.721E-03     78.0173E+06     20.3771E+06     12.8223E+06    -61.0787E+06    -57.4472E+06     9.19075E+06     20.3771E+06     4.78788E+06
            1202     78.6675E-03     9.29997E-03     78.1159E-03     335.570E-03    -166.615E-03    -168.956E-03    -165.036E-03     333.046E-03    -168.010E-03     70.8602E-03     362.573E-03     72.3038E+06     24.9591E+06     11.0399E+06    -53.0409E+06    -51.7682E+06     9.76726E+06     24.9591E+06     3.52648E+06
            1203     78.8697E-03     10.1557E-03     78.2131E-03     332.619E-03    -164.924E-03    -167.694E-03    -161.850E-03     329.545E-03    -167.694E-03     77.8301E-03     363.857E-03     73.3445E+06     39.3757E+06     17.8549E+06    -42.3113E+06     -41.868E+06     17.4116E+06     39.3757E+06     3.30567E+06
            1204     79.0695E-03     11.0106E-03     78.2991E-03     333.066E-03    -164.934E-03    -168.133E-03    -161.848E-03     329.099E-03    -167.251E-03     87.7730E-03     369.802E-03     73.6178E+06     42.2105E+06     17.6059E+06    -40.5244E+06    -40.0567E+06     17.1382E+06     42.2105E+06     109.805E+03
            1205     79.3078E-03     11.8638E-03     78.4155E-03     336.645E-03    -166.317E-03    -170.329E-03    -165.371E-03     332.362E-03    -166.991E-03     92.0877E-03     380.521E-03     74.8753E+06     48.8059E+06     21.2314E+06    -35.7482E+06    -33.1978E+06     18.6810E+06     48.8059E+06    -8.62636E+06
            1206     79.5588E-03     12.7062E-03     78.5376E-03     341.222E-03    -167.073E-03    -174.149E-03    -169.348E-03     336.421E-03    -167.073E-03     98.5309E-03     394.087E-03     82.5863E+06     73.0417E+06     35.9344E+06    -21.0991E+06    -18.4873E+06     33.3226E+06     73.0417E+06    -8.42302E+06
            1207     79.8384E-03     13.5479E-03     78.6805E-03     345.728E-03    -167.338E-03    -178.390E-03    -171.506E-03     338.844E-03    -167.338E-03     118.870E-03     407.374E-03     103.100E+06     106.564E+06     64.1484E+06    -10.4220E+06    -8.53995E+06     62.2664E+06     106.564E+06     1.64184E+06
            1208     80.1638E-03     14.3965E-03     78.8605E-03     348.075E-03    -167.660E-03    -180.415E-03    -173.615E-03     341.275E-03    -167.660E-03     118.538E-03     411.932E-03     128.423E+06     134.841E+06     90.2374E+06    -9.85457E+06    -7.77461E+06     88.1575E+06     134.841E+06     5.06644E+06
            1209     79.1584E-03     838.827E-06     79.1540E-03     333.646E-03    -164.683E-03    -168.962E-03    -165.509E-03     333.632E-03    -168.123E-03     2.09086E-03     334.723E-03     135.731E+06    -113.777E+06    -121.649E+06    -253.255E+06    -118.656E+06    -253.164E+06    -116.861E+06    -959.271E+03
            1210     79.1748E-03     1.69447E-03     79.1567E-03     330.174E-03    -163.581E-03    -166.592E-03    -163.936E-03     330.150E-03    -166.214E-03     4.62521E-03     332.114E-03     108.562E+06    -103.710E+06    -110.839E+06    -215.510E+06    -110.977E+06    -215.372E+06    -103.710E+06     172.705E+03
            1211     79.2006E-03     2.54411E-03     79.1597E-03     333.532E-03    -165.381E-03    -168.151E-03    -167.472E-03     333.448E-03    -165.976E-03     12.1579E-03     337.370E-03     102.292E+06    -87.5713E+06    -105.080E+06    -197.068E+06    -105.489E+06    -196.659E+06    -87.5713E+06     2.73122E+06
            1212     79.2366E-03     3.38798E-03     79.1642E-03     336.494E-03    -166.392E-03    -170.102E-03    -169.616E-03     336.329E-03    -166.714E-03     17.9894E-03     342.775E-03     95.7592E+06    -69.0395E+06    -100.371E+06    -176.299E+06    -100.695E+06    -175.976E+06    -69.0395E+06     1.72236E+06
            1213     79.2996E-03     4.23158E-03     79.1866E-03     337.274E-03    -167.101E-03    -170.172E-03    -169.614E-03     337.037E-03    -167.423E-03     21.7888E-03     346.159E-03     88.3934E+06    -51.0080E+06    -91.6987E+06    -151.879E+06    -91.7291E+06    -151.849E+06    -51.0080E+06     381.620E+03
            1214     79.3844E-03     5.07579E-03     79.2220E-03     337.340E-03    -167.804E-03    -169.536E-03    -169.090E-03     336.940E-03    -167.851E-03     28.0768E-03     349.394E-03     79.0112E+06    -39.6969E+06    -86.2577E+06    -130.324E+06    -86.9696E+06    -129.612E+06    -39.6969E+06    -1.78728E+06
            1215     79.4788E-03     5.91771E-03     79.2582E-03     336.319E-03    -167.456E-03    -168.863E-03    -167.574E-03     335.592E-03    -168.017E-03     37.7708E-03     351.402E-03     68.0767E+06    -26.8218E+06    -78.2415E+06    -102.608E+06    -81.6710E+06    -99.1782E+06    -26.8218E+06    -4.83994E+06
            1216     79.6012E-03     6.76507E-03     79.3132E-03     334.784E-03    -166.553E-03    -168.231E-03    -165.794E-03     333.708E-03    -167.914E-03     46.1664E-03     352.512E-03     58.2752E+06    -13.4460E+06    -50.4330E+06    -77.3038E+06    -74.1989E+06    -53.5379E+06    -13.4460E+06    -5.46815E+06
            1217     79.7260E-03     7.61438E-03     79.3616E-03     333.639E-03    -165.967E-03    -167.671E-03    -164.386E-03     332.058E-03    -167.671E-03     55.7464E-03     353.688E-03     64.5028E+06     4.87017E+06    -10.3946E+06    -65.2398E+06    -61.8381E+06    -13.7963E+06     4.87017E+06    -126.104E+03
            1218     79.8901E-03     8.46563E-03     79.4403E-03     334.759E-03    -166.360E-03    -168.399E-03    -165.090E-03     332.544E-03    -167.454E-03     66.4266E-03     357.634E-03     74.5479E+06     23.8373E+06     13.5020E+06    -55.1780E+06    -51.4532E+06     9.77718E+06     23.8373E+06     5.17329E+06
            1219     80.0594E-03     9.31065E-03     79.5162E-03     335.128E-03    -165.996E-03    -169.132E-03    -165.314E-03     332.606E-03    -167.292E-03     71.0004E-03     362.404E-03     72.3561E+06     31.9773E+06     18.4540E+06    -46.1124E+06    -44.7138E+06     17.0554E+06     31.9773E+06     1.99841E+06
            1220     80.2368E-03     10.1598E-03     79.5909E-03     334.125E-03    -164.798E-03    -169.327E-03    -164.355E-03     331.471E-03    -167.117E-03     72.6622E-03     366.063E-03     66.2652E+06     36.8570E+06     21.0547E+06    -35.7854E+06    -35.0638E+06     20.3332E+06     36.8570E+06     3.07178E+06
            1221     80.4502E-03     11.0120E-03     79.6930E-03     336.240E-03    -165.777E-03    -170.463E-03    -166.160E-03     333.196E-03    -167.036E-03     78.1212E-03     373.633E-03      69.776E+06     48.1833E+06     23.9825E+06    -29.9054E+06    -29.3233E+06     23.4004E+06     48.1833E+06     1.49286E+06
            1222     80.6869E-03     11.8531E-03     79.8116E-03     338.677E-03    -167.114E-03    -171.563E-03    -168.028E-03     335.142E-03    -167.114E-03     84.5781E-03     381.127E-03     80.9585E+06     62.1382E+06     29.5856E+06    -29.6502E+06    -26.3825E+06     26.3178E+06     62.1382E+06    -4.58920E+06
            1223     80.9407E-03     12.7009E-03     79.9380E-03     341.683E-03    -167.288E-03    -174.394E-03    -169.991E-03     337.279E-03    -167.288E-03     94.6466E-03     392.674E-03     91.2453E+06     72.9171E+06     34.4107E+06    -30.7778E+06    -27.3238E+06     30.9567E+06     72.9171E+06    -2.71079E+06
            1224     81.2168E-03     13.5502E-03     80.0785E-03     347.067E-03    -167.594E-03    -179.473E-03    -173.183E-03     340.777E-03    -167.594E-03     113.846E-03     409.795E-03     108.559E+06     94.4468E+06     54.6115E+06    -27.7800E+06    -23.9210E+06     50.7525E+06     94.4468E+06    -1.13680E+06
            1225     81.5495E-03     14.3867E-03     80.2705E-03     346.599E-03    -167.924E-03    -178.675E-03    -171.919E-03     339.843E-03    -167.924E-03     118.037E-03     410.632E-03     126.465E+06     130.039E+06     88.2717E+06    -11.9246E+06    -8.12351E+06     84.4705E+06     130.039E+06    -281.934E+03
            1226     80.5536E-03     848.286E-06     80.5492E-03     330.077E-03    -161.810E-03    -168.267E-03    -165.172E-03     330.053E-03    -164.881E-03     6.24151E-03     331.300E-03     138.403E+06    -107.973E+06    -117.039E+06    -250.635E+06    -114.027E+06    -250.563E+06    -111.056E+06    -2.67057E+06
            1227     80.5543E-03     1.69673E-03     80.5364E-03     330.944E-03    -162.872E-03    -168.073E-03    -165.786E-03     330.922E-03    -165.136E-03     5.56981E-03     332.797E-03     110.601E+06    -103.054E+06    -111.367E+06    -217.297E+06    -111.428E+06    -217.236E+06    -103.054E+06    -1.04038E+06
            1228     80.5920E-03     2.54790E-03     80.5517E-03     334.231E-03    -165.218E-03    -169.012E-03    -168.374E-03     334.187E-03    -165.813E-03     7.11914E-03     337.505E-03     106.099E+06    -88.1018E+06    -105.481E+06    -201.371E+06    -105.957E+06    -200.895E+06    -88.1018E+06     423.911E+03
            1229     80.6414E-03     3.39007E-03     80.5701E-03     337.013E-03    -166.771E-03    -170.242E-03    -170.155E-03     336.926E-03    -166.771E-03     11.1816E-03     342.735E-03     94.1456E+06    -70.7567E+06    -97.0622E+06    -174.878E+06    -97.5321E+06    -174.408E+06    -70.7567E+06    -365.097E+03
            1230     80.7017E-03     4.22844E-03     80.5908E-03     336.624E-03    -167.156E-03    -169.468E-03    -168.918E-03     336.384E-03    -167.466E-03     21.1542E-03     345.559E-03     87.4507E+06    -52.8053E+06    -88.6388E+06    -152.337E+06    -88.6776E+06    -152.298E+06    -52.8053E+06    -100.822E+03
            1231     80.7787E-03     5.07295E-03     80.6193E-03     334.884E-03    -166.837E-03    -168.047E-03    -166.723E-03     334.377E-03    -167.654E-03     31.2720E-03     347.092E-03     80.1212E+06    -35.8850E+06    -80.8283E+06    -127.740E+06    -80.8727E+06    -127.695E+06    -35.8850E+06     1.15613E+06
            1232     80.8751E-03     5.92284E-03     80.6579E-03     334.144E-03    -166.542E-03    -167.603E-03    -165.747E-03     333.310E-03    -167.563E-03     40.4505E-03     349.357E-03     71.2353E+06    -16.0867E+06    -70.4650E+06    -96.3080E+06    -73.7032E+06    -93.0698E+06    -16.0867E+06    -244.983E+03
            1233     80.9872E-03     6.77198E-03     80.7036E-03     333.998E-03    -166.381E-03    -167.617E-03    -165.555E-03     332.963E-03    -167.409E-03     45.3801E-03     352.311E-03     66.0941E+06     293.560E+03    -45.9406E+06    -74.1754E+06    -67.8054E+06    -52.3105E+06     293.560E+03    -1.79103E+06
            1234     81.1182E-03     7.61974E-03     80.7595E-03     333.145E-03    -165.789E-03    -167.356E-03    -164.663E-03     331.850E-03    -167.187E-03     50.3615E-03     354.023E-03     64.0121E+06     3.34368E+06    -18.2622E+06    -67.4593E+06    -66.5510E+06    -19.1706E+06     3.34368E+06    -3.93188E+06
            1235     81.2689E-03     8.46779E-03     80.8266E-03     331.848E-03    -164.935E-03    -166.914E-03    -163.090E-03     330.003E-03    -166.914E-03     59.9602E-03     355.043E-03     70.1872E+06     14.7339E+06     6.42237E+06    -59.0580E+06    -56.8487E+06     4.80392E+06     14.1431E+06    -1.60703E+06
            1236     81.4492E-03     9.32228E-03     80.9140E-03     334.262E-03    -165.649E-03    -168.613E-03    -165.373E-03     332.116E-03    -166.743E-03     65.3674E-03     361.130E-03     73.4189E+06     30.0576E+06     19.5605E+06    -47.9119E+06    -46.1062E+06     18.3456E+06     29.4668E+06     1.46291E+06
            1237     81.6262E-03     10.1644E-03     80.9909E-03     338.979E-03    -166.850E-03    -172.129E-03    -169.656E-03     336.507E-03    -166.850E-03     70.7280E-03     370.658E-03     69.5036E+06     34.6702E+06     20.6696E+06    -40.7248E+06    -39.7158E+06     19.6606E+06     34.6702E+06    -1.36401E+06
            1238     81.8353E-03     11.0015E-03     81.0924E-03     340.417E-03    -167.134E-03    -173.282E-03    -169.984E-03     337.119E-03    -167.134E-03     81.7070E-03     377.754E-03     66.1567E+06     45.0538E+06     21.3183E+06    -28.9329E+06    -28.1552E+06     20.5407E+06     45.0538E+06    -1.47584E+06
            1239     82.0696E-03     11.8514E-03     81.2094E-03     341.377E-03    -167.423E-03    -173.954E-03    -170.111E-03     337.534E-03    -167.423E-03     88.5556E-03     383.228E-03     78.0884E+06     62.5189E+06     25.7216E+06    -27.0923E+06    -24.9623E+06     23.5915E+06     62.5189E+06     7.75716E+06
            1240     82.3168E-03     12.6989E-03     81.3313E-03     344.812E-03    -167.744E-03    -177.068E-03    -172.575E-03     340.319E-03    -167.744E-03     96.2247E-03     395.551E-03     92.8433E+06     82.0300E+06     40.9692E+06    -24.1654E+06    -21.9376E+06     38.7414E+06     82.0300E+06     7.86963E+06
            1241     82.6092E-03     13.5334E-03     81.4931E-03     345.844E-03    -168.037E-03    -177.807E-03    -171.517E-03     339.554E-03    -168.037E-03     113.445E-03     409.272E-03     107.259E+06     98.9947E+06     57.8822E+06    -22.4464E+06    -19.9103E+06     55.3461E+06     98.9947E+06    -4.75059E+06
            1242     82.9188E-03     14.3821E-03     81.6621E-03     343.167E-03    -168.170E-03    -174.997E-03    -168.112E-03     336.282E-03    -168.170E-03     118.433E-03     407.666E-03     126.294E+06     127.031E+06     83.1671E+06    -15.2801E+06    -12.6491E+06     80.5362E+06     127.031E+06    -4.76515E+06
            1243     81.9385E-03     857.032E-06     81.9340E-03     328.930E-03    -161.539E-03    -167.392E-03    -167.376E-03     328.915E-03    -161.539E-03     865.233E-06     329.906E-03     138.830E+06    -103.594E+06    -117.665E+06    -248.818E+06    -112.389E+06    -248.802E+06    -108.887E+06    -300.401E+03
            1244     81.9537E-03     1.69765E-03     81.9361E-03     336.754E-03    -165.753E-03    -171.002E-03    -170.995E-03     336.747E-03    -165.753E-03     2.19296E-03     338.485E-03     116.335E+06    -98.7024E+06    -109.890E+06    -219.942E+06    -109.249E+06    -219.917E+06    -99.3685E+06     766.265E+03
            1245     81.9914E-03     2.53194E-03     81.9523E-03     336.754E-03    -166.653E-03    -170.100E-03    -169.272E-03     336.697E-03    -167.424E-03     7.08874E-03     340.305E-03     103.500E+06    -89.3765E+06    -104.381E+06    -199.282E+06    -103.947E+06    -199.049E+06    -90.0427E+06    -535.209E+03
            1246     82.0375E-03     3.37875E-03     81.9679E-03     333.831E-03    -165.706E-03    -168.124E-03    -166.075E-03     333.704E-03    -167.630E-03     13.2960E-03     339.806E-03     89.7584E+06    -76.0421E+06    -98.9472E+06    -174.701E+06    -99.1926E+06    -174.456E+06    -76.0421E+06    -650.220E+03
            1247     82.0974E-03     4.23207E-03     81.9883E-03     332.580E-03    -165.226E-03    -167.355E-03    -164.985E-03     332.324E-03    -167.339E-03     21.8289E-03     341.390E-03     84.4169E+06    -57.1438E+06    -95.1575E+06    -153.376E+06    -95.2076E+06    -153.326E+06    -57.1438E+06     965.970E+03
            1248     82.1704E-03     5.08203E-03     82.0131E-03     332.834E-03    -165.669E-03    -167.165E-03    -165.255E-03     332.345E-03    -167.090E-03     30.6586E-03     344.740E-03     78.1162E+06    -35.4398E+06    -85.5598E+06    -124.500E+06    -85.8487E+06    -124.212E+06    -35.4398E+06    -287.493E+03
            1249     82.2657E-03     5.92879E-03     82.0518E-03     333.561E-03    -166.490E-03    -167.071E-03    -165.870E-03     332.827E-03    -166.956E-03     37.9468E-03     348.353E-03     66.4880E+06    -20.4408E+06    -74.5082E+06    -93.9858E+06    -76.9163E+06    -91.5777E+06    -20.4408E+06     508.808E+03
            1250     82.3811E-03     6.77311E-03     82.1022E-03     334.542E-03    -166.942E-03    -167.600E-03    -166.628E-03     333.575E-03    -166.947E-03     43.8948E-03     352.711E-03     62.6819E+06    -6.32405E+06    -50.9351E+06    -76.4216E+06    -71.4937E+06    -55.8630E+06    -6.32405E+06     3.13608E+06
            1251     82.5078E-03     7.61781E-03     82.1553E-03     335.198E-03    -166.607E-03    -168.591E-03    -167.043E-03     334.051E-03    -167.008E-03     47.9196E-03     356.623E-03     68.6871E+06     8.54462E+06    -10.7255E+06    -65.9464E+06    -65.1425E+06    -11.5295E+06     8.54462E+06     1.15870E+06
            1252     82.6520E-03     8.46688E-03     82.2172E-03     333.909E-03    -165.740E-03    -168.170E-03    -165.508E-03     332.506E-03    -166.999E-03     52.7138E-03     357.625E-03     72.8028E+06     15.4323E+06     10.3486E+06    -59.7443E+06    -59.0821E+06     10.2772E+06     14.8415E+06    -1.72231E+06
            1253     82.8250E-03     9.31500E-03     82.2995E-03     333.041E-03    -164.987E-03    -168.053E-03    -164.269E-03     331.146E-03    -166.877E-03     61.0312E-03     359.545E-03     72.3106E+06     21.6437E+06     15.4114E+06    -53.4470E+06    -50.5384E+06     13.0937E+06     21.0529E+06    -5.25024E+06
            1254     83.0254E-03     10.1633E-03     82.4010E-03     336.761E-03    -165.835E-03    -170.926E-03    -167.316E-03     334.184E-03    -166.868E-03     71.8561E-03     367.751E-03     73.5157E+06     36.0553E+06     22.2846E+06    -42.9671E+06    -40.1442E+06     19.4617E+06     36.0553E+06    -6.12651E+06
            1255     83.2232E-03     11.0109E-03     82.4916E-03     342.987E-03    -167.164E-03    -175.823E-03    -172.533E-03     339.696E-03    -167.164E-03     82.0436E-03     379.973E-03     73.9596E+06     46.9647E+06     19.2331E+06    -36.5580E+06    -35.9219E+06     18.5971E+06     46.9647E+06    -1.44400E+06
            1256     83.4545E-03     11.8528E-03     82.6085E-03     345.951E-03    -167.672E-03    -178.279E-03    -174.629E-03     342.301E-03    -167.672E-03     86.9263E-03     388.503E-03     77.0573E+06     59.4019E+06     24.3278E+06    -28.9307E+06    -27.5648E+06     22.9619E+06     59.4019E+06     4.22657E+06
            1257     83.7145E-03     12.6857E-03     82.7477E-03     344.836E-03    -168.091E-03    -176.745E-03    -172.102E-03     340.193E-03    -168.091E-03     97.3687E-03     395.905E-03     82.3999E+06     72.8810E+06     33.2796E+06    -21.7823E+06    -20.3837E+06     31.8811E+06     72.8810E+06     2.14605E+06
            1258     83.9861E-03     13.5353E-03     82.8883E-03     343.971E-03    -168.311E-03    -175.660E-03    -169.309E-03     337.620E-03    -168.311E-03     113.785E-03     407.155E-03     101.225E+06     100.587E+06     57.6069E+06    -14.7582E+06    -14.3210E+06     57.1697E+06     100.587E+06     2.40701E+06
            1259     84.2885E-03     14.3894E-03     83.0512E-03     343.795E-03    -168.411E-03    -175.384E-03    -168.793E-03     337.204E-03    -168.411E-03     115.974E-03     408.974E-03     127.344E+06     134.909E+06     88.0070E+06    -9.20267E+06    -8.71178E+06     87.5161E+06     134.909E+06     2.76590E+06
            1260     83.3248E-03     842.652E-06     83.3205E-03     337.919E-03    -164.592E-03    -173.327E-03    -167.045E-03     337.905E-03    -170.860E-03     985.021E-06     339.043E-03     132.359E+06    -108.166E+06    -123.600E+06    -247.431E+06    -118.363E+06    -247.376E+06    -113.458E+06    -62.4279E+03
            1261     83.3656E-03     1.68664E-03     83.3486E-03     336.482E-03    -165.474E-03    -171.007E-03    -167.769E-03     336.464E-03    -168.695E-03     4.14756E-03     338.323E-03     112.603E+06    -103.342E+06    -113.038E+06    -220.291E+06    -112.420E+06    -220.243E+06    -104.008E+06    -986.164E+03
            1262     83.3878E-03     2.53733E-03     83.3492E-03     333.997E-03    -165.024E-03    -168.973E-03    -165.808E-03     333.920E-03    -168.112E-03     10.8950E-03     337.770E-03     97.1533E+06    -96.1975E+06    -111.184E+06    -199.697E+06    -110.587E+06    -199.627E+06    -96.8636E+06     770.720E+03
            1263     83.4309E-03     3.38637E-03     83.3622E-03     332.509E-03    -164.997E-03    -167.512E-03    -164.848E-03     332.360E-03    -167.512E-03     16.8406E-03     338.586E-03     89.3840E+06    -76.7222E+06    -104.129E+06    -176.387E+06    -104.212E+06    -176.304E+06    -76.7222E+06     2.01084E+06
            1264     83.4837E-03     4.23282E-03     83.3763E-03     332.355E-03    -165.245E-03    -167.110E-03    -165.031E-03     332.141E-03    -167.110E-03     20.3533E-03     341.219E-03     86.4684E+06    -57.7078E+06    -97.1320E+06    -156.465E+06    -97.2985E+06    -156.299E+06    -57.7078E+06     2.38252E+06
            1265     83.5637E-03     5.08028E-03     83.4091E-03     332.451E-03    -165.492E-03    -166.958E-03    -165.202E-03     332.085E-03    -166.883E-03     26.7076E-03     344.644E-03     74.2508E+06    -40.6062E+06    -89.5303E+06    -125.029E+06    -91.4256E+06    -123.134E+06    -40.6062E+06     3.65325E+06
            1266     83.6575E-03     5.92637E-03     83.4473E-03     332.799E-03    -165.979E-03    -166.821E-03    -165.401E-03     332.146E-03    -166.745E-03     35.6829E-03     347.986E-03     61.8935E+06    -27.0314E+06    -79.1979E+06    -94.9626E+06    -84.9199E+06    -89.2406E+06    -27.0314E+06     894.341E+03
            1267     83.7709E-03     6.77640E-03     83.4963E-03     333.982E-03    -166.618E-03    -167.364E-03    -166.316E-03     333.020E-03    -166.704E-03     43.7525E-03     351.638E-03     59.2105E+06    -15.3967E+06    -53.0547E+06    -80.7707E+06    -79.7357E+06    -54.0897E+06    -15.3967E+06     1.03236E+06
            1268     83.9030E-03     7.62351E-03     83.5560E-03     336.479E-03    -166.867E-03    -169.612E-03    -168.378E-03     335.245E-03    -166.867E-03     49.7386E-03     356.930E-03     69.8641E+06     7.42053E+06    -8.05297E+06    -68.0232E+06    -67.2895E+06    -8.78660E+06     7.42053E+06     2.29061E+06
            1269     84.0464E-03     8.46215E-03     83.6193E-03     337.834E-03    -167.145E-03    -170.688E-03    -169.206E-03     336.352E-03    -167.145E-03     54.6797E-03     361.819E-03     75.5261E+06     22.2572E+06     16.8766E+06    -55.7557E+06    -54.6773E+06     15.7981E+06     22.2572E+06    -2.13765E+06
            1270     84.2070E-03     9.30688E-03     83.6911E-03     335.829E-03    -166.277E-03    -169.552E-03    -166.632E-03     333.942E-03    -167.309E-03     61.2195E-03     363.641E-03     76.6829E+06     31.5685E+06     22.6710E+06    -48.7213E+06    -45.5199E+06     19.4697E+06     31.5685E+06    -6.70123E+06
            1271     84.3977E-03     10.1632E-03     83.7835E-03     337.375E-03    -166.344E-03    -171.031E-03    -167.640E-03     335.016E-03    -167.376E-03     68.7790E-03     368.456E-03     76.4085E+06     37.7983E+06     18.2689E+06    -45.8346E+06    -43.4951E+06     15.9294E+06     37.7983E+06    -4.96771E+06
            1272     84.6217E-03     11.0083E-03     83.9027E-03     342.930E-03    -167.649E-03    -175.281E-03    -172.557E-03     340.206E-03    -167.649E-03     74.7513E-03     379.061E-03     74.0437E+06     43.5018E+06     13.4479E+06    -40.7426E+06    -40.1086E+06     12.8139E+06     43.5018E+06    -3.06986E+06
            1273     84.8577E-03     11.8367E-03     84.0281E-03     343.023E-03    -168.027E-03    -174.997E-03    -171.507E-03     339.534E-03    -168.027E-03     84.3125E-03     385.509E-03     74.8139E+06     56.0430E+06     20.4831E+06    -29.9023E+06    -29.3745E+06     19.9553E+06     56.0430E+06    -3.06914E+06
            1274     85.0904E-03     12.6881E-03     84.1391E-03     341.954E-03    -168.199E-03    -173.756E-03    -168.701E-03     336.900E-03    -168.199E-03     101.002E-03     392.624E-03     82.3090E+06     67.2633E+06     28.0525E+06    -27.2594E+06    -26.8281E+06     27.6211E+06     67.2633E+06     1.84423E+06
            1275     85.3663E-03     13.5370E-03     84.2862E-03     345.317E-03    -168.310E-03    -177.006E-03    -170.147E-03     338.457E-03    -168.310E-03     118.411E-03     407.516E-03     100.544E+06     96.9313E+06     56.1212E+06    -17.4279E+06    -16.8392E+06     55.5326E+06     96.9313E+06     3.26025E+06
            1276     85.6742E-03     14.3687E-03     84.4607E-03     343.684E-03    -168.394E-03    -175.291E-03    -167.975E-03     336.368E-03    -168.394E-03     121.953E-03     408.827E-03     123.129E+06     134.557E+06     89.5797E+06    -4.69538E+06    -4.41169E+06      89.296E+06     134.557E+06     2.82584E+06
            1277     84.7427E-03     836.900E-06     84.7386E-03     340.538E-03    -165.176E-03    -175.362E-03    -165.110E-03     340.472E-03    -175.362E-03     10.4286E-03     342.193E-03     130.569E+06    -110.526E+06    -126.980E+06    -248.377E+06    -121.562E+06    -248.209E+06    -116.113E+06     737.430E+03
            1278     84.7526E-03     1.68770E-03     84.7358E-03     334.331E-03    -165.132E-03    -169.199E-03    -165.085E-03     334.285E-03    -169.199E-03     9.37874E-03     336.656E-03     107.099E+06    -104.021E+06    -118.547E+06    -217.445E+06    -118.762E+06    -217.229E+06    -104.021E+06    -825.369E+03
            1279     84.7813E-03     2.53864E-03     84.7433E-03     333.092E-03    -165.285E-03    -167.808E-03    -165.243E-03     333.050E-03    -167.808E-03     8.75639E-03     336.787E-03     98.6689E+06    -94.6071E+06    -112.162E+06    -200.846E+06    -112.363E+06    -200.646E+06    -94.6071E+06    -3.00474E+06
            1280     84.8222E-03     3.38599E-03     84.7546E-03     333.342E-03    -166.047E-03    -167.296E-03    -165.971E-03     333.267E-03    -167.296E-03     11.7131E-03     338.880E-03     89.4306E+06    -83.0728E+06    -105.863E+06    -181.388E+06    -106.135E+06    -181.116E+06    -83.0728E+06     194.837E+03
            1281     84.8816E-03     4.23217E-03     84.7761E-03     333.310E-03    -166.170E-03    -167.139E-03    -165.983E-03     333.122E-03    -167.139E-03     18.8671E-03     341.678E-03     84.8517E+06    -65.5352E+06    -99.0742E+06    -161.799E+06    -99.4024E+06    -161.471E+06    -65.5352E+06     3.87912E+06
            1282     84.9532E-03     5.07779E-03     84.8013E-03     332.991E-03    -165.914E-03    -167.077E-03    -165.602E-03     332.632E-03    -167.031E-03     26.4933E-03     344.972E-03     74.2487E+06    -45.1553E+06    -88.7762E+06    -129.990E+06    -90.5879E+06    -128.179E+06    -45.1553E+06     6.07211E+06
            1283     85.0461E-03     5.92963E-03     84.8392E-03     332.847E-03    -165.860E-03    -166.987E-03    -165.313E-03     332.254E-03    -166.941E-03     33.9859E-03     348.083E-03     66.3376E+06    -18.6738E+06    -70.2254E+06    -93.1805E+06    -81.0334E+06    -82.3724E+06    -18.6738E+06     4.33742E+06
            1284     85.1628E-03     6.77449E-03     84.8929E-03     333.291E-03    -166.225E-03    -167.066E-03    -165.570E-03     332.421E-03    -166.850E-03     41.4578E-03     350.823E-03     63.2419E+06     -1.8185E+06    -43.6349E+06    -72.6676E+06    -70.5085E+06    -45.7941E+06     -1.8185E+06    -2.89360E+06
            1285     85.2923E-03     7.62042E-03     84.9512E-03     334.693E-03    -166.547E-03    -168.145E-03    -166.589E-03     333.404E-03    -166.816E-03     50.5099E-03     354.690E-03     66.9305E+06     10.0714E+06    -7.90090E+06    -62.2602E+06    -60.5375E+06    -8.57386E+06     9.02167E+06    -4.34129E+06
            1286     85.4467E-03     8.46967E-03     85.0259E-03     338.140E-03    -166.970E-03    -171.170E-03    -169.493E-03     336.506E-03    -167.012E-03     57.5730E-03     361.710E-03     75.4151E+06     25.2107E+06     18.3903E+06    -53.2706E+06    -52.0818E+06     18.2512E+06     24.1610E+06    -3.58863E+06
            1287     85.5985E-03     9.31181E-03     85.0905E-03     343.269E-03    -167.532E-03    -175.737E-03    -173.844E-03     341.376E-03    -167.532E-03     62.4772E-03     370.670E-03     79.6000E+06     34.9494E+06     19.9231E+06    -50.7301E+06    -49.4152E+06     18.6082E+06     34.9494E+06     788.724E+03
            1288     85.7857E-03     10.1452E-03     85.1837E-03     344.786E-03    -168.148E-03    -176.639E-03    -174.189E-03     342.336E-03    -168.148E-03     70.7738E-03     375.572E-03     78.2620E+06     40.7007E+06     17.2471E+06    -46.5192E+06    -46.0417E+06     16.7696E+06     40.7007E+06     1.77946E+06
            1289     86.0151E-03     10.9819E-03     85.3112E-03     339.380E-03    -166.949E-03    -172.431E-03    -167.965E-03     336.371E-03    -168.406E-03     77.6908E-03     376.148E-03     70.5534E+06     37.9224E+06     10.3834E+06    -42.0556E+06    -41.4508E+06     9.77853E+06     37.9224E+06    -4.04525E+06
            1290     86.2342E-03     11.8454E-03     85.4167E-03     335.855E-03    -166.771E-03    -169.084E-03    -163.967E-03     332.249E-03    -168.282E-03     84.6134E-03     378.561E-03     73.0304E+06     44.2958E+06     10.3134E+06    -39.5050E+06    -38.9925E+06     9.80097E+06     44.2958E+06    -1.60168E+06
            1291     86.4746E-03     12.6945E-03     85.5378E-03     339.062E-03    -168.065E-03    -170.997E-03    -165.689E-03     333.808E-03    -168.119E-03     102.161E-03     389.212E-03     83.5145E+06     74.3594E+06     36.2450E+06    -21.3621E+06    -20.3804E+06     35.2633E+06     74.3594E+06     647.985E+03
            1292     86.7560E-03     13.5341E-03     85.6938E-03     342.419E-03    -168.008E-03    -174.411E-03    -166.697E-03     334.704E-03    -168.008E-03     124.917E-03     403.440E-03     98.9740E+06     102.066E+06     60.0868E+06    -10.9317E+06    -9.92225E+06     59.0773E+06     102.066E+06    -1.54284E+06
            1293     87.0527E-03     14.3973E-03     85.8539E-03     343.879E-03    -167.966E-03    -175.913E-03    -168.154E-03     336.120E-03    -167.966E-03     125.451E-03     408.028E-03     123.384E+06     130.381E+06     83.7996E+06    -9.45035E+06    -9.28248E+06     83.6317E+06     130.381E+06     980.180E+03
            1294     86.1378E-03     850.904E-06     86.1336E-03     333.597E-03    -162.737E-03    -170.860E-03    -166.885E-03     333.540E-03    -166.655E-03     7.52484E-03     334.979E-03     138.935E+06    -107.556E+06    -126.762E+06    -254.950E+06    -119.668E+06    -254.818E+06    -114.782E+06     1.78562E+06
            1295     86.1489E-03     1.69545E-03     86.1322E-03     334.613E-03    -166.066E-03    -168.547E-03    -167.653E-03     334.566E-03    -166.913E-03     8.73349E-03     336.782E-03     107.594E+06    -102.784E+06    -116.076E+06    -216.275E+06    -115.001E+06    -215.709E+06    -104.424E+06     3.55945E+06
            1296     86.1792E-03     2.53657E-03     86.1419E-03     334.926E-03    -167.041E-03    -167.884E-03    -167.608E-03     334.855E-03    -167.247E-03     11.1607E-03     338.828E-03     98.6165E+06    -90.0371E+06    -110.230E+06    -196.735E+06    -110.934E+06    -196.031E+06    -90.0371E+06     1.39843E+06
            1297     86.2167E-03     3.38165E-03     86.1504E-03     333.981E-03    -166.598E-03    -167.382E-03    -166.543E-03     333.857E-03    -167.314E-03     14.6595E-03     340.276E-03     94.8600E+06    -79.7077E+06    -107.512E+06    -184.981E+06    -108.214E+06    -184.279E+06    -79.7077E+06    -896.751E+03
            1298     86.2724E-03     4.23107E-03     86.1686E-03     333.571E-03    -166.260E-03    -167.312E-03    -166.126E-03     333.351E-03    -167.225E-03     20.6253E-03     342.470E-03     86.2504E+06    -63.1594E+06    -98.0723E+06    -161.055E+06    -98.5853E+06    -160.542E+06    -63.1594E+06    -181.886E+03
            1299     86.3470E-03     5.08068E-03     86.1974E-03     334.673E-03    -166.852E-03    -167.821E-03    -167.092E-03     334.321E-03    -167.229E-03     26.4325E-03     346.422E-03     77.7029E+06    -44.1938E+06    -87.6648E+06    -133.303E+06    -88.1769E+06    -132.791E+06    -44.1938E+06    -452.318E+03
            1300     86.4391E-03     5.92130E-03     86.2361E-03     334.725E-03    -166.922E-03    -167.803E-03    -166.907E-03     334.204E-03    -167.297E-03     32.1793E-03     349.518E-03     64.5646E+06    -24.0997E+06    -66.3364E+06    -97.9939E+06    -79.3178E+06    -85.0125E+06    -24.0997E+06     2.73983E+06
            1301     86.5505E-03     6.77148E-03     86.2852E-03     333.855E-03    -166.548E-03    -167.308E-03    -165.776E-03     333.084E-03    -167.308E-03     38.9943E-03     351.296E-03     64.1161E+06     1.20738E+06    -33.9036E+06    -71.5252E+06    -68.7865E+06    -36.6423E+06     1.20738E+06     1.69142E+06
            1302     86.6823E-03     7.62147E-03     86.3466E-03     334.116E-03    -166.802E-03    -167.314E-03    -165.821E-03     333.051E-03    -167.230E-03     45.6396E-03     354.457E-03     71.9266E+06     14.3623E+06    -6.19749E+06    -64.0288E+06    -61.8817E+06    -7.29491E+06     13.3126E+06    -6.61542E+06
            1303     86.8322E-03     8.46846E-03     86.4183E-03     337.451E-03    -167.274E-03    -170.178E-03    -168.731E-03     336.048E-03    -167.316E-03     52.8503E-03     360.567E-03     76.8500E+06     24.7296E+06     12.8137E+06    -57.3065E+06    -56.4818E+06     13.0388E+06     23.6799E+06    -1.94344E+06
            1304     87.0072E-03     9.30946E-03     86.5077E-03     343.624E-03    -167.738E-03    -175.886E-03    -173.798E-03     341.536E-03    -167.738E-03     65.2026E-03     369.654E-03     76.6711E+06     28.1480E+06     14.5489E+06    -54.3191E+06    -53.8427E+06     14.0724E+06     28.1480E+06     3.58445E+06
            1305     87.2000E-03     10.1419E-03     86.6082E-03     343.969E-03    -168.224E-03    -175.745E-03    -172.695E-03     340.919E-03    -168.224E-03     78.9924E-03     374.661E-03     71.2186E+06     31.9426E+06     17.2605E+06    -45.3356E+06    -44.8513E+06     16.7763E+06     31.9426E+06     2.30946E+06
            1306     87.3906E-03     10.9927E-03     86.6965E-03     339.207E-03    -166.958E-03    -172.249E-03    -167.083E-03     335.499E-03    -168.416E-03     86.5955E-03     376.401E-03     72.2983E+06     47.9560E+06     22.9383E+06    -33.1943E+06    -32.9453E+06     22.6893E+06     47.9560E+06     2.00854E+06
            1307     87.6097E-03     11.8367E-03     86.8064E-03     337.023E-03    -166.755E-03    -170.268E-03    -164.687E-03     332.953E-03    -168.266E-03     90.1142E-03     380.302E-03     75.0499E+06     55.8134E+06     22.3606E+06    -30.1366E+06    -29.9777E+06     22.2017E+06     55.8134E+06     376.829E+03
            1308     87.8549E-03     12.6861E-03     86.9341E-03     336.354E-03    -167.778E-03    -168.576E-03    -163.128E-03     331.111E-03    -167.983E-03     101.610E-03     387.086E-03     80.0758E+06     64.7785E+06     28.2832E+06    -27.0326E+06    -26.3601E+06     27.6107E+06     64.7785E+06    -2.95927E+06
            1309     88.1245E-03     13.5521E-03     87.0762E-03     339.453E-03    -167.621E-03    -171.832E-03    -164.743E-03     332.516E-03    -167.773E-03     117.933E-03     400.470E-03     99.1759E+06     95.4379E+06     51.4746E+06    -18.1038E+06    -17.4698E+06     50.8407E+06     95.4379E+06    -4.13441E+06
            1310     88.4291E-03     14.3950E-03     87.2496E-03     345.694E-03    -167.825E-03    -177.869E-03    -171.145E-03     338.970E-03    -167.825E-03     117.384E-03     409.524E-03     125.069E+06     132.054E+06     82.5452E+06    -10.1391E+06    -9.98492E+06     82.3910E+06     132.054E+06    -964.912E+03
            1311     87.5283E-03     849.045E-06     87.5242E-03     329.962E-03    -162.291E-03    -167.670E-03    -167.660E-03     329.951E-03    -162.291E-03     2.51305E-03     331.054E-03     143.972E+06    -107.678E+06    -126.852E+06    -260.144E+06    -119.616E+06    -260.136E+06    -114.922E+06     715.805E+03
            1312     87.5484E-03     1.69383E-03     87.5320E-03     333.234E-03    -165.486E-03    -167.749E-03    -167.713E-03     333.199E-03    -165.486E-03     7.59111E-03     335.065E-03     115.882E+06    -100.707E+06    -112.839E+06    -222.108E+06    -111.605E+06    -221.702E+06    -102.347E+06     3.82874E+06
            1313     87.5746E-03     2.54253E-03     87.5377E-03     334.220E-03    -166.365E-03    -167.855E-03    -167.785E-03     334.150E-03    -166.365E-03     11.2638E-03     338.025E-03     104.016E+06    -84.9746E+06    -105.001E+06    -197.040E+06    -105.679E+06    -196.363E+06    -84.9746E+06     6.89213E+06
            1314     87.6134E-03     3.38953E-03     87.5478E-03     334.868E-03    -166.814E-03    -168.054E-03    -167.875E-03     334.747E-03    -166.872E-03     14.7315E-03     341.337E-03     100.218E+06    -63.9663E+06    -97.6880E+06    -176.343E+06    -98.4502E+06    -175.580E+06    -63.9663E+06     2.93596E+06
            1315     87.6659E-03     4.23301E-03     87.5637E-03     335.137E-03    -167.113E-03    -168.024E-03    -167.736E-03     334.908E-03    -167.171E-03     20.8376E-03     344.454E-03     94.1783E+06    -53.4685E+06    -93.4625E+06    -160.907E+06    -94.1092E+06    -160.261E+06    -53.4685E+06    -2.45735E+06
            1316     87.7435E-03     5.07521E-03     87.5966E-03     335.689E-03    -167.364E-03    -168.325E-03    -167.886E-03     335.250E-03    -167.364E-03     29.2914E-03     347.788E-03     80.6647E+06    -42.7462E+06    -86.4960E+06    -135.050E+06    -87.4369E+06    -134.109E+06    -42.7462E+06    -2.32599E+06
            1317     87.8363E-03     5.92382E-03     87.6363E-03     336.907E-03    -167.508E-03    -169.399E-03    -168.750E-03     336.313E-03    -167.563E-03     34.5704E-03     351.965E-03     62.0445E+06    -28.8237E+06    -67.4334E+06    -100.048E+06    -78.1325E+06    -89.3489E+06    -28.8237E+06    -1.98784E+06
            1318     87.9405E-03     6.76641E-03     87.6798E-03     337.001E-03    -167.575E-03    -169.426E-03    -168.443E-03     336.233E-03    -167.790E-03     39.1545E-03     354.879E-03     59.9414E+06    -6.69176E+06    -29.5047E+06    -73.7093E+06    -68.7974E+06    -34.4166E+06    -6.69176E+06    -30.1619E+03
            1319     88.0744E-03     7.60976E-03     87.7451E-03     336.745E-03    -167.804E-03    -168.941E-03    -167.729E-03     335.693E-03    -167.964E-03     45.6125E-03     356.968E-03     76.1309E+06     13.6310E+06    -2.52959E+06    -69.2152E+06    -67.9979E+06    -3.74684E+06     13.6310E+06     2.50140E+06
            1320     88.2211E-03     8.45437E-03     87.8150E-03     337.239E-03    -167.788E-03    -169.451E-03    -167.595E-03     335.596E-03    -168.001E-03     56.4895E-03     359.398E-03     77.9364E+06     15.8353E+06     2.75262E+06    -67.6900E+06    -66.3868E+06     2.09840E+06     15.1862E+06     1.04378E+06
            1321     88.4043E-03     9.30063E-03     87.9137E-03     336.650E-03    -166.719E-03    -169.931E-03    -166.304E-03     334.251E-03    -167.947E-03     69.0897E-03     361.984E-03     70.3641E+06     25.0796E+06     15.3879E+06    -49.4962E+06    -49.2124E+06     15.7531E+06     24.4305E+06      6.4755E+03
            1322     88.5884E-03     10.1588E-03     88.0040E-03     336.433E-03    -166.833E-03    -169.601E-03    -165.711E-03     333.558E-03    -167.847E-03     75.8314E-03     367.438E-03     70.5910E+06     37.4738E+06     21.0304E+06    -39.5232E+06    -39.1535E+06     20.6607E+06     37.4738E+06     470.474E+03
            1323     88.7833E-03     11.0017E-03     88.0990E-03     338.746E-03    -167.787E-03    -170.959E-03    -167.329E-03     335.117E-03    -167.787E-03     85.3488E-03     375.209E-03     70.2662E+06     46.2992E+06     18.2986E+06    -33.1703E+06    -32.7357E+06     17.8639E+06     46.2992E+06     2.46834E+06
            1324     89.0028E-03     11.8467E-03     88.2109E-03     340.492E-03    -167.822E-03    -172.670E-03    -168.300E-03     336.122E-03    -167.822E-03     94.1866E-03     383.740E-03     73.2780E+06     58.5945E+06     22.6453E+06    -25.6168E+06    -25.0597E+06     22.0883E+06     58.5945E+06    -1.16629E+06
            1325     89.2265E-03     12.6976E-03     88.3183E-03     340.972E-03    -167.732E-03    -173.239E-03    -168.192E-03     336.076E-03    -167.885E-03     99.6134E-03     392.592E-03     84.7815E+06     73.7318E+06     33.9849E+06    -23.5947E+06    -23.1905E+06     33.5808E+06     73.7318E+06    -3.46560E+06
            1326     89.4970E-03     13.5372E-03     88.4673E-03     344.089E-03    -167.825E-03    -176.264E-03    -169.537E-03     337.515E-03    -167.977E-03     115.390E-03     405.659E-03     102.775E+06     95.6845E+06     52.0682E+06    -21.6651E+06    -21.1516E+06     51.5546E+06     95.6845E+06     1.44725E+06
            1327     89.8174E-03     14.3821E-03     88.6585E-03     343.816E-03    -168.069E-03    -175.748E-03    -168.632E-03     336.700E-03    -168.069E-03     120.370E-03     407.657E-03     124.412E+06     127.418E+06     81.1266E+06    -13.4296E+06    -12.5957E+06     80.2927E+06     127.418E+06    -1.73847E+06
            1328     88.9202E-03     848.396E-06     88.9161E-03     332.089E-03    -164.306E-03    -167.784E-03    -165.469E-03     332.078E-03    -166.610E-03     2.98385E-03     333.238E-03     145.901E+06    -106.935E+06    -121.188E+06    -259.317E+06    -115.600E+06    -259.301E+06    -112.539E+06    -380.081E+03
            1329     88.9394E-03     1.69803E-03     88.9231E-03     332.367E-03    -165.671E-03    -166.695E-03    -166.278E-03     332.345E-03    -166.067E-03     4.74348E-03     334.159E-03     119.605E+06    -99.8157E+06    -111.792E+06    -224.863E+06    -111.870E+06    -224.785E+06    -99.8157E+06    -88.4409E+03
            1330     88.9703E-03     2.54222E-03     88.9340E-03     333.200E-03    -166.068E-03    -167.132E-03    -166.883E-03     333.162E-03    -166.279E-03     7.52531E-03     336.811E-03     110.295E+06    -87.8855E+06    -100.873E+06    -204.044E+06    -101.096E+06    -203.821E+06    -87.8855E+06     1.49860E+06
            1331     89.0095E-03     3.38576E-03     88.9451E-03     334.796E-03    -166.581E-03    -168.215E-03    -168.034E-03     334.689E-03    -166.655E-03     13.6613E-03     340.802E-03     100.465E+06    -69.9897E+06    -92.9484E+06    -179.304E+06    -94.0935E+06    -178.159E+06    -69.9897E+06     7.34997E+06
            1332     89.0658E-03     4.23077E-03     88.9653E-03     336.131E-03    -167.136E-03    -168.995E-03    -168.780E-03     335.916E-03    -167.136E-03     20.2187E-03     344.793E-03     93.6614E+06    -50.6607E+06    -90.5976E+06    -157.066E+06    -92.0818E+06    -155.581E+06    -50.6607E+06     5.82899E+06
            1333     89.1353E-03     5.07998E-03     88.9904E-03     336.286E-03    -167.484E-03    -168.802E-03    -168.382E-03     335.866E-03    -167.484E-03     28.4392E-03     347.815E-03     80.3904E+06    -37.1385E+06    -85.9616E+06    -128.826E+06    -87.2816E+06    -127.506E+06    -37.1385E+06     478.249E+03
            1334     89.2359E-03     5.92250E-03     89.0391E-03     336.935E-03    -167.613E-03    -169.322E-03    -168.593E-03     336.284E-03    -167.691E-03     36.0470E-03     351.585E-03     60.8302E+06    -24.9923E+06    -69.0493E+06    -94.1942E+06    -78.8290E+06    -84.4146E+06    -24.9923E+06    -4.24623E+06
            1335     89.3425E-03     6.76415E-03     89.0861E-03     338.099E-03    -167.834E-03    -170.265E-03    -169.203E-03     337.115E-03    -167.912E-03     44.1611E-03     356.012E-03     57.2074E+06    -13.1748E+06    -46.0341E+06    -77.2996E+06    -73.2839E+06    -50.0498E+06    -13.1748E+06    -3.05171E+06
            1336     89.4669E-03     7.60947E-03     89.1427E-03     338.562E-03    -168.128E-03    -170.435E-03    -168.958E-03     337.086E-03    -168.128E-03     54.4711E-03     358.836E-03     66.5559E+06     10.0554E+06    -11.7782E+06    -62.7645E+06    -60.9867E+06    -10.7068E+06     7.20621E+06     8.72258E+06
            1337     89.6187E-03     8.45518E-03     89.2189E-03     337.449E-03    -167.987E-03    -169.463E-03    -167.282E-03     335.482E-03    -168.200E-03     62.7382E-03     360.499E-03     74.7510E+06     24.6602E+06     10.3859E+06    -56.0240E+06    -54.0570E+06     11.9172E+06     21.1619E+06     4.37650E+06
            1338     89.7837E-03     9.30658E-03     89.3000E-03     334.114E-03    -165.896E-03    -168.217E-03    -163.781E-03     331.808E-03    -168.026E-03     67.6242E-03     360.696E-03     75.0476E+06     30.7057E+06     16.8711E+06    -50.1295E+06    -49.6434E+06     17.0341E+06     30.0567E+06    -3.90749E+06
            1339     89.9715E-03     10.1517E-03     89.3969E-03     332.618E-03    -164.886E-03    -167.733E-03    -162.236E-03     329.908E-03    -167.673E-03     72.9947E-03     363.092E-03     73.9364E+06     42.1221E+06     22.2947E+06    -39.5013E+06    -39.1480E+06     21.9414E+06     42.1221E+06    -853.877E+03
            1340     90.1697E-03     11.0054E-03     89.4955E-03     336.186E-03    -166.525E-03    -169.660E-03    -165.369E-03     332.765E-03    -167.395E-03     82.5621E-03     372.152E-03     70.8910E+06     42.5125E+06     12.1661E+06    -38.1110E+06    -37.6198E+06     11.6750E+06     42.5125E+06    -738.606E+03
            1341     90.3865E-03     11.8570E-03     89.6054E-03     341.316E-03    -167.451E-03    -173.865E-03    -169.968E-03     337.419E-03    -167.451E-03     89.2361E-03     384.516E-03     73.1847E+06     54.0858E+06     16.0955E+06    -30.2463E+06    -29.5893E+06     15.4386E+06     54.0858E+06    -2.88873E+06
            1342     90.6253E-03     12.6921E-03     89.7321E-03     344.841E-03    -167.762E-03    -177.079E-03    -172.328E-03     340.090E-03    -167.762E-03     98.7073E-03     395.739E-03     84.3249E+06     79.5039E+06     38.0359E+06    -17.4941E+06    -16.8752E+06     37.4170E+06     79.5039E+06    -622.345E+03
            1343     90.8815E-03     13.5348E-03     89.8680E-03     345.967E-03    -168.014E-03    -177.953E-03    -170.424E-03     338.438E-03    -168.014E-03     123.407E-03     407.115E-03     102.007E+06     103.636E+06     57.1202E+06    -13.2051E+06    -12.3620E+06     56.2771E+06     103.636E+06     3.22999E+06
            1344     91.1939E-03     14.3855E-03     90.0521E-03     342.041E-03    -168.005E-03    -174.036E-03    -165.902E-03     333.907E-03    -168.005E-03     128.121E-03     405.475E-03     122.913E+06     131.585E+06     83.5054E+06    -7.84804E+06    -6.97392E+06     82.6312E+06     131.585E+06    -428.292E+03
            1345     90.3109E-03     843.596E-06     90.3069E-03     336.539E-03    -165.812E-03    -170.727E-03    -165.802E-03     336.529E-03    -170.727E-03     1.70536E-03     337.701E-03     146.465E+06    -107.579E+06    -114.880E+06    -257.546E+06    -112.808E+06    -257.475E+06    -109.722E+06    -296.361E+03
            1346     90.3360E-03     1.68848E-03     90.3202E-03     333.863E-03    -166.099E-03    -167.764E-03    -166.088E-03     333.851E-03    -167.764E-03     3.38256E-03     335.780E-03     118.233E+06    -103.373E+06    -108.633E+06    -224.105E+06    -108.743E+06    -223.995E+06    -103.373E+06    -997.069E+03
            1347     90.3614E-03     2.53850E-03     90.3257E-03     332.561E-03    -165.455E-03    -167.106E-03    -165.414E-03     332.521E-03    -167.106E-03     7.45501E-03     336.172E-03     107.333E+06    -96.0134E+06    -108.298E+06    -208.600E+06    -108.384E+06    -208.514E+06    -96.0134E+06     136.829E+03
            1348     90.4052E-03     3.38898E-03     90.3417E-03     333.552E-03    -166.227E-03    -167.325E-03    -166.549E-03     333.429E-03    -166.880E-03     15.1710E-03     339.776E-03     99.3583E+06    -79.7161E+06    -101.115E+06    -187.730E+06    -102.033E+06    -186.811E+06    -79.7161E+06     2.73840E+06
            1349     90.4637E-03     4.23421E-03     90.3646E-03     335.581E-03    -166.950E-03    -168.632E-03    -168.231E-03     335.318E-03    -167.086E-03     22.1629E-03     344.469E-03     87.6682E+06    -55.4739E+06    -90.0834E+06    -154.361E+06    -91.3911E+06    -153.053E+06    -55.4739E+06     5.19051E+06
            1350     90.5354E-03     5.07250E-03     90.3932E-03     336.271E-03    -167.423E-03    -168.848E-03    -168.346E-03     335.769E-03    -167.423E-03     30.9042E-03     347.868E-03     79.6624E+06    -31.9283E+06    -81.7228E+06    -122.876E+06    -82.7132E+06    -121.886E+06    -31.9283E+06     2.75803E+06
            1351     90.6287E-03     5.92008E-03     90.4351E-03     335.488E-03    -167.481E-03    -168.007E-03    -167.111E-03     334.669E-03    -167.559E-03     40.0892E-03     349.915E-03     65.3798E+06    -15.4345E+06    -66.2558E+06    -89.1122E+06    -75.0896E+06    -80.2784E+06    -15.4345E+06     1.17667E+06
            1352     90.7382E-03     6.77152E-03     90.4852E-03     337.113E-03    -167.569E-03    -169.544E-03    -168.345E-03     335.991E-03    -167.647E-03     47.4506E-03     354.735E-03     59.4363E+06    -3.94625E+06    -48.7447E+06    -71.1136E+06    -70.0428E+06    -49.8155E+06    -3.94625E+06     2.75632E+06
            1353     90.8663E-03     7.61488E-03     90.5466E-03     338.241E-03    -167.810E-03    -170.431E-03    -169.000E-03     336.811E-03    -167.810E-03     53.6147E-03     359.266E-03     63.8228E+06     9.66858E+06    -19.2552E+06    -61.6042E+06    -59.4556E+06    -18.5546E+06     6.81935E+06     1.28984E+06
            1354     91.0117E-03     8.45917E-03     90.6177E-03     336.893E-03    -167.921E-03    -168.971E-03    -167.019E-03     334.940E-03    -167.921E-03     62.2151E-03     361.082E-03     75.2109E+06     31.9413E+06     18.1467E+06    -48.9460E+06    -45.0810E+06     17.1310E+06     29.0921E+06     3.39889E+06
            1355     91.1744E-03     9.30025E-03     90.6988E-03     335.490E-03    -166.952E-03    -168.538E-03    -165.291E-03     333.146E-03    -167.855E-03     68.3510E-03     363.411E-03     81.5929E+06     41.2585E+06     24.5647E+06    -46.9854E+06    -44.8117E+06     22.3909E+06     41.2585E+06     3.35056E+06
            1356     91.3465E-03     10.1570E-03     90.7800E-03     334.527E-03    -165.850E-03    -168.676E-03    -164.248E-03     331.871E-03    -167.623E-03     72.5002E-03     365.775E-03     76.7318E+06     37.1296E+06     16.5958E+06    -47.6955E+06    -46.8413E+06     15.7416E+06     37.1296E+06    -1.83429E+06
            1357     91.5519E-03     11.0091E-03     90.8876E-03     336.388E-03    -166.595E-03    -169.792E-03    -165.652E-03     333.118E-03    -167.466E-03     80.7296E-03     372.374E-03     75.9031E+06     46.9314E+06     19.3688E+06    -38.6068E+06    -37.5322E+06     18.2941E+06     46.9314E+06    -1.39784E+06
            1358     91.7804E-03     11.8472E-03     91.0126E-03     338.556E-03    -167.280E-03    -171.276E-03    -167.128E-03     334.562E-03    -167.435E-03     89.6843E-03     380.859E-03     78.6351E+06     59.3279E+06     23.2925E+06    -30.7911E+06    -29.4651E+06     21.9665E+06     59.3279E+06    -3.26145E+06
            1359     92.0120E-03     12.6985E-03     91.1315E-03     340.635E-03    -167.277E-03    -173.358E-03    -167.737E-03     335.168E-03    -167.431E-03     104.821E-03     390.417E-03     81.9921E+06     66.7300E+06     28.2172E+06    -27.3720E+06    -26.2174E+06     27.0626E+06     66.7300E+06    -568.572E+03
            1360     92.2715E-03     13.5470E-03     91.2717E-03     344.330E-03    -167.514E-03    -176.816E-03    -169.036E-03     336.549E-03    -167.514E-03     125.902E-03     405.178E-03     97.5364E+06     99.7679E+06     54.3072E+06    -12.1268E+06    -11.6644E+06     53.8448E+06     99.7679E+06     1.95040E+06
            1361     92.5657E-03     14.3965E-03     91.4393E-03     345.214E-03    -167.644E-03    -177.571E-03    -169.844E-03     337.488E-03    -167.644E-03     125.611E-03     408.887E-03     122.576E+06     137.449E+06     86.1380E+06    -2.29680E+06    -2.15961E+06     86.0008E+06     137.449E+06    -681.831E+03
            1362     91.7183E-03     844.429E-06     91.7144E-03     336.546E-03    -165.587E-03    -170.959E-03    -168.291E-03     336.489E-03    -168.198E-03     7.29717E-03     337.942E-03     143.290E+06    -112.365E+06    -118.510E+06    -258.618E+06    -116.491E+06    -258.495E+06    -114.508E+06    -36.4245E+03
            1363     91.7311E-03     1.69039E-03     91.7155E-03     335.159E-03    -166.706E-03    -168.454E-03    -167.161E-03     335.136E-03    -167.975E-03     6.76623E-03     337.485E-03     117.469E+06    -106.297E+06    -114.112E+06    -227.243E+06    -114.217E+06    -227.139E+06    -106.297E+06     1.46574E+06
            1364     91.7520E-03     2.53829E-03     91.7168E-03     334.312E-03    -166.227E-03    -168.085E-03    -166.596E-03     334.263E-03    -167.668E-03     9.40250E-03     338.009E-03     110.061E+06    -93.0683E+06    -110.749E+06    -210.545E+06    -110.808E+06    -210.486E+06    -93.0683E+06     2.40828E+06
            1365     91.8004E-03     3.38322E-03     91.7381E-03     333.902E-03    -166.384E-03    -167.518E-03    -166.362E-03     333.806E-03    -167.445E-03     13.7235E-03     339.819E-03     94.2194E+06    -78.3046E+06    -105.971E+06    -182.651E+06    -106.139E+06    -182.484E+06    -78.3046E+06     394.680E+03
            1366     91.8563E-03     4.23158E-03     91.7588E-03     333.428E-03    -165.685E-03    -167.743E-03    -165.902E-03     333.193E-03    -167.291E-03     20.5551E-03     342.047E-03     87.1832E+06    -60.4148E+06    -95.3330E+06    -159.327E+06    -95.6286E+06    -159.032E+06    -60.4148E+06    -931.611E+03
            1367     91.9368E-03     5.08342E-03     91.7961E-03     333.135E-03    -165.469E-03    -167.666E-03    -165.524E-03     332.668E-03    -167.144E-03     29.5002E-03     344.835E-03     77.2535E+06    -38.5716E+06    -84.4286E+06    -125.186E+06    -85.7959E+06    -123.819E+06    -38.5716E+06     1.08154E+06
            1368     92.0181E-03     5.92864E-03     91.8269E-03     334.824E-03    -166.418E-03    -168.406E-03    -166.831E-03     333.938E-03    -167.106E-03     41.0464E-03     349.600E-03     65.2106E+06    -17.2772E+06    -73.7682E+06     -88.073E+06    -79.8722E+06    -81.9690E+06    -17.2772E+06     3.92014E+06
            1369     92.1362E-03     6.77030E-03     91.8871E-03     337.431E-03    -167.289E-03    -170.143E-03    -168.922E-03     336.211E-03    -167.289E-03     49.6491E-03     355.544E-03     65.7383E+06     1.19234E+06    -45.9778E+06    -72.0252E+06    -70.6006E+06    -47.4024E+06     1.19234E+06     3.87324E+06
            1370     92.2653E-03     7.61306E-03     91.9507E-03     336.812E-03    -167.502E-03    -169.310E-03    -167.940E-03     335.442E-03    -167.502E-03     52.4469E-03     358.579E-03     73.6310E+06     16.9333E+06    -9.04533E+06    -65.0517E+06    -63.5761E+06    -10.5210E+06     16.9333E+06     79.0288E+03
            1371     92.3987E-03     8.46103E-03     92.0105E-03     335.576E-03    -167.515E-03    -168.061E-03    -166.163E-03     333.679E-03    -167.515E-03     61.1486E-03     359.439E-03     79.5753E+06     24.5770E+06     14.4024E+06    -59.3797E+06    -56.1010E+06     11.1238E+06     24.5770E+06     1.92703E+06
            1372     92.5668E-03     9.31726E-03     92.0967E-03     336.866E-03    -167.494E-03    -169.372E-03    -167.129E-03     334.623E-03    -167.494E-03     67.0067E-03     363.560E-03     77.6474E+06     33.5846E+06     21.5073E+06    -48.9563E+06    -46.6597E+06     19.2106E+06     33.5846E+06     6.60947E+06
            1373     92.7362E-03     10.1537E-03     92.1787E-03     338.326E-03    -167.599E-03    -170.726E-03    -168.163E-03     335.762E-03    -167.599E-03     71.6223E-03     369.661E-03     79.9242E+06     49.0037E+06     25.2591E+06    -39.8996E+06    -38.4965E+06     23.8560E+06     49.0037E+06     3.65530E+06
            1374     92.9358E-03     10.9940E-03     92.2832E-03     336.906E-03    -167.426E-03    -169.480E-03    -165.763E-03     333.360E-03    -167.597E-03     83.8567E-03     373.288E-03     78.4761E+06     54.6870E+06     23.0019E+06     -34.319E+06    -32.8847E+06     21.5675E+06     54.6870E+06     1.27267E+06
            1375     93.1605E-03     11.8541E-03     92.4032E-03     335.288E-03    -167.083E-03    -168.205E-03    -163.706E-03     331.115E-03    -167.408E-03     91.0735E-03     377.504E-03     79.7451E+06     58.3189E+06     20.8304E+06    -33.1281E+06    -30.9439E+06     18.6462E+06     58.3189E+06     1.08066E+06
            1376     93.3885E-03     12.7070E-03     92.5200E-03     337.818E-03    -167.091E-03    -170.726E-03    -165.639E-03     332.885E-03    -167.246E-03     98.9514E-03     389.220E-03     87.7821E+06     70.7542E+06     32.2688E+06    -29.6385E+06    -26.9430E+06     29.5733E+06     70.7542E+06    -2.86014E+06
            1377     93.6590E-03     13.5566E-03     92.6727E-03     343.242E-03    -167.301E-03    -175.941E-03    -169.523E-03     336.824E-03    -167.301E-03     114.112E-03     405.955E-03     101.873E+06     94.9908E+06     53.8076E+06    -20.9951E+06    -19.9183E+06     52.7308E+06     94.9908E+06    -4.52770E+06
            1378     93.9509E-03     14.3970E-03     92.8413E-03     346.220E-03    -167.565E-03    -178.655E-03    -172.000E-03     339.565E-03    -167.565E-03     117.241E-03     410.109E-03     124.082E+06     132.209E+06     82.2638E+06    -9.03852E+06    -8.82289E+06     82.0481E+06     132.209E+06    -1.06523E+06
            1379     93.1170E-03     848.874E-06     93.1131E-03     332.213E-03    -162.435E-03    -169.778E-03    -169.727E-03     332.162E-03    -162.435E-03     8.03828E-03     333.420E-03     140.620E+06    -119.543E+06    -128.981E+06    -264.578E+06    -126.888E+06    -264.229E+06    -121.985E+06     4.27002E+06
            1380     93.1254E-03     1.69484E-03     93.1100E-03     335.680E-03    -166.635E-03    -169.045E-03    -169.017E-03     335.652E-03    -166.635E-03     7.16594E-03     337.676E-03     115.414E+06    -110.028E+06    -123.978E+06    -231.612E+06    -124.276E+06    -231.314E+06    -110.028E+06     5.25720E+06
            1381     93.1550E-03     2.53639E-03     93.1204E-03     336.659E-03    -167.547E-03    -169.111E-03    -169.053E-03     336.600E-03    -167.547E-03     10.6904E-03     340.419E-03     100.848E+06    -97.2498E+06    -116.346E+06    -206.227E+06    -116.613E+06    -205.960E+06    -97.2498E+06     1.47384E+06
            1382     93.1939E-03     3.38223E-03     93.1325E-03     335.034E-03    -167.046E-03    -167.988E-03    -167.106E-03     334.906E-03    -167.801E-03     15.5888E-03     341.045E-03     88.5325E+06    -82.9269E+06    -108.757E+06    -180.887E+06    -108.935E+06    -180.708E+06    -82.9269E+06     49.7406E+03
            1383     93.2512E-03     4.22843E-03     93.1553E-03     333.109E-03    -165.484E-03    -167.625E-03    -165.262E-03     332.887E-03    -167.625E-03     20.7324E-03     341.695E-03     86.6096E+06    -61.7120E+06    -101.256E+06    -160.181E+06    -101.483E+06    -159.955E+06    -61.7120E+06     522.015E+03
            1384     93.3206E-03     5.07546E-03     93.1825E-03     332.564E-03    -165.238E-03    -167.326E-03    -164.922E-03     332.235E-03    -167.313E-03     25.3078E-03     344.098E-03     75.7383E+06    -43.7468E+06    -92.8587E+06    -128.973E+06    -94.0718E+06    -127.760E+06    -43.7468E+06     435.105E+03
            1385     93.4122E-03     5.92794E-03     93.2240E-03     333.768E-03    -165.502E-03    -168.266E-03    -165.915E-03     333.061E-03    -167.146E-03     36.3730E-03     348.062E-03     65.8844E+06    -24.3069E+06    -79.5333E+06    -96.4049E+06    -88.4171E+06    -87.5211E+06    -24.3069E+06     2.99021E+06
            1386     93.5372E-03     6.77376E-03     93.2916E-03     333.897E-03    -165.130E-03    -168.767E-03    -165.650E-03     332.744E-03    -167.094E-03     47.7372E-03     351.690E-03     69.8841E+06    -2.02305E+06    -50.3095E+06    -80.4260E+06    -79.5591E+06    -51.1764E+06    -2.02305E+06     1.54909E+06
            1387     93.6556E-03     7.62150E-03     93.3450E-03     334.968E-03    -166.045E-03    -168.923E-03    -166.484E-03     333.538E-03    -167.054E-03     53.4637E-03     356.354E-03     74.1513E+06     15.7198E+06    -9.57821E+06    -66.5952E+06    -66.0881E+06    -10.0853E+06     15.7198E+06     1.85330E+06
            1388     93.7924E-03     8.46806E-03     93.4093E-03     337.056E-03    -167.142E-03    -169.914E-03    -168.156E-03     335.297E-03    -167.142E-03     59.5164E-03     361.064E-03     79.5791E+06     25.9545E+06     14.2802E+06    -58.7665E+06    -57.8763E+06     13.3900E+06     25.9545E+06     2.55219E+06
            1389     93.9529E-03     9.30513E-03     93.4910E-03     336.770E-03    -167.009E-03    -169.761E-03    -167.251E-03     334.503E-03    -167.253E-03     67.0605E-03     363.291E-03     77.5732E+06     33.3060E+06     21.4778E+06    -49.4436E+06    -48.6695E+06     20.7038E+06     33.3060E+06     1.30371E+06
            1390     94.1355E-03     10.1573E-03     93.5859E-03     337.120E-03    -167.045E-03    -170.075E-03    -166.869E-03     334.158E-03    -167.289E-03     76.7710E-03     367.767E-03     73.8513E+06     42.7317E+06     24.0143E+06    -38.4378E+06    -37.6274E+06     23.2039E+06     42.7317E+06     4.06761E+06
            1391     94.3208E-03     11.0091E-03     93.6761E-03     339.324E-03    -167.187E-03    -172.136E-03    -168.310E-03     335.667E-03    -167.358E-03     85.9028E-03     376.565E-03     74.9300E+06     50.7850E+06     19.6005E+06    -34.2896E+06    -33.2892E+06     18.6001E+06     50.7850E+06     3.94111E+06
            1392     94.5361E-03     11.8525E-03     93.7901E-03     339.725E-03    -167.315E-03    -172.410E-03    -168.578E-03     336.063E-03    -167.485E-03     85.9972E-03     383.150E-03     78.3927E+06     61.7615E+06     20.6220E+06    -28.5151E+06    -27.0532E+06     19.1601E+06     61.7615E+06     4.00560E+06
            1393     94.7745E-03     12.6963E-03     93.9203E-03     339.881E-03    -167.610E-03    -172.271E-03    -168.025E-03     335.636E-03    -167.610E-03     92.1850E-03     392.427E-03     87.5905E+06     82.6481E+06     39.4409E+06    -17.9229E+06    -15.9784E+06     37.4964E+06     82.6481E+06     38.2231E+03
            1394     95.0336E-03     13.5392E-03     94.0642E-03     343.102E-03    -167.720E-03    -175.381E-03    -169.222E-03     336.943E-03    -167.720E-03     111.732E-03     407.178E-03     105.534E+06     100.763E+06     56.4306E+06    -19.5835E+06    -18.4888E+06     55.3358E+06     100.763E+06    -5.22145E+06
            1395     95.3386E-03     14.3880E-03     94.2466E-03     343.528E-03    -167.852E-03    -175.676E-03    -169.168E-03     337.020E-03    -167.852E-03     115.250E-03     407.882E-03     125.521E+06     128.860E+06     77.9791E+06    -14.0881E+06    -13.8698E+06     77.7608E+06     128.860E+06    -1.70002E+06
            1396     94.5038E-03     850.471E-06     94.4999E-03     331.790E-03    -163.096E-03    -168.694E-03    -167.667E-03     331.779E-03    -164.112E-03     4.62654E-03     332.805E-03     142.263E+06    -125.317E+06    -134.134E+06    -271.707E+06    -132.008E+06    -271.392E+06    -127.759E+06     3.73464E+06
            1397     94.5271E-03     1.69454E-03     94.5119E-03     334.455E-03    -166.226E-03    -168.229E-03    -168.127E-03     334.425E-03    -166.298E-03     7.29029E-03     336.239E-03     115.003E+06    -113.086E+06    -121.750E+06    -232.022E+06    -122.205E+06    -231.568E+06    -113.086E+06     408.185E+03
            1398     94.5557E-03     2.53890E-03     94.5216E-03     335.439E-03    -166.962E-03    -168.478E-03    -168.348E-03     335.369E-03    -167.021E-03     11.6922E-03     339.167E-03     95.4422E+06    -101.346E+06    -115.938E+06    -202.888E+06    -116.697E+06    -202.129E+06    -101.346E+06     628.823E+03
            1399     94.5899E-03     3.38358E-03     94.5294E-03     335.098E-03    -167.115E-03    -167.984E-03    -167.554E-03     334.940E-03    -167.387E-03     17.4024E-03     341.369E-03     91.0104E+06    -82.2244E+06    -109.864E+06    -183.575E+06    -110.514E+06    -182.925E+06    -82.2244E+06    -479.993E+03
            1400     94.6464E-03     4.23081E-03     94.5518E-03     334.783E-03    -166.835E-03    -167.947E-03    -167.013E-03     334.520E-03    -167.507E-03     22.8652E-03     343.716E-03     88.4586E+06    -60.3962E+06    -100.833E+06    -161.046E+06    -101.243E+06    -160.636E+06    -60.3962E+06      591.43E+03
            1401     94.7136E-03     5.07821E-03     94.5774E-03     335.249E-03    -167.159E-03    -168.090E-03    -167.243E-03     334.802E-03    -167.559E-03     29.4818E-03     347.074E-03     75.9664E+06    -41.2765E+06    -93.3825E+06    -127.067E+06    -95.7703E+06    -124.679E+06    -41.2765E+06     3.86880E+06
            1402     94.8086E-03     5.91780E-03     94.6238E-03     333.543E-03    -165.783E-03    -167.760E-03    -165.327E-03     332.824E-03    -167.497E-03     37.5906E-03     348.147E-03     68.8948E+06    -23.7293E+06    -79.4229E+06    -100.379E+06    -88.0601E+06    -91.7422E+06    -23.7293E+06     3.80587E+06
            1403     94.9160E-03     6.77140E-03     94.6742E-03     330.867E-03    -163.688E-03    -167.179E-03    -162.696E-03     329.875E-03    -167.179E-03     44.1009E-03     347.897E-03     70.8237E+06    -1.66754E+06    -45.2997E+06    -81.6124E+06    -76.3898E+06    -50.5223E+06    -1.66754E+06     3.76240E+06
            1404     95.0470E-03     7.62528E-03     94.7406E-03     332.942E-03    -164.812E-03    -168.130E-03    -164.708E-03     331.572E-03    -166.864E-03     52.0272E-03     352.766E-03     76.9079E+06     14.1592E+06    -9.53771E+06    -70.8272E+06    -70.0896E+06    -10.2753E+06     14.1592E+06    -296.671E+03
            1405     95.1934E-03     8.46565E-03     94.8162E-03     335.959E-03    -166.569E-03    -169.390E-03    -167.333E-03     334.177E-03    -166.844E-03     59.8007E-03     359.240E-03     81.7917E+06     25.4453E+06     11.8128E+06    -62.2991E+06    -61.8759E+06     11.3895E+06     25.4453E+06     91.4095E+03
            1406     95.3433E-03     9.31708E-03     94.8870E-03     335.911E-03    -166.679E-03    -169.232E-03    -166.668E-03     333.591E-03    -166.923E-03     67.8159E-03     363.286E-03     79.9255E+06     35.2895E+06     21.7755E+06    -50.5221E+06    -50.2183E+06     21.4717E+06     35.2895E+06     1.77150E+06
            1407     95.5156E-03     10.1660E-03     94.9731E-03     338.088E-03    -166.747E-03    -171.341E-03    -168.337E-03     335.329E-03    -166.991E-03     74.4223E-03     369.362E-03     71.7918E+06     34.8842E+06     18.7847E+06    -43.5212E+06    -43.4860E+06     18.7495E+06     34.8842E+06    -335.142E+03
            1408     95.7155E-03     11.0091E-03     95.0802E-03     342.158E-03    -167.282E-03    -174.876E-03    -171.823E-03     339.105E-03    -167.282E-03     79.1003E-03     379.283E-03     70.8811E+06     44.7912E+06     20.5499E+06    -34.8353E+06    -34.3106E+06     20.0252E+06     44.7912E+06     428.935E+03
            1409     95.9378E-03     11.8444E-03     95.2039E-03     341.853E-03    -167.657E-03    -174.196E-03    -170.643E-03     338.300E-03    -167.657E-03     85.0346E-03     385.337E-03     78.1884E+06     62.1025E+06     24.3705E+06    -27.5059E+06    -26.7985E+06     23.6631E+06     62.1025E+06    -1.46413E+06
            1410     96.1500E-03     12.6891E-03     95.3090E-03     342.171E-03    -167.853E-03    -174.318E-03    -169.177E-03     337.030E-03    -167.853E-03     101.480E-03     393.012E-03     84.3484E+06     75.5747E+06     28.6392E+06    -21.6997E+06    -21.4088E+06     28.3483E+06     75.5747E+06    -417.017E+03
            1411     96.4245E-03     13.5412E-03     95.4690E-03     344.837E-03    -167.991E-03    -176.846E-03    -169.728E-03     337.719E-03    -167.991E-03     120.854E-03     407.901E-03     101.417E+06     107.324E+06     57.4888E+06    -9.11166E+06    -8.50144E+06     56.8786E+06     107.324E+06     4.22381E+06
            1412     96.7139E-03     14.3865E-03     95.6379E-03     343.503E-03    -168.092E-03    -175.411E-03    -168.497E-03     336.589E-03    -168.092E-03     118.728E-03     408.873E-03     128.411E+06     139.844E+06     87.2900E+06    -6.44307E+06    -5.93156E+06     86.7785E+06     139.844E+06     2.70712E+06
            1413     95.8974E-03     842.911E-06     95.8937E-03     334.289E-03    -165.404E-03    -168.885E-03    -165.380E-03     334.265E-03    -168.885E-03     5.64508E-03     335.485E-03     141.908E+06    -124.170E+06    -130.528E+06    -269.124E+06    -126.622E+06    -268.872E+06    -128.329E+06    -4.42049E+06
            1414     95.9220E-03     1.69235E-03     95.9071E-03     332.169E-03    -165.433E-03    -166.735E-03    -165.387E-03     332.122E-03    -166.735E-03     9.22509E-03     334.217E-03     111.493E+06    -115.199E+06    -122.656E+06    -229.953E+06    -121.980E+06    -229.674E+06    -116.153E+06    -3.30861E+06
            1415     95.9487E-03     2.54201E-03     95.9150E-03     333.187E-03    -166.187E-03    -167.000E-03    -166.609E-03     333.115E-03    -166.505E-03     11.8134E-03     336.889E-03     103.518E+06    -97.0612E+06    -114.701E+06    -207.893E+06    -115.295E+06    -207.300E+06    -97.0612E+06     292.745E+03
            1416     95.9899E-03     3.38829E-03     95.9301E-03     334.888E-03    -166.794E-03    -168.095E-03    -167.958E-03     334.752E-03    -166.794E-03     16.2170E-03     340.876E-03     95.6748E+06    -78.1811E+06    -109.533E+06    -185.232E+06    -110.669E+06    -184.097E+06    -78.1811E+06     2.86378E+06
            1417     96.0396E-03     4.23230E-03     95.9463E-03     335.970E-03    -167.208E-03    -168.762E-03    -168.517E-03     335.725E-03    -167.208E-03     22.0329E-03     344.517E-03     88.6762E+06    -60.1279E+06    -103.589E+06    -161.810E+06    -105.010E+06    -160.389E+06    -60.1279E+06     162.138E+03
            1418     96.1142E-03     5.07524E-03     95.9801E-03     335.381E-03    -166.914E-03    -168.466E-03    -167.462E-03     334.931E-03    -167.469E-03     29.5890E-03     346.989E-03     80.2604E+06    -39.5779E+06    -89.7875E+06    -130.589E+06    -92.9160E+06    -127.460E+06    -39.5779E+06     2.00288E+06
            1419     96.2020E-03     5.92629E-03     96.0193E-03     333.890E-03    -166.154E-03    -167.736E-03    -165.720E-03     333.187E-03    -167.467E-03     37.1984E-03     348.927E-03     71.8357E+06    -18.7260E+06    -73.9439E+06    -98.3501E+06    -80.6642E+06    -91.6298E+06    -18.7260E+06     3.43590E+06
            1420     96.3024E-03     6.77108E-03     96.0641E-03     333.210E-03    -165.768E-03    -167.442E-03    -164.899E-03     332.193E-03    -167.294E-03     44.7000E-03     350.561E-03     68.9027E+06    -687.668E+03    -45.8502E+06    -77.6989E+06    -72.8566E+06    -50.6925E+06    -687.668E+03     3.50141E+06
            1421     96.4339E-03     7.61652E-03     96.1327E-03     332.236E-03    -165.047E-03    -167.189E-03    -163.801E-03     330.861E-03    -167.060E-03     52.0781E-03     352.205E-03     77.7955E+06     17.9128E+06    -7.06961E+06    -68.1700E+06    -65.6805E+06    -9.55912E+06     17.9128E+06     6.79951E+06
            1422     96.5813E-03     8.47403E-03     96.2088E-03     332.467E-03    -165.491E-03    -166.976E-03    -164.052E-03     330.870E-03    -166.818E-03     56.2025E-03     355.211E-03     83.5925E+06     27.4472E+06     12.9106E+06    -62.4173E+06    -60.3959E+06     10.8891E+06     27.4472E+06     2.88824E+06
            1423     96.7329E-03     9.31828E-03     96.2831E-03     336.999E-03    -166.725E-03    -170.274E-03    -168.269E-03     335.075E-03    -166.806E-03     62.1620E-03     363.446E-03     79.5971E+06     32.2108E+06     20.2316E+06    -52.6909E+06    -52.3288E+06     19.8695E+06     32.2108E+06    -2.80492E+06
            1424     96.9085E-03     10.1593E-03     96.3745E-03     341.249E-03    -167.123E-03    -174.126E-03    -171.507E-03     338.630E-03    -167.123E-03     72.8673E-03     372.026E-03     76.9734E+06     40.7219E+06     23.7518E+06    -43.1868E+06    -42.6605E+06     23.2256E+06     40.7219E+06    -301.370E+03
            1425     97.1173E-03     10.9959E-03     96.4928E-03     339.905E-03    -167.425E-03    -172.480E-03    -169.093E-03     336.518E-03    -167.425E-03     82.5984E-03     376.399E-03     75.9944E+06     49.2019E+06     23.6881E+06    -36.1639E+06    -35.7900E+06     23.3142E+06     49.2019E+06    -263.254E+03
            1426     97.3163E-03     11.8505E-03     96.5920E-03     339.694E-03    -167.556E-03    -172.139E-03    -168.079E-03     335.635E-03    -167.556E-03     90.5673E-03     382.905E-03     78.8094E+06     58.9205E+06     23.9163E+06    -31.1893E+06    -30.7693E+06     23.4963E+06     58.9205E+06    -4.42075E+06
            1427     97.5455E-03     12.7015E-03     96.7150E-03     344.042E-03    -167.718E-03    -176.323E-03    -171.065E-03     338.783E-03    -167.718E-03     103.602E-03     394.574E-03     85.1039E+06     70.1712E+06     24.6083E+06    -27.9069E+06    -27.6221E+06     24.3234E+06     70.1712E+06    -2.48146E+06
            1428     97.8087E-03     13.5392E-03     96.8671E-03     345.167E-03    -167.948E-03    -177.220E-03    -170.419E-03     338.367E-03    -167.948E-03     118.112E-03     407.740E-03     102.236E+06     99.7407E+06     50.8142E+06    -17.3250E+06    -16.7257E+06     50.2148E+06     99.7407E+06     4.07306E+06
            1429     98.0984E-03     14.3872E-03     97.0377E-03     342.696E-03    -168.050E-03    -174.646E-03    -167.569E-03     335.619E-03    -168.050E-03     120.134E-03     407.003E-03     126.501E+06     137.731E+06     89.7473E+06    -5.62468E+06    -5.07748E+06     89.2001E+06     137.731E+06     4.39335E+06
            1430     97.2931E-03     845.687E-06     97.2895E-03     334.070E-03    -163.386E-03    -170.684E-03    -164.668E-03     334.038E-03    -169.370E-03     6.86165E-03     335.240E-03     139.994E+06    -114.012E+06    -128.393E+06    -260.532E+06    -124.572E+06    -260.195E+06    -118.171E+06    -4.43572E+06
            1431     97.3098E-03     1.69503E-03     97.2951E-03     333.852E-03    -165.592E-03    -168.260E-03    -166.868E-03     333.814E-03    -166.946E-03     7.67028E-03     335.817E-03     112.300E+06    -109.409E+06    -123.075E+06    -227.737E+06    -122.286E+06    -227.572E+06    -110.363E+06    -2.00682E+06
            1432     97.3445E-03     2.54109E-03     97.3114E-03     333.081E-03    -165.996E-03    -167.085E-03    -166.136E-03     333.038E-03    -166.901E-03     8.22631E-03     336.828E-03     108.566E+06    -94.5271E+06    -116.543E+06    -212.247E+06    -116.628E+06    -212.161E+06    -94.5271E+06     157.859E+03
            1433     97.3830E-03     3.38737E-03     97.3240E-03     334.209E-03    -166.409E-03    -167.799E-03    -167.167E-03     334.098E-03    -166.931E-03     14.2894E-03     340.215E-03     101.810E+06    -74.2723E+06    -105.086E+06    -187.760E+06    -105.786E+06    -187.061E+06    -74.2723E+06     1.23736E+06
            1434     97.4424E-03     4.23197E-03     97.3505E-03     335.491E-03    -167.148E-03    -168.344E-03    -168.082E-03     335.263E-03    -167.180E-03     21.2097E-03     343.974E-03     91.5053E+06    -56.4737E+06    -98.5189E+06    -160.863E+06    -100.586E+06    -158.796E+06    -56.4737E+06     2.79166E+06
            1435     97.5079E-03     5.07797E-03     97.3756E-03     334.951E-03    -166.807E-03    -168.144E-03    -167.177E-03     334.571E-03    -167.395E-03     27.3767E-03     346.351E-03     86.6935E+06    -37.7822E+06    -90.0122E+06    -137.188E+06    -92.7147E+06    -134.485E+06    -37.7822E+06     716.448E+03
            1436     97.5919E-03     5.92318E-03     97.4120E-03     334.438E-03    -166.729E-03    -167.709E-03    -166.424E-03     333.844E-03    -167.420E-03     34.2999E-03     348.949E-03     74.6104E+06    -18.3561E+06    -72.3042E+06    -102.514E+06    -79.9568E+06    -94.8617E+06    -18.3561E+06     1.76201E+06
            1437     97.7000E-03     6.77105E-03     97.4651E-03     334.940E-03    -167.254E-03    -167.686E-03    -166.601E-03     333.991E-03    -167.390E-03     43.2397E-03     352.475E-03     67.2927E+06    -2.39086E+06    -45.3138E+06    -77.8950E+06    -74.4939E+06    -48.7148E+06    -2.39086E+06     5.20360E+06
            1438     97.8224E-03     7.61912E-03     97.5252E-03     334.900E-03    -166.406E-03    -168.494E-03    -166.314E-03     333.691E-03    -167.377E-03     49.1464E-03     355.459E-03     72.8429E+06     12.6837E+06    -12.8272E+06    -68.5450E+06    -65.8779E+06    -15.4942E+06     12.6837E+06     6.18007E+06
            1439     97.9619E-03     8.46283E-03     97.5957E-03     334.409E-03    -166.231E-03    -168.178E-03    -165.777E-03     333.115E-03    -167.338E-03     50.8212E-03     357.386E-03     76.7225E+06     30.3196E+06     17.9228E+06    -51.5849E+06    -49.3000E+06     15.6379E+06     30.3196E+06     3.68436E+06
            1440     98.1262E-03     9.31444E-03     97.6832E-03     336.394E-03    -166.762E-03    -169.632E-03    -167.183E-03     334.533E-03    -167.350E-03     60.6256E-03     362.284E-03     80.3298E+06     41.4354E+06     29.1636E+06    -44.0148E+06    -42.9438E+06     28.0927E+06     41.4354E+06     1.45607E+06
            1441     98.3122E-03     10.1551E-03     97.7863E-03     337.424E-03    -166.656E-03    -170.768E-03    -167.391E-03     334.793E-03    -167.402E-03     72.5235E-03     367.630E-03     80.1039E+06     41.7785E+06     21.3172E+06    -46.4206E+06    -44.9343E+06     19.8309E+06     41.7785E+06     458.219E+03
            1442     98.4961E-03     11.0110E-03     97.8787E-03     337.011E-03    -167.116E-03    -169.895E-03    -166.414E-03     333.824E-03    -167.409E-03     79.4456E-03     373.065E-03     76.5476E+06     48.5683E+06     22.1523E+06    -37.5873E+06    -37.0834E+06     21.6484E+06     48.5683E+06    -1.06029E+06
            1443     98.7060E-03     11.8571E-03     97.9913E-03     340.045E-03    -167.484E-03    -172.562E-03    -168.792E-03     336.275E-03    -167.484E-03     87.2227E-03     382.421E-03     79.5109E+06     61.9162E+06     26.6059E+06    -29.0487E+06    -28.5063E+06     26.0635E+06     61.9162E+06     859.633E+03
            1444     98.9406E-03     12.6918E-03     98.1232E-03     342.572E-03    -167.651E-03    -174.921E-03    -169.849E-03     337.500E-03    -167.651E-03     101.264E-03     392.730E-03     88.8613E+06     74.9368E+06     31.2161E+06    -27.2848E+06    -26.3288E+06     30.2602E+06     74.9368E+06     3.40718E+06
            1445     99.1956E-03     13.5393E-03     98.2673E-03     343.528E-03    -167.755E-03    -175.774E-03    -168.577E-03     336.331E-03    -167.755E-03     120.821E-03     405.538E-03     103.805E+06     93.6402E+06     50.1657E+06    -24.5636E+06    -23.5123E+06     49.1144E+06     93.6402E+06    -455.447E+03
            1446     99.4743E-03     14.3889E-03     98.4281E-03     343.535E-03    -167.802E-03    -175.733E-03    -168.337E-03     336.139E-03    -167.802E-03     122.721E-03     406.510E-03     121.088E+06     127.410E+06     84.1242E+06    -9.35745E+06    -8.72535E+06     83.4921E+06     127.410E+06    -1.99907E+06
            1447     98.6909E-03     852.725E-06     98.6872E-03     334.119E-03    -164.297E-03    -169.822E-03    -166.261E-03     334.077E-03    -167.817E-03     8.88792E-03     335.173E-03     144.929E+06    -105.154E+06    -124.777E+06    -258.870E+06    -118.988E+06    -258.437E+06    -111.377E+06     3.34241E+06
            1448     98.7140E-03     1.68830E-03     98.6996E-03     336.135E-03    -167.235E-03    -168.900E-03    -168.750E-03     336.109E-03    -167.360E-03     6.36151E-03     338.048E-03     120.359E+06    -103.849E+06    -119.239E+06    -231.117E+06    -119.659E+06    -230.697E+06    -103.849E+06     2.03756E+06
            1449     98.7340E-03     2.53474E-03     98.7014E-03     334.677E-03    -166.970E-03    -167.707E-03    -166.943E-03     334.614E-03    -167.670E-03     9.56231E-03     338.474E-03     110.967E+06    -92.2532E+06    -113.736E+06    -212.209E+06    -113.850E+06    -212.095E+06    -92.2532E+06     2.37889E+06
            1450     98.7796E-03     3.38398E-03     98.7216E-03     333.881E-03    -166.315E-03    -167.565E-03    -166.232E-03     333.747E-03    -167.516E-03     15.8343E-03     340.210E-03     102.178E+06    -73.8589E+06    -106.737E+06    -188.111E+06    -107.111E+06    -187.738E+06    -73.8589E+06     2.22027E+06
            1451     98.8369E-03     4.23155E-03     98.7463E-03     334.058E-03    -166.615E-03    -167.443E-03    -166.444E-03     333.837E-03    -167.394E-03     20.8467E-03     342.995E-03     94.1866E+06    -55.1488E+06    -96.4077E+06    -162.730E+06    -97.9493E+06    -161.189E+06    -55.1488E+06     1.67669E+06
            1452     98.9038E-03     5.07802E-03     98.7734E-03     335.326E-03    -167.291E-03    -168.035E-03    -167.523E-03     334.968E-03    -167.446E-03     26.6074E-03     347.166E-03     87.4006E+06    -36.0123E+06    -86.7639E+06    -136.173E+06    -89.6168E+06    -133.320E+06    -36.0123E+06     1.33875E+06
            1453     98.9890E-03     5.92316E-03     98.8116E-03     335.998E-03    -167.443E-03    -168.555E-03    -167.857E-03     335.436E-03    -167.579E-03     33.4295E-03     350.835E-03     74.7348E+06    -23.2658E+06    -79.1678E+06    -107.534E+06    -84.0335E+06    -102.668E+06    -23.2658E+06     933.635E+03
            1454     99.0896E-03     6.76904E-03     98.8582E-03     335.604E-03    -167.422E-03    -168.182E-03    -167.071E-03     334.718E-03    -167.647E-03     41.8868E-03     353.182E-03     65.8594E+06    -6.23728E+06    -46.4194E+06    -80.0664E+06    -72.8179E+06    -53.6680E+06    -6.23728E+06     5.72307E+06
            1455     99.2195E-03     7.61307E-03     98.9270E-03     336.442E-03    -167.607E-03    -168.835E-03    -167.420E-03     335.117E-03    -167.697E-03     51.1783E-03     356.221E-03     72.6694E+06     15.6533E+06     -4.4448E+06    -64.3894E+06    -62.7789E+06    -6.05527E+06     15.6533E+06     3.85057E+06
            1456     99.3580E-03     8.45673E-03     98.9975E-03     338.093E-03    -167.745E-03    -170.348E-03    -168.573E-03     336.373E-03    -167.800E-03     58.3011E-03     360.857E-03     79.5385E+06     26.4307E+06     15.4605E+06    -57.8074E+06    -57.2889E+06     14.9420E+06     26.4307E+06    -857.591E+03
            1457     99.5102E-03     9.29860E-03     99.0748E-03     337.102E-03    -167.367E-03    -169.735E-03    -167.098E-03     334.972E-03    -167.874E-03     65.0138E-03     364.075E-03     79.6424E+06     34.0618E+06     22.3918E+06    -50.4268E+06    -49.6349E+06     21.5998E+06     34.0618E+06     4.38838E+06
            1458     99.6969E-03     10.1575E-03     99.1781E-03     335.526E-03    -167.088E-03    -168.438E-03    -165.416E-03     333.250E-03    -167.834E-03     67.5053E-03     366.881E-03     78.1191E+06     48.3083E+06     27.8363E+06    -37.6876E+06    -36.5782E+06     26.7269E+06     48.3083E+06     3.23177E+06
            1459     99.8799E-03     10.9999E-03     99.2723E-03     337.046E-03    -167.466E-03    -169.581E-03    -166.665E-03     334.424E-03    -167.760E-03     72.3338E-03     373.168E-03     75.5548E+06     50.7199E+06     19.6640E+06    -34.9386E+06    -34.4116E+06     19.1370E+06     50.7199E+06     10.9025E+03
            1460     100.100E-03     11.8424E-03     99.3967E-03     338.021E-03    -167.400E-03    -170.621E-03    -166.646E-03     334.397E-03    -167.751E-03     85.1446E-03     380.028E-03     81.9146E+06     60.1326E+06     21.6133E+06    -33.6445E+06    -31.8228E+06     19.7917E+06     60.1326E+06     7.81302E+06
            1461     100.323E-03     12.6989E-03     99.5161E-03     337.625E-03    -167.331E-03    -170.294E-03    -165.012E-03     332.694E-03    -167.682E-03     98.9194E-03     387.563E-03     91.4569E+06     81.3758E+06     39.9109E+06    -23.4297E+06    -21.0245E+06     37.5056E+06     81.3758E+06     7.32109E+06
            1462     100.577E-03     13.5532E-03     99.6597E-03     341.638E-03    -167.593E-03    -174.045E-03    -167.163E-03     334.756E-03    -167.593E-03     117.508E-03     403.916E-03     101.746E+06     102.137E+06     58.6291E+06    -14.0235E+06    -12.7468E+06     57.3524E+06     102.137E+06    -3.26404E+06
            1463     100.867E-03     14.3986E-03     99.8339E-03     346.702E-03    -167.733E-03    -178.969E-03    -172.197E-03     339.930E-03    -167.733E-03     117.703E-03     409.417E-03     123.089E+06     129.362E+06     83.0830E+06    -10.0311E+06    -9.41641E+06     82.4683E+06     129.362E+06    -4.10875E+06
            1464     100.090E-03     839.952E-06     100.087E-03     335.815E-03    -166.128E-03    -169.687E-03    -168.004E-03     335.775E-03    -167.771E-03     7.26071E-03     336.822E-03     150.082E+06    -113.421E+06    -128.542E+06    -270.398E+06    -122.752E+06    -269.965E+06    -119.644E+06     6.44876E+06
            1465     100.111E-03     1.69498E-03     100.097E-03     334.193E-03    -165.970E-03    -168.223E-03    -166.541E-03     334.153E-03    -167.612E-03     8.74431E-03     336.152E-03     128.446E+06    -103.985E+06    -118.787E+06    -239.038E+06    -119.442E+06    -238.383E+06    -103.985E+06     8.37101E+06
            1466     100.133E-03     2.53967E-03     100.101E-03     336.025E-03    -167.508E-03    -168.518E-03    -168.381E-03     335.943E-03    -167.562E-03     12.2425E-03     339.878E-03     112.518E+06    -90.6164E+06    -114.388E+06    -213.017E+06    -114.708E+06    -212.697E+06    -90.6164E+06     4.77834E+06
            1467     100.176E-03     3.38219E-03     100.119E-03     335.329E-03    -167.022E-03    -168.307E-03    -167.420E-03     335.193E-03    -167.773E-03     16.4446E-03     341.697E-03     101.647E+06    -72.1854E+06    -105.018E+06    -185.895E+06      -105.3E+06    -185.613E+06    -72.1854E+06     3.60776E+06
            1468     100.228E-03     4.23029E-03     100.138E-03     334.518E-03    -166.772E-03    -167.747E-03    -166.550E-03     334.296E-03    -167.747E-03     20.7846E-03     343.424E-03     95.3948E+06    -53.4498E+06    -95.3485E+06    -162.288E+06    -96.6196E+06    -161.017E+06    -53.4498E+06     2.86663E+06
            1469     100.303E-03     5.07678E-03     100.174E-03     335.217E-03    -167.193E-03    -168.025E-03    -167.162E-03     334.867E-03    -167.706E-03     26.4374E-03     347.072E-03     86.5326E+06    -38.0967E+06    -86.8802E+06    -137.785E+06    -88.7262E+06    -135.939E+06    -38.0967E+06     2.15113E+06
            1470     100.385E-03     5.92147E-03     100.210E-03     336.601E-03    -167.575E-03    -169.026E-03    -168.196E-03     336.006E-03    -167.810E-03     34.0908E-03     351.793E-03     76.2129E+06    -19.7128E+06    -73.9990E+06    -106.164E+06    -79.9834E+06    -100.180E+06    -19.7128E+06     2.33718E+06
            1471     100.488E-03     6.76476E-03     100.260E-03     336.829E-03    -167.844E-03    -168.984E-03    -168.000E-03     335.934E-03    -167.934E-03     42.2569E-03     355.279E-03     65.0883E+06    -2.89217E+06    -48.4952E+06    -76.5399E+06    -69.6400E+06    -55.3951E+06    -2.89217E+06    -273.174E+03
            1472     100.608E-03     7.61446E-03     100.319E-03     335.773E-03    -167.527E-03    -168.247E-03    -166.503E-03     334.447E-03    -167.944E-03     50.9998E-03     356.577E-03     71.0089E+06     16.3634E+06    -4.40444E+06    -60.8247E+06    -58.4695E+06    -6.75967E+06     16.3634E+06     1.62999E+06
            1473     100.756E-03     8.46489E-03     100.400E-03     337.026E-03    -167.398E-03    -169.629E-03    -167.298E-03     335.218E-03    -167.920E-03     59.9220E-03     360.631E-03     82.6419E+06     27.6903E+06     17.6923E+06    -59.4024E+06    -58.9922E+06     17.2821E+06     27.6903E+06     3.75192E+06
            1474     100.913E-03     9.30841E-03     100.482E-03     338.387E-03    -167.768E-03    -170.618E-03    -168.180E-03     336.143E-03    -167.963E-03     67.0048E-03     365.786E-03     80.2750E+06     32.4413E+06     19.4872E+06    -53.4359E+06    -53.1198E+06     19.1711E+06     32.4413E+06     766.406E+03
            1475     101.077E-03     10.1428E-03     100.567E-03     338.374E-03    -168.009E-03    -170.365E-03    -167.398E-03     335.407E-03    -168.009E-03     76.4854E-03     369.769E-03     76.7638E+06     44.0097E+06     26.3785E+06    -39.7731E+06    -39.0242E+06     25.6296E+06     44.0097E+06     3.92995E+06
            1476     101.277E-03     10.9930E-03     100.679E-03     338.347E-03    -168.013E-03    -170.335E-03    -166.834E-03     334.847E-03    -168.013E-03     83.3534E-03     375.547E-03     79.4203E+06     56.1238E+06     23.7217E+06    -33.7526E+06    -32.5396E+06     22.5086E+06     56.1238E+06     7.87311E+06
            1477     101.474E-03     11.8475E-03     100.780E-03     337.371E-03    -167.572E-03    -169.799E-03    -165.556E-03     333.479E-03    -167.923E-03     88.3789E-03     381.202E-03     79.6639E+06     64.2114E+06     23.0447E+06    -27.1345E+06    -25.1462E+06     21.0565E+06     64.2114E+06     6.91662E+06
            1478     101.707E-03     12.6948E-03     100.912E-03     338.243E-03    -167.448E-03    -170.796E-03    -165.878E-03     333.676E-03    -167.798E-03     95.8227E-03     390.429E-03     83.7298E+06     75.5769E+06     36.4426E+06    -20.1163E+06    -18.2028E+06     34.5291E+06     75.5769E+06     2.90415E+06
            1479     101.950E-03     13.5401E-03     101.047E-03     343.341E-03    -167.842E-03    -175.499E-03    -169.276E-03     337.118E-03    -167.842E-03     112.337E-03     408.385E-03     101.324E+06     100.707E+06     56.1757E+06    -15.2338E+06    -14.6180E+06     55.5599E+06     100.707E+06     926.725E+03
            1480     102.257E-03     14.3862E-03     101.240E-03     345.694E-03    -168.041E-03    -177.653E-03    -171.058E-03     339.098E-03    -168.041E-03     116.246E-03     409.171E-03     126.953E+06     134.955E+06     84.1595E+06    -9.37383E+06    -9.18627E+06     83.9719E+06     134.955E+06    -574.586E+03
            1481     101.478E-03     845.429E-06     101.475E-03     337.643E-03    -166.006E-03    -171.637E-03    -169.975E-03     337.624E-03    -167.648E-03     2.68939E-03     338.762E-03     156.460E+06    -118.389E+06    -130.295E+06    -280.368E+06    -125.577E+06    -280.020E+06    -123.455E+06    -1.88011E+06
            1482     101.502E-03     1.69264E-03     101.488E-03     334.980E-03    -165.540E-03    -169.440E-03    -166.610E-03     334.953E-03    -168.344E-03     4.91975E-03     336.933E-03     138.190E+06    -103.742E+06    -112.956E+06    -246.149E+06    -113.399E+06    -245.705E+06    -103.742E+06     2.71291E+06
            1483     101.536E-03     2.53825E-03     101.504E-03     335.563E-03    -166.717E-03    -168.846E-03    -167.590E-03     335.517E-03    -167.927E-03     9.14481E-03     339.224E-03     120.270E+06    -87.6386E+06    -105.756E+06    -215.625E+06    -106.071E+06    -215.309E+06    -87.6386E+06     4.44723E+06
            1484     101.573E-03     3.38380E-03     101.516E-03     336.451E-03    -167.886E-03    -168.565E-03    -168.351E-03     336.358E-03    -168.008E-03     13.4426E-03     342.504E-03     103.846E+06    -74.1540E+06    -101.873E+06    -188.815E+06    -102.111E+06    -188.577E+06    -74.1540E+06     3.69148E+06
            1485     101.625E-03     4.22731E-03     101.537E-03     335.352E-03    -167.247E-03    -168.105E-03    -167.039E-03     335.121E-03    -168.083E-03     20.6917E-03     344.320E-03     95.4270E+06    -54.4350E+06    -94.2742E+06    -162.886E+06    -95.3088E+06    -161.851E+06    -54.4350E+06     6.67720E+06
            1486     101.697E-03     5.07314E-03     101.570E-03     334.969E-03    -166.978E-03    -167.991E-03    -166.569E-03     334.560E-03    -167.991E-03     28.4745E-03     346.800E-03     84.6843E+06    -37.1809E+06    -89.9232E+06    -133.951E+06    -91.7632E+06    -132.111E+06    -37.1809E+06     5.38356E+06
            1487     101.780E-03     5.92145E-03     101.608E-03     336.889E-03    -167.751E-03    -169.138E-03    -168.214E-03     336.215E-03    -168.001E-03     36.4224E-03     351.774E-03     73.5226E+06    -20.4637E+06    -77.9038E+06    -102.706E+06    -84.0532E+06    -96.5568E+06    -20.4637E+06     1.78731E+06
            1488     101.890E-03     6.76711E-03     101.665E-03     338.316E-03    -168.191E-03    -170.125E-03    -169.304E-03     337.494E-03    -168.191E-03     40.7634E-03     356.609E-03     66.1071E+06    -834.635E+03    -48.0151E+06    -75.4337E+06    -70.1049E+06    -53.3439E+06    -834.635E+03    -1.40696E+06
            1489     101.999E-03     7.60793E-03     101.715E-03     337.034E-03    -167.929E-03    -169.105E-03    -167.600E-03     335.908E-03    -168.308E-03     46.9404E-03     357.821E-03     68.8976E+06     11.5537E+06    -16.6710E+06    -65.3223E+06    -63.5144E+06    -18.4789E+06     11.5537E+06     502.896E+03
            1490     102.146E-03     8.45256E-03     101.796E-03     334.773E-03    -166.579E-03    -168.193E-03    -164.914E-03     333.108E-03    -168.193E-03     57.3493E-03     358.433E-03     76.6354E+06     30.3589E+06     17.0473E+06    -51.1433E+06    -50.4903E+06     17.3322E+06     29.4210E+06     6.65505E+06
            1491     102.303E-03     9.30355E-03     101.879E-03     334.633E-03    -165.866E-03    -168.766E-03    -164.507E-03     332.479E-03    -167.972E-03     65.1842E-03     361.930E-03     82.5360E+06     44.6085E+06     28.6645E+06    -44.4315E+06    -43.8166E+06     28.9875E+06     43.6706E+06     4.48879E+06
            1492     102.475E-03     10.1606E-03     101.970E-03     337.109E-03    -166.945E-03    -170.164E-03    -166.269E-03     334.084E-03    -167.815E-03     77.1703E-03     367.998E-03     84.0232E+06     46.9851E+06     22.3283E+06    -46.5151E+06    -45.4931E+06     21.3062E+06     46.9851E+06     5.68702E+06
            1493     102.664E-03     11.0057E-03     102.072E-03     339.177E-03    -167.763E-03    -171.414E-03    -167.880E-03     335.643E-03    -167.763E-03     84.1263E-03     376.442E-03      78.505E+06     47.8705E+06     22.6099E+06    -39.8801E+06    -38.2387E+06     20.9686E+06     47.8705E+06     5.00299E+06
            1494     102.869E-03     11.8448E-03     102.185E-03     340.165E-03    -167.821E-03    -172.344E-03    -168.579E-03     336.400E-03    -167.821E-03     87.4479E-03     383.470E-03     74.3927E+06     52.7659E+06     18.4523E+06    -31.7004E+06    -30.6309E+06     17.3827E+06     52.7659E+06    -437.404E+03
            1495     103.085E-03     12.6919E-03     102.301E-03     342.707E-03    -167.974E-03    -174.733E-03    -169.848E-03     337.823E-03    -167.974E-03     99.7162E-03     394.025E-03     83.2417E+06     73.0500E+06     31.2298E+06    -22.4317E+06    -21.5328E+06     30.3308E+06     73.0500E+06     4.04172E+06
            1496     103.349E-03     13.5375E-03     102.458E-03     345.688E-03    -168.168E-03    -177.521E-03    -170.617E-03     338.785E-03    -168.168E-03     118.946E-03     409.516E-03     103.123E+06     105.270E+06     61.1494E+06    -12.5271E+06    -11.6826E+06     60.3049E+06     105.270E+06     6.69459E+06
            1497     103.635E-03     14.3803E-03     102.633E-03     342.278E-03    -168.235E-03    -174.043E-03    -166.769E-03     335.004E-03    -168.235E-03     121.558E-03     404.689E-03     128.531E+06     139.180E+06     89.0889E+06    -6.76709E+06    -6.59714E+06     88.9189E+06     139.180E+06     1.11188E+06
            1498     102.898E-03     845.913E-06     102.895E-03     337.530E-03    -166.771E-03    -170.759E-03    -170.448E-03     337.493E-03    -167.045E-03     6.04112E-03     338.581E-03     159.047E+06    -110.119E+06    -125.537E+06    -276.230E+06    -120.880E+06    -275.820E+06    -115.185E+06    -855.158E+03
            1499     102.896E-03     1.68281E-03     102.883E-03     339.104E-03    -167.809E-03    -171.295E-03    -170.093E-03     339.063E-03    -168.970E-03     6.44106E-03     341.091E-03     137.402E+06    -108.611E+06    -117.283E+06    -250.091E+06    -117.487E+06    -249.887E+06    -108.611E+06    -2.03634E+06
            1500     102.930E-03     2.53461E-03     102.899E-03     336.393E-03    -166.720E-03    -169.674E-03    -167.331E-03     336.342E-03    -169.010E-03     9.94069E-03     340.233E-03     116.951E+06    -97.7361E+06    -108.353E+06    -219.557E+06    -108.511E+06    -219.399E+06    -97.7361E+06     389.085E+03
            1501     102.975E-03     3.38009E-03     102.920E-03     335.400E-03    -166.778E-03    -168.622E-03    -166.719E-03     335.319E-03    -168.600E-03     12.5723E-03     341.419E-03     103.114E+06    -80.3536E+06    -104.246E+06    -192.908E+06    -104.492E+06    -192.663E+06    -80.3536E+06     3.64394E+06
            1502     103.020E-03     4.22681E-03     102.934E-03     335.183E-03    -166.813E-03    -168.371E-03    -166.620E-03     334.968E-03    -168.348E-03     19.8801E-03     344.275E-03     98.4380E+06    -56.3010E+06    -95.2592E+06    -168.011E+06    -95.6388E+06    -167.632E+06    -56.3010E+06     4.63272E+06
            1503     103.091E-03     5.07619E-03     102.966E-03     335.545E-03    -167.341E-03    -168.204E-03    -166.916E-03     335.120E-03    -168.204E-03     28.9320E-03     347.451E-03     85.9547E+06    -33.4059E+06    -83.5958E+06    -131.406E+06    -84.9783E+06    -130.023E+06    -33.4059E+06     6.11282E+06
            1504     103.179E-03     5.91949E-03     103.009E-03     336.846E-03    -168.032E-03    -168.814E-03    -167.926E-03     336.114E-03    -168.188E-03     37.9868E-03     351.348E-03     73.1052E+06    -16.8837E+06    -74.6216E+06    -98.3878E+06    -80.9345E+06    -92.0749E+06    -16.8837E+06     4.01760E+06
            1505     103.289E-03     6.76124E-03     103.067E-03     337.775E-03    -168.140E-03    -169.635E-03    -168.495E-03     336.770E-03    -168.274E-03     44.6289E-03     355.026E-03     67.6944E+06    -3.16859E+06    -53.7386E+06    -79.1870E+06    -75.7097E+06    -57.2158E+06    -3.16859E+06     2.89710E+06
            1506     103.400E-03     7.60680E-03     103.120E-03     337.321E-03    -168.251E-03    -169.070E-03    -167.612E-03     335.948E-03    -168.336E-03     51.8993E-03     357.262E-03     74.5475E+06     12.4155E+06    -18.1725E+06    -70.3532E+06    -69.5524E+06    -18.9734E+06     12.4155E+06     6.22048E+06
            1507     103.534E-03     8.45548E-03     103.188E-03     336.110E-03    -167.126E-03    -168.984E-03    -165.919E-03     334.172E-03    -168.252E-03     62.2378E-03     359.060E-03     83.2832E+06     29.3591E+06     13.9812E+06    -59.6244E+06    -59.0275E+06     14.3222E+06     28.4212E+06     4.67281E+06
            1508     103.688E-03     9.30667E-03     103.270E-03     336.283E-03    -166.204E-03    -170.079E-03    -166.109E-03     334.224E-03    -168.115E-03     64.1689E-03     363.531E-03     83.7996E+06     39.2528E+06     24.1791E+06    -50.7406E+06    -50.0660E+06     24.4424E+06     38.3149E+06     5.08090E+06
            1509     103.859E-03     10.1510E-03     103.361E-03     336.257E-03    -166.395E-03    -169.862E-03    -166.047E-03     334.079E-03    -168.033E-03     65.9114E-03     367.493E-03     83.0403E+06     47.3714E+06     25.2213E+06    -44.2132E+06    -43.1788E+06     24.1869E+06     47.3714E+06     8.33942E+06
            1510     104.058E-03     10.9984E-03     103.475E-03     336.667E-03    -166.872E-03    -169.795E-03    -165.888E-03     333.813E-03    -167.925E-03     75.5515E-03     372.968E-03     79.5800E+06     49.6864E+06     22.8971E+06    -39.4446E+06    -37.9166E+06     21.3692E+06     49.6864E+06     4.62967E+06
            1511     104.257E-03     11.8493E-03     103.582E-03     339.530E-03    -167.634E-03    -171.895E-03    -168.019E-03     335.938E-03    -167.919E-03     85.2982E-03     382.013E-03     81.2768E+06     60.8260E+06     24.7308E+06    -31.7114E+06    -30.3077E+06     23.3270E+06     60.8260E+06    -1.43945E+06
            1512     104.480E-03     12.6918E-03     103.707E-03     342.532E-03    -168.022E-03    -174.511E-03    -169.335E-03     337.357E-03    -168.022E-03     102.108E-03     393.399E-03     88.7657E+06     78.6222E+06     35.4875E+06    -23.4255E+06    -22.4005E+06     34.4626E+06     78.6222E+06     12.0267E+03
            1513     104.736E-03     13.5346E-03     103.858E-03     343.875E-03    -168.073E-03    -175.801E-03    -168.369E-03     336.442E-03    -168.073E-03     123.073E-03     407.164E-03     104.846E+06     98.2488E+06     57.0899E+06    -20.7038E+06    -20.0918E+06     56.4779E+06     98.2488E+06     2.96390E+06
            1514     105.017E-03     14.3889E-03     104.026E-03     341.799E-03    -168.058E-03    -173.741E-03    -166.488E-03     334.546E-03    -168.058E-03     121.030E-03     403.767E-03     128.762E+06     133.371E+06     88.6158E+06    -11.7200E+06    -11.5569E+06     88.4527E+06     133.371E+06     2.96594E+06
            1515     104.288E-03     848.604E-06     104.284E-03     337.439E-03    -166.095E-03    -171.344E-03    -167.010E-03     337.404E-03    -170.394E-03     4.88373E-03     338.596E-03     155.461E+06    -114.764E+06    -129.498E+06    -276.959E+06    -124.641E+06    -276.763E+06    -119.817E+06     4.29291E+06
            1516     104.311E-03     1.69647E-03     104.297E-03     339.556E-03    -168.425E-03    -171.130E-03    -170.486E-03     339.521E-03    -169.034E-03     6.57647E-03     341.667E-03     129.870E+06    -110.603E+06    -121.900E+06    -245.617E+06    -122.050E+06    -245.467E+06    -110.603E+06     1.00213E+06
            1517     104.329E-03     2.52869E-03     104.298E-03     338.206E-03    -167.703E-03    -170.503E-03    -168.795E-03     338.152E-03    -169.357E-03     9.53067E-03     342.031E-03     112.519E+06    -102.604E+06    -118.010E+06    -221.918E+06    -118.192E+06    -221.736E+06    -102.604E+06    -1.38240E+06
            1518     104.368E-03     3.37931E-03     104.313E-03     334.891E-03    -165.929E-03    -168.961E-03    -165.815E-03     334.776E-03    -168.961E-03     14.7858E-03     340.791E-03     100.583E+06    -85.3974E+06    -107.401E+06    -194.955E+06    -107.490E+06    -194.865E+06    -85.3974E+06    -1.10558E+06
            1519     104.419E-03     4.22721E-03     104.333E-03     335.402E-03    -166.880E-03    -168.521E-03    -166.660E-03     335.182E-03    -168.521E-03     20.7044E-03     344.183E-03     96.5959E+06    -63.8790E+06    -98.8360E+06    -172.687E+06    -98.9006E+06    -172.622E+06    -63.8790E+06     1.31401E+06
            1520     104.486E-03     5.06995E-03     104.363E-03     336.267E-03    -167.872E-03    -168.395E-03    -167.407E-03     335.801E-03    -168.395E-03     29.8596E-03     347.872E-03     87.4286E+06    -39.4021E+06    -86.7358E+06    -139.826E+06    -87.8810E+06    -138.681E+06    -39.4021E+06     5.55636E+06
            1521     104.578E-03     5.91770E-03     104.411E-03     335.444E-03    -167.141E-03    -168.302E-03    -166.379E-03     334.681E-03    -168.302E-03     38.7582E-03     349.937E-03     77.8276E+06    -14.3207E+06    -67.3935E+06    -103.359E+06    -78.1252E+06    -92.6270E+06    -14.3207E+06     11.6718E+06
            1522     104.681E-03     6.76909E-03     104.462E-03     334.666E-03    -166.457E-03    -168.209E-03    -165.492E-03     333.610E-03    -168.118E-03     45.5898E-03     352.013E-03     76.8355E+06     2.81707E+06    -51.0924E+06    -84.9205E+06    -77.9649E+06    -58.0479E+06     2.81707E+06     11.1037E+06
            1523     104.800E-03     7.61598E-03     104.523E-03     336.355E-03    -167.194E-03    -169.161E-03    -167.034E-03     335.021E-03    -167.987E-03     51.5895E-03     357.108E-03     81.2598E+06     18.9509E+06    -14.0293E+06    -70.6477E+06    -69.4653E+06    -15.2117E+06     18.9509E+06     5.15284E+06
            1524     104.923E-03     8.46113E-03     104.582E-03     339.252E-03    -168.039E-03    -171.213E-03    -169.425E-03     337.498E-03    -168.073E-03     59.3746E-03     362.878E-03     89.0271E+06     30.7857E+06     17.9364E+06    -63.6744E+06    -62.0539E+06     16.3159E+06     30.7857E+06     5.74129E+06
            1525     105.089E-03     9.29990E-03     104.677E-03     340.718E-03    -168.287E-03    -172.430E-03    -170.258E-03     338.545E-03    -168.287E-03     66.2631E-03     367.815E-03     86.1561E+06     34.7748E+06     22.1607E+06    -56.8914E+06     -55.264E+06     20.5333E+06     34.7748E+06     7.10924E+06
            1526     105.253E-03     10.1403E-03     104.764E-03     338.711E-03    -167.624E-03    -171.087E-03    -167.934E-03     336.327E-03    -168.392E-03     69.1361E-03     370.782E-03     75.6839E+06     34.9006E+06     20.0000E+06    -47.0411E+06    -46.3942E+06     19.3531E+06     34.9006E+06     4.54151E+06
            1527     105.431E-03     10.9933E-03     104.857E-03     335.800E-03    -166.866E-03    -168.934E-03    -164.364E-03     332.690E-03    -168.326E-03     78.3959E-03     372.662E-03     78.2763E+06     54.5086E+06     27.7721E+06    -33.2936E+06    -32.2609E+06     26.7393E+06     54.5086E+06     3.28365E+06
            1528     105.651E-03     11.8421E-03     104.985E-03     336.572E-03    -167.349E-03    -169.223E-03    -164.490E-03     332.622E-03    -168.132E-03     88.7703E-03     379.879E-03     85.6057E+06     72.4929E+06     32.3661E+06    -25.6723E+06    -23.7864E+06     30.4802E+06     72.4929E+06     2.25456E+06
            1529     105.866E-03     12.6912E-03     105.102E-03     338.795E-03    -167.831E-03    -170.964E-03    -165.591E-03     333.514E-03    -167.923E-03     102.524E-03     390.836E-03     90.4889E+06     72.9844E+06     30.0889E+06    -30.9223E+06    -29.5698E+06     28.7364E+06     72.9844E+06     982.781E+03
            1530     106.120E-03     13.5467E-03     105.252E-03     342.116E-03    -167.815E-03    -174.301E-03    -166.848E-03     334.663E-03    -167.815E-03     122.854E-03     406.101E-03     105.184E+06     95.9648E+06     57.4005E+06     -22.846E+06    -22.6875E+06      57.242E+06     95.9648E+06     1.06143E+06
            1531     106.401E-03     14.3909E-03     105.423E-03     344.556E-03    -167.866E-03    -176.690E-03    -169.688E-03     337.553E-03    -167.866E-03     119.250E-03     408.179E-03     126.833E+06     133.838E+06     92.4164E+06    -8.48731E+06    -8.32723E+06     92.2563E+06     133.838E+06     2.41624E+06
            1532     105.681E-03     838.417E-06     105.677E-03     340.513E-03    -166.803E-03    -173.710E-03    -168.889E-03     340.482E-03    -171.593E-03     3.64110E-03     341.891E-03     157.817E+06    -117.374E+06    -130.116E+06    -281.082E+06    -123.169E+06    -280.549E+06    -124.854E+06    -4.67893E+06
            1533     105.714E-03     1.68348E-03     105.700E-03     336.747E-03    -166.697E-03    -170.050E-03    -167.130E-03     336.697E-03    -169.567E-03     7.68124E-03     339.041E-03     134.351E+06    -108.312E+06    -117.219E+06    -246.755E+06    -114.878E+06    -246.670E+06    -110.738E+06     456.201E+03
            1534     105.735E-03     2.53686E-03     105.705E-03     336.375E-03    -166.746E-03    -169.629E-03    -167.504E-03     336.320E-03    -168.816E-03     9.51628E-03     339.935E-03     117.961E+06    -95.3831E+06    -112.156E+06    -220.617E+06    -112.435E+06    -220.339E+06    -95.3831E+06     2.13174E+06
            1535     105.759E-03     3.37903E-03     105.705E-03     336.763E-03    -167.342E-03    -169.421E-03    -168.002E-03     336.603E-03    -168.601E-03     16.9856E-03     342.781E-03     101.568E+06    -84.0782E+06    -109.495E+06    -195.700E+06    -109.775E+06    -195.420E+06    -84.0782E+06    -686.432E+03
            1536     105.819E-03     4.22583E-03     105.734E-03     336.976E-03    -167.874E-03    -169.102E-03    -168.110E-03     336.722E-03    -168.612E-03     22.4920E-03     346.125E-03     97.7707E+06    -64.9119E+06    -103.052E+06    -175.583E+06    -103.218E+06    -175.418E+06    -64.9119E+06     318.015E+03
            1537     105.883E-03     5.07363E-03     105.762E-03     336.788E-03    -168.148E-03    -168.640E-03    -167.720E-03     336.361E-03    -168.640E-03     28.3614E-03     348.839E-03     92.8830E+06    -42.8713E+06    -96.2133E+06    -149.409E+06    -97.1236E+06    -148.499E+06    -42.8713E+06     4.79898E+06
            1538     105.974E-03     5.91908E-03     105.808E-03     335.508E-03    -166.965E-03    -168.543E-03    -166.368E-03     334.912E-03    -168.543E-03     34.2978E-03     350.523E-03     82.4860E+06    -19.6576E+06    -78.6543E+06    -113.516E+06    -85.4089E+06    -106.762E+06    -19.6576E+06     9.86240E+06
            1539     106.071E-03     6.76420E-03     105.855E-03     334.146E-03    -165.828E-03    -168.318E-03    -165.097E-03     333.415E-03    -168.318E-03     37.9000E-03     351.733E-03     77.7115E+06     5.98889E+06    -44.2764E+06    -82.3336E+06    -71.3881E+06    -55.2220E+06     5.98889E+06     12.2561E+06
            1540     106.191E-03     7.61503E-03     105.917E-03     336.259E-03    -166.802E-03    -169.457E-03    -166.989E-03     335.142E-03    -168.153E-03     46.9969E-03     356.796E-03     80.8435E+06     22.4300E+06    -8.22299E+06    -67.8208E+06    -65.0202E+06    -11.0236E+06     22.4300E+06     9.60088E+06
            1541     106.331E-03     8.45534E-03     105.994E-03     338.182E-03    -167.395E-03    -170.787E-03    -168.432E-03     336.591E-03    -168.159E-03     56.5412E-03     362.106E-03     81.4094E+06     27.6084E+06     13.3479E+06    -59.8232E+06    -57.0938E+06     10.6185E+06     27.6084E+06     10.1791E+06
            1542     106.481E-03     9.30193E-03     106.074E-03     337.859E-03    -167.430E-03    -170.429E-03    -167.135E-03     335.329E-03    -168.194E-03     70.6763E-03     365.182E-03     82.7620E+06     39.4761E+06     26.4598E+06    -48.9373E+06    -46.7923E+06     24.3148E+06     39.4761E+06     10.4810E+06
            1543     106.654E-03     10.1519E-03     106.169E-03     339.281E-03    -168.204E-03    -171.078E-03    -168.118E-03     336.322E-03    -168.204E-03     77.3411E-03     372.204E-03     82.6890E+06     50.2064E+06     30.8953E+06    -40.3203E+06    -39.3919E+06     29.9669E+06     50.2064E+06     2.49950E+06
            1544     106.820E-03     10.9902E-03     106.253E-03     338.265E-03    -167.758E-03    -170.507E-03    -166.606E-03     334.770E-03    -168.164E-03     83.3719E-03     376.740E-03     77.4924E+06     49.6243E+06     24.0881E+06    -37.3170E+06    -36.4629E+06     23.2340E+06     49.6243E+06    -485.632E+03
            1545     107.028E-03     11.8440E-03     106.371E-03     336.964E-03    -167.515E-03    -169.450E-03    -164.364E-03     332.377E-03    -168.012E-03     95.8625E-03     379.658E-03     82.5597E+06     56.2971E+06     19.6092E+06    -38.0735E+06    -36.5596E+06     18.0953E+06     56.2971E+06     4.64334E+06
            1546     107.254E-03     12.6973E-03     106.499E-03     339.158E-03    -167.780E-03    -171.378E-03    -166.262E-03     334.134E-03    -167.872E-03     100.623E-03     391.103E-03     90.6068E+06     76.2773E+06     33.6754E+06    -27.7225E+06    -26.2496E+06     32.2026E+06     76.2773E+06     1.29582E+06
            1547     107.496E-03     13.5427E-03     106.640E-03     342.752E-03    -167.869E-03    -174.882E-03    -168.339E-03     336.208E-03    -167.869E-03     114.895E-03     405.947E-03     103.752E+06     104.872E+06     63.0535E+06    -13.1555E+06    -12.0485E+06     61.9466E+06     104.872E+06     1.38976E+06
            1548     107.795E-03     14.3932E-03     106.830E-03     343.663E-03    -167.961E-03    -175.701E-03    -169.089E-03     337.050E-03    -167.961E-03     115.870E-03     407.303E-03     128.634E+06     137.998E+06     94.2497E+06    -6.67841E+06    -6.19298E+06     93.7643E+06     137.998E+06     4.12509E+06
            1549     107.101E-03     844.947E-06     107.097E-03     338.472E-03    -167.174E-03    -171.298E-03    -170.502E-03     338.441E-03    -167.938E-03     5.21132E-03     339.787E-03     163.658E+06    -105.424E+06    -123.712E+06    -277.333E+06    -117.972E+06    -276.379E+06    -112.118E+06    -772.659E+03
            1550     107.102E-03     1.69146E-03     107.088E-03     335.927E-03    -166.491E-03    -169.436E-03    -167.118E-03     335.870E-03    -168.752E-03     8.50932E-03     338.129E-03     137.259E+06    -106.912E+06    -120.162E+06    -250.133E+06    -117.770E+06    -250.098E+06    -109.338E+06    -1.21777E+06
            1551     107.130E-03     2.53830E-03     107.100E-03     335.887E-03    -166.787E-03    -169.100E-03    -167.557E-03     335.841E-03    -168.283E-03     9.08414E-03     339.622E-03     121.881E+06    -96.6792E+06    -111.199E+06    -224.975E+06    -111.403E+06    -224.771E+06    -96.6792E+06     2.64280E+06
            1552     107.164E-03     3.38489E-03     107.110E-03     338.296E-03    -168.454E-03    -169.842E-03    -169.724E-03     338.178E-03    -168.454E-03     13.5337E-03     344.594E-03     109.362E+06    -75.0143E+06    -105.924E+06    -196.051E+06    -106.448E+06    -195.526E+06    -75.0143E+06     4.30306E+06
            1553     107.218E-03     4.22524E-03     107.135E-03     338.449E-03    -168.810E-03    -169.639E-03    -169.384E-03     338.219E-03    -168.836E-03     20.9889E-03     347.743E-03     106.946E+06    -54.0070E+06    -101.478E+06    -176.263E+06    -101.912E+06    -175.828E+06    -54.0070E+06     3.06999E+06
            1554     107.283E-03     5.06717E-03     107.163E-03     337.513E-03    -168.492E-03    -169.020E-03    -168.150E-03     337.117E-03    -168.967E-03     27.5987E-03     350.034E-03     100.149E+06    -37.0432E+06    -94.6838E+06    -152.141E+06    -94.9821E+06    -151.843E+06    -37.0432E+06     3.62144E+06
            1555     107.369E-03     5.91262E-03     107.206E-03     336.628E-03    -167.750E-03    -168.877E-03    -167.128E-03     336.005E-03    -168.877E-03     34.9864E-03     351.937E-03     82.6305E+06    -22.2312E+06    -84.6337E+06    -114.985E+06    -85.3393E+06    -114.279E+06    -22.2312E+06     2.92930E+06
            1556     107.467E-03     6.76012E-03     107.254E-03     336.397E-03    -167.444E-03    -168.953E-03    -166.847E-03     335.561E-03    -168.714E-03     40.5290E-03     354.173E-03     70.2853E+06    -6.95853E+06    -54.3745E+06    -85.4798E+06    -74.4332E+06    -65.4210E+06    -6.95853E+06     8.63777E+06
            1557     107.580E-03     7.60404E-03     107.311E-03     336.221E-03    -167.197E-03    -169.023E-03    -166.290E-03     334.854E-03    -168.564E-03     51.5736E-03     356.485E-03     77.2979E+06     13.8039E+06    -8.94074E+06    -71.5349E+06    -66.0325E+06    -14.4432E+06     13.8039E+06     16.0523E+06
            1558     107.732E-03     8.45510E-03     107.399E-03     334.969E-03    -166.391E-03    -168.578E-03    -165.005E-03     333.364E-03    -168.358E-03     56.4573E-03     358.743E-03     82.1533E+06     29.2680E+06     15.5604E+06    -58.8639E+06    -56.8116E+06     13.5081E+06     29.2680E+06     10.3712E+06
            1559     107.859E-03     9.30728E-03     107.457E-03     334.017E-03    -165.907E-03    -168.110E-03    -163.752E-03     331.806E-03    -168.054E-03     65.0338E-03     361.271E-03     79.2160E+06     37.5003E+06     26.2079E+06    -46.6219E+06    -45.7253E+06     25.3113E+06     37.5003E+06     5.56434E+06
            1560     108.053E-03     10.1560E-03     107.575E-03     335.065E-03    -165.858E-03    -169.208E-03    -164.403E-03     332.199E-03    -167.796E-03     75.4681E-03     366.349E-03     85.3590E+06     51.3044E+06     35.7290E+06    -40.4188E+06    -37.7845E+06     33.0948E+06     51.3044E+06     7.91029E+06
            1561     108.217E-03     11.0049E-03     107.656E-03     339.364E-03    -166.761E-03    -172.603E-03    -168.394E-03     336.139E-03    -167.745E-03     80.4632E-03     377.217E-03     86.2949E+06     57.8955E+06     30.8770E+06    -38.3652E+06    -35.8705E+06     28.3823E+06     57.8955E+06     8.19706E+06
            1562     108.408E-03     11.8494E-03     107.758E-03     341.709E-03    -167.882E-03    -173.827E-03    -169.805E-03     337.688E-03    -167.882E-03     90.1799E-03     384.076E-03     83.6030E+06     64.0830E+06     26.9200E+06    -31.5363E+06    -29.1453E+06     24.5290E+06     64.0830E+06      8.3614E+06
            1563     108.647E-03     12.6921E-03     107.903E-03     341.460E-03    -168.015E-03    -173.445E-03    -168.685E-03     336.700E-03    -168.015E-03     98.1680E-03     392.106E-03     88.9545E+06     78.4729E+06     35.5025E+06    -23.7737E+06    -21.4038E+06     33.1327E+06     78.4729E+06     2.03617E+06
            1564     108.883E-03     13.5352E-03     108.039E-03     343.660E-03    -168.101E-03    -175.559E-03    -168.834E-03     336.935E-03    -168.101E-03     116.435E-03     405.656E-03     106.258E+06     102.707E+06     57.5660E+06    -18.5363E+06    -17.4203E+06     56.4501E+06     102.707E+06    -679.860E+03
            1565     109.172E-03     14.3799E-03     108.221E-03     341.061E-03    -167.932E-03    -173.129E-03    -165.843E-03     333.941E-03    -168.098E-03     119.695E-03     404.634E-03     131.915E+06     139.091E+06     94.5075E+06    -9.17823E+06    -8.58329E+06     93.9125E+06     139.091E+06     1.61482E+06
            1566     108.498E-03     849.395E-06     108.495E-03     335.305E-03    -166.872E-03    -168.434E-03    -168.315E-03     335.297E-03    -166.982E-03     1.17538E-03     336.595E-03     160.714E+06    -113.600E+06    -127.519E+06    -280.599E+06    -122.518E+06    -279.880E+06    -119.320E+06     4.28883E+06
            1567     108.502E-03     1.69167E-03     108.489E-03     337.357E-03    -168.002E-03    -169.355E-03    -169.339E-03     337.341E-03    -168.002E-03     2.34303E-03     339.231E-03     136.718E+06    -99.5683E+06    -118.608E+06    -244.494E+06    -117.328E+06    -244.321E+06    -101.021E+06     2.81432E+06
            1568     108.528E-03     2.53472E-03     108.499E-03     338.536E-03    -168.634E-03    -169.903E-03    -169.853E-03     338.487E-03    -168.634E-03     9.02692E-03     342.345E-03     128.791E+06    -90.4380E+06    -113.769E+06    -229.136E+06    -113.873E+06    -229.032E+06    -90.4380E+06     2.37545E+06
            1569     108.567E-03     3.37621E-03     108.515E-03     338.498E-03    -168.615E-03    -169.882E-03    -169.414E-03     338.407E-03    -168.993E-03     12.7353E-03     344.797E-03     114.724E+06    -77.5791E+06    -108.694E+06    -204.332E+06    -109.072E+06    -203.953E+06    -77.5791E+06     5.05287E+06
            1570     108.618E-03     4.22342E-03     108.536E-03     337.792E-03    -168.352E-03    -169.440E-03    -168.441E-03     337.567E-03    -169.126E-03     20.5287E-03     347.069E-03     105.879E+06    -55.6857E+06    -99.1874E+06    -176.058E+06    -99.6984E+06    -175.547E+06    -55.6857E+06     5.52853E+06
            1571     108.685E-03     5.07036E-03     108.566E-03     337.337E-03    -168.182E-03    -169.155E-03    -167.820E-03     336.921E-03    -169.101E-03     28.5992E-03     349.943E-03     100.420E+06    -32.6837E+06    -84.4206E+06    -148.111E+06    -84.7944E+06    -147.737E+06    -32.6837E+06     4.12748E+06
            1572     108.765E-03     5.91670E-03     108.604E-03     336.467E-03    -167.512E-03    -168.955E-03    -166.852E-03     335.807E-03    -168.955E-03     35.8569E-03     351.732E-03     90.2318E+06    -18.1262E+06    -75.4080E+06    -120.889E+06    -77.6796E+06    -118.617E+06    -18.1262E+06     6.59434E+06
            1573     108.865E-03     6.76206E-03     108.654E-03     336.601E-03    -167.606E-03    -168.996E-03    -166.833E-03     335.590E-03    -168.756E-03     44.9234E-03     354.523E-03     76.2644E+06    -6.69182E+06    -59.0041E+06    -92.8125E+06    -74.0402E+06    -77.7764E+06    -6.69182E+06     8.96015E+06
            1574     108.980E-03     7.60803E-03     108.714E-03     335.837E-03    -167.053E-03    -168.784E-03    -165.822E-03     334.367E-03    -168.545E-03     53.9772E-03     356.296E-03     68.8178E+06     13.2615E+06    -17.3754E+06    -63.4995E+06    -60.0202E+06    -20.8546E+06     13.2615E+06     8.72422E+06
            1575     109.113E-03     8.45607E-03     108.784E-03     335.010E-03    -166.615E-03    -168.395E-03    -164.863E-03     333.168E-03    -168.306E-03     60.0515E-03     358.854E-03     81.7428E+06     36.6421E+06     22.7879E+06    -50.7698E+06    -48.6344E+06     22.1157E+06     35.1789E+06     11.0473E+06
            1576     109.262E-03     9.29885E-03     108.865E-03     335.722E-03    -166.681E-03    -169.041E-03    -165.551E-03     333.615E-03    -168.064E-03     64.3957E-03     363.292E-03     85.9012E+06     37.0728E+06     28.7561E+06    -52.6001E+06    -50.7115E+06     28.3306E+06     35.6096E+06     9.37120E+06
            1577     109.419E-03     10.1527E-03     108.947E-03     334.877E-03    -165.943E-03    -168.934E-03    -164.678E-03     332.560E-03    -167.882E-03     67.8750E-03     365.377E-03     83.3104E+06     38.0035E+06     24.8356E+06    -50.8078E+06    -48.5307E+06     22.5584E+06     38.0035E+06     9.61842E+06
            1578     109.615E-03     11.0082E-03     109.061E-03     338.787E-03    -166.896E-03    -171.890E-03    -168.198E-03     336.079E-03    -167.880E-03     73.8334E-03     375.309E-03     85.0784E+06     58.1168E+06     32.0884E+06    -36.6345E+06    -34.4468E+06     29.9007E+06     58.1168E+06     10.0576E+06
            1579     109.817E-03     11.8401E-03     109.177E-03     342.209E-03    -168.070E-03    -174.139E-03    -170.840E-03     338.911E-03    -168.070E-03     82.1969E-03     385.200E-03     85.7436E+06     67.4198E+06     31.0813E+06    -30.4338E+06    -28.0511E+06     28.6985E+06     67.4198E+06     9.75613E+06
            1580     110.021E-03     12.6870E-03     109.287E-03     340.216E-03    -168.197E-03    -172.019E-03    -167.110E-03     335.307E-03    -168.197E-03     98.7371E-03     390.173E-03     93.9808E+06     83.9896E+06     41.9282E+06    -23.5616E+06    -20.9335E+06     39.3001E+06     83.9896E+06     10.5260E+06
            1581     110.281E-03     13.5405E-03     109.447E-03     341.200E-03    -168.117E-03    -173.083E-03    -165.794E-03     333.910E-03    -168.117E-03     121.217E-03     402.769E-03     111.403E+06     108.598E+06     65.3666E+06    -17.7538E+06    -16.6833E+06     64.2962E+06     108.598E+06    -161.348E+03
            1582     110.551E-03     14.3921E-03     109.610E-03     341.883E-03    -167.855E-03    -174.028E-03    -166.730E-03     334.750E-03    -168.020E-03     119.926E-03     406.095E-03     133.464E+06     137.105E+06     92.3642E+06    -12.9320E+06    -12.3676E+06     91.7999E+06     137.105E+06    -4.03097E+06
            1583     109.891E-03     842.570E-06     109.888E-03     337.217E-03    -168.321E-03    -168.896E-03    -168.775E-03     337.207E-03    -168.432E-03     2.72265E-03     338.413E-03     155.425E+06    -123.459E+06    -128.389E+06    -281.287E+06    -126.590E+06    -280.745E+06    -125.800E+06    -2.88761E+06
            1584     109.906E-03     1.69029E-03     109.893E-03     338.646E-03    -168.831E-03    -169.815E-03    -169.800E-03     338.631E-03    -168.831E-03     3.52916E-03     340.461E-03     138.380E+06    -109.311E+06    -121.214E+06    -252.882E+06    -120.307E+06    -252.336E+06    -110.764E+06     2.25432E+06
            1585     109.930E-03     2.53387E-03     109.901E-03     339.024E-03    -168.831E-03    -170.193E-03    -169.697E-03     338.965E-03    -169.269E-03     10.1126E-03     342.784E-03     131.853E+06    -87.4329E+06    -109.755E+06    -228.718E+06    -109.971E+06    -228.502E+06    -87.4329E+06     2.95185E+06
            1586     109.972E-03     3.37912E-03     109.920E-03     337.807E-03    -168.174E-03    -169.633E-03    -168.388E-03     337.699E-03    -169.312E-03     14.6034E-03     344.165E-03     119.945E+06    -75.6240E+06    -101.290E+06    -206.172E+06    -101.404E+06    -206.058E+06    -75.6240E+06     1.55714E+06
            1587     110.013E-03     4.22318E-03     109.932E-03     336.628E-03    -167.518E-03    -169.110E-03    -167.250E-03     336.359E-03    -169.110E-03     22.2509E-03     346.301E-03     106.785E+06    -61.6132E+06    -93.8595E+06    -180.400E+06    -94.1080E+06    -180.152E+06    -61.6132E+06     3.68261E+06
            1588     110.086E-03     5.06832E-03     109.970E-03     336.385E-03    -167.469E-03    -168.916E-03    -166.998E-03     335.914E-03    -168.916E-03     30.3507E-03     349.148E-03     102.853E+06    -39.5432E+06    -85.9302E+06    -157.172E+06    -87.5590E+06    -155.543E+06    -39.5432E+06     7.24867E+06
            1589     110.160E-03     5.91313E-03     110.001E-03     336.061E-03    -167.319E-03    -168.742E-03    -166.644E-03     335.386E-03    -168.742E-03     36.2244E-03     351.435E-03     94.9345E+06    -18.7344E+06    -76.1938E+06    -126.760E+06    -79.7246E+06    -123.229E+06    -18.7344E+06     10.0190E+06
            1590     110.259E-03     6.76250E-03     110.052E-03     335.647E-03    -167.119E-03    -168.528E-03    -166.040E-03     334.568E-03    -168.528E-03     46.1403E-03     353.613E-03     77.6124E+06     1.05725E+06    -56.8294E+06    -85.9815E+06    -68.1955E+06    -74.6155E+06     1.05725E+06     7.14650E+06
            1591     110.376E-03     7.61000E-03     110.113E-03     335.182E-03    -166.924E-03    -168.258E-03    -165.576E-03     333.834E-03    -168.258E-03     51.8960E-03     355.842E-03     68.6129E+06     11.1063E+06    -23.7103E+06    -64.5976E+06    -61.9339E+06    -26.3740E+06     11.1063E+06     6.83451E+06
            1592     110.502E-03     8.45837E-03     110.177E-03     335.006E-03    -166.915E-03    -168.091E-03    -165.137E-03     333.140E-03    -168.003E-03     60.4533E-03     358.985E-03     79.3033E+06     20.6460E+06     11.0938E+06    -62.4765E+06    -59.5958E+06     9.67632E+06     19.1828E+06     13.9740E+06
            1593     110.658E-03     9.31124E-03     110.266E-03     338.346E-03    -167.671E-03    -170.675E-03    -168.047E-03     336.012E-03    -167.965E-03     68.6921E-03     365.833E-03     91.5039E+06     40.9580E+06     32.6957E+06    -54.3122E+06    -50.8598E+06     30.7064E+06     39.4948E+06     16.8801E+06
            1594     110.815E-03     10.1462E-03     110.350E-03     341.025E-03    -168.150E-03    -172.874E-03    -170.372E-03     338.522E-03    -168.150E-03     71.1384E-03     372.809E-03     88.9905E+06     51.7443E+06     35.8532E+06    -43.9609E+06    -42.3164E+06     34.2086E+06     51.7443E+06     10.6928E+06
            1595     110.996E-03     10.9836E-03     110.451E-03     339.376E-03    -168.261E-03    -171.115E-03    -167.695E-03     335.956E-03    -168.261E-03     82.1361E-03     377.704E-03     83.2130E+06     49.5557E+06     24.2683E+06    -43.0535E+06    -42.2394E+06     23.4542E+06     49.5557E+06     7.08804E+06
            1596     111.214E-03     11.8443E-03     110.582E-03     337.793E-03    -167.975E-03    -169.818E-03    -165.756E-03     333.987E-03    -168.230E-03     87.1404E-03     382.587E-03     86.1532E+06     64.9425E+06     28.4075E+06    -33.3853E+06    -32.6039E+06     27.6261E+06     64.9425E+06     6.63858E+06
            1597     111.407E-03     12.6895E-03     110.682E-03     338.581E-03    -167.869E-03    -170.713E-03    -165.423E-03     333.547E-03    -168.125E-03     99.5053E-03     390.993E-03     94.8708E+06     89.2142E+06     48.9549E+06    -19.0764E+06    -18.1580E+06     48.0365E+06     89.2142E+06     6.28662E+06
            1598     111.657E-03     13.5397E-03     110.833E-03     341.811E-03    -168.005E-03    -173.807E-03    -166.617E-03     334.622E-03    -168.005E-03     120.823E-03     405.398E-03     112.752E+06     107.775E+06     69.2600E+06    -19.0407E+06    -17.1123E+06     67.3316E+06     107.775E+06     5.37827E+06
            1599     111.934E-03     14.3906E-03     111.005E-03     344.276E-03    -168.041E-03    -176.235E-03    -169.566E-03     337.607E-03    -168.041E-03     116.643E-03     409.055E-03     136.065E+06     139.207E+06     96.5121E+06    -12.9989E+06    -11.4147E+06     94.9280E+06     139.207E+06     1.01619E+06
            1600     111.296E-03     847.260E-06     111.293E-03     340.828E-03    -169.035E-03    -171.793E-03    -169.282E-03     340.819E-03    -171.537E-03     287.007E-06     342.147E-03     157.533E+06    -113.718E+06    -117.717E+06    -273.210E+06    -117.106E+06    -272.933E+06    -114.606E+06    -1.59303E+06
            1601     111.307E-03     1.68754E-03     111.294E-03     339.514E-03    -169.034E-03    -170.480E-03    -169.340E-03     339.505E-03    -170.165E-03     2.74223E-03     341.606E-03     139.703E+06    -111.782E+06    -117.348E+06    -254.179E+06    -117.785E+06    -253.742E+06    -111.782E+06    -1.17177E+06
            1602     111.336E-03     2.53160E-03     111.307E-03     336.733E-03    -166.987E-03    -169.746E-03    -167.076E-03     336.680E-03    -169.604E-03     8.99900E-03     340.493E-03     127.809E+06    -97.9883E+06    -111.045E+06    -231.658E+06    -111.301E+06    -231.402E+06    -97.9883E+06     1.32574E+06
            1603     111.367E-03     3.37790E-03     111.316E-03     335.600E-03    -166.626E-03    -168.974E-03    -166.481E-03     335.455E-03    -168.974E-03     16.4067E-03     341.842E-03     117.766E+06    -80.5993E+06    -103.780E+06    -207.956E+06    -104.124E+06    -207.611E+06    -80.5993E+06    -979.081E+03
            1604     111.416E-03     4.22522E-03     111.336E-03     335.696E-03    -167.106E-03    -168.590E-03    -166.803E-03     335.393E-03    -168.590E-03     23.9753E-03     345.082E-03     106.824E+06    -64.8853E+06    -96.0128E+06    -183.485E+06    -96.8341E+06    -182.663E+06    -64.8853E+06     2.11672E+06
            1605     111.477E-03     5.07353E-03     111.362E-03     335.490E-03    -167.087E-03    -168.404E-03    -166.552E-03     334.956E-03    -168.404E-03     32.4522E-03     347.806E-03     105.330E+06    -44.6690E+06    -89.7933E+06    -164.726E+06    -91.9309E+06    -162.588E+06    -44.6690E+06     9.86163E+06
            1606     111.563E-03     5.92159E-03     111.406E-03     335.977E-03    -167.488E-03    -168.490E-03    -166.999E-03     335.273E-03    -168.274E-03     37.4799E-03     350.903E-03     90.8294E+06    -25.7820E+06    -82.8127E+06    -128.797E+06    -85.3878E+06    -126.222E+06    -25.7820E+06     8.59408E+06
            1607     111.649E-03     6.76535E-03     111.444E-03     335.620E-03    -167.251E-03    -168.369E-03    -166.413E-03     334.567E-03    -168.154E-03     45.3672E-03     353.438E-03     72.4806E+06    -8.94320E+06    -65.4066E+06    -90.1801E+06    -76.1527E+06    -79.4340E+06    -8.94320E+06     8.45888E+06
            1608     111.774E-03     7.61321E-03     111.514E-03     335.782E-03    -167.074E-03    -168.708E-03    -166.436E-03     334.464E-03    -168.029E-03     51.4084E-03     356.815E-03     78.4711E+06     5.59410E+06    -27.6173E+06    -80.4841E+06    -73.2513E+06    -34.8502E+06     5.59410E+06     16.4237E+06
            1609     111.890E-03     8.45970E-03     111.570E-03     337.214E-03    -167.402E-03    -169.812E-03    -167.661E-03     335.663E-03    -168.002E-03     55.6330E-03     361.516E-03     89.6337E+06     22.7153E+06     14.6704E+06    -70.5028E+06    -66.5219E+06     10.6895E+06     22.7153E+06     13.7511E+06
            1610     112.048E-03     9.30415E-03     111.661E-03     337.139E-03    -166.244E-03    -170.894E-03    -166.979E-03     335.010E-03    -168.031E-03     65.2334E-03     364.425E-03     90.8263E+06     38.0732E+06     30.4573E+06    -56.2237E+06    -54.3317E+06     28.5653E+06     38.0732E+06     9.88521E+06
            1611     112.226E-03     10.1534E-03     111.765E-03     338.292E-03    -166.527E-03    -171.766E-03    -167.456E-03     335.475E-03    -168.020E-03     75.3065E-03     370.055E-03     85.3482E+06     46.0382E+06     32.8797E+06    -45.1106E+06    -43.7667E+06     31.5358E+06     46.0382E+06     8.36445E+06
            1612     112.390E-03     11.0004E-03     111.850E-03     339.650E-03    -168.046E-03    -171.604E-03    -167.722E-03     335.768E-03    -168.046E-03     88.2898E-03     378.301E-03     85.9833E+06     59.6154E+06     38.3167E+06    -34.7199E+06    -33.2187E+06     36.8154E+06     59.6154E+06     8.11594E+06
            1613     112.592E-03     11.8414E-03     111.968E-03     337.211E-03    -167.683E-03    -169.528E-03    -164.989E-03     332.972E-03    -167.983E-03     92.0694E-03     382.780E-03     87.9940E+06     72.8565E+06     39.8534E+06    -26.5778E+06    -25.2707E+06     38.5463E+06     72.8565E+06     6.42434E+06
            1614     112.799E-03     12.6963E-03     112.083E-03     339.613E-03    -167.548E-03    -172.065E-03    -166.654E-03     334.502E-03    -167.848E-03     101.042E-03     392.931E-03     92.0028E+06     74.4911E+06     35.2128E+06    -30.5679E+06    -30.4284E+06     35.0733E+06     74.4911E+06     1.42644E+06
            1615     113.038E-03     13.5435E-03     112.224E-03     345.522E-03    -167.918E-03    -177.604E-03    -170.338E-03     338.256E-03    -167.918E-03     122.177E-03     408.655E-03     109.147E+06     104.170E+06     65.8552E+06    -18.7465E+06    -17.6538E+06     64.7625E+06     104.170E+06     7.37380E+06
            1616     113.333E-03     14.3821E-03     112.417E-03     344.199E-03    -168.059E-03    -176.140E-03    -168.779E-03     336.838E-03    -168.059E-03     122.574E-03     408.590E-03     133.761E+06     147.139E+06     106.941E+06    -2.07361E+06    -333.908E+03     105.201E+06     147.139E+06     7.69295E+06
            1617     112.699E-03     837.496E-06     112.696E-03     340.000E-03    -166.899E-03    -173.101E-03    -166.836E-03     339.936E-03    -173.101E-03     4.57637E-03     341.606E-03     160.040E+06    -112.161E+06    -121.070E+06    -276.403E+06    -121.293E+06    -276.180E+06    -112.161E+06     4.52342E+06
            1618     112.718E-03     1.68346E-03     112.705E-03     337.319E-03    -167.799E-03    -169.520E-03    -167.715E-03     337.235E-03    -169.520E-03     8.97704E-03     339.698E-03     139.828E+06    -106.778E+06    -116.580E+06    -251.207E+06    -116.847E+06    -250.940E+06    -106.778E+06     1.03445E+06
            1619     112.726E-03     2.53294E-03     112.697E-03     335.305E-03    -166.364E-03    -168.940E-03    -166.460E-03     335.207E-03    -168.747E-03     12.7485E-03     339.397E-03     129.842E+06    -102.403E+06    -115.007E+06    -238.051E+06    -115.203E+06    -237.855E+06    -102.403E+06     408.252E+03
            1620     112.765E-03     3.38428E-03     112.714E-03     334.847E-03    -166.392E-03    -168.455E-03    -166.423E-03     334.685E-03    -168.262E-03     17.6683E-03     341.287E-03     119.612E+06    -79.8272E+06    -106.184E+06    -209.832E+06    -107.341E+06    -208.676E+06    -79.8272E+06     4.69280E+06
            1621     112.812E-03     4.23023E-03     112.732E-03     335.117E-03    -167.082E-03    -168.036E-03    -166.834E-03     334.870E-03    -168.036E-03     21.7221E-03     343.994E-03     109.516E+06    -63.0850E+06    -100.673E+06    -186.435E+06    -102.783E+06    -184.325E+06    -63.0850E+06     2.08592E+06
            1622     112.874E-03     5.07506E-03     112.760E-03     335.327E-03    -167.372E-03    -167.954E-03    -166.933E-03     334.887E-03    -167.954E-03     29.3723E-03     347.047E-03     109.999E+06    -48.0071E+06    -90.2092E+06    -172.586E+06    -91.5565E+06    -171.238E+06    -48.0071E+06     3.31899E+06
            1623     112.956E-03     5.92034E-03     112.801E-03     335.880E-03    -167.654E-03    -168.225E-03    -167.303E-03     335.244E-03    -167.941E-03     35.6580E-03     350.312E-03     95.9606E+06    -26.6258E+06    -78.5777E+06    -136.184E+06    -81.4591E+06    -133.303E+06    -26.6258E+06     9.71508E+06
            1624     113.051E-03     6.76676E-03     112.848E-03     336.262E-03    -167.620E-03    -168.642E-03    -167.434E-03     335.393E-03    -167.958E-03     41.4807E-03     353.978E-03     80.4472E+06    -10.4411E+06    -65.6756E+06    -102.712E+06    -81.5479E+06    -86.8397E+06    -10.4411E+06     14.7137E+06
            1625     113.158E-03     7.61420E-03     112.902E-03     336.999E-03    -167.678E-03    -169.321E-03    -167.672E-03     335.688E-03    -168.017E-03     50.9460E-03     357.978E-03     81.6226E+06     14.6988E+06    -25.2684E+06    -77.5147E+06    -69.7943E+06    -32.9888E+06     14.6988E+06     15.4725E+06
            1626     113.301E-03     8.45607E-03     112.985E-03     338.986E-03    -168.099E-03    -170.887E-03    -169.130E-03     337.229E-03    -168.099E-03     59.4249E-03     362.933E-03     88.0170E+06     32.2246E+06     13.9712E+06    -62.6833E+06    -56.2615E+06     11.1464E+06     28.6276E+06     15.1411E+06
            1627     113.438E-03     9.29671E-03     113.056E-03     336.845E-03    -166.648E-03    -170.197E-03    -166.572E-03     334.713E-03    -168.141E-03     65.2475E-03     364.518E-03     90.6786E+06     39.9151E+06     28.3856E+06    -55.8825E+06    -51.4946E+06     27.5948E+06     36.3181E+06     12.5066E+06
            1628     113.600E-03     10.1533E-03     113.146E-03     334.292E-03    -166.063E-03    -168.229E-03    -163.646E-03     331.628E-03    -167.982E-03     72.6906E-03     365.517E-03     89.1255E+06     47.6685E+06     30.5369E+06    -48.6843E+06    -47.7542E+06     29.6067E+06     47.6685E+06     7.23472E+06
            1629     113.792E-03     11.0034E-03     113.259E-03     335.905E-03    -166.569E-03    -169.336E-03    -164.977E-03     332.721E-03    -167.744E-03     79.6718E-03     373.104E-03     86.5551E+06     54.9323E+06     34.9685E+06    -39.8224E+06    -38.1999E+06     33.3460E+06     54.9323E+06     5.74713E+06
            1630     113.981E-03     11.8526E-03     113.363E-03     337.664E-03    -166.850E-03    -170.814E-03    -166.352E-03     333.995E-03    -167.643E-03     85.7190E-03     381.529E-03     87.9105E+06     62.1523E+06     36.3281E+06    -35.6050E+06    -33.8760E+06     34.5992E+06     62.1523E+06     5.57799E+06
            1631     114.180E-03     12.6989E-03     113.472E-03     341.600E-03    -167.653E-03    -173.948E-03    -168.771E-03     336.468E-03    -167.697E-03     101.677E-03     391.962E-03     95.5488E+06     79.8920E+06     44.9878E+06    -28.1130E+06    -26.5705E+06     43.4452E+06     79.8920E+06     7.91191E+06
            1632     114.445E-03     13.5378E-03     113.642E-03     343.855E-03    -167.793E-03    -176.062E-03    -168.780E-03     336.573E-03    -167.793E-03     121.886E-03     404.359E-03     110.991E+06     108.012E+06     70.8524E+06    -16.6417E+06    -15.4318E+06     69.6425E+06     108.012E+06     5.02343E+06
            1633     114.702E-03     14.3947E-03     113.795E-03     342.015E-03    -167.813E-03    -174.202E-03    -166.608E-03     334.421E-03    -167.813E-03     124.145E-03     405.340E-03     137.154E+06     142.942E+06     104.208E+06    -9.29244E+06    -8.57848E+06     103.494E+06     142.942E+06     3.60609E+06
            1634     114.102E-03     851.861E-06     114.099E-03     330.997E-03    -162.956E-03    -168.041E-03    -163.916E-03     330.927E-03    -167.012E-03     9.38539E-03     332.342E-03     162.494E+06    -118.792E+06    -132.627E+06    -287.622E+06    -125.966E+06    -287.418E+06    -125.657E+06     3.93566E+06
            1635     114.110E-03     1.69929E-03     114.097E-03     333.772E-03    -165.324E-03    -168.447E-03    -167.772E-03     333.686E-03    -165.914E-03     10.6864E-03     335.792E-03     138.701E+06    -111.031E+06    -122.214E+06    -254.886E+06    -122.131E+06    -254.677E+06    -111.323E+06     1.39948E+06
            1636     114.126E-03     2.54270E-03     114.098E-03     336.195E-03    -166.667E-03    -169.528E-03    -169.237E-03     336.107E-03    -166.870E-03     12.4533E-03     340.103E-03     133.437E+06    -97.9673E+06    -115.107E+06    -239.074E+06    -115.286E+06    -238.895E+06    -97.9673E+06    -1.25335E+06
            1637     114.162E-03     3.38167E-03     114.112E-03     335.814E-03    -167.186E-03    -168.628E-03    -168.207E-03     335.674E-03    -167.468E-03     16.4107E-03     342.466E-03     125.013E+06    -80.2104E+06    -105.142E+06    -215.444E+06    -106.144E+06    -214.442E+06    -80.2104E+06     5.27611E+06
            1638     114.207E-03     4.22866E-03     114.129E-03     335.136E-03    -167.369E-03    -167.766E-03    -167.209E-03     334.866E-03    -167.657E-03     22.4463E-03     344.460E-03     115.903E+06    -58.6237E+06    -97.1464E+06    -188.390E+06    -99.8852E+06    -185.652E+06    -58.6237E+06     7.16006E+06
            1639     114.272E-03     5.07532E-03     114.159E-03     335.816E-03    -167.683E-03    -168.133E-03    -167.622E-03     335.360E-03    -167.738E-03     30.0701E-03     348.105E-03     117.476E+06    -46.1611E+06    -94.1658E+06    -179.866E+06    -96.3828E+06    -177.649E+06    -46.1611E+06     1.40916E+06
            1640     114.351E-03     5.92241E-03     114.198E-03     336.157E-03    -167.774E-03    -168.383E-03    -167.670E-03     335.492E-03    -167.822E-03     36.4231E-03     351.200E-03     103.824E+06    -29.8903E+06    -83.4152E+06    -148.616E+06    -85.9744E+06    -146.057E+06    -29.8903E+06     6.03672E+06
            1641     114.448E-03     6.76778E-03     114.248E-03     337.213E-03    -167.948E-03    -169.265E-03    -168.381E-03     336.329E-03    -167.948E-03     42.1639E-03     355.245E-03     83.1275E+06    -3.34710E+06    -61.2975E+06    -98.0866E+06    -70.5901E+06    -88.7940E+06    -3.34710E+06     11.0702E+06
            1642     114.556E-03     7.60941E-03     114.303E-03     336.944E-03    -167.650E-03    -169.295E-03    -167.601E-03     335.622E-03    -168.021E-03     51.0958E-03     357.680E-03     74.3403E+06     13.4259E+06    -29.6135E+06    -70.6319E+06    -59.3529E+06    -40.8925E+06     13.4259E+06     11.2408E+06
            1643     114.693E-03     8.46025E-03     114.380E-03     335.470E-03    -166.580E-03    -168.889E-03    -165.603E-03     333.515E-03    -167.912E-03     62.3923E-03     358.517E-03     82.1706E+06     27.5794E+06     7.86076E+06    -61.8789E+06    -54.0476E+06     3.62651E+06     23.9823E+06     16.6152E+06
            1644     114.841E-03     9.31011E-03     114.462E-03     337.496E-03    -166.860E-03    -170.636E-03    -167.353E-03     335.172E-03    -167.819E-03     68.4740E-03     364.627E-03     92.7693E+06     44.6848E+06     29.5974E+06    -54.5581E+06    -48.8859E+06     32.9722E+06     35.6377E+06     18.1894E+06
            1645     114.985E-03     10.1472E-03     114.537E-03     338.224E-03    -167.463E-03    -170.761E-03    -167.540E-03     335.430E-03    -167.889E-03     74.9680E-03     369.363E-03     96.3473E+06     58.9716E+06     38.3956E+06    -45.9187E+06    -41.6949E+06     39.6218E+06     53.5216E+06     17.6055E+06
            1646     115.177E-03     10.9974E-03     114.651E-03     335.877E-03    -166.650E-03    -169.227E-03    -164.927E-03     332.752E-03    -167.825E-03     79.0618E-03     372.880E-03     93.5891E+06     57.0594E+06     35.2486E+06    -45.4210E+06    -42.5158E+06     32.3434E+06     57.0594E+06     10.3631E+06
            1647     115.361E-03     11.8504E-03     114.750E-03     337.296E-03    -166.946E-03    -170.350E-03    -166.179E-03     333.873E-03    -167.695E-03     82.8654E-03     380.156E-03     89.2896E+06     58.8899E+06     32.9885E+06    -40.3931E+06    -39.1366E+06     31.7320E+06     58.8899E+06     6.38691E+06
            1648     115.586E-03     12.6925E-03     114.887E-03     338.938E-03    -167.506E-03    -171.432E-03    -166.236E-03     333.911E-03    -167.675E-03     99.9459E-03     387.912E-03     96.6577E+06     84.2086E+06     50.9632E+06    -24.6392E+06    -22.6121E+06     48.9360E+06     84.2086E+06     7.89146E+06
            1649     115.817E-03     13.5492E-03     115.022E-03     341.078E-03    -167.446E-03    -173.632E-03    -166.160E-03     333.775E-03    -167.615E-03     121.461E-03     400.936E-03     118.313E+06     108.601E+06     73.1781E+06    -23.2049E+06    -21.5354E+06     71.5086E+06     108.601E+06     4.07848E+06
            1650     116.095E-03     14.3944E-03     115.199E-03     342.899E-03    -167.616E-03    -175.283E-03    -168.114E-03     335.730E-03    -167.616E-03     120.615E-03     406.459E-03     147.555E+06     142.488E+06     106.872E+06    -19.5861E+06    -19.0074E+06     106.293E+06     142.488E+06     405.880E+03
            1651     115.486E-03     852.132E-06     115.483E-03     326.612E-03    -162.040E-03    -164.572E-03    -163.734E-03     326.596E-03    -162.863E-03     4.86358E-03     327.665E-03     156.891E+06    -121.153E+06    -137.083E+06    -285.185E+06    -128.274E+06    -284.719E+06    -130.428E+06    -4.75881E+06
            1652     115.502E-03     1.69826E-03     115.490E-03     332.200E-03    -164.184E-03    -168.016E-03    -167.991E-03     332.174E-03    -164.184E-03     5.91165E-03     333.928E-03     135.253E+06    -116.347E+06    -123.308E+06    -254.825E+06    -121.055E+06    -254.375E+06    -119.050E+06    -2.93344E+06
            1653     115.530E-03     2.54067E-03     115.502E-03     334.953E-03    -165.785E-03    -169.168E-03    -169.110E-03     334.895E-03    -165.785E-03     10.2662E-03     338.663E-03     128.513E+06    -101.728E+06    -118.674E+06    -237.551E+06    -118.781E+06    -237.444E+06    -101.728E+06    -251.493E+03
            1654     115.559E-03     3.38824E-03     115.509E-03     335.046E-03    -166.648E-03    -168.398E-03    -168.262E-03     334.911E-03    -166.648E-03     15.9265E-03     341.530E-03     121.363E+06    -89.1278E+06    -116.772E+06    -221.731E+06    -117.002E+06    -221.501E+06    -89.1278E+06    -1.28495E+06
            1655     115.603E-03     4.23356E-03     115.525E-03     335.344E-03    -167.080E-03    -168.264E-03    -167.950E-03     335.031E-03    -167.080E-03     24.6396E-03     344.826E-03     115.354E+06    -65.0629E+06    -101.807E+06    -193.842E+06    -103.328E+06    -192.321E+06    -65.0629E+06     4.44667E+06
            1656     115.671E-03     5.07851E-03     115.559E-03     335.832E-03    -167.369E-03    -168.463E-03    -167.980E-03     335.349E-03    -167.369E-03     31.1194E-03     348.364E-03     113.427E+06    -46.8146E+06    -98.1513E+06    -176.391E+06    -100.518E+06    -174.024E+06    -46.8146E+06     5.85645E+06
            1657     115.747E-03     5.92143E-03     115.596E-03     335.707E-03    -167.518E-03    -168.189E-03    -167.422E-03     334.940E-03    -167.518E-03     38.7060E-03     350.805E-03     101.862E+06    -33.4924E+06    -91.2719E+06    -150.876E+06    -93.2009E+06    -148.947E+06    -33.4924E+06     1.63433E+06
            1658     115.845E-03     6.76707E-03     115.647E-03     336.666E-03    -167.594E-03    -169.073E-03    -167.880E-03     335.474E-03    -167.594E-03     48.6180E-03     354.974E-03     80.0621E+06    -14.7355E+06    -68.9018E+06    -106.107E+06    -74.2857E+06    -100.723E+06    -14.7355E+06     4.94539E+06
            1659     115.957E-03     7.61380E-03     115.707E-03     336.837E-03    -167.296E-03    -169.541E-03    -167.740E-03     335.408E-03    -167.668E-03     53.5591E-03     358.270E-03     70.6132E+06    -1.40554E+06    -44.6145E+06    -81.2890E+06    -68.5421E+06    -57.3613E+06    -1.40554E+06     11.0891E+06
            1660     116.076E-03     8.45929E-03     115.767E-03     334.523E-03    -166.245E-03    -168.278E-03    -165.106E-03     332.719E-03    -167.613E-03     59.7608E-03     357.729E-03     83.5965E+06     25.0492E+06     1.37333E+06    -66.2418E+06    -60.2585E+06    -56.3065E+03     20.4955E+06     14.8603E+06
            1661     116.230E-03     9.31167E-03     115.856E-03     335.880E-03    -166.461E-03    -169.419E-03    -166.021E-03     333.479E-03    -167.457E-03     69.3381E-03     362.356E-03     93.5358E+06     41.7065E+06     27.2065E+06    -58.0517E+06    -53.8795E+06     33.0379E+06     31.7029E+06     17.6776E+06
            1662     116.398E-03     10.1589E-03     115.954E-03     338.704E-03    -167.470E-03    -171.233E-03    -168.528E-03     335.998E-03    -167.470E-03     73.8879E-03     370.150E-03     89.6057E+06     45.9139E+06     28.6161E+06    -50.9453E+06    -46.7864E+06     34.8132E+06     35.5579E+06     16.1379E+06
            1663     116.554E-03     11.0015E-03     116.033E-03     338.817E-03    -167.638E-03    -171.180E-03    -167.654E-03     335.292E-03    -167.638E-03     83.5577E-03     375.196E-03     94.7599E+06     67.4133E+06     44.1715E+06    -36.7252E+06    -30.9826E+06     43.3349E+06     62.5073E+06     17.0373E+06
            1664     116.764E-03     11.8430E-03     116.162E-03     338.196E-03    -167.672E-03    -170.524E-03    -166.256E-03     333.929E-03    -167.672E-03     92.5285E-03     380.935E-03     96.7137E+06     81.8913E+06     52.1045E+06    -26.1582E+06    -22.1113E+06     48.0576E+06     81.8913E+06     13.6845E+06
            1665     116.956E-03     12.6981E-03     116.265E-03     338.490E-03    -167.397E-03    -171.093E-03    -165.838E-03     333.404E-03    -167.566E-03     100.903E-03     389.737E-03     100.257E+06     81.1580E+06     46.5771E+06    -31.7513E+06    -29.5022E+06     44.3280E+06     81.1580E+06     7.45621E+06
            1666     117.203E-03     13.5486E-03     116.417E-03     342.387E-03    -167.395E-03    -174.992E-03    -167.813E-03     335.377E-03    -167.564E-03     119.265E-03     404.435E-03     122.704E+06     107.899E+06     72.7545E+06    -28.3432E+06    -26.0511E+06     70.4624E+06     107.899E+06     6.27978E+06
            1667     117.487E-03     14.3956E-03     116.602E-03     343.273E-03    -167.677E-03    -175.596E-03    -168.795E-03     336.472E-03    -167.677E-03     117.503E-03     408.038E-03     147.615E+06     153.221E+06     115.828E+06    -9.46406E+06    -8.94504E+06     115.309E+06     153.221E+06     399.534E+03
            1668     116.874E-03     848.110E-06     116.871E-03     330.246E-03    -163.740E-03    -166.506E-03    -164.383E-03     330.209E-03    -165.827E-03     7.53252E-03     331.349E-03     153.606E+06    -114.954E+06    -133.817E+06    -277.057E+06    -126.898E+06    -276.148E+06    -122.782E+06    -1.49307E+06
            1669     116.895E-03     1.69545E-03     116.883E-03     331.048E-03    -164.569E-03    -166.479E-03    -165.830E-03     331.010E-03    -165.180E-03     8.17314E-03     332.915E-03     133.387E+06    -122.984E+06    -135.185E+06    -261.867E+06    -133.668E+06    -260.973E+06    -125.395E+06     1.00118E+06
            1670     116.925E-03     2.54476E-03     116.897E-03     331.973E-03    -165.206E-03    -166.767E-03    -166.367E-03     331.915E-03    -165.548E-03     10.6144E-03     335.755E-03     117.199E+06    -112.399E+06    -128.718E+06    -236.585E+06    -128.758E+06    -236.545E+06    -112.399E+06     935.565E+03
            1671     116.952E-03     3.38952E-03     116.903E-03     334.175E-03    -166.063E-03    -168.112E-03    -167.998E-03     334.061E-03    -166.063E-03     14.6531E-03     340.403E-03     114.251E+06    -90.9341E+06    -119.519E+06    -216.617E+06    -119.622E+06    -216.514E+06    -90.9341E+06    -1.46518E+06
            1672     117.002E-03     4.23446E-03     116.925E-03     335.358E-03    -166.627E-03    -168.731E-03    -168.473E-03     335.100E-03    -166.627E-03     22.4450E-03     344.345E-03     115.350E+06    -75.5019E+06    -114.493E+06    -205.040E+06    -114.638E+06    -204.895E+06    -75.5019E+06    -830.276E+03
            1673     117.067E-03     5.07869E-03     116.957E-03     334.412E-03    -166.699E-03    -167.712E-03    -167.013E-03     333.963E-03    -166.950E-03     29.7839E-03     346.246E-03     107.961E+06    -54.1081E+06    -100.969E+06    -177.130E+06    -102.129E+06    -175.971E+06    -54.1081E+06     1.35083E+06
            1674     117.143E-03     5.92784E-03     116.993E-03     333.804E-03    -166.620E-03    -167.184E-03    -166.029E-03     333.033E-03    -167.004E-03     38.7134E-03     348.345E-03     97.8835E+06    -33.8712E+06    -88.6681E+06    -146.316E+06    -90.3039E+06    -144.680E+06    -33.8712E+06     27.8321E+03
            1675     117.239E-03     6.77603E-03     117.043E-03     334.610E-03    -166.829E-03    -167.780E-03    -166.364E-03     333.326E-03    -166.962E-03     50.2412E-03     352.779E-03     83.0013E+06    -21.8809E+06    -78.4358E+06    -116.820E+06    -83.5512E+06    -111.704E+06    -21.8809E+06     2.75077E+06
            1676     117.356E-03     7.62071E-03     117.109E-03     337.103E-03    -167.063E-03    -170.040E-03    -168.539E-03     335.601E-03    -167.063E-03     55.0785E-03     358.423E-03     73.7875E+06    -2.89037E+06    -45.8054E+06    -86.1454E+06    -72.0102E+06    -59.9407E+06    -2.89037E+06     10.1956E+06
            1677     117.472E-03     8.46474E-03     117.166E-03     337.704E-03    -167.230E-03    -170.474E-03    -168.803E-03     336.070E-03    -167.267E-03     57.3051E-03     361.315E-03     77.2604E+06     16.2823E+06    -10.7066E+06    -69.7594E+06    -64.1999E+06    -11.7125E+06     11.7287E+06     15.2346E+06
            1678     117.615E-03     9.30873E-03     117.246E-03     334.838E-03    -166.487E-03    -168.351E-03    -165.119E-03     332.424E-03    -167.304E-03     68.8061E-03     361.812E-03     88.4405E+06     40.6087E+06     20.9608E+06    -55.7134E+06    -51.9996E+06     27.4217E+06     30.4341E+06     16.8179E+06
            1679     117.789E-03     10.1588E-03     117.351E-03     334.239E-03    -166.044E-03    -168.195E-03    -164.227E-03     331.358E-03    -167.131E-03     75.4959E-03     365.966E-03     89.4930E+06     51.9742E+06     32.8259E+06    -45.4023E+06    -43.1884E+06     41.1389E+06     41.4473E+06     12.2277E+06
            1680     117.952E-03     11.0059E-03     117.437E-03     337.115E-03    -166.717E-03    -170.398E-03    -166.330E-03     333.353E-03    -167.023E-03     86.0143E-03     374.091E-03     85.9674E+06     48.2950E+06     26.1470E+06    -46.5764E+06    -42.4439E+06     26.9205E+06     43.3890E+06     12.0586E+06
            1681     118.148E-03     11.8608E-03     117.552E-03     340.237E-03    -167.144E-03    -173.093E-03    -168.594E-03     335.738E-03    -167.144E-03     95.5537E-03     383.488E-03     95.9126E+06     68.7151E+06     42.7236E+06    -37.3943E+06    -33.3312E+06     38.6605E+06     68.7151E+06     12.9335E+06
            1682     118.351E-03     12.7028E-03     117.667E-03     344.036E-03    -167.430E-03    -176.606E-03    -171.733E-03     339.162E-03    -167.430E-03     100.020E-03     396.640E-03     108.127E+06     99.5457E+06     67.7567E+06    -20.7955E+06    -18.3660E+06     65.3272E+06     99.5457E+06     9.32378E+06
            1683     118.592E-03     13.5414E-03     117.817E-03     344.651E-03    -167.708E-03    -176.944E-03    -170.290E-03     337.998E-03    -167.708E-03     116.543E-03     408.667E-03     121.558E+06     125.529E+06     89.7136E+06    -9.85664E+06    -6.95282E+06     86.8098E+06     125.529E+06     8.47043E+06
            1684     118.866E-03     14.3900E-03     117.992E-03     341.064E-03    -167.793E-03    -173.271E-03    -166.294E-03     334.088E-03    -167.793E-03     118.704E-03     405.607E-03     146.150E+06     156.591E+06     116.910E+06    -5.21016E+06    -3.86365E+06     115.563E+06     156.591E+06     6.15841E+06
            1685     118.264E-03     845.523E-06     118.261E-03     333.221E-03    -164.774E-03    -168.447E-03    -166.533E-03     333.174E-03    -166.641E-03     8.76226E-03     334.344E-03     155.730E+06    -124.734E+06    -137.201E+06    -286.190E+06    -131.963E+06    -285.432E+06    -130.731E+06     7.41540E+06
            1686     118.287E-03     1.69436E-03     118.275E-03     331.282E-03    -165.045E-03    -166.238E-03    -165.012E-03     331.249E-03    -166.238E-03     7.87799E-03     333.188E-03     134.916E+06    -117.827E+06    -132.116E+06    -259.226E+06    -132.565E+06    -258.777E+06    -117.827E+06     4.00240E+06
            1687     118.311E-03     2.54256E-03     118.284E-03     330.980E-03    -164.825E-03    -166.155E-03    -165.077E-03     330.932E-03    -165.855E-03     9.33301E-03     334.598E-03     117.358E+06    -111.496E+06    -129.589E+06    -236.747E+06    -129.755E+06    -236.581E+06    -111.496E+06     1.39452E+06
            1688     118.351E-03     3.39094E-03     118.303E-03     332.870E-03    -165.592E-03    -167.277E-03    -166.782E-03     332.727E-03    -165.945E-03     16.2831E-03     338.782E-03     110.724E+06    -94.3467E+06    -122.816E+06    -216.212E+06    -122.978E+06    -216.050E+06    -94.3467E+06     1.73450E+06
            1689     118.400E-03     4.23343E-03     118.324E-03     334.076E-03    -166.314E-03    -167.762E-03    -167.488E-03     333.803E-03    -166.314E-03     23.2189E-03     342.586E-03     112.957E+06    -74.9354E+06    -115.283E+06    -202.255E+06    -115.438E+06    -202.100E+06    -74.9354E+06    -307.223E+03
            1690     118.458E-03     5.08199E-03     118.349E-03     333.544E-03    -166.308E-03    -167.236E-03    -166.549E-03     333.108E-03    -166.560E-03     29.3300E-03     344.885E-03     106.513E+06    -52.9557E+06    -98.4938E+06    -174.398E+06    -98.9802E+06    -173.912E+06    -52.9557E+06    -3.51952E+06
            1691     118.535E-03     5.92829E-03     118.387E-03     333.513E-03    -166.256E-03    -167.256E-03    -166.210E-03     332.850E-03    -166.640E-03     36.2315E-03     347.912E-03     97.6029E+06    -35.9609E+06    -89.0560E+06    -148.094E+06    -89.6631E+06    -147.487E+06    -35.9609E+06    -2.91339E+06
            1692     118.630E-03     6.77529E-03     118.436E-03     334.133E-03    -166.545E-03    -167.588E-03    -166.413E-03     333.091E-03    -166.678E-03     45.2646E-03     351.449E-03      84.681E+06    -23.5996E+06    -85.4738E+06    -118.913E+06    -87.3087E+06    -117.079E+06    -23.5996E+06     115.912E+03
            1693     118.749E-03     7.62528E-03     118.504E-03     335.372E-03    -166.515E-03    -168.857E-03    -167.258E-03     333.994E-03    -166.736E-03     52.5440E-03     355.443E-03     72.6716E+06    -9.08348E+06    -57.4075E+06    -89.3385E+06    -75.3751E+06    -71.3709E+06    -9.08348E+06     2.36991E+06
            1694     118.879E-03     8.46606E-03     118.578E-03     336.839E-03    -166.659E-03    -170.180E-03    -168.323E-03     335.204E-03    -166.881E-03     57.3146E-03     360.181E-03     73.7032E+06     11.2297E+06    -14.7129E+06    -70.3998E+06    -61.1790E+06    -20.9766E+06     8.27264E+06     10.3817E+06
            1695     119.003E-03     9.31008E-03     118.638E-03     335.682E-03    -166.208E-03    -169.474E-03    -166.357E-03     333.345E-03    -166.988E-03     67.8474E-03     362.828E-03     87.1446E+06     38.3681E+06     22.9235E+06    -54.8460E+06    -51.1925E+06     27.8480E+06     29.7901E+06     16.3258E+06
            1696     119.170E-03     10.1648E-03     118.735E-03     332.788E-03    -165.164E-03    -167.624E-03    -163.132E-03     330.005E-03    -166.872E-03     73.9387E-03     364.342E-03     93.3772E+06     51.6793E+06     37.2071E+06    -47.6982E+06    -45.2153E+06     43.1818E+06     43.2218E+06     14.7909E+06
            1697     119.343E-03     11.0198E-03     118.833E-03     336.297E-03    -165.843E-03    -170.454E-03    -166.302E-03     333.073E-03    -166.771E-03     79.8807E-03     373.495E-03     90.4681E+06     53.1288E+06     35.2201E+06    -44.8702E+06    -41.6459E+06     34.8324E+06     50.2922E+06     13.7265E+06
            1698     119.537E-03     11.8596E-03     118.947E-03     341.141E-03    -166.965E-03    -174.176E-03    -170.481E-03     337.446E-03    -166.965E-03     86.7695E-03     384.125E-03     97.9409E+06     65.0306E+06     45.1315E+06    -41.3078E+06    -38.4030E+06     42.2267E+06     65.0306E+06     12.7876E+06
            1699     119.758E-03     12.6994E-03     119.083E-03     342.378E-03    -167.264E-03    -175.114E-03    -169.991E-03     337.255E-03    -167.264E-03     100.962E-03     393.446E-03     106.802E+06     88.0364E+06     61.2953E+06    -29.5119E+06    -28.6335E+06     60.4169E+06     88.0364E+06     4.04447E+06
            1700     119.984E-03     13.5424E-03     119.217E-03     344.370E-03    -167.469E-03    -176.901E-03    -169.357E-03     336.826E-03    -167.469E-03     123.847E-03     407.645E-03     123.300E+06     118.095E+06     84.2369E+06    -18.4608E+06    -17.2371E+06     83.0132E+06     118.095E+06     4.03699E+06
            1701     120.245E-03     14.3931E-03     119.380E-03     342.957E-03    -167.569E-03    -175.388E-03    -167.659E-03     335.228E-03    -167.569E-03     125.492E-03     407.586E-03     153.029E+06     155.566E+06     121.286E+06    -11.4659E+06    -10.1503E+06     119.970E+06     155.566E+06     8.98016E+06
            1702     119.659E-03     846.596E-06     119.656E-03     337.434E-03    -166.865E-03    -170.569E-03    -169.751E-03     337.414E-03    -167.663E-03     1.01844E-03     338.491E-03     151.350E+06    -137.728E+06    -147.829E+06    -293.800E+06    -144.584E+06    -293.193E+06    -141.580E+06    -630.211E+03
            1703     119.681E-03     1.69241E-03     119.669E-03     333.819E-03    -165.734E-03    -168.085E-03    -165.712E-03     333.797E-03    -168.085E-03     1.89342E-03     335.628E-03     131.748E+06    -120.892E+06    -131.705E+06    -257.701E+06    -128.554E+06    -257.579E+06    -124.165E+06    -606.869E+03
            1704     119.702E-03     2.54022E-03     119.675E-03     330.732E-03    -163.715E-03    -167.018E-03    -163.683E-03     330.701E-03    -167.018E-03     5.99517E-03     334.194E-03     121.269E+06    -110.951E+06    -127.268E+06    -239.438E+06    -127.476E+06    -239.230E+06    -110.951E+06     2.14646E+06
            1705     119.742E-03     3.38860E-03     119.694E-03     329.474E-03    -163.221E-03    -166.252E-03    -163.129E-03     329.317E-03    -166.187E-03     16.3613E-03     335.373E-03     108.281E+06    -93.9106E+06    -122.662E+06    -213.290E+06    -122.836E+06    -213.115E+06    -93.9106E+06     1.16698E+06
            1706     119.795E-03     4.24026E-03     119.720E-03     331.131E-03    -164.643E-03    -166.488E-03    -164.961E-03     330.819E-03    -165.859E-03     24.7754E-03     339.712E-03     106.487E+06    -70.2284E+06    -108.745E+06    -190.569E+06    -109.034E+06    -190.281E+06    -70.2284E+06    -3.67084E+06
            1707     119.853E-03     5.08372E-03     119.745E-03     333.619E-03    -165.978E-03    -167.641E-03    -167.152E-03     333.131E-03    -165.978E-03     30.9962E-03     344.748E-03     105.051E+06    -58.3495E+06    -103.707E+06    -178.138E+06    -104.019E+06    -177.826E+06    -58.3495E+06    -3.40655E+06
            1708     119.930E-03     5.92993E-03     119.783E-03     335.507E-03    -166.331E-03    -169.176E-03    -168.426E-03     334.757E-03    -166.331E-03     38.6562E-03     349.804E-03     93.2406E+06    -42.3607E+06    -98.7234E+06    -148.995E+06    -99.3364E+06    -148.382E+06    -42.3607E+06     322.046E+03
            1709     120.024E-03     6.77487E-03     119.832E-03     335.852E-03    -166.668E-03    -169.184E-03    -168.147E-03     334.814E-03    -166.668E-03     45.5790E-03     353.039E-03     82.4024E+06    -25.7200E+06    -88.2878E+06    -117.933E+06    -91.4610E+06    -114.760E+06    -25.7200E+06    -1.54231E+06
            1710     120.142E-03     7.61723E-03     119.900E-03     332.556E-03    -165.091E-03    -167.464E-03    -164.515E-03     331.209E-03    -166.694E-03     51.6253E-03     352.436E-03     70.5936E+06    -14.2748E+06    -69.5339E+06    -93.2466E+06    -81.8738E+06    -80.9067E+06    -14.2748E+06    -4.49686E+06
            1711     120.265E-03     8.47373E-03     119.967E-03     332.688E-03    -164.895E-03    -167.792E-03    -164.378E-03     330.876E-03    -166.498E-03     59.8191E-03     355.749E-03     71.3278E+06    -154.473E+03    -36.4244E+06    -80.1748E+06    -73.9283E+06    -39.7139E+06    -3.11151E+06     1.89624E+06
            1712     120.406E-03     9.32184E-03     120.045E-03     337.029E-03    -166.519E-03    -170.510E-03    -168.351E-03     334.870E-03    -166.519E-03     65.9843E-03     363.370E-03     89.2364E+06     29.5690E+06     8.12134E+06    -67.1223E+06    -63.3679E+06     16.7911E+06     17.1448E+06     13.4390E+06
            1713     120.552E-03     10.1597E-03     120.123E-03     338.544E-03    -166.174E-03    -172.370E-03    -169.424E-03     336.219E-03    -166.795E-03     68.5543E-03     369.420E-03     99.9504E+06     48.2056E+06     35.8118E+06    -56.4597E+06    -54.1567E+06     45.8615E+06     35.8529E+06     15.1667E+06
            1714     120.725E-03     11.0059E-03     120.222E-03     338.953E-03    -166.451E-03    -172.502E-03    -168.854E-03     335.927E-03    -167.073E-03     77.8610E-03     375.023E-03     97.3504E+06     52.9352E+06     44.6080E+06    -48.1133E+06    -44.4465E+06     44.3755E+06     49.5010E+06     17.1768E+06
            1715     120.947E-03     11.8487E-03     120.366E-03     336.473E-03    -166.091E-03    -170.382E-03    -165.654E-03     332.823E-03    -167.169E-03     85.4348E-03     378.393E-03     96.7997E+06     64.1848E+06     50.3510E+06    -38.6483E+06    -35.6556E+06     47.9069E+06     63.6362E+06     12.3594E+06
            1716     121.125E-03     12.7038E-03     120.457E-03     335.964E-03    -165.994E-03    -169.970E-03    -163.567E-03     330.639E-03    -167.072E-03     101.727E-03     385.487E-03     107.191E+06     82.1586E+06     59.4524E+06    -34.4872E+06    -31.8833E+06     56.8485E+06     82.1586E+06     9.32843E+06
            1717     121.384E-03     13.5647E-03     120.624E-03     341.387E-03    -167.025E-03    -174.362E-03    -166.968E-03     333.993E-03    -167.025E-03     122.253E-03     403.593E-03     130.769E+06     116.452E+06     87.1564E+06    -26.4403E+06    -23.9625E+06     84.6785E+06     116.452E+06     8.43309E+06
            1718     121.636E-03     14.4040E-03     120.781E-03     344.681E-03    -167.164E-03    -177.517E-03    -170.299E-03     337.463E-03    -167.164E-03     121.602E-03     409.303E-03     156.430E+06     155.357E+06     125.549E+06    -13.8029E+06    -13.5995E+06     125.346E+06     155.357E+06    -1.09634E+06
            1719     121.071E-03     838.548E-06     121.069E-03     340.627E-03    -167.470E-03    -173.157E-03    -168.558E-03     340.615E-03    -172.057E-03     113.856E-06     341.829E-03     142.689E+06    -138.618E+06    -153.772E+06    -288.148E+06    -148.880E+06    -287.773E+06    -143.885E+06    -2.58836E+06
            1720     121.073E-03     1.68367E-03     121.061E-03     334.483E-03    -165.218E-03    -169.264E-03    -165.180E-03     334.445E-03    -169.264E-03     2.84630E-03     336.556E-03     121.077E+06    -133.681E+06    -148.769E+06    -261.521E+06    -145.674E+06    -261.345E+06    -136.954E+06    -1.67040E+06
            1721     121.096E-03     2.53395E-03     121.070E-03     329.902E-03    -162.429E-03    -167.472E-03    -162.345E-03     329.817E-03    -167.472E-03     10.1498E-03     333.567E-03     109.093E+06    -120.720E+06    -134.037E+06    -235.816E+06    -134.387E+06    -235.466E+06    -120.720E+06    -3.02630E+06
            1722     121.123E-03     3.38763E-03     121.076E-03     329.195E-03    -162.788E-03    -166.407E-03    -162.746E-03     329.006E-03    -166.261E-03     18.1866E-03     334.980E-03     95.7776E+06    -105.376E+06    -125.590E+06    -209.380E+06    -125.883E+06    -209.088E+06    -105.376E+06    -4.05686E+06
            1723     121.182E-03     4.23924E-03     121.108E-03     330.451E-03    -164.275E-03    -166.176E-03    -164.370E-03     330.188E-03    -165.818E-03     22.4107E-03     338.846E-03     92.7771E+06    -83.6718E+06    -120.097E+06    -188.425E+06    -120.351E+06    -188.171E+06    -83.6718E+06    -3.73380E+06
            1724     121.248E-03     5.09001E-03     121.141E-03     332.672E-03    -165.549E-03    -167.123E-03    -166.427E-03     332.302E-03    -165.876E-03     26.1375E-03     343.666E-03     98.9242E+06    -66.2574E+06    -115.520E+06    -179.795E+06    -116.772E+06    -178.542E+06    -66.2574E+06    -5.90284E+06
            1725     121.325E-03     5.93384E-03     121.180E-03     334.913E-03    -166.172E-03    -168.741E-03    -168.025E-03     334.196E-03    -166.172E-03     37.1529E-03     349.276E-03     93.2269E+06    -48.0090E+06    -101.159E+06    -154.477E+06    -103.037E+06    -152.599E+06    -48.0090E+06    -4.19757E+06
            1726     121.428E-03     6.77449E-03     121.238E-03     334.491E-03    -166.111E-03    -168.380E-03    -166.980E-03     333.424E-03    -166.444E-03     46.1762E-03     352.188E-03     81.8304E+06      -24.42E+06    -81.8852E+06    -116.849E+06    -86.8059E+06    -111.928E+06      -24.42E+06    -660.032E+03
            1727     121.527E-03     7.62440E-03     121.288E-03     332.475E-03    -164.739E-03    -167.736E-03    -164.705E-03     331.158E-03    -166.454E-03     51.0811E-03     352.648E-03     73.6164E+06    -13.7551E+06    -72.8193E+06    -95.9804E+06    -85.7836E+06    -83.0160E+06    -13.7551E+06     855.021E+03
            1728     121.646E-03     8.47347E-03     121.350E-03     333.539E-03    -164.974E-03    -168.565E-03    -165.386E-03     331.741E-03    -166.355E-03     59.6121E-03     356.527E-03     67.2862E+06    -3.05432E+06    -50.1976E+06    -78.8914E+06    -78.1888E+06    -50.9002E+06    -3.05432E+06    -1.43842E+06
            1729     121.805E-03     9.31989E-03     121.448E-03     337.140E-03    -166.423E-03    -170.716E-03    -168.705E-03     335.129E-03    -166.423E-03     63.7428E-03     362.977E-03     76.7370E+06     18.2626E+06    -11.4140E+06    -67.7452E+06    -66.0313E+06    -3.66070E+06     8.79537E+06     142.151E+03
            1730     121.952E-03     10.1660E-03     121.528E-03     340.753E-03    -166.793E-03    -173.960E-03    -171.454E-03     338.247E-03    -166.793E-03     71.0393E-03     369.927E-03     102.965E+06     46.5781E+06     28.1319E+06    -63.6087E+06    -56.0880E+06     37.0628E+06     30.1266E+06     18.4994E+06
            1731     122.133E-03     10.9983E-03     121.636E-03     338.908E-03    -167.092E-03    -171.816E-03    -168.219E-03     335.311E-03    -167.092E-03     85.1454E-03     374.157E-03     104.701E+06     52.0270E+06     42.5429E+06    -56.7741E+06    -49.7066E+06     44.9596E+06     42.5429E+06     17.3810E+06
            1732     122.311E-03     11.8560E-03     121.735E-03     335.603E-03    -166.020E-03    -169.583E-03    -164.514E-03     331.613E-03    -167.098E-03     89.3216E-03     378.063E-03     96.0714E+06     56.2847E+06     44.5781E+06    -44.9249E+06    -42.9259E+06     45.0790E+06     53.7849E+06     5.63052E+06
            1733     122.519E-03     12.7097E-03     121.858E-03     337.349E-03    -166.014E-03    -171.335E-03    -165.725E-03     332.817E-03    -167.092E-03     95.1288E-03     387.678E-03     109.948E+06     88.2332E+06     68.6740E+06    -30.1229E+06    -26.5140E+06     65.0651E+06     88.2332E+06     10.4938E+06
            1734     122.756E-03     13.5483E-03     122.006E-03     338.393E-03    -167.090E-03    -171.303E-03    -165.022E-03     332.112E-03    -167.090E-03     111.723E-03     401.879E-03     129.907E+06     125.197E+06     99.4111E+06    -15.6010E+06    -12.9238E+06     96.7340E+06     125.197E+06     7.69922E+06
            1735     123.030E-03     14.4060E-03     122.184E-03     340.743E-03    -167.094E-03    -173.649E-03    -166.599E-03     333.693E-03    -167.094E-03     119.364E-03     403.965E-03     156.430E+06     163.387E+06     130.577E+06    -6.83726E+06    -6.57961E+06     130.319E+06     163.387E+06    -385.026E+03
            1736     122.477E-03     846.697E-06     122.475E-03     330.031E-03    -162.607E-03    -167.425E-03    -163.217E-03     329.954E-03    -166.736E-03     10.6379E-03     331.413E-03     140.268E+06    -136.754E+06    -147.551E+06    -281.906E+06    -145.148E+06    -281.593E+06    -139.470E+06     555.300E+03
            1737     122.469E-03     1.69344E-03     122.458E-03     331.257E-03    -162.924E-03    -168.333E-03    -165.948E-03     331.150E-03    -165.203E-03     13.3546E-03     333.486E-03     117.275E+06    -131.002E+06    -143.251E+06    -253.749E+06    -142.895E+06    -253.384E+06    -131.723E+06    -2.45169E+06
            1738     122.480E-03     2.54490E-03     122.453E-03     333.413E-03    -163.328E-03    -170.085E-03    -167.539E-03     333.294E-03    -165.756E-03     14.8792E-03     337.382E-03     103.458E+06    -122.964E+06    -135.618E+06    -232.106E+06    -136.218E+06    -231.506E+06    -122.964E+06    -7.18384E+06
            1739     122.517E-03     3.39107E-03     122.470E-03     333.830E-03    -165.427E-03    -168.403E-03    -167.391E-03     333.677E-03    -166.287E-03     16.5875E-03     339.707E-03     95.0078E+06    -107.883E+06    -128.655E+06    -211.303E+06    -129.130E+06    -210.829E+06    -107.883E+06    -5.90219E+06
            1740     122.574E-03     4.23313E-03     122.501E-03     332.527E-03    -165.806E-03    -166.721E-03    -165.810E-03     332.301E-03    -166.491E-03     20.5124E-03     340.805E-03     91.4667E+06    -90.2594E+06    -126.262E+06    -193.518E+06    -126.500E+06    -193.280E+06    -90.2594E+06    -2.67069E+06
            1741     122.637E-03     5.07842E-03     122.531E-03     332.126E-03    -165.439E-03    -166.687E-03    -165.250E-03     331.738E-03    -166.488E-03     26.5790E-03     343.491E-03     89.0751E+06    -63.5048E+06    -114.032E+06    -165.585E+06    -115.200E+06    -164.418E+06    -63.5048E+06    -4.82032E+06
            1742     122.722E-03     5.92714E-03     122.578E-03     331.490E-03    -164.774E-03    -166.715E-03    -164.448E-03     330.823E-03    -166.374E-03     35.6943E-03     345.963E-03     91.6742E+06    -49.6641E+06    -103.345E+06    -154.952E+06    -107.617E+06    -150.680E+06    -49.6641E+06    -12.2889E+06
            1743     122.815E-03     6.78090E-03     122.628E-03     330.505E-03    -164.213E-03    -166.293E-03    -163.399E-03     329.550E-03    -166.150E-03     43.2935E-03     347.769E-03     84.3080E+06    -35.9248E+06    -86.7319E+06    -132.502E+06    -96.0032E+06    -123.230E+06    -35.9248E+06    -9.80304E+06
            1744     122.918E-03     7.62892E-03     122.681E-03     334.273E-03    -165.412E-03    -168.862E-03    -166.815E-03     332.927E-03    -166.112E-03     51.6879E-03     353.903E-03     73.0385E+06    -13.4553E+06    -70.5748E+06    -94.4574E+06    -80.6573E+06    -84.3748E+06    -13.4553E+06    -1.81839E+06
            1745     123.044E-03     8.46995E-03     122.752E-03     337.051E-03    -166.336E-03    -170.716E-03    -168.892E-03     335.228E-03    -166.336E-03     60.5462E-03     359.460E-03     67.3678E+06      658.23E+03    -49.9304E+06    -74.3683E+06    -72.0070E+06    -52.2916E+06      658.23E+03    -899.962E+03
            1746     123.192E-03     9.31600E-03     122.839E-03     335.646E-03    -166.492E-03    -169.154E-03    -166.731E-03     333.237E-03    -166.506E-03     68.7691E-03     361.847E-03     76.3785E+06     14.8732E+06    -7.38200E+06    -67.9738E+06    -65.6510E+06    -9.70487E+06     14.8732E+06     2.13041E+06
            1747     123.353E-03     10.1595E-03     122.934E-03     335.483E-03    -166.486E-03    -168.997E-03    -165.922E-03     332.422E-03    -166.500E-03     77.6516E-03     365.303E-03     94.1128E+06     29.7441E+06     19.1799E+06    -68.9632E+06    -57.6118E+06     15.1746E+06     22.3980E+06     8.76007E+06
            1748     123.521E-03     11.0188E-03     123.029E-03     337.448E-03    -166.550E-03    -170.898E-03    -167.278E-03     333.828E-03    -166.550E-03     85.4165E-03     372.910E-03     102.782E+06     55.3040E+06     43.0255E+06    -52.8543E+06    -41.0203E+06     43.4701E+06     43.0255E+06     10.6395E+06
            1749     123.700E-03     11.8598E-03     123.130E-03     340.436E-03    -166.771E-03    -173.664E-03    -169.432E-03     336.203E-03    -166.771E-03     92.6404E-03     382.613E-03     105.161E+06     74.4058E+06     62.1660E+06    -36.2095E+06    -32.4911E+06     63.3801E+06     69.4734E+06     10.4204E+06
            1750     123.917E-03     12.6937E-03     123.265E-03     341.179E-03    -166.983E-03    -174.196E-03    -168.827E-03     335.810E-03    -166.983E-03     103.572E-03     391.637E-03     108.711E+06     81.0102E+06     63.6596E+06    -35.1615E+06    -33.9899E+06     62.4881E+06     81.0102E+06     4.07849E+06
            1751     124.133E-03     13.5486E-03     123.391E-03     340.585E-03    -167.087E-03    -173.498E-03    -166.186E-03     333.274E-03    -167.087E-03     120.747E-03     404.521E-03     129.050E+06     114.174E+06     91.7049E+06    -24.5147E+06    -24.1739E+06     91.3641E+06     114.174E+06    -1.48101E+06
            1752     124.403E-03     14.4001E-03     123.567E-03     339.352E-03    -167.071E-03    -172.281E-03    -164.363E-03     331.434E-03    -167.071E-03     126.237E-03     402.702E-03     161.710E+06     165.519E+06     136.981E+06    -8.46146E+06    -8.14117E+06     136.661E+06     165.519E+06     2.33364E+06
            1753     123.843E-03     860.648E-06     123.840E-03     321.057E-03    -157.824E-03    -163.234E-03    -162.964E-03     320.880E-03    -157.915E-03    -1.63413E-03     322.285E-03     139.494E+06    -137.270E+06    -142.503E+06    -279.294E+06    -141.176E+06    -278.623E+06    -139.268E+06    -3.41992E+06
            1754     123.860E-03     1.71429E-03     123.848E-03     328.283E-03    -161.674E-03    -166.610E-03    -166.506E-03     328.179E-03    -161.674E-03     4.75542E-03     330.186E-03     115.323E+06    -127.662E+06    -133.583E+06    -245.803E+06    -132.320E+06    -245.067E+06    -129.659E+06    -3.75218E+06
            1755     123.884E-03     2.54597E-03     123.858E-03     334.872E-03    -164.090E-03    -170.782E-03    -170.637E-03     334.727E-03    -164.090E-03     13.4640E-03     338.745E-03     105.665E+06    -114.825E+06    -132.015E+06    -227.607E+06    -132.368E+06    -227.255E+06    -114.825E+06    -2.35969E+06
            1756     123.918E-03     3.38147E-03     123.872E-03     335.682E-03    -165.784E-03    -169.899E-03    -169.618E-03     335.402E-03    -165.784E-03     21.5497E-03     342.039E-03     99.5338E+06    -101.141E+06    -132.199E+06    -212.185E+06    -132.637E+06    -211.747E+06    -101.141E+06    -4.37872E+06
            1757     123.964E-03     4.23135E-03     123.892E-03     333.460E-03    -166.054E-03    -167.406E-03    -166.611E-03     333.024E-03    -166.412E-03     28.3051E-03     342.126E-03     95.1109E+06    -82.4819E+06    -120.894E+06    -190.644E+06    -121.645E+06    -189.892E+06    -82.4819E+06    -5.48810E+06
            1758     124.031E-03     5.08163E-03     123.927E-03     332.207E-03    -165.627E-03    -166.580E-03    -165.117E-03     331.567E-03    -166.449E-03     35.3949E-03     344.033E-03     89.4644E+06    -60.5405E+06    -108.088E+06    -162.923E+06    -108.552E+06    -162.459E+06    -60.5405E+06    -2.53270E+06
            1759     124.110E-03     5.92940E-03     123.968E-03     330.689E-03    -164.411E-03    -166.278E-03    -163.661E-03     329.939E-03    -166.278E-03     38.5141E-03     345.376E-03     84.8528E+06    -40.3724E+06    -98.8031E+06    -136.709E+06    -102.203E+06    -133.309E+06    -40.3724E+06    -7.25958E+06
            1760     124.196E-03     6.77868E-03     124.011E-03     330.955E-03    -164.275E-03    -166.680E-03    -163.939E-03     329.984E-03    -166.045E-03     43.5662E-03     347.460E-03     84.6135E+06    -34.2806E+06    -91.4460E+06    -130.614E+06    -101.574E+06    -120.486E+06    -34.2806E+06    -16.8727E+06
            1761     124.311E-03     7.62948E-03     124.077E-03     333.997E-03    -165.486E-03    -168.511E-03    -166.536E-03     332.541E-03    -166.005E-03     53.7358E-03     352.810E-03     77.9825E+06    -22.8424E+06    -76.2462E+06    -111.391E+06    -88.3787E+06    -99.2585E+06    -22.8424E+06    -14.2608E+06
            1762     124.448E-03     8.47366E-03     124.160E-03     335.580E-03    -166.019E-03    -169.561E-03    -167.528E-03     333.699E-03    -166.171E-03     61.4579E-03     357.331E-03     73.4931E+06    -1.18638E+06    -48.9995E+06    -84.6264E+06    -75.7944E+06    -57.8315E+06    -1.18638E+06    -1.05325E+06
            1763     124.575E-03     9.31913E-03     124.226E-03     334.159E-03    -166.231E-03    -167.929E-03    -165.468E-03     331.713E-03    -166.245E-03     69.1967E-03     360.482E-03     80.0846E+06     15.4261E+06    -11.0966E+06    -72.9747E+06    -67.0493E+06    -17.0221E+06     15.4261E+06     3.70376E+06
            1764     124.743E-03     10.1772E-03     124.327E-03     333.889E-03    -166.152E-03    -167.737E-03    -164.836E-03     331.002E-03    -166.166E-03     75.3526E-03     365.245E-03     89.0265E+06     30.4110E+06     19.6545E+06    -63.1504E+06    -54.4968E+06     15.3055E+06     26.1064E+06    -2.47721E+06
            1765     124.904E-03     11.0181E-03     124.417E-03     336.518E-03    -166.146E-03    -170.372E-03    -167.131E-03     333.277E-03    -166.146E-03     80.6286E-03     372.789E-03     95.2659E+06     43.4320E+06     29.0060E+06    -57.8251E+06    -50.3360E+06     35.9429E+06     29.0060E+06      18.571E+03
            1766     125.111E-03     11.8625E-03     124.548E-03     336.990E-03    -165.840E-03    -171.150E-03    -166.521E-03     332.793E-03    -166.271E-03     91.6131E-03     378.601E-03     99.1923E+06     60.5588E+06     46.6677E+06    -44.4609E+06    -40.4711E+06     52.7992E+06     50.4375E+06     7.33759E+06
            1767     125.295E-03     12.7201E-03     124.648E-03     338.595E-03    -165.972E-03    -172.623E-03    -166.285E-03     332.688E-03    -166.403E-03     108.605E-03     388.148E-03     108.635E+06     90.6140E+06     76.3030E+06    -24.3050E+06    -23.6072E+06     75.6052E+06     90.6140E+06     6.15417E+06
            1768     125.536E-03     13.5633E-03     124.801E-03     343.949E-03    -166.553E-03    -177.396E-03    -169.620E-03     336.173E-03    -166.553E-03     126.104E-03     406.239E-03     134.664E+06     121.480E+06     100.618E+06    -22.3207E+06    -22.0783E+06     100.375E+06     121.480E+06    -1.19971E+06
            1769     125.783E-03     14.4054E-03     124.956E-03     341.037E-03    -166.688E-03    -174.349E-03    -166.397E-03     333.085E-03    -166.688E-03     126.986E-03     403.986E-03     165.669E+06     159.081E+06     133.535E+06    -17.8425E+06    -17.5181E+06     133.210E+06     159.081E+06     174.854E+03
            1770     125.223E-03     844.953E-06     125.220E-03     325.790E-03    -159.567E-03    -166.223E-03    -164.019E-03     325.612E-03    -161.593E-03    -4.09315E-03     326.863E-03     123.567E+06    -147.457E+06    -153.288E+06    -273.797E+06    -151.358E+06    -273.259E+06    -149.925E+06    -3.33538E+06
            1771     125.245E-03     1.68851E-03     125.234E-03     327.317E-03    -162.459E-03    -164.858E-03    -164.109E-03     327.161E-03    -163.052E-03     7.26726E-03     329.228E-03     101.573E+06    -141.092E+06    -150.981E+06    -247.081E+06    -150.186E+06    -246.599E+06    -142.369E+06    -2.91235E+06
            1772     125.278E-03     2.54948E-03     125.252E-03     328.907E-03    -162.865E-03    -166.042E-03    -165.051E-03     328.730E-03    -163.679E-03     15.4848E-03     332.642E-03     98.2240E+06    -121.015E+06    -141.641E+06    -227.533E+06    -141.730E+06    -227.444E+06    -121.015E+06     309.062E+03
            1773     125.318E-03     3.40192E-03     125.271E-03     331.401E-03    -164.051E-03    -167.350E-03    -166.742E-03     331.103E-03    -164.361E-03     22.9171E-03     337.444E-03     93.9167E+06    -94.8647E+06    -129.717E+06    -200.885E+06    -129.998E+06    -200.604E+06    -94.8647E+06    -2.45398E+06
            1774     125.358E-03     4.24221E-03     125.286E-03     332.447E-03    -164.993E-03    -167.454E-03    -166.966E-03     331.959E-03    -164.993E-03     30.2079E-03     341.109E-03     93.2270E+06    -77.2777E+06    -120.037E+06    -184.206E+06    -121.722E+06    -182.520E+06    -77.2777E+06    -9.26598E+06
            1775     125.424E-03     5.08637E-03     125.321E-03     331.258E-03    -165.121E-03    -166.137E-03    -165.214E-03     330.514E-03    -165.300E-03     38.2415E-03     343.052E-03     94.5324E+06    -61.7264E+06    -107.566E+06    -170.368E+06    -110.525E+06    -167.409E+06    -61.7264E+06    -10.9980E+06
            1776     125.500E-03     5.93462E-03     125.360E-03     332.055E-03    -165.067E-03    -166.988E-03    -165.682E-03     331.093E-03    -165.411E-03     43.4924E-03     346.487E-03     79.9388E+06    -39.3867E+06    -94.6046E+06    -128.508E+06    -96.8174E+06    -126.295E+06    -39.3867E+06    -6.17411E+06
            1777     125.587E-03     6.78180E-03     125.404E-03     335.175E-03    -165.544E-03    -169.631E-03    -168.207E-03     333.916E-03    -165.709E-03     50.0049E-03     351.722E-03     80.4626E+06    -18.0749E+06    -84.7741E+06    -106.452E+06    -89.2171E+06    -102.008E+06    -18.0749E+06    -7.75994E+06
            1778     125.705E-03     7.62311E-03     125.474E-03     334.129E-03    -165.790E-03    -168.339E-03    -166.613E-03     332.607E-03    -165.994E-03     55.1509E-03     353.706E-03     90.2914E+06    -8.39728E+06    -74.0364E+06    -110.839E+06    -85.0053E+06    -99.8698E+06    -8.39728E+06    -15.4144E+06
            1779     125.829E-03     8.47725E-03     125.543E-03     332.257E-03    -165.607E-03    -166.650E-03    -164.396E-03     330.365E-03    -165.968E-03     61.1063E-03     354.696E-03     81.5882E+06    -1.56904E+06    -50.3143E+06    -95.2220E+06    -73.4658E+06    -72.0705E+06    -1.56904E+06    -11.6005E+06
            1780     125.978E-03     9.32561E-03     125.632E-03     334.515E-03    -165.755E-03    -168.759E-03    -166.380E-03     332.293E-03    -165.912E-03     66.6724E-03     359.937E-03     72.0244E+06     10.7337E+06    -14.8546E+06    -69.8670E+06    -58.6164E+06    -26.1053E+06     10.7337E+06    -7.55417E+06
            1781     126.115E-03     10.1646E-03     125.704E-03     336.147E-03    -166.029E-03    -170.118E-03    -167.345E-03     333.374E-03    -166.029E-03     74.0742E-03     366.225E-03     78.6053E+06     30.9529E+06     10.4287E+06    -54.9215E+06    -51.3993E+06     10.8003E+06     27.0591E+06    -249.299E+03
            1782     126.314E-03     11.0144E-03     125.833E-03     334.111E-03    -165.803E-03    -168.308E-03    -164.717E-03     330.734E-03    -166.017E-03     81.8023E-03     370.385E-03     88.9896E+06     49.7780E+06     21.3389E+06    -49.1397E+06    -47.2784E+06     38.8475E+06     30.4081E+06     2.85416E+06
            1783     126.472E-03     11.8690E-03     125.914E-03     332.513E-03    -165.241E-03    -167.272E-03    -162.687E-03     328.573E-03    -165.886E-03     88.1718E-03     374.523E-03     92.6230E+06     57.3331E+06     39.7985E+06    -41.9743E+06    -39.0280E+06     52.4460E+06     41.7393E+06    -3.77439E+06
            1784     126.691E-03     12.7184E-03     126.051E-03     334.895E-03    -165.408E-03    -169.488E-03    -163.649E-03     329.487E-03    -165.839E-03     103.405E-03     384.375E-03     103.774E+06     78.2071E+06     67.4481E+06    -30.3750E+06    -28.2265E+06     65.4174E+06     78.0893E+06     2.41054E+06
            1785     126.917E-03     13.5689E-03     126.190E-03     340.541E-03    -165.889E-03    -174.652E-03    -166.545E-03     332.434E-03    -165.889E-03     127.314E-03     402.238E-03     134.183E+06     124.438E+06     103.939E+06    -18.8066E+06    -17.9101E+06     103.042E+06     124.438E+06     6.71207E+06
            1786     127.191E-03     14.4148E-03     126.371E-03     340.488E-03    -165.993E-03    -174.495E-03    -166.501E-03     332.493E-03    -165.993E-03     126.105E-03     403.124E-03     169.617E+06     168.429E+06     140.284E+06    -13.4840E+06    -12.7192E+06     139.519E+06     168.429E+06     1.04751E+06
            1787     126.613E-03     851.527E-06     126.610E-03     327.346E-03    -162.364E-03    -164.982E-03    -162.431E-03     327.274E-03    -164.843E-03     5.83687E-03     328.592E-03     117.348E+06    -147.903E+06    -157.295E+06    -269.525E+06    -154.907E+06    -269.355E+06    -150.461E+06     48.7914E+03
            1788     126.632E-03     1.70595E-03     126.620E-03     326.772E-03    -162.940E-03    -163.832E-03    -163.106E-03     326.639E-03    -163.533E-03     12.8338E-03     328.865E-03     91.7084E+06    -142.630E+06    -158.633E+06    -241.222E+06    -159.152E+06    -240.703E+06    -142.630E+06    -3.61405E+06
            1789     126.659E-03     2.54668E-03     126.633E-03     325.883E-03    -162.357E-03    -163.527E-03    -162.357E-03     325.724E-03    -163.367E-03     16.2901E-03     329.468E-03     91.5282E+06    -127.031E+06    -146.810E+06    -226.804E+06    -148.499E+06    -225.114E+06    -127.031E+06    -8.93846E+06
            1790     126.703E-03     3.39509E-03     126.658E-03     326.647E-03    -162.499E-03    -164.148E-03    -163.094E-03     326.398E-03    -163.304E-03     20.9835E-03     332.313E-03     88.4966E+06    -101.355E+06    -128.817E+06    -199.846E+06    -130.145E+06    -198.518E+06    -101.355E+06    -7.18966E+06
            1791     126.754E-03     4.24705E-03     126.683E-03     328.687E-03    -163.240E-03    -165.447E-03    -164.734E-03     328.272E-03    -163.538E-03     27.8370E-03     337.245E-03     84.7952E+06    -79.1178E+06    -120.614E+06    -175.963E+06    -121.900E+06    -174.676E+06    -79.1178E+06    -7.06667E+06
            1792     126.811E-03     5.09569E-03     126.709E-03     330.350E-03    -163.874E-03    -166.477E-03    -165.733E-03     329.684E-03    -163.951E-03     36.0222E-03     341.656E-03     89.2771E+06    -60.2818E+06    -112.818E+06    -162.417E+06    -116.634E+06    -158.601E+06    -60.2818E+06    -12.4761E+06
            1793     126.888E-03     5.94622E-03     126.748E-03     332.863E-03    -164.330E-03    -168.533E-03    -167.465E-03     331.872E-03    -164.408E-03     44.1569E-03     346.842E-03     81.2159E+06    -45.5907E+06    -100.008E+06    -136.983E+06    -108.413E+06    -128.578E+06    -45.5907E+06    -13.9948E+06
            1794     126.992E-03     6.78675E-03     126.811E-03     334.951E-03    -164.971E-03    -169.980E-03    -168.599E-03     333.570E-03    -164.971E-03     52.5597E-03     351.911E-03     80.0719E+06    -20.5539E+06    -81.3320E+06    -109.649E+06    -89.8940E+06    -101.087E+06    -20.5539E+06    -11.6638E+06
            1795     127.098E-03     7.63156E-03     126.869E-03     334.730E-03    -165.374E-03    -169.356E-03    -167.607E-03     333.033E-03    -165.426E-03     58.2812E-03     354.829E-03     85.6892E+06    -608.671E+03    -64.0693E+06    -97.6513E+06    -76.1024E+06    -85.6182E+06    -608.671E+03    -12.7661E+06
            1796     127.214E-03     8.47471E-03     126.932E-03     333.444E-03    -165.359E-03    -168.085E-03    -165.770E-03     331.338E-03    -165.568E-03     64.5891E-03     356.882E-03     79.9987E+06     1.52922E+06    -47.1765E+06    -90.2954E+06    -69.9033E+06    -67.5686E+06     1.52922E+06    -19.2260E+06
            1797     127.362E-03     9.32702E-03     127.020E-03     333.546E-03    -165.067E-03    -168.478E-03    -165.318E-03     330.863E-03    -165.546E-03     72.9034E-03     359.239E-03     70.2180E+06     4.90859E+06    -27.0881E+06    -74.0923E+06    -62.3606E+06    -38.8197E+06     4.90859E+06    -13.5322E+06
            1798     127.526E-03     10.1743E-03     127.119E-03     334.526E-03    -165.211E-03    -169.315E-03    -165.588E-03     331.120E-03    -165.532E-03     82.1932E-03     363.956E-03     64.6445E+06     15.3316E+06    -9.01380E+06    -56.0517E+06    -53.8209E+06    -11.2446E+06     15.3316E+06    -4.96547E+06
            1799     127.679E-03     11.0233E-03     127.202E-03     334.192E-03    -165.288E-03    -168.904E-03    -164.805E-03     330.307E-03    -165.502E-03     87.9922E-03     370.090E-03     80.1686E+06     48.8883E+06     22.3225E+06    -40.5493E+06    -39.0125E+06     35.5039E+06     34.1700E+06     329.887E+03
            1800     127.873E-03     11.8723E-03     127.320E-03     334.083E-03    -165.244E-03    -168.839E-03    -164.382E-03     329.840E-03    -165.458E-03     91.8668E-03     376.405E-03     95.5460E+06     67.4998E+06     50.0378E+06    -34.8942E+06    -33.2150E+06     65.8206E+06     50.0378E+06     664.052E+03
            1801     128.062E-03     12.7212E-03     127.428E-03     334.041E-03    -165.413E-03    -168.628E-03    -162.971E-03     328.384E-03    -165.413E-03     105.527E-03     383.489E-03     99.9991E+06     69.5331E+06     57.3405E+06    -35.8080E+06    -33.5921E+06     57.8683E+06     66.7893E+06    -3.30874E+06
            1802     128.302E-03     13.5786E-03     127.581E-03     335.222E-03    -165.325E-03    -169.898E-03    -161.675E-03     327.000E-03    -165.325E-03     127.149E-03     397.363E-03     128.320E+06     118.228E+06     98.8522E+06    -18.6232E+06    -17.3382E+06     97.5671E+06     118.228E+06     2.90910E+06
            1803     128.569E-03     14.4394E-03     127.756E-03     337.538E-03    -165.289E-03    -172.249E-03    -164.557E-03     329.846E-03    -165.289E-03     122.900E-03     400.917E-03     168.517E+06     172.614E+06     146.475E+06    -7.38602E+06    -6.48362E+06     145.573E+06     172.614E+06     3.59473E+06
            1804     127.997E-03     849.030E-06     127.995E-03     326.431E-03    -161.730E-03    -164.701E-03    -164.225E-03     326.407E-03    -162.182E-03     3.83155E-03     327.634E-03     116.759E+06    -148.348E+06    -156.937E+06    -269.039E+06    -152.917E+06    -268.824E+06    -152.583E+06    -1.49264E+06
            1805     128.017E-03     1.69325E-03     128.006E-03     325.841E-03    -162.325E-03    -163.515E-03    -162.689E-03     325.778E-03    -163.089E-03     9.11552E-03     327.870E-03     89.9747E+06    -131.921E+06    -144.545E+06    -227.413E+06    -143.948E+06    -226.887E+06    -133.044E+06    -4.65396E+06
            1806     128.046E-03     2.55043E-03     128.020E-03     324.574E-03    -161.545E-03    -163.029E-03    -161.546E-03     324.416E-03    -162.869E-03     16.4159E-03     328.159E-03     86.7505E+06    -119.010E+06    -138.125E+06    -213.460E+06    -139.811E+06    -211.774E+06    -119.010E+06    -9.03874E+06
            1807     128.084E-03     3.40290E-03     128.039E-03     324.190E-03    -161.608E-03    -162.582E-03    -161.313E-03     323.895E-03    -162.582E-03     23.5217E-03     329.856E-03     83.4082E+06    -109.707E+06    -136.341E+06    -202.871E+06    -140.025E+06    -199.187E+06    -109.707E+06    -12.3071E+06
            1808     128.137E-03     4.25324E-03     128.067E-03     325.920E-03    -162.179E-03    -163.741E-03    -162.915E-03     325.506E-03    -162.592E-03     28.2070E-03     334.025E-03     78.8718E+06    -85.4156E+06    -124.131E+06    -175.433E+06    -127.717E+06    -171.848E+06    -85.4156E+06    -11.0968E+06
            1809     128.200E-03     5.10205E-03     128.099E-03     330.207E-03    -163.067E-03    -167.141E-03    -166.510E-03     329.577E-03    -163.067E-03     35.0320E-03     341.017E-03     80.9523E+06    -59.5265E+06    -111.546E+06    -152.287E+06    -116.924E+06    -146.909E+06    -59.5265E+06    -11.9878E+06
            1810     128.284E-03     5.94055E-03     128.147E-03     332.333E-03    -163.744E-03    -168.589E-03    -167.604E-03     331.348E-03    -163.744E-03     43.9766E-03     346.244E-03     80.7931E+06    -40.4422E+06    -94.5680E+06    -132.919E+06    -105.794E+06    -121.693E+06    -40.4422E+06    -16.6016E+06
            1811     128.380E-03     6.79121E-03     128.201E-03     331.200E-03    -164.184E-03    -167.016E-03    -165.684E-03     329.868E-03    -164.184E-03     51.3115E-03     347.963E-03     77.7576E+06    -30.8551E+06    -83.7594E+06    -119.837E+06    -96.0868E+06    -107.510E+06    -30.8551E+06    -16.6430E+06
            1812     128.490E-03     7.64136E-03     128.263E-03     332.072E-03    -164.416E-03    -167.656E-03    -165.878E-03     330.295E-03    -164.416E-03     59.2954E-03     351.352E-03     74.5238E+06    -19.0134E+06    -68.5222E+06    -104.522E+06    -89.0888E+06    -83.9556E+06    -19.0134E+06    -15.9532E+06
            1813     128.613E-03     8.48735E-03     128.333E-03     333.693E-03    -164.661E-03    -169.031E-03    -166.705E-03     331.366E-03    -164.661E-03     68.1345E-03     356.093E-03     76.8173E+06    -2.59409E+06    -47.8314E+06    -91.2011E+06    -80.3754E+06    -58.6571E+06    -2.59409E+06    -18.6415E+06
            1814     128.746E-03     9.32909E-03     128.407E-03     332.032E-03    -164.419E-03    -167.613E-03    -164.276E-03     329.016E-03    -164.741E-03     77.1465E-03     357.186E-03     72.9600E+06     1.94401E+06    -36.6639E+06    -81.4355E+06    -72.3606E+06    -45.7388E+06     1.94401E+06    -17.6018E+06
            1815     128.904E-03     10.1875E-03     128.501E-03     331.360E-03    -164.306E-03    -167.053E-03    -163.177E-03     327.804E-03    -164.628E-03     83.8554E-03     359.935E-03     68.2645E+06     9.58302E+06    -14.1863E+06    -66.1107E+06    -60.2794E+06    -20.0176E+06     9.58302E+06    -16.2477E+06
            1816     129.078E-03     11.0348E-03     128.605E-03     333.320E-03    -164.550E-03    -168.770E-03    -164.660E-03     329.210E-03    -164.550E-03     90.3321E-03     368.089E-03     78.5826E+06     32.2891E+06     16.9453E+06    -52.6307E+06    -49.4924E+06     21.5133E+06     24.5829E+06    -10.2031E+06
            1817     129.253E-03     11.8804E-03     128.706E-03     333.976E-03    -164.552E-03    -169.424E-03    -164.525E-03     329.076E-03    -164.552E-03     98.6600E-03     376.053E-03     91.4921E+06     61.0392E+06     43.6139E+06    -37.5727E+06    -37.0085E+06     60.4750E+06     43.6139E+06     127.587E+03
            1818     129.450E-03     12.7325E-03     128.822E-03     335.137E-03    -164.601E-03    -170.536E-03    -164.207E-03     328.808E-03    -164.601E-03     111.877E-03     383.806E-03     101.517E+06     81.2009E+06     65.1690E+06    -27.0375E+06    -26.2387E+06     74.0891E+06     71.4819E+06    -967.112E+03
            1819     129.673E-03     13.5806E-03     128.960E-03     337.686E-03    -164.657E-03    -173.029E-03    -164.442E-03     329.099E-03    -164.657E-03     130.797E-03     397.754E-03     126.857E+06     111.295E+06     95.6988E+06    -22.5230E+06    -21.9749E+06     95.1507E+06     111.295E+06    -3.90811E+06
            1820     129.942E-03     14.4296E-03     129.138E-03     336.022E-03    -164.690E-03    -171.331E-03    -163.077E-03     327.767E-03    -164.690E-03     127.639E-03     399.362E-03     163.818E+06     165.621E+06     138.999E+06    -9.79153E+06    -9.54586E+06     138.753E+06     165.621E+06     1.22230E+06
            1821     129.388E-03     849.785E-06     129.385E-03     322.096E-03    -159.228E-03    -162.868E-03    -162.788E-03     322.016E-03    -159.228E-03     10.9572E-03     323.212E-03     109.317E+06    -143.673E+06    -148.811E+06    -255.467E+06    -145.236E+06    -255.111E+06    -147.603E+06    -6.16002E+06
            1822     129.401E-03     1.70342E-03     129.389E-03     323.614E-03    -160.420E-03    -163.194E-03    -162.292E-03     323.476E-03    -161.183E-03     16.3135E-03     325.542E-03     85.1428E+06    -135.961E+06    -141.290E+06    -223.587E+06    -139.421E+06    -223.269E+06    -138.148E+06    -4.76663E+06
            1823     129.423E-03     2.55116E-03     129.398E-03     323.810E-03    -160.489E-03    -163.320E-03    -162.013E-03     323.630E-03    -161.617E-03     18.5439E-03     327.422E-03     77.7520E+06    -118.970E+06    -135.392E+06    -203.053E+06    -135.900E+06    -202.546E+06    -118.970E+06    -4.92366E+06
            1824     129.467E-03     3.40196E-03     129.422E-03     323.731E-03    -161.328E-03    -162.404E-03    -161.650E-03     323.457E-03    -161.807E-03     22.6996E-03     329.375E-03     79.6634E+06    -97.1470E+06    -129.497E+06    -187.647E+06    -132.286E+06    -184.858E+06    -97.1470E+06    -9.15093E+06
            1825     129.517E-03     4.25344E-03     129.447E-03     325.184E-03    -161.872E-03    -163.312E-03    -162.715E-03     324.702E-03    -161.987E-03     30.0383E-03     332.935E-03     81.1558E+06    -79.6690E+06    -120.531E+06    -173.017E+06    -125.042E+06    -168.506E+06    -79.6690E+06    -13.1517E+06
            1826     129.593E-03     5.10020E-03     129.492E-03     327.404E-03    -162.309E-03    -165.095E-03    -164.228E-03     326.537E-03    -162.309E-03     40.6519E-03     337.612E-03     74.6378E+06    -63.1596E+06    -107.441E+06    -149.030E+06    -115.120E+06    -141.352E+06    -63.1596E+06    -14.6334E+06
            1827     129.675E-03     5.95243E-03     129.539E-03     329.343E-03    -162.741E-03    -166.603E-03    -165.347E-03     328.088E-03    -162.741E-03     49.6841E-03     342.445E-03     71.4812E+06     -45.579E+06    -95.0960E+06    -127.391E+06    -106.945E+06    -115.542E+06     -45.579E+06    -14.8147E+06
            1828     129.768E-03     6.79657E-03     129.589E-03     330.190E-03    -163.154E-03    -167.036E-03    -165.531E-03     328.685E-03    -163.154E-03     54.5388E-03     345.980E-03     76.3928E+06    -33.5679E+06    -85.2897E+06    -121.008E+06    -101.226E+06    -105.072E+06    -33.5679E+06    -16.8406E+06
            1829     129.874E-03     7.64499E-03     129.649E-03     329.950E-03    -163.432E-03    -166.519E-03    -164.632E-03     328.064E-03    -163.432E-03     60.8624E-03     348.444E-03     75.9637E+06    -17.0051E+06    -64.2466E+06    -104.382E+06    -89.9852E+06    -78.6430E+06    -17.0051E+06    -17.9939E+06
            1830     130.004E-03     8.49568E-03     129.726E-03     330.085E-03    -163.581E-03    -166.504E-03    -164.246E-03     327.827E-03    -163.581E-03     66.7284E-03     350.967E-03     77.2636E+06    -4.37285E+06    -48.8724E+06    -93.5162E+06    -81.7967E+06    -60.5919E+06    -4.37285E+06    -19.1663E+06
            1831     130.134E-03     9.34927E-03     129.798E-03     330.527E-03    -163.649E-03    -166.878E-03    -164.032E-03     327.680E-03    -163.649E-03     74.6881E-03     354.075E-03     80.3629E+06     6.40643E+06    -25.7327E+06    -84.1786E+06    -72.3423E+06    -37.5690E+06     6.40643E+06    -22.5179E+06
            1832     130.288E-03     10.1903E-03     129.889E-03     329.061E-03    -163.346E-03    -165.715E-03    -161.700E-03     325.273E-03    -163.573E-03     85.9288E-03     356.486E-03     77.8746E+06     15.5802E+06    -6.06530E+06    -70.7198E+06    -62.3128E+06    -14.4723E+06     15.5802E+06    -21.7040E+06
            1833     130.458E-03     11.0455E-03     129.989E-03     328.312E-03    -163.095E-03    -165.217E-03    -160.123E-03     323.445E-03    -163.322E-03     97.0620E-03     361.720E-03     79.1948E+06     26.3658E+06     11.3609E+06    -58.8455E+06    -52.6774E+06     8.73792E+06     22.8207E+06    -18.9252E+06
            1834     130.641E-03     11.9018E-03     130.098E-03     331.242E-03    -163.098E-03    -168.144E-03    -162.311E-03     325.410E-03    -163.098E-03     107.125E-03     370.867E-03     88.1466E+06     51.2349E+06     34.6451E+06    -43.6869E+06    -41.1621E+06     48.7102E+06     34.6451E+06    -11.9331E+06
            1835     130.832E-03     12.7508E-03     130.209E-03     336.275E-03    -163.149E-03    -173.126E-03    -165.724E-03     328.873E-03    -163.149E-03     121.485E-03     383.117E-03     97.9825E+06     71.9746E+06     56.8938E+06    -32.1123E+06    -31.8751E+06     70.3424E+06     58.2888E+06    -2.12086E+06
            1836     131.065E-03     13.6012E-03     130.357E-03     341.666E-03    -163.439E-03    -178.227E-03    -168.251E-03     331.690E-03    -163.439E-03     142.323E-03     400.104E-03     124.309E+06     104.581E+06     92.7577E+06    -25.1028E+06    -25.0478E+06     93.3439E+06     103.940E+06     145.466E+03
            1837     131.326E-03     14.4510E-03     130.529E-03     340.548E-03    -163.775E-03    -176.772E-03    -167.644E-03     331.419E-03    -163.775E-03     135.262E-03     403.516E-03     164.831E+06     163.223E+06     137.151E+06    -13.0374E+06    -12.8433E+06     136.957E+06     163.223E+06    -3.70976E+06
            1838     130.756E-03     859.308E-06     130.753E-03     315.371E-03    -156.330E-03    -159.041E-03    -158.065E-03     315.309E-03    -157.244E-03     9.41296E-03     316.479E-03     108.073E+06    -134.557E+06    -139.982E+06    -245.183E+06    -139.177E+06    -244.924E+06    -135.621E+06    -1.97149E+06
            1839     130.780E-03     1.70990E-03     130.769E-03     318.967E-03    -158.177E-03    -160.790E-03    -160.647E-03     318.824E-03    -158.177E-03     15.7197E-03     320.803E-03     80.9772E+06    -134.396E+06    -141.786E+06    -218.703E+06    -141.176E+06    -218.249E+06    -135.460E+06    -4.93430E+06
            1840     130.811E-03     2.55755E-03     130.786E-03     321.426E-03    -159.294E-03    -162.132E-03    -161.866E-03     321.160E-03    -159.294E-03     22.3593E-03     324.832E-03     72.4386E+06    -119.920E+06    -134.620E+06    -198.200E+06    -135.699E+06    -197.121E+06    -119.920E+06    -7.90118E+06
            1841     130.843E-03     3.40701E-03     130.798E-03     323.093E-03    -160.130E-03    -162.963E-03    -162.436E-03     322.567E-03    -160.130E-03     30.9810E-03     328.648E-03     72.7620E+06    -97.1567E+06    -125.040E+06    -179.448E+06    -126.669E+06    -177.819E+06    -97.1567E+06    -8.53354E+06
            1842     130.904E-03     4.25611E-03     130.835E-03     324.461E-03    -160.750E-03    -163.712E-03    -162.954E-03     323.704E-03    -160.750E-03     38.0494E-03     332.207E-03     73.8033E+06    -76.9189E+06    -115.918E+06    -161.707E+06    -118.526E+06    -159.099E+06    -76.9189E+06    -9.62455E+06
            1843     130.969E-03     5.11016E-03     130.870E-03     324.450E-03    -161.160E-03    -163.289E-03    -162.318E-03     323.478E-03    -161.160E-03     43.2735E-03     334.118E-03     71.8932E+06    -57.2530E+06    -103.864E+06    -139.888E+06    -108.848E+06    -134.904E+06    -57.2530E+06    -11.3385E+06
            1844     131.061E-03     5.95993E-03     130.925E-03     324.817E-03    -161.393E-03    -163.424E-03    -162.090E-03     323.483E-03    -161.393E-03     50.8003E-03     336.782E-03     73.3448E+06    -38.4081E+06    -90.3188E+06    -122.264E+06    -101.101E+06    -111.481E+06    -38.4081E+06    -13.5550E+06
            1845     131.158E-03     6.81022E-03     130.981E-03     327.594E-03    -161.678E-03    -165.916E-03    -164.124E-03     325.802E-03    -161.678E-03     59.1342E-03     341.953E-03     80.0940E+06    -20.7384E+06    -76.5525E+06    -112.015E+06    -93.8819E+06    -94.6853E+06    -20.7384E+06    -17.4354E+06
            1846     131.263E-03     7.65503E-03     131.039E-03     329.377E-03    -162.036E-03    -167.341E-03    -165.086E-03     327.122E-03    -162.036E-03     66.6197E-03     346.450E-03     81.0481E+06    -9.34124E+06    -59.7614E+06    -102.074E+06    -86.5796E+06    -75.2559E+06    -9.34124E+06    -19.3892E+06
            1847     131.383E-03     8.50403E-03     131.108E-03     328.307E-03    -162.287E-03    -166.020E-03    -163.385E-03     325.672E-03    -162.287E-03     71.5629E-03     348.052E-03     81.4058E+06     4.34019E+06    -37.8157E+06    -89.2188E+06    -76.1942E+06    -50.8404E+06     4.34019E+06    -21.3760E+06
            1848     131.520E-03     9.35072E-03     131.187E-03     326.815E-03    -162.301E-03    -164.514E-03    -161.270E-03     323.570E-03    -162.301E-03     78.9505E-03     349.766E-03     83.1084E+06     13.8105E+06    -19.1128E+06    -80.1377E+06    -68.2388E+06    -31.0117E+06     13.8105E+06    -23.2211E+06
            1849     131.668E-03     10.2103E-03     131.272E-03     325.013E-03    -161.866E-03    -163.147E-03    -158.818E-03     320.910E-03    -162.093E-03     88.8437E-03     351.914E-03     84.5124E+06     20.7231E+06    -582.154E+03    -71.7342E+06    -61.8659E+06    -10.4505E+06     20.7231E+06    -24.4981E+06
            1850     131.828E-03     11.0672E-03     131.362E-03     324.920E-03    -161.535E-03    -163.385E-03    -157.912E-03     319.674E-03    -161.762E-03     100.405E-03     357.070E-03     85.4255E+06     29.6516E+06     11.2428E+06    -62.7941E+06    -54.2668E+06     4.93667E+06     27.4305E+06    -23.9076E+06
            1851     132.020E-03     11.9233E-03     131.480E-03     328.573E-03    -161.501E-03    -167.072E-03    -160.975E-03     322.476E-03    -161.501E-03     109.248E-03     366.667E-03     90.1423E+06     45.8522E+06     25.6611E+06    -52.2693E+06    -47.6518E+06     33.6196E+06     33.2762E+06    -17.8852E+06
            1852     132.219E-03     12.7760E-03     131.600E-03     334.821E-03    -161.583E-03    -173.238E-03    -165.881E-03     327.463E-03    -161.583E-03     121.032E-03     381.463E-03     98.2505E+06     66.0408E+06     52.6225E+06    -37.9499E+06    -35.6337E+06     61.3023E+06     55.0448E+06    -12.2322E+06
            1853     132.450E-03     13.6239E-03     131.748E-03     342.131E-03    -161.975E-03    -180.155E-03    -170.629E-03     332.604E-03    -161.975E-03     139.500E-03     402.403E-03     114.148E+06     98.0570E+06     84.3462E+06    -22.1125E+06    -20.7398E+06     90.0083E+06     91.0223E+06    -6.77455E+06
            1854     132.716E-03     14.4709E-03     131.924E-03     346.511E-03    -162.702E-03    -183.809E-03    -175.389E-03     338.091E-03    -162.702E-03     131.332E-03     409.522E-03     155.959E+06     157.560E+06     128.732E+06    -10.6414E+06    -10.4051E+06     134.889E+06     151.166E+06    -4.14708E+06
            1855     132.128E-03     852.514E-06     132.125E-03     313.990E-03    -154.503E-03    -159.488E-03    -155.000E-03     313.950E-03    -158.950E-03     7.82896E-03     315.075E-03     111.479E+06    -131.848E+06    -136.462E+06    -245.497E+06    -135.088E+06    -245.408E+06    -133.309E+06     1.12745E+06
            1856     132.150E-03     1.70812E-03     132.139E-03     312.570E-03    -155.176E-03    -157.395E-03    -155.760E-03     312.425E-03    -156.665E-03     15.3252E-03     314.081E-03     81.7832E+06    -123.042E+06    -133.119E+06    -209.269E+06    -132.756E+06    -209.043E+06    -123.631E+06    -2.65477E+06
            1857     132.182E-03     2.56811E-03     132.157E-03     314.695E-03    -156.082E-03    -158.613E-03    -157.691E-03     314.362E-03    -156.671E-03     24.8121E-03     317.636E-03     75.1191E+06    -109.933E+06    -128.162E+06    -192.361E+06    -128.839E+06    -191.684E+06    -109.933E+06    -5.25643E+06
            1858     132.225E-03     3.42025E-03     132.180E-03     319.505E-03    -157.425E-03    -162.080E-03    -161.434E-03     318.859E-03    -157.425E-03     34.6989E-03     324.481E-03     72.6760E+06    -92.1816E+06    -120.782E+06    -174.395E+06    -122.588E+06    -172.589E+06    -92.1816E+06    -8.76706E+06
            1859     132.284E-03     4.26986E-03     132.215E-03     322.608E-03    -158.484E-03    -164.124E-03    -163.173E-03     321.657E-03    -158.484E-03     42.7468E-03     329.963E-03     71.9846E+06    -71.5172E+06    -109.629E+06    -154.207E+06    -114.414E+06    -149.423E+06    -71.5172E+06    -12.7737E+06
            1860     132.354E-03     5.11355E-03     132.256E-03     322.716E-03    -159.301E-03    -163.415E-03    -162.225E-03     321.526E-03    -159.301E-03     47.6031E-03     332.105E-03     75.6914E+06    -48.6909E+06    -96.2878E+06    -135.809E+06    -103.332E+06    -128.765E+06    -48.6909E+06    -14.2689E+06
            1861     132.434E-03     5.96578E-03     132.300E-03     321.333E-03    -159.663E-03    -161.670E-03    -160.016E-03     319.679E-03    -159.663E-03     55.8028E-03     332.656E-03     78.0925E+06    -25.9602E+06    -81.9849E+06    -115.021E+06    -91.0927E+06    -105.913E+06    -25.9602E+06    -13.7747E+06
            1862     132.536E-03     6.82182E-03     132.360E-03     321.959E-03    -159.756E-03    -162.203E-03    -159.963E-03     319.719E-03    -159.756E-03     65.3980E-03     335.445E-03     79.2132E+06    -8.50230E+06    -70.0832E+06    -97.8314E+06    -81.6268E+06    -86.2877E+06    -8.50230E+06    -13.6166E+06
            1863     132.652E-03     7.67480E-03     132.430E-03     324.269E-03    -159.883E-03    -164.385E-03    -161.548E-03     321.432E-03    -159.883E-03     73.9338E-03     339.997E-03     82.8341E+06     5.72750E+06    -50.4144E+06    -88.5225E+06    -73.5802E+06    -65.3568E+06     5.72750E+06    -17.8831E+06
            1864     132.767E-03     8.52133E-03     132.493E-03     324.966E-03    -160.038E-03    -164.928E-03    -161.379E-03     321.417E-03    -160.038E-03     82.7482E-03     343.704E-03     84.3133E+06     15.5952E+06    -31.3245E+06    -81.2119E+06    -67.0986E+06    -45.4378E+06     15.5952E+06    -21.3998E+06
            1865     132.897E-03     9.37804E-03     132.566E-03     324.676E-03    -160.098E-03    -164.578E-03    -160.359E-03     320.458E-03    -160.098E-03     90.3361E-03     346.819E-03     84.3485E+06     25.2223E+06    -13.8488E+06    -70.8778E+06    -59.5740E+06    -25.1526E+06     25.2223E+06    -21.2130E+06
            1866     133.039E-03     10.2295E-03     132.645E-03     324.694E-03    -160.076E-03    -164.618E-03    -160.133E-03     320.209E-03    -160.076E-03     93.2253E-03     350.689E-03     85.5877E+06     33.1902E+06     3.95507E+06    -61.8257E+06    -53.2603E+06    -4.61031E+06     33.1902E+06    -22.0258E+06
            1867     133.202E-03     11.0837E-03     132.740E-03     326.302E-03    -160.066E-03    -166.236E-03    -160.929E-03     320.995E-03    -160.066E-03     101.367E-03     358.027E-03      85.002E+06     38.4248E+06     10.5012E+06    -55.7264E+06    -48.2899E+06     3.06473E+06     38.4248E+06    -20.8862E+06
            1868     133.391E-03     11.9374E-03     132.856E-03     329.147E-03    -160.094E-03    -169.053E-03    -162.894E-03     322.988E-03    -160.094E-03     110.071E-03     368.295E-03     91.0312E+06     53.7640E+06     29.6330E+06    -46.6234E+06    -40.4793E+06     32.9691E+06     44.2837E+06    -21.4270E+06
            1869     133.600E-03     12.7889E-03     132.987E-03     335.399E-03    -160.360E-03    -175.039E-03    -167.804E-03     328.165E-03    -160.360E-03     120.396E-03     383.779E-03     100.298E+06     67.4666E+06     54.2870E+06    -38.6204E+06    -33.3762E+06     58.5231E+06     57.9864E+06    -22.2408E+06
            1870     133.836E-03     13.6365E-03     133.140E-03     345.490E-03    -160.978E-03    -184.512E-03    -175.481E-03     336.459E-03    -160.978E-03     137.087E-03     407.178E-03     109.972E+06     87.9035E+06     75.5036E+06    -27.5401E+06    -24.0541E+06     80.7181E+06     79.2030E+06    -17.6159E+06
            1871     134.113E-03     14.4745E-03     133.330E-03     350.396E-03    -162.067E-03    -188.329E-03    -180.336E-03     342.403E-03    -162.067E-03     129.419E-03     413.836E-03     149.977E+06     150.567E+06     115.364E+06    -13.3510E+06    -12.2688E+06     122.982E+06     141.866E+06    -7.94679E+06
            1872     133.496E-03     854.156E-06     133.493E-03     309.175E-03    -151.977E-03    -157.199E-03    -152.077E-03     309.094E-03    -157.018E-03     11.8526E-03     310.189E-03     111.144E+06    -128.504E+06    -131.204E+06    -240.967E+06    -129.120E+06    -240.704E+06    -130.851E+06    -3.54560E+06
            1873     133.508E-03     1.71478E-03     133.497E-03     308.112E-03    -152.790E-03    -155.322E-03    -153.630E-03     307.909E-03    -154.279E-03     18.7825E-03     309.462E-03     81.0640E+06    -120.808E+06    -127.137E+06    -204.738E+06    -125.947E+06    -204.454E+06    -122.282E+06    -3.78682E+06
            1874     133.544E-03     2.57181E-03     133.520E-03     310.523E-03    -153.823E-03    -156.700E-03    -155.728E-03     310.140E-03    -154.412E-03     26.5119E-03     313.067E-03     79.2273E+06    -100.137E+06    -118.413E+06    -186.452E+06    -118.939E+06    -185.925E+06    -100.137E+06    -5.08317E+06
            1875     133.598E-03     3.42724E-03     133.554E-03     313.433E-03    -155.060E-03    -158.372E-03    -157.711E-03     312.771E-03    -155.060E-03     34.8937E-03     317.684E-03     77.9204E+06    -74.9858E+06    -108.836E+06    -163.713E+06    -109.833E+06    -162.716E+06    -74.9858E+06    -6.72208E+06
            1876     133.661E-03     4.27824E-03     133.593E-03     315.390E-03    -155.751E-03    -159.639E-03    -158.495E-03     314.246E-03    -155.751E-03     46.0486E-03     321.807E-03     77.6362E+06    -54.0574E+06    -99.8781E+06    -143.165E+06    -103.500E+06    -139.543E+06    -54.0574E+06    -9.84643E+06
            1877     133.733E-03     5.13433E-03     133.634E-03     316.833E-03    -156.314E-03    -160.519E-03    -158.913E-03     315.227E-03    -156.314E-03     55.1307E-03     325.491E-03     80.0132E+06    -37.9416E+06    -91.4147E+06    -129.561E+06    -98.6917E+06    -122.284E+06    -37.9416E+06    -13.7692E+06
            1878     133.808E-03     5.98605E-03     133.674E-03     317.808E-03    -156.730E-03    -161.079E-03    -158.829E-03     315.559E-03    -156.730E-03     65.0056E-03     328.512E-03     79.4586E+06    -23.0063E+06    -80.1890E+06    -113.631E+06    -91.1746E+06    -102.645E+06    -23.0063E+06    -15.1025E+06
            1879     133.909E-03     6.83744E-03     133.734E-03     317.152E-03    -156.927E-03    -160.225E-03    -157.238E-03     314.165E-03    -156.927E-03     74.9718E-03     330.046E-03     80.1225E+06    -4.66609E+06    -62.2043E+06    -95.8329E+06    -79.2851E+06    -78.7521E+06    -4.66609E+06    -16.5949E+06
            1880     134.021E-03     7.69466E-03     133.799E-03     317.037E-03    -156.937E-03    -160.100E-03    -156.553E-03     313.489E-03    -156.937E-03     81.7509E-03     331.768E-03     83.1954E+06     14.4712E+06    -40.5894E+06    -80.9581E+06    -66.3076E+06    -55.2399E+06     14.4712E+06    -18.9236E+06
            1881     134.145E-03     8.55672E-03     133.872E-03     319.137E-03    -156.977E-03    -162.160E-03    -158.266E-03     315.243E-03    -156.977E-03     86.1767E-03     336.531E-03     85.0922E+06     28.1448E+06    -27.9021E+06    -69.7432E+06    -55.2996E+06    -42.3457E+06     28.1448E+06    -19.5727E+06
            1882     134.270E-03     9.40701E-03     133.940E-03     321.744E-03    -157.139E-03    -164.606E-03    -159.987E-03     317.125E-03    -157.139E-03     93.9975E-03     342.310E-03     85.4783E+06     37.9502E+06    -10.8460E+06    -59.7774E+06    -48.5592E+06    -22.0642E+06     37.9502E+06    -18.5531E+06
            1883     134.424E-03     10.2578E-03     134.032E-03     325.730E-03    -157.426E-03    -168.305E-03    -162.783E-03     320.209E-03    -157.426E-03     103.593E-03     350.232E-03     82.3846E+06     44.5598E+06     3.96668E+06    -49.7091E+06    -44.1904E+06    -1.55200E+06     44.5598E+06    -16.2174E+06
            1884     134.573E-03     11.1062E-03     134.114E-03     330.933E-03    -157.890E-03    -173.043E-03    -166.490E-03     324.380E-03    -157.890E-03     113.724E-03     361.955E-03     83.6656E+06     49.0397E+06     15.0928E+06    -45.6297E+06    -39.4277E+06     8.89081E+06     49.0397E+06    -18.3351E+06
            1885     134.776E-03     11.9548E-03     134.245E-03     335.141E-03    -158.460E-03    -176.680E-03    -169.473E-03     327.933E-03    -158.460E-03     120.490E-03     373.688E-03     91.7294E+06     58.4769E+06     40.2794E+06    -40.5058E+06    -34.3812E+06     39.6261E+06     53.0055E+06    -21.2536E+06
            1886     134.974E-03     12.8033E-03     134.366E-03     343.213E-03    -159.277E-03    -183.936E-03    -175.899E-03     335.176E-03    -159.277E-03     128.964E-03     390.915E-03     98.8468E+06     69.3156E+06     58.3718E+06    -34.3118E+06    -28.6734E+06     58.2048E+06     63.8442E+06    -22.1217E+06
            1887     135.239E-03     13.6436E-03     134.549E-03     351.813E-03    -160.412E-03    -191.401E-03    -182.314E-03     342.726E-03    -160.412E-03     139.302E-03     412.593E-03     110.344E+06     86.9565E+06     76.7042E+06    -28.0862E+06    -23.2587E+06     74.1837E+06     84.6496E+06    -21.5427E+06
            1888     135.510E-03     14.4796E-03     134.734E-03     352.086E-03    -161.822E-03    -190.263E-03    -182.445E-03     344.267E-03    -161.822E-03     128.826E-03     415.850E-03     152.586E+06     150.854E+06     105.221E+06    -16.9415E+06    -15.0438E+06     105.630E+06     148.547E+06    -12.9262E+06
            1889     134.847E-03     864.561E-06     134.844E-03     301.281E-03    -148.399E-03    -152.882E-03    -151.306E-03     301.213E-03    -149.907E-03     10.3611E-03     302.037E-03     110.760E+06    -119.651E+06    -122.452E+06    -231.779E+06    -121.828E+06    -231.518E+06    -120.536E+06    -4.33464E+06
            1890     134.868E-03     1.72122E-03     134.857E-03     305.151E-03    -151.165E-03    -153.986E-03    -153.770E-03     304.935E-03    -151.165E-03     19.1208E-03     306.367E-03     81.9055E+06    -113.949E+06    -120.160E+06    -198.665E+06    -119.702E+06    -198.237E+06    -114.835E+06    -5.23208E+06
            1891     134.907E-03     2.57559E-03     134.883E-03     305.977E-03    -151.866E-03    -154.111E-03    -153.390E-03     305.467E-03    -152.078E-03     29.9146E-03     308.250E-03     75.1040E+06    -98.5696E+06    -115.246E+06    -180.208E+06    -116.190E+06    -179.264E+06    -98.5696E+06    -7.67264E+06
            1892     134.960E-03     3.43197E-03     134.916E-03     305.077E-03    -151.872E-03    -153.205E-03    -151.813E-03     304.125E-03    -152.312E-03     41.0054E-03     308.871E-03     75.1543E+06    -75.0363E+06    -107.901E+06    -160.366E+06    -109.124E+06    -159.143E+06    -75.0363E+06    -7.71457E+06
            1893     135.021E-03     4.29546E-03     134.953E-03     304.938E-03    -152.005E-03    -152.933E-03    -151.213E-03     303.446E-03    -152.233E-03     51.7454E-03     310.378E-03     76.1428E+06    -48.1909E+06    -97.3715E+06    -135.389E+06    -98.6499E+06    -134.111E+06    -48.1909E+06    -6.52838E+06
            1894     135.096E-03     5.15401E-03     134.998E-03     306.998E-03    -152.237E-03    -154.762E-03    -152.626E-03     304.862E-03    -152.237E-03     62.0954E-03     314.383E-03     80.4947E+06    -24.6203E+06    -85.5861E+06    -115.549E+06    -88.2133E+06    -112.922E+06    -24.6203E+06    -7.80665E+06
            1895     135.179E-03     6.01075E-03     135.045E-03     310.366E-03    -152.473E-03    -157.893E-03    -154.881E-03     307.354E-03    -152.473E-03     74.1987E-03     319.731E-03     83.7524E+06    -8.35840E+06    -72.5838E+06    -102.799E+06    -80.2879E+06    -95.0946E+06    -8.35840E+06    -12.3594E+06
            1896     135.275E-03     6.86825E-03     135.101E-03     312.236E-03    -152.805E-03    -159.431E-03    -155.608E-03     308.413E-03    -152.805E-03     84.3887E-03     323.550E-03     83.1972E+06     5.00511E+06    -52.0485E+06    -90.1501E+06    -73.5862E+06    -68.6124E+06     5.00511E+06    -17.0268E+06
            1897     135.383E-03     7.72616E-03     135.162E-03     313.322E-03    -153.099E-03    -160.223E-03    -155.781E-03     308.880E-03    -153.099E-03     91.0551E-03     326.514E-03     85.1012E+06     18.0432E+06    -34.8471E+06    -80.1124E+06    -66.8896E+06    -48.0698E+06     18.0432E+06    -20.1776E+06
            1898     135.512E-03     8.57822E-03     135.240E-03     315.148E-03    -153.398E-03    -161.750E-03    -156.929E-03     310.326E-03    -153.398E-03     94.8126E-03     331.082E-03     88.7786E+06     30.0377E+06    -27.8151E+06    -72.1361E+06    -59.1655E+06    -40.7856E+06     30.0377E+06    -20.0356E+06
            1899     135.642E-03     9.43543E-03     135.313E-03     318.028E-03    -153.755E-03    -164.273E-03    -158.889E-03     312.644E-03    -153.755E-03     100.785E-03     337.296E-03     86.9041E+06     40.8544E+06    -15.3911E+06    -59.1785E+06    -50.7989E+06    -23.7707E+06     40.8544E+06    -16.3609E+06
            1900     135.790E-03     10.2957E-03     135.399E-03     324.450E-03    -154.283E-03    -170.168E-03    -163.692E-03     317.975E-03    -154.283E-03     112.357E-03     347.310E-03     84.8009E+06     50.9133E+06     6.24846E+06    -46.5247E+06    -41.6519E+06     1.37569E+06     50.9133E+06    -15.1706E+06
            1901     135.971E-03     11.1435E-03     135.514E-03     334.569E-03    -155.183E-03    -179.386E-03    -172.040E-03     327.223E-03    -155.183E-03     121.940E-03     363.566E-03     85.7891E+06     58.0291E+06     24.3754E+06    -39.2715E+06    -34.0402E+06     19.1441E+06     58.0291E+06    -17.4035E+06
            1902     136.154E-03     11.9855E-03     135.625E-03     345.137E-03    -156.522E-03    -188.614E-03    -181.098E-03     337.621E-03    -156.522E-03     125.654E-03     380.832E-03     89.5885E+06     63.6163E+06     45.9335E+06    -32.6229E+06    -28.1958E+06     41.9006E+06     63.2221E+06    -17.4401E+06
            1903     136.383E-03     12.8198E-03     135.779E-03     353.702E-03    -158.217E-03    -195.485E-03    -187.381E-03     345.598E-03    -158.217E-03     132.259E-03     398.791E-03     99.6886E+06     78.6920E+06     66.0803E+06    -26.5097E+06    -22.3911E+06     62.3560E+06     78.2978E+06    -18.1882E+06
            1904     136.641E-03     13.6463E-03     135.958E-03     356.958E-03    -159.931E-03    -197.027E-03    -187.937E-03     347.868E-03    -159.931E-03     140.661E-03     415.598E-03     110.627E+06     96.7586E+06     77.6151E+06    -22.0538E+06    -17.8838E+06     73.4451E+06     96.7586E+06    -19.0999E+06
            1905     136.912E-03     14.4798E-03     136.144E-03     354.005E-03    -161.598E-03    -192.406E-03    -184.488E-03     346.086E-03    -161.598E-03     130.043E-03     417.361E-03     151.675E+06     157.553E+06     90.3201E+06    -12.2882E+06    -10.2514E+06     88.2833E+06     157.553E+06    -13.4001E+06
            1906     136.197E-03     862.983E-06     136.195E-03     295.168E-03    -145.363E-03    -149.804E-03    -149.663E-03     295.027E-03    -145.363E-03     14.2498E-03     295.802E-03     108.641E+06    -111.741E+06    -116.177E+06    -222.514E+06    -115.198E+06    -222.384E+06    -112.851E+06    -1.41997E+06
            1907     136.223E-03     1.72139E-03     136.212E-03     296.986E-03    -147.336E-03    -149.651E-03    -148.879E-03     296.605E-03    -147.726E-03     24.1445E-03     297.998E-03     83.9887E+06    -104.358E+06    -112.976E+06    -192.201E+06    -113.234E+06    -191.943E+06    -104.358E+06    -4.06857E+06
            1908     136.260E-03     2.58432E-03     136.236E-03     295.877E-03    -147.316E-03    -148.560E-03    -147.117E-03     295.035E-03    -147.918E-03     37.5258E-03     297.809E-03     77.3655E+06    -88.6475E+06    -109.087E+06    -173.768E+06    -109.585E+06    -173.270E+06    -88.6475E+06    -4.41179E+06
            1909     136.306E-03     3.45149E-03     136.262E-03     294.998E-03    -147.193E-03    -147.805E-03    -145.970E-03     293.603E-03    -147.634E-03     49.1085E-03     298.082E-03     77.7003E+06    -68.8051E+06    -104.008E+06    -157.244E+06    -104.927E+06    -156.325E+06    -68.8051E+06    -5.77555E+06
            1910     136.371E-03     4.31360E-03     136.302E-03     294.722E-03    -147.044E-03    -147.678E-03    -145.380E-03     292.653E-03    -147.273E-03     59.7919E-03     299.172E-03     73.3166E+06    -48.0170E+06    -94.8477E+06    -132.137E+06    -97.0268E+06    -129.958E+06    -48.0170E+06    -7.81844E+06
            1911     136.442E-03     5.18057E-03     136.344E-03     296.602E-03    -147.079E-03    -149.522E-03    -146.594E-03     293.673E-03    -147.079E-03     71.5679E-03     302.591E-03     76.3693E+06    -24.4805E+06    -82.7025E+06    -110.672E+06    -85.8674E+06    -107.507E+06    -24.4805E+06    -8.67568E+06
            1912     136.534E-03     6.04651E-03     136.400E-03     300.598E-03    -147.229E-03    -153.370E-03    -149.628E-03     296.857E-03    -147.229E-03     81.9556E-03     308.184E-03     82.2626E+06    -1.37376E+06    -69.1394E+06    -92.4888E+06    -74.6548E+06    -86.9735E+06    -1.37376E+06    -8.92166E+06
            1913     136.632E-03     6.90624E-03     136.457E-03     305.373E-03    -147.708E-03    -157.664E-03    -153.103E-03     300.811E-03    -147.708E-03     91.2515E-03     314.639E-03     83.5018E+06     16.9736E+06    -48.6531E+06    -76.2690E+06    -66.6006E+06    -58.3215E+06     16.9736E+06    -11.0846E+06
            1914     136.747E-03     7.76114E-03     136.527E-03     308.719E-03    -148.357E-03    -160.362E-03    -154.981E-03     303.338E-03    -148.357E-03     99.7513E-03     320.084E-03     85.9210E+06     29.4089E+06    -32.9702E+06    -67.9565E+06    -60.8181E+06    -40.1087E+06     29.4089E+06    -13.9085E+06
            1915     136.871E-03     8.62213E-03     136.599E-03     311.889E-03    -149.044E-03    -162.846E-03    -156.785E-03     305.829E-03    -149.044E-03     106.536E-03     326.235E-03     90.9035E+06     37.9784E+06    -26.4476E+06    -65.5793E+06    -55.3649E+06    -36.6620E+06     37.9784E+06    -16.9570E+06
            1916     137.007E-03     9.47879E-03     136.679E-03     318.831E-03    -149.901E-03    -168.930E-03    -162.521E-03     312.422E-03    -149.901E-03     111.069E-03     336.771E-03     90.7184E+06     47.2025E+06    -12.8792E+06    -57.0683E+06    -46.2957E+06    -23.6519E+06     47.2025E+06    -18.4848E+06
            1917     137.162E-03     10.3236E-03     136.773E-03     327.443E-03    -151.088E-03    -176.354E-03    -169.465E-03     320.554E-03    -151.088E-03     116.957E-03     349.635E-03     87.4901E+06     57.3243E+06     9.74449E+06    -43.2530E+06    -35.9981E+06     2.48961E+06     57.3243E+06    -17.2093E+06
            1918     137.351E-03     11.1734E-03     136.895E-03     339.261E-03    -152.677E-03    -186.584E-03    -178.985E-03     331.662E-03    -152.677E-03     125.462E-03     367.135E-03     86.4859E+06     66.8125E+06     26.6405E+06    -32.3663E+06    -28.3925E+06     22.6667E+06     66.8125E+06    -14.6995E+06
            1919     137.567E-03     12.0053E-03     137.042E-03     352.619E-03    -154.694E-03    -197.925E-03    -189.996E-03     344.690E-03    -154.694E-03     131.008E-03     386.592E-03     89.9230E+06     71.1922E+06     48.2462E+06    -26.2508E+06    -23.0417E+06     45.0371E+06     71.1922E+06    -14.7777E+06
            1920     137.796E-03     12.8249E-03     137.198E-03     359.598E-03    -156.949E-03    -202.649E-03    -193.634E-03     350.583E-03    -156.949E-03     140.667E-03     404.232E-03     99.3803E+06     83.0037E+06     68.4484E+06    -22.4891E+06    -19.9111E+06     65.8703E+06     83.0037E+06    -14.7564E+06
            1921     138.047E-03     13.6581E-03     137.370E-03     361.433E-03    -159.022E-03    -202.411E-03    -192.036E-03     351.058E-03    -159.022E-03     151.283E-03     420.866E-03     108.909E+06     101.570E+06     76.0978E+06    -17.8024E+06    -15.6829E+06     73.9782E+06     101.570E+06    -13.4302E+06
            1922     138.320E-03     14.4905E-03     137.559E-03     361.629E-03    -161.040E-03    -200.589E-03    -191.790E-03     352.830E-03    -161.040E-03     138.677E-03     424.904E-03     152.567E+06     160.124E+06     77.1575E+06    -11.4736E+06    -9.89892E+06     75.5828E+06     160.124E+06    -10.9756E+06
            1923     137.537E-03     866.166E-06     137.534E-03     282.851E-03    -139.614E-03    -143.236E-03    -140.988E-03     282.576E-03    -141.589E-03     20.8313E-03     283.533E-03     101.723E+06    -115.640E+06    -119.607E+06    -219.266E+06    -118.629E+06    -219.135E+06    -116.750E+06    -1.66703E+06
            1924     137.561E-03     1.73625E-03     137.550E-03     281.354E-03    -139.723E-03    -141.630E-03    -139.746E-03     280.684E-03    -140.938E-03     32.6859E-03     282.198E-03     79.3290E+06    -103.322E+06    -114.491E+06    -187.244E+06    -114.595E+06    -187.141E+06    -103.322E+06    -2.38063E+06
            1925     137.591E-03     2.60739E-03     137.566E-03     282.237E-03    -140.244E-03    -141.993E-03    -140.324E-03     280.959E-03    -140.634E-03     45.8989E-03     283.749E-03     77.2906E+06    -84.6835E+06    -108.695E+06    -170.742E+06    -108.753E+06    -170.684E+06    -84.6835E+06    -1.76666E+06
            1926     137.645E-03     3.47290E-03     137.601E-03     282.686E-03    -140.574E-03    -142.112E-03    -140.159E-03     280.733E-03    -140.574E-03     56.9928E-03     284.920E-03     76.4937E+06    -63.5897E+06    -99.8254E+06    -150.976E+06    -100.134E+06    -150.668E+06    -63.5897E+06    -3.20467E+06
            1927     137.699E-03     4.34519E-03     137.631E-03     283.924E-03    -140.536E-03    -143.388E-03    -140.496E-03     281.032E-03    -140.536E-03     69.4343E-03     287.255E-03     72.1268E+06    -42.2968E+06    -90.3647E+06    -124.583E+06    -91.8422E+06    -123.106E+06    -42.2968E+06    -5.74091E+06
            1928     137.779E-03     5.21393E-03     137.681E-03     287.835E-03    -140.725E-03    -147.110E-03    -143.170E-03     283.896E-03    -140.725E-03     82.0153E-03     292.445E-03     75.3082E+06    -22.8505E+06    -82.4038E+06    -107.236E+06    -85.1970E+06    -104.443E+06    -22.8505E+06    -7.39321E+06
            1929     137.871E-03     6.07862E-03     137.737E-03     292.761E-03    -141.282E-03    -151.479E-03    -146.798E-03     288.080E-03    -141.282E-03     90.3700E-03     298.631E-03     80.0477E+06    -2.23046E+06    -69.0618E+06    -90.5495E+06    -77.3556E+06    -82.2557E+06    -2.23046E+06    -8.32805E+06
            1930     137.980E-03     6.94366E-03     137.805E-03     297.400E-03    -142.105E-03    -155.295E-03    -149.903E-03     292.008E-03    -142.105E-03     97.9956E-03     304.774E-03     82.9495E+06     20.0074E+06    -50.4895E+06    -71.1819E+06    -67.3072E+06    -54.3642E+06     20.0074E+06    -7.11650E+06
            1931     138.099E-03     7.80716E-03     137.878E-03     302.643E-03    -143.100E-03    -159.543E-03    -153.593E-03     296.692E-03    -143.100E-03     104.188E-03     312.114E-03     88.4677E+06     37.1176E+06    -32.7175E+06    -61.8064E+06    -59.6418E+06    -34.8821E+06     37.1176E+06    -5.89490E+06
            1932     138.222E-03     8.66433E-03     137.950E-03     310.846E-03    -144.354E-03    -166.493E-03    -160.047E-03     304.400E-03    -144.354E-03     110.167E-03     322.929E-03     94.0135E+06     47.3123E+06    -18.4622E+06    -59.8799E+06    -54.7891E+06    -23.5529E+06     47.3123E+06    -10.6090E+06
            1933     138.378E-03     9.51507E-03     138.050E-03     321.509E-03    -145.997E-03    -175.512E-03    -168.630E-03     314.628E-03    -145.997E-03     116.150E-03     337.257E-03     97.3074E+06     51.9615E+06    -6.99678E+06    -59.9101E+06    -50.7034E+06    -16.2034E+06     51.9615E+06    -18.1266E+06
            1934     138.546E-03     10.3605E-03     138.158E-03     334.046E-03    -148.072E-03    -185.974E-03    -178.606E-03     326.678E-03    -148.072E-03     122.897E-03     354.898E-03     95.0873E+06     56.8464E+06     7.20137E+06    -52.5807E+06    -45.0796E+06    -299.773E+03     56.8464E+06    -18.7000E+06
            1935     138.738E-03     11.1921E-03     138.286E-03     345.930E-03    -150.473E-03    -195.457E-03    -187.051E-03     337.524E-03    -150.473E-03     133.772E-03     373.138E-03     93.3508E+06     63.8914E+06     24.0434E+06    -42.1294E+06    -38.7350E+06     20.6490E+06     63.8914E+06    -13.9481E+06
            1936     138.983E-03     12.0239E-03     138.462E-03     353.760E-03    -152.923E-03    -200.837E-03    -191.797E-03     344.720E-03    -152.923E-03     140.430E-03     387.926E-03     99.7163E+06     70.6964E+06     49.9000E+06    -36.4033E+06    -34.1863E+06     51.3805E+06     66.9989E+06    -13.7377E+06
            1937     139.209E-03     12.8595E-03     138.613E-03     360.071E-03    -155.355E-03    -204.716E-03    -195.171E-03     350.526E-03    -155.355E-03     145.304E-03     405.174E-03     103.709E+06     80.8200E+06     66.2474E+06    -29.0843E+06    -25.7742E+06     66.6348E+06     77.1225E+06    -17.0996E+06
            1938     139.468E-03     13.6834E-03     138.796E-03     365.946E-03    -157.732E-03    -208.213E-03    -197.993E-03     355.725E-03    -157.732E-03     151.471E-03     424.708E-03     102.758E+06     95.5239E+06     70.3363E+06    -17.3687E+06    -14.6499E+06     67.6175E+06     95.5239E+06    -14.0089E+06
            1939     139.733E-03     14.5080E-03     138.978E-03     371.554E-03    -160.297E-03    -211.257E-03    -202.547E-03     362.844E-03    -160.297E-03     140.558E-03     433.167E-03     146.483E+06     156.617E+06     67.1113E+06    -7.06421E+06    -6.07690E+06     66.1240E+06     156.617E+06    -5.64484E+06
            1940     138.848E-03     875.356E-06     138.845E-03     260.548E-03    -128.280E-03    -132.268E-03    -129.061E-03     260.103E-03    -131.042E-03     24.1956E-03     261.255E-03     97.6321E+06    -115.601E+06    -118.858E+06    -214.814E+06    -116.957E+06    -214.552E+06    -117.764E+06    -3.55748E+06
            1941     138.868E-03     1.75676E-03     138.857E-03     262.436E-03    -129.360E-03    -133.076E-03    -131.211E-03     261.395E-03    -130.185E-03     39.5968E-03     263.029E-03     75.2926E+06    -108.122E+06    -117.089E+06    -187.043E+06    -116.447E+06    -186.998E+06    -108.808E+06     122.774E+03
            1942     138.911E-03     2.62977E-03     138.886E-03     264.949E-03    -130.728E-03    -134.221E-03    -132.396E-03     263.124E-03    -130.728E-03     53.0071E-03     265.983E-03     70.5778E+06    -90.5600E+06    -112.662E+06    -168.883E+06    -112.731E+06    -168.814E+06    -90.5600E+06     -714.06E+03
            1943     138.955E-03     3.50829E-03     138.911E-03     268.123E-03    -131.345E-03    -136.777E-03    -133.984E-03     265.329E-03    -131.345E-03     66.4431E-03     269.738E-03     65.8054E+06    -70.2065E+06    -106.094E+06    -145.249E+06    -106.301E+06    -145.041E+06    -70.2065E+06    -2.32665E+06
            1944     139.018E-03     4.38174E-03     138.949E-03     273.742E-03    -132.218E-03    -141.523E-03    -137.704E-03     269.922E-03    -132.218E-03     78.8968E-03     276.026E-03     66.5883E+06    -46.6850E+06    -98.8032E+06    -121.059E+06    -99.0949E+06    -120.767E+06    -46.6850E+06    -1.91719E+06
            1945     139.101E-03     5.25327E-03     139.002E-03     279.599E-03    -133.390E-03    -146.209E-03    -141.304E-03     274.694E-03    -133.390E-03     90.6768E-03     282.816E-03     75.7094E+06    -21.5625E+06    -88.1900E+06    -103.707E+06    -91.6294E+06    -100.268E+06    -21.5625E+06    -1.40212E+06
            1946     139.204E-03     6.12221E-03     139.069E-03     285.260E-03    -134.673E-03    -150.587E-03    -144.724E-03     279.397E-03    -134.673E-03     100.267E-03     289.646E-03     82.1866E+06    -807.472E+03    -70.6918E+06    -91.1263E+06    -85.4522E+06    -76.3659E+06    -807.472E+03    -3.33891E+06
            1947     139.314E-03     6.98532E-03     139.139E-03     291.474E-03    -136.070E-03    -155.404E-03    -148.935E-03     285.004E-03    -136.070E-03     106.631E-03     297.292E-03     87.2048E+06     15.5003E+06    -55.4332E+06    -81.7340E+06    -79.9838E+06    -57.1833E+06     15.5003E+06    -3.20007E+06
            1948     139.437E-03     7.84821E-03     139.216E-03     300.393E-03    -137.727E-03    -162.667E-03    -155.742E-03     293.469E-03    -137.727E-03     112.222E-03     308.107E-03     93.4531E+06     33.0835E+06    -31.9920E+06    -72.7184E+06    -72.5626E+06    -32.1478E+06     33.0835E+06    -880.282E+03
            1949     139.583E-03     8.70225E-03     139.312E-03     312.824E-03    -139.812E-03    -173.012E-03    -165.544E-03     305.356E-03    -139.812E-03     119.361E-03     322.911E-03     98.8080E+06     47.7722E+06    -6.31322E+06    -65.8287E+06    -64.9460E+06    -7.19595E+06     47.7722E+06    -4.69485E+06
            1950     139.745E-03     9.54813E-03     139.418E-03     326.282E-03    -142.377E-03    -183.905E-03    -176.210E-03     318.587E-03    -142.377E-03     124.283E-03     340.006E-03     99.9630E+06     53.8772E+06     73.8076E+03    -60.9802E+06    -57.6524E+06    -3.25399E+06     53.8772E+06    -12.8444E+06
            1951     139.930E-03     10.3877E-03     139.543E-03     340.639E-03    -145.330E-03    -195.309E-03    -187.289E-03     332.620E-03    -145.330E-03     130.106E-03     359.337E-03     94.5965E+06     52.7741E+06    -774.268E+03    -56.0246E+06    -51.5993E+06    -5.19955E+06     52.7741E+06    -14.9341E+06
            1952     140.153E-03     11.2166E-03     139.703E-03     350.358E-03    -148.435E-03    -201.923E-03    -193.551E-03     341.986E-03    -148.435E-03     134.764E-03     375.775E-03     94.5957E+06     55.6617E+06     22.5256E+06    -48.8705E+06    -45.7769E+06     19.4320E+06     55.6617E+06    -13.9544E+06
            1953     140.371E-03     12.0474E-03     139.853E-03     354.932E-03    -151.351E-03    -203.581E-03    -194.948E-03     346.299E-03    -151.351E-03     137.589E-03     387.520E-03     105.532E+06     74.4861E+06     56.7875E+06    -38.5807E+06    -35.7250E+06     64.2608E+06     64.1572E+06    -16.9963E+06
            1954     140.633E-03     12.8703E-03     140.043E-03     361.267E-03    -154.100E-03    -207.167E-03    -198.557E-03     352.657E-03    -154.100E-03     138.803E-03     403.732E-03     105.523E+06     82.9923E+06     65.5758E+06    -30.0631E+06    -25.4426E+06     71.2843E+06     72.6633E+06    -21.0434E+06
            1955     140.879E-03     13.6938E-03     140.211E-03     371.184E-03    -156.895E-03    -214.289E-03    -205.394E-03     362.290E-03    -156.895E-03     143.176E-03     426.202E-03     98.8781E+06     86.1786E+06     57.7703E+06    -22.6409E+06    -18.7145E+06     53.8440E+06     86.1786E+06    -16.8833E+06
            1956     141.174E-03     14.5088E-03     140.427E-03     377.727E-03    -159.939E-03    -217.787E-03    -209.761E-03     369.700E-03    -159.939E-03     136.750E-03     436.967E-03     142.915E+06     147.617E+06     51.5847E+06    -13.3424E+06    -12.0534E+06     50.2957E+06     147.617E+06    -6.13451E+06
            1957     140.122E-03     896.129E-06     140.119E-03     236.410E-03    -116.523E-03    -119.888E-03    -118.601E-03     235.911E-03    -117.311E-03     24.5647E-03     236.906E-03     89.0782E+06    -119.897E+06    -126.962E+06    -212.248E+06    -125.133E+06    -211.914E+06    -122.059E+06    -582.967E+03
            1958     140.161E-03     1.77653E-03     140.149E-03     242.080E-03    -118.662E-03    -123.419E-03    -122.263E-03     240.925E-03    -118.662E-03     40.6563E-03     242.451E-03     68.4993E+06    -116.576E+06    -124.045E+06    -188.377E+06    -123.384E+06    -188.351E+06    -117.263E+06     1.05342E+06
            1959     140.194E-03     2.66429E-03     140.169E-03     245.876E-03    -120.134E-03    -125.742E-03    -123.775E-03     243.909E-03    -120.134E-03     53.4620E-03     246.472E-03     64.3225E+06    -99.8299E+06    -119.909E+06    -171.000E+06    -120.649E+06    -170.260E+06    -99.8299E+06     3.16142E+06
            1960     140.250E-03     3.54737E-03     140.205E-03     252.762E-03    -121.527E-03    -131.235E-03    -128.022E-03     249.549E-03    -121.527E-03     69.5339E-03     253.761E-03     60.6793E+06    -76.4707E+06    -114.811E+06    -145.409E+06    -118.004E+06    -142.215E+06    -76.4707E+06     4.33963E+06
            1961     140.324E-03     4.42310E-03     140.254E-03     261.574E-03    -123.307E-03    -138.267E-03    -133.559E-03     256.866E-03    -123.307E-03     85.8708E-03     263.095E-03     66.6590E+06    -52.1016E+06    -109.507E+06    -124.832E+06    -113.335E+06    -121.004E+06    -52.1016E+06     3.51868E+06
            1962     140.413E-03     5.29343E-03     140.313E-03     269.753E-03    -125.294E-03    -144.458E-03    -138.159E-03     263.453E-03    -125.294E-03     100.783E-03     272.108E-03     76.9531E+06    -27.7517E+06    -94.6436E+06    -111.256E+06    -106.298E+06    -99.6012E+06    -27.7517E+06     4.37802E+06
            1963     140.519E-03     6.16405E-03     140.384E-03     278.017E-03    -127.329E-03    -150.688E-03    -143.179E-03     270.508E-03    -127.329E-03     112.047E-03     281.430E-03     84.7665E+06    -4.52788E+06    -70.3215E+06    -99.4324E+06    -98.3290E+06    -71.4250E+06    -4.52788E+06     4.83179E+06
            1964     140.642E-03     7.03379E-03     140.466E-03     288.719E-03    -129.592E-03    -159.127E-03    -151.083E-03     280.675E-03    -129.592E-03     118.735E-03     293.362E-03     91.0813E+06     13.8840E+06    -54.7911E+06    -89.1856E+06    -88.8941E+06    -55.0826E+06     13.8840E+06     1.85776E+06
            1965     140.778E-03     7.89072E-03     140.557E-03     301.710E-03    -132.250E-03    -169.460E-03    -160.996E-03     293.247E-03    -132.250E-03     125.051E-03     308.041E-03     94.3104E+06     29.3979E+06    -31.2798E+06    -78.2177E+06    -78.1153E+06    -31.3823E+06     29.3979E+06    -55.6553E+03
            1966     140.939E-03     8.74284E-03     140.668E-03     316.180E-03    -135.333E-03    -180.847E-03    -171.929E-03     307.262E-03    -135.333E-03     131.906E-03     324.828E-03     101.036E+06     47.3800E+06     5.79122E+06    -67.0773E+06    -66.7996E+06     5.51352E+06     47.3800E+06    -1.98846E+06
            1967     141.123E-03     9.58436E-03     140.797E-03     333.526E-03    -138.868E-03    -194.658E-03    -185.462E-03     324.330E-03    -138.868E-03     138.036E-03     345.671E-03     100.835E+06     54.0066E+06     13.1484E+06    -59.6353E+06    -58.0408E+06     11.5539E+06     54.0066E+06    -8.34689E+06
            1968     141.329E-03     10.4096E-03     140.945E-03     348.041E-03    -142.727E-03    -205.314E-03    -196.182E-03     338.909E-03    -142.727E-03     140.875E-03     364.807E-03     90.0516E+06     48.6244E+06     2.40061E+06    -54.1689E+06    -49.5844E+06    -2.18396E+06     48.6244E+06    -14.6162E+06
            1969     141.554E-03     11.2355E-03     141.107E-03     355.860E-03    -146.549E-03    -209.311E-03    -200.609E-03     347.158E-03    -146.549E-03     138.992E-03     378.835E-03     87.9384E+06     52.3614E+06     27.5214E+06    -42.9087E+06    -37.6813E+06     22.2940E+06     52.3614E+06    -17.5629E+06
            1970     141.786E-03     12.0537E-03     141.273E-03     361.332E-03    -150.071E-03    -211.261E-03    -202.653E-03     352.724E-03    -150.071E-03     139.201E-03     391.122E-03     103.063E+06     78.5408E+06     60.0454E+06    -32.0308E+06    -28.4418E+06     72.2096E+06     62.7877E+06    -18.9124E+06
            1971     142.040E-03     12.8798E-03     141.454E-03     367.928E-03    -153.357E-03    -214.571E-03    -205.776E-03     359.133E-03    -153.357E-03     142.038E-03     406.919E-03     103.593E+06     84.2713E+06     61.6027E+06    -28.5699E+06    -24.5888E+06     73.3747E+06     68.5181E+06    -19.5592E+06
            1972     142.314E-03     13.6963E-03     141.654E-03     378.018E-03    -156.592E-03    -221.426E-03    -212.130E-03     368.722E-03    -156.592E-03     148.078E-03     430.499E-03     93.1987E+06     79.2065E+06     46.9534E+06    -24.2654E+06    -20.7922E+06     43.4802E+06     79.2065E+06    -15.2344E+06
            1973     142.613E-03     14.5049E-03     141.873E-03     380.320E-03    -159.905E-03    -220.415E-03    -212.375E-03     372.279E-03    -159.905E-03     137.320E-03     438.348E-03     139.505E+06     140.778E+06     37.6461E+06    -15.1489E+06    -13.3225E+06     35.8196E+06     140.778E+06    -9.12052E+06
            1974     141.384E-03     895.415E-06     141.381E-03     220.484E-03    -109.085E-03    -111.400E-03    -110.152E-03     220.094E-03    -109.943E-03     21.6355E-03     220.922E-03     76.5042E+06    -135.544E+06    -147.987E+06    -217.435E+06    -144.326E+06    -217.024E+06    -139.616E+06     4.40421E+06
            1975     141.414E-03     1.79469E-03     141.403E-03     222.892E-03    -109.380E-03    -113.512E-03    -111.696E-03     221.933E-03    -110.238E-03     35.1673E-03     223.149E-03     61.3631E+06    -128.956E+06    -142.849E+06    -195.866E+06    -145.028E+06    -193.687E+06    -128.956E+06     6.41417E+06
            1976     141.460E-03     2.68631E-03     141.435E-03     228.971E-03    -111.289E-03    -117.683E-03    -115.735E-03     227.023E-03    -111.289E-03     51.0707E-03     229.299E-03     57.9511E+06    -112.814E+06    -138.956E+06    -177.882E+06    -142.574E+06    -174.264E+06    -112.814E+06     8.89157E+06
            1977     141.522E-03     3.57317E-03     141.477E-03     236.972E-03    -112.906E-03    -124.066E-03    -120.475E-03     233.381E-03    -112.906E-03     70.7731E-03     237.584E-03     60.3051E+06    -86.5651E+06    -126.594E+06    -154.903E+06    -135.605E+06    -145.892E+06    -86.5651E+06     11.2604E+06
            1978     141.608E-03     4.46062E-03     141.537E-03     246.082E-03    -114.822E-03    -131.260E-03    -125.731E-03     240.553E-03    -114.822E-03     90.2761E-03     247.223E-03     70.2239E+06    -58.3884E+06    -109.944E+06    -137.074E+06    -127.932E+06    -119.086E+06    -58.3884E+06     11.8399E+06
            1979     141.707E-03     5.34429E-03     141.606E-03     257.633E-03    -117.061E-03    -140.573E-03    -133.184E-03     250.245E-03    -117.061E-03     107.309E-03     259.522E-03     79.6382E+06    -34.4891E+06    -96.0291E+06    -123.402E+06    -119.106E+06    -100.325E+06    -34.4891E+06     9.36491E+06
            1980     141.826E-03     6.21809E-03     141.690E-03     271.279E-03    -119.756E-03    -151.523E-03    -142.653E-03     262.408E-03    -119.756E-03     121.151E-03     274.131E-03     87.1519E+06    -9.60945E+06    -66.3967E+06    -108.445E+06    -106.484E+06    -68.3579E+06    -9.60945E+06     7.72593E+06
            1981     141.963E-03     7.08017E-03     141.786E-03     286.648E-03    -122.958E-03    -163.690E-03    -153.886E-03     276.844E-03    -122.958E-03     131.322E-03     290.878E-03     91.3994E+06     9.73905E+06    -45.9330E+06    -94.7226E+06    -94.2926E+06    -46.3630E+06     9.73905E+06     3.49699E+06
            1982     142.122E-03     7.93633E-03     141.900E-03     304.295E-03    -126.690E-03    -177.605E-03    -167.204E-03     293.894E-03    -126.690E-03     139.857E-03     310.296E-03      94.445E+06     24.8448E+06    -28.1012E+06    -82.9319E+06    -82.8495E+06    -28.1836E+06     24.8448E+06    -1.43812E+06
            1983     142.297E-03     8.77943E-03     142.026E-03     323.403E-03    -130.946E-03    -192.457E-03    -181.966E-03     312.913E-03    -130.946E-03     145.473E-03     331.679E-03     102.314E+06     41.9780E+06     10.9942E+06    -71.3334E+06    -71.1921E+06     10.8529E+06     41.9780E+06    -3.01490E+06
            1984     142.506E-03     9.61483E-03     142.181E-03     340.071E-03    -135.565E-03    -204.506E-03    -194.264E-03     329.829E-03    -135.565E-03     147.914E-03     351.368E-03     102.146E+06     49.9780E+06     26.7020E+06    -61.5152E+06    -60.6184E+06     25.8051E+06     49.9780E+06    -6.86810E+06
            1985     142.740E-03     10.4413E-03     142.358E-03     351.571E-03    -140.182E-03    -211.389E-03    -201.502E-03     341.684E-03    -140.182E-03     147.856E-03     366.979E-03     94.9071E+06     48.1337E+06     23.4147E+06    -56.1600E+06    -50.6912E+06     17.9458E+06     48.1337E+06    -17.9980E+06
            1986     142.963E-03     11.2574E-03     142.519E-03     361.551E-03    -144.565E-03    -216.986E-03    -207.196E-03     351.761E-03    -144.565E-03     149.228E-03     382.435E-03     92.3312E+06     46.3699E+06     32.3528E+06    -51.5422E+06    -42.5852E+06     23.3957E+06     46.3699E+06    -25.4005E+06
            1987     143.213E-03     12.0773E-03     142.703E-03     370.579E-03    -148.720E-03    -221.859E-03    -212.559E-03     361.279E-03    -148.720E-03     147.162E-03     398.026E-03     107.110E+06     75.6657E+06     52.1775E+06    -40.4558E+06    -35.0604E+06     67.3224E+06     55.1253E+06    -21.3533E+06
            1988     143.461E-03     12.8856E-03     142.882E-03     378.403E-03    -152.713E-03    -225.690E-03    -216.649E-03     369.362E-03    -152.713E-03     146.658E-03     415.299E-03     106.622E+06     85.8093E+06     58.7164E+06    -31.3162E+06    -27.7760E+06     75.7166E+06     65.2690E+06    -18.3529E+06
            1989     143.754E-03     13.6965E-03     143.101E-03     383.265E-03    -156.435E-03    -226.830E-03    -217.304E-03     373.739E-03    -156.435E-03     151.253E-03     434.713E-03     90.7453E+06     73.8635E+06      44.605E+06    -26.6113E+06    -19.8210E+06     37.8148E+06     73.8635E+06    -19.2045E+06
            1990     144.056E-03     14.5073E-03     143.324E-03     380.015E-03    -159.888E-03    -220.126E-03    -212.270E-03     372.158E-03    -159.888E-03     135.608E-03     437.247E-03     134.812E+06     133.670E+06     26.5008E+06    -12.1413E+06    -7.16777E+06     21.5272E+06     133.670E+06    -11.6660E+06
            1991     142.614E-03     897.253E-06     142.612E-03     208.961E-03    -102.896E-03    -106.065E-03    -104.754E-03     208.509E-03    -103.754E-03     22.5229E-03     209.385E-03     55.7082E+06    -173.112E+06    -183.136E+06    -233.091E+06    -180.355E+06    -229.317E+06    -179.667E+06     8.68181E+06
            1992     142.651E-03     1.80151E-03     142.640E-03     208.399E-03    -103.070E-03    -105.329E-03    -103.256E-03     207.183E-03    -103.928E-03     37.6516E-03     208.592E-03     46.9858E+06    -159.283E+06    -173.954E+06    -211.296E+06    -179.973E+06    -204.866E+06    -159.694E+06     11.9676E+06
            1993     142.704E-03     2.70378E-03     142.679E-03     213.629E-03    -104.158E-03    -109.471E-03    -106.925E-03     211.083E-03    -104.158E-03     56.1327E-03     213.932E-03     50.8542E+06    -133.859E+06    -158.616E+06    -191.006E+06    -170.909E+06    -178.714E+06    -133.859E+06     13.2682E+06
            1994     142.775E-03     3.60299E-03     142.730E-03     222.694E-03    -105.437E-03    -117.257E-03    -112.945E-03     218.382E-03    -105.437E-03     75.6079E-03     223.289E-03     58.2083E+06    -105.574E+06    -140.363E+06    -171.359E+06    -160.351E+06    -151.371E+06    -105.574E+06     12.9804E+06
            1995     142.867E-03     4.49534E-03     142.796E-03     233.782E-03    -107.464E-03    -126.318E-03    -120.269E-03     227.733E-03    -107.464E-03     92.4131E-03     234.820E-03     68.7234E+06    -73.3099E+06    -113.183E+06    -152.199E+06    -145.269E+06    -120.113E+06    -73.3099E+06     12.9185E+06
            1996     142.983E-03     5.38059E-03     142.881E-03     247.157E-03    -110.079E-03    -137.078E-03    -129.422E-03     239.502E-03    -110.079E-03     107.293E-03     248.891E-03     77.4076E+06    -42.5786E+06    -90.1495E+06    -130.718E+06    -127.761E+06    -93.1064E+06    -42.5786E+06     8.53055E+06
            1997     143.120E-03     6.25773E-03     142.983E-03     263.638E-03    -113.280E-03    -150.358E-03    -141.044E-03     254.324E-03    -113.280E-03     122.721E-03     266.383E-03     83.0377E+06    -17.2832E+06    -65.8782E+06    -111.773E+06    -110.833E+06    -66.8180E+06    -17.2832E+06     3.90141E+06
            1998     143.281E-03     7.12618E-03     143.103E-03     283.475E-03    -117.155E-03    -166.320E-03    -155.684E-03     272.839E-03    -117.155E-03     136.670E-03     287.674E-03     86.2981E+06     4.55868E+06    -38.0072E+06    -94.4092E+06    -94.1912E+06    -38.2253E+06     4.55868E+06     1.38281E+06
            1999     143.459E-03     7.98043E-03     143.237E-03     306.662E-03    -121.817E-03    -184.846E-03    -173.550E-03     295.366E-03    -121.817E-03     147.258E-03     312.722E-03     88.3606E+06     22.7103E+06    -20.2074E+06    -78.3890E+06    -77.8814E+06    -20.7150E+06     22.7103E+06    -3.76093E+06
            2000     143.672E-03     8.81990E-03     143.401E-03     329.064E-03    -127.126E-03    -201.938E-03    -190.488E-03     317.613E-03    -127.126E-03     154.198E-03     337.388E-03     93.6539E+06     39.3798E+06     12.0108E+06    -63.6583E+06    -63.0609E+06     11.4134E+06     39.3798E+06    -5.30733E+06
            2001     143.902E-03     9.63770E-03     143.579E-03     344.128E-03    -132.604E-03    -211.524E-03    -200.268E-03     332.872E-03    -132.604E-03     156.425E-03     355.246E-03     96.9099E+06     50.5807E+06     37.7450E+06    -52.0276E+06    -51.3303E+06     37.0477E+06     50.5807E+06    -7.25654E+06
            2002     144.132E-03     10.4596E-03     143.752E-03     354.627E-03    -137.811E-03    -216.817E-03    -206.016E-03     343.826E-03    -137.811E-03     155.483E-03     369.372E-03     97.7600E+06     55.2789E+06     46.1455E+06    -46.5810E+06    -43.1801E+06     42.7445E+06     55.2789E+06    -15.8046E+06
            2003     144.384E-03     11.2849E-03     143.943E-03     367.461E-03    -142.753E-03    -224.708E-03    -214.584E-03     357.336E-03    -142.753E-03     153.413E-03     387.243E-03     92.1786E+06     50.4135E+06     37.0620E+06    -46.7961E+06    -39.2007E+06     29.4666E+06     50.4135E+06    -22.9624E+06
            2004     144.644E-03     12.0907E-03     144.138E-03     378.859E-03    -147.567E-03    -231.292E-03    -222.371E-03     369.938E-03    -147.567E-03     146.213E-03     404.627E-03     106.614E+06     77.4113E+06     43.0320E+06    -41.3197E+06    -34.8516E+06     60.8306E+06     53.1446E+06    -22.8893E+06
            2005     144.912E-03     12.8952E-03     144.337E-03     386.165E-03    -152.192E-03    -233.973E-03    -225.229E-03     377.422E-03    -152.192E-03     146.110E-03     421.352E-03     110.719E+06     89.4097E+06     61.4948E+06    -31.6005E+06    -26.4980E+06     80.6590E+06     65.1430E+06    -22.5187E+06
            2006     145.199E-03     13.6932E-03     144.552E-03     386.693E-03    -156.322E-03    -230.371E-03    -221.222E-03     377.544E-03    -156.322E-03     149.137E-03     436.441E-03     92.3239E+06     72.0041E+06     43.1082E+06    -28.9041E+06    -18.8956E+06     33.0998E+06     72.0041E+06    -23.5351E+06
            2007     145.486E-03     14.5058E-03     144.761E-03     379.671E-03    -159.905E-03    -219.766E-03    -212.287E-03     372.192E-03    -159.905E-03     132.518E-03     435.570E-03     139.005E+06     126.729E+06     13.7624E+06    -23.6657E+06    -12.0431E+06     2.13982E+06     126.729E+06    -15.7092E+06
            2008     143.843E-03     910.717E-06     143.840E-03     193.894E-03    -95.1151E-03    -98.7792E-03    -97.6153E-03     193.437E-03    -95.8215E-03     20.8035E-03     194.166E-03     57.6982E+06    -221.392E+06    -257.421E+06    -282.903E+06    -261.934E+06    -240.098E+06    -259.683E+06     1.92547E+06
            2009     143.871E-03     1.81440E-03     143.859E-03     196.506E-03    -96.8926E-03    -99.6138E-03    -98.1474E-03     195.040E-03    -96.8926E-03     40.4453E-03     196.689E-03     53.5704E+06    -195.279E+06    -233.740E+06    -253.676E+06     -242.58E+06    -209.480E+06    -230.634E+06     1.04284E+06
            2010     143.927E-03     2.72350E-03     143.901E-03     202.127E-03    -97.7723E-03    -104.355E-03    -101.412E-03     199.184E-03    -97.7723E-03     59.2774E-03     202.451E-03     54.3189E+06    -165.752E+06    -193.099E+06    -226.160E+06    -217.184E+06    -183.220E+06    -184.607E+06     128.376E+03
            2011     144.010E-03     3.62602E-03     143.964E-03     212.841E-03    -99.4338E-03    -113.407E-03    -108.843E-03     208.277E-03    -99.4338E-03     76.4342E-03     213.500E-03     55.0390E+06    -131.736E+06    -150.665E+06    -192.144E+06    -186.572E+06    -151.791E+06    -136.182E+06    -466.262E+03
            2012     144.117E-03     4.52013E-03     144.046E-03     226.533E-03    -102.005E-03    -124.529E-03    -118.307E-03     220.312E-03    -102.005E-03     92.5123E-03     227.686E-03     61.8809E+06    -91.2758E+06    -117.409E+06    -160.577E+06    -155.875E+06    -120.583E+06    -92.8028E+06    -2.90489E+06
            2013     144.246E-03     5.40670E-03     144.145E-03     242.078E-03    -105.262E-03    -136.817E-03    -129.049E-03     234.311E-03    -105.262E-03     107.332E-03     243.985E-03     67.0461E+06    -56.1546E+06    -86.0149E+06    -132.752E+06    -128.987E+06    -89.7793E+06    -56.1546E+06    -2.77234E+06
            2014     144.401E-03     6.28629E-03     144.264E-03     260.056E-03    -109.132E-03    -150.924E-03    -141.966E-03     251.098E-03    -109.132E-03     119.911E-03     263.004E-03     72.6332E+06    -25.4672E+06    -62.4635E+06    -108.976E+06    -108.008E+06     -63.432E+06    -25.4672E+06    -3.68936E+06
            2015     144.585E-03     7.15402E-03     144.408E-03     282.411E-03    -113.726E-03    -168.686E-03    -158.861E-03     272.587E-03    -113.726E-03     131.530E-03     286.709E-03     80.7981E+06     473.952E+03    -33.1494E+06    -91.0442E+06    -89.7219E+06    -34.4717E+06     473.952E+03    -6.10138E+06
            2016     144.802E-03     8.00359E-03     144.580E-03     306.151E-03    -119.049E-03    -187.102E-03    -176.539E-03     295.588E-03    -119.049E-03     142.754E-03     312.192E-03     86.7008E+06     20.4689E+06    -7.69311E+06    -75.6690E+06    -73.5481E+06    -9.81402E+06     20.4689E+06    -10.6280E+06
            2017     145.042E-03     8.83448E-03     144.773E-03     325.274E-03    -124.685E-03    -200.589E-03    -189.115E-03     313.800E-03    -124.685E-03     153.630E-03     333.419E-03     90.1684E+06     36.4596E+06     13.6575E+06    -61.6961E+06    -57.9407E+06     9.90215E+06     36.4596E+06    -14.4828E+06
            2018     145.291E-03     9.67044E-03     144.969E-03     342.235E-03    -130.268E-03    -211.967E-03    -200.112E-03     330.380E-03    -130.268E-03     160.291E-03     353.009E-03     93.5247E+06     52.7369E+06     42.3001E+06    -45.4238E+06    -42.7498E+06     39.6261E+06     52.7369E+06    -12.4396E+06
            2019     145.541E-03     10.4907E-03     145.163E-03     360.394E-03    -135.880E-03    -224.514E-03    -213.306E-03     349.186E-03    -135.880E-03     160.217E-03     374.662E-03     94.9747E+06     64.8863E+06     59.9271E+06    -32.4503E+06    -30.6973E+06     58.1742E+06     64.8863E+06    -12.4243E+06
            2020     145.807E-03     11.2934E-03     145.369E-03     375.756E-03    -141.526E-03    -234.230E-03    -224.011E-03     365.537E-03    -141.526E-03     156.451E-03     395.028E-03     82.4077E+06     62.0174E+06     40.8400E+06    -26.7485E+06    -23.1750E+06     37.2664E+06     62.0174E+06    -13.8435E+06
            2021     146.092E-03     12.0963E-03     145.590E-03     384.191E-03    -146.897E-03    -237.294E-03    -228.218E-03     375.115E-03    -146.897E-03     148.923E-03     409.155E-03     98.0342E+06     85.7688E+06     42.9364E+06    -25.9742E+06    -22.2562E+06     63.2765E+06     61.7108E+06    -14.7850E+06
            2022     146.359E-03     12.8934E-03     145.790E-03     388.187E-03    -151.779E-03    -236.408E-03    -227.262E-03     379.041E-03    -151.779E-03     149.844E-03     422.696E-03     118.322E+06     101.761E+06     72.0567E+06    -27.6156E+06    -23.2762E+06     96.1567E+06      73.322E+06    -20.3748E+06
            2023     146.652E-03     13.7008E-03     146.011E-03     388.493E-03    -156.036E-03    -232.457E-03    -222.977E-03     379.013E-03    -156.036E-03     152.200E-03     437.003E-03     105.935E+06     82.0425E+06     45.6738E+06    -34.2637E+06    -19.0512E+06     34.8427E+06     77.6612E+06    -25.3461E+06
            2024     146.924E-03     14.5039E-03     146.206E-03     382.667E-03    -159.759E-03    -222.908E-03    -215.224E-03     374.983E-03    -159.759E-03     135.044E-03     437.656E-03     152.505E+06     126.965E+06     9.90469E+06    -43.2815E+06    -8.62715E+06    -24.7496E+06     126.965E+06    -18.4950E+06
            2025     145.045E-03     913.562E-06     145.043E-03     182.349E-03    -89.2711E-03    -93.0782E-03    -90.5109E-03     181.933E-03    -91.4220E-03     19.9943E-03     182.572E-03     104.787E+06    -221.538E+06    -319.555E+06    -331.684E+06    -326.369E+06    -224.061E+06    -322.348E+06    -15.1817E+06
            2026     145.079E-03     1.82852E-03     145.067E-03     189.281E-03    -91.9071E-03    -97.3739E-03    -96.1996E-03     188.107E-03    -91.9071E-03     35.3251E-03     189.479E-03     110.693E+06    -192.742E+06    -291.382E+06    -312.219E+06    -304.735E+06    -197.963E+06    -293.644E+06    -23.1022E+06
            2027     145.140E-03     2.73390E-03     145.114E-03     198.702E-03    -94.2788E-03    -104.423E-03    -102.046E-03     196.324E-03    -94.2788E-03     52.7211E-03     199.033E-03     109.019E+06    -163.920E+06    -243.896E+06    -285.385E+06    -276.587E+06    -172.718E+06    -243.896E+06    -30.3319E+06
            2028     145.235E-03     3.63660E-03     145.190E-03     209.314E-03    -96.9888E-03    -112.325E-03    -108.724E-03     205.712E-03    -96.9888E-03     66.8992E-03     209.978E-03     111.298E+06    -127.558E+06    -190.534E+06    -253.136E+06    -239.044E+06    -141.649E+06    -190.534E+06    -38.5571E+06
            2029     145.356E-03     4.53361E-03     145.286E-03     222.569E-03    -100.076E-03    -122.493E-03    -117.538E-03     217.613E-03    -100.076E-03     81.2310E-03     223.809E-03     107.726E+06    -93.2710E+06    -146.352E+06    -215.681E+06    -197.300E+06    -117.515E+06    -140.489E+06    -41.2605E+06
            2030     145.505E-03     5.42074E-03     145.404E-03     240.456E-03    -103.827E-03    -136.628E-03    -130.332E-03     234.159E-03    -103.827E-03     96.0114E-03     242.493E-03     97.9616E+06    -65.9188E+06    -102.014E+06    -176.223E+06    -156.601E+06    -97.1874E+06    -90.3679E+06    -36.6748E+06
            2031     145.682E-03     6.29287E-03     145.546E-03     261.765E-03    -108.389E-03    -153.376E-03    -146.080E-03     254.469E-03    -108.389E-03     108.771E-03     264.858E-03     89.6420E+06    -35.1419E+06    -60.3325E+06    -133.903E+06    -118.073E+06    -66.2366E+06    -45.0678E+06    -29.7325E+06
            2032     145.890E-03     7.15098E-03     145.715E-03     283.629E-03    -113.587E-03    -170.042E-03    -161.428E-03     275.014E-03    -113.587E-03     123.680E-03     288.103E-03     85.0687E+06    -6.03219E+06    -28.8927E+06    -99.5003E+06    -87.0379E+06    -38.1268E+06    -9.26054E+06    -24.3026E+06
            2033     146.138E-03     7.99692E-03     145.919E-03     302.501E-03    -118.991E-03    -183.511E-03    -173.525E-03     292.515E-03    -118.991E-03     137.882E-03     308.608E-03     86.5061E+06     20.3032E+06     3.35005E+06    -73.3431E+06    -64.6299E+06    -5.36320E+06     20.3032E+06    -20.3358E+06
            2034     146.392E-03     8.84546E-03     146.124E-03     319.397E-03    -124.346E-03    -195.051E-03    -184.522E-03     308.868E-03    -124.346E-03     145.451E-03     327.325E-03     88.4770E+06     40.7356E+06     21.2009E+06    -55.5671E+06    -48.6992E+06     14.3329E+06     40.7356E+06    -21.3586E+06
            2035     146.663E-03     9.67819E-03     146.344E-03     338.474E-03    -129.767E-03    -208.706E-03    -198.303E-03     328.070E-03    -129.767E-03     149.127E-03     348.721E-03     90.1273E+06     55.4416E+06     36.1052E+06    -42.2887E+06    -36.2543E+06     30.0708E+06     55.4416E+06    -19.0627E+06
            2036     146.954E-03     10.4965E-03     146.579E-03     358.993E-03    -135.411E-03    -223.581E-03    -213.453E-03     348.865E-03    -135.411E-03     152.200E-03     372.343E-03     96.4230E+06     69.8325E+06     60.5727E+06    -30.6307E+06    -28.4939E+06     59.1582E+06     69.1103E+06    -12.1692E+06
            2037     147.248E-03     11.3025E-03     146.813E-03     375.292E-03    -141.135E-03    -234.157E-03    -224.097E-03     365.232E-03    -141.135E-03     155.297E-03     392.890E-03     87.7187E+06     69.0603E+06     42.6864E+06    -25.5884E+06    -23.2484E+06     41.0686E+06     68.3380E+06    -10.4520E+06
            2038     147.533E-03     12.1013E-03     147.036E-03     384.129E-03    -146.533E-03    -237.596E-03    -228.037E-03     374.570E-03    -146.533E-03     152.924E-03     407.084E-03     97.9942E+06     94.5612E+06     50.6758E+06    -16.5951E+06    -14.1179E+06     68.3664E+06     74.3934E+06    -11.5985E+06
            2039     147.815E-03     12.9067E-03     147.250E-03     387.746E-03    -151.421E-03    -236.325E-03    -227.253E-03     378.673E-03    -151.421E-03     149.214E-03     420.215E-03     112.805E+06     117.784E+06     88.0500E+06    -6.56942E+06    -4.80696E+06     110.837E+06     93.2351E+06    -12.4708E+06
            2040     148.096E-03     13.7080E-03     147.460E-03     387.867E-03    -155.715E-03    -232.152E-03    -223.383E-03     379.098E-03    -155.715E-03     146.066E-03     434.752E-03     103.691E+06     99.4025E+06     52.9121E+06    -14.7950E+06    -4.21373E+06     46.7122E+06     95.0212E+06    -13.5671E+06
            2041     148.378E-03     14.5194E-03     147.666E-03     383.676E-03    -159.522E-03    -224.154E-03    -217.306E-03     376.828E-03    -159.522E-03     127.033E-03     437.078E-03     162.147E+06     126.139E+06     4.04938E+06    -56.7790E+06    -9.19236E+06    -43.5373E+06     126.139E+06    -14.2707E+06
            2042     146.240E-03     917.172E-06     146.237E-03     186.066E-03    -90.2885E-03    -95.7773E-03    -94.0373E-03     185.770E-03    -91.7329E-03     17.2507E-03     186.352E-03     107.256E+06    -181.493E+06    -281.597E+06    -294.227E+06    -289.727E+06    -185.463E+06    -282.128E+06    -19.9099E+06
            2043     146.281E-03     1.82462E-03     146.270E-03     195.078E-03    -94.3542E-03    -100.724E-03    -100.128E-03     194.482E-03    -94.3542E-03     24.3477E-03     195.359E-03     128.367E+06    -150.026E+06    -257.863E+06    -290.954E+06    -279.077E+06    -161.903E+06    -257.863E+06    -37.3101E+06
            2044     146.359E-03     2.72812E-03     146.333E-03     204.876E-03    -97.4071E-03    -107.469E-03    -106.226E-03     203.633E-03    -97.4071E-03     37.6301E-03     205.354E-03     143.571E+06    -117.266E+06    -225.163E+06    -279.554E+06    -257.162E+06    -139.658E+06    -225.163E+06    -53.8247E+06
            2045     146.461E-03     3.62242E-03     146.416E-03     215.130E-03    -100.522E-03    -114.608E-03    -112.656E-03     213.178E-03    -100.522E-03     49.4405E-03     215.942E-03     156.590E+06    -83.4753E+06    -187.253E+06    -263.155E+06    -232.477E+06    -114.154E+06    -187.253E+06    -65.9607E+06
            2046     146.592E-03     4.51366E-03     146.522E-03     227.964E-03    -103.898E-03    -124.066E-03    -121.291E-03     225.189E-03    -103.898E-03     61.2211E-03     229.391E-03     159.187E+06    -63.6742E+06    -150.959E+06    -246.986E+06    -208.290E+06    -102.370E+06    -150.959E+06    -73.8465E+06
            2047     146.760E-03     5.39732E-03     146.661E-03     244.799E-03    -107.841E-03    -136.958E-03    -133.198E-03     241.040E-03    -107.841E-03     74.2540E-03     247.071E-03     154.197E+06    -49.3842E+06    -114.094E+06    -224.610E+06    -178.198E+06    -95.7953E+06    -114.094E+06    -76.4780E+06
            2048     146.964E-03     6.26897E-03     146.830E-03     263.991E-03    -112.401E-03    -151.589E-03    -146.694E-03     259.095E-03    -112.401E-03     88.6717E-03     267.218E-03     144.503E+06    -30.1686E+06    -77.1596E+06    -191.409E+06    -145.180E+06    -76.3982E+06    -77.1596E+06    -72.5667E+06
            2049     147.199E-03     7.12639E-03     147.026E-03     281.766E-03    -117.289E-03    -164.476E-03    -158.157E-03     275.446E-03    -117.289E-03     104.130E-03     286.131E-03     132.650E+06    -3.29758E+06    -44.2491E+06    -151.129E+06    -110.535E+06    -49.3707E+06    -38.7694E+06    -63.8558E+06
            2050     147.455E-03     7.98380E-03     147.239E-03     297.912E-03    -122.215E-03    -175.697E-03    -168.312E-03     290.527E-03    -122.215E-03     115.773E-03     303.714E-03     118.180E+06     18.6247E+06    -6.45948E+06    -109.372E+06    -76.1286E+06    -23.4364E+06     2.35804E+06    -51.3078E+06
            2051     147.737E-03     8.82387E-03     147.473E-03     315.630E-03    -127.198E-03    -188.432E-03    -180.830E-03     308.028E-03    -127.198E-03     121.833E-03     323.125E-03     102.279E+06     39.9118E+06     24.1324E+06    -68.7235E+06    -48.5586E+06     5.53770E+06     38.3416E+06    -36.1925E+06
            2052     148.033E-03     9.65223E-03     147.718E-03     334.122E-03    -132.337E-03    -201.785E-03    -193.855E-03     326.192E-03    -132.337E-03     129.052E-03     343.712E-03     93.9055E+06     61.3558E+06     30.8909E+06    -42.5453E+06    -30.0099E+06     18.3555E+06     61.3558E+06    -25.8617E+06
            2053     148.347E-03     10.4743E-03     147.976E-03     349.502E-03    -137.447E-03    -212.055E-03    -203.537E-03     340.984E-03    -137.447E-03     137.103E-03     361.696E-03     92.3335E+06     79.2147E+06     48.8076E+06    -22.1163E+06    -15.1542E+06     42.5678E+06     78.4924E+06    -15.3859E+06
            2054     148.665E-03     11.2929E-03     148.236E-03     362.793E-03    -142.363E-03    -220.430E-03    -211.627E-03     353.990E-03    -142.363E-03     142.068E-03     378.445E-03     84.8032E+06     83.9761E+06     46.3497E+06    -9.63724E+06    -2.20424E+06     39.6389E+06     83.2539E+06    -4.19117E+06
            2055     148.973E-03     12.1055E-03     148.480E-03     375.104E-03    -147.092E-03    -228.012E-03    -219.454E-03     366.546E-03    -147.092E-03     142.492E-03     395.322E-03     104.957E+06     109.408E+06     66.3895E+06    -7.74953E+06    -76.4595E+03     74.9221E+06     93.2023E+06    -1.44094E+06
            2056     149.264E-03     12.9033E-03     148.706E-03     383.630E-03    -151.650E-03    -231.981E-03    -224.100E-03     375.749E-03    -151.650E-03     138.315E-03     411.123E-03     120.940E+06     123.682E+06     97.4084E+06    -8.06799E+06    -7.14941E+06     112.696E+06     107.477E+06    -1.50189E+06
            2057     149.543E-03     13.7067E-03     148.914E-03     386.194E-03    -155.843E-03    -230.351E-03    -222.967E-03     378.809E-03    -155.843E-03     134.122E-03     427.651E-03     104.132E+06     104.195E+06     58.2811E+06    -10.2758E+06    -8.63903E+06     56.6443E+06     104.195E+06    -3.51511E+06
            2058     149.822E-03     14.5069E-03     149.118E-03     380.371E-03    -159.533E-03    -220.838E-03    -215.023E-03     374.556E-03    -159.533E-03     116.871E-03     430.805E-03     162.793E+06     122.334E+06     18.8795E+06    -62.2707E+06    -398.562E+03    -42.9926E+06     122.334E+06    -6.37231E+06
            2059     147.451E-03     903.351E-06     147.448E-03     211.301E-03    -104.037E-03    -107.264E-03    -107.175E-03     211.229E-03    -104.054E-03     8.13615E-03     211.772E-03     56.2131E+06    -133.866E+06    -180.580E+06    -195.021E+06    -187.942E+06    -140.945E+06    -180.580E+06    -16.7911E+06
            2060     147.505E-03     1.80161E-03     147.494E-03     217.420E-03    -106.875E-03    -110.545E-03    -110.411E-03     217.286E-03    -106.875E-03     10.4557E-03     217.878E-03     90.1076E+06    -91.7619E+06    -157.589E+06    -193.892E+06    -176.068E+06    -109.586E+06    -157.589E+06    -36.4822E+06
            2061     147.588E-03     2.69484E-03     147.563E-03     224.547E-03    -109.201E-03    -115.346E-03    -115.005E-03     224.206E-03    -109.201E-03     17.0316E-03     225.379E-03     120.581E+06    -58.6628E+06    -138.515E+06    -196.809E+06    -164.320E+06    -91.1520E+06    -138.515E+06    -57.9652E+06
            2062     147.701E-03     3.58874E-03     147.657E-03     234.235E-03    -111.974E-03    -122.261E-03    -121.624E-03     233.598E-03    -111.974E-03     22.0093E-03     235.543E-03     133.979E+06    -41.3078E+06    -116.787E+06    -195.300E+06    -153.317E+06    -83.2904E+06    -116.787E+06    -68.0039E+06
            2063     147.846E-03     4.47014E-03     147.778E-03     246.144E-03    -115.346E-03    -130.798E-03    -129.830E-03     245.176E-03    -115.346E-03     28.0333E-03     248.109E-03     143.192E+06    -24.3388E+06    -92.1027E+06    -188.562E+06    -141.449E+06    -71.4525E+06    -92.1027E+06    -73.7972E+06
            2064     148.027E-03     5.34081E-03     147.931E-03     258.524E-03    -119.129E-03    -139.395E-03    -138.049E-03     257.178E-03    -119.129E-03     37.4710E-03     261.483E-03     155.658E+06    -13.1934E+06    -78.0187E+06    -190.531E+06    -132.196E+06    -71.5282E+06    -78.0187E+06    -82.8163E+06
            2065     148.247E-03     6.20441E-03     148.117E-03     270.026E-03    -123.051E-03    -146.975E-03    -145.110E-03     268.161E-03    -123.051E-03     47.3240E-03     273.895E-03     164.777E+06    -1.00799E+06    -64.2702E+06    -187.896E+06    -121.782E+06    -67.1221E+06    -64.2702E+06    -88.8724E+06
            2066     148.495E-03     7.06712E-03     148.327E-03     281.622E-03    -126.980E-03    -154.642E-03    -152.263E-03     279.244E-03    -126.980E-03     56.2389E-03     286.365E-03     167.183E+06     14.0635E+06    -42.8403E+06    -173.992E+06    -107.765E+06    -52.1628E+06    -42.8403E+06    -88.9373E+06
            2067     148.768E-03     7.91384E-03     148.558E-03     294.511E-03    -130.951E-03    -163.560E-03    -160.680E-03     291.631E-03    -130.951E-03     66.6599E-03     300.408E-03     155.659E+06     17.5910E+06    -17.6353E+06    -151.961E+06    -91.4999E+06    -42.8698E+06    -17.6353E+06    -80.4916E+06
            2068     149.070E-03     8.75757E-03     148.813E-03     308.176E-03    -134.948E-03    -173.228E-03    -169.587E-03     304.536E-03    -134.948E-03     79.8689E-03     315.549E-03     139.365E+06     28.6748E+06     9.08861E+06    -119.203E+06    -71.9375E+06    -21.5948E+06     12.0931E+06    -66.5136E+06
            2069     149.390E-03     9.59493E-03     149.081E-03     321.869E-03    -138.903E-03    -182.966E-03    -178.306E-03     317.210E-03    -138.903E-03     94.3575E-03     330.980E-03     122.743E+06     48.3438E+06     23.8739E+06    -82.6564E+06    -48.5592E+06    -3.75395E+06     41.8745E+06    -50.5506E+06
            2070     149.720E-03     10.4242E-03     149.357E-03     334.473E-03    -142.737E-03    -191.737E-03    -186.130E-03     328.867E-03    -142.737E-03     106.707E-03     345.784E-03     108.734E+06     70.3920E+06     35.6017E+06    -48.9824E+06    -26.7383E+06     13.3576E+06     70.3920E+06    -35.7362E+06
            2071     150.050E-03     11.2513E-03     149.627E-03     345.912E-03    -146.408E-03    -199.504E-03    -193.377E-03     339.785E-03    -146.408E-03     114.172E-03     360.240E-03     102.468E+06     88.4047E+06     34.2798E+06    -28.0124E+06    -8.43530E+06     14.7026E+06     88.4047E+06    -19.2425E+06
            2072     150.385E-03     12.0722E-03     149.900E-03     356.769E-03    -149.925E-03    -206.844E-03    -200.529E-03     350.455E-03    -149.925E-03     118.180E-03     374.935E-03     108.511E+06     114.647E+06     60.7753E+06    -7.74803E+06     7.66860E+06     52.6065E+06     107.399E+06     4.17709E+06
            2073     150.700E-03     12.8925E-03     150.148E-03     368.295E-03    -153.384E-03    -214.911E-03    -208.514E-03     361.898E-03    -153.384E-03     121.285E-03     391.459E-03     131.477E+06     135.989E+06     106.879E+06    -6.32563E+06     12.8703E+06     99.6162E+06     124.056E+06     29.3425E+06
            2074     150.994E-03     13.6965E-03     150.371E-03     375.556E-03    -156.777E-03    -218.780E-03    -212.386E-03     369.163E-03    -156.777E-03     122.484E-03     410.493E-03     142.855E+06     133.579E+06     107.367E+06    -18.2468E+06     385.038E+03     93.4205E+06     128.894E+06     23.7854E+06
            2075     151.263E-03     14.5091E-03     150.566E-03     371.395E-03    -159.858E-03    -211.537E-03    -206.386E-03     366.244E-03    -159.858E-03     108.226E-03     417.546E-03     183.876E+06     124.955E+06     47.7164E+06    -80.5254E+06    -9.74950E+06    -23.0595E+06     124.955E+06    -2.75778E+06
            2076     148.708E-03     880.029E-06     148.705E-03     258.416E-03    -128.570E-03    -129.845E-03    -128.835E-03     258.367E-03    -129.532E-03    -3.86514E-03     259.563E-03     38.9014E+06    -69.2105E+06    -86.5238E+06    -112.490E+06    -89.5090E+06    -92.1919E+06    -86.5238E+06    -17.7338E+06
            2077     148.765E-03     1.76233E-03     148.754E-03     260.429E-03    -129.064E-03    -131.365E-03    -130.252E-03     260.260E-03    -130.009E-03    -8.35584E-03     261.463E-03     62.7572E+06    -36.1466E+06    -72.4290E+06    -107.957E+06    -82.3398E+06    -61.7633E+06    -72.4290E+06    -33.0938E+06
            2078     148.852E-03     2.64338E-03     148.828E-03     267.165E-03    -131.806E-03    -135.360E-03    -134.844E-03     266.650E-03    -131.806E-03    -17.9831E-03     268.542E-03     87.3142E+06    -12.2464E+06    -55.4519E+06    -111.014E+06    -78.6057E+06    -44.6548E+06    -55.4519E+06    -45.6447E+06
            2079     148.974E-03     3.51089E-03     148.933E-03     273.963E-03    -134.494E-03    -139.468E-03    -138.597E-03     273.091E-03    -134.494E-03    -26.2840E-03     276.031E-03     108.817E+06    -250.957E+03    -37.4921E+06    -121.472E+06    -73.4757E+06    -48.2469E+06    -37.4921E+06    -58.2234E+06
            2080     149.129E-03     4.37482E-03     149.065E-03     280.553E-03    -137.131E-03    -143.423E-03    -141.980E-03     279.414E-03    -137.434E-03    -30.1890E-03     283.335E-03     117.215E+06     8.14649E+06    -24.6134E+06    -120.892E+06    -65.8059E+06    -46.9400E+06    -24.6134E+06    -61.9980E+06
            2081     149.319E-03     5.23418E-03     149.227E-03     286.008E-03    -138.591E-03    -147.417E-03    -144.181E-03     284.592E-03    -140.411E-03    -29.1160E-03     289.716E-03     121.606E+06     17.3397E+06    -12.1188E+06    -115.444E+06    -59.5726E+06    -38.5322E+06    -12.1188E+06    -64.3392E+06
            2082     149.543E-03     6.08925E-03     149.419E-03     289.859E-03    -139.283E-03    -150.577E-03    -145.153E-03     288.374E-03    -143.221E-03    -25.7705E-03     294.825E-03     134.322E+06     26.7078E+06    -2.67268E+06    -118.752E+06    -56.0230E+06    -36.0208E+06    -2.67268E+06    -71.7548E+06
            2083     149.794E-03     6.93674E-03     149.633E-03     293.444E-03    -139.495E-03    -153.949E-03    -146.270E-03     292.069E-03    -145.799E-03    -19.8329E-03     299.677E-03     138.882E+06     27.5030E+06    -1.30808E+06    -122.611E+06    -57.4859E+06    -41.0790E+06     2.14912E+06    -72.5937E+06
            2084     150.080E-03     7.78741E-03     149.878E-03     297.063E-03    -139.271E-03    -157.792E-03    -147.521E-03     295.673E-03    -148.152E-03    -10.3086E-03     304.589E-03     136.699E+06     25.7884E+06     1.22164E+06    -121.208E+06    -62.5542E+06    -38.4721E+06     6.82878E+06    -69.4565E+06
            2085     150.384E-03     8.63376E-03     150.136E-03     300.541E-03    -139.085E-03    -161.456E-03    -148.792E-03     299.054E-03    -150.262E-03     3.08577E-03     309.687E-03     139.803E+06     31.7688E+06     11.1691E+06    -117.009E+06    -63.2198E+06    -27.6088E+06     16.7573E+06    -69.2925E+06
            2086     150.718E-03     9.47887E-03     150.420E-03     304.279E-03    -138.983E-03    -165.296E-03    -150.485E-03     302.593E-03    -152.108E-03     17.9353E-03     315.313E-03     136.081E+06     34.7001E+06     19.1759E+06    -108.333E+06    -61.8112E+06    -20.8768E+06     28.2308E+06    -63.6436E+06
            2087     151.059E-03     10.3266E-03     150.705E-03     309.849E-03    -139.808E-03    -170.041E-03    -154.124E-03     307.870E-03    -153.746E-03     34.5980E-03     323.087E-03     128.622E+06     45.1559E+06     23.9294E+06    -92.3156E+06    -59.6803E+06    -8.70582E+06     45.1559E+06    -51.8435E+06
            2088     151.415E-03     11.1641E-03     151.003E-03     316.679E-03    -142.239E-03    -174.440E-03    -159.132E-03     314.332E-03    -155.201E-03     53.3925E-03     332.592E-03     125.461E+06     57.5228E+06     17.8314E+06    -80.5840E+06    -53.8764E+06    -8.87614E+06     57.5228E+06    -43.3254E+06
            2089     151.754E-03     12.0015E-03     151.278E-03     324.761E-03    -147.591E-03    -177.171E-03    -165.151E-03     321.636E-03    -156.485E-03     73.6637E-03     343.654E-03     123.261E+06     70.1219E+06     25.7063E+06    -66.3271E+06    -38.0024E+06    -2.61845E+06     70.1219E+06    -30.7314E+06
            2090     152.093E-03     12.8357E-03     151.551E-03     335.277E-03    -154.049E-03    -181.228E-03    -173.129E-03     330.895E-03    -157.766E-03     93.5832E-03     357.949E-03     134.133E+06     105.287E+06     48.2812E+06    -39.3806E+06    -8.88765E+06     22.4731E+06     100.602E+06     10.5773E+06
            2091     152.414E-03     13.6718E-03     151.800E-03     345.219E-03    -158.327E-03    -186.891E-03    -180.612E-03     339.732E-03    -159.120E-03     107.240E-03     375.947E-03     164.104E+06     171.519E+06     121.146E+06    -1.89375E+06     19.7779E+06     116.453E+06     154.541E+06     42.7381E+06
            2092     152.685E-03     14.4969E-03     151.995E-03     351.645E-03    -160.528E-03    -191.117E-03    -186.230E-03     346.759E-03    -160.528E-03     101.604E-03     393.859E-03     207.472E+06     159.757E+06     105.306E+06    -64.2913E+06     27.0014E+06     30.6084E+06     143.162E+06     24.7526E+06
            2093     150.027E-03     850.388E-06     150.025E-03     339.778E-03    -168.798E-03    -170.980E-03    -169.205E-03     338.947E-03    -169.742E-03    -34.9432E-03     343.917E-03     76.8190E+06     29.2468E+06     22.6368E+06    -50.0151E+06     21.1012E+06    -42.2476E+06     23.0148E+06    -17.0690E+06
            2094     150.097E-03     1.70481E-03     150.087E-03     339.062E-03    -167.642E-03    -171.421E-03    -166.603E-03     337.072E-03    -170.469E-03    -55.6774E-03     342.208E-03     77.5743E+06     38.3194E+06     24.1897E+06    -44.1281E+06     18.1418E+06    -25.7472E+06     25.9865E+06    -24.6227E+06
            2095     150.191E-03     2.54312E-03     150.170E-03     339.507E-03    -166.689E-03    -172.818E-03    -164.800E-03     336.014E-03    -171.214E-03    -78.5300E-03     342.834E-03     76.6776E+06     43.1540E+06     28.7648E+06    -39.0102E+06     15.3027E+06    -15.4179E+06     33.0239E+06    -27.1795E+06
            2096     150.316E-03     3.38432E-03     150.278E-03     340.495E-03    -167.015E-03    -173.479E-03    -163.269E-03     335.643E-03    -172.373E-03    -94.3807E-03     344.148E-03     84.4418E+06     52.6940E+06     32.0962E+06    -39.1010E+06     12.6012E+06    -12.5970E+06     45.6849E+06    -31.1629E+06
            2097     150.468E-03     4.22257E-03     150.409E-03     341.797E-03    -167.654E-03    -174.143E-03    -161.490E-03     335.361E-03    -173.871E-03    -108.352E-03     346.179E-03     100.986E+06     59.0563E+06     26.3031E+06    -52.1392E+06     5.73280E+06    -24.9800E+06     52.4673E+06    -35.0299E+06
            2098     150.657E-03     5.05755E-03     150.572E-03     339.817E-03    -164.509E-03    -175.308E-03    -156.122E-03     331.430E-03    -175.308E-03    -121.938E-03     344.989E-03     102.336E+06     63.0454E+06     28.3522E+06    -49.2365E+06     577.716E+03    -16.5681E+06     58.1515E+06    -36.9318E+06
            2099     150.870E-03     5.89383E-03     150.755E-03     334.608E-03    -158.273E-03    -176.335E-03    -148.598E-03     324.933E-03    -176.335E-03    -127.713E-03     341.319E-03     106.030E+06     67.1382E+06     28.1082E+06    -46.4711E+06    -6.54389E+06    -8.63567E+06     63.9549E+06    -38.2570E+06
            2100     151.120E-03     6.73353E-03     150.970E-03     328.637E-03    -151.700E-03    -176.938E-03    -141.157E-03     318.095E-03    -176.938E-03    -128.506E-03     337.527E-03     112.996E+06     63.7578E+06     17.1248E+06    -57.5246E+06    -16.4442E+06    -23.2621E+06     63.0643E+06    -36.4108E+06
            2101     151.389E-03     7.57149E-03     151.200E-03     321.154E-03    -144.040E-03    -177.114E-03    -133.111E-03     310.225E-03    -177.114E-03    -125.811E-03     332.432E-03     114.996E+06     63.1312E+06     16.4426E+06    -62.1490E+06    -23.4953E+06    -22.2110E+06     63.1312E+06    -37.9653E+06
            2102     151.693E-03     8.41402E-03     151.460E-03     312.304E-03    -135.467E-03    -176.837E-03    -124.820E-03     301.657E-03    -176.837E-03    -117.656E-03     326.458E-03     117.378E+06     65.3540E+06     18.7451E+06    -62.0377E+06    -29.9853E+06    -13.3073E+06     65.3540E+06    -39.3256E+06
            2103     152.011E-03     9.26248E-03     151.728E-03     302.698E-03    -126.631E-03    -176.067E-03    -116.892E-03     292.960E-03    -176.067E-03    -105.104E-03     320.325E-03     117.491E+06     63.1137E+06     13.3230E+06    -65.0180E+06    -37.7196E+06    -13.9754E+06     63.1137E+06    -37.2931E+06
            2104     152.355E-03     10.1131E-03     152.019E-03     292.126E-03    -117.402E-03    -174.724E-03    -109.218E-03     283.942E-03    -174.724E-03    -86.1827E-03     313.806E-03     113.062E+06     58.5904E+06     9.05764E+06     -66.053E+06    -43.8294E+06    -13.1660E+06     58.5904E+06    -33.9264E+06
            2105     152.706E-03     10.9804E-03     152.310E-03     283.269E-03    -110.471E-03    -172.798E-03    -103.894E-03     276.692E-03    -172.798E-03    -61.5849E-03     309.396E-03     107.868E+06     52.6592E+06     11.7661E+06    -66.3496E+06    -48.3202E+06    -6.26330E+06     52.6592E+06    -32.0436E+06
            2106     153.065E-03     11.8567E-03     152.605E-03     280.239E-03    -109.669E-03    -170.570E-03    -104.203E-03     274.773E-03    -170.570E-03    -33.5407E-03     310.867E-03     112.467E+06     47.4744E+06      8.0119E+06    -76.3076E+06    -56.1032E+06    -12.1925E+06     47.4744E+06    -33.2123E+06
            2107     153.419E-03     12.7338E-03     152.890E-03     279.912E-03    -111.652E-03    -168.259E-03    -106.942E-03     275.201E-03    -168.259E-03    -3.87400E-03     316.375E-03     120.405E+06     46.0357E+06    -14.7012E+06    -84.5893E+06    -55.8524E+06    -43.4380E+06     46.0357E+06    -26.5464E+06
            2108     153.758E-03     13.6111E-03     153.154E-03     284.301E-03    -115.851E-03    -168.449E-03    -114.420E-03     280.429E-03    -166.009E-03     25.8924E-03     329.342E-03     153.685E+06     114.728E+06     56.4014E+06    -51.4337E+06    -27.8119E+06     53.1666E+06     94.3409E+06    -5.33277E+06
            2109     154.069E-03     14.4891E-03     153.386E-03     288.887E-03    -116.506E-03    -172.381E-03    -122.142E-03     286.011E-03    -163.869E-03     43.3720E-03     345.202E-03     181.154E+06     131.598E+06     93.8076E+06    -64.4149E+06     2.33220E+06     51.7491E+06     106.910E+06     23.4425E+06


