********************************************************************************
Field Output Report, written Tue May  6 10:14:55 2025

Source 1
---------

   ODB: D:/AISI_1020/Vel_20/1020_2a_32_rd_250_cal_0_v_20_f_050.odb
   Step: Step-1
   Frame: Increment   4163694: Step Time =   0.5260

Loc 1 : Nodal values from source 1

Output sorted by column "Node Label".

Field Output reported at nodes for region: DIE_2A_32_D0_36-1.Region_1
   Computation algorithm: EXTRAPOLATE_COMPUTE_AVERAGE
   Averaged at nodes
   Averaging regions: ODB_REGIONS

      Node Label     COORD.COOR1     COORD.COOR2
                          @Loc 1          @Loc 1
-------------------------------------------------
               1     22.3874E-03     170.266E-03


Field Output reported at nodes for region: DIE_2A_32_D0_36-1.Region_2
   Computation algorithm: EXTRAPOLATE_COMPUTE_AVERAGE
   Averaged at nodes
   Averaging regions: ODB_REGIONS

      Node Label     COORD.COOR1     COORD.COOR2
                          @Loc 1          @Loc 1
-------------------------------------------------
               1     22.3874E-03     170.266E-03


Field Output reported at nodes for part: WIRE_1-1
   Computation algorithm: EXTRAPOLATE_COMPUTE_AVERAGE
   Averaged at nodes
   Averaging regions: ODB_REGIONS

      Node Label     COORD.COOR1     COORD.COOR2    ER.Max. Prin    ER.Mid. Prin    ER.Min. Prin         ER.ER11         ER.ER22         ER.ER33         ER.ER12    PE.Max. Prin    PE.Mid. Prin    PE.Min. Prin         PE.PE11         PE.PE22         PE.PE33         PE.PE12     S.Max. Prin     S.Mid. Prin     S.Min. Prin           S.S11           S.S22           S.S33           S.S12            TEMP
                          @Loc 1          @Loc 1          @Loc 1          @Loc 1          @Loc 1          @Loc 1          @Loc 1          @Loc 1          @Loc 1          @Loc 1          @Loc 1          @Loc 1          @Loc 1          @Loc 1          @Loc 1          @Loc 1          @Loc 1          @Loc 1          @Loc 1          @Loc 1          @Loc 1          @Loc 1          @Loc 1          @Loc 1
-----------------------------------------------------------------------------------------------------------------------------------------------------------------------------------------------------------------------------------------------------------------------------------------------------------------------------------------------------------------------------------------------------------------
               1     17.5322E-03     58.9688E-03         1.03462     297.933E-03        -2.90879         1.03412        -2.90828     297.933E-03     87.5977E-03     190.580E-03    -27.2579E-03    -163.360E-03    -40.9611E-03     68.1815E-03    -27.2579E-03     336.691E-03     205.376E+06     175.313E+06    -7.11956E+06    -7.09778E+06     205.355E+06     175.313E+06    -749.814E+03         60.4142
               2     676.966E-09     57.7941E-03         3.57192     515.626E-03        -5.74702    -631.359E-03        -1.54373     515.626E-03        -9.26901     54.5684E-03    -27.0956E-03    -27.4728E-03    -27.4537E-03     54.5681E-03    -27.1144E-03     262.903E-06    -20.5164E+06    -25.5786E+06    -165.757E+06    -23.2573E+06    -165.724E+06    -22.8707E+06     396.008E+03         23.8031
               3     315.468E-09     33.5276E-09     58.1563E-03    -9.80822E-03        -2.43615     58.1080E-03        -2.43610    -9.80822E-03    -21.9407E-03     95.8845E-03    -47.6770E-03    -48.2074E-03    -48.2066E-03     95.8837E-03    -47.6770E-03    -690.962E-06    -62.6667E+06    -64.1351E+06    -191.816E+06    -64.2552E+06    -191.696E+06    -62.6667E+06    -3.91267E+06         27.7694
               4     17.4239E-03     33.5276E-09         1.59103     580.277E-03        -4.62658         1.59103        -4.62658     580.277E-03     5.67174E-03     182.531E-03    -30.2879E-03    -152.543E-03    -139.079E-03     169.067E-03    -30.2879E-03     131.607E-03     173.471E+06     137.574E+06     1.02570E+06     1.17863E+06     173.318E+06     137.574E+06     5.13294E+06         45.2338
               5     17.0695E-03     117.164E-03     77.5012E-03    -15.9962E-03    -106.820E-03    -16.1686E-03    -106.648E-03     77.5012E-03     7.90823E-03     21.7704E-03     19.0251E-03    -40.7958E-03     20.2222E-03     20.5734E-03    -40.7958E-03     2.72277E-03     35.2369E+06    -28.7181E+06    -125.055E+06     29.3328E+06    -22.8139E+06    -125.055E+06     18.5133E+06         39.0099
               6     17.1260E-06     115.209E-03     478.133E-03     280.654E-03    -384.597E-03     475.689E-03    -382.153E-03     280.654E-03    -91.7031E-03     37.4151E-03    -15.7320E-03    -21.6843E-03    -21.5192E-03     37.2500E-03    -15.7320E-03    -6.23884E-03     51.9714E+06     21.9845E+06    -13.9295E+06     12.6336E+06    -4.57865E+06     51.9714E+06    -15.7604E+06         22.0776
               7     16.5637E-03     58.5906E-03     988.823E-03     298.654E-03        -2.87832     988.554E-03        -2.87805     298.654E-03     44.8766E-03     215.676E-03    -27.1544E-03    -188.583E-03    -49.0647E-03     76.1575E-03    -27.1544E-03     384.370E-03     194.945E+06     152.819E+06    -10.5393E+06    -10.5267E+06     194.932E+06     152.819E+06    -785.291E+03         58.6552
               8     15.5856E-03     58.1128E-03     908.004E-03     296.519E-03        -2.81426     907.950E-03        -2.81420     296.519E-03     17.9407E-03     167.829E-03    -26.8667E-03    -141.021E-03    -42.9942E-03     69.8017E-03    -26.8667E-03     285.850E-03     159.747E+06     86.5581E+06    -17.6188E+06    -17.6063E+06     159.734E+06     86.5581E+06    -178.392E+03         54.3479
               9     14.6116E-03     57.9620E-03     825.784E-03     280.617E-03        -2.72521     825.722E-03        -2.72515     280.617E-03     28.9979E-03     75.2174E-03    -26.5086E-03    -48.7436E-03    -27.2079E-03     53.6818E-03    -26.5086E-03     87.0423E-03     112.744E+06     10.2712E+06    -30.1861E+06    -21.6948E+06     112.675E+06     1.84853E+06     1.28226E+06         49.0122
              10     13.6355E-03     57.9259E-03     730.189E-03     252.427E-03        -2.60671     730.013E-03        -2.60653     252.427E-03     43.5417E-03     54.9275E-03    -26.3175E-03    -28.6306E-03    -25.6725E-03     51.9694E-03    -26.3175E-03     30.6714E-03     66.3081E+06    -21.3489E+06    -49.2409E+06    -21.2551E+06     66.2143E+06    -49.2409E+06     1.10962E+06         43.6758
              11     12.6602E-03     57.8953E-03     641.530E-03     222.601E-03        -2.49189     641.250E-03        -2.49161     222.601E-03     6.75169E-03     53.8745E-03    -26.3914E-03    -27.4720E-03    -25.9049E-03     52.3074E-03    -26.3914E-03     21.7844E-03     12.6278E+06    -22.9676E+06    -53.1654E+06    -18.8596E+06     8.51971E+06    -53.1654E+06    -430.603E+03         38.9015
              12     11.6869E-03     57.8777E-03     563.204E-03     193.557E-03        -2.38848     562.152E-03        -2.38742     193.557E-03     47.9460E-03     53.2889E-03    -26.4890E-03    -26.8104E-03    -26.0322E-03     52.5718E-03    -26.5502E-03     14.9881E-03    -15.8314E+06    -31.6792E+06    -59.6160E+06    -16.1378E+06    -48.5813E+06    -42.4076E+06    -562.270E+03         34.7850
              13     10.7114E-03     57.8631E-03     487.197E-03     165.506E-03        -2.28546     486.176E-03        -2.28444     165.506E-03     51.0504E-03     53.2999E-03    -26.5825E-03    -26.7386E-03    -26.0650E-03     52.7476E-03    -26.7038E-03     13.2330E-03    -13.0577E+06    -28.5326E+06    -85.6997E+06    -13.1221E+06    -85.6353E+06    -28.5326E+06    -46.0654E+03         31.4673
              14     9.73725E-03     57.8487E-03     414.801E-03     138.926E-03        -2.19002     413.232E-03        -2.18845     138.926E-03     64.5333E-03     53.5177E-03    -26.6527E-03    -26.8566E-03    -26.2087E-03     53.0738E-03    -26.8566E-03     11.8226E-03    -10.8666E+06    -16.8363E+06    -113.748E+06    -12.1691E+06    -113.723E+06    -15.5592E+06     1.09118E+06         29.0647
              15     8.76248E-03     57.8367E-03     336.610E-03     114.552E-03        -2.09294     334.008E-03        -2.09034     114.552E-03     14.9143E-03     53.6192E-03    -26.6573E-03    -26.9544E-03    -26.3513E-03     53.3132E-03    -26.9544E-03     9.86809E-03    -12.5973E+06    -15.6010E+06    -138.619E+06    -14.2008E+06    -138.563E+06    -14.0532E+06     1.43686E+06         27.3490
              16     7.78865E-03     57.8268E-03     270.932E-03     92.8455E-03        -2.01040     266.561E-03        -2.00603     92.8455E-03     43.0745E-03     53.7726E-03    -26.7237E-03    -27.0445E-03    -26.4987E-03     53.5476E-03    -27.0445E-03     8.45095E-03    -11.9000E+06    -16.7005E+06    -158.598E+06    -16.0448E+06    -158.547E+06    -12.6067E+06     1.13770E+06         26.0402
              17     6.81467E-03     57.8180E-03     225.546E-03     72.7357E-03        -1.95000     218.464E-03        -1.94292     72.7357E-03    -10.2156E-03     53.8686E-03    -26.7378E-03    -27.1275E-03    -26.5833E-03     53.7141E-03    -27.1275E-03     7.01620E-03    -10.5822E+06    -16.1194E+06    -170.806E+06    -16.0328E+06    -170.783E+06    -10.6917E+06     1.32032E+06         25.0863
              18     5.84067E-03     57.8118E-03     176.515E-03     54.6692E-03        -1.88405     157.948E-03        -1.86548     54.6692E-03     114.605E-03     54.0305E-03    -26.8502E-03    -27.1790E-03    -26.7467E-03     53.9270E-03    -27.1790E-03     5.73433E-03    -13.2187E+06    -15.1936E+06    -174.237E+06    -15.0919E+06    -174.229E+06    -13.3282E+06     830.779E+03         24.5097
              19     4.86667E-03     57.8056E-03     155.400E-03     40.4165E-03        -1.84864     104.208E-03        -1.79744     40.4165E-03    -135.536E-03     54.3972E-03    -27.0535E-03    -27.3445E-03    -27.1292E-03     54.3412E-03    -27.2128E-03     4.14171E-03    -13.9402E+06    -14.7745E+06    -175.412E+06    -14.7850E+06    -175.402E+06    -13.9402E+06     751.934E+03         24.2291
              20     3.89382E-03     57.8023E-03     217.545E-03     29.9407E-03        -1.90282     66.9668E-03        -1.75224     29.9407E-03     298.373E-03     54.4432E-03    -27.0846E-03    -27.3610E-03    -27.1834E-03     54.4103E-03    -27.2293E-03     3.26619E-03    -12.2312E+06    -15.2197E+06    -175.754E+06    -15.2335E+06    -175.740E+06    -12.2312E+06     1.19452E+06         24.0632
              21     2.92007E-03     57.7995E-03     405.625E-03     20.3886E-03        -2.08313     52.4604E-03        -1.72997     20.3886E-03    -366.296E-03     54.3027E-03    -27.0359E-03    -27.2677E-03    -27.0071E-03     54.2739E-03    -27.2677E-03     3.04344E-03    -12.3876E+06    -17.1388E+06    -175.415E+06    -17.1639E+06    -175.390E+06    -12.3876E+06     1.81352E+06         23.9321
              22     1.94630E-03     57.7964E-03     918.816E-03    -408.269E-06        -2.57551     62.8129E-03        -1.71951    -408.269E-06     884.760E-03     54.4878E-03    -27.1715E-03    -27.3167E-03    -27.1546E-03     54.4709E-03    -27.3167E-03     2.30365E-03    -14.7474E+06    -19.4671E+06    -171.425E+06    -19.5024E+06    -171.390E+06    -14.7474E+06     357.174E+03         23.8497
              23     973.256E-06     57.7960E-03         2.43677     249.784E-03        -4.34455    -281.827E-03        -1.62596     249.784E-03        -2.71047     54.6160E-03    -27.2112E-03    -27.4051E-03    -27.3849E-03     54.6105E-03    -27.2259E-03     1.06493E-03    -18.0619E+06    -22.9763E+06    -166.834E+06    -21.8328E+06    -166.800E+06    -19.2390E+06    -539.521E+03         23.8123
              24     39.1728E-09     56.7410E-03         3.54033     665.439E-03        -5.90874    -346.909E-03        -2.02149     665.439E-03        -9.28891     54.8086E-03    -27.0407E-03    -27.7685E-03    -27.7679E-03     54.8079E-03    -27.0407E-03    -210.285E-06    -21.7523E+06    -26.7758E+06    -166.258E+06    -26.8339E+06    -166.200E+06    -21.7523E+06    -302.535E+03         23.8031
              25     694.474E-09     55.6827E-03         3.46390     820.909E-03        -6.04077    -126.698E-03        -2.45017     820.909E-03        -9.21393     54.1198E-03    -26.8514E-03    -27.2696E-03    -27.2685E-03     54.1187E-03    -26.8514E-03    -5.81553E-06    -24.8423E+06    -28.6090E+06    -167.677E+06    -27.1936E+06    -167.641E+06    -26.2935E+06    -1.72020E+06         23.7874
              26    -637.023E-09     54.6295E-03         3.35071     876.744E-03        -6.00577     49.8208E-03        -2.70488     876.744E-03        -8.93726     53.4329E-03    -26.5407E-03    -26.8933E-03    -26.5876E-03     53.4311E-03    -26.8446E-03    -135.639E-06    -21.4577E+06    -24.6263E+06    -165.342E+06    -21.4581E+06    -165.342E+06    -24.6263E+06    -81.8431E+03         23.7688
              27     3.13929E-09     53.5766E-03         3.16855         1.09296        -6.08301     247.899E-03        -3.16236         1.09296        -8.58866     53.5437E-03    -26.5867E-03    -26.9566E-03    -26.6515E-03     53.5424E-03    -26.8906E-03    -550.272E-06    -21.3065E+06    -25.4090E+06    -165.985E+06    -23.6931E+06    -165.984E+06    -23.0238E+06    -223.766E+03         23.7568
              28     140.483E-09     52.5189E-03         2.98814         1.36518        -6.22823     417.331E-03        -3.65742         1.36518        -8.26115     53.3981E-03    -26.6490E-03    -26.7494E-03    -26.7481E-03     53.3967E-03    -26.6490E-03     338.792E-06    -18.9321E+06    -24.7041E+06    -164.301E+06    -21.3397E+06    -164.279E+06    -22.3189E+06    -1.54171E+06         23.7406
              29    -136.263E-09     51.4667E-03         2.90190         1.56583        -6.37335     580.683E-03        -4.05213         1.56583        -8.03004     52.5506E-03    -26.1323E-03    -26.4192E-03    -26.4169E-03     52.5483E-03    -26.1323E-03     58.1304E-06    -18.2208E+06    -26.3507E+06    -166.269E+06    -23.0063E+06    -166.227E+06    -21.6077E+06    -23.2078E+03         23.7175
              30     670.552E-09     50.4136E-03         2.81873         1.83621        -6.62208     746.596E-03        -4.54994         1.83621        -7.80520     52.3732E-03    -25.9352E-03    -26.4386E-03    -26.4371E-03     52.3718E-03    -25.9352E-03    -124.562E-06    -19.8877E+06    -26.4809E+06    -167.172E+06    -24.6583E+06    -167.144E+06    -21.7378E+06     1.89162E+06         23.7030
              31    -223.603E-09     49.3611E-03         2.71473         2.10184        -6.83539     837.208E-03        -4.95787         2.10184        -7.58968     53.0997E-03    -26.3388E-03    -26.7616E-03    -26.5885E-03     53.0984E-03    -26.5106E-03    -88.9704E-06    -17.6989E+06    -20.6246E+06    -162.873E+06    -18.7860E+06    -162.861E+06    -19.5490E+06     47.7104E+03         23.6980
              32    -114.882E-09     48.3051E-03         2.64847         2.33429        -7.03928     913.388E-03        -5.30419         2.33429        -7.42332     52.7065E-03    -26.1544E-03    -26.5527E-03    -26.1529E-03     52.7049E-03    -26.5527E-03    -22.8191E-06    -22.7469E+06    -24.4143E+06    -167.861E+06    -24.4310E+06    -167.844E+06    -22.7469E+06    -1.52326E+06         23.6947
              33    -337.805E-09     47.2519E-03         2.71230         2.52463        -7.32864         1.05558        -5.78884         2.64155        -7.17854     51.9458E-03    -25.5217E-03    -26.4237E-03    -26.1925E-03     51.9411E-03    -25.7482E-03     1.12050E-03    -26.6123E+06    -28.9762E+06    -168.894E+06    -27.3357E+06    -168.763E+06    -28.3844E+06     1.99739E+06         23.6985
              34     1.60866E-06     46.1990E-03         2.98772         2.48609        -7.60529         1.14363        -6.26284         2.98772        -6.84734     52.2692E-03    -25.7938E-03    -26.4766E-03    -26.4710E-03     52.2637E-03    -25.7938E-03     1.29305E-03    -24.1622E+06    -26.2654E+06    -165.851E+06    -24.6314E+06    -165.713E+06    -25.9343E+06     1.77214E+06         23.7129
              35    -1.61259E-06     45.1477E-03         3.31953         2.38797        -7.86348         1.17357        -6.64908         3.31953        -6.62424     52.8028E-03    -26.3553E-03    -26.4476E-03    -26.4437E-03     52.7989E-03    -26.3553E-03    -84.1791E-06    -24.5204E+06    -27.3094E+06    -166.934E+06    -27.4084E+06    -166.835E+06    -24.5204E+06    -3.47843E+06         23.7340
              36     1.78973E-06     44.0929E-03         3.63714         2.31854        -8.15021         1.23592        -7.06760         3.63714        -6.36443     53.2703E-03    -26.5287E-03    -26.7401E-03    -26.6110E-03     53.2677E-03    -26.6551E-03    -339.180E-06    -20.8493E+06    -27.7538E+06    -165.909E+06    -23.5418E+06    -165.674E+06     -25.296E+06     1.02162E+06         23.7585
              37    -2.11317E-06     43.0390E-03         3.94603         2.16702        -8.35812         1.21212        -7.40322         3.94603        -6.04566     53.9725E-03    -26.8500E-03    -27.1226E-03    -26.8487E-03     53.9712E-03    -27.1226E-03    -121.826E-06    -22.0936E+06    -27.3429E+06    -168.906E+06    -22.5327E+06    -168.467E+06    -27.3429E+06     7.91433E+06         23.7819
              38     1.80166E-06     41.9827E-03         4.23995         2.01282        -8.54892         1.17602        -7.71213         4.23995        -5.69292     54.2789E-03    -26.9004E-03    -27.3781E-03    -27.2260E-03     54.2730E-03    -27.0466E-03     524.654E-06    -23.5809E+06    -30.2195E+06    -169.201E+06    -29.7033E+06    -168.914E+06    -24.3836E+06     4.32349E+06         23.7991
              39    -1.10901E-06     40.9255E-03         4.51638         1.90457        -8.76554         1.24983        -8.11080         4.51638        -5.10841     53.9138E-03    -26.7174E-03    -27.1956E-03    -27.0433E-03     53.9083E-03    -26.8642E-03     1.19524E-03    -13.9019E+06    -22.1366E+06    -158.179E+06    -20.2270E+06    -157.690E+06    -16.3008E+06    -6.08874E+06         23.8047
              40     780.163E-09     39.8756E-03         4.82699         1.71847        -8.92073         1.22089        -8.42316         4.82699        -4.48076     53.7225E-03    -26.5458E-03    -27.1765E-03    -27.0279E-03     53.7207E-03    -26.6926E-03    -156.336E-06    -16.1406E+06    -20.6644E+06    -158.442E+06    -16.6383E+06    -157.945E+06    -20.6644E+06    -6.67584E+06         23.7981
              41     113.151E-09     38.8168E-03         5.07906         1.52547        -9.01509         1.13489        -8.62451         5.07906        -3.97827     53.6993E-03    -26.5984E-03    -27.1008E-03    -27.0778E-03     53.6948E-03    -26.6169E-03     274.748E-06    -21.7782E+06    -27.0724E+06    -164.785E+06    -25.0097E+06    -164.723E+06    -23.9031E+06     1.10468E+06         23.7864
              42    -131.312E-09     37.7649E-03         5.27177         1.46256        -9.16824         1.16076        -8.86644         5.27177        -3.51360     53.8926E-03    -26.9348E-03    -26.9569E-03    -26.9344E-03     53.8885E-03    -26.9532E-03     370.114E-06    -18.5365E+06    -23.7644E+06    -163.848E+06    -21.7909E+06    -163.763E+06    -20.5951E+06     371.880E+03         23.7771
              43     93.2890E-09     36.7084E-03         5.49607         1.33562        -9.28732         1.12958        -9.08127         5.49607        -2.91691     53.5069E-03    -26.5414E-03    -26.9639E-03    -26.5440E-03     53.5059E-03    -26.9602E-03    -156.056E-06    -22.1744E+06    -25.1663E+06    -167.156E+06    -23.1401E+06    -167.123E+06    -24.2331E+06    -1.37389E+06         23.7774
              44    -915.651E-09     35.6552E-03         5.66686         1.19907        -9.34294         1.06658        -9.21045         5.66686        -2.32872     53.8123E-03    -26.6246E-03    -27.1863E-03    -26.7665E-03     53.8112E-03    -27.0434E-03     561.485E-06    -16.7541E+06    -20.8315E+06    -162.671E+06    -17.7985E+06    -162.560E+06    -19.8984E+06     3.03356E+06         23.7943
              45     1.13501E-06     34.5996E-03         5.82687         1.12758        -9.44871         1.04250        -9.36363         5.82687        -1.88302     55.0440E-03    -27.2357E-03    -27.8078E-03    -27.8045E-03     55.0407E-03    -27.2357E-03    -283.962E-06    -21.4054E+06    -25.2752E+06    -167.234E+06    -22.2902E+06    -167.075E+06    -24.5497E+06     4.71862E+06         23.8134
              46    -314.786E-09     33.5443E-03         5.95711         1.05724        -9.52009         1.00139        -9.46425         5.95711        -1.51789     54.5627E-03    -26.7902E-03    -27.7714E-03    -27.2169E-03     54.5602E-03    -27.3422E-03    -608.335E-06    -28.5794E+06    -33.0427E+06    -175.133E+06    -33.2018E+06    -174.974E+06    -28.5794E+06    -963.333E+03         23.8148
              47    -725.213E-09     32.4876E-03         5.93717         1.01662        -9.47592     989.115E-03        -9.44841         5.93717        -1.04249     54.1231E-03    -26.6508E-03    -27.4721E-03    -26.9186E-03     54.1217E-03    -27.2028E-03     523.119E-06    -20.8226E+06    -29.1714E+06    -169.852E+06    -25.0185E+06    -169.394E+06    -25.4337E+06     -7.8633E+06         23.8096
              48     1.17328E-06     31.4327E-03         5.92570     984.506E-03        -9.45473     975.347E-03        -9.44557         5.92570    -585.248E-03     54.6842E-03    -27.0790E-03    -27.6055E-03    -27.6003E-03     54.6790E-03    -27.0790E-03     1.27394E-03    -27.2215E+06    -33.9136E+06    -172.961E+06    -29.7975E+06    -172.466E+06    -31.8325E+06    -1.84483E+06         23.8099
              49    -671.763E-09     30.3759E-03         5.93667     952.094E-03        -9.46398     950.190E-03        -9.46208         5.93667    -241.452E-03     54.5869E-03    -26.9758E-03    -27.6115E-03    -27.2290E-03     54.5829E-03    -27.3542E-03     976.589E-06    -29.2865E+06    -32.9439E+06    -174.240E+06    -31.5164E+06    -174.091E+06    -30.8628E+06     3.50145E+06         23.8114
              50    -104.985E-09     29.3225E-03         5.82421     945.746E-03        -9.35945     945.625E-03        -9.35933         5.82421    -62.3462E-03     54.3789E-03    -26.9431E-03    -27.4396E-03    -27.0610E-03     54.3787E-03    -27.3216E-03     188.896E-06    -26.1146E+06    -29.2175E+06    -171.103E+06    -26.1159E+06    -171.101E+06    -29.2175E+06     172.241E+03         23.8060
              51     294.159E-09     28.2664E-03         5.67760     948.141E-03        -9.20203     947.382E-03        -9.20127         5.67760     108.486E-03     54.0754E-03    -26.6892E-03    -27.3903E-03    -27.3889E-03     54.0741E-03    -26.6892E-03    -457.874E-06    -28.3996E+06    -33.8664E+06    -172.270E+06    -32.3533E+06    -172.257E+06    -29.9262E+06    -1.07645E+06         23.7784
              52     868.537E-09     27.2120E-03         5.53012     948.823E-03        -9.05413     946.355E-03        -9.05166         5.53012     307.598E-03     52.9767E-03    -25.9216E-03    -27.0566E-03    -26.5025E-03     52.9745E-03    -26.4736E-03    -95.6985E-06    -25.9747E+06    -35.5854E+06    -169.814E+06    -30.0430E+06    -169.686E+06    -31.6453E+06     1.91592E+06         23.7435
              53    -2.04177E-06     26.1590E-03         5.32052     991.658E-03        -8.89234     985.517E-03        -8.88620         5.32052     479.571E-03     53.2010E-03    -26.3178E-03    -26.8837E-03    -26.3170E-03     53.2002E-03    -26.8837E-03     432.129E-06    -24.6760E+06    -33.7008E+06    -167.346E+06    -28.3082E+06    -167.068E+06    -30.3466E+06     6.18347E+06         23.7385
              54     2.04160E-06     25.1031E-03         5.14550         1.03370        -8.78069         1.02639        -8.77337         5.14550     532.629E-03     53.9346E-03    -26.5305E-03    -27.4023E-03    -27.3870E-03     53.9331E-03    -26.5444E-03    -410.551E-06    -23.0861E+06    -28.3796E+06    -163.449E+06    -28.7689E+06    -163.059E+06    -23.0861E+06    -591.945E+03         23.7474
              55    -365.659E-09     24.0500E-03         4.92667         1.02902        -8.57125         1.02334        -8.56557         4.92667     466.951E-03     53.1417E-03    -26.0311E-03    -27.1085E-03    -26.8875E-03     53.1402E-03    -26.2506E-03    -355.250E-06    -27.3335E+06    -31.0369E+06    -162.939E+06    -29.5581E+06    -162.653E+06    -29.0977E+06    -5.88290E+06         23.7332
              56    -105.181E-09     22.9956E-03         4.53384         1.00644        -8.14193         1.00359        -8.13908         4.53384     261.617E-03     52.8364E-03    -26.1447E-03    -26.6900E-03    -26.1398E-03     52.8315E-03    -26.6900E-03     993.401E-06    -32.6432E+06    -34.9815E+06    -163.210E+06    -32.8504E+06    -163.002E+06    -34.9815E+06     1.10897E+06         23.7034
              57    -563.070E-09     21.9387E-03         4.17155         1.05620        -7.83201         1.05405        -7.82986         4.17155     225.283E-03     52.4029E-03    -25.8024E-03    -26.6002E-03    -26.2652E-03     52.3936E-03    -26.1282E-03     1.70786E-03    -28.8810E+06    -29.7593E+06    -158.422E+06    -29.3339E+06    -158.273E+06    -29.4551E+06     3.31271E+06         23.6665
              58     1.45454E-06     20.8881E-03         3.84799         1.18633        -7.62716         1.18116        -7.62200         3.84799     424.530E-03     51.0052E-03    -25.1358E-03    -25.8704E-03    -25.6028E-03     51.0002E-03    -25.3983E-03     1.12758E-03    -26.7300E+06    -29.3566E+06    -159.616E+06    -27.2304E+06    -159.420E+06    -29.0524E+06     3.86319E+06         23.6146
              59    -2.01513E-06     19.8390E-03         3.49134         1.21129        -7.27925         1.20660        -7.27455         3.49134     395.244E-03     50.1704E-03    -24.8435E-03    -25.3268E-03    -24.8399E-03     50.1668E-03    -25.3268E-03    -383.725E-06    -27.7552E+06    -30.5503E+06    -162.398E+06    -28.5181E+06    -162.108E+06    -30.0776E+06     6.14279E+06         23.5469
              60     1.56487E-06     18.7864E-03         3.11302         1.18401        -6.84466         1.17904        -6.83969         3.11302     392.045E-03     49.2073E-03    -24.3346E-03    -24.8739E-03    -24.6499E-03     49.2041E-03    -24.5554E-03    -832.412E-06    -30.3666E+06    -32.9100E+06    -163.398E+06    -33.0365E+06    -163.272E+06    -30.3666E+06     1.07967E+06         23.4560
              61    -937.499E-09     17.7386E-03         2.76312         1.22732        -6.50976         1.22277        -6.50520         2.76312     364.761E-03     47.6280E-03    -23.6509E-03    -23.9794E-03    -23.9788E-03     47.6274E-03    -23.6509E-03    -412.403E-06    -25.4899E+06    -29.8743E+06    -159.592E+06    -27.6368E+06    -159.515E+06    -27.8036E+06    -3.16475E+06         23.3325
              62     905.855E-09     16.6898E-03         2.49146         1.23183        -6.24983         1.22881        -6.24681         2.49146     298.881E-03     45.6664E-03    -22.7397E-03    -22.9283E-03    -22.9264E-03     45.6645E-03    -22.7397E-03    -694.507E-06    -20.8526E+06    -23.5970E+06    -153.341E+06    -21.3350E+06    -153.289E+06    -23.1663E+06    -2.41903E+06         23.1664
              63    -570.258E-09     15.6456E-03         2.14128         1.17935        -5.81193         1.17700        -5.80958         2.14128     247.732E-03     42.5713E-03    -21.0617E-03    -21.5115E-03    -21.2367E-03     42.5677E-03    -21.3329E-03    -955.401E-06    -18.5183E+06    -20.4386E+06    -145.992E+06    -18.9929E+06    -145.948E+06    -20.0080E+06    -2.19985E+06         22.9423
              64    -2.62661E-09     14.6041E-03         1.82722         1.13458        -5.44462         1.13396        -5.44401         1.82722     115.022E-03     38.8179E-03    -19.1851E-03    -19.6324E-03    -19.3570E-03     38.8137E-03    -19.4563E-03    -991.142E-06    -19.4519E+06    -22.3491E+06    -148.978E+06    -20.9170E+06    -148.920E+06    -20.9415E+06    -357.088E+03         22.6647
              65     350.751E-09     13.5663E-03         1.61951         1.07661        -5.20790         1.07652        -5.20782         1.61951     42.4347E-03     34.6483E-03    -17.2282E-03    -17.4184E-03    -17.4163E-03     34.6462E-03    -17.2282E-03    -530.610E-06    -14.2403E+06    -20.0395E+06    -149.810E+06    -15.8645E+06    -149.593E+06    -18.6319E+06     4.83006E+06         22.3626
              66    -392.022E-09     12.5340E-03         1.30529     955.684E-03        -4.74613     954.412E-03        -4.74486         1.30529     128.149E-03     30.2978E-03    -15.1098E-03    -15.1876E-03    -15.1234E-03     30.2973E-03    -15.1735E-03    -264.253E-06    -1.95794E+06    -12.2302E+06    -137.844E+06    -8.05816E+06    -137.624E+06    -6.34955E+06     4.86861E+06         22.0664
              67     332.513E-09     11.5063E-03         1.05116     841.570E-03        -4.35966     839.835E-03        -4.35792         1.05116     185.228E-03     26.3745E-03    -13.0874E-03    -13.2875E-03    -13.0841E-03     26.3712E-03    -13.2875E-03    -661.109E-06    -1.59872E+06    -11.6453E+06    -136.582E+06    -7.57027E+06    -136.491E+06    -5.76465E+06    -935.409E+03         21.7983
              68    -671.540E-09     10.4825E-03     936.866E-03     762.984E-03        -4.16671     760.576E-03        -4.16430     936.866E-03     205.292E-03     23.1149E-03    -11.3787E-03    -11.7373E-03    -11.5965E-03     23.1106E-03    -11.5152E-03    -766.755E-06    -1.38642E+06    -7.30997E+06    -137.165E+06    -3.43565E+06    -136.874E+06    -5.55234E+06     1.70727E+06         21.5885
              69     1.12430E-06     9.45969E-03     758.697E-03     650.458E-03        -3.85732     648.521E-03        -3.85538     758.697E-03     142.372E-03     21.1312E-03    -10.4183E-03    -10.7134E-03    -10.6387E-03     21.1295E-03    -10.4913E-03    -233.907E-06    -592.504E+03    -2.66000E+06    -135.370E+06    -2.63818E+06    -135.082E+06    -902.374E+03     5.90821E+06         21.4797
              70    -1.28388E-06     8.44150E-03     591.696E-03     537.750E-03        -3.55687     560.356E-03        -3.55378     565.994E-03     163.712E-03     20.7316E-03    -10.2341E-03    -10.4974E-03    -10.2338E-03     20.7313E-03    -10.4974E-03    -18.4675E-06    -447.206E+03    -2.95498E+06    -132.272E+06    -2.92584E+06    -131.991E+06    -757.075E+03    -1.61823E+06         21.5078
              71     929.482E-09     7.41915E-03     497.947E-03     440.367E-03        -3.36039     462.127E-03        -3.35645     472.245E-03     235.939E-03     22.5789E-03    -11.0156E-03    -11.5633E-03    -11.3685E-03     22.5744E-03    -11.2060E-03     463.465E-06    -5.31688E+06    -9.20318E+06    -136.747E+06    -7.76348E+06    -136.498E+06    -7.00527E+06    -2.23069E+06         21.7121
              72    -268.257E-09     6.39692E-03     409.184E-03     374.209E-03        -3.19616     374.899E-03        -3.19375     406.087E-03     183.079E-03     27.4802E-03    -13.5558E-03    -13.9233E-03    -13.9052E-03     27.4722E-03    -13.5660E-03     1.14457E-03    -15.9023E+06    -20.7313E+06    -146.938E+06    -19.1187E+06    -146.862E+06    -17.5907E+06    -194.036E+03         22.1494
              73     262.374E-09     5.36573E-03     318.812E-03     263.231E-03        -2.98078     316.794E-03        -2.97876     263.231E-03     157.769E-03     36.1963E-03    -17.9702E-03    -18.2264E-03    -18.1994E-03     36.1794E-03    -17.9804E-03     1.86534E-03    -23.5065E+06    -27.8757E+06    -155.607E+06    -26.7831E+06    -155.471E+06    -24.7352E+06    -4.13623E+06         22.8508
              74     154.999E-09     4.32415E-03     216.479E-03     106.033E-03        -2.72854     209.791E-03        -2.72185     106.033E-03     239.237E-03     48.9720E-03    -24.2526E-03    -24.7207E-03    -24.4688E-03     48.9423E-03    -24.4748E-03     2.95330E-03    -25.5015E+06    -30.9132E+06    -162.180E+06    -25.6000E+06    -162.082E+06    -30.9132E+06    -1.81462E+06         23.7930
              75    -711.406E-09     3.26744E-03     132.456E-03     33.5633E-03        -2.56185     123.266E-03        -2.55266     33.5633E-03     309.840E-03     64.1166E-03    -31.8175E-03    -32.2977E-03    -31.7955E-03     64.0946E-03    -32.2977E-03     2.75166E-03    -31.6808E+06    -40.9244E+06    -172.045E+06    -37.0074E+06    -171.779E+06    -35.8638E+06    -3.46047E+06         24.9055
              76     167.756E-09     2.19268E-03     104.094E-03     36.9271E-03        -2.54759     98.8428E-03        -2.54234     36.9271E-03     235.140E-03     79.8163E-03    -39.6836E-03    -40.1299E-03    -39.8502E-03     79.7946E-03    -39.9416E-03     3.15250E-03    -41.0955E+06    -49.3562E+06    -179.788E+06    -46.6647E+06    -179.280E+06    -44.2956E+06     -45.501E+03         26.0611
              77    -82.6273E-09     1.10060E-03     80.2875E-03     20.0686E-03        -2.51392     77.9757E-03        -2.51161     20.0686E-03     99.9582E-03     91.8051E-03    -45.6749E-03    -46.1284E-03    -46.1117E-03     91.7884E-03    -45.6749E-03     1.72453E-03    -51.6628E+06    -55.5971E+06    -183.650E+06    -52.7062E+06    -183.341E+06    -54.8629E+06     2.13452E+06         27.1994
              78     953.586E-06     33.5276E-09     53.6962E-03     11.3063E-03        -2.45258     53.5838E-03        -2.45247     11.3063E-03     10.1016E-03     95.0827E-03    -47.2126E-03    -47.8714E-03    -47.4737E-03     95.0786E-03    -47.6062E-03     672.405E-06    -50.2513E+06    -59.7348E+06    -185.114E+06    -59.8069E+06    -185.042E+06    -50.2513E+06    -1.09304E+06         27.7080
              79     1.90478E-03     33.5276E-09     84.9620E-03     42.9072E-03        -2.50583     84.8231E-03        -2.50569     42.9072E-03     4.63110E-03     92.3260E-03    -45.2564E-03    -47.0719E-03    -45.2456E-03     92.3152E-03    -47.0719E-03     2.40131E-03    -40.1870E+06    -50.0909E+06    -182.238E+06      -50.19E+06    -182.139E+06    -40.1870E+06    -1.61360E+06         27.5934
              80     2.86347E-03     33.5276E-09     115.343E-03     62.2632E-03        -2.55007     115.290E-03        -2.55002     62.2632E-03    -12.6739E-03     88.1144E-03    -42.1388E-03    -45.9741E-03    -42.1159E-03     88.0915E-03    -45.9741E-03     3.37915E-03    -40.4299E+06    -42.7604E+06    -185.940E+06    -42.8590E+06    -185.841E+06    -40.4299E+06    -3.39513E+06         27.5433
              81     3.82203E-03     33.5276E-09     110.757E-03     75.5272E-03        -2.55717     110.336E-03        -2.55674     75.5272E-03    -43.5158E-03     83.2639E-03    -38.6807E-03    -44.5746E-03    -38.6462E-03     83.2294E-03    -44.5746E-03     4.09107E-03    -36.7416E+06    -41.8395E+06    -185.364E+06    -38.1466E+06    -185.135E+06    -40.6637E+06    -4.94930E+06         27.6215
              82     4.78695E-03     33.5276E-09     146.980E-03     86.0341E-03        -2.59635     146.541E-03        -2.59591     86.0341E-03    -57.7727E-03     77.9620E-03    -34.9711E-03    -42.9707E-03    -34.9165E-03     77.9074E-03    -42.9707E-03     4.88386E-03    -32.0862E+06    -46.3138E+06    -183.462E+06    -32.3039E+06    -183.244E+06    -46.3138E+06    -4.01654E+06         27.8509
              83     5.75311E-03     33.5276E-09     224.150E-03     102.376E-03        -2.69063     224.036E-03        -2.69052     102.376E-03     13.3469E-03     72.6640E-03    -31.3822E-03    -41.2592E-03    -31.3113E-03     72.5931E-03    -41.2592E-03     5.42955E-03    -27.5691E+06    -55.3328E+06    -185.208E+06    -27.8118E+06    -184.965E+06    -55.3328E+06    -4.41662E+06         28.2441
              84     6.72585E-03     33.5276E-09     322.431E-03     126.725E-03        -2.81662     322.322E-03        -2.81651     126.725E-03     33.3840E-03     67.7807E-03    -28.2473E-03    -39.5088E-03    -28.1557E-03     67.6891E-03    -39.5088E-03     5.87167E-03    -24.0072E+06    -69.3261E+06    -188.006E+06    -24.2987E+06    -187.714E+06    -69.3261E+06    -6.44050E+06         28.8009
              85     7.69792E-03     33.5276E-09     411.866E-03     156.969E-03        -2.94548     411.791E-03        -2.94541     156.969E-03     30.0587E-03     62.9994E-03    -25.2236E-03    -37.7619E-03    -25.1024E-03     62.8783E-03    -37.7619E-03     6.52374E-03    -17.8061E+06    -84.3597E+06    -184.585E+06    -18.5242E+06    -183.867E+06    -84.3597E+06    -9.47451E+06         29.5070
              86     8.67589E-03     33.5276E-09     489.698E-03     189.984E-03        -3.06418     489.615E-03        -3.06410     189.984E-03     7.79414E-03     57.6679E-03    -21.6504E-03    -35.9964E-03    -21.5497E-03     57.5671E-03    -35.9964E-03     5.61429E-03    -8.98428E+06    -93.9440E+06    -159.488E+06    -9.68959E+06    -158.783E+06    -93.9440E+06    -9.01071E+06         30.3366
              87     9.65838E-03     33.5276E-09     587.528E-03     225.287E-03        -3.19544     587.474E-03        -3.19539     225.287E-03     2.98906E-03     52.3344E-03    -18.0844E-03    -34.2080E-03    -17.9991E-03     52.2492E-03    -34.2080E-03     4.87023E-03    -3.09517E+06    -94.6855E+06    -120.261E+06    -3.80121E+06    -114.298E+06    -99.9430E+06    -7.01588E+06         31.2396
              88     10.6409E-03     33.5276E-09     688.585E-03     263.368E-03        -3.33381     688.533E-03        -3.33376     263.368E-03     28.6564E-03     47.7190E-03    -15.2523E-03    -32.4491E-03    -15.1455E-03     47.6123E-03    -32.4491E-03     5.16942E-03     1.27460E+06    -58.1345E+06    -102.052E+06     274.130E+03    -57.1340E+06    -102.052E+06    -7.60189E+06         32.2722
              89     11.6294E-03     33.5276E-09     816.772E-03     304.744E-03        -3.49848     816.711E-03        -3.49842     304.744E-03    -6.17937E-03     44.8665E-03    -14.0276E-03    -30.8457E-03    -13.8840E-03     44.7229E-03    -30.8457E-03     5.77718E-03     23.7547E+06    -13.5845E+06    -94.2254E+06     171.033E+03     9.99914E+06    -94.2254E+06    -2.03987E+06         33.6156
              90     12.6148E-03     33.5276E-09     951.231E-03     349.973E-03        -3.67444     951.154E-03        -3.67436     349.973E-03    -477.450E-06     42.3742E-03    -12.8330E-03    -29.5539E-03    -12.6447E-03     42.1860E-03    -29.5539E-03     6.41991E-03     62.4355E+06    -3.27856E+06    -61.8469E+06    -3.24468E+06     62.4016E+06    -61.8469E+06    -1.10079E+06         35.3406
              91     13.6002E-03     33.5276E-09         1.05772     397.488E-03        -3.83483         1.05765        -3.83476     397.488E-03     37.9072E-03     39.7069E-03    -11.1987E-03    -28.5212E-03    -11.0381E-03     39.5463E-03    -28.5212E-03     5.66526E-03     97.8783E+06     12.9545E+06    -19.0746E+06    -2.42068E+06     97.8123E+06    -3.63337E+06    -2.56342E+06         37.3988
              92     14.6003E-03     33.5276E-09         1.19915     446.886E-03        -4.03775         1.19912        -4.03771     446.886E-03     21.9160E-03     43.2328E-03    -15.4701E-03    -27.7756E-03    -14.5941E-03     42.3567E-03    -27.7756E-03     12.8069E-03     127.686E+06     59.7619E+06    -5.30037E+06    -3.66789E+06     126.054E+06     59.7619E+06     9.47212E+06         39.7037
              93     15.5587E-03     33.5276E-09         1.35844     499.292E-03        -4.27051         1.35844        -4.27051     499.292E-03     5.62873E-03     51.0834E-03    -23.6872E-03    -27.3964E-03    -21.0493E-03     48.4455E-03    -27.3964E-03     27.2632E-03     140.097E+06     97.6786E+06    -10.9106E+06    -8.85684E+06     138.043E+06     97.6786E+06     4.99119E+06         42.0982
              94     16.5402E-03     33.5276E-09         1.50968     553.286E-03        -4.50394         1.50967        -4.50394     553.286E-03     5.80394E-03     118.519E-03    -28.7476E-03    -89.9141E-03    -81.3229E-03     109.966E-03    -28.7867E-03     82.6620E-03     156.096E+06     121.190E+06    -6.05237E+06    -5.52217E+06     155.566E+06     121.190E+06    -3.28540E+06         44.2635
              95     17.4298E-03     1.31353E-03         1.61984     588.877E-03        -4.65311         1.61841        -4.65167     588.877E-03    -131.854E-03     203.869E-03    -30.0251E-03    -174.102E-03    -141.679E-03     171.446E-03    -30.0251E-03     203.590E-03     165.258E+06     136.876E+06    -14.0198E+06    -13.9158E+06     165.154E+06     136.876E+06     966.602E+03         45.2529
              96     17.4492E-03     2.54843E-03         1.59398     613.436E-03        -4.61952         1.59163        -4.61718     613.436E-03    -240.042E-03     227.569E-03    -29.5637E-03    -198.177E-03    -123.415E-03     152.806E-03    -29.5637E-03     318.425E-03     174.522E+06     154.938E+06    -1.84406E+06    -856.131E+03     173.534E+06     154.938E+06     7.29344E+06         45.6866
              97     17.4922E-03     3.68699E-03         1.56561     652.790E-03        -4.57517         1.56359        -4.57315     652.790E-03    -222.798E-03     219.514E-03    -28.8444E-03    -190.743E-03    -86.4626E-03     115.234E-03    -28.8444E-03     356.305E-03     186.480E+06     161.580E+06     1.76267E+06     2.74449E+06     185.498E+06     161.580E+06     7.42060E+06         46.5930
              98     17.5110E-03     4.72995E-03         1.57712     704.023E-03        -4.60547         1.57508        -4.60343     704.023E-03    -224.520E-03     200.801E-03    -27.6684E-03    -173.158E-03    -72.5442E-03     100.187E-03    -27.6684E-03     331.442E-03     185.463E+06     164.126E+06    -3.17782E+06    -2.92768E+06     185.212E+06     164.126E+06     2.98853E+06         47.6106
              99     17.5308E-03     5.82966E-03         1.54579     765.053E-03        -4.62358         1.54447        -4.62226     765.053E-03    -176.485E-03     195.391E-03    -26.4839E-03    -168.932E-03    -78.6398E-03     105.099E-03    -26.4839E-03     314.561E-03     184.959E+06     170.103E+06    -1.89224E+06    -1.61655E+06     184.683E+06     170.103E+06     2.29919E+06         48.6496
             100     17.5399E-03     6.96013E-03         1.54537     836.310E-03        -4.68297         1.54498        -4.68258     836.310E-03    -71.2964E-03     206.473E-03    -25.7895E-03    -180.689E-03    -85.2206E-03     111.005E-03    -25.7895E-03     333.731E-03     184.302E+06     169.231E+06    -5.77902E+06    -5.63484E+06     184.158E+06     169.231E+06     802.255E+03         49.6427
             101     17.5419E-03     8.07895E-03         1.57966     916.632E-03        -4.83086         1.57965        -4.83086     916.632E-03     7.64877E-03     219.033E-03    -25.5637E-03    -193.462E-03    -89.9221E-03     115.493E-03    -25.5637E-03     357.711E-03     188.651E+06     174.766E+06    -2.01533E+06    -1.91788E+06     188.554E+06     174.766E+06     3.11013E+06         50.5786
             102     17.5423E-03     9.18545E-03         1.61173         1.00431        -4.99447         1.61171        -4.99444         1.00431    -6.48135E-03     215.019E-03    -25.5800E-03    -189.435E-03    -89.3300E-03     114.914E-03    -25.5800E-03     349.074E-03     185.894E+06     172.657E+06    -3.49604E+06    -3.47824E+06     185.877E+06     172.657E+06     1.39812E+06         51.4635
             103     17.5364E-03     10.2532E-03         1.63108         1.09999        -5.14523         1.63105        -5.14520         1.09999    -28.7031E-03     196.793E-03    -25.7465E-03    -171.042E-03    -84.7105E-03     110.461E-03    -25.7465E-03     311.687E-03     183.734E+06     170.364E+06    -6.04583E+06    -6.02436E+06     183.712E+06     170.364E+06     627.573E+03         52.2985
             104     17.5358E-03     11.3319E-03         1.64742         1.20572        -5.27951         1.64739        -5.27948         1.20572    -29.2153E-03     177.411E-03    -25.8271E-03    -151.575E-03    -77.8019E-03     103.638E-03    -25.8271E-03     274.428E-03     183.379E+06     167.853E+06    -8.79802E+06    -8.75488E+06     183.336E+06     167.853E+06     1.27098E+06         53.0871
             105     17.5432E-03     12.4154E-03         1.67143         1.31888        -5.41406         1.67139        -5.41402         1.31888    -33.6553E-03     172.387E-03    -25.7185E-03    -146.663E-03    -75.8705E-03     101.595E-03    -25.7185E-03     265.138E-03     184.253E+06     167.170E+06    -6.04005E+06    -5.85450E+06     184.067E+06     167.170E+06    -1.90156E+06         53.8248
             106     17.5382E-03     13.5384E-03         1.68609         1.43482        -5.58254         1.68591        -5.58236         1.43482    -66.8125E-03     187.251E-03    -25.7388E-03    -161.505E-03    -81.7070E-03     107.453E-03    -25.7388E-03     292.930E-03     185.244E+06     167.568E+06    -9.00857E+06    -8.85596E+06     185.092E+06     167.568E+06    -3.02076E+06         54.4925
             107     17.5343E-03     14.6922E-03         1.69875         1.55206        -5.74786         1.69854        -5.74764         1.55206    -77.3875E-03     203.511E-03    -26.2937E-03    -177.219E-03    -72.6419E-03     98.9339E-03    -26.2937E-03     338.364E-03     186.674E+06     170.952E+06    -5.32339E+06    -5.30386E+06     186.654E+06     170.952E+06     1.90570E+06         55.0661
             108     17.5371E-03     15.7475E-03         1.73754         1.67055        -5.91327         1.73746        -5.91319         1.67055    -47.4429E-03     201.826E-03    -26.9164E-03    -174.936E-03    -52.3816E-03     79.2714E-03    -26.9164E-03     352.810E-03     188.663E+06     171.700E+06    -6.23716E+06    -6.16961E+06     188.596E+06     171.700E+06    -1.18284E+06         55.5586
             109     17.5343E-03     16.7762E-03         1.80734         1.74418        -6.08548         1.76164        -6.08537         1.78978    -56.9214E-03     190.662E-03    -27.0989E-03    -163.595E-03    -44.8222E-03     71.8892E-03    -27.0989E-03     334.454E-03     189.283E+06     172.332E+06    -5.63152E+06    -5.51584E+06     189.167E+06     172.332E+06     120.000E+03         55.9905
             110     17.5348E-03     17.8495E-03         1.90884         1.77329        -6.24831         1.77314        -6.24817         1.90884    -67.8948E-03     190.049E-03    -27.1119E-03    -162.959E-03    -45.3063E-03     72.3960E-03    -27.1119E-03     332.796E-03     190.235E+06     173.077E+06    -5.64708E+06    -5.58556E+06     190.174E+06     173.077E+06     2.30289E+06         56.3541
             111     17.5350E-03     18.9123E-03         2.02575         1.80263        -6.39441         1.80248        -6.39427         2.02575    -68.1115E-03     192.912E-03    -27.1707E-03    -165.755E-03    -42.3676E-03     69.5238E-03    -27.1707E-03     340.724E-03     191.537E+06     172.964E+06    -6.43456E+06    -6.41795E+06     191.521E+06     172.964E+06     1.14363E+06         56.6467
             112     17.5377E-03     19.9625E-03         2.13941         1.80966        -6.53249         1.80957        -6.53240         2.13941    -32.4761E-03     195.224E-03    -27.1620E-03    -168.075E-03    -40.8370E-03     67.9864E-03    -27.1620E-03     346.617E-03     196.310E+06     176.055E+06    -3.15988E+06    -3.13987E+06     196.290E+06     176.055E+06     673.400E+03         56.8799
             113     17.5375E-03     21.0264E-03         2.24901         1.83083        -6.68120         1.83083        -6.68120         2.24901     1.67024E-03     199.961E-03    -27.1013E-03    -172.877E-03    -44.7164E-03     71.8008E-03    -27.1013E-03     354.138E-03     195.435E+06     174.733E+06    -5.28512E+06    -5.28117E+06     195.431E+06     174.733E+06    -401.985E+03         57.0608
             114     17.5335E-03     22.0937E-03         2.35263         1.84758        -6.81883         1.84758        -6.81883         2.35263    -1.79422E-03     203.864E-03    -27.2014E-03    -176.674E-03    -45.4093E-03     72.5989E-03    -27.2014E-03     361.739E-03     193.581E+06     173.051E+06    -7.84019E+06    -7.83200E+06     193.573E+06     173.051E+06     1.08765E+06         57.1923
             115     17.5351E-03     23.1458E-03         2.44964         1.84522        -6.93572         1.84510        -6.93560         2.44964    -45.4167E-03     205.266E-03    -27.3242E-03    -177.966E-03    -40.4428E-03     67.7425E-03    -27.3242E-03     367.597E-03     197.600E+06     174.704E+06    -5.78766E+06    -5.77342E+06     197.586E+06     174.704E+06     1.70008E+06         57.2919
             116     17.5385E-03     24.1909E-03         2.53975         1.86216        -7.03877         1.86202        -7.03863         2.53975    -61.7985E-03     203.527E-03    -27.2728E-03    -176.287E-03    -38.8252E-03     66.0651E-03    -27.2728E-03     365.028E-03     200.097E+06     177.287E+06    -4.18694E+06    -4.14540E+06     200.056E+06     177.287E+06    -1.08672E+06         57.3774
             117     17.5364E-03     25.2409E-03         2.62231         1.88341        -7.13739         1.88340        -7.13737         2.62231    -11.0513E-03     201.252E-03    -27.1669E-03    -174.107E-03    -42.6372E-03     69.7822E-03    -27.1669E-03     358.084E-03     200.447E+06     178.753E+06    -4.33824E+06    -4.30310E+06     200.412E+06     178.753E+06    -1.96681E+06         57.4534
             118     17.5360E-03     26.2964E-03         2.69541         1.89440        -7.22757         1.89438        -7.22755         2.69541    -15.7638E-03     198.413E-03    -27.1380E-03    -171.292E-03    -43.8952E-03     71.0165E-03    -27.1380E-03     351.391E-03     200.075E+06     177.269E+06    -5.15849E+06    -5.15395E+06     200.070E+06     177.269E+06     609.382E+03         57.5272
             119     17.5370E-03     27.3474E-03         2.75717         1.88720        -7.29335         1.88717        -7.29333         2.75717    -30.6479E-03     199.981E-03    -27.1690E-03    -172.826E-03    -43.0746E-03     70.2299E-03    -27.1690E-03     355.170E-03     201.707E+06     177.765E+06     -4.2728E+06    -4.25541E+06     201.690E+06     177.765E+06     1.83226E+06         57.6054
             120     17.5359E-03     28.4199E-03         2.80767         1.88725        -7.35512         1.88724        -7.35511         2.80767    -20.7998E-03     207.079E-03    -27.2573E-03    -179.841E-03    -45.4435E-03     72.6822E-03    -27.2573E-03     368.442E-03     199.681E+06     176.673E+06    -6.23210E+06    -6.20984E+06     199.659E+06     176.673E+06     171.119E+03         57.6829
             121     17.5295E-03     29.4783E-03         2.84722         1.89548        -7.40984         1.89539        -7.40975         2.84722    -50.0567E-03     204.672E-03    -27.4422E-03    -177.239E-03    -41.4243E-03     68.8577E-03    -27.4422E-03     365.539E-03     197.741E+06     173.463E+06    -9.05287E+06    -8.97479E+06     197.663E+06     173.463E+06     1.68955E+06         57.7606
             122     17.5369E-03     30.4960E-03         2.87456         1.90787        -7.42167         1.90773        -7.42153         2.87456    -71.0567E-03     194.979E-03    -27.4205E-03    -167.556E-03    -34.5346E-03     61.9581E-03    -27.4205E-03     349.458E-03     202.811E+06     175.939E+06    -5.09433E+06    -5.02480E+06     202.742E+06     175.939E+06     2.38012E+06         57.8513
             123     17.5398E-03     31.5448E-03         2.88880         1.88874        -7.39714         1.88866        -7.39706         2.88880    -7.69871E-03     197.824E-03    -27.1131E-03    -170.719E-03    -43.0149E-03     70.1199E-03    -27.1131E-03     350.415E-03     205.140E+06     177.306E+06    -3.27308E+06    -3.27111E+06     205.138E+06     177.306E+06    -637.891E+03         57.9420
             124     17.5320E-03     32.6483E-03         2.89168         1.85453        -7.36773         1.85450        -7.36770         2.89168     23.8993E-03     207.087E-03    -27.1512E-03    -179.961E-03    -46.7332E-03     73.8592E-03    -27.1512E-03     367.536E-03     203.694E+06     176.200E+06    -4.83675E+06    -4.81253E+06     203.669E+06     176.200E+06     1.20282E+06         58.0110
             125     17.5388E-03     33.6815E-03         2.88259         1.86884        -7.34259         1.86882        -7.34257         2.88259    -15.9598E-03     205.336E-03    -27.3986E-03    -177.954E-03    -35.6494E-03     63.0312E-03    -27.3986E-03     370.267E-03     203.196E+06     176.383E+06    -3.74121E+06    -3.71722E+06     203.172E+06     176.383E+06     1.24240E+06         58.0772
             126     17.5378E-03     34.6996E-03         2.85928         1.86936        -7.29469         1.86933        -7.29466         2.85928    -1.80052E-03     199.555E-03    -27.2529E-03    -172.322E-03    -36.7785E-03     64.0109E-03    -27.2529E-03     357.683E-03     202.590E+06     175.149E+06    -5.33596E+06    -5.33294E+06     202.587E+06     175.149E+06    -777.038E+03         58.1531
             127     17.5378E-03     35.7791E-03         2.82309         1.83002        -7.20592         1.82997        -7.20588         2.82309     39.8507E-03     200.176E-03    -27.1113E-03    -173.099E-03    -43.2733E-03     70.3499E-03    -27.1113E-03     355.559E-03     200.649E+06     173.975E+06    -6.57055E+06    -6.56700E+06     200.646E+06     173.975E+06    -854.221E+03         58.2226
             128     17.5357E-03     36.8275E-03         2.77507         1.81171        -7.10889         1.81161        -7.10880         2.77507     57.6820E-03     200.812E-03    -27.1881E-03    -173.649E-03    -43.0232E-03     70.1860E-03    -27.1881E-03     356.938E-03     201.204E+06     175.635E+06    -6.14040E+06    -6.12721E+06     201.191E+06     175.635E+06    -1.49600E+06         58.2945
             129     17.5358E-03     37.8718E-03         2.71390         1.80066        -7.01492         1.80057        -7.01483         2.71390     56.4918E-03     196.366E-03    -27.1361E-03    -169.257E-03    -44.3948E-03     71.5036E-03    -27.1361E-03     346.727E-03     202.471E+06     176.525E+06    -4.85477E+06    -4.82604E+06     202.442E+06     176.525E+06     205.368E+03         58.3858
             130     17.5364E-03     38.9322E-03         2.64087         1.76648        -6.88434         1.76637        -6.88424         2.64087     58.2451E-03     192.735E-03    -27.0629E-03    -165.700E-03    -45.9914E-03     73.0262E-03    -27.0629E-03     338.098E-03     202.344E+06     175.686E+06    -5.93033E+06    -5.83901E+06     202.252E+06     175.686E+06    -1.49158E+06         58.4926
             131     17.5348E-03     39.9929E-03         2.55847         1.74161        -6.72289         1.74147        -6.72275         2.55847     68.6375E-03     192.591E-03    -27.1117E-03    -165.510E-03    -44.7464E-03     71.8279E-03    -27.1117E-03     338.583E-03     203.048E+06     176.805E+06    -4.36247E+06    -4.26922E+06     202.955E+06     176.805E+06    -1.42425E+06         58.6096
             132     17.5368E-03     41.0521E-03         2.46532         1.71344        -6.55209         1.71332        -6.55197         2.46532     61.7760E-03     196.268E-03    -27.1681E-03    -169.131E-03    -43.1864E-03     70.3239E-03    -27.1681E-03     347.310E-03     204.875E+06     177.423E+06    -3.69605E+06    -3.67402E+06     204.853E+06     177.423E+06     807.107E+03         58.7375
             133     17.5360E-03     42.1195E-03         2.36023         1.66885        -6.38620         1.66875        -6.38610         2.36023     56.9057E-03     201.624E-03    -27.2184E-03    -174.425E-03    -43.9528E-03     71.1515E-03    -27.2184E-03     357.999E-03     202.694E+06     175.602E+06    -5.43551E+06    -5.42206E+06     202.680E+06     175.602E+06     443.838E+03         58.8719
             134     17.5331E-03     43.1733E-03         2.24691         1.63588        -6.21446         1.63573        -6.21431         2.24691     68.5003E-03     203.033E-03    -27.3337E-03    -175.718E-03    -43.0368E-03     70.3520E-03    -27.3337E-03     361.362E-03     200.358E+06     174.497E+06    -7.57108E+06    -7.55365E+06     200.340E+06     174.497E+06     1.89305E+06         58.9988
             135     17.5343E-03     44.2261E-03         2.12837         1.60514        -6.00716         1.60489        -6.00691         2.12837     86.4480E-03     203.614E-03    -27.4153E-03    -176.211E-03    -38.5970E-03     66.0002E-03    -27.4153E-03     365.094E-03     203.081E+06     175.646E+06    -6.61806E+06    -6.59028E+06     203.054E+06     175.646E+06     2.32822E+06         59.1118
             136     17.5389E-03     45.2732E-03         2.00337         1.57302        -5.80669         1.57284        -5.80651         2.00337     70.3065E-03     203.656E-03    -27.3954E-03    -176.266E-03    -36.5703E-03     63.9600E-03    -27.3954E-03     366.377E-03     204.402E+06     175.975E+06    -4.68640E+06    -4.66562E+06     204.382E+06     175.975E+06     1.35564E+06         59.2091
             137     17.5340E-03     46.3202E-03         1.87172         1.52904        -5.58633         1.52899        -5.58628         1.87172     33.5166E-03     200.450E-03    -27.3490E-03    -173.104E-03    -37.0685E-03     64.4151E-03    -27.3490E-03     359.502E-03     204.577E+06     175.840E+06    -5.47058E+06    -5.47004E+06     204.576E+06     175.840E+06    -312.865E+03         59.2899
             138     17.5394E-03     47.3571E-03         1.73624         1.47246        -5.32194         1.47217        -5.32164         1.73624     71.8337E-03     194.834E-03    -27.1953E-03    -167.650E-03    -38.2531E-03     65.4377E-03    -27.1953E-03     347.311E-03     206.195E+06     177.677E+06    -3.80425E+06    -3.79353E+06     206.184E+06     177.677E+06    -1.25877E+06         59.3695
             139     17.5395E-03     48.4066E-03         1.59759         1.43361        -5.08527         1.43282        -5.08448         1.59759     141.791E-03     195.405E-03    -26.9852E-03    -168.443E-03    -44.7893E-03     71.7511E-03    -26.9852E-03     344.573E-03     206.701E+06     178.687E+06    -4.11478E+06    -4.08898E+06     206.675E+06     178.687E+06    -2.31852E+06         59.4522
             140     17.5359E-03     49.4960E-03         1.45846         1.40282        -4.89520         1.40550        -4.89451         1.45509     129.414E-03     205.851E-03    -26.9786E-03    -178.894E-03    -51.7247E-03     78.6813E-03    -26.9786E-03     361.969E-03     205.305E+06     178.300E+06    -5.35147E+06    -5.33184E+06     205.285E+06     178.300E+06    -610.919E+03         59.5250
             141     17.5345E-03     50.5633E-03         1.36481         1.31163        -4.67285         1.36460        -4.67264         1.31163     63.6606E-03     212.038E-03    -27.1884E-03    -184.872E-03    -48.3640E-03     75.5295E-03    -27.1884E-03     376.945E-03     206.767E+06     179.227E+06    -4.40957E+06     -4.3251E+06     206.683E+06     179.227E+06     3.56270E+06         59.5902
             142     17.5368E-03     51.6101E-03         1.31413         1.17082        -4.40725         1.31393        -4.40705         1.17082     59.2626E-03     206.686E-03    -27.3747E-03    -179.325E-03    -39.3820E-03     66.7426E-03    -27.3747E-03     371.096E-03     205.948E+06     177.965E+06    -4.87245E+06    -4.79122E+06     205.867E+06     177.965E+06     2.59561E+06         59.6626
             143     17.5362E-03     52.6350E-03         1.26956         1.03314        -4.16217         1.26902        -4.16163         1.03314     106.522E-03     196.010E-03    -27.3498E-03    -168.683E-03    -36.6911E-03     64.0185E-03    -27.3498E-03     350.461E-03     205.415E+06     176.662E+06    -5.94752E+06    -5.94408E+06     205.412E+06     176.662E+06     212.399E+03         59.7500
             144     17.5367E-03     53.6801E-03         1.23308     897.342E-03        -3.94971         1.23265        -3.94927     897.342E-03     89.1949E-03     188.551E-03    -27.2088E-03    -161.388E-03    -39.4385E-03     66.6020E-03    -27.2088E-03     333.462E-03     207.606E+06     176.582E+06    -4.17775E+06    -4.16049E+06     207.589E+06     176.582E+06     1.76940E+06         59.8447
             145     17.5365E-03     54.7405E-03         1.18270     764.081E-03        -3.72775         1.18241        -3.72746     764.081E-03     72.2399E-03     188.164E-03    -27.1422E-03    -161.061E-03    -42.3571E-03     69.4607E-03    -27.1422E-03     330.832E-03     207.018E+06     176.963E+06    -5.43710E+06    -5.38808E+06     206.969E+06     176.963E+06    -655.961E+03         59.9416
             146     17.5348E-03     55.7983E-03         1.14338     636.104E-03        -3.50307         1.14304        -3.50273     636.104E-03     78.7877E-03     191.153E-03    -27.1237E-03    -164.056E-03    -45.3455E-03     72.4431E-03    -27.1237E-03     335.105E-03     206.973E+06     177.907E+06    -5.82942E+06    -5.79059E+06     206.934E+06     177.907E+06    -1.21277E+06         60.0478
             147     17.5351E-03     56.8708E-03         1.11680     515.326E-03        -3.29747         1.11658        -3.29725     515.326E-03     62.6506E-03     193.678E-03    -27.1721E-03    -166.521E-03    -43.5536E-03     70.7110E-03    -27.1721E-03     341.515E-03     208.267E+06     178.011E+06    -4.10751E+06    -4.09653E+06     208.256E+06     178.011E+06     1.52011E+06         60.1616
             148     17.5379E-03     57.9199E-03         1.07642     402.434E-03        -3.09548         1.07616        -3.09522     402.434E-03     64.9722E-03     193.214E-03    -27.2484E-03    -165.983E-03    -40.6322E-03     67.8630E-03    -27.2484E-03     342.416E-03     206.939E+06     176.407E+06    -5.50874E+06    -5.48433E+06     206.915E+06     176.407E+06    -559.080E+03         60.2835
             149     17.5381E-03     60.0276E-03         1.00300     202.950E-03        -2.73884         1.00252        -2.73836     202.950E-03     82.6559E-03     190.095E-03    -27.2591E-03    -162.878E-03    -39.8893E-03     67.1064E-03    -27.2591E-03     336.355E-03     207.322E+06     176.804E+06    -4.69512E+06    -4.66346E+06     207.290E+06     176.804E+06    -1.08556E+06         60.5435
             150     17.5340E-03     61.0819E-03     976.389E-03     118.333E-03        -2.59001     976.091E-03        -2.58971     118.333E-03     65.1429E-03     192.591E-03    -27.2631E-03    -165.361E-03    -39.6004E-03     66.8302E-03    -27.2631E-03     341.763E-03     209.503E+06     177.793E+06    -3.04026E+06    -3.00381E+06     209.466E+06     177.793E+06    -764.290E+03         60.6659
             151     17.5379E-03     62.1418E-03     939.100E-03     44.7400E-03        -2.44348     938.814E-03        -2.44320     44.7400E-03     62.1026E-03     195.171E-03    -27.2645E-03    -167.935E-03    -39.2681E-03     66.5042E-03    -27.2645E-03     347.347E-03     208.109E+06     175.768E+06    -4.66528E+06    -4.63749E+06     208.081E+06     175.768E+06    -472.960E+03         60.7795
             152     17.5360E-03     63.1921E-03     900.824E-03    -17.1203E-03        -2.30282     900.611E-03        -2.30260    -17.1203E-03     52.2424E-03     198.732E-03    -27.2262E-03    -171.533E-03    -42.0254E-03     69.2242E-03    -27.2262E-03     353.100E-03     205.370E+06     173.173E+06    -8.31724E+06    -8.28958E+06     205.342E+06     173.173E+06    -476.166E+03         60.8877
             153     17.5342E-03     64.2573E-03     884.437E-03    -67.6131E-03        -2.20032     884.232E-03        -2.20012    -67.6131E-03     50.1758E-03     201.554E-03    -27.2218E-03    -174.361E-03    -44.4287E-03     71.6214E-03    -27.2218E-03     357.541E-03     207.888E+06     175.051E+06    -6.76873E+06    -6.74214E+06     207.861E+06     175.051E+06     2.34825E+06         60.9860
             154     17.5367E-03     65.3159E-03     874.385E-03    -107.148E-03        -2.11379     874.265E-03        -2.11367    -107.148E-03     32.5513E-03     197.783E-03    -27.3302E-03    -170.471E-03    -36.8563E-03     64.1677E-03    -27.3302E-03     353.974E-03     209.396E+06     175.109E+06    -4.63521E+06    -4.56822E+06     209.329E+06     175.109E+06    -885.912E+03         61.0721
             155     17.5397E-03     66.3327E-03     839.333E-03    -135.135E-03        -2.02089     839.295E-03        -2.02086    -135.135E-03    -6.72735E-03     193.736E-03    -27.2576E-03    -166.498E-03    -35.9425E-03     63.1803E-03    -27.2576E-03     346.164E-03     210.267E+06     176.997E+06    -2.94642E+06    -2.89554E+06     210.216E+06     176.997E+06    -1.81910E+06         61.1668
             156     17.5367E-03     67.4059E-03     800.219E-03    -150.500E-03        -1.94105     800.148E-03        -1.94098    -150.500E-03     1.72000E-03     197.202E-03    -27.0964E-03    -170.124E-03    -44.9532E-03     72.0313E-03    -27.0964E-03     348.156E-03     209.800E+06     177.167E+06    -4.33906E+06    -4.33407E+06     209.795E+06     177.167E+06    -104.807E+03         61.2598
             157     17.5342E-03     68.4798E-03     789.316E-03    -152.483E-03        -1.89766     789.263E-03        -1.89761    -152.483E-03     23.0762E-03     200.897E-03    -27.1551E-03    -173.759E-03    -45.3433E-03     72.4816E-03    -27.1551E-03     355.575E-03     208.989E+06     175.575E+06    -5.09997E+06    -5.06258E+06     208.952E+06     175.575E+06     1.34825E+06         61.3385
             158     17.5390E-03     69.5108E-03     792.470E-03    -141.701E-03        -1.88884     792.446E-03        -1.88882    -141.701E-03     406.854E-06     197.036E-03    -27.1803E-03    -169.878E-03    -41.0936E-03     68.2515E-03    -27.1803E-03     350.241E-03     210.696E+06     176.069E+06    -3.50871E+06    -3.46862E+06     210.656E+06     176.069E+06     1.13252E+06         61.4274
             159     17.5371E-03     70.5738E-03     786.595E-03    -119.513E-03        -1.88807     786.577E-03        -1.88805    -119.513E-03    -13.6131E-03     196.965E-03    -27.1442E-03    -169.834E-03    -42.4699E-03     69.6003E-03    -27.1442E-03     349.252E-03     210.137E+06     174.153E+06    -4.80246E+06    -4.77827E+06     210.112E+06     174.153E+06     626.730E+03         61.5219
             160     17.5351E-03     71.6393E-03     764.523E-03    -86.2951E-03        -1.88687     764.501E-03        -1.88685    -86.2951E-03    -14.6412E-03     200.827E-03    -27.2521E-03    -173.597E-03    -42.6589E-03     69.8890E-03    -27.2521E-03     357.085E-03     211.633E+06     175.135E+06    -4.80752E+06    -4.78150E+06     211.607E+06     175.135E+06     2.31463E+06         61.6051
             161     17.5353E-03     72.6859E-03     752.082E-03    -42.4703E-03        -1.89781     751.792E-03        -1.89752    -42.4703E-03    -47.1444E-03     197.814E-03    -27.3419E-03    -170.486E-03    -38.7135E-03     66.0417E-03    -27.3419E-03     353.081E-03     210.918E+06     173.563E+06    -6.64750E+06    -6.62972E+06     210.900E+06     173.563E+06     1.96117E+06         61.6897
             162     17.5372E-03     73.7205E-03     763.931E-03     10.7276E-03        -1.93883     763.578E-03        -1.93847     10.7276E-03    -58.8811E-03     191.237E-03    -27.2427E-03    -164.009E-03    -36.8241E-03     64.0523E-03    -27.2427E-03     340.617E-03     212.239E+06     172.772E+06    -6.03811E+06    -6.02686E+06     212.227E+06     172.772E+06     1.38374E+06         61.7868
             163     17.5404E-03     74.7752E-03     756.880E-03     73.2836E-03        -1.98868     756.752E-03        -1.98856     73.2836E-03    -3.99953E-03     194.115E-03    -27.0740E-03    -167.075E-03    -41.7265E-03     68.7661E-03    -27.0740E-03     343.822E-03     215.905E+06     175.182E+06    -3.84860E+06    -3.84605E+06     215.902E+06     175.182E+06    -87.8044E+03         61.8842
             164     17.5354E-03     75.8592E-03     745.377E-03     144.991E-03        -2.04325     745.325E-03        -2.04320     144.991E-03     19.5699E-03     201.090E-03    -27.1060E-03    -174.015E-03    -44.6784E-03     71.7534E-03    -27.1060E-03     356.553E-03     217.874E+06     176.447E+06    -3.17477E+06    -3.17053E+06     217.870E+06     176.447E+06     129.308E+03         61.9634
             165     17.5375E-03     76.9012E-03     746.372E-03     223.798E-03        -2.11364     746.340E-03        -2.11360     223.798E-03    -10.2314E-03     196.817E-03    -27.2778E-03    -169.547E-03    -38.6601E-03     65.9303E-03    -27.2778E-03     351.073E-03     218.858E+06     174.558E+06    -5.56546E+06    -5.56158E+06     218.855E+06     174.558E+06     915.772E+03         62.0382
             166     17.5362E-03     77.9275E-03     738.491E-03     308.871E-03        -2.18213     738.443E-03        -2.18208     308.871E-03    -2.93440E-03     189.448E-03    -27.2170E-03    -162.243E-03    -39.1195E-03     66.3240E-03    -27.2170E-03     335.333E-03     222.037E+06     174.744E+06    -5.62333E+06    -5.59516E+06     222.008E+06     174.744E+06     2.12572E+06         62.1380
             167     17.5361E-03     78.9957E-03     752.411E-03     399.965E-03        -2.27094     752.349E-03        -2.27088     399.965E-03     26.8197E-03     188.359E-03    -27.0619E-03    -161.331E-03    -45.0429E-03     72.0706E-03    -27.0619E-03     329.490E-03     222.615E+06     172.917E+06    -8.20028E+06    -8.15418E+06     222.568E+06     172.917E+06     261.632E+03         62.2507
             168     17.5349E-03     80.0642E-03     771.674E-03     495.995E-03        -2.38555     771.507E-03        -2.38538     495.995E-03     44.7071E-03     193.495E-03    -27.1338E-03    -166.397E-03    -44.0187E-03     71.1170E-03    -27.1338E-03     340.898E-03     224.996E+06     175.413E+06    -6.18496E+06    -6.15287E+06     224.964E+06     175.413E+06    -274.807E+03         62.3552
             169     17.5376E-03     81.1267E-03     759.937E-03     594.900E-03        -2.48176     759.790E-03        -2.48161     594.900E-03     15.4460E-03     198.696E-03    -27.2410E-03    -171.492E-03    -39.9828E-03     67.1859E-03    -27.2410E-03     354.309E-03     228.686E+06     177.770E+06    -2.78418E+06    -2.75333E+06     228.655E+06     177.770E+06     2.66444E+06         62.4570
             170     17.5377E-03     82.1749E-03     746.931E-03     687.834E-03        -2.55310     740.003E-03        -2.55305     694.717E-03    -1.25790E-03     198.934E-03    -27.2919E-03    -171.666E-03    -38.2384E-03     65.5065E-03    -27.2919E-03     355.782E-03     227.286E+06     174.157E+06    -6.36287E+06    -6.34476E+06     227.268E+06     174.157E+06     1.60671E+06         62.5534
             171     17.5345E-03     83.2220E-03     795.114E-03     763.007E-03        -2.65903     762.987E-03        -2.65901     795.114E-03     11.8058E-03     195.328E-03    -27.3451E-03    -167.984E-03    -36.4023E-03     63.7469E-03    -27.3451E-03     349.228E-03     229.635E+06     174.996E+06    -5.82143E+06    -5.80905E+06     229.623E+06     174.996E+06     1.36205E+06         62.6395
             172     17.5391E-03     84.2608E-03     895.287E-03     784.673E-03        -2.77770     784.586E-03        -2.77762     895.287E-03     25.3748E-03     191.245E-03    -27.2784E-03    -163.964E-03    -36.1686E-03     63.4499E-03    -27.2784E-03     340.930E-03     235.148E+06     178.342E+06    -3.51389E+06    -3.49010E+06     235.124E+06     178.342E+06     20.0326E+03         62.7256
             173     17.5364E-03     85.3120E-03     993.760E-03     784.227E-03        -2.87691     784.115E-03        -2.87680     993.760E-03     11.2964E-03     190.049E-03    -27.1068E-03    -162.949E-03    -39.5356E-03     66.6353E-03    -27.1068E-03     336.636E-03     238.025E+06     178.738E+06    -3.26527E+06    -3.23207E+06     237.992E+06     178.738E+06     436.152E+03         62.8142
             174     17.5415E-03     86.3768E-03         1.08922     778.338E-03        -2.96004     778.309E-03        -2.96001         1.08922    -19.2019E-03     194.235E-03    -26.9589E-03    -167.294E-03    -42.5558E-03     69.4961E-03    -26.9589E-03     343.726E-03     237.428E+06     174.064E+06    -5.46345E+06    -5.43035E+06     237.395E+06     174.064E+06     433.687E+03         62.9016
             175     17.5390E-03     87.4383E-03         1.17994     771.810E-03        -3.04146     771.736E-03        -3.04139         1.17994    -28.7248E-03     200.462E-03    -26.9581E-03    -173.526E-03    -46.2075E-03     73.1435E-03    -26.9581E-03     354.415E-03     239.965E+06     175.444E+06    -5.80174E+06     -5.7902E+06     239.954E+06     175.444E+06    -1.23186E+06         62.9860
             176     17.5345E-03     88.5123E-03         1.26456     767.131E-03        -3.12367     767.045E-03        -3.12359         1.26456    -34.4805E-03     201.447E-03    -27.1256E-03    -174.330E-03    -43.3068E-03     70.4236E-03    -27.1256E-03     358.010E-03     239.617E+06     174.155E+06    -6.37937E+06    -6.36421E+06     239.602E+06     174.155E+06     1.30964E+06         63.0664
             177     17.5406E-03     89.5387E-03         1.34373     757.306E-03        -3.19673     757.257E-03        -3.19668         1.34373    -27.2532E-03     196.138E-03    -27.0828E-03    -169.059E-03    -37.7790E-03     64.8575E-03    -27.0828E-03     350.474E-03     239.484E+06     168.314E+06    -5.55011E+06    -5.50070E+06     239.435E+06     168.314E+06     3.41224E+06         63.1670
             178     17.5430E-03     90.5849E-03         1.41611     781.151E-03        -3.26551     780.763E-03        -3.26512         1.41611    -69.9730E-03     192.203E-03    -26.8329E-03    -165.382E-03    -39.0109E-03     65.8317E-03    -26.8329E-03     341.858E-03     241.507E+06     162.028E+06    -3.53980E+06    -3.50351E+06     241.471E+06     162.028E+06     1.55944E+06         63.2874
             179     17.5425E-03     91.6629E-03         1.47842     795.863E-03        -3.32666     795.442E-03        -3.32623         1.47842    -77.2824E-03     195.812E-03    -26.8564E-03    -168.964E-03    -37.5706E-03     64.4189E-03    -26.8564E-03     350.137E-03     240.665E+06     156.064E+06    -3.22609E+06    -3.20942E+06     240.648E+06     156.064E+06    -1.83200E+06         63.4056
             180     17.5421E-03     92.6946E-03         1.53104     786.081E-03        -3.37148     786.004E-03        -3.37140         1.53104    -33.1953E-03     194.120E-03    -26.8555E-03    -167.266E-03    -33.1575E-03     60.0111E-03    -26.8555E-03     349.170E-03     236.210E+06     144.985E+06    -5.31363E+06    -5.28307E+06     236.180E+06     144.985E+06     41.7019E+03         63.5356
             181     17.5486E-03     93.7245E-03         1.57503     768.130E-03        -3.36175     767.619E-03        -3.36124         1.57503    -73.8069E-03     188.739E-03    -26.4724E-03    -162.267E-03    -36.1710E-03     62.6435E-03    -26.4724E-03     336.685E-03     229.350E+06     127.291E+06    -9.34292E+06    -9.24097E+06     229.248E+06     127.291E+06    -1.82244E+06         63.6647
             182     17.5484E-03     94.7949E-03         1.60870     748.722E-03        -3.34463     747.793E-03        -3.34370         1.60870    -123.175E-03     189.897E-03    -26.0425E-03    -163.851E-03    -38.5379E-03     64.5837E-03    -26.0425E-03     338.339E-03     224.762E+06     101.411E+06    -2.77441E+06    -2.65723E+06     224.645E+06     101.411E+06    -5.03753E+06         63.7813
             183     17.5582E-03     95.8505E-03         1.63000     759.071E-03        -3.35534     758.451E-03        -3.35472         1.63000    -98.9054E-03     192.754E-03    -25.6625E-03    -167.089E-03    -35.8961E-03     61.5607E-03    -25.6625E-03     346.388E-03     208.724E+06     65.8703E+06    -4.51360E+06    -3.94649E+06     208.157E+06     65.8703E+06    -9.31497E+06         63.9112
             184     17.5609E-03     96.8833E-03         1.63926     744.633E-03        -3.34336     744.432E-03        -3.34315         1.63926    -49.0322E-03     196.135E-03    -25.1460E-03    -170.987E-03    -40.5935E-03     65.7413E-03    -25.1460E-03     351.261E-03     193.430E+06     41.5964E+06    -1.18282E+06    -525.989E+03     192.773E+06     41.5964E+06    -10.7694E+06         64.0407
             185     17.5661E-03     97.9773E-03         1.63799     704.343E-03        -3.28066     703.918E-03        -3.28023         1.63799    -66.5111E-03     201.055E-03    -24.9797E-03    -176.074E-03    -41.8653E-03     66.8456E-03    -24.9797E-03     360.986E-03     161.511E+06     46.3383E+06    -6.29751E+06    -4.36597E+06     159.580E+06     46.3383E+06    -15.0427E+06         64.1631
             186     17.5701E-03     99.0057E-03         1.62531     680.080E-03        -3.19686     679.412E-03        -3.19619         1.62531    -101.113E-03     196.114E-03    -25.1186E-03    -170.995E-03    -34.7812E-03     59.9001E-03    -25.1186E-03     354.683E-03     122.449E+06     76.1184E+06    -9.81663E+06    -6.48055E+06     109.195E+06     86.0361E+06    -19.8261E+06         64.3014
             187     17.5787E-03     100.022E-03         1.59957     660.538E-03        -3.11773     660.199E-03        -3.11739         1.59957    -69.2807E-03     180.865E-03    -24.9106E-03    -155.950E-03    -35.2650E-03     60.1800E-03    -24.9106E-03     322.799E-03     111.504E+06     77.1562E+06    -3.73072E+06     269.233E+03     73.1563E+06     111.504E+06    -17.2668E+06         64.4219
             188     17.5752E-03     101.082E-03         1.56050     658.822E-03        -3.05435     658.730E-03        -3.05426         1.56050    -32.0367E-03     178.577E-03    -24.6312E-03    -153.939E-03    -42.6959E-03     67.3334E-03    -24.6312E-03     313.752E-03     105.167E+06     49.1445E+06    -3.12471E+06      458.61E+03     45.5612E+06     105.167E+06    -13.2073E+06         64.4544
             189     17.5767E-03     102.162E-03         1.50928     641.752E-03        -2.96979     641.699E-03        -2.96973         1.50928    -24.9211E-03     188.102E-03    -24.6121E-03    -163.500E-03    -43.6759E-03     68.2782E-03    -24.6121E-03     333.182E-03     82.5792E+06     28.1245E+06    -499.450E+03     2.02379E+06     25.6012E+06     82.5792E+06    -8.05906E+06         64.3436
             190     17.5749E-03     103.223E-03         1.44796     600.024E-03        -2.83188     599.958E-03        -2.83181         1.44796    -29.4384E-03     189.280E-03    -24.9213E-03    -164.367E-03    -33.1334E-03     58.0465E-03    -24.9213E-03     341.411E-03     73.2799E+06     16.1419E+06    -9.96972E+06    -772.490E+03     6.94469E+06     73.2799E+06    -10.4975E+06         64.0530
             191     17.5768E-03     104.232E-03         1.37766     570.360E-03        -2.67608     570.318E-03        -2.67604         1.37766    -23.4752E-03     174.268E-03    -25.1798E-03    -149.083E-03    -22.3750E-03     47.5600E-03    -25.1798E-03     315.696E-03     101.354E+06     20.3470E+06    -4.52854E+06     12.4535E+06     3.36496E+06     101.354E+06    -1.61676E+06         63.5577
             192     17.5811E-03     105.229E-03         1.29714     542.437E-03        -2.51828     542.368E-03        -2.51821         1.29714    -28.5828E-03     159.810E-03    -24.8239E-03    -134.986E-03    -30.1264E-03     54.9497E-03    -24.8239E-03     281.251E-03     99.7996E+06     10.4386E+06    -37.9512E+06    -16.2614E+06    -11.2512E+06     99.7996E+06    -12.5342E+06         62.7821
             193     17.5761E-03     106.310E-03         1.20569     507.403E-03        -2.36086     507.354E-03        -2.36081         1.20569    -21.2728E-03     164.863E-03    -24.4485E-03    -140.411E-03    -46.1110E-03     70.5633E-03    -24.4485E-03     282.058E-03     95.1896E+06     14.0139E+06    -72.6283E+06    -10.1496E+06    -48.4648E+06     95.1896E+06    -17.9266E+06         61.6681
             194     17.5779E-03     107.405E-03         1.10575     475.762E-03        -2.19541     475.738E-03        -2.19538         1.10575    -14.7529E-03     172.541E-03    -24.4930E-03    -148.042E-03    -49.2482E-03     73.7472E-03    -24.4930E-03     296.019E-03     108.175E+06     7.15644E+06    -75.0128E+06     6.51380E+06    -74.3702E+06     108.175E+06    -5.03625E+06         60.2952
             195     17.5782E-03     108.424E-03     998.020E-03     438.987E-03        -2.00713     438.754E-03        -2.00690     998.020E-03    -41.3409E-03     162.160E-03    -24.1529E-03    -138.007E-03    -54.7818E-03     78.9342E-03    -24.1529E-03     267.415E-03     89.5666E+06     1.84592E+06    -75.2359E+06     636.464E+03    -74.0265E+06     89.5666E+06     559.881E+03         58.7116
             196     17.5767E-03     109.483E-03     881.637E-03     392.555E-03        -1.79020     392.325E-03        -1.78997     881.637E-03    -39.6830E-03     158.638E-03    -23.2460E-03    -135.393E-03    -78.1904E-03     101.435E-03    -23.2460E-03     231.021E-03     62.3875E+06     825.711E+03    -88.3793E+06    -4.63749E+06    -82.9161E+06     62.3875E+06    -8.84193E+06         56.8526
             197     17.5825E-03     110.608E-03     758.087E-03     336.401E-03        -1.54021     335.920E-03        -1.53973     758.087E-03    -48.0710E-03     172.890E-03    -22.1053E-03    -150.778E-03    -104.833E-03     126.945E-03    -22.1053E-03     225.487E-03     50.6332E+06     10.5781E+06    -112.637E+06     5.61796E+06    -107.677E+06     50.6332E+06    -11.5346E+06         54.6710
             198     17.5979E-03     111.759E-03     629.261E-03     271.952E-03        -1.26767     271.412E-03        -1.26713     629.261E-03    -54.1775E-03     187.215E-03    -21.3789E-03    -165.829E-03    -123.099E-03     144.485E-03    -21.3789E-03     230.201E-03     48.5789E+06    -5.34451E+06    -133.039E+06    -8.90446E+06    -129.479E+06     48.5789E+06    -10.2245E+06         52.0537
             199     17.5809E-03     112.943E-03     497.366E-03     216.061E-03        -1.01570     215.977E-03        -1.01562     497.366E-03    -9.97669E-03     206.847E-03    -21.4354E-03    -185.411E-03    -134.360E-03     155.795E-03    -21.4354E-03     263.438E-03     80.4612E+06     20.8160E+06    -116.931E+06     13.2348E+06    -99.8860E+06     70.9974E+06     21.3475E+06         48.8218
             200     17.5835E-03     114.137E-03     368.032E-03     149.322E-03    -735.834E-03     148.856E-03    -735.368E-03     368.032E-03     29.0912E-03     203.570E-03    -22.3564E-03    -181.214E-03    -111.932E-03     134.288E-03    -22.3564E-03     293.004E-03     68.4213E+06     36.2042E+06    -98.8136E+06    -11.9603E+06    -41.1853E+06     58.9575E+06     24.5906E+06         45.2721
             201     17.5707E-03     115.199E-03     247.120E-03     85.4307E-03    -450.152E-03     83.3081E-03    -448.029E-03     247.120E-03     61.0664E-03     158.566E-03    -25.4181E-03    -133.149E-03    -52.1513E-03     77.5684E-03    -25.4181E-03     257.737E-03     29.0117E+06     400.674E+03    -75.6632E+06    -42.8274E+06    -26.5774E+06     23.1540E+06     3.10866E+06         42.1460
             202     17.4732E-03     116.181E-03     133.362E-03     25.5072E-03    -219.216E-03     23.7555E-03    -217.464E-03     133.362E-03     40.2406E-03     75.7250E-03    -4.33954E-03    -71.3867E-03     806.028E-06     33.4427E-03    -34.2500E-03     112.548E-03     35.0525E+06    -2.78275E+06    -80.9671E+06     27.0879E+06    -24.8341E+06    -50.9512E+06     21.6941E+06         39.8958
             203     16.1606E-03     116.778E-03     100.985E-03     172.690E-06    -143.810E-03    -751.069E-06    -142.886E-03     100.985E-03    -14.1404E-03     27.1604E-03     14.0034E-03    -41.1640E-03     16.8053E-03     24.3585E-03    -41.1640E-03     10.5506E-03      56.219E+06    -2.54951E+06    -79.3323E+06    -1.16730E+06     26.2225E+06    -50.7179E+06     16.5272E+06         38.0329
             204     15.1902E-03     116.485E-03     147.459E-03     11.7422E-03    -184.452E-03     10.8359E-03    -183.546E-03     147.459E-03    -23.2775E-03     57.7458E-03    -15.6931E-03    -42.0490E-03    -14.3245E-03     55.2782E-03    -40.9500E-03     1.06193E-03     62.8515E+06    -3.04715E+06    -46.1447E+06    -39.9848E+06     17.5840E+06     36.0605E+06     326.053E+03         35.9711
             205     14.3045E-03     116.188E-03     191.317E-03     29.9240E-03    -212.852E-03     29.7830E-03    -212.711E-03     191.317E-03    -11.6545E-03     84.7960E-03    -38.7324E-03    -46.0584E-03    -44.9809E-03     83.7186E-03    -38.7324E-03    -22.9212E-03     40.5259E+06    -1.99706E+06    -66.7523E+06    -56.9976E+06    -11.7517E+06     40.5259E+06    -21.3907E+06         33.6469
             206     13.4152E-03     115.955E-03     229.351E-03     72.6202E-03    -253.312E-03     72.3325E-03    -253.024E-03     229.351E-03    -18.9480E-03     85.5541E-03    -35.7028E-03    -49.8465E-03    -48.1172E-03     83.8249E-03    -35.7028E-03    -30.3908E-03     16.6088E+06    -5.12439E+06    -65.4477E+06    -56.5442E+06    -14.0279E+06     16.6088E+06    -19.4245E+06         31.1545
             207     12.4978E-03     115.784E-03     261.365E-03     110.545E-03    -282.148E-03     109.803E-03    -281.406E-03     261.365E-03    -33.5736E-03     83.4051E-03    -33.1743E-03    -50.2267E-03    -48.5698E-03     81.7482E-03    -33.1743E-03    -29.5383E-03     23.1867E+06     840.804E+03    -49.4601E+06    -43.1244E+06    -5.49489E+06     23.1867E+06    -13.7209E+06         28.9065
             208     11.5747E-03     115.645E-03     289.420E-03     146.146E-03    -316.580E-03     145.618E-03    -316.052E-03     289.420E-03    -22.3761E-03     80.8474E-03    -30.8727E-03    -49.9801E-03    -48.7512E-03     79.6186E-03    -30.8727E-03    -25.1200E-03     35.9545E+06     7.67346E+06    -44.1865E+06    -37.0957E+06      582.62E+03     35.9545E+06    -14.5039E+06         27.1594
             209     10.6415E-03     115.537E-03     314.275E-03     185.737E-03    -343.476E-03     185.664E-03    -343.403E-03     314.275E-03    -10.2270E-03     77.1747E-03    -28.5517E-03    -48.6307E-03    -47.7873E-03     76.3313E-03    -28.5517E-03    -20.4862E-03     36.6845E+06    -4.28373E+06    -40.4004E+06    -35.1900E+06    -9.49414E+06     36.6845E+06    -7.45590E+06         25.7947
             210     9.70271E-03     115.446E-03     335.996E-03     227.605E-03    -361.363E-03     227.508E-03    -361.266E-03     335.996E-03    -14.4874E-03     70.9337E-03    -26.2744E-03    -44.6597E-03    -44.0743E-03     70.3484E-03    -26.2744E-03    -16.3602E-03     39.8592E+06     3.48072E+06    -38.2430E+06    -37.3370E+06     2.57471E+06     39.8592E+06    -5.29329E+06         24.7667
             211     8.75695E-03     115.375E-03     353.906E-03     278.372E-03    -397.945E-03     278.324E-03    -397.897E-03     353.906E-03    -11.4271E-03     62.6885E-03    -24.1983E-03    -38.4873E-03    -38.1336E-03     62.3348E-03    -24.1983E-03    -11.8619E-03     29.2231E+06     785.201E+03    -41.1977E+06    -40.0566E+06    -355.917E+03     29.2231E+06    -6.53365E+06         24.0891
             212     7.80010E-03     115.319E-03     367.759E-03     317.915E-03    -415.842E-03     317.757E-03    -415.685E-03     367.759E-03    -19.9196E-03     55.6017E-03    -22.4525E-03    -33.1439E-03    -32.9044E-03     55.3622E-03    -22.4525E-03    -9.20787E-03     20.5398E+06     7.22736E+06    -37.9785E+06    -33.8959E+06     3.14483E+06     20.5398E+06    -10.8296E+06         23.6291
             213     6.83564E-03     115.278E-03     379.230E-03     335.860E-03    -420.219E-03     335.085E-03    -419.444E-03     379.230E-03    -45.5568E-03     50.8323E-03    -20.9790E-03    -29.8484E-03    -29.6420E-03     50.6259E-03    -20.9790E-03    -8.14254E-03     18.8431E+06     3.07338E+06    -29.6283E+06    -22.5697E+06    -3.98517E+06     18.8431E+06    -13.3476E+06         23.2636
             214     5.87052E-03     115.246E-03     388.884E-03     361.593E-03    -445.395E-03     359.614E-03    -443.415E-03     388.884E-03    -78.7994E-03     46.3002E-03    -19.6851E-03    -26.6130E-03    -26.4705E-03     46.1577E-03    -19.6851E-03    -6.40585E-03     27.0577E+06    -460.087E+03    -17.9634E+06    -13.4476E+06    -4.97584E+06     27.0577E+06    -7.64682E+06         22.9513
             215     4.89853E-03     115.221E-03     396.847E-03     374.021E-03    -459.101E-03     372.657E-03    -457.737E-03     396.847E-03    -53.7983E-03     41.3989E-03    -18.5757E-03    -22.8222E-03    -22.7328E-03     41.3095E-03    -18.5757E-03    -4.78232E-03     27.3364E+06     2.66401E+06    -12.4088E+06    -10.2335E+06     488.678E+03     27.3364E+06    -5.15023E+06         22.6758
             216     3.92161E-03     115.203E-03     407.454E-03     387.699E-03    -480.016E-03     391.838E-03    -479.696E-03     402.995E-03     16.6986E-03     37.8109E-03    -17.7283E-03    -20.0823E-03    -20.0236E-03     37.7523E-03    -17.7283E-03    -3.65786E-03     17.3421E+06     1.21581E+06    -15.4385E+06    -12.1585E+06    -2.06425E+06     17.3421E+06    -6.17903E+06         22.4416
             217     2.94434E-03     115.190E-03     418.338E-03     403.603E-03    -495.630E-03     417.939E-03    -495.232E-03     403.603E-03     9.47718E-03     35.6538E-03    -17.0923E-03    -18.5610E-03    -18.5211E-03     35.6139E-03    -17.0923E-03    -2.94026E-03     16.8007E+06      7.9163E+06    -12.6832E+06    -7.72045E+06     4.09817E+06     15.6560E+06    -8.94280E+06         22.2662
             218     1.96439E-03     115.183E-03     419.197E-03     396.536E-03    -473.135E-03     418.910E-03    -472.848E-03     396.536E-03    -31.6209E-03     33.1654E-03    -15.6423E-03    -17.5220E-03    -16.2317E-03     33.1328E-03    -16.8999E-03    -2.53956E-03     17.6018E+06     3.59349E+06    -14.9976E+06     4.07028E+06    -1.46616E+06     3.59349E+06    -10.3051E+06         22.1455
             219     981.055E-06     115.178E-03     447.074E-03     335.950E-03    -420.622E-03     445.669E-03    -419.217E-03     335.950E-03    -63.7273E-03     34.4426E-03    -15.1043E-03    -19.3380E-03    -17.9838E-03     34.3460E-03    -16.3619E-03    -4.25607E-03     32.6001E+06     4.74305E+06    -18.0292E+06     11.6492E+06    -12.0717E+06     19.7365E+06    -12.4651E+06         22.0872
             220    -11.3931E-06     114.150E-03     593.625E-03     343.437E-03    -623.248E-03     589.933E-03    -619.555E-03     343.437E-03     42.1167E-03     33.6226E-03    -13.4417E-03    -20.1813E-03    -16.2701E-03     33.4749E-03    -17.2052E-03    -5.42769E-03     35.8500E+06    -8.09288E+06    -27.1035E+06     13.9830E+06    -19.1764E+06     5.84701E+06    -15.5485E+06         21.9116
             221     3.28725E-06     113.114E-03     754.833E-03     506.255E-03        -1.02874     751.532E-03        -1.02544     506.255E-03     145.514E-03     24.8510E-03    -9.95187E-03    -14.8989E-03    -11.0650E-03     24.7805E-03    -13.7154E-03    -1.73971E-03    -13.1107E+06    -53.3566E+06    -56.8027E+06    -28.7689E+06    -51.3874E+06    -43.1136E+06    -8.37202E+06         21.4967
             222    -874.956E-09     112.101E-03     863.642E-03     737.428E-03        -1.45573     860.749E-03        -1.45284     737.428E-03     161.882E-03     16.2396E-03    -7.30787E-03    -8.93184E-03    -8.46908E-03     16.2173E-03    -7.74832E-03    -225.130E-06    -54.1126E+06    -72.8345E+06    -84.7806E+06    -67.8744E+06    -82.3153E+06     -61.538E+06    -2.94690E+06         21.0190
             223    -183.960E-09     111.083E-03         1.02098     918.164E-03        -1.90511         1.01873        -1.90286     918.164E-03     139.253E-03     9.80042E-03    -4.67583E-03    -5.12460E-03    -4.65784E-03     9.77411E-03    -5.11629E-03    -353.947E-06    -91.2808E+06    -107.915E+06    -125.980E+06    -108.449E+06    -108.811E+06    -107.915E+06    -6.03653E+06         20.6220
             224     244.540E-09     110.080E-03         1.12219         1.02430        -2.22850         1.12153        -2.22784         1.02430     92.5821E-03     5.56713E-03    -2.77783E-03    -2.78931E-03    -2.77678E-03     5.55776E-03    -2.78099E-03     398.194E-06    -126.964E+06    -144.394E+06    -159.968E+06    -151.880E+06    -127.989E+06    -151.457E+06    -4.96952E+06         20.3504
             225    -378.596E-09     109.074E-03         1.21437         1.17798        -2.57380         1.20151        -2.57316         1.19021     94.1093E-03     3.22854E-03    -1.59426E-03    -1.63427E-03    -1.59162E-03     3.22590E-03    -1.63427E-03    -172.511E-06    -122.752E+06    -143.356E+06    -153.243E+06    -142.949E+06    -125.983E+06    -150.419E+06     4.91995E+06         20.2053
             226     282.251E-09     108.074E-03         1.38410         1.34682        -3.01291         1.34663        -3.01271         1.38410     52.5889E-03     2.45563E-03    -1.18712E-03    -1.26856E-03    -1.17759E-03     2.40151E-03    -1.22397E-03     498.217E-06    -80.2720E+06    -94.8763E+06    -119.796E+06    -94.8265E+06    -107.463E+06    -92.6550E+06     8.11353E+06         20.1732
             227    -286.533E-09     107.069E-03         1.51231         1.45403        -3.33313         1.45388        -3.33299         1.51231    -17.5574E-03     3.20889E-03    -1.50209E-03    -1.70681E-03    -1.61732E-03     3.11940E-03    -1.50209E-03     1.29298E-03    -30.3196E+06    -41.6639E+06    -89.8163E+06    -36.3803E+06    -85.9768E+06    -39.4426E+06     12.7498E+06         20.2272
             228     436.720E-09     106.067E-03         1.60707         1.56588        -3.61466         1.56379        -3.61258         1.60707     112.642E-03     5.22511E-03    -2.50681E-03    -2.71828E-03    -2.65787E-03     5.16470E-03    -2.50681E-03     1.33355E-03      289.97E+03    -13.9200E+06    -55.8305E+06    -13.2712E+06    -42.2693E+06    -13.9200E+06     21.1879E+06         20.3532
             229    -328.807E-09     105.060E-03         1.76945         1.63433        -3.93326         1.63143        -3.93036         1.76945     249.291E-03     8.69664E-03    -4.31233E-03    -4.38440E-03    -4.35086E-03     8.66310E-03    -4.31233E-03     1.26562E-03     25.2133E+06     4.57576E+06    -16.6274E+06    -3.94447E+06     12.5305E+06     4.57576E+06     4.82166E+06         20.5713
             230     390.148E-09     104.049E-03         1.96290         1.68755        -4.22184         1.68394        -4.21823         1.96290     284.098E-03     13.9260E-03    -6.77894E-03    -7.14715E-03    -7.11539E-03     13.8943E-03    -6.77894E-03     1.63372E-03     38.5003E+06     21.2447E+06     10.7783E+06     18.3480E+06     30.9306E+06     21.2447E+06    -7.94482E+06         20.9032
             231     237.528E-09     103.032E-03         2.09691         1.76185        -4.44606         1.75441        -4.43862         2.09691     425.418E-03     20.5359E-03    -9.93741E-03    -10.5989E-03    -10.2424E-03     20.4934E-03    -10.2514E-03     2.28191E-03     54.3875E+06     49.8068E+06     29.9816E+06     53.4282E+06     30.9410E+06     49.8068E+06    -3.31378E+06         21.3222
             232    -948.951E-09     102.006E-03         2.30017         1.71326        -4.64427         1.70092        -4.63193         2.30017     556.154E-03     26.7345E-03    -13.1583E-03    -13.5763E-03    -13.1162E-03     26.6925E-03    -13.5763E-03     2.58329E-03     85.9390E+06     82.2813E+06     41.5796E+06     85.8298E+06     41.6888E+06     82.2813E+06     173.997E+03         21.7652
             233     687.072E-09     100.975E-03         2.54381         1.67597        -4.87707         1.64803        -4.84913         2.54381     831.600E-03     32.2727E-03    -15.8121E-03    -16.4608E-03    -16.3233E-03     32.2391E-03    -15.9161E-03     2.52547E-03     100.942E+06     96.4492E+06     34.3775E+06     96.9591E+06     34.6495E+06     100.160E+06    -1.63308E+06         22.1916
             234     404.191E-09     99.9422E-03         2.72025         1.57296        -4.96633         1.51423        -4.90761         2.72025         1.21641     37.8977E-03    -18.6624E-03    -19.2362E-03    -19.2064E-03     37.8679E-03    -18.6624E-03     2.60786E-03     107.124E+06     100.523E+06     23.5251E+06     103.191E+06     23.7469E+06     104.233E+06    -3.07777E+06         22.5826
             235    -426.304E-09     98.8968E-03         2.97383         1.35510        -5.08308         1.25022        -4.97819         2.97383         1.61518     42.4468E-03    -21.0026E-03    -21.4449E-03    -21.4258E-03     42.4277E-03    -21.0026E-03     2.00519E-03     112.690E+06     106.281E+06     23.6451E+06     109.108E+06     23.7087E+06     109.799E+06    -1.87392E+06         22.9118
             236     1.26704E-06     97.8553E-03         3.27907         1.25720        -5.33994         1.07605        -5.15878         3.27907         2.13834     45.5803E-03    -22.4511E-03    -23.1288E-03    -22.8591E-03     45.5751E-03    -22.7155E-03     1.20057E-03     103.380E+06     98.4939E+06     12.8555E+06     99.0329E+06     13.6838E+06     102.012E+06    -7.44754E+06         23.1702
             237    -1.80366E-06     96.8067E-03         3.53080         1.09476        -5.48784     791.160E-03        -5.18424         3.53080         2.73419     48.9056E-03    -24.2829E-03    -24.6214E-03    -24.3542E-03     48.9028E-03    -24.5473E-03     503.659E-06     89.4693E+06     84.5519E+06    -5.60723E+06     88.6268E+06    -4.76471E+06     84.5519E+06    -7.78691E+06         23.3689
             238     1.89381E-06     95.7539E-03         3.78311     838.252E-03        -5.54334     363.620E-03        -5.06871         3.78311         3.32622     51.1000E-03    -25.3291E-03    -25.7699E-03    -25.7696E-03     51.0997E-03    -25.3291E-03     64.2211E-06     80.9645E+06     72.7819E+06    -21.7232E+06     75.9497E+06    -21.3409E+06     77.4144E+06    -5.77760E+06         23.5013
             239    -1.12871E-06     94.7013E-03         4.08218     684.877E-03        -5.71180     32.0284E-03        -5.05895         4.08218         3.86528     51.0121E-03    -25.1582E-03    -25.8535E-03    -25.5238E-03     51.0110E-03    -25.4868E-03    -190.953E-06     66.2638E+06     56.3506E+06    -43.1208E+06     61.2788E+06    -42.7683E+06     60.9830E+06    -5.44999E+06         23.5793
             240     406.032E-09     93.6506E-03         4.36682     608.486E-03        -5.94080    -311.085E-03        -5.02123         4.36682         4.52240     52.4964E-03    -26.0308E-03    -26.4657E-03    -26.1342E-03     52.4934E-03    -26.3594E-03     212.803E-06     50.7165E+06     41.8112E+06    -61.1593E+06     46.9384E+06    -61.0057E+06     45.4358E+06    -3.97069E+06         23.6495
             241    -160.422E-09     92.5945E-03         4.60232     491.724E-03        -6.08352    -740.047E-03        -4.85174         4.60232         5.11921     55.0316E-03    -27.2908E-03    -27.7415E-03    -27.7384E-03     55.0285E-03    -27.2908E-03     159.799E-06     43.9276E+06     38.8981E+06    -70.4957E+06     39.5471E+06    -69.7397E+06     42.5226E+06    -8.50716E+06         23.7103
             242     806.823E-09     91.5356E-03         4.80608     415.482E-03        -6.21265        -1.15594        -4.64123         4.80608         5.62024     54.5680E-03    -27.0150E-03    -27.5533E-03    -27.5506E-03     54.5653E-03    -27.0150E-03     90.9406E-06     19.7163E+06     17.3516E+06    -94.5638E+06     19.0676E+06    -93.9150E+06     17.3516E+06    -6.17432E+06         23.7307
             243    -455.949E-09     90.4822E-03         4.99478     357.591E-03        -6.35724        -1.49932        -4.50033         4.99478         6.00446     54.0902E-03    -26.7734E-03    -27.3168E-03    -26.9638E-03     54.0867E-03    -27.1229E-03     1.05759E-03     3.08356E+06     446.655E+03    -110.055E+06     1.34658E+06    -109.996E+06     2.12382E+06    -1.85268E+06         23.7309
             244    -215.935E-09     89.4264E-03         5.16276     322.928E-03        -6.51352        -1.81101        -4.37958         5.16276         6.32590     55.0208E-03    -27.3338E-03    -27.6880E-03    -27.3342E-03     55.0165E-03    -27.6833E-03     1.18726E-03    -4.67261E+06    -6.76619E+06    -121.391E+06    -6.84196E+06    -121.316E+06    -4.67261E+06    -2.79766E+06         23.7329
             245     213.755E-09     88.3670E-03         5.23679     340.730E-03        -6.63601        -2.16057        -4.13471         5.23679         6.68315     54.2895E-03    -26.7686E-03    -27.5208E-03    -27.5171E-03     54.2858E-03    -26.7686E-03     1.08439E-03    -17.6268E+06    -19.0461E+06    -138.358E+06    -18.0593E+06    -138.342E+06    -18.6297E+06    -1.05819E+06         23.7223
             246     1.21414E-06     87.3161E-03         5.22940     393.079E-03        -6.72483        -2.47105        -3.86070         5.22940         6.97467     53.2757E-03    -26.2273E-03    -27.0478E-03    -26.9714E-03     53.2723E-03    -26.3004E-03    -141.239E-06    -19.9065E+06    -24.3934E+06    -146.157E+06    -23.4312E+06    -146.116E+06    -20.9093E+06    -1.66319E+06         23.7006
             247    -1.32392E-06     86.2649E-03         5.23609     409.067E-03        -6.73674        -2.71313        -3.61454         5.23609         7.08552     53.7972E-03    -26.6895E-03    -27.1080E-03    -26.6866E-03     53.7943E-03    -27.1080E-03    -942.134E-06    -28.6877E+06    -35.9760E+06    -158.306E+06    -32.4471E+06    -158.031E+06    -32.4919E+06    -5.47781E+06         23.6873
             248     589.324E-09     85.2031E-03         5.24754     322.236E-03        -6.69856        -2.97926        -3.39706         5.24754         7.00360     53.6562E-03    -26.5266E-03    -27.1305E-03    -26.7801E-03     53.6513E-03    -26.8721E-03     455.277E-06    -35.5341E+06    -41.5982E+06    -168.857E+06    -38.0362E+06    -168.614E+06    -39.3383E+06    -3.21055E+06         23.6836
             249    -73.8819E-09     84.1517E-03         5.13062     242.636E-03        -6.51290        -3.20430        -3.06596         5.13062         6.74732     53.2322E-03    -26.4578E-03    -26.7752E-03    -26.7702E-03     53.2272E-03    -26.4578E-03     1.17531E-03    -33.3488E+06    -39.7200E+06    -171.959E+06    -35.6178E+06    -171.950E+06    -37.4601E+06     1.04719E+06         23.6845
             250     122.157E-09     83.0992E-03         4.93764     226.865E-03        -6.27473        -3.36305        -2.68481         4.93764         6.46150     53.9121E-03    -26.8658E-03    -27.0461E-03    -26.9237E-03     53.9110E-03    -26.9871E-03     176.931E-06    -34.8782E+06    -41.2340E+06    -176.618E+06    -37.1717E+06    -176.568E+06    -38.9895E+06    -1.45531E+06         23.6897
             251    -339.479E-09     82.0410E-03         4.79647     233.046E-03        -6.16311        -3.51524        -2.41483         4.79647         6.29762     53.4514E-03    -26.5021E-03    -26.9488E-03    -26.8266E-03     53.4504E-03    -26.6234E-03    -522.940E-06    -39.0871E+06    -41.7652E+06    -180.913E+06    -41.3867E+06    -180.858E+06    -39.5207E+06    -1.06308E+06         23.6857
             252     955.665E-09     80.9907E-03         4.69236     119.142E-03        -5.95092        -3.61958        -2.21220         4.69236         5.90176     52.5693E-03    -25.9960E-03    -26.5739E-03    -26.3206E-03     52.5685E-03    -26.2485E-03    -246.136E-06    -34.3259E+06    -35.0035E+06    -178.568E+06    -34.5791E+06    -178.559E+06    -34.7595E+06     1.05823E+06         23.6761
             253    -1.45633E-06     79.9358E-03         4.49245    -61.1201E-03        -5.57657        -3.70221        -1.93548         4.49245         5.21260     52.8673E-03    -26.1995E-03    -26.6685E-03    -26.1990E-03     52.8668E-03    -26.6685E-03    -179.582E-06    -30.0849E+06    -30.7675E+06    -175.558E+06    -30.3891E+06    -175.497E+06    -30.5235E+06    -1.74019E+06         23.6888
             254     1.01697E-06     78.8816E-03         4.22184    -200.807E-03        -5.15917        -3.75792        -1.60206         4.22184         4.45603     53.9047E-03    -26.3817E-03    -27.5233E-03    -27.3059E-03     53.9039E-03    -26.5982E-03    -27.8327E-06    -33.9876E+06    -34.6676E+06    -178.142E+06    -34.3080E+06    -178.063E+06    -34.4261E+06    -853.316E+03         23.7227
             255     769.933E-09     77.8273E-03         3.99186    -284.857E-03        -4.86168        -3.78168        -1.36486         3.99186         3.88057     54.4245E-03    -26.6223E-03    -27.8019E-03    -27.5464E-03     54.4236E-03    -26.8768E-03    -56.8161E-06    -32.9821E+06    -34.7330E+06    -177.408E+06    -34.7539E+06    -177.387E+06    -32.9821E+06     1.44707E+06         23.7462
             256    -1.26196E-06     76.7702E-03         3.68630    -315.889E-03        -4.52408        -3.79929        -1.04067         3.68630         3.13692     53.7337E-03    -26.6606E-03    -27.0718E-03    -26.6599E-03     53.7330E-03    -27.0718E-03    -147.464E-06    -29.5019E+06    -32.3667E+06    -174.421E+06    -31.0315E+06    -174.401E+06    -30.8573E+06     1.43296E+06         23.7464
             257     922.615E-09     75.7173E-03         3.39045    -368.794E-03        -4.18266        -3.78351    -767.935E-03         3.39045         2.31990     53.3805E-03    -26.5951E-03    -26.7848E-03    -26.5938E-03     53.3791E-03    -26.7848E-03     599.321E-06    -31.0873E+06    -32.7733E+06    -175.091E+06    -31.4381E+06    -175.070E+06    -32.4428E+06     1.43553E+06         23.7395
             258    -1.00234E-06     74.6614E-03         3.16661    -487.151E-03        -3.89328        -3.69749    -682.942E-03         3.16661         1.53148     53.1777E-03    -26.4228E-03    -26.7557E-03    -26.7213E-03     53.1764E-03    -26.4559E-03     509.510E-06    -32.3051E+06    -32.6657E+06    -175.701E+06    -32.6667E+06    -175.700E+06    -32.3051E+06     129.178E+03         23.7396
             259     1.57102E-06     73.6089E-03         2.87496    -423.231E-03        -3.66315        -3.61742    -468.967E-03         2.87496     506.307E-03     52.9827E-03    -26.1370E-03    -26.8482E-03    -26.8482E-03     52.9827E-03    -26.1370E-03     70.9258E-06    -24.3746E+06    -27.7179E+06    -174.261E+06    -27.7622E+06    -174.217E+06    -24.3746E+06     1.69484E+06         23.7436
             260    -738.140E-09     72.5562E-03         2.56548    -221.839E-03        -3.57037        -3.53676    -255.454E-03         2.56548    -496.755E-03     53.3554E-03    -26.2369E-03    -27.1205E-03    -26.6482E-03     53.3554E-03    -26.7091E-03    -83.2001E-06    -20.7865E+06    -25.8492E+06    -172.630E+06    -24.1443E+06    -172.585E+06    -22.5361E+06     1.62327E+06         23.7455
             261    -221.703E-09     71.4999E-03         2.29027    -26.5667E-03        -3.51186        -3.35613    -182.298E-03         2.29027        -1.37474     53.5174E-03    -26.4705E-03    -27.0470E-03    -26.5746E-03     53.5173E-03    -26.9427E-03    -202.978E-06    -24.8090E+06    -27.3203E+06    -173.930E+06    -24.8488E+06    -173.890E+06    -27.3203E+06    -1.90412E+06         23.7403
             262     399.012E-09     70.4465E-03         2.02099     324.097E-03        -3.60496        -3.22152    -59.3457E-03         2.02099        -2.30390     53.1972E-03    -26.4755E-03    -26.7217E-03    -26.7216E-03     53.1971E-03    -26.4755E-03    -69.0030E-06    -27.2707E+06    -28.8631E+06    -174.149E+06    -27.3119E+06    -174.108E+06    -28.8631E+06    -1.33959E+06         23.7263
             263    -149.361E-09     69.3925E-03         1.74202     771.926E-03        -3.79165        -3.06516     45.4341E-03         1.74202        -3.31009     53.0006E-03    -26.2158E-03    -26.7849E-03    -26.7848E-03     53.0006E-03    -26.2158E-03     96.1550E-06    -24.7781E+06    -28.4643E+06    -170.234E+06    -27.6844E+06    -170.183E+06    -25.6087E+06     2.23289E+06         23.7144
             264     1.00413E-06     68.3375E-03         1.45404         1.12617        -3.87906        -2.82019     67.2980E-03         1.45404        -4.08179     52.7526E-03    -26.1613E-03    -26.5916E-03    -26.5877E-03     52.7519E-03    -26.1644E-03     388.363E-06    -24.2755E+06    -30.0753E+06    -169.937E+06    -27.1799E+06    -169.889E+06    -27.2197E+06     1.92080E+06         23.7127
             265    -1.06771E-06     67.2860E-03         1.42756         1.23405        -3.98488        -2.64482     65.2055E-03         1.25635        -4.65392     52.7815E-03    -26.1146E-03    -26.6672E-03    -26.1138E-03     52.7807E-03    -26.6672E-03     403.504E-06    -24.5540E+06    -30.0893E+06    -170.817E+06    -27.1482E+06    -170.813E+06    -27.4982E+06     530.908E+03         23.7142
             266     15.3117E-09     66.2306E-03         1.73523         1.15771        -4.25687        -2.42521    -96.4313E-03         1.15771        -5.49948     53.0322E-03    -25.8945E-03    -27.1381E-03    -26.5886E-03     53.0321E-03    -26.4439E-03    -57.9374E-06    -22.0100E+06    -26.0213E+06    -167.978E+06    -24.6484E+06    -167.931E+06    -23.4303E+06    -1.31589E+06         23.7158
             267     1.30206E-06     65.1769E-03         2.18527     961.355E-03        -4.54754        -2.19417    -168.103E-03     961.355E-03        -6.41967     52.6491E-03    -25.8843E-03    -26.7654E-03    -26.5770E-03     52.6476E-03    -26.0712E-03     346.047E-06    -26.0734E+06    -28.8423E+06    -171.658E+06    -27.4850E+06    -171.595E+06    -27.4937E+06    -621.054E+03         23.7259
             268    -1.66837E-06     64.1252E-03         2.60618     696.365E-03        -4.71424        -1.99966    -108.390E-03     696.365E-03        -7.06913     53.3029E-03    -26.5035E-03    -26.7994E-03    -26.6099E-03     53.3003E-03    -26.6904E-03     25.7112E-06    -19.1988E+06    -23.1230E+06    -168.339E+06    -20.5818E+06    -168.305E+06    -21.7744E+06     73.3159E+03         23.7469
             269     1.82523E-06     63.0693E-03         2.80119     603.676E-03        -4.86528        -1.72944    -334.646E-03     603.676E-03        -7.52829     54.0262E-03    -26.8190E-03    -27.2093E-03    -27.2081E-03     54.0250E-03    -26.8190E-03    -436.454E-06    -13.2668E+06    -20.7388E+06    -163.118E+06    -18.1933E+06    -163.088E+06    -15.8424E+06    -2.08566E+06         23.7658
             270    -1.22644E-06     62.0139E-03         2.98096     598.789E-03        -5.08593        -1.50646    -598.517E-03     598.789E-03        -8.01412     53.5987E-03    -26.5468E-03    -27.0554E-03    -26.8280E-03     53.5986E-03    -26.7741E-03     127.311E-06    -17.9542E+06    -28.7215E+06    -168.855E+06    -22.8786E+06    -168.827E+06    -23.8251E+06     26.4869E+03         23.7746
             271     690.161E-09     60.9608E-03         3.23100     554.680E-03        -5.31852        -1.25941    -828.113E-03     554.680E-03        -8.53086     53.7852E-03    -26.6081E-03    -27.1788E-03    -26.9514E-03     53.7851E-03    -26.8354E-03     47.8495E-06    -16.4294E+06    -28.5972E+06    -167.592E+06    -22.8033E+06    -167.515E+06    -22.3003E+06     3.10342E+06         23.7809
             272     44.8865E-09     59.9039E-03         3.38807     570.475E-03        -5.53096    -968.803E-03        -1.17409     570.475E-03        -8.91229     53.8575E-03    -26.5891E-03    -27.2704E-03    -26.9310E-03     53.8560E-03    -26.9270E-03     415.814E-06    -16.6584E+06    -26.0601E+06    -166.019E+06    -23.0188E+06    -165.956E+06    -19.7633E+06     1.93415E+06         23.7878
             273    -762.392E-09     58.8510E-03         3.49816     553.964E-03        -5.66913    -813.960E-03        -1.35701     553.964E-03        -9.15105     53.9152E-03    -26.7797E-03    -27.1364E-03    -26.7781E-03     53.9136E-03    -27.1364E-03     654.642E-06    -20.8307E+06    -26.2900E+06    -167.596E+06    -20.8414E+06    -167.585E+06    -26.2900E+06    -1.01252E+06         23.7947
             274     16.5568E-03     57.5282E-03         1.04266     406.683E-03        -3.08129         1.04253        -3.08115     406.683E-03     38.8576E-03     216.129E-03    -27.1216E-03    -189.068E-03    -49.4088E-03     76.4696E-03    -27.1216E-03     385.132E-03     193.626E+06     149.639E+06    -11.4126E+06    -11.3874E+06     193.601E+06     149.639E+06    -1.22177E+06         58.5386
             275     15.5886E-03     57.0594E-03     962.997E-03     411.299E-03        -3.02967     962.967E-03        -3.02964     411.299E-03     14.1165E-03     167.234E-03    -26.8049E-03    -140.491E-03    -43.5501E-03     70.2940E-03    -26.8049E-03     284.370E-03     158.223E+06     85.7219E+06    -19.0478E+06    -19.0144E+06     158.189E+06     85.7219E+06    -434.345E+03         54.2747
             276     14.6107E-03     56.9090E-03     874.894E-03     401.512E-03        -2.94110     874.858E-03        -2.94106     401.512E-03     18.4326E-03     75.3742E-03    -26.4427E-03    -48.9674E-03    -27.0878E-03     53.4946E-03    -26.4427E-03     88.0502E-03     113.119E+06     12.6419E+06    -30.1059E+06    -21.9189E+06     113.005E+06     4.56976E+06     726.854E+03         48.9846
             277     13.6365E-03     56.8712E-03     799.621E-03     378.385E-03        -2.84553     799.414E-03        -2.84533     378.385E-03     47.6291E-03     54.7668E-03    -26.2494E-03    -28.5433E-03    -25.4733E-03     51.6968E-03    -26.2494E-03     31.1419E-03     67.7189E+06    -21.3950E+06    -49.5658E+06    -21.2263E+06     67.5502E+06    -49.5658E+06     709.929E+03         43.6715
             278     12.6622E-03     56.8420E-03     732.693E-03     352.291E-03        -2.75655     732.487E-03        -2.75634     352.291E-03     28.8982E-03     53.6038E-03    -26.3337E-03    -27.2646E-03    -25.6434E-03     51.9827E-03    -26.3337E-03     22.1660E-03     13.6746E+06    -22.4984E+06    -53.1408E+06    -18.8401E+06     10.0163E+06    -53.1408E+06     189.107E+03         38.9103
             279     11.6858E-03     56.8237E-03     665.660E-03     326.128E-03        -2.66681     664.259E-03        -2.66541     326.128E-03     86.6774E-03     53.0682E-03    -26.4913E-03    -26.5964E-03    -25.8242E-03     52.3111E-03    -26.5064E-03     15.3160E-03    -16.8410E+06    -32.9477E+06    -59.0514E+06    -17.0491E+06    -48.2997E+06    -43.4914E+06    -1.19668E+06         34.8066
             280     10.7123E-03     56.8093E-03     597.086E-03     300.631E-03        -2.57591     595.645E-03        -2.57447     300.631E-03     76.3410E-03     53.3682E-03    -26.6478E-03    -26.7392E-03    -26.1354E-03     52.7817E-03    -26.6649E-03     13.6383E-03    -15.8729E+06    -30.2343E+06    -87.2680E+06    -15.9204E+06    -87.2205E+06    -30.2343E+06    -234.596E+03         31.4992
             281     9.73770E-03     56.7947E-03     517.213E-03     277.159E-03        -2.47611     515.448E-03        -2.47435     277.159E-03     80.9821E-03     53.5977E-03    -26.7178E-03    -26.8631E-03    -26.2876E-03     53.1180E-03    -26.8136E-03     12.2558E-03    -13.7557E+06    -18.4235E+06    -115.663E+06    -16.4651E+06    -115.610E+06    -15.7671E+06     2.16977E+06         29.0991
             282     8.76373E-03     56.7829E-03     431.174E-03     257.385E-03        -2.37573     428.752E-03        -2.37331     257.385E-03     37.4087E-03     53.4983E-03    -26.5774E-03    -26.9159E-03    -26.2788E-03     53.1897E-03    -26.9058E-03     9.89505E-03    -12.3850E+06    -16.7786E+06    -137.182E+06    -16.8532E+06    -137.107E+06    -12.3850E+06     2.95932E+06         27.3782
             283     7.78903E-03     56.7725E-03     384.822E-03     240.436E-03        -2.31765     382.300E-03        -2.31513     240.436E-03     36.5858E-03     53.5038E-03    -26.5278E-03    -26.9851E-03    -26.2938E-03     53.2699E-03    -26.9851E-03     8.61616E-03    -12.8235E+06    -18.3410E+06    -157.921E+06    -16.7805E+06    -157.886E+06    -14.4188E+06     1.55543E+06         26.0608
             284     6.81478E-03     56.7641E-03     368.098E-03     222.717E-03        -2.28436     364.191E-03        -2.28045     222.717E-03    -4.33806E-03     53.8209E-03    -26.7331E-03    -27.0923E-03    -26.5970E-03     53.6602E-03    -27.0676E-03     7.12447E-03    -11.7279E+06    -18.4375E+06    -169.980E+06    -16.7357E+06    -169.977E+06    -13.4327E+06     89.7446E+03         25.0974
             285     5.84068E-03     56.7571E-03     330.249E-03     204.342E-03        -2.22814     316.238E-03        -2.21413     204.342E-03     138.835E-03     54.0188E-03    -26.8717E-03    -27.1487E-03    -26.7970E-03     53.9195E-03    -27.1241E-03     5.62756E-03    -13.1585E+06    -17.9239E+06    -174.147E+06    -17.8301E+06    -174.131E+06     -13.268E+06     625.978E+03         24.5124
             286     4.86761E-03     56.7506E-03     300.835E-03     189.181E-03        -2.18185     255.964E-03        -2.13698     189.181E-03    -154.770E-03     53.9881E-03    -26.8229E-03    -27.1657E-03    -26.7630E-03     53.9282E-03    -27.1657E-03     4.28465E-03    -16.7005E+06    -19.2821E+06    -175.385E+06    -19.0811E+06    -175.364E+06    -16.9228E+06     1.01279E+06         24.2278
             287     3.89322E-03     56.7477E-03     343.730E-03     178.429E-03        -2.21518     215.959E-03        -2.08741     178.429E-03     283.661E-03     54.1962E-03    -26.9524E-03    -27.2451E-03    -26.9184E-03     54.1622E-03    -27.2451E-03     3.24976E-03    -15.2000E+06    -18.9965E+06    -175.136E+06    -18.7843E+06    -175.126E+06    -15.4223E+06     811.806E+03         24.0635
             288     2.91984E-03     56.7442E-03     506.099E-03     169.669E-03        -2.36904     196.888E-03        -2.05983     169.669E-03    -386.647E-03     54.4091E-03    -27.0834E-03    -27.3260E-03    -27.0593E-03     54.3850E-03    -27.3260E-03     2.77655E-03    -13.5208E+06    -18.3746E+06    -174.954E+06    -18.4014E+06    -174.927E+06    -13.5208E+06     654.637E+03         23.9336
             289     1.94622E-03     56.7420E-03     962.216E-03     162.124E-03        -2.82438     175.814E-03        -2.03798     162.124E-03     883.816E-03     54.5834E-03    -27.1949E-03    -27.3881E-03    -27.1797E-03     54.5682E-03    -27.3881E-03     2.19591E-03    -14.9073E+06    -19.0100E+06    -170.231E+06    -19.0619E+06    -170.179E+06    -14.9073E+06     48.6259E+03         23.8493
             290     973.036E-06     56.7388E-03         2.42134     412.170E-03        -4.53977    -94.2851E-03        -2.02414     412.170E-03        -2.69385     54.7890E-03    -27.1921E-03    -27.5969E-03    -27.5506E-03     54.7836E-03    -27.2329E-03     808.389E-06    -18.3642E+06    -23.1759E+06    -167.219E+06    -23.2327E+06    -167.162E+06    -18.3642E+06    -316.383E+03         23.8115
             291     16.5633E-03     56.4714E-03         1.08262     523.545E-03        -3.28278         1.08251        -3.28267     523.545E-03     27.1537E-03     214.964E-03    -27.0232E-03    -188.010E-03    -49.5772E-03     76.5315E-03    -27.0232E-03     382.679E-03     194.636E+06     149.850E+06    -9.04137E+06    -9.00011E+06     194.594E+06     149.850E+06     1.05066E+06         58.4331
             292     15.5862E-03     56.0035E-03         1.01653     535.598E-03        -3.25169         1.01649        -3.25165     535.598E-03     7.35784E-03     165.510E-03    -26.7123E-03    -138.870E-03    -42.2470E-03     68.8874E-03    -26.7123E-03     281.677E-03     158.199E+06     83.8546E+06    -17.6835E+06    -17.5678E+06     158.084E+06     83.8546E+06    -422.930E+03         54.2095
             293     14.6136E-03     55.8567E-03     951.240E-03     531.428E-03        -3.19528     951.127E-03        -3.19516     531.428E-03     34.6395E-03     75.0020E-03    -26.3880E-03    -48.6432E-03    -26.9020E-03     53.2608E-03    -26.3880E-03     87.9505E-03     113.301E+06     11.2707E+06    -29.0161E+06    -22.2646E+06     113.130E+06     4.69009E+06    -519.516E+03         48.9595
             294     13.6370E-03     55.8167E-03     888.903E-03     512.161E-03        -3.11491     888.608E-03        -3.11461     512.161E-03     64.5257E-03     54.5875E-03    -26.2108E-03    -28.3951E-03    -25.1456E-03     51.3381E-03    -26.2108E-03     31.8882E-03     67.1425E+06    -23.1769E+06    -49.6288E+06    -23.0146E+06     66.9803E+06    -49.6288E+06     725.509E+03         43.6685
             295     12.6612E-03     55.7893E-03     825.935E-03     489.559E-03        -3.03215     825.709E-03        -3.03192     489.559E-03     34.8440E-03     53.5877E-03    -26.3195E-03    -27.2717E-03    -25.5900E-03     51.9060E-03    -26.3195E-03     22.5800E-03     12.8765E+06    -23.5825E+06    -52.3275E+06    -21.5049E+06     10.7988E+06    -52.3275E+06     915.812E+03         38.9199
             296     11.6876E-03     55.7695E-03     757.471E-03     467.313E-03        -2.94631     756.468E-03        -2.94531     467.313E-03     71.9714E-03     53.1247E-03    -26.4753E-03    -26.6709E-03    -25.8799E-03     52.3487E-03    -26.4903E-03     15.4890E-03    -18.6288E+06    -32.9273E+06    -56.3682E+06    -20.1277E+06    -45.9957E+06    -41.8010E+06    -310.376E+03         34.8297
             297     10.7118E-03     55.7559E-03     691.374E-03     446.384E-03        -2.86138     690.123E-03        -2.86013     446.384E-03     39.6816E-03     53.2743E-03    -26.6177E-03    -26.6803E-03    -26.0759E-03     52.6849E-03    -26.6328E-03     13.6621E-03    -18.2357E+06    -31.9692E+06    -89.9167E+06    -18.2822E+06    -89.8701E+06    -31.9692E+06    -743.398E+03         31.5330
             298     9.73778E-03     55.7400E-03     630.744E-03     427.270E-03        -2.78568     628.980E-03        -2.78391     427.270E-03     61.2348E-03     53.5282E-03    -26.6853E-03    -26.8353E-03    -26.2396E-03     53.0274E-03    -26.7802E-03     12.5325E-03    -14.0324E+06    -18.8000E+06    -117.912E+06    -15.4784E+06    -117.845E+06    -17.4208E+06     1.50614E+06         29.1352
             299     8.76369E-03     55.7290E-03     576.668E-03     409.823E-03        -2.71918     574.701E-03        -2.71721     409.823E-03     47.3842E-03     53.5463E-03    -26.6438E-03    -26.8941E-03    -26.3341E-03     53.2169E-03    -26.8744E-03     10.2322E-03    -10.7240E+06    -14.9155E+06    -135.973E+06    -14.5049E+06    -135.912E+06    -11.1951E+06     2.61569E+06         27.4086
             300     7.78942E-03     55.7190E-03     526.564E-03     394.039E-03        -2.65545     524.234E-03        -2.65312     394.039E-03     55.1380E-03     53.6433E-03    -26.6957E-03    -26.9573E-03    -26.4612E-03     53.3991E-03    -26.9476E-03     8.81445E-03    -9.32933E+06    -16.3466E+06    -155.151E+06    -14.7704E+06    -155.132E+06    -10.9246E+06     1.42922E+06         26.0826
             301     6.81509E-03     55.7097E-03     484.476E-03     380.025E-03        -2.60194     481.036E-03        -2.59851     380.025E-03     10.1448E-03     53.8354E-03    -26.8070E-03    -27.0342E-03    -26.6636E-03     53.6674E-03    -27.0096E-03     7.30534E-03    -9.37144E+06    -17.3257E+06    -170.014E+06    -15.7402E+06    -170.004E+06    -10.9668E+06     702.160E+03         25.1088
             302     5.84215E-03     55.7018E-03     464.287E-03     366.807E-03        -2.56781     452.507E-03        -2.55603     366.807E-03     148.918E-03     53.8664E-03    -26.7853E-03    -27.0821E-03    -26.7100E-03     53.7665E-03    -27.0574E-03     5.59668E-03    -10.9938E+06    -17.1060E+06    -174.980E+06    -17.1288E+06    -174.957E+06    -10.9938E+06     848.406E+03         24.5144
             303     4.86714E-03     55.6975E-03     457.172E-03     354.080E-03        -2.54481     419.032E-03        -2.50667     354.080E-03    -155.970E-03     53.7986E-03    -26.6897E-03    -27.1085E-03    -26.6338E-03     53.7427E-03    -27.1085E-03     4.19003E-03    -13.1580E+06    -17.3455E+06    -174.352E+06    -17.1396E+06    -174.336E+06    -13.3802E+06     583.179E+03         24.2263
             304     3.89342E-03     55.6919E-03     494.358E-03     342.064E-03        -2.57032     391.950E-03        -2.46791     342.064E-03     259.271E-03     54.0104E-03    -26.8223E-03    -27.1887E-03    -26.7908E-03     53.9789E-03    -27.1887E-03     3.11016E-03    -14.4992E+06    -17.4080E+06    -173.826E+06    -17.1973E+06    -173.815E+06    -14.7215E+06    -355.946E+03         24.0622
             305     2.91997E-03     55.6897E-03     615.940E-03     330.824E-03        -2.68269     364.274E-03        -2.43103     330.824E-03    -382.115E-03     54.4223E-03    -27.0884E-03    -27.3343E-03    -27.1503E-03     54.4016E-03    -27.2516E-03     2.59922E-03    -13.4432E+06    -18.0352E+06    -174.083E+06    -18.0549E+06    -174.063E+06    -13.4432E+06    -1.23252E+06         23.9317
             306     1.94681E-03     55.6859E-03         1.01890     327.853E-03        -3.08764     319.332E-03        -2.38807     327.853E-03     920.927E-03     54.5333E-03    -27.1521E-03    -27.3806E-03    -27.2973E-03     54.5197E-03    -27.2217E-03     1.96475E-03    -13.9865E+06    -20.5638E+06    -171.243E+06    -20.5897E+06    -171.217E+06    -13.9865E+06     257.232E+03         23.8439
             307     973.361E-06     55.6844E-03         2.40268     575.555E-03        -4.72871     84.9956E-03        -2.41103     575.555E-03        -2.64206     54.2722E-03    -26.9735E-03    -27.2987E-03    -27.2555E-03     54.2688E-03    -27.0134E-03     629.158E-06    -20.2960E+06    -25.7201E+06    -167.962E+06    -25.0283E+06    -167.928E+06    -21.0216E+06     205.140E+03         23.7995
             308     16.5682E-03     55.4232E-03         1.11730     648.009E-03        -3.49580         1.11712        -3.49562     648.009E-03     39.1522E-03     214.209E-03    -26.9623E-03    -187.322E-03    -50.0247E-03     76.9113E-03    -26.9623E-03     380.890E-03     195.568E+06     152.305E+06    -9.25065E+06      -9.207E+06     195.525E+06     152.305E+06     671.869E+03         58.3353
             309     15.5910E-03     54.9517E-03         1.07328     666.900E-03        -3.48661         1.07323        -3.48656     666.900E-03     19.3734E-03     166.320E-03    -26.6611E-03    -139.740E-03    -41.3345E-03     67.9151E-03    -26.6611E-03     284.373E-03     158.867E+06     83.7321E+06    -17.1359E+06    -16.9630E+06     158.694E+06     83.7321E+06     1.56037E+06         54.1503
             310     14.6120E-03     54.8021E-03         1.03333     667.951E-03        -3.46132         1.03318        -3.46117     667.951E-03     49.0968E-03     75.5587E-03    -26.3716E-03    -49.2200E-03    -26.6459E-03     52.9846E-03    -26.3716E-03     89.5313E-03     111.890E+06     7.61796E+06    -29.1223E+06    -23.3551E+06     111.682E+06     2.05881E+06     1.08370E+06         48.9376
             311     13.6369E-03     54.7653E-03     977.223E-03     652.745E-03        -3.39563     976.913E-03        -3.39532     652.745E-03     71.6780E-03     54.9380E-03    -26.2151E-03    -28.7427E-03    -25.4164E-03     51.6116E-03    -26.2151E-03     32.4070E-03     67.6886E+06    -24.7665E+06    -47.5355E+06    -24.6114E+06     67.5335E+06    -47.5355E+06     1.57658E+06         43.6679
             312     12.6621E-03     54.7341E-03     904.309E-03     634.811E-03        -3.30646     904.090E-03        -3.30624     634.811E-03     41.2487E-03     53.6241E-03    -26.2989E-03    -27.3307E-03    -25.6353E-03     51.9287E-03    -26.2989E-03     22.6166E-03     14.4183E+06    -24.8109E+06    -53.4917E+06    -22.1912E+06     11.7986E+06    -53.4917E+06     384.215E+03         38.9326
             313     11.6867E-03     54.7166E-03     843.649E-03     617.991E-03        -3.22982     843.076E-03        -3.22924     617.991E-03     65.0890E-03     53.1800E-03    -26.4613E-03    -26.7360E-03    -25.9456E-03     52.3896E-03    -26.4613E-03     15.7186E-03    -16.3086E+06    -30.6090E+06    -58.5552E+06    -18.4562E+06    -44.9367E+06    -42.0800E+06    -548.018E+03         34.8556
             314     10.7132E-03     54.7013E-03     800.327E-03     601.959E-03        -3.17474     799.511E-03        -3.17392     601.959E-03     48.7602E-03     53.3574E-03    -26.6063E-03    -26.7733E-03    -26.1699E-03     52.7541E-03    -26.6063E-03     13.8507E-03    -17.0498E+06    -31.0092E+06    -90.4583E+06    -17.0958E+06    -90.4122E+06    -31.0092E+06    -388.823E+03         31.5694
             315     9.73823E-03     54.6870E-03     769.418E-03     586.020E-03        -3.13061     767.760E-03        -3.12895     586.020E-03     86.9005E-03     53.3540E-03    -26.5546E-03    -26.7924E-03    -26.1305E-03     52.8694E-03    -26.7321E-03     12.3424E-03    -17.2418E+06    -22.0538E+06    -120.036E+06    -17.2946E+06    -119.983E+06    -22.0538E+06    -67.5068E+03         29.1738
             316     8.76333E-03     54.6745E-03     735.094E-03     569.713E-03        -3.08221     733.508E-03        -3.08063     569.713E-03     68.5417E-03     53.5440E-03    -26.6547E-03    -26.8723E-03    -26.3703E-03     53.2194E-03    -26.8322E-03     10.1403E-03    -12.8753E+06    -16.0167E+06    -136.002E+06    -15.5503E+06    -135.957E+06    -13.3858E+06     824.624E+03         27.4413
             317     7.78975E-03     54.6647E-03     671.982E-03     555.039E-03        -3.00585     670.195E-03        -3.00406     555.039E-03     71.3394E-03     53.8575E-03    -26.9054E-03    -26.9502E-03    -26.7140E-03     53.6235E-03    -26.9076E-03     8.66267E-03    -7.23519E+06    -14.7651E+06    -153.688E+06    -14.7865E+06    -153.667E+06    -7.23519E+06     1.52836E+06         26.1062
             318     6.81646E-03     54.6552E-03     609.183E-03     544.907E-03        -2.93303     605.994E-03        -2.92984     544.907E-03     1.94174E-03     53.7168E-03    -26.7801E-03    -26.9384E-03    -26.6131E-03     53.5473E-03    -26.9359E-03     7.34879E-03    -9.87820E+06    -15.7103E+06    -169.325E+06    -15.7309E+06    -169.304E+06    -9.87820E+06     1.28236E+06         25.1211
             319     5.84113E-03     54.6483E-03     598.610E-03     537.513E-03        -2.91771     588.348E-03        -2.90745     537.513E-03     141.352E-03     53.7280E-03    -26.7545E-03    -26.9710E-03    -26.6610E-03     53.6245E-03    -26.9611E-03     5.68204E-03    -12.7573E+06    -15.2076E+06    -174.295E+06    -15.2174E+06    -174.286E+06    -12.7573E+06    -17.2990E+03         24.5159
             320     4.86851E-03     54.6422E-03     618.400E-03     528.036E-03        -2.92569     589.932E-03        -2.89722     528.036E-03    -120.464E-03     53.8265E-03    -26.8014E-03    -27.0245E-03    -26.7587E-03     53.7739E-03    -27.0146E-03     4.06059E-03    -10.2700E+06    -14.8684E+06    -174.036E+06    -14.8747E+06    -174.030E+06    -10.2700E+06    -549.766E+03         24.2219
             321     3.89452E-03     54.6385E-03     635.422E-03     517.671E-03        -2.93221     557.186E-03        -2.85397     517.671E-03     269.158E-03     53.8740E-03    -26.7961E-03    -27.0785E-03    -26.7805E-03     53.8382E-03    -27.0583E-03     3.34673E-03    -11.8919E+06    -15.8402E+06    -174.070E+06    -15.8552E+06    -174.055E+06    -11.8919E+06    -432.976E+03         24.0540
             322     2.92029E-03     54.6339E-03     729.284E-03     511.804E-03        -3.02204     521.491E-03        -2.81425     511.804E-03    -400.673E-03     54.1753E-03    -26.9720E-03    -27.2031E-03    -27.0752E-03     54.1494E-03    -27.0740E-03     2.77421E-03    -13.5483E+06    -17.7880E+06    -174.313E+06    -17.8011E+06    -174.300E+06    -13.5483E+06    -409.772E+03         23.9212
             323     1.94731E-03     54.6310E-03         1.10617     502.557E-03        -3.39035     535.403E-03        -2.81959     502.557E-03     841.912E-03     54.2142E-03    -26.9909E-03    -27.2243E-03    -27.2120E-03     54.2020E-03    -26.9909E-03     1.86368E-03    -14.3661E+06    -21.1675E+06    -171.606E+06    -21.1752E+06    -171.599E+06    -14.3661E+06     231.011E+03         23.8325
             324     974.249E-06     54.6293E-03         2.37557     685.669E-03        -4.84192     303.709E-03        -2.77006     685.669E-03        -2.59004     53.7474E-03    -26.7240E-03    -27.0247E-03    -26.8678E-03     53.7425E-03    -26.8759E-03     668.267E-06    -18.7431E+06    -23.7561E+06    -166.510E+06    -22.1777E+06    -166.504E+06    -20.3273E+06     284.803E+03         23.7843
             325     16.5606E-03     54.3603E-03         1.17629     779.079E-03        -3.73738         1.17615        -3.73723     779.079E-03     39.1542E-03     212.384E-03    -27.0217E-03    -185.426E-03    -48.4615E-03     75.4198E-03    -27.0217E-03     378.011E-03     193.959E+06     151.537E+06    -11.3819E+06    -11.3469E+06     193.924E+06     151.537E+06    -807.615E+03         58.2397
             326     15.5869E-03     53.9008E-03         1.14803     803.822E-03        -3.74494         1.14800        -3.74491     803.822E-03     18.8461E-03     166.750E-03    -26.7592E-03    -140.048E-03    -41.6434E-03     68.3450E-03    -26.7592E-03     284.856E-03     157.398E+06     86.8582E+06    -19.4490E+06    -19.3493E+06     157.298E+06     86.8582E+06     1.01968E+06         54.0902
             327     14.6111E-03     53.7488E-03         1.10311     810.393E-03        -3.72283         1.10303        -3.72275     810.393E-03     37.4098E-03     76.6175E-03    -26.4287E-03    -50.2170E-03    -27.3483E-03     53.7488E-03    -26.4287E-03     90.7490E-03     111.847E+06     11.8283E+06    -30.3779E+06    -22.5514E+06     111.638E+06     4.21041E+06     2.83638E+06         48.9184
             328     13.6370E-03     53.7098E-03         1.05558     800.534E-03        -3.67291         1.05530        -3.67263     800.534E-03     67.7141E-03     55.4250E-03    -26.2233E-03    -29.2208E-03    -25.9796E-03     52.1838E-03    -26.2233E-03     32.1763E-03     69.5326E+06    -22.6581E+06    -47.4014E+06    -22.3787E+06     69.2532E+06    -47.4014E+06     1.43118E+06         43.6718
             329     12.6623E-03     53.6817E-03         1.00022     787.438E-03        -3.60783     999.977E-03        -3.60759     787.438E-03     55.9645E-03     53.8038E-03    -26.2816E-03    -27.5186E-03    -25.8587E-03     52.1439E-03    -26.2816E-03     22.5203E-03     16.8394E+06    -22.7401E+06    -52.3124E+06    -19.6178E+06     13.7172E+06    -52.3124E+06     -451.51E+03         38.9499
             330     11.6875E-03     53.6624E-03     957.035E-03     774.726E-03        -3.55199     956.412E-03        -3.55137     774.726E-03     82.7631E-03     53.1405E-03    -26.4252E-03    -26.7257E-03    -25.9221E-03     52.3497E-03    -26.4380E-03     15.6736E-03    -17.2550E+06    -29.5832E+06    -60.1065E+06    -18.5656E+06    -46.3490E+06      -42.03E+06    -46.2237E+03         34.8854
             331     10.7124E-03     53.6474E-03     927.498E-03     762.063E-03        -3.50900     926.848E-03        -3.50835     762.063E-03     79.0195E-03     53.3632E-03    -26.5726E-03    -26.8068E-03    -26.2063E-03     52.7756E-03    -26.5854E-03     13.6683E-03    -18.6243E+06    -28.8972E+06    -90.1453E+06    -18.6393E+06    -90.1302E+06    -28.8972E+06     841.559E+03         31.6090
             332     9.73869E-03     53.6331E-03     893.868E-03     749.585E-03        -3.46544     892.948E-03        -3.46452     749.585E-03     87.2611E-03     53.5315E-03    -26.5954E-03    -26.9289E-03    -26.3720E-03     53.0573E-03    -26.6779E-03     12.2266E-03    -17.8702E+06    -22.0972E+06    -118.954E+06    -17.8959E+06    -118.929E+06    -22.0972E+06    -739.980E+03         29.2153
             333     8.76464E-03     53.6210E-03     860.268E-03     737.654E-03        -3.42089     859.231E-03        -3.41985     737.654E-03     45.4958E-03     53.5169E-03    -26.6000E-03    -26.9061E-03    -26.4376E-03     53.1904E-03    -26.7421E-03     10.1913E-03    -14.8982E+06    -19.6546E+06    -137.133E+06    -16.6835E+06    -137.104E+06    -17.8983E+06    -1.41277E+06         27.4769
             334     7.79052E-03     53.6095E-03     824.758E-03     726.626E-03        -3.37406     823.203E-03        -3.37251     726.626E-03     72.0350E-03     53.6317E-03    -26.7559E-03    -26.8723E-03    -26.5765E-03     53.3954E-03    -26.8154E-03     8.64246E-03    -9.98318E+06    -15.2627E+06    -155.499E+06    -14.3026E+06    -155.479E+06    -10.9630E+06     294.265E+03         26.1322
             335     6.81604E-03     53.6018E-03     786.898E-03     717.296E-03        -3.32877     784.426E-03        -3.32630     717.296E-03     17.6017E-03     53.7244E-03    -26.7832E-03    -26.9442E-03    -26.7193E-03     53.5668E-03    -26.8505E-03     7.09303E-03    -8.86416E+06    -13.0887E+06    -167.251E+06    -13.1073E+06    -167.232E+06    -8.86416E+06     981.539E+03         25.1357
             336     5.84314E-03     53.5936E-03     768.311E-03     709.543E-03        -3.30545     759.703E-03        -3.29684     709.543E-03     156.862E-03     53.5668E-03    -26.6301E-03    -26.9349E-03    -26.6051E-03     53.4646E-03    -26.8577E-03     5.66225E-03    -12.3054E+06    -15.1746E+06    -172.604E+06    -14.2916E+06    -172.593E+06    -13.1986E+06    -195.056E+03         24.5181
             337     4.86837E-03     53.5880E-03     765.090E-03     702.045E-03        -3.29661     744.827E-03        -3.27635     702.045E-03    -71.5410E-03     53.6491E-03    -26.6520E-03    -26.9951E-03    -26.6974E-03     53.5887E-03    -26.8892E-03     4.37093E-03    -12.5120E+06    -16.7422E+06    -174.864E+06    -14.7647E+06    -174.857E+06    -14.4973E+06    -1.08722E+06         24.2153
             338     3.89447E-03     53.5842E-03     771.283E-03     697.705E-03        -3.29901     704.505E-03        -3.23223     697.705E-03     336.757E-03     53.9476E-03    -26.8256E-03    -27.1214E-03    -27.0029E-03     53.9060E-03    -26.9025E-03     3.61576E-03    -10.8938E+06    -16.5340E+06    -174.462E+06    -15.4495E+06    -174.455E+06    -11.9859E+06     8.84955E+03         24.0442
             339     2.92153E-03     53.5790E-03     864.638E-03     700.554E-03        -3.39138     682.541E-03        -3.20928     700.554E-03    -374.376E-03     53.8318E-03    -26.8166E-03    -27.0137E-03    -26.9404E-03     53.8063E-03    -26.8644E-03     2.74414E-03    -12.6406E+06    -16.7111E+06    -174.906E+06    -16.7172E+06    -174.900E+06    -12.6406E+06     957.797E+03         23.9083
             340     1.94747E-03     53.5767E-03         1.20059     699.432E-03        -3.72401     718.136E-03        -3.24156     699.432E-03     798.481E-03     53.6323E-03    -26.7234E-03    -26.9089E-03    -26.7860E-03     53.6204E-03    -26.8344E-03     1.87627E-03    -13.2786E+06    -18.0907E+06    -170.446E+06    -18.0995E+06    -170.437E+06    -13.2786E+06    -171.377E+03         23.8173
             341     973.519E-06     53.5744E-03         2.31106     893.970E-03        -5.02849     496.331E-03        -3.21377     893.970E-03        -2.46622     53.5885E-03    -26.6463E-03    -26.9426E-03    -26.7224E-03     53.5835E-03    -26.8614E-03     522.692E-06    -16.9059E+06    -22.2967E+06    -166.261E+06    -21.4452E+06    -166.254E+06    -17.7645E+06    -696.687E+03         23.7706
             342     16.5640E-03     53.3103E-03         1.23212     915.540E-03        -3.97177         1.23189        -3.97154     915.540E-03     35.0276E-03     212.018E-03    -27.1186E-03    -184.952E-03    -47.2703E-03     74.3364E-03    -27.1186E-03     377.864E-03     193.547E+06     149.814E+06    -10.4078E+06    -10.3867E+06     193.526E+06     149.814E+06     569.822E+03         58.1515
             343     15.5850E-03     52.8449E-03         1.21647     946.466E-03        -4.00361         1.21640        -4.00354     946.466E-03     13.6410E-03     166.313E-03    -26.8655E-03    -139.492E-03    -42.6622E-03     69.4835E-03    -26.8655E-03     282.728E-03     155.835E+06     86.6129E+06    -19.9915E+06    -19.9527E+06     155.796E+06     86.6129E+06     307.972E+03         54.0358
             344     14.6115E-03     52.6947E-03         1.17547     958.848E-03        -3.99034         1.17540        -3.99027     958.848E-03     31.1082E-03     76.8624E-03    -26.4798E-03    -50.4072E-03    -28.2309E-03     54.6861E-03    -26.4798E-03     90.0345E-03     112.772E+06     14.0005E+06    -29.5899E+06    -22.5894E+06     112.599E+06     7.17324E+06     1.38503E+06         48.9062
             345     13.6364E-03     52.6550E-03         1.13693     954.462E-03        -3.95324         1.13664        -3.95295     954.462E-03     60.2232E-03     55.4119E-03    -26.2180E-03    -29.2118E-03    -26.0953E-03     52.2954E-03    -26.2180E-03     31.4954E-03     71.5618E+06    -20.7852E+06    -47.3114E+06    -20.5245E+06     71.3011E+06    -47.3114E+06     425.649E+03         43.6818
             346     12.6623E-03     52.6279E-03         1.11300     945.801E-03        -3.92677         1.11273        -3.92649     945.801E-03     57.4077E-03     53.9295E-03    -26.2806E-03    -27.6448E-03    -26.0464E-03     52.3311E-03    -26.2806E-03     22.2968E-03     15.6151E+06    -21.7386E+06    -50.4008E+06    -19.4453E+06     13.3217E+06    -50.4008E+06     712.262E+03         38.9711
             347     11.6879E-03     52.6083E-03         1.08552     936.302E-03        -3.89277         1.08507        -3.89232     936.302E-03     71.2100E-03     53.3900E-03    -26.4047E-03    -26.9921E-03    -26.1713E-03     52.5821E-03    -26.4175E-03     15.8185E-03    -18.3457E+06    -32.2474E+06    -57.1129E+06    -19.0096E+06    -47.4858E+06    -41.2105E+06     2.15360E+06         34.9194
             348     10.7138E-03     52.5942E-03         1.04760     927.148E-03        -3.84419         1.04715        -3.84374     927.148E-03     61.5003E-03     53.2867E-03    -26.5151E-03    -26.7889E-03    -26.2020E-03     52.7126E-03    -26.5279E-03     13.5028E-03    -18.2056E+06    -31.4067E+06    -88.9304E+06    -18.2724E+06    -88.8636E+06    -31.4067E+06     1.28328E+06         31.6528
             349     9.73891E-03     52.5784E-03         1.00856     919.570E-03        -3.80001         1.00800        -3.79945     919.570E-03     66.4361E-03     53.5086E-03    -26.6078E-03    -26.8929E-03    -26.3979E-03     53.0136E-03    -26.6078E-03     12.4913E-03    -17.2688E+06    -24.3829E+06    -115.807E+06    -17.3095E+06    -115.766E+06    -24.3829E+06    -1.20816E+06         29.2602
             350     8.76548E-03     52.5670E-03     988.030E-03     913.105E-03        -3.77270     987.365E-03        -3.77203     913.105E-03     43.0633E-03     53.5901E-03    -26.5913E-03    -26.9904E-03    -26.5855E-03     53.2448E-03    -26.6508E-03     10.4968E-03    -15.7201E+06    -22.7155E+06    -138.335E+06    -15.7766E+06    -138.278E+06    -22.7155E+06    -2.45109E+06         27.5154
             351     7.79071E-03     52.5563E-03     986.537E-03     905.825E-03        -3.76161     985.330E-03        -3.76040     905.825E-03     72.8070E-03     53.5748E-03    -26.6469E-03    -26.9252E-03    -26.6202E-03     53.3293E-03    -26.7064E-03     8.80477E-03    -14.8561E+06    -18.1856E+06    -157.679E+06    -15.5986E+06    -157.662E+06    -17.4605E+06    -1.23388E+06         26.1612
             352     6.81745E-03     52.5467E-03     975.966E-03     896.923E-03        -3.74609     973.875E-03        -3.74399     896.923E-03     5.45472E-03     53.5649E-03    -26.6870E-03    -26.8802E-03    -26.6612E-03     53.4089E-03    -26.7501E-03     7.03419E-03    -10.4207E+06    -15.1345E+06    -166.814E+06    -14.4975E+06    -166.806E+06    -11.0665E+06    -1.79617E+03         25.1536
             353     5.84301E-03     52.5399E-03     941.688E-03     888.801E-03        -3.70446     935.706E-03        -3.69848     888.801E-03     111.247E-03     53.4523E-03    -26.5446E-03    -26.9089E-03    -26.5878E-03     53.3547E-03    -26.7680E-03     5.53058E-03    -10.0417E+06    -15.0079E+06    -171.595E+06    -14.1298E+06     -171.58E+06    -10.9349E+06     223.998E+03         24.5237
             354     4.86874E-03     52.5347E-03     911.154E-03     885.203E-03        -3.67234     892.950E-03        -3.65414     885.203E-03    -139.467E-03     53.5753E-03    -26.5931E-03    -26.9793E-03    -26.7551E-03     53.5115E-03    -26.7534E-03     4.51362E-03    -14.7763E+06    -17.8366E+06    -175.088E+06    -15.8593E+06    -175.080E+06    -16.7615E+06    -245.380E+03         24.2112
             355     3.89577E-03     52.5281E-03     947.015E-03     884.904E-03        -3.71126     888.586E-03        -3.65283     884.904E-03     297.994E-03     53.7587E-03    -26.7275E-03    -27.0311E-03    -26.9922E-03     53.7198E-03    -26.7275E-03     3.43843E-03    -13.1166E+06    -16.8641E+06    -175.105E+06    -15.7756E+06    -175.101E+06    -14.2087E+06    -184.240E+03         24.0361
             356     2.92192E-03     52.5260E-03         1.04416     884.066E-03        -3.80242     890.572E-03        -3.64884     884.066E-03    -366.135E-03     53.4851E-03    -26.6339E-03    -26.8508E-03    -26.7830E-03     53.4651E-03    -26.6817E-03     2.53389E-03    -10.9521E+06    -16.1012E+06    -174.047E+06    -16.1061E+06    -174.042E+06    -10.9521E+06     550.660E+03         23.8971
             357     1.94786E-03     52.5219E-03         1.31196     884.997E-03        -4.06177     878.906E-03        -3.62872     884.997E-03     815.511E-03     53.2039E-03    -26.5223E-03    -26.6811E-03    -26.5285E-03     53.1923E-03    -26.6632E-03     1.79794E-03    -12.7319E+06    -18.3250E+06    -170.489E+06    -18.3338E+06    -170.480E+06    -12.7319E+06    -124.766E+03         23.8018
             358     973.872E-06     52.5213E-03         2.25779         1.12595        -5.25107     647.710E-03        -3.64099         1.12595        -2.30487     53.2761E-03    -26.5667E-03    -26.7101E-03    -26.6143E-03     53.2735E-03    -26.6599E-03     728.105E-06    -16.4863E+06    -22.1269E+06    -165.717E+06    -20.4510E+06    -165.700E+06    -18.1797E+06    -1.32877E+06         23.7538
             359     16.5534E-03     52.2464E-03         1.26737         1.05519        -4.19890         1.26708        -4.19860         1.05519     37.7923E-03     214.899E-03    -27.2720E-03    -187.674E-03    -47.4779E-03     74.7023E-03    -27.2720E-03     383.401E-03     194.268E+06     151.673E+06    -10.4978E+06    -10.4413E+06     194.211E+06     151.673E+06     2.10086E+06         58.0657
             360     15.5858E-03     51.7907E-03         1.26208         1.09327        -4.25547         1.26191        -4.25530         1.09327     23.5996E-03     165.587E-03    -26.9486E-03    -138.696E-03    -44.5675E-03     71.4587E-03    -26.9486E-03     279.666E-03     157.511E+06     86.0082E+06    -19.5573E+06    -19.4476E+06     157.402E+06     86.0082E+06     1.84239E+06         53.9874
             361     14.6108E-03     51.6385E-03         1.25134         1.11159        -4.27096         1.25117        -4.27079         1.11159     49.5244E-03     76.7877E-03    -26.4843E-03    -50.3315E-03    -28.5043E-03     54.9606E-03    -26.4843E-03     89.1776E-03     112.909E+06     11.1497E+06    -28.7190E+06    -23.4578E+06     112.817E+06     5.98018E+06    -1.44475E+06         48.9010
             362     13.6377E-03     51.6014E-03         1.23346         1.11201        -4.25451         1.23311        -4.25416         1.11201     70.1621E-03     55.2211E-03    -26.2213E-03    -29.0110E-03    -25.9766E-03     52.1867E-03    -26.2213E-03     31.1487E-03     70.5722E+06    -22.3342E+06    -47.2933E+06    -22.2606E+06     70.4986E+06    -47.2933E+06    -408.614E+03         43.6961
             363     12.6621E-03     51.5737E-03         1.21317         1.10795        -4.23561         1.21283        -4.23527         1.10795     51.9025E-03     54.0091E-03    -26.2904E-03    -27.7163E-03    -26.0469E-03     52.3397E-03    -26.2904E-03     22.7153E-03     15.3162E+06    -22.5904E+06    -49.6710E+06    -19.5386E+06     12.2645E+06    -49.6710E+06     2.03870E+06         38.9955
             364     11.6879E-03     51.5540E-03         1.19662         1.10323        -4.21873         1.19619        -4.21830         1.10323     59.6502E-03     53.5952E-03    -26.4183E-03    -27.1955E-03    -26.3591E-03     52.7589E-03    -26.4183E-03     16.1880E-03    -15.6057E+06    -32.7889E+06    -54.9032E+06    -16.1346E+06    -47.0833E+06    -40.0799E+06     1.81673E+06         34.9558
             365     10.7138E-03     51.5401E-03         1.17476         1.09847        -4.19243         1.17432        -4.19200         1.09847     60.5947E-03     53.5551E-03    -26.5139E-03    -27.0624E-03    -26.4440E-03     52.9367E-03    -26.5139E-03     14.0610E-03    -13.1313E+06    -29.4977E+06    -87.9889E+06    -13.2238E+06    -87.8964E+06    -29.4977E+06     1.53428E+06         31.6995
             366     9.73970E-03     51.5252E-03         1.15219         1.09453        -4.16770         1.15153        -4.16704         1.09453     75.3629E-03     53.6222E-03    -26.5908E-03    -27.0187E-03    -26.5013E-03     53.1048E-03    -26.5908E-03     12.7932E-03    -13.2805E+06    -19.1999E+06    -112.858E+06    -13.3630E+06    -112.776E+06    -19.1999E+06     808.708E+03         29.3085
             367     8.76475E-03     51.5124E-03         1.13839         1.09122        -4.15054         1.13770        -4.14985         1.09122     62.7302E-03     53.6499E-03    -26.6009E-03    -27.0375E-03    -26.7080E-03     53.3204E-03    -26.6009E-03     10.2176E-03    -16.3471E+06    -22.0270E+06    -138.049E+06    -16.4272E+06    -137.969E+06    -22.0270E+06    -1.24054E+06         27.5570
             368     7.79226E-03     51.5021E-03         1.12971         1.08789        -4.13652         1.12881        -4.13561         1.08789     75.9661E-03     53.5757E-03    -26.6217E-03    -26.9511E-03    -26.7131E-03     53.3377E-03    -26.6217E-03     8.72562E-03    -17.0373E+06    -20.4234E+06    -158.441E+06    -17.3834E+06    -158.418E+06    -20.1007E+06    -1.60841E+06         26.1932
             369     6.81755E-03     51.4930E-03         1.12157         1.08400        -4.12382         1.11920        -4.12187         1.08443    -9.53335E-03     53.3772E-03    -26.5851E-03    -26.7942E-03    -26.5673E-03     53.2134E-03    -26.6482E-03     7.12483E-03    -14.5762E+06    -18.4891E+06    -168.044E+06    -17.8517E+06    -168.036E+06    -15.2220E+06    -1.06179E+06         25.1746
             370     5.84354E-03     51.4862E-03         1.10466         1.08144        -4.10678         1.09901        -4.10156         1.08186     100.082E-03     53.5015E-03    -26.5884E-03    -26.9158E-03    -26.7589E-03     53.4076E-03    -26.6515E-03     5.44989E-03    -12.6356E+06    -17.5221E+06    -172.544E+06    -17.5321E+06    -172.534E+06    -12.6356E+06    -426.478E+03         24.5332
             371     4.87051E-03     51.4798E-03         1.09823         1.08157        -4.10408         1.08173        -4.08757         1.08157    -148.461E-03     53.5115E-03    -26.6011E-03    -26.9102E-03    -26.8446E-03     53.4459E-03    -26.6011E-03     4.54324E-03    -13.8607E+06    -16.1637E+06    -173.235E+06    -16.1536E+06    -173.229E+06    -13.8769E+06    -89.5427E+03         24.2093
             372     3.89598E-03     51.4749E-03         1.14021         1.08111        -4.14995         1.09230        -4.10205         1.08111     258.960E-03     53.1984E-03    -26.4774E-03    -26.7217E-03    -26.6005E-03     53.1598E-03    -26.5601E-03     3.43659E-03    -15.2626E+06    -15.9584E+06    -175.744E+06    -15.9457E+06    -175.740E+06    -15.2788E+06    -707.771E+03         24.0249
             373     2.92220E-03     51.4711E-03         1.21870         1.07805        -4.22146         1.09230        -4.09505         1.07805    -368.534E-03     53.1416E-03    -26.4745E-03    -26.6677E-03    -26.5622E-03     53.1189E-03    -26.5572E-03     2.67979E-03    -12.4276E+06    -16.6126E+06     -174.09E+06    -16.6162E+06    -174.086E+06    -12.4276E+06    -390.426E+03         23.8821
             374     1.94843E-03     51.4694E-03         1.43093         1.07550        -4.42358         1.07839        -4.07104         1.07550     733.426E-03     53.1584E-03    -26.4741E-03    -26.6840E-03    -26.6403E-03     53.1447E-03    -26.5041E-03     2.00206E-03    -10.1153E+06    -17.3052E+06    -169.531E+06    -17.3232E+06    -169.513E+06    -10.1153E+06    -851.284E+03         23.7857
             375     974.192E-06     51.4664E-03         2.25206         1.32043        -5.48322     829.785E-03        -4.06094         1.32043        -2.30057     52.8092E-03    -26.2593E-03    -26.5506E-03    -26.5161E-03     52.8047E-03    -26.2893E-03     749.581E-06    -14.4062E+06    -21.8108E+06    -166.686E+06    -20.1553E+06    -166.648E+06    -16.0997E+06    -886.923E+03         23.7336
             376     16.5532E-03     51.1779E-03         1.31064         1.19697        -4.44606         1.31053        -4.44595         1.19697     25.8762E-03     216.981E-03    -27.2843E-03    -189.740E-03    -48.2338E-03     75.4744E-03    -27.2843E-03     387.244E-03     193.570E+06     152.599E+06    -11.1415E+06    -11.0274E+06     193.456E+06     152.599E+06     1.89117E+06         57.9919
             377     15.5839E-03     50.7336E-03         1.31210         1.24217        -4.51139         1.31197        -4.51126         1.24217     29.7374E-03     161.645E-03    -26.9375E-03    -134.760E-03    -43.6913E-03     70.5758E-03    -26.9375E-03     271.944E-03     159.206E+06     89.2091E+06    -17.5080E+06    -17.3902E+06     159.088E+06     89.2091E+06     186.378E+03         53.9511
             378     14.6122E-03     50.5830E-03         1.32522         1.26616        -4.55174         1.32507        -4.55159         1.26616     51.3600E-03     75.7524E-03    -26.4704E-03    -49.3123E-03    -27.9374E-03     54.3774E-03    -26.4704E-03     87.5224E-03     113.441E+06     14.2968E+06    -28.4103E+06    -20.0487E+06     113.391E+06     5.98463E+06    -944.852E+03         48.9013
             379     13.6358E-03     50.5483E-03         1.32528         1.27167        -4.55694         1.32494        -4.55660         1.27167     77.7588E-03     55.0190E-03    -26.2207E-03    -28.8145E-03    -25.8285E-03     52.0330E-03    -26.2207E-03     30.8505E-03     67.0410E+06    -21.6900E+06    -50.9493E+06    -21.6656E+06     67.0166E+06    -50.9493E+06     90.4456E+03         43.7134
             380     12.6620E-03     50.5187E-03         1.30879         1.27177        -4.54169         1.30744        -4.54135         1.27278     42.2875E-03     54.1134E-03    -26.2870E-03    -27.8266E-03    -26.1718E-03     52.4587E-03    -26.2870E-03     22.6004E-03     14.4984E+06    -21.3671E+06    -50.9619E+06    -19.5084E+06     12.6397E+06    -50.9619E+06     1.49028E+06         39.0229
             381     11.6876E-03     50.5006E-03         1.30297         1.27160        -4.53749         1.30056        -4.53704         1.27357     52.4345E-03     53.5455E-03    -26.4220E-03    -27.1484E-03    -26.3569E-03     52.7540E-03    -26.4220E-03     15.7165E-03    -15.7824E+06    -30.6416E+06    -55.6646E+06    -17.2101E+06    -45.5893E+06    -39.2892E+06     686.177E+03         34.9953
             382     10.7132E-03     50.4854E-03         1.30764         1.27259        -4.54254         1.30626        -4.54210         1.27354     55.6386E-03     53.6832E-03    -26.4992E-03    -27.2157E-03    -26.6248E-03     53.0922E-03    -26.4992E-03     13.7545E-03    -14.4259E+06    -31.2551E+06    -88.3376E+06    -14.4788E+06    -88.2847E+06    -31.2551E+06    -186.059E+03         31.7491
             383     9.73968E-03     50.4710E-03         1.30536         1.27286        -4.54533         1.30494        -4.54490         1.27286     53.8503E-03     53.9300E-03    -26.5649E-03    -27.3588E-03    -26.8495E-03     53.4207E-03    -26.5649E-03     12.7528E-03    -11.2452E+06    -17.2600E+06    -112.784E+06    -11.3287E+06    -112.700E+06    -17.2600E+06     1.37801E+06         29.3602
             384     8.76702E-03     50.4580E-03         1.29613         1.27212        -4.53712         1.29567        -4.53666         1.27212     42.2500E-03     53.7377E-03    -26.5845E-03    -27.1436E-03    -26.8177E-03     53.4118E-03    -26.5845E-03     10.1747E-03    -9.07708E+06    -12.4502E+06    -135.984E+06    -10.3103E+06    -135.901E+06    -11.3004E+06     1.91845E+06         27.6020
             385     7.79175E-03     50.4485E-03         1.28319         1.26696        -4.51665         1.27688        -4.51573         1.27235     73.6666E-03     53.4865E-03    -26.5799E-03    -26.9086E-03    -26.6860E-03     53.2639E-03    -26.5799E-03     8.40587E-03    -10.7155E+06    -14.0423E+06    -157.821E+06    -12.6587E+06    -157.766E+06    -12.1544E+06    -293.376E+03         26.2279
             386     6.81831E-03     50.4392E-03         1.27519         1.26781        -4.50807         1.26735        -4.50653         1.27411     11.7523E-03     53.4202E-03    -26.5663E-03    -26.8560E-03    -26.6972E-03     53.2614E-03    -26.5663E-03     7.05051E-03    -12.3547E+06    -13.9391E+06    -168.888E+06    -13.9543E+06    -168.873E+06    -12.3547E+06    -1.51003E+06         25.1984
             387     5.84470E-03     50.4322E-03         1.29690         1.27372        -4.53509         1.29018        -4.52928         1.27463     156.934E-03     53.4397E-03    -26.5342E-03    -26.9065E-03    -26.8009E-03     53.3341E-03    -26.5342E-03     5.78006E-03    -11.3166E+06    -13.4143E+06    -173.129E+06    -13.4274E+06    -173.115E+06    -11.3166E+06    -1.38523E+06         24.5441
             388     4.87046E-03     50.4256E-03         1.31052         1.27182        -4.54981         1.29774        -4.53703         1.27182    -51.2430E-03     53.2374E-03    -26.4795E-03    -26.7575E-03    -26.6780E-03     53.1685E-03    -26.4902E-03     4.63891E-03    -10.1113E+06    -12.9170E+06    -173.505E+06    -12.9096E+06    -173.496E+06    -10.1275E+06    -1.06214E+06         24.2075
             389     3.89714E-03     50.4216E-03         1.30590         1.27069        -4.54985         1.26548        -4.50944         1.27069     320.357E-03     52.9417E-03    -26.3668E-03    -26.5758E-03    -26.4430E-03     52.9022E-03    -26.4602E-03     3.50259E-03    -11.5250E+06    -13.4201E+06    -175.045E+06    -13.4081E+06    -175.041E+06    -11.5412E+06    -445.397E+03         24.0145
             390     2.92204E-03     50.4181E-03         1.35540         1.27637        -4.60390         1.25003        -4.49854         1.27637    -306.471E-03     52.8818E-03    -26.3272E-03    -26.5559E-03    -26.4059E-03     52.8575E-03    -26.4529E-03     2.75549E-03    -12.3501E+06    -14.7163E+06    -173.182E+06    -14.1350E+06    -173.155E+06    -12.9580E+06    -1.17969E+06         23.8665
             391     1.94806E-03     50.4145E-03         1.55746         1.28499        -4.80989         1.27025        -4.52268         1.28499     714.049E-03     52.9727E-03    -26.3797E-03    -26.5922E-03    -26.5275E-03     52.9584E-03    -26.4301E-03     2.08125E-03    -9.65498E+06    -16.1277E+06    -170.018E+06    -15.5613E+06    -169.976E+06    -10.2628E+06    -2.07316E+06         23.7681
             392     974.854E-06     50.4138E-03         2.26605         1.56256        -5.79635         1.01536        -4.54566         1.56256        -2.26563     52.7025E-03    -26.1622E-03    -26.5393E-03    -26.5267E-03     52.6973E-03    -26.1697E-03     778.154E-06    -14.1524E+06    -21.8963E+06    -168.530E+06    -21.0024E+06    -168.499E+06    -15.0774E+06    -29.6492E+03         23.7178
             393     16.5629E-03     50.1232E-03         1.37675         1.33169        -4.70376         1.36721        -4.70364         1.34111     27.0452E-03     217.464E-03    -27.0506E-03    -190.450E-03    -49.7941E-03     76.8076E-03    -27.0506E-03     387.674E-03     195.673E+06     155.564E+06    -7.64735E+06    -7.56457E+06     195.590E+06     155.564E+06     1.71807E+06         57.9382
             394     15.5897E-03     49.6773E-03         1.40539         1.36750        -4.77377         1.38048        -4.77374         1.39239     7.59178E-03     159.075E-03    -26.7488E-03    -132.370E-03    -39.7314E-03     66.4362E-03    -26.7488E-03     269.877E-03     158.361E+06     88.9454E+06    -14.7303E+06    -14.6394E+06     158.270E+06     88.9454E+06    -540.768E+03         53.9311
             395     14.6112E-03     49.5313E-03         1.43106         1.39007        -4.82740         1.39919        -4.82737         1.42191     24.7431E-03     75.3012E-03    -26.4128E-03    -48.9248E-03    -26.9643E-03     53.3407E-03    -26.4128E-03     87.3751E-03     111.451E+06     12.2435E+06    -28.5949E+06    -19.8643E+06     111.276E+06     3.68778E+06     1.13280E+06         48.9072
             396     13.6373E-03     49.4926E-03         1.44009         1.40351        -4.85371         1.41039        -4.85345         1.43295     67.6578E-03     54.8416E-03    -26.1981E-03    -28.6683E-03    -25.7688E-03     51.9421E-03    -26.1981E-03     30.4049E-03     67.2296E+06    -21.7452E+06    -52.2402E+06    -21.6018E+06     67.0862E+06    -52.2402E+06     2.17548E+06         43.7346
             397     12.6624E-03     49.4657E-03         1.44094         1.41577        -4.86838         1.41745        -4.86811         1.43899     50.9531E-03     54.0877E-03    -26.2640E-03    -27.8234E-03    -26.1556E-03     52.4199E-03    -26.2640E-03     22.5970E-03     13.1170E+06    -21.5691E+06    -53.4685E+06    -21.0364E+06     12.5843E+06    -53.4685E+06     983.972E+03         39.0538
             398     11.6883E-03     49.4452E-03         1.44405         1.42086        -4.87401         1.42038        -4.87353         1.44405     71.1985E-03     53.5996E-03    -26.4073E-03    -27.2096E-03    -26.4424E-03     52.8324E-03    -26.4073E-03     15.4996E-03    -17.4204E+06    -28.8484E+06    -55.3418E+06    -18.7568E+06    -44.0452E+06    -38.8085E+06     240.671E+03         35.0376
             399     10.7144E-03     49.4324E-03         1.45316         1.42317        -4.88750         1.42731        -4.88704         1.44856     71.5491E-03     53.6666E-03    -26.4596E-03    -27.2420E-03    -26.6302E-03     53.0548E-03    -26.4596E-03     13.9781E-03    -16.9685E+06    -34.4492E+06    -87.6170E+06    -17.0071E+06    -87.5784E+06    -34.4492E+06    -1.28626E+06         31.8016
             400     9.74035E-03     49.4155E-03         1.46020         1.43264        -4.90603         1.43990        -4.90565         1.45256     64.3766E-03     53.8838E-03    -26.5163E-03    -27.3648E-03    -26.8307E-03     53.3497E-03    -26.5163E-03     13.0068E-03    -14.4025E+06    -23.5892E+06    -115.519E+06    -15.1584E+06    -115.476E+06    -22.8758E+06    -821.292E+03         29.4143
             401     8.76587E-03     49.4045E-03         1.46166         1.44097        -4.91779         1.44636        -4.91739         1.45586     46.9842E-03     53.7356E-03    -26.5580E-03    -27.1724E-03    -26.8329E-03     53.3962E-03    -26.5580E-03     10.4223E-03    -10.3934E+06    -13.4185E+06    -135.785E+06    -12.8894E+06    -135.736E+06    -10.9717E+06     1.62948E+06         27.6488
             402     7.79334E-03     49.3939E-03         1.46185         1.44611        -4.92222         1.44817        -4.92127         1.45884     86.6585E-03     53.6060E-03    -26.5413E-03    -27.0731E-03    -26.8336E-03     53.3665E-03    -26.5413E-03     8.71853E-03    -9.49084E+06    -11.8920E+06    -155.068E+06    -11.6873E+06    -155.020E+06    -9.74323E+06     1.22243E+06         26.2645
             403     6.81902E-03     49.3860E-03         1.46686         1.45529        -4.93253         1.45940        -4.93095         1.46117     15.7676E-03     53.4606E-03    -26.4929E-03    -26.9687E-03    -26.7952E-03     53.2871E-03    -26.4929E-03     7.42845E-03    -11.8635E+06    -12.8791E+06    -168.127E+06    -12.3327E+06    -168.112E+06    -12.4254E+06    -768.622E+03         25.2243
             404     5.84485E-03     49.3776E-03         1.48906         1.46019        -4.95612         1.48369        -4.95124         1.46068     140.539E-03     53.2134E-03    -26.4398E-03    -26.7723E-03    -26.6554E-03     53.0965E-03    -26.4398E-03     6.03908E-03    -12.9948E+06    -14.8284E+06    -172.475E+06    -13.0976E+06    -172.450E+06    -14.7506E+06    -1.87705E+06         24.5574
             405     4.87135E-03     49.3727E-03         1.49036         1.45759        -4.95586         1.47979        -4.94529         1.45759    -52.3622E-03     53.0187E-03    -26.4077E-03    -26.6082E-03    -26.5277E-03     52.9489E-03    -26.4184E-03     4.69789E-03    -11.7235E+06    -14.9530E+06    -175.156E+06    -13.3218E+06    -175.135E+06    -13.3753E+06    -1.31476E+06         24.2104
             406     3.89621E-03     49.3678E-03         1.47982         1.45764        -4.95454         1.44613        -4.92085         1.45764     302.079E-03     53.0073E-03    -26.3855E-03    -26.6214E-03    -26.5694E-03     52.9660E-03    -26.3962E-03     3.54046E-03    -9.96636E+06    -13.5789E+06    -175.550E+06    -13.3836E+06    -175.540E+06    -10.1719E+06    -481.404E+03         24.0131
             407     2.92336E-03     49.3647E-03         1.52645         1.46417        -5.01266         1.43748        -4.92368         1.46417    -307.158E-03     52.7421E-03    -26.2607E-03    -26.4828E-03    -26.3792E-03     52.7205E-03    -26.3427E-03     2.59662E-03    -11.7465E+06    -14.3850E+06    -171.738E+06    -13.8100E+06    -171.705E+06    -12.3544E+06    -1.37206E+06         23.8594
             408     1.94857E-03     49.3617E-03         1.72087         1.47105        -5.20920         1.46324        -4.95157         1.47105     741.384E-03     52.5189E-03    -26.1355E-03    -26.3832E-03    -26.1195E-03     52.5029E-03    -26.3832E-03     2.21321E-03    -13.9092E+06    -17.3604E+06    -172.457E+06    -16.7770E+06    -172.433E+06    -14.5170E+06    -1.10722E+06         23.7556
             409     973.548E-06     49.3596E-03         2.29386         1.78752        -6.09784         1.15910        -4.96308         1.78752        -2.15905     52.8379E-03    -26.2300E-03    -26.6070E-03    -26.3483E-03     52.8307E-03    -26.4815E-03     958.117E-06    -15.6051E+06    -19.7496E+06    -168.888E+06    -18.8312E+06    -168.881E+06    -16.5302E+06    -106.581E+03         23.7087
             410     16.5722E-03     49.0693E-03         1.48843         1.42082        -4.94187         1.42213        -4.94149         1.48674     44.5504E-03     215.642E-03    -26.8423E-03    -188.836E-03    -49.4477E-03     76.2538E-03    -26.8423E-03     384.272E-03     194.170E+06     155.563E+06    -8.60809E+06    -8.52221E+06     194.084E+06     155.563E+06    -1.00505E+06         57.8865
             411     15.5890E-03     48.6328E-03         1.54271         1.45300        -5.03863         1.45291        -5.03854         1.54271     2.85977E-03     161.161E-03    -26.6196E-03    -134.582E-03    -37.7085E-03     64.2876E-03    -26.6196E-03     275.900E-03     156.727E+06     87.7017E+06    -16.3547E+06    -16.0099E+06     156.382E+06     87.7017E+06     1.10336E+06         53.9090
             412     14.6125E-03     48.4727E-03         1.57734         1.47753        -5.10893         1.47744        -5.10884         1.57734     41.7871E-03     75.8195E-03    -26.3875E-03    -49.4619E-03    -26.6136E-03     52.9711E-03    -26.3875E-03     89.4135E-03     111.657E+06     9.22703E+06    -27.7797E+06    -22.0701E+06     111.243E+06     3.93072E+06     2.84765E+06         48.9136
             413     13.6374E-03     48.4423E-03         1.59334         1.50356        -5.15414         1.50327        -5.15385         1.59334     77.3755E-03     54.7817E-03    -26.2055E-03    -28.5957E-03    -25.4680E-03     51.6540E-03    -26.2055E-03     31.5668E-03     68.5029E+06    -22.0302E+06    -49.9213E+06    -21.8299E+06     68.3027E+06    -49.9213E+06     1.97730E+06         43.7568
             414     12.6620E-03     48.4089E-03         1.60364         1.53332        -5.19590         1.53304        -5.19562         1.60364     77.3538E-03     54.2563E-03    -26.2760E-03    -27.9890E-03    -26.1135E-03     52.3808E-03    -26.2760E-03     23.9266E-03     13.9690E+06    -19.8743E+06    -54.1982E+06    -18.5700E+06     12.6647E+06    -54.1982E+06     1.77481E+06         39.0841
             415     11.6883E-03     48.3927E-03         1.61217         1.54989        -5.22034         1.54937        -5.21982         1.61217     100.417E-03     53.7433E-03    -26.4314E-03    -27.3274E-03    -26.4739E-03     52.8898E-03    -26.4314E-03     16.4230E-03    -17.4369E+06    -25.8118E+06    -54.7418E+06    -18.0400E+06    -42.4096E+06    -37.5409E+06     1.09170E+06         35.0791
             416     10.7137E-03     48.3768E-03         1.62027         1.55555        -5.23594         1.55504        -5.23542         1.62027     96.7508E-03     53.9230E-03    -26.4861E-03    -27.4530E-03    -26.7687E-03     53.2387E-03    -26.4861E-03     14.8564E-03    -17.9227E+06    -31.0699E+06    -85.3288E+06    -17.9638E+06    -85.2877E+06    -31.0699E+06    -325.088E+03         31.8535
             417     9.74023E-03     48.3623E-03         1.62888         1.56306        -5.25347         1.56249        -5.25290         1.62888     100.845E-03     53.8705E-03    -26.5146E-03    -27.3557E-03    -26.7913E-03     53.3062E-03    -26.5146E-03     13.3682E-03    -16.6787E+06    -26.6977E+06    -116.528E+06    -17.4379E+06    -116.482E+06    -25.9843E+06    -1.82376E+06         29.4683
             418     8.76677E-03     48.3496E-03         1.63753         1.57921        -5.27944         1.57864        -5.27887         1.63753     67.0573E-03     53.6349E-03    -26.5554E-03    -27.0834E-03    -26.7236E-03     53.2750E-03    -26.5554E-03     10.7137E-03    -13.9669E+06    -18.3227E+06    -137.991E+06    -15.6515E+06    -137.948E+06    -16.6815E+06    -1.40711E+06         27.6959
             419     7.79200E-03     48.3402E-03         1.64462         1.61558        -5.32009         1.61501        -5.31927         1.64437     85.3668E-03     53.6736E-03    -26.5517E-03    -27.1276E-03    -26.8575E-03     53.4035E-03    -26.5517E-03     9.30764E-03    -12.0914E+06    -13.7886E+06    -154.288E+06    -13.0289E+06    -154.278E+06    -12.8608E+06     324.690E+03         26.3017
             420     6.81888E-03     48.3315E-03         1.65382         1.63841        -5.34687         1.64241        -5.34518         1.64813    -7.90140E-03     53.6171E-03    -26.5007E-03    -27.1113E-03    -26.9127E-03     53.4186E-03    -26.5007E-03     7.96108E-03    -12.5860E+06    -13.8686E+06    -165.843E+06    -12.7984E+06    -165.834E+06    -13.6650E+06     528.408E+03         25.2515
             421     5.84542E-03     48.3246E-03         1.66149         1.63021        -5.34452         1.63696        -5.34078         1.65100     84.1985E-03     53.3265E-03    -26.4399E-03    -26.8836E-03    -26.7570E-03     53.1998E-03    -26.4399E-03     6.30873E-03    -12.9242E+06    -15.4419E+06    -171.707E+06    -13.7048E+06    -171.688E+06    -14.6800E+06    -839.651E+03         24.5743
             422     4.87046E-03     48.3191E-03         1.66199         1.63922        -5.35743         1.63624        -5.34759         1.65514    -117.138E-03     53.1188E-03    -26.3851E-03    -26.7325E-03    -26.6609E-03     53.0472E-03    -26.3851E-03     4.71772E-03    -14.1488E+06    -16.6862E+06    -175.950E+06    -15.0527E+06    -175.932E+06    -15.8005E+06    -1.20910E+06         24.2198
             423     3.89772E-03     48.3142E-03         1.68818         1.65640        -5.40793         1.65867        -5.37981         1.65779     234.039E-03     52.8493E-03    -26.2509E-03    -26.5975E-03    -26.4562E-03     52.8069E-03    -26.3498E-03     3.60175E-03    -14.1371E+06    -16.4236E+06    -176.246E+06    -16.2313E+06    -176.233E+06    -14.3427E+06    -1.04685E+06         24.0199
             424     2.92271E-03     48.3111E-03         1.75307         1.65498        -5.47454         1.67517        -5.39663         1.65498    -355.092E-03     52.6621E-03    -26.1980E-03    -26.4642E-03    -26.2985E-03     52.6343E-03    -26.3359E-03     2.89935E-03    -12.6409E+06    -15.7674E+06    -172.256E+06    -15.7799E+06    -172.244E+06    -12.6409E+06    -1.11338E+06         23.8647
             425     1.94854E-03     48.3094E-03         1.90340         1.64514        -5.61602         1.67301        -5.38563         1.64514     697.367E-03     52.6228E-03    -26.1439E-03    -26.4793E-03    -26.2640E-03     52.6047E-03    -26.3411E-03     2.37343E-03    -13.1783E+06    -16.6598E+06    -172.413E+06    -16.6939E+06    -172.379E+06    -13.1783E+06     740.828E+03         23.7579
             426     974.115E-06     48.3060E-03         2.33217         1.98634        -6.38145         1.29103        -5.34031         1.98634        -2.11185     52.6341E-03    -26.0930E-03    -26.5417E-03    -26.1761E-03     52.6259E-03    -26.4503E-03     1.06316E-03    -18.4684E+06    -21.4105E+06    -170.851E+06    -21.4495E+06    -170.812E+06    -18.4684E+06     369.381E+03         23.7073
             427     16.5683E-03     48.0330E-03         1.63090         1.46326        -5.16400         1.46284        -5.16359         1.63090     60.8722E-03     213.592E-03    -26.8946E-03    -186.736E-03    -47.5414E-03     74.3968E-03    -26.8946E-03     381.182E-03     192.105E+06     152.488E+06    -10.1522E+06    -10.0391E+06     191.992E+06     152.488E+06    -1.37769E+06         57.8194
             428     15.5876E-03     47.5724E-03         1.69092         1.51368        -5.29937         1.51359        -5.29927         1.69092     19.3015E-03     164.497E-03    -26.7335E-03    -137.802E-03    -39.4683E-03     66.1631E-03    -26.7335E-03     281.539E-03     154.990E+06     88.5945E+06    -19.6266E+06    -19.2213E+06     154.585E+06     88.5945E+06     1.06469E+06         53.8710
             429     14.6129E-03     47.4256E-03         1.73028         1.55700        -5.39231         1.55690        -5.39221         1.73028     48.5518E-03     76.4510E-03    -26.4890E-03    -49.9855E-03    -26.7425E-03     53.2080E-03    -26.4890E-03     91.7716E-03     112.355E+06     14.0918E+06    -29.5749E+06    -22.4523E+06     111.918E+06     7.40634E+06     2.19846E+06         48.9129
             430     13.6349E-03     47.3847E-03         1.75101         1.59515        -5.45321         1.59495        -5.45302         1.75101     65.6778E-03     55.4107E-03    -26.2891E-03    -29.1364E-03    -25.5409E-03     51.8152E-03    -26.2891E-03     33.7680E-03     68.4024E+06    -22.1891E+06    -49.4552E+06    -21.9986E+06     68.2119E+06    -49.4552E+06     1.60452E+06         43.7735
             431     12.6618E-03     47.3574E-03         1.76609         1.63292        -5.50509         1.63272        -5.50489         1.76609     51.4108E-03     54.5513E-03    -26.3587E-03    -28.2045E-03    -26.2666E-03     52.6134E-03    -26.3587E-03     24.6104E-03     14.0848E+06    -20.6714E+06    -53.4297E+06    -19.3252E+06     12.7386E+06    -53.4297E+06     1.32947E+06         39.1101
             432     11.6861E-03     47.3365E-03         1.77899         1.67025        -5.55485         1.66989        -5.55449         1.77899     70.9402E-03     54.0663E-03    -26.5141E-03    -27.5658E-03    -26.6272E-03     53.1277E-03    -26.5141E-03     17.1530E-03    -15.5237E+06    -22.7490E+06    -53.9815E+06    -15.9603E+06    -41.3673E+06    -34.9266E+06     2.05044E+06         35.1174
             433     10.7137E-03     47.3232E-03         1.79073         1.68837        -5.58645         1.68800        -5.58608         1.79073     67.5089E-03     54.1165E-03    -26.5733E-03    -27.5529E-03    -26.8519E-03     53.4155E-03    -26.5733E-03     15.0339E-03    -15.1557E+06    -26.8593E+06    -82.2522E+06    -15.2429E+06     -82.165E+06    -26.8593E+06     980.347E+03         31.9026
             434     9.73962E-03     47.3071E-03         1.80316         1.69483        -5.60669         1.69440        -5.60626         1.80316     72.1239E-03     53.9898E-03    -26.5738E-03    -27.4268E-03    -26.8006E-03     53.3636E-03    -26.5738E-03     14.1234E-03    -14.0207E+06    -28.1508E+06    -114.921E+06    -14.0831E+06    -114.858E+06    -28.1508E+06    -2.25583E+06         29.5198
             435     8.76556E-03     47.2963E-03         1.81569         1.72527        -5.64974         1.72478        -5.64925         1.81569     35.7523E-03     53.9350E-03    -26.6146E-03    -27.3283E-03    -26.9244E-03     53.5311E-03    -26.6146E-03     11.3640E-03    -11.3912E+06    -20.8951E+06    -140.387E+06    -12.9471E+06    -140.324E+06    -19.4015E+06    -2.28195E+06         27.7413
             436     7.79207E-03     47.2860E-03         1.82577         1.77337        -5.70553         1.77235        -5.70451         1.82577     81.3788E-03     53.8339E-03    -26.6280E-03    -27.2055E-03    -26.9297E-03     53.5581E-03    -26.6280E-03     9.40909E-03    -11.2372E+06    -14.2022E+06    -155.653E+06    -13.6907E+06    -155.648E+06    -11.7542E+06    -537.898E+03         26.3385
             437     6.81812E-03     47.2771E-03         1.83381         1.78992        -5.72539         1.78840        -5.72387         1.83381     30.6492E-03     53.6748E-03    -26.5840E-03    -27.0872E-03    -26.8942E-03     53.4817E-03    -26.5840E-03     7.84583E-03    -11.7397E+06    -14.1039E+06    -165.012E+06    -13.5985E+06    -165.001E+06    -12.2567E+06    -296.814E+03         25.2795
             438     5.84407E-03     47.2709E-03         1.84269         1.79318        -5.73531         1.78969        -5.73182         1.84269     121.389E-03     53.6219E-03    -26.5333E-03    -27.0888E-03    -26.9572E-03     53.4903E-03    -26.5333E-03     6.48486E-03    -10.2276E+06    -13.1836E+06    -171.471E+06    -13.2161E+06    -171.438E+06    -10.2276E+06     532.033E+03         24.5932
             439     4.87180E-03     47.2646E-03         1.85190         1.82242        -5.77648         1.81388        -5.76795         1.85190    -82.0304E-03     53.3302E-03    -26.4520E-03    -26.8796E-03    -26.7989E-03     53.2495E-03    -26.4520E-03     4.99355E-03    -12.1497E+06    -14.7114E+06    -175.769E+06    -14.5680E+06    -175.742E+06    -12.3209E+06     592.893E+03         24.2323
             440     3.89662E-03     47.2616E-03         1.88925         1.85002        -5.84451         1.85814        -5.81958         1.85619     258.251E-03     52.8333E-03    -26.2901E-03    -26.5441E-03    -26.4007E-03     52.7888E-03    -26.3889E-03     3.70232E-03    -15.4151E+06    -17.0662E+06    -175.622E+06    -15.8376E+06    -175.611E+06    -16.6550E+06    -749.248E+03         24.0318
             441     2.92230E-03     47.2581E-03         1.94249         1.85300        -5.90010         1.87427        -5.83188         1.85300    -322.923E-03     52.7952E-03    -26.2922E-03    -26.5023E-03    -26.3727E-03     52.7645E-03    -26.3911E-03     3.06998E-03    -14.0304E+06    -18.8844E+06    -173.653E+06    -17.8286E+06    -173.640E+06    -15.0990E+06    -589.425E+03         23.8795
             442     1.94848E-03     47.2552E-03         2.04919         1.84841        -6.00731         1.85472        -5.81284         1.84841     646.580E-03     52.9082E-03    -26.3285E-03    -26.5800E-03    -26.5630E-03     52.8912E-03    -26.3285E-03     2.23704E-03    -12.2113E+06    -20.7748E+06    -173.082E+06    -20.8179E+06    -173.039E+06    -12.2113E+06     639.603E+03         23.7725
             443     975.026E-06     47.2535E-03         2.42404         2.18586        -6.71418         1.45013        -5.79873         2.24432        -2.07252     52.3904E-03    -25.8855E-03    -26.5056E-03    -26.3856E-03     52.3836E-03    -25.9988E-03     1.39187E-03    -19.2767E+06    -25.3206E+06    -170.086E+06    -24.5363E+06    -169.984E+06    -20.1628E+06     1.63246E+06         23.7156
             444     16.5573E-03     46.9716E-03         1.77171         1.50571        -5.40186         1.50556        -5.40171         1.77171     42.5555E-03     213.189E-03    -27.1605E-03    -186.046E-03    -46.0222E-03     73.1646E-03    -27.1605E-03     380.984E-03     193.597E+06     153.994E+06    -9.12148E+06    -9.06769E+06     193.543E+06     153.994E+06     302.261E+03         57.7416
             445     15.5854E-03     46.5209E-03         1.83620         1.56699        -5.54934         1.56696        -5.54932         1.83620     8.36027E-03     164.791E-03    -26.9821E-03    -137.835E-03    -41.2398E-03     68.1950E-03    -26.9821E-03     280.751E-03     154.021E+06     87.1654E+06    -19.2017E+06    -19.0218E+06     153.841E+06     87.1654E+06     680.892E+03         53.8231
             446     14.6067E-03     46.3705E-03         1.88033         1.63012        -5.66715         1.63006        -5.66709         1.88033     24.4568E-03     77.7196E-03    -26.6632E-03    -51.0810E-03    -27.4877E-03     54.1264E-03    -26.6632E-03     93.1078E-03     109.718E+06     9.91893E+06    -29.2139E+06    -24.1840E+06     109.476E+06     5.13064E+06     1.57971E+06         48.9029
             447     13.6348E-03     46.3312E-03         1.90607         1.67789        -5.74016         1.67774        -5.74001         1.90607     63.7016E-03     56.3443E-03    -26.4381E-03    -29.9222E-03    -26.2482E-03     52.6703E-03    -26.4381E-03     34.5129E-03     70.8023E+06    -23.5970E+06    -48.4221E+06    -23.8207E+06     70.6742E+06    -48.0703E+06     2.13178E+06         43.7829
             448     12.6588E-03     46.3022E-03         1.92660         1.71768        -5.79776         1.71755        -5.79763         1.92660     25.5159E-03     55.0188E-03    -26.4581E-03    -28.5682E-03    -26.5764E-03     53.0270E-03    -26.4581E-03     25.0589E-03     16.2097E+06    -23.0382E+06    -56.5866E+06    -20.6391E+06     13.8105E+06    -56.5866E+06    -666.115E+03         39.1317
             449     11.6866E-03     46.2820E-03         1.94507         1.77145        -5.86760         1.77126        -5.86740         1.94507     36.9786E-03     54.4021E-03    -26.5873E-03    -27.8337E-03    -26.8556E-03     53.4240E-03    -26.5873E-03     17.5938E-03    -13.8312E+06    -27.1777E+06    -58.0561E+06    -14.6653E+06    -43.3586E+06    -41.0412E+06    -645.633E+03         35.1518
             450     10.7117E-03     46.2680E-03         1.96149         1.81474        -5.92827         1.81454        -5.92808         1.96149     44.9316E-03     54.1980E-03    -26.6853E-03    -27.5351E-03    -26.8282E-03     53.4911E-03    -26.6853E-03     15.0941E-03    -9.72781E+06    -24.5649E+06    -80.7310E+06    -9.84337E+06    -80.6154E+06    -24.5649E+06     969.499E+03         31.9479
             451     9.73778E-03     46.2536E-03         1.97667         1.85240        -5.98019         1.85203        -5.97983         1.97667     63.0758E-03     54.2554E-03    -26.7100E-03    -27.5408E-03    -26.9328E-03     53.6473E-03    -26.7100E-03     13.9422E-03    -11.4105E+06    -22.3091E+06    -112.853E+06    -11.5159E+06    -112.748E+06    -22.3091E+06     954.692E+03         29.5677
             452     8.76430E-03     46.2409E-03         1.99043         1.89152        -6.03331         1.89096        -6.03275         1.99043     13.1122E-03     54.2077E-03    -26.7179E-03    -27.4816E-03    -27.0817E-03     53.8077E-03    -26.7179E-03     11.3447E-03    -14.7486E+06    -22.6594E+06    -141.117E+06    -15.9704E+06    -141.045E+06    -21.5101E+06    -145.763E+03         27.7842
             453     7.79152E-03     46.2315E-03         2.00292         1.91894        -6.07395         1.91771        -6.07272         2.00292     69.2006E-03     54.1058E-03    -26.7292E-03    -27.3780E-03    -27.0942E-03     53.8220E-03    -26.7292E-03     9.57539E-03    -12.3986E+06    -17.7042E+06    -155.706E+06    -17.2204E+06    -155.699E+06    -12.8890E+06    -848.089E+03         26.3740
             454     6.81757E-03     46.2237E-03         2.01527         1.93796        -6.10183         1.93642        -6.10029         2.01527     41.5684E-03     53.8760E-03    -26.6785E-03    -27.2004E-03    -26.9992E-03     53.6747E-03    -26.6785E-03     8.01725E-03    -13.4598E+06    -17.9260E+06    -165.175E+06    -17.8389E+06    -165.151E+06    -13.5708E+06    -202.442E+03         25.3075
             455     5.84435E-03     46.2159E-03         2.02652         1.97637        -6.14932         1.97313        -6.14607         2.02652     120.773E-03     53.6003E-03    -26.6004E-03    -27.0034E-03    -26.8651E-03     53.4696E-03    -26.6080E-03     6.43922E-03    -16.9883E+06    -21.0090E+06    -172.832E+06    -19.2333E+06    -172.781E+06    -18.8149E+06     566.051E+03         24.6129
             456     4.86939E-03     46.2114E-03         2.03488         2.01185        -6.19194         2.00466        -6.18474         2.03488    -64.8253E-03     53.3474E-03    -26.5625E-03    -26.7857E-03    -26.6977E-03     53.2669E-03    -26.5701E-03     5.01839E-03    -16.4419E+06    -20.3613E+06    -174.952E+06    -17.9774E+06    -174.921E+06    -18.8565E+06     648.482E+03         24.2466
             457     3.89655E-03     46.2077E-03         2.05495         2.02922        -6.22741         2.02250        -6.20659         2.04086     248.007E-03     53.3483E-03    -26.5346E-03    -26.8159E-03    -26.7677E-03     53.3001E-03    -26.5346E-03     3.87370E-03    -14.4415E+06    -18.6424E+06    -174.839E+06    -16.8858E+06    -174.828E+06    -16.2092E+06     239.556E+03         24.0476
             458     2.92269E-03     46.2051E-03         2.08721         2.04442        -6.27394         2.03111        -6.21964         2.04622    -272.748E-03     53.2318E-03    -26.4624E-03    -26.7710E-03    -26.7387E-03     53.1995E-03    -26.4624E-03     3.16995E-03    -12.8355E+06    -19.6739E+06    -174.904E+06    -18.6216E+06    -174.888E+06    -13.9041E+06     689.815E+03         23.8976
             459     1.94850E-03     46.2012E-03         2.19939         2.05379        -6.39592         2.03551        -6.23205         2.05379     674.437E-03     52.8839E-03    -26.3407E-03    -26.5433E-03    -26.5086E-03     52.8678E-03    -26.3594E-03     2.11038E-03    -13.2591E+06    -21.9851E+06    -173.761E+06    -22.0020E+06    -173.745E+06    -13.2591E+06    -135.560E+03         23.7885
             460     974.070E-06     46.2009E-03         2.64184         2.27233        -7.05144         1.59388        -6.25429         2.52315        -1.95779     52.4945E-03    -26.0285E-03    -26.4664E-03    -26.4422E-03     52.4890E-03    -26.0472E-03     1.30555E-03    -18.8010E+06    -25.2420E+06    -168.698E+06    -24.4350E+06    -168.619E+06    -19.6871E+06     24.9268E+03         23.7299
             461     16.5552E-03     45.9064E-03         1.90943         1.56358        -5.66115         1.56356        -5.66112         1.90943     24.5125E-03     213.985E-03    -27.3582E-03    -186.650E-03    -44.5931E-03     71.9275E-03    -27.3582E-03     383.238E-03     191.185E+06     151.359E+06    -10.9532E+06    -10.9433E+06     191.175E+06     151.359E+06    -213.410E+03         57.6680
             462     15.5794E-03     45.4699E-03         1.97795         1.63018        -5.80767         1.63017        -5.80766         1.97795    -29.9811E-06     163.623E-03    -27.2086E-03    -136.443E-03    -41.4512E-03     68.6311E-03    -27.2086E-03     277.424E-03     154.128E+06     86.6254E+06    -19.7000E+06    -19.6327E+06     154.061E+06     86.6254E+06     1.42975E+06         53.7741
             463     14.6066E-03     45.3126E-03         2.02639         1.69344        -5.92420         1.69337        -5.92414         2.02639     20.2998E-03     78.5063E-03    -26.8442E-03    -51.6841E-03    -28.7645E-03     55.5867E-03    -26.8442E-03     92.1168E-03     111.249E+06     11.0063E+06    -28.7843E+06    -23.9497E+06     111.184E+06     6.23619E+06     1.15798E+06         48.8879
             464     13.6310E-03     45.2777E-03         2.05718         1.75535        -6.01295         1.75520        -6.01279         2.05718     67.4123E-03     56.6329E-03    -26.5643E-03    -30.0880E-03    -26.7784E-03     53.3233E-03    -26.5643E-03     33.0698E-03     72.6119E+06    -21.4313E+06    -47.4517E+06    -21.7466E+06     72.5753E+06    -47.0998E+06    -307.046E+03         43.7891
             465     12.6585E-03     45.2459E-03         2.08245         1.81423        -6.09584         1.81412        -6.09573         2.08245     30.7925E-03     55.2595E-03    -26.5596E-03    -28.7041E-03    -26.8072E-03     53.3627E-03    -26.5596E-03     24.3824E-03     18.4889E+06    -20.7140E+06    -54.7935E+06    -18.1496E+06     15.9245E+06    -54.7935E+06    -826.039E+03         39.1498
             466     11.6838E-03     45.2276E-03         2.10564         1.86983        -6.17178         1.86947        -6.17142         2.10564     66.1205E-03     54.3740E-03    -26.6800E-03    -27.7275E-03    -26.8363E-03     53.4827E-03    -26.6800E-03     16.8594E-03    -16.5539E+06    -30.4214E+06    -58.7623E+06    -17.5181E+06    -44.6170E+06    -43.6025E+06    -2.57761E+06         35.1829
             467     10.7107E-03     45.2131E-03         2.12656         1.93462        -6.25591         1.93426        -6.25555         2.12656     75.5610E-03     54.4331E-03    -26.7802E-03    -27.6884E-03    -27.0329E-03     53.7777E-03    -26.7802E-03     14.5946E-03    -16.1749E+06    -28.1034E+06    -84.1371E+06    -16.7427E+06    -83.9310E+06    -27.7416E+06    -93.4578E+03         31.9896
             468     9.73761E-03     45.1985E-03         2.14446         2.00419        -6.34391         2.00381        -6.34353         2.14446     77.5162E-03     54.4252E-03    -26.8209E-03    -27.5855E-03    -27.0485E-03     53.8882E-03    -26.8209E-03     13.1725E-03    -15.2088E+06    -18.8255E+06    -112.635E+06    -15.7315E+06    -112.475E+06    -18.4636E+06     3.94378E+06         29.6123
             469     8.76410E-03     45.1864E-03         2.16033         2.03578        -6.39196         2.03523        -6.39140         2.16033     23.9972E-03     54.1199E-03    -26.8181E-03    -27.2810E-03    -26.9010E-03     53.7398E-03    -26.8181E-03     11.0688E-03    -15.4140E+06    -19.9317E+06    -137.580E+06    -15.5163E+06    -137.478E+06    -19.9317E+06     2.13916E+06         27.8243
             470     7.78942E-03     45.1770E-03         2.17701         2.04784        -6.41994         2.04690        -6.41900         2.17701     61.1305E-03     54.1723E-03    -26.8363E-03    -27.3336E-03    -27.0555E-03     53.8943E-03    -26.8363E-03     9.46139E-03    -13.5365E+06    -18.6620E+06    -156.461E+06    -16.2547E+06    -156.454E+06    -15.9505E+06    -433.521E+03         26.4074
             471     6.81689E-03     45.1684E-03         2.19364         2.09495        -6.48153         2.09347        -6.48005         2.19364     2.58686E-03     54.1169E-03    -26.8199E-03    -27.2968E-03    -27.0945E-03     53.9145E-03    -26.8199E-03     8.07711E-03    -11.9652E+06    -16.6184E+06    -165.628E+06    -16.4296E+06    -165.611E+06    -12.1711E+06     729.361E+03         25.3340
             472     5.84296E-03     45.1626E-03         2.20620         2.15706        -6.55613         2.15471        -6.55379         2.20620     57.1525E-03     53.8189E-03    -26.7515E-03    -27.0704E-03    -26.9278E-03     53.6838E-03    -26.7591E-03     6.53851E-03    -15.1220E+06    -19.0172E+06    -172.251E+06    -16.8843E+06    -172.225E+06    -17.2814E+06     804.110E+03         24.6328
             473     4.86974E-03     45.1572E-03         2.21442         2.18932        -6.59540         2.18380        -6.58988         2.21442    -90.0983E-03     53.6710E-03    -26.7194E-03    -26.9522E-03    -26.8724E-03     53.5986E-03    -26.7269E-03     4.74577E-03    -15.8270E+06    -20.1347E+06    -175.307E+06    -17.5733E+06    -175.292E+06    -18.4031E+06    -569.993E+03         24.2626
             474     3.89488E-03     45.1537E-03         2.22318         2.19973        -6.61032         2.18299        -6.59359         2.22318     215.841E-03     53.6806E-03    -26.6978E-03    -26.9845E-03    -26.9413E-03     53.6374E-03    -26.6978E-03     3.70271E-03    -13.2821E+06    -18.7910E+06    -174.844E+06    -18.2726E+06    -174.834E+06    -13.8099E+06     222.684E+03         24.0642
             475     2.92209E-03     45.1501E-03         2.25392         2.22372        -6.66104         2.19646        -6.61506         2.23520    -294.540E-03     53.5038E-03    -26.6095E-03    -26.8967E-03    -26.8663E-03     53.4734E-03    -26.6095E-03     3.06521E-03    -13.9706E+06    -18.7943E+06    -174.749E+06    -18.8037E+06    -174.739E+06    -13.9706E+06     764.059E+03         23.9145
             476     1.94851E-03     45.1490E-03         2.37285         2.24517        -6.79588         2.23276        -6.65579         2.24517     624.245E-03     53.1348E-03    -26.4963E-03    -26.6391E-03    -26.6008E-03     53.1152E-03    -26.5150E-03     2.40684E-03    -15.7324E+06    -20.1149E+06    -172.949E+06    -20.1442E+06    -172.920E+06    -15.7324E+06     630.177E+03         23.8051
             477     974.462E-06     45.1463E-03         2.89295         2.31821        -7.37646         1.71303        -6.66232         2.78399        -1.91909     52.8928E-03    -26.3990E-03    -26.4935E-03    -26.4640E-03     52.8819E-03    -26.4177E-03     1.05582E-03    -20.2383E+06    -24.4411E+06    -169.325E+06    -24.5159E+06    -169.251E+06    -20.2383E+06    -1.27100E+06         23.7489
             478     16.5543E-03     44.8588E-03         2.04272         1.61715        -5.90055         1.61705        -5.90046         2.04272     38.6795E-03     216.678E-03    -27.4415E-03    -189.263E-03    -44.2090E-03     71.6238E-03    -27.4415E-03     388.975E-03     190.984E+06     150.480E+06    -11.2245E+06    -11.2048E+06     190.965E+06     150.480E+06     1.63110E+06         57.5925
             479     15.5771E-03     44.4085E-03         2.11438         1.69285        -6.06145         1.69281        -6.06140         2.11438     22.3419E-03     164.020E-03    -27.3262E-03    -136.720E-03    -42.2357E-03     69.5359E-03    -27.3262E-03     276.825E-03     154.894E+06     88.0498E+06    -20.1019E+06    -20.0827E+06     154.875E+06     88.0498E+06     388.563E+03         53.7224
             480     14.6045E-03     44.2586E-03         2.16643         1.75741        -6.17481         1.75733        -6.17473         2.16643     43.2369E-03     77.6037E-03    -26.9153E-03    -50.7167E-03    -29.6064E-03     56.4934E-03    -26.9153E-03     88.5268E-03     113.746E+06     15.7898E+06    -28.2359E+06    -20.9442E+06     113.702E+06     8.54183E+06    -1.89344E+06         48.8713
             481     13.6321E-03     44.2204E-03         2.20136         1.83902        -6.28551         1.83883        -6.28532         2.20136     72.4627E-03     56.3921E-03    -26.5911E-03    -29.8287E-03    -26.7959E-03     53.3592E-03    -26.5911E-03     31.5968E-03     71.3471E+06    -19.1992E+06    -47.9621E+06    -19.1505E+06     71.2985E+06    -47.9621E+06    -1.74817E+06         43.7939
             482     12.6578E-03     44.1917E-03         2.23009         1.92049        -6.39387         1.92029        -6.39366         2.23009     66.7173E-03     55.1298E-03    -26.6152E-03    -28.5168E-03    -26.8308E-03     53.4438E-03    -26.6152E-03     22.9772E-03     16.7444E+06    -18.2798E+06    -49.7564E+06    -17.5594E+06     16.0241E+06    -49.7564E+06    -97.1826E+03         39.1659
             483     11.6843E-03     44.1724E-03         2.25636         1.97960        -6.47541         1.97909        -6.47491         2.25636     107.221E-03     54.2607E-03    -26.7464E-03    -27.5380E-03    -26.7620E-03     53.4847E-03    -26.7464E-03     15.7280E-03    -16.3914E+06    -27.2454E+06    -54.9079E+06    -17.8384E+06    -43.4992E+06    -37.2072E+06     634.425E+03         35.2117
             484     10.7104E-03     44.1580E-03         2.28118         2.03788        -6.55600         2.03742        -6.55554         2.28118     88.6141E-03     54.3053E-03    -26.8236E-03    -27.5044E-03    -26.8936E-03     53.6945E-03    -26.8236E-03     14.0816E-03    -19.9847E+06    -30.0737E+06    -88.2853E+06    -20.6479E+06    -87.9838E+06    -29.7119E+06     1.01665E+06         32.0286
             485     9.73685E-03     44.1432E-03         2.30403         2.10854        -6.64947         2.10836        -6.64929         2.30403     56.7241E-03     54.3042E-03    -26.8663E-03    -27.4198E-03    -26.9010E-03     53.7853E-03    -26.8663E-03     12.8849E-03    -18.9787E+06    -22.9502E+06    -112.970E+06    -19.4282E+06    -112.882E+06    -22.5884E+06     1.46382E+06         29.6534
             486     8.76261E-03     44.1327E-03         2.32443         2.16556        -6.72812         2.16533        -6.72788         2.32443     42.9015E-03     54.1464E-03    -26.8839E-03    -27.2394E-03    -26.8805E-03     53.7875E-03    -26.8839E-03     10.7639E-03    -15.4349E+06    -20.6017E+06    -134.464E+06    -15.5084E+06    -134.391E+06    -20.6017E+06     1.64296E+06         27.8613
             487     7.78986E-03     44.1216E-03         2.34378         2.20055        -6.78193         2.19984        -6.78121         2.34378     95.3448E-03     54.1102E-03    -26.9275E-03    -27.1745E-03    -26.9055E-03     53.8453E-03    -26.9317E-03     9.21183E-03    -12.8254E+06    -16.9967E+06    -156.420E+06    -14.6076E+06    -156.403E+06    -15.2310E+06     1.04446E+06         26.4385
             488     6.81530E-03     44.1145E-03         2.36206         2.25068        -6.84983         2.24961        -6.84876         2.36206     24.6228E-03     54.1216E-03    -26.9552E-03    -27.1646E-03    -26.9830E-03     53.9441E-03    -26.9593E-03     7.54357E-03    -10.3852E+06    -15.4397E+06    -166.693E+06    -15.3587E+06    -166.680E+06    -10.4801E+06    -222.676E+03         25.3585
             489     5.84188E-03     44.1074E-03         2.37746         2.30299        -6.91889         2.30093        -6.91683         2.37746     90.3167E-03     54.1272E-03    -26.9376E-03    -27.1918E-03    -27.0744E-03     54.0098E-03    -26.9376E-03     6.09806E-03    -9.89387E+06    -14.9208E+06    -170.305E+06    -14.6048E+06    -170.288E+06    -10.2267E+06    -252.208E+03         24.6510
             490     4.86837E-03     44.1030E-03         2.39026         2.33838        -6.96602         2.33385        -6.96148         2.39026    -57.3286E-03     54.1398E-03    -26.8869E-03    -27.2548E-03    -27.1831E-03     54.0681E-03    -26.8869E-03     4.76727E-03    -11.3956E+06    -14.9602E+06    -175.272E+06    -14.6421E+06    -175.257E+06    -11.7285E+06     244.526E+03         24.2771
             491     3.89604E-03     44.0992E-03         2.40403         2.37157        -7.00933         2.35898        -6.99458         2.40188     240.069E-03     53.8641E-03    -26.8005E-03    -27.0647E-03    -27.0055E-03     53.8242E-03    -26.8198E-03     3.51055E-03    -13.1214E+06    -16.2384E+06    -175.450E+06    -16.2552E+06    -175.433E+06    -13.1215E+06     758.899E+03         24.0775
             492     2.92123E-03     44.0963E-03         2.42490         2.40252        -7.05616         2.37104        -7.01481         2.41504    -271.738E-03     53.4949E-03    -26.6579E-03    -26.8372E-03    -26.6781E-03     53.4722E-03    -26.7943E-03     2.69445E-03    -14.8361E+06    -17.7759E+06    -173.925E+06    -17.7862E+06    -173.915E+06    -14.8361E+06     803.499E+03         23.9287
             493     1.94722E-03     44.0945E-03         2.53005         2.42622        -7.17745         2.40373        -7.05397         2.42906     607.026E-03     53.5930E-03    -26.6752E-03    -26.9168E-03    -26.7803E-03     53.5736E-03    -26.7923E-03     2.40626E-03    -16.7069E+06    -19.6431E+06    -173.248E+06    -19.6706E+06    -173.220E+06    -16.7069E+06     705.350E+03         23.8234
             494     973.592E-06     44.0929E-03         3.12963         2.37704        -7.71255         1.83503        -7.07725         3.03635        -1.83126     53.5149E-03    -26.6536E-03    -26.8600E-03    -26.7865E-03     53.5045E-03    -26.7168E-03     950.411E-06    -19.3383E+06    -24.1723E+06    -168.804E+06    -22.0899E+06    -168.663E+06    -21.5616E+06     1.05832E+06         23.7717
             495     16.5521E-03     43.8104E-03         2.16928         1.64956        -6.10318         1.64943        -6.10305         2.16928     41.9854E-03     218.018E-03    -27.4179E-03    -190.635E-03    -46.1367E-03     73.5192E-03    -27.4179E-03     390.657E-03     191.874E+06     152.581E+06    -10.3321E+06    -10.3118E+06     191.854E+06     152.581E+06     1.92756E+06         57.5061
             496     15.5774E-03     43.3471E-03         2.24436         1.73973        -6.27826         1.73969        -6.27821         2.24436     21.0076E-03     163.308E-03    -27.2357E-03    -136.109E-03    -42.2791E-03     69.4780E-03    -27.2357E-03     275.460E-03     158.025E+06     88.5866E+06    -16.4084E+06    -16.3688E+06     157.986E+06     88.5866E+06    -806.165E+03         53.6687
             497     14.6074E-03     43.2027E-03         2.29968         1.83728        -6.42776         1.83721        -6.42769         2.29968     27.3272E-03     75.4641E-03    -26.8307E-03    -48.6549E-03    -28.6140E-03     55.4232E-03    -26.8307E-03     85.1216E-03     113.492E+06     12.4276E+06    -27.7641E+06    -20.7251E+06     113.432E+06     5.44932E+06    -2.56971E+06         48.8524
             498     13.6317E-03     43.1656E-03         2.33755         1.92889        -6.55248         1.92873        -6.55232         2.33755     45.0458E-03     56.1229E-03    -26.5623E-03    -29.5816E-03    -26.5599E-03     53.1012E-03    -26.5623E-03     31.3404E-03     69.4102E+06    -21.5897E+06    -48.0166E+06    -21.5474E+06     69.3679E+06    -48.0166E+06    -1.42716E+06         43.7942
             499     12.6583E-03     43.1358E-03         2.36981         2.00635        -6.65867         2.00613        -6.65845         2.36981     41.3640E-03     54.9215E-03    -26.6016E-03    -28.3339E-03    -26.7461E-03     53.3338E-03    -26.6016E-03     22.2821E-03     15.9410E+06    -20.1787E+06    -49.5061E+06    -18.9253E+06     14.6877E+06    -49.5061E+06    -217.042E+03         39.1786
             500     11.6844E-03     43.1178E-03         2.39971         2.08194        -6.76388         2.08161        -6.76355         2.39971     61.1145E-03     54.1349E-03    -26.7480E-03    -27.4053E-03    -26.6613E-03     53.3909E-03    -26.7480E-03     15.3744E-03    -14.8511E+06    -23.7869E+06    -56.2686E+06    -16.1212E+06    -45.1196E+06    -33.6658E+06     2.42765E+06         35.2376
             501     10.7104E-03     43.1033E-03         2.42789         2.14602        -6.85519         2.14578        -6.85494         2.42789     56.7372E-03     54.0303E-03    -26.8524E-03    -27.1841E-03    -26.6073E-03     53.4535E-03    -26.8524E-03     13.6312E-03    -13.8724E+06    -21.9462E+06    -86.6437E+06    -14.0912E+06    -86.4248E+06    -21.9462E+06     2.98602E+06         32.0644
             502     9.73595E-03     43.0888E-03         2.45513         2.20482        -6.93878         2.20471        -6.93867         2.45513     39.1970E-03     54.1388E-03    -26.9147E-03    -27.2029E-03    -26.7265E-03     53.6632E-03    -26.9155E-03     12.2851E-03    -13.9965E+06    -18.1560E+06    -112.422E+06    -15.1136E+06    -112.373E+06    -17.0882E+06     915.774E+03         29.6913
             503     8.76315E-03     43.0772E-03         2.48024         2.28364        -7.04165         2.28351        -7.04153         2.48024     39.1315E-03     54.0691E-03    -26.9167E-03    -27.1355E-03    -26.7783E-03     53.7457E-03    -26.9506E-03     10.2171E-03    -15.5016E+06    -18.9836E+06    -135.139E+06    -16.9012E+06    -135.107E+06    -17.6165E+06     896.742E+03         27.8956
             504     7.78839E-03     43.0680E-03         2.50118         2.36427        -7.14098         2.36385        -7.14056         2.50118     81.9941E-03     54.0882E-03    -26.9628E-03    -27.1167E-03    -26.8218E-03     53.8304E-03    -27.0000E-03     9.10322E-03    -13.3520E+06    -16.3967E+06    -153.992E+06    -15.9388E+06    -153.968E+06    -13.8340E+06     400.690E+03         26.4673
             505     6.81530E-03     43.0591E-03         2.51866         2.41189        -7.20576         2.41109        -7.20496         2.51866    -1.07540E-03     54.2387E-03    -27.0203E-03    -27.2109E-03    -27.0390E-03     54.0709E-03    -27.0245E-03     7.30008E-03    -11.3836E+06    -15.1704E+06    -165.995E+06    -15.1270E+06    -165.973E+06    -11.4488E+06    -1.19314E+06         25.3807
             506     5.84182E-03     43.0532E-03         2.53593         2.43433        -7.24546         2.43222        -7.24335         2.53593     96.4415E-03     54.2110E-03    -26.9998E-03    -27.2130E-03    -27.1167E-03     54.1147E-03    -26.9998E-03     5.56238E-03    -12.7339E+06    -16.1674E+06    -170.893E+06    -15.7053E+06    -170.880E+06    -13.2091E+06    -1.09739E+06         24.6651
             507     4.86810E-03     43.0480E-03         2.55420         2.46999        -7.29858         2.46531        -7.29390         2.55420    -58.6100E-03     54.0966E-03    -26.8739E-03    -27.2247E-03    -27.0667E-03     54.0354E-03    -26.9707E-03     4.38511E-03    -14.4435E+06    -16.4745E+06    -175.520E+06    -16.0722E+06    -175.513E+06    -14.8536E+06     201.112E+03         24.2839
             508     3.89418E-03     43.0441E-03         2.57472         2.53532        -7.38400         2.52709        -7.36990         2.56885     230.052E-03     53.9371E-03    -26.8160E-03    -27.1227E-03    -26.9463E-03     53.9018E-03    -26.9570E-03     3.28116E-03    -14.7378E+06    -15.6015E+06    -176.337E+06    -15.6136E+06    -176.325E+06    -14.7379E+06     854.241E+03         24.0828
             509     2.92129E-03     43.0432E-03         2.60133         2.57402        -7.44668         2.56246        -7.41065         2.57685    -234.962E-03     53.8578E-03    -26.8158E-03    -27.0412E-03    -26.8559E-03     53.8338E-03    -26.9771E-03     2.77910E-03    -12.1927E+06    -15.8431E+06    -173.550E+06    -15.8615E+06    -173.531E+06    -12.1927E+06     1.36391E+06         23.9390
             510     1.94706E-03     43.0396E-03         2.69022         2.57810        -7.53311         2.57553        -7.42126         2.58093     622.776E-03     53.9173E-03    -26.7671E-03    -27.1470E-03    -26.8846E-03     53.8996E-03    -27.0118E-03     2.30527E-03    -10.8702E+06    -17.9704E+06    -171.774E+06    -17.9873E+06    -171.757E+06    -10.8702E+06     810.744E+03         23.8395
             511     974.041E-06     43.0382E-03         3.35492         2.37473        -7.98214         1.90100        -7.41773         3.26424        -1.69388     53.9558E-03    -26.8098E-03    -27.1447E-03    -26.8750E-03     53.9501E-03    -27.0737E-03     824.727E-06    -16.5258E+06    -23.3433E+06    -169.425E+06    -20.9422E+06    -169.201E+06    -19.1505E+06     3.80422E+06         23.7926
             512     16.5604E-03     42.7609E-03         2.28922         1.68170        -6.30057         1.68162        -6.30049         2.28922     27.8938E-03     218.627E-03    -27.2727E-03    -191.393E-03    -48.3530E-03     75.5869E-03    -27.2727E-03     390.823E-03     193.091E+06     154.057E+06    -10.2622E+06    -10.2346E+06     193.063E+06     154.057E+06     262.718E+03         57.4081
             513     15.5866E-03     42.2930E-03         2.36703         1.79104        -6.48584         1.79103        -6.48583         2.36703     6.40497E-03     163.964E-03    -27.0617E-03    -136.945E-03    -41.1863E-03     68.2059E-03    -27.0617E-03     278.441E-03     159.624E+06     90.4011E+06    -15.7160E+06    -15.6702E+06     159.578E+06     90.4011E+06    -1.28771E+06         53.6072
             514     14.6062E-03     42.1491E-03         2.42524         1.90402        -6.65902         1.90400        -6.65899         2.42524     12.7054E-03     75.1489E-03    -26.7150E-03    -48.4476E-03    -27.5709E-03     54.2722E-03    -26.7150E-03     85.6482E-03     112.394E+06     12.3448E+06    -28.0971E+06    -20.4595E+06     112.367E+06     4.73473E+06    -772.200E+03         48.8263
             515     13.6331E-03     42.1094E-03         2.46688         1.99354        -6.78877         1.99350        -6.78873         2.46688     19.3887E-03     55.7017E-03    -26.4824E-03    -29.2241E-03    -26.3465E-03     52.8241E-03    -26.4824E-03     30.4577E-03     69.3330E+06    -22.2836E+06    -49.1956E+06    -22.2662E+06     69.3155E+06    -49.1956E+06    -890.772E+03         43.7893
             516     12.6588E-03     42.0815E-03         2.50343         2.08329        -6.91150         2.08322        -6.91143         2.50343    -8.32400E-03     54.4074E-03    -26.5435E-03    -27.8841E-03    -26.3684E-03     52.8916E-03    -26.5435E-03     21.6750E-03     14.3185E+06    -22.7019E+06    -52.2215E+06    -21.1700E+06     12.7867E+06    -52.2215E+06     -77.704E+03         39.1878
             517     11.6846E-03     42.0625E-03         2.53694         2.18116        -7.04398         2.18094        -7.04376         2.53694     25.3092E-03     53.9135E-03    -26.6967E-03    -27.2453E-03    -26.5456E-03     53.2139E-03    -26.6967E-03     14.8237E-03    -18.2855E+06    -27.6316E+06    -58.0536E+06    -19.1453E+06    -46.9761E+06    -37.8493E+06     1.11986E+06         35.2604
             518     10.7107E-03     42.0492E-03         2.56745         2.26578        -7.15689         2.26559        -7.15671         2.56745     59.9645E-03     53.8697E-03    -26.8076E-03    -27.0744E-03    -26.5439E-03     53.3392E-03    -26.8076E-03     13.0473E-03    -16.1459E+06    -24.4948E+06    -85.1037E+06    -16.2457E+06    -85.0040E+06    -24.4948E+06     2.03756E+06         32.0977
             519     9.73718E-03     42.0336E-03         2.59651         2.32535        -7.24066         2.32524        -7.24055         2.59651     48.3548E-03     53.8261E-03    -26.8148E-03    -26.9966E-03    -26.4560E-03     53.3723E-03    -26.9016E-03     11.9657E-03    -13.7388E+06    -17.2483E+06    -112.279E+06    -14.9110E+06    -112.174E+06    -16.1806E+06     3.09651E+06         29.7270
             520     8.76209E-03     42.0232E-03         2.62439         2.39455        -7.33604         2.39443        -7.33593         2.62439     23.9927E-03     53.8894E-03    -26.8256E-03    -27.0516E-03    -26.6312E-03     53.5890E-03    -26.9455E-03     9.81800E-03    -13.7771E+06    -19.3486E+06    -133.003E+06    -15.2184E+06    -132.928E+06    -17.9815E+06     673.967E+03         27.9280
             521     7.78885E-03     42.0131E-03         2.64846         2.48915        -7.45049         2.48865        -7.45000         2.64846     76.9272E-03     54.0577E-03    -26.8927E-03    -27.1584E-03    -26.8315E-03     53.8289E-03    -26.9907E-03     8.56267E-03    -13.5168E+06    -17.7127E+06    -152.226E+06    -14.3522E+06    -152.188E+06    -16.9156E+06    -1.64713E+06         26.4947
             522     6.81487E-03     42.0043E-03         2.66843         2.54552        -7.52346         2.54464        -7.52258         2.66843     5.84026E-03     54.1057E-03    -26.9390E-03    -27.1581E-03    -26.9021E-03     53.9471E-03    -27.0364E-03     7.11941E-03    -12.6657E+06    -14.0152E+06    -166.422E+06    -13.6614E+06    -166.411E+06    -13.0307E+06    -1.05880E+06         25.4012
             523     5.84138E-03     41.9983E-03         2.68745         2.57814        -7.57554         2.57645        -7.57385         2.68745     70.7923E-03     54.1981E-03    -27.0069E-03    -27.1932E-03    -27.0596E-03     54.0969E-03    -27.0393E-03     5.68592E-03    -13.2999E+06    -15.2615E+06    -171.660E+06    -14.7877E+06    -171.659E+06    -13.7750E+06    -224.550E+03         24.6754
             524     4.86833E-03     41.9932E-03         2.70571         2.62634        -7.64261         2.62237        -7.63865         2.70571    -75.4800E-03     54.0078E-03    -26.8713E-03    -27.1387E-03    -26.9074E-03     53.9503E-03    -27.0451E-03     4.23945E-03    -14.3725E+06    -16.3955E+06    -176.779E+06    -15.4932E+06    -176.778E+06    -15.2751E+06     31.4114E+03         24.2838
             525     3.89425E-03     41.9906E-03         2.72448         2.67966        -7.71558         2.67095        -7.70315         2.72075     216.435E-03     53.9518E-03    -26.8613E-03    -27.0917E-03    -26.8293E-03     53.9198E-03    -27.0917E-03     3.17250E-03    -13.2003E+06    -15.1026E+06    -176.766E+06    -14.6110E+06    -176.765E+06    -13.6929E+06    -253.588E+03         24.0816
             526     2.91983E-03     41.9873E-03         2.75487         2.72133        -7.79103         2.71352        -7.75847         2.73013    -241.684E-03     54.2811E-03    -27.0674E-03    -27.2122E-03    -27.1327E-03     54.2582E-03    -27.1240E-03     2.69981E-03    -10.5316E+06    -14.7611E+06    -173.049E+06    -14.7723E+06    -173.038E+06    -10.5316E+06     500.443E+03         23.9449
             527     1.94751E-03     41.9856E-03         2.83933         2.72926        -7.88129         2.74523        -7.78719         2.72926     540.007E-03     54.1952E-03    -26.9775E-03    -27.2149E-03    -27.0504E-03     54.1799E-03    -27.1267E-03     2.13734E-03    -7.65324E+06    -17.5970E+06    -169.472E+06    -17.6286E+06    -169.440E+06    -7.65324E+06     1.78334E+06         23.8517
             528     972.650E-06     41.9832E-03         3.57175         2.36913        -8.24272         1.96849        -7.75302         3.48269        -1.61350     54.1276E-03    -26.8690E-03    -27.2570E-03    -27.0269E-03     54.1198E-03    -27.0913E-03     1.11953E-03    -14.6598E+06    -24.9825E+06    -168.817E+06    -24.7456E+06    -168.652E+06    -15.0612E+06     3.20683E+06         23.8084
             529     16.5611E-03     41.7032E-03         2.40278         1.73387        -6.49771         1.73380        -6.49765         2.40278     15.2974E-03     218.930E-03    -27.1527E-03    -191.796E-03    -48.4413E-03     75.5752E-03    -27.1527E-03     391.551E-03     193.027E+06     152.817E+06    -9.92142E+06    -9.89674E+06     193.002E+06     152.817E+06    -892.261E+03         57.2946
             530     15.5810E-03     41.2428E-03         2.48099         1.85981        -6.70462         1.85978        -6.70460         2.48099     4.37033E-03     165.545E-03    -26.9579E-03    -138.612E-03    -41.4806E-03     68.4139E-03    -26.9579E-03     281.437E-03     158.008E+06     89.8066E+06    -17.6664E+06    -17.6439E+06     157.985E+06     89.8066E+06    -934.308E+03         53.5326
             531     14.6096E-03     41.0915E-03         2.54099         1.95800        -6.86536         1.95797        -6.86533         2.54099     31.8366E-03     75.2416E-03    -26.6012E-03    -48.6628E-03    -28.0185E-03     54.5973E-03    -26.6012E-03     85.2035E-03     111.813E+06     13.4058E+06    -29.8489E+06    -21.8412E+06     111.806E+06     5.40497E+06     355.104E+03         48.7952
             532     13.6350E-03     41.0562E-03         2.58627         2.04996        -7.00512         2.04985        -7.00501         2.58627     54.5805E-03     54.8818E-03    -26.3536E-03    -28.5347E-03    -25.8929E-03     52.2400E-03    -26.3536E-03     29.0247E-03     69.5771E+06    -22.3068E+06    -49.4844E+06    -22.2892E+06     69.5596E+06    -49.4844E+06     447.370E+03         43.7840
             533     12.6597E-03     41.0267E-03         2.62637         2.16262        -7.15303         2.16251        -7.15292         2.62637     25.7776E-03     53.7838E-03    -26.4439E-03    -27.3532E-03    -25.9244E-03     52.3550E-03    -26.4439E-03     20.8578E-03     15.1358E+06    -23.5590E+06    -51.7427E+06    -20.7444E+06     12.3212E+06    -51.7427E+06     269.029E+03         39.1970
             534     11.6856E-03     41.0082E-03         2.66295         2.26743        -7.29230         2.26721        -7.29208         2.66295     47.3079E-03     53.4821E-03    -26.6072E-03    -26.8973E-03    -26.2535E-03     52.8382E-03    -26.6072E-03     14.1584E-03    -18.4407E+06    -30.1749E+06    -56.9245E+06    -19.3837E+06    -46.9746E+06    -39.1818E+06     598.878E+03         35.2830
             535     10.7117E-03     40.9942E-03         2.69659         2.35827        -7.41482         2.35804        -7.41460         2.69659     71.5302E-03     53.5281E-03    -26.6746E-03    -26.8619E-03    -26.3305E-03     53.0475E-03    -26.7254E-03     12.3689E-03    -18.6410E+06    -28.1815E+06    -86.7397E+06    -18.7302E+06    -86.6505E+06    -28.1815E+06     1.45269E+06         32.1302
             536     9.73674E-03     40.9804E-03         2.72778         2.44398        -7.52672         2.44389        -7.52662         2.72778     44.3476E-03     53.5042E-03    -26.6493E-03    -26.8423E-03    -26.2474E-03     53.0803E-03    -26.8203E-03     11.5516E-03    -16.2566E+06    -21.2159E+06    -111.261E+06    -16.3399E+06    -111.178E+06    -21.2159E+06     1.08948E+06         29.7620
             537     8.76313E-03     40.9684E-03         2.75642         2.52278        -7.63236         2.52262        -7.63219         2.75642    -1.22428E-03     53.6992E-03    -26.6965E-03    -26.9836E-03    -26.5021E-03     53.3987E-03    -26.8775E-03     9.79606E-03    -13.0672E+06    -20.6017E+06    -128.954E+06    -13.1519E+06    -128.869E+06    -20.6017E+06    -477.049E+03         27.9600
             538     7.78931E-03     40.9581E-03         2.78273         2.58967        -7.72431         2.58900        -7.72364         2.78273     73.2800E-03     53.8881E-03    -26.8155E-03    -27.0615E-03    -26.7030E-03     53.6695E-03    -26.9554E-03     8.34671E-03    -12.4728E+06    -17.0620E+06    -153.161E+06    -12.7301E+06    -153.130E+06    -16.8357E+06    -889.855E+03         26.5216
             539     6.81525E-03     40.9509E-03         2.80719         2.64956        -7.80651         2.64875        -7.80569         2.80719     40.2901E-03     53.8730E-03    -26.8471E-03    -27.0234E-03    -26.6923E-03     53.7182E-03    -27.0234E-03     7.04730E-03    -13.2074E+06    -14.3938E+06    -167.661E+06    -14.0957E+06    -167.659E+06    -13.5073E+06    -343.615E+03         25.4211
             540     5.84110E-03     40.9427E-03         2.82803         2.72503        -7.90118         2.72390        -7.90005         2.82803     70.3871E-03     53.9018E-03    -26.8108E-03    -27.0939E-03    -26.7293E-03     53.8044E-03    -27.0779E-03     5.47878E-03    -12.1881E+06    -14.0011E+06    -171.941E+06    -14.0050E+06    -171.937E+06    -12.1881E+06    -465.345E+03         24.6859
             541     4.86713E-03     40.9392E-03         2.84329         2.78628        -7.97579         2.78359        -7.97309         2.84329    -53.7113E-03     54.0325E-03    -26.8855E-03    -27.1502E-03    -26.8527E-03     53.9819E-03    -27.1324E-03     4.00738E-03    -11.8327E+06    -13.9609E+06    -176.601E+06    -13.4726E+06    -176.597E+06    -12.3253E+06    -92.3572E+03         24.2870
             542     3.89345E-03     40.9356E-03         2.85560         2.81812        -8.01846         2.80842        -8.00876         2.85560     219.421E-03     54.2732E-03    -27.0545E-03    -27.2202E-03    -27.0772E-03     54.2388E-03    -27.1632E-03     3.31343E-03    -11.9531E+06    -14.7925E+06    -176.196E+06    -14.3019E+06    -176.194E+06    -12.4457E+06     159.319E+03         24.0841
             543     2.92075E-03     40.9326E-03         2.87263         2.84319        -8.06248         2.82007        -8.03695         2.87022    -204.417E-03     54.3307E-03    -27.0744E-03    -27.2557E-03    -27.1344E-03     54.3114E-03    -27.1764E-03     2.45727E-03    -10.5657E+06    -15.2848E+06    -173.432E+06    -15.2878E+06    -173.429E+06    -10.5657E+06    -147.136E+03         23.9498
             544     1.94641E-03     40.9299E-03         2.95072         2.87109        -8.17574         2.86251        -8.10075         2.88432     512.181E-03     54.3431E-03    -27.0603E-03    -27.2821E-03    -27.1794E-03     54.3324E-03    -27.1524E-03     1.83301E-03    -10.5948E+06    -17.8463E+06    -170.779E+06    -17.8794E+06    -170.746E+06    -10.5948E+06     1.41109E+06         23.8594
             545     974.374E-06     40.9293E-03         3.76713         2.39724        -8.51626         2.07649        -8.13153         3.70315        -1.42525     54.1697E-03    -26.9012E-03    -27.2677E-03    -27.1652E-03     54.1621E-03    -26.9962E-03     1.45100E-03    -12.5870E+06    -21.1008E+06    -164.320E+06    -20.1773E+06    -164.044E+06    -13.7864E+06    -1.53022E+06         23.8160
             546     16.5615E-03     40.6613E-03         2.50711         1.77686        -6.67334         1.77680        -6.67327         2.50711     23.0011E-03     217.122E-03    -27.0598E-03    -190.096E-03    -49.1915E-03     76.2180E-03    -27.0598E-03     387.411E-03     193.916E+06     152.171E+06    -8.04420E+06    -8.03132E+06     193.904E+06     152.171E+06     493.170E+03         57.1789
             547     15.5868E-03     40.1827E-03         2.58492         1.90295        -6.89436         1.90292        -6.89434         2.58492     10.1035E-03     165.560E-03    -26.7884E-03    -138.814E-03    -42.6172E-03     69.3639E-03    -26.7884E-03     280.828E-03     157.489E+06     86.3737E+06    -17.6875E+06    -17.6839E+06     157.485E+06     86.3737E+06    -273.207E+03         53.4630
             548     14.6126E-03     40.0390E-03         2.64614         2.02279        -7.07780         2.02276        -7.07777         2.64614     31.5393E-03     73.8600E-03    -26.4166E-03    -47.4791E-03    -27.5644E-03     53.9453E-03    -26.4166E-03     83.2864E-03     111.351E+06     10.7131E+06    -30.7308E+06    -23.6875E+06     111.347E+06     3.67478E+06    -284.154E+03         48.7690
             549     13.6368E-03     40.0013E-03         2.69303         2.13046        -7.23140         2.13034        -7.23127         2.69303     59.8493E-03     54.2003E-03    -26.2011E-03    -28.0142E-03    -25.3267E-03     51.5127E-03    -26.2011E-03     29.0393E-03     69.7935E+06    -22.3379E+06    -48.6732E+06    -22.3198E+06     69.7754E+06    -48.6732E+06     363.355E+03         43.7810
             550     12.6628E-03     39.9735E-03         2.73544         2.22777        -7.36541         2.22764        -7.36528         2.73544     33.3029E-03     53.4042E-03    -26.3111E-03    -27.1006E-03    -25.6447E-03     51.9483E-03    -26.3111E-03     20.9375E-03     15.7391E+06    -22.8810E+06    -50.1711E+06    -19.8019E+06     12.6600E+06    -50.1711E+06     502.721E+03         39.2085
             551     11.6872E-03     39.9538E-03         2.77588         2.32310        -7.49814         2.32297        -7.49802         2.77588     34.9376E-03     52.8745E-03    -26.3225E-03    -26.5728E-03    -25.7418E-03     52.2180E-03    -26.4970E-03     14.2227E-03    -16.5101E+06    -30.4868E+06    -56.4704E+06    -17.5671E+06    -47.4202E+06    -38.4799E+06     358.491E+03         35.3074
             552     10.7125E-03     39.9402E-03         2.81365         2.43325        -7.64131         2.43312        -7.64118         2.81365     56.4243E-03     53.0794E-03    -26.4199E-03    -26.6737E-03    -25.9593E-03     52.5903E-03    -26.6452E-03     12.4181E-03    -14.7985E+06    -27.2708E+06    -87.4604E+06    -14.8903E+06    -87.3686E+06    -27.2708E+06     449.146E+03         32.1636
             553     9.73853E-03     39.9265E-03         2.84730         2.54946        -7.78381         2.54939        -7.78373         2.84730     40.2234E-03     53.4237E-03    -26.6547E-03    -26.7605E-03    -26.2374E-03     52.9856E-03    -26.7397E-03     11.7658E-03    -13.5047E+06    -21.1380E+06    -108.557E+06    -13.5283E+06    -108.533E+06    -21.1380E+06     -560.67E+03         29.7980
             554     8.76363E-03     39.9141E-03         2.87717         2.63154        -7.89334         2.63140        -7.89321         2.87717    -213.847E-06     53.4167E-03    -26.5820E-03    -26.8160E-03    -26.2713E-03     53.1060E-03    -26.8160E-03     9.88963E-03    -12.6330E+06    -19.4251E+06    -129.044E+06    -12.6559E+06    -129.021E+06    -19.4251E+06    -727.594E+03         27.9932
             555     7.78907E-03     39.9045E-03         2.90540         2.69066        -7.98037         2.69023        -7.97994         2.90540     54.5790E-03     53.5986E-03    -26.6594E-03    -26.9233E-03    -26.4391E-03     53.3782E-03    -26.9233E-03     8.37364E-03    -12.0779E+06    -14.6121E+06    -154.286E+06    -12.3059E+06    -154.284E+06    -14.3858E+06     241.296E+03         26.5491
             556     6.81538E-03     39.8957E-03         2.93152         2.76802        -8.08713         2.76746        -8.08657         2.93152     19.6627E-03     53.7868E-03    -26.7844E-03    -27.0001E-03    -26.6274E-03     53.6297E-03    -27.0001E-03     7.05361E-03    -11.1702E+06    -12.6943E+06    -166.445E+06    -12.0756E+06    -166.441E+06    -11.7921E+06    -334.000E+03         25.4412
             557     5.84160E-03     39.8894E-03         2.95240         2.85260        -8.19058         2.85170        -8.18967         2.95240     56.0774E-03     53.7729E-03    -26.7051E-03    -27.0702E-03    -26.6136E-03     53.6815E-03    -27.0702E-03     5.32460E-03    -10.5603E+06    -12.1943E+06    -173.028E+06    -12.2012E+06    -173.021E+06    -10.5603E+06    -669.746E+03         24.6981
             558     4.86718E-03     39.8842E-03         2.96822         2.90162        -8.24885         2.89971        -8.24694         2.96822    -41.1324E-03     54.0568E-03    -26.9167E-03    -27.1438E-03    -26.8853E-03     54.0118E-03    -27.1302E-03     3.72330E-03    -10.6309E+06    -12.8757E+06    -176.635E+06    -12.8818E+06    -176.629E+06    -10.6309E+06    -332.455E+03         24.2945
             559     3.89397E-03     39.8805E-03         2.98194         2.93694        -8.29925         2.93063        -8.29294         2.98194     171.468E-03     54.2527E-03    -27.0284E-03    -27.2270E-03    -27.0715E-03     54.2269E-03    -27.1581E-03     2.88654E-03    -10.0687E+06    -13.5144E+06    -175.276E+06    -13.5235E+06    -175.267E+06    -10.0687E+06     548.659E+03         24.0901
             560     2.92019E-03     39.8772E-03         3.00058         2.96886        -8.34995         2.95575        -8.33157         2.99531    -212.125E-03     54.2665E-03    -26.9681E-03    -27.2988E-03    -27.0793E-03     54.2471E-03    -27.1683E-03     2.47869E-03    -10.5310E+06    -15.5326E+06    -173.830E+06    -15.5427E+06    -173.820E+06    -10.5310E+06     690.890E+03         23.9535
             561     1.94719E-03     39.8760E-03         3.05091         2.99613        -8.43090         2.98066        -8.37388         3.00936     452.362E-03     54.3787E-03    -27.0447E-03    -27.3344E-03    -27.2515E-03     54.3661E-03    -27.1151E-03     1.97095E-03    -12.6791E+06    -17.4877E+06    -170.836E+06    -17.5355E+06    -170.788E+06    -12.6791E+06    -410.163E+03         23.8601
             562     973.093E-06     39.8723E-03         3.95810         2.36756        -8.70810         2.11130        -8.41556         3.92182        -1.24035     54.0645E-03    -26.8025E-03    -27.2618E-03    -27.1827E-03     54.0587E-03    -26.8759E-03     789.823E-06    -14.9950E+06    -19.2229E+06    -163.523E+06    -17.2544E+06    -163.229E+06    -17.2569E+06    -3.79407E+06         23.8123
             563     16.5647E-03     39.6058E-03         2.59957         1.79831        -6.82890         1.79823        -6.82883         2.59957     42.3981E-03     215.733E-03    -26.9319E-03    -188.854E-03    -51.2248E-03     78.1037E-03    -26.9319E-03     383.347E-03     193.722E+06     152.466E+06    -9.32907E+06    -9.27260E+06     193.665E+06     152.466E+06     188.036E+03         57.0754
             564     15.5914E-03     39.1305E-03         2.67711         1.92226        -7.04366         1.92225        -7.04364         2.67711     18.5974E-03     165.438E-03    -26.5808E-03    -138.922E-03    -42.6219E-03     69.1385E-03    -26.5808E-03     281.534E-03     158.879E+06     87.2651E+06    -17.4694E+06    -17.4505E+06     158.860E+06     87.2651E+06     1.29584E+06         53.4069
             565     14.6147E-03     38.9847E-03         2.73996         2.06390        -7.25208         2.06388        -7.25206         2.73996     18.7465E-03     73.1557E-03    -26.2443E-03    -46.9510E-03    -26.0341E-03     52.2387E-03    -26.2443E-03     84.5982E-03     112.549E+06     12.2780E+06    -30.7290E+06    -21.1892E+06     112.493E+06     2.79429E+06    -874.800E+03         48.7472
             566     13.6394E-03     38.9495E-03         2.78914         2.19256        -7.42700         2.19252        -7.42696         2.78914     31.2382E-03     53.9891E-03    -26.0830E-03    -27.9214E-03    -24.8464E-03     50.9141E-03    -26.0830E-03     30.9218E-03     68.9941E+06    -20.9721E+06    -51.5028E+06    -20.8885E+06     68.9104E+06    -51.5028E+06    -699.396E+03         43.7784
             567     12.6629E-03     38.9187E-03         2.83379         2.29404        -7.56594         2.29399        -7.56588         2.83379     6.21510E-03     53.3049E-03    -26.2177E-03    -27.0928E-03    -25.3776E-03     51.5897E-03    -26.2177E-03     22.6905E-03     15.8668E+06    -21.2189E+06    -52.0851E+06    -18.1975E+06     12.8454E+06    -52.0851E+06     922.598E+03         39.2208
             568     11.6889E-03     38.9014E-03         2.87655         2.39312        -7.70101         2.39301        -7.70090         2.87655     27.0298E-03     52.7794E-03    -26.2460E-03    -26.5507E-03    -25.5989E-03     52.0021E-03    -26.4205E-03     15.4126E-03    -14.5101E+06    -30.4292E+06    -57.8838E+06    -15.4742E+06    -47.1004E+06    -40.2484E+06    -94.8214E+03         35.3334
             569     10.7130E-03     38.8868E-03         2.91656         2.51092        -7.85298         2.51082        -7.85287         2.91656     54.3610E-03     52.9274E-03    -26.3355E-03    -26.6090E-03    -25.7873E-03     52.3539E-03    -26.5837E-03     13.4260E-03    -14.4090E+06    -28.8674E+06    -87.6687E+06    -14.4531E+06    -87.6247E+06    -28.8674E+06    -546.406E+03         32.1993
             570     9.73814E-03     38.8721E-03         2.95262         2.62600        -7.99570         2.62592        -7.99563         2.95262     40.1939E-03     53.3351E-03    -26.6140E-03    -26.7189E-03    -26.1376E-03     52.8378E-03    -26.6981E-03     12.4964E-03    -13.4059E+06    -20.1558E+06    -107.049E+06    -13.4138E+06    -107.041E+06    -20.1558E+06    -400.889E+03         29.8366
             571     8.76450E-03     38.8606E-03         2.98535         2.71128        -8.11271         2.71120        -8.11263         2.98535     11.3206E-03     53.4500E-03    -26.6289E-03    -26.8079E-03    -26.3290E-03     53.1204E-03    -26.7783E-03     10.1910E-03    -11.9371E+06    -17.6328E+06    -129.738E+06    -11.9431E+06    -129.732E+06    -17.6328E+06    -747.125E+03         28.0286
             572     7.79005E-03     38.8505E-03         3.01538         2.79489        -8.22808         2.79463        -8.22781         3.01538     55.3059E-03     53.4940E-03    -26.5743E-03    -26.9087E-03    -26.3716E-03     53.2616E-03    -26.8791E-03     8.57509E-03    -10.7956E+06    -13.3786E+06    -154.175E+06    -11.3659E+06    -154.170E+06    -12.8135E+06    -218.319E+03         26.5782
             573     6.81558E-03     38.8412E-03         3.04209         2.87375        -8.33269         2.87325        -8.33219         3.04209    -1.99199E-03     53.5705E-03    -26.6009E-03    -26.9681E-03    -26.4475E-03     53.4171E-03    -26.9681E-03     6.93145E-03    -9.38472E+06    -11.9298E+06    -165.870E+06    -11.3125E+06    -165.866E+06    -10.0066E+06    -293.728E+03         25.4623
             574     5.84128E-03     38.8353E-03         3.06559         2.93729        -8.41863         2.93672        -8.41806         3.06559     6.80596E-03     53.8191E-03    -26.7814E-03    -27.0392E-03    -26.6866E-03     53.7243E-03    -27.0392E-03     5.50795E-03    -9.31487E+06    -12.1605E+06    -173.714E+06    -12.1667E+06    -173.707E+06    -9.31487E+06    -92.0890E+03         24.7098
             575     4.86813E-03     38.8293E-03         3.08583         2.99802        -8.49682         2.99665        -8.49546         3.08583    -72.4424E-03     54.0578E-03    -26.9765E-03    -27.0833E-03    -26.9290E-03     53.9985E-03    -27.0715E-03     4.27319E-03    -10.9665E+06    -13.2675E+06    -177.486E+06    -13.2717E+06    -177.482E+06    -10.9665E+06     234.795E+03         24.2981
             576     3.89438E-03     38.8258E-03         3.10218         3.05116        -8.56708         3.04632        -8.56224         3.10218     142.358E-03     54.1065E-03    -26.9234E-03    -27.1854E-03    -26.9892E-03     54.0787E-03    -27.0918E-03     2.91271E-03    -10.0259E+06    -14.0902E+06    -175.486E+06    -14.0983E+06    -175.478E+06    -10.0259E+06     319.047E+03         24.0906
             577     2.92022E-03     38.8231E-03         3.11974         3.09416        -8.62828         3.08468        -8.61353         3.11447    -209.393E-03     54.1843E-03    -26.9430E-03    -27.2428E-03    -27.0832E-03     54.1677E-03    -27.0859E-03     2.31267E-03    -10.2893E+06    -15.0970E+06    -172.008E+06    -15.1086E+06    -171.997E+06    -10.2893E+06     431.028E+03         23.9521
             578     1.94693E-03     38.8192E-03         3.16835         3.11563        -8.69736         3.12144        -8.65395         3.11913     367.841E-03     54.1701E-03    -27.0131E-03    -27.1580E-03    -27.1351E-03     54.1604E-03    -27.0263E-03     1.65837E-03    -12.1304E+06    -16.6161E+06    -169.238E+06    -16.6548E+06    -169.199E+06    -12.1304E+06    -1.16353E+06         23.8533
             579     974.285E-06     38.8197E-03         4.14282         2.32207        -8.87712         2.13829        -8.64939         4.09887        -1.11466     53.8933E-03    -26.7926E-03    -27.1002E-03    -27.0869E-03     53.8892E-03    -26.8018E-03     677.172E-06    -16.8258E+06    -22.4016E+06    -166.177E+06    -21.4039E+06    -166.112E+06    -17.8883E+06    -528.341E+03         23.8013
             580     16.5670E-03     38.5467E-03         2.68119         1.83397        -6.99170         1.83391        -6.99164         2.68119     31.8205E-03     215.145E-03    -26.8729E-03    -188.317E-03    -51.4062E-03     78.2344E-03    -26.8729E-03     382.043E-03     192.590E+06     152.150E+06    -10.4530E+06    -10.3941E+06     192.531E+06     152.150E+06    -586.838E+03         56.9802
             581     15.5941E-03     38.0793E-03         2.75749         1.96323        -7.20184         1.96322        -7.20183         2.75749     5.47743E-03     165.620E-03    -26.5306E-03    -139.139E-03    -41.8873E-03     68.3689E-03    -26.5306E-03     282.797E-03     159.697E+06     88.5478E+06    -17.1681E+06    -17.1016E+06     159.631E+06     88.5478E+06    -563.645E+03         53.3523
             582     14.6152E-03     37.9342E-03         2.82131         2.08726        -7.38910         2.08726        -7.38910         2.82131     11.2978E-03     74.1863E-03    -26.2304E-03    -47.9831E-03    -25.6266E-03     51.8297E-03    -26.2304E-03     88.2791E-03     113.365E+06     13.1339E+06    -31.1990E+06    -20.6080E+06     113.185E+06     2.72238E+06    -281.521E+03         48.7241
             583     13.6378E-03     37.8953E-03         2.87371         2.22203        -7.56844         2.22199        -7.56839         2.87371     31.9471E-03     54.3007E-03    -26.0961E-03    -28.2148E-03    -24.7185E-03     50.8043E-03    -26.0961E-03     33.0021E-03     67.9595E+06    -21.4521E+06    -52.1285E+06    -21.2120E+06     67.7193E+06    -52.1285E+06     87.8694E+03         43.7762
             584     12.6632E-03     37.8669E-03         2.92072         2.36173        -7.74965         2.36169        -7.74960         2.92072     17.3305E-03     53.4586E-03    -26.2449E-03    -27.2075E-03    -25.3114E-03     51.5625E-03    -26.2449E-03     23.9133E-03     15.6657E+06    -21.1632E+06    -50.6091E+06    -18.3943E+06     12.8967E+06    -50.6091E+06    -252.898E+03         39.2354
             585     11.6869E-03     37.8467E-03         2.96386         2.48310        -7.90783         2.48302        -7.90775         2.96386     30.9787E-03     53.0476E-03    -26.4575E-03    -26.5874E-03    -25.7322E-03     52.1924E-03    -26.4575E-03     16.2046E-03    -15.5844E+06    -27.1896E+06    -57.1375E+06    -16.5586E+06    -46.9824E+06    -36.3705E+06     814.842E+03         35.3644
             586     10.7136E-03     37.8342E-03         3.00436         2.58086        -8.04182         2.58078        -8.04175         3.00436     47.7132E-03     53.2226E-03    -26.5221E-03    -26.7151E-03    -26.0057E-03     52.5870E-03    -26.5959E-03     14.1799E-03    -15.8655E+06    -27.1307E+06    -86.2722E+06    -15.8984E+06    -86.2393E+06    -27.1307E+06    -25.3287E+03         32.2416
             587     9.73872E-03     37.8180E-03         3.04294         2.67857        -8.17540         2.67851        -8.17534         3.04294     38.7286E-03     53.3423E-03    -26.5526E-03    -26.7952E-03    -26.1079E-03     52.7943E-03    -26.6919E-03     13.0863E-03    -14.1512E+06    -21.1431E+06    -106.815E+06    -14.1929E+06    -106.774E+06    -21.1431E+06    -1.72679E+06         29.8803
             588     8.76382E-03     37.8066E-03         3.07827         2.78838        -8.31890         2.78831        -8.31883         3.07827     16.5515E-03     53.5171E-03    -26.7012E-03    -26.8096E-03    -26.3734E-03     53.1598E-03    -26.7800E-03     10.6474E-03    -12.9099E+06    -17.7802E+06    -130.779E+06    -13.4204E+06    -130.743E+06    -17.3057E+06    -997.959E+03         28.0669
             589     7.79028E-03     37.7960E-03         3.10940         2.88268        -8.44266         2.88245        -8.44242         3.10940     59.5028E-03     53.6058E-03    -26.7041E-03    -26.8955E-03    -26.4748E-03     53.3469E-03    -26.8659E-03     9.07013E-03    -12.3010E+06    -14.0298E+06    -153.427E+06    -13.3717E+06    -153.412E+06    -12.9750E+06    -336.666E+03         26.6092
             590     6.81604E-03     37.7882E-03         3.13786         2.94849        -8.53414         2.94809        -8.53375         3.13786     12.1119E-03     53.5955E-03    -26.6622E-03    -26.9304E-03    -26.4855E-03     53.4187E-03    -26.9304E-03     7.45679E-03    -11.8675E+06    -13.8841E+06    -166.590E+06    -13.3149E+06    -166.578E+06    -12.4481E+06    -181.897E+03         25.4848
             591     5.84196E-03     37.7803E-03         3.16466         3.01353        -8.62356         3.01304        -8.62308         3.16466     24.3213E-03     53.7464E-03    -26.7558E-03    -26.9931E-03    -26.6466E-03     53.6372E-03    -26.9931E-03     5.85739E-03    -11.7537E+06    -14.3243E+06    -174.407E+06    -13.7494E+06    -174.401E+06    -12.3343E+06     458.724E+03         24.7209
             592     4.86772E-03     37.7752E-03         3.18752         3.09101        -8.72371         3.09005        -8.72276         3.18752    -38.8130E-03     53.8820E-03    -26.8455E-03    -27.0394E-03    -26.7799E-03     53.8164E-03    -27.0394E-03     4.56774E-03    -13.3237E+06    -14.5394E+06    -176.957E+06    -14.5454E+06    -176.951E+06    -13.3237E+06     768.284E+03         24.2976
             593     3.89395E-03     37.7708E-03         3.20374         3.15905        -8.80884         3.15483        -8.80462         3.20374     171.005E-03     54.2208E-03    -26.9678E-03    -27.2559E-03    -27.1403E-03     54.1816E-03    -27.0442E-03     3.49021E-03    -13.4471E+06    -15.5754E+06    -175.999E+06    -15.5861E+06    -175.988E+06    -13.4471E+06    -60.9818E+03         24.0852
             594     2.92166E-03     37.7679E-03         3.21586         3.19340        -8.85126         3.18147        -8.83934         3.21586    -153.710E-03     54.2292E-03    -26.9750E-03    -27.2556E-03    -27.2221E-03     54.2089E-03    -26.9883E-03     2.47671E-03    -10.5903E+06    -15.4463E+06    -170.847E+06    -15.4582E+06    -170.835E+06    -10.5903E+06    -594.526E+03         23.9462
             595     1.94760E-03     37.7656E-03         3.25919         3.21292        -8.91515         3.21482        -8.88198         3.22411     330.987E-03     53.8316E-03    -26.8193E-03    -27.0129E-03    -26.8837E-03     53.8222E-03    -26.9391E-03     1.67810E-03    -10.6129E+06    -16.7603E+06    -168.737E+06    -16.7657E+06    -168.732E+06    -10.6129E+06    -134.479E+03         23.8455
             596     973.189E-06     37.7637E-03         4.28422         2.34454        -9.06970         2.20389        -8.89398         4.24914    -979.032E-03     53.7929E-03    -26.8283E-03    -26.9641E-03    -26.8431E-03     53.7877E-03    -26.9441E-03     855.927E-06    -15.3534E+06    -21.3057E+06    -167.004E+06    -20.3192E+06    -166.961E+06    -16.3828E+06     131.709E+03         23.7920
             597     16.5648E-03     37.4855E-03         2.75307         1.87293        -7.12805         1.87286        -7.12798         2.75307     10.5477E-03     214.960E-03    -26.9733E-03    -188.014E-03    -50.2296E-03     77.1753E-03    -26.9733E-03     382.278E-03     193.472E+06     152.937E+06    -9.07530E+06    -9.05600E+06     193.453E+06     152.937E+06    -487.998E+03         56.8902
             598     15.5877E-03     37.0274E-03         2.82722         2.01002        -7.34510         2.01000        -7.34508         2.82722    -15.6086E-03     164.146E-03    -26.6404E-03    -137.536E-03    -41.5921E-03     68.2026E-03    -26.6404E-03     279.754E-03     158.600E+06     85.3273E+06    -17.6545E+06    -17.5865E+06     158.532E+06     85.3273E+06    -1.04120E+06         53.2981
             599     14.6124E-03     36.8809E-03         2.89010         2.13986        -7.53769         2.13986        -7.53769         2.89010     11.3311E-03     75.2020E-03    -26.3427E-03    -48.8851E-03    -26.0116E-03     52.3286E-03    -26.3427E-03     90.0204E-03     112.927E+06      8.5134E+06    -28.9615E+06    -22.9731E+06     112.754E+06     2.69843E+06     159.282E+03         48.7025
             600     13.6376E-03     36.8433E-03         2.94313         2.26832        -7.71305         2.26821        -7.71294         2.94313     54.4855E-03     55.0802E-03    -26.1959E-03    -28.8963E-03    -25.2101E-03     51.3940E-03    -26.1959E-03     34.1633E-03     68.9026E+06    -23.5367E+06    -49.8482E+06    -23.2958E+06     68.6618E+06    -49.8482E+06     438.316E+03         43.7774
             601     12.6614E-03     36.8123E-03         2.99176         2.40050        -7.88752         2.40040        -7.88741         2.99176     47.7854E-03     53.9406E-03    -26.3108E-03    -27.6196E-03    -25.6625E-03     51.9836E-03    -26.3108E-03     24.3508E-03     12.2395E+06    -22.7706E+06    -51.7830E+06    -22.2915E+06     11.7604E+06    -51.7830E+06     218.832E+03         39.2564
             602     11.6878E-03     36.7943E-03         3.03678         2.53261        -8.05891         2.53257        -8.05887         3.03678     31.6371E-03     53.2255E-03    -26.4730E-03    -26.7589E-03    -25.8540E-03     52.3592E-03    -26.5116E-03     16.3861E-03    -19.1367E+06    -28.2979E+06    -56.1090E+06    -20.1267E+06    -46.6031E+06    -36.8137E+06     38.2627E+03         35.4074
             603     10.7120E-03     36.7788E-03         3.07855         2.64413        -8.20999         2.64408        -8.20994         3.07855     42.2910E-03     53.3626E-03    -26.5985E-03    -26.8020E-03    -26.0925E-03     52.6917E-03    -26.6371E-03     14.5910E-03    -15.9343E+06    -28.0171E+06    -84.1406E+06    -16.0349E+06    -84.0400E+06    -28.0171E+06    -1.53236E+06         32.2981
             604     9.73832E-03     36.7653E-03         3.11787         2.74515        -8.34872         2.74509        -8.34865         3.11787     29.1061E-03     53.6138E-03    -26.6721E-03    -26.9522E-03    -26.3057E-03     53.0225E-03    -26.7274E-03     13.6678E-03    -14.9399E+06    -21.7729E+06     -107.01E+06    -15.0131E+06    -106.937E+06    -21.7729E+06    -1.50140E+06         29.9323
             605     8.76419E-03     36.7519E-03         3.15441         2.84678        -8.48461         2.84673        -8.48455         3.15441     10.1013E-03     53.5116E-03    -26.6227E-03    -26.8779E-03    -26.3063E-03     53.1237E-03    -26.8065E-03     11.0691E-03    -15.4559E+06    -20.5536E+06    -132.455E+06    -15.9840E+06    -132.402E+06    -20.0792E+06    -603.102E+03         28.1083
             606     7.78953E-03     36.7424E-03         3.18778         2.93862        -8.60518         2.93845        -8.60501         3.18778     54.8061E-03     53.6376E-03    -26.7263E-03    -26.9043E-03    -26.4610E-03     53.3555E-03    -26.8875E-03     9.48785E-03    -14.9256E+06    -18.3718E+06    -153.458E+06    -15.4418E+06    -153.432E+06    -17.8821E+06    -450.417E+03         26.6420
             607     6.81562E-03     36.7334E-03         3.21769         3.02584        -8.71772         3.02556        -8.71745         3.21769     11.4590E-03     53.8916E-03    -26.9058E-03    -26.9837E-03    -26.7384E-03     53.6840E-03    -26.9436E-03     8.12722E-03    -15.0116E+06    -17.2226E+06    -167.176E+06    -15.6841E+06    -167.163E+06    -16.5628E+06     135.264E+03         25.5086
             608     5.84193E-03     36.7265E-03         3.24340         3.10596        -8.82015         3.10558        -8.81976         3.24340     27.8718E-03     53.8882E-03    -26.8800E-03    -27.0134E-03    -26.7792E-03     53.7639E-03    -26.9899E-03     6.25633E-03    -13.7304E+06    -16.6617E+06    -175.020E+06    -16.0893E+06    -175.012E+06    -14.3111E+06     794.787E+03         24.7345
             609     4.86802E-03     36.7208E-03         3.26566         3.16251        -8.90047         3.16171        -8.89968         3.26566    -35.1294E-03     53.9012E-03    -26.8813E-03    -27.0248E-03    -26.8116E-03     53.8305E-03    -27.0239E-03     4.73613E-03    -13.5693E+06    -16.0914E+06    -175.465E+06    -16.1008E+06    -175.455E+06    -13.5693E+06     933.626E+03         24.3005
             610     3.89430E-03     36.7161E-03         3.28429         3.22413        -8.98517         3.22087        -8.98190         3.28429     146.287E-03     54.0449E-03    -26.8809E-03    -27.1667E-03    -26.9666E-03     53.9998E-03    -27.0358E-03     3.79866E-03    -15.1746E+06    -16.2792E+06    -174.866E+06    -16.2084E+06    -174.854E+06    -15.2570E+06    -259.002E+03         24.0807
             611     2.92037E-03     36.7123E-03         3.29768         3.27509        -9.04459         3.26632        -9.03582         3.29768    -125.462E-03     54.1608E-03    -26.9102E-03    -27.2512E-03    -27.1087E-03     54.1355E-03    -27.0274E-03     2.79075E-03    -13.7057E+06    -16.1525E+06    -172.534E+06    -16.1160E+06    -172.488E+06    -13.7881E+06    -1.62195E+06         23.9411
             612     1.94753E-03     36.7118E-03         3.32432         3.29806        -9.08987         3.29102        -9.06558         3.30707     285.245E-03     54.1001E-03    -26.8617E-03    -27.2391E-03    -27.1208E-03     54.0883E-03    -26.9682E-03     1.93516E-03    -10.6715E+06    -17.0750E+06    -168.412E+06    -17.1172E+06    -168.370E+06    -10.6715E+06    -638.294E+03         23.8451
             613     973.852E-06     36.7094E-03         4.42085         2.32338        -9.20663         2.21935        -9.08535         4.40360    -789.301E-03     53.7425E-03    -26.6236E-03    -27.1186E-03    -26.7976E-03     53.7375E-03    -26.9396E-03     770.826E-06    -15.8893E+06    -21.6305E+06    -166.793E+06    -20.6213E+06    -166.773E+06    -16.9186E+06    -404.802E+03         23.7934
             614     16.5570E-03     36.4159E-03         2.81291         1.88711        -7.22382         1.88705        -7.22375         2.81291     17.5079E-03     213.417E-03    -27.0702E-03    -186.400E-03    -48.1704E-03     75.1873E-03    -27.0702E-03     380.293E-03     192.202E+06     152.046E+06    -10.4151E+06    -10.4008E+06     192.188E+06     152.046E+06    -1.46732E+06         56.8139
             615     15.5905E-03     35.9781E-03         2.88451         2.03611        -7.44744         2.03608        -7.44742         2.88451    -1.56315E-03     161.251E-03    -26.7954E-03    -134.512E-03    -40.3874E-03     67.1265E-03    -26.7954E-03     274.329E-03     158.800E+06     86.1937E+06    -17.4877E+06    -17.4592E+06     158.772E+06     86.1937E+06     439.982E+03         53.2538
             616     14.6103E-03     35.8275E-03         2.94593         2.18506        -7.65638         2.18505        -7.65637         2.94593     6.33633E-03     76.5331E-03    -26.4870E-03    -50.0763E-03    -26.6349E-03     53.0917E-03    -26.4870E-03     91.6837E-03     113.602E+06     10.1193E+06    -28.7790E+06    -21.9001E+06     113.513E+06     3.32941E+06     1.28431E+06         48.6879
             617     13.6348E-03     35.7889E-03         2.99875         2.31707        -7.83981         2.31700        -7.83974         2.99875     20.9371E-03     55.7933E-03    -26.2987E-03    -29.5128E-03    -25.9110E-03     52.1915E-03    -26.2987E-03     34.0632E-03     69.1348E+06    -23.1246E+06    -50.6209E+06    -22.9719E+06     68.9821E+06    -50.6209E+06     339.933E+03         43.7848
             618     12.6612E-03     35.7588E-03         3.04815         2.43451        -8.00236         2.43442        -8.00226         3.04815     6.92011E-03     54.2707E-03    -26.3792E-03    -27.8912E-03    -25.9482E-03     52.3277E-03    -26.3792E-03     24.4336E-03     13.7876E+06    -22.2770E+06    -53.2873E+06    -20.1768E+06     11.6873E+06    -53.2873E+06     357.075E+03         39.2833
             619     11.6860E-03     35.7395E-03         3.09505         2.56070        -8.16957         2.56064        -8.16951         3.09505     8.72553E-03     53.4108E-03    -26.5294E-03    -26.9028E-03    -25.9543E-03     52.5009E-03    -26.5680E-03     16.8445E-03    -17.8435E+06    -28.0262E+06    -55.0336E+06    -17.9402E+06    -44.6332E+06    -38.3299E+06    -324.664E+03         35.4598
             620     10.7122E-03     35.7264E-03         3.13851         2.68978        -8.34320         2.68974        -8.34316         3.13851     36.6939E-03     53.5131E-03    -26.6529E-03    -26.9052E-03    -26.1446E-03     52.7910E-03    -26.6916E-03     15.1522E-03    -18.4029E+06    -32.0784E+06    -83.2900E+06    -18.5029E+06    -83.1899E+06    -32.0784E+06    -1.72354E+06         32.3669
             621     9.73719E-03     35.7096E-03         3.17862         2.79928        -8.49046         2.79927        -8.49045         3.17862     7.23066E-03     53.7060E-03    -26.7168E-03    -27.0067E-03    -26.3107E-03     53.0799E-03    -26.7867E-03     14.0493E-03    -17.8582E+06    -27.3694E+06    -109.238E+06    -17.9276E+06    -109.169E+06    -27.3694E+06    -1.44775E+06         29.9911
             622     8.76337E-03     35.6987E-03         3.21641         2.88964        -8.61234         2.88961        -8.61231         3.21641    -26.9531E-03     53.7333E-03    -26.6915E-03    -27.0355E-03    -26.4334E-03     53.3162E-03    -26.8766E-03     11.5306E-03    -15.8880E+06    -22.4876E+06    -132.733E+06    -15.9391E+06    -132.682E+06    -22.4876E+06    -282.532E+03         28.1513
             623     7.78897E-03     35.6882E-03         3.25140         2.99125        -8.74394         2.99111        -8.74381         3.25140     26.4900E-03     53.9285E-03    -26.8355E-03    -27.0902E-03    -26.6692E-03     53.6226E-03    -26.9507E-03     9.89152E-03    -16.2958E+06    -20.1543E+06    -154.364E+06    -16.5747E+06    -154.339E+06    -19.9004E+06     226.702E+03         26.6762
             624     6.81513E-03     35.6789E-03         3.28173         3.09189        -8.86655         3.09167        -8.86633         3.28173    -1.70657E-03     54.0604E-03    -26.9813E-03    -27.0847E-03    -26.8510E-03     53.8548E-03    -27.0094E-03     8.09287E-03    -14.7122E+06    -18.5592E+06    -167.174E+06    -17.5935E+06    -167.169E+06    -15.6828E+06     552.109E+03         25.5339
             625     5.84147E-03     35.6719E-03         3.30689         3.17284        -8.96649         3.17264        -8.96630         3.30689    -9.03335E-03     54.0839E-03    -27.0160E-03    -27.0736E-03    -26.9122E-03     53.9566E-03    -27.0502E-03     6.38106E-03    -11.6288E+06    -17.3897E+06    -174.160E+06    -17.3993E+06    -174.150E+06    -11.6288E+06     390.668E+03         24.7510
             626     4.86805E-03     35.6663E-03         3.32906         3.22294        -9.04129         3.22245        -9.04080         3.32906    -55.6099E-03     54.1104E-03    -27.0429E-03    -27.0703E-03    -26.9771E-03     54.0233E-03    -27.0490E-03     5.29077E-03    -12.8879E+06    -16.8055E+06    -174.946E+06    -16.7787E+06    -174.938E+06    -12.9228E+06     99.0496E+03         24.3094
             627     3.89449E-03     35.6615E-03         3.35151         3.26127        -9.10652         3.25935        -9.10461         3.35151     88.5779E-03     53.9894E-03    -26.9176E-03    -27.0742E-03    -26.8877E-03     53.9383E-03    -27.0530E-03     3.94081E-03    -14.8122E+06    -16.0581E+06    -173.675E+06    -15.9465E+06    -173.670E+06    -14.9294E+06    -663.732E+03         24.0836
             628     2.92038E-03     35.6584E-03         3.37270         3.32214        -9.18850         3.31597        -9.18233         3.37270    -155.739E-03     53.9855E-03    -26.8425E-03    -27.1453E-03    -26.8573E-03     53.9622E-03    -27.1072E-03     2.72284E-03    -15.2694E+06    -17.2398E+06    -173.355E+06    -17.1998E+06    -173.313E+06    -15.3517E+06    -1.95032E+06         23.9415
             629     1.94655E-03     35.6555E-03         3.41011         3.37010        -9.27155         3.38180        -9.25564         3.38251     186.903E-03     54.2993E-03    -26.9651E-03    -27.3369E-03    -27.1668E-03     54.2858E-03    -27.1216E-03     2.04426E-03    -14.8216E+06    -19.5003E+06    -170.812E+06    -18.9011E+06    -170.724E+06    -15.5088E+06    -2.32083E+06         23.8499
             630     974.352E-06     35.6553E-03         4.55241         2.29092        -9.32727         2.24104        -9.24979         4.52481    -634.702E-03     54.1511E-03    -26.8332E-03    -27.3185E-03    -27.0772E-03     54.1466E-03    -27.0698E-03     1.09279E-03    -15.5308E+06    -20.7445E+06    -165.817E+06    -18.5917E+06    -165.711E+06    -17.7901E+06     540.249E+03         23.8063
             631     16.5662E-03     35.3595E-03         2.85910         1.90790        -7.32138         1.90787        -7.32136         2.85910     17.0473E-03     212.893E-03    -27.0834E-03    -185.864E-03    -45.5670E-03     72.5958E-03    -27.0834E-03     380.803E-03     191.226E+06     151.990E+06    -10.1042E+06    -10.0904E+06     191.212E+06     151.990E+06    -1.50521E+06         56.7535
             632     15.5818E-03     34.9262E-03         2.92766         2.05617        -7.54049         2.05616        -7.54048         2.92766     2.27436E-03     162.021E-03    -26.9427E-03    -135.127E-03    -39.3341E-03     66.2275E-03    -26.9427E-03     275.572E-03     158.230E+06     88.1464E+06    -18.1847E+06    -18.1496E+06     158.195E+06     88.1464E+06     148.539E+03         53.2178
             633     14.6081E-03     34.7729E-03         2.98830         2.19418        -7.73486         2.19417        -7.73484         2.98830    -4.52150E-03     77.3873E-03    -26.6207E-03    -50.7926E-03    -28.3022E-03     54.8969E-03    -26.6207E-03     91.0403E-03     114.895E+06     12.1180E+06    -29.9853E+06    -22.2896E+06     114.793E+06     4.52408E+06     1.19596E+06         48.6804
             634     13.6350E-03     34.7339E-03         3.04230         2.33430        -7.92242         2.33429        -7.92240         3.04230    -3.11732E-03     55.5925E-03    -26.3872E-03    -29.2222E-03    -25.8054E-03     52.1757E-03    -26.3872E-03     33.1633E-03     69.8121E+06    -20.6307E+06    -48.9915E+06    -20.5010E+06     69.6823E+06    -48.9915E+06    -245.107E+03         43.7987
             635     12.6597E-03     34.7047E-03         3.09227         2.47878        -8.11247         2.47874        -8.11243         3.09227    -20.2204E-03     54.2820E-03    -26.4846E-03    -27.7969E-03    -25.8654E-03     52.3505E-03    -26.4846E-03     24.4179E-03     13.8342E+06    -21.0962E+06    -50.6242E+06    -18.0760E+06     10.8140E+06    -50.6242E+06    -337.620E+03         39.3117
             636     11.6851E-03     34.6860E-03         3.13883         2.60618        -8.28384         2.60612        -8.28378         3.13883    -9.36396E-03     53.7148E-03    -26.6777E-03    -27.0533E-03    -26.1257E-03     52.7872E-03    -26.6777E-03     17.0275E-03    -15.9853E+06    -25.9035E+06    -52.8780E+06    -16.1246E+06    -43.9775E+06    -34.6647E+06     723.609E+03         35.5100
             637     10.7103E-03     34.6715E-03         3.18284         2.71561        -8.43734         2.71559        -8.43732         3.18284     24.1577E-03     53.8154E-03    -26.8058E-03    -27.0383E-03    -26.3254E-03     53.1026E-03    -26.8058E-03     15.0960E-03    -15.3978E+06    -26.6258E+06    -81.7182E+06    -15.9929E+06    -81.6717E+06    -26.0772E+06     600.611E+03         32.4319
             638     9.73671E-03     34.6564E-03         3.22463         2.82406        -8.58403         2.82404        -8.58402         3.22463     18.7434E-03     53.8195E-03    -26.8257E-03    -27.0094E-03    -26.3237E-03     53.2036E-03    -26.8956E-03     13.9396E-03    -15.9072E+06    -24.7979E+06    -110.114E+06    -16.4922E+06    -110.078E+06    -24.2493E+06    -1.04131E+06         30.0485
             639     8.76161E-03     34.6442E-03         3.26350         2.93287        -8.72501         2.93283        -8.72497         3.26350    -16.6824E-03     53.9804E-03    -26.9097E-03    -27.0779E-03    -26.5928E-03     53.5706E-03    -26.9850E-03     11.4553E-03    -14.7570E+06    -22.1452E+06    -133.870E+06    -17.0246E+06    -133.840E+06    -19.9068E+06    -363.970E+03         28.1950
             640     7.78867E-03     34.6334E-03         3.29823         3.04290        -8.86011         3.04277        -8.85998         3.29823     19.5831E-03     54.2373E-03    -27.0519E-03    -27.1909E-03    -26.8761E-03     53.9278E-03    -27.0573E-03     9.98831E-03    -14.2229E+06    -18.2645E+06    -154.977E+06    -17.6285E+06    -154.965E+06    -14.8709E+06     699.274E+03         26.7109
             641     6.81509E-03     34.6245E-03         3.32804         3.13888        -8.98034         3.13873        -8.98018         3.32804     11.9284E-03     54.2000E-03    -27.0597E-03    -27.1506E-03    -26.9006E-03     53.9781E-03    -27.0879E-03     8.42476E-03    -13.9099E+06    -17.2708E+06    -166.435E+06    -17.2757E+06    -166.430E+06    -13.9099E+06     330.550E+03         25.5597
             642     5.84121E-03     34.6171E-03         3.35336         3.21500        -9.08052         3.21483        -9.08034         3.35336     14.8968E-03     54.2499E-03    -27.0777E-03    -27.1773E-03    -27.0027E-03     54.1094E-03    -27.1118E-03     6.69214E-03    -12.7704E+06    -17.2312E+06    -172.709E+06    -17.2431E+06    -172.698E+06    -12.7704E+06    -765.037E+03         24.7679
             643     4.86739E-03     34.6117E-03         3.37630         3.26456        -9.15367         3.26431        -9.15341         3.37630    -3.96033E-03     54.2281E-03    -27.0480E-03    -27.1822E-03    -27.0284E-03     54.1392E-03    -27.1129E-03     5.33995E-03    -14.7144E+06    -17.5044E+06    -175.864E+06    -17.4842E+06    -175.849E+06    -14.7493E+06    -1.38985E+06         24.3199
             644     3.89385E-03     34.6064E-03         3.39944         3.30629        -9.22386         3.30519        -9.22277         3.39944     99.1873E-03     54.1344E-03    -26.9931E-03    -27.1440E-03    -26.9580E-03     54.0788E-03    -27.1235E-03     4.14864E-03    -15.6099E+06    -17.1720E+06    -173.760E+06    -17.1476E+06    -173.750E+06    -15.6449E+06    -1.09657E+06         24.0920
             645     2.92074E-03     34.6041E-03         3.42170         3.36324        -9.30387         3.35947        -9.30010         3.42170    -102.659E-03     54.1104E-03    -26.9308E-03    -27.1813E-03    -26.8989E-03     54.0785E-03    -27.1813E-03     3.16678E-03    -14.7868E+06    -18.1758E+06    -172.635E+06    -17.2642E+06    -172.630E+06    -15.7038E+06    -658.573E+03         23.9489
             646     1.94674E-03     34.6008E-03         3.45395         3.41327        -9.37784         3.41909        -9.36620         3.43649     219.117E-03     54.2537E-03    -26.9458E-03    -27.3102E-03    -26.9270E-03     54.2350E-03    -27.3102E-03     2.41259E-03    -14.1866E+06    -20.9616E+06    -171.353E+06    -19.4175E+06    -171.293E+06    -15.7908E+06    -2.13224E+06         23.8567
             647     972.142E-06     34.5995E-03         4.65132         2.28093        -9.43147         2.24703        -9.38012         4.63386    -465.354E-03     54.7359E-03    -27.1325E-03    -27.6041E-03    -27.4109E-03     54.7282E-03    -27.3180E-03     838.463E-06    -17.4073E+06    -23.7553E+06    -168.635E+06    -21.6351E+06    -168.496E+06    -19.6666E+06     351.461E+03         23.8195
             648     16.5608E-03     34.3258E-03         2.89309         1.93955        -7.40386         1.93953        -7.40385         2.89309    -7.48639E-03     216.350E-03    -27.2725E-03    -189.096E-03    -45.2770E-03     72.5310E-03    -27.2725E-03     387.602E-03     191.474E+06     152.459E+06    -10.3028E+06    -10.2856E+06     191.457E+06     152.459E+06    -100.233E+03         56.6911
             649     15.5791E-03     33.8631E-03         2.95815         2.07498        -7.61052         2.07496        -7.61051         2.95815    -22.7503E-03     164.190E-03    -27.1012E-03    -137.108E-03    -42.7685E-03     69.8499E-03    -27.1012E-03     276.924E-03     158.107E+06     88.4026E+06    -19.6758E+06    -19.5554E+06     157.986E+06     88.4026E+06    -602.124E+03         53.1831
             650     14.6106E-03     33.7182E-03         3.01709         2.21672        -7.80944         2.21670        -7.80942         3.01709    -17.7177E-03     75.6179E-03    -26.6901E-03    -48.9599E-03    -28.3776E-03     55.0356E-03    -26.6901E-03     87.3815E-03     114.830E+06     11.8379E+06    -30.8020E+06    -23.5348E+06     114.644E+06     4.75709E+06    -882.766E+03         48.6782
             651     13.6333E-03     33.6808E-03         3.07051         2.36011        -8.00150         2.36007        -8.00146         3.07051     24.7709E-03     55.4639E-03    -26.4633E-03    -29.0208E-03    -25.3792E-03     51.8223E-03    -26.4633E-03     33.9904E-03     69.3271E+06    -22.9890E+06    -50.0921E+06    -22.8841E+06     69.2222E+06    -50.0921E+06     201.843E+03         43.8126
             652     12.6582E-03     33.6506E-03         3.12043         2.49764        -8.18042         2.49759        -8.18038         3.12043     12.2610E-03     54.5193E-03    -26.5868E-03    -27.9259E-03    -25.9854E-03     52.5788E-03    -26.5868E-03     24.4905E-03     12.1698E+06    -23.4868E+06    -51.1206E+06    -21.6603E+06     10.3434E+06    -51.1206E+06     23.7515E+03         39.3370
             653     11.6839E-03     33.6314E-03         3.16739         2.62538        -8.35072         2.62537        -8.35071         3.16739    -2.68947E-03     53.9705E-03    -26.7625E-03    -27.2295E-03    -26.3135E-03     53.0545E-03    -26.7625E-03     16.9740E-03    -18.8610E+06    -29.7945E+06    -52.4604E+06    -19.0672E+06    -44.6426E+06    -37.4061E+06    -512.699E+03         35.5503
             654     10.7104E-03     33.6169E-03         3.21179         2.73924        -8.50899         2.73924        -8.50898         3.21179     12.6836E-03     54.0253E-03    -26.9022E-03    -27.1499E-03    -26.4620E-03     53.3374E-03    -26.9022E-03     14.8766E-03    -14.7103E+06    -24.6917E+06    -81.4630E+06    -15.7899E+06    -81.3540E+06    -23.7212E+06      547.84E+03         32.4825
             655     9.73536E-03     33.6020E-03         3.25330         2.85869        -8.66539         2.85867        -8.66537         3.25330     21.0663E-03     54.1535E-03    -26.9944E-03    -27.1547E-03    -26.5679E-03     53.5667E-03    -26.9944E-03     13.6723E-03    -14.6433E+06    -18.7437E+06    -108.670E+06    -15.6470E+06    -108.637E+06    -17.7733E+06     1.30169E+06         30.0989
             656     8.76241E-03     33.5894E-03         3.29112         2.96997        -8.81183         2.96994        -8.81180         3.29112     10.1369E-03     54.0625E-03    -26.9603E-03    -27.0995E-03    -26.5977E-03     53.6529E-03    -27.0525E-03     11.4688E-03    -14.7176E+06    -21.4299E+06    -134.613E+06    -16.9680E+06    -134.601E+06    -19.1914E+06     150.588E+03         28.2381
             657     7.78769E-03     33.5788E-03         3.32532         3.06665        -8.93880         3.06655        -8.93870         3.32532     36.7265E-03     54.1717E-03    -27.0136E-03    -27.1547E-03    -26.7016E-03     53.8488E-03    -27.1439E-03     10.1848E-03    -12.9149E+06    -18.0129E+06    -155.687E+06    -16.6725E+06    -155.684E+06    -14.2587E+06     109.848E+03         26.7448
             658     6.81379E-03     33.5698E-03         3.35505         3.16761        -9.06203         3.16746        -9.06188         3.35505     7.72142E-03     54.3561E-03    -27.1378E-03    -27.2210E-03    -26.9482E-03     54.1214E-03    -27.1758E-03     8.69145E-03    -15.2142E+06    -17.9082E+06    -165.025E+06    -16.9612E+06    -165.021E+06    -16.1647E+06     129.221E+03         25.5844
             659     5.84045E-03     33.5624E-03         3.38005         3.24272        -9.15939         3.24250        -9.15917         3.38005     23.3212E-03     54.4681E-03    -27.1914E-03    -27.2816E-03    -27.1239E-03     54.3104E-03    -27.1914E-03     7.12540E-03    -16.7766E+06    -18.4605E+06    -172.204E+06    -17.5190E+06    -172.195E+06    -17.7271E+06    -980.254E+03         24.7827
             660     4.86749E-03     33.5563E-03         3.40348         3.28510        -9.22722         3.28482        -9.22693         3.40348     8.43497E-03     54.4325E-03    -27.1485E-03    -27.2836E-03    -27.1290E-03     54.3367E-03    -27.2073E-03     5.50421E-03    -17.2734E+06    -18.4102E+06    -176.047E+06    -18.2931E+06    -176.033E+06    -17.4046E+06    -1.37106E+06         24.3282
             661     3.89358E-03     33.5527E-03         3.42406         3.35571        -9.31992         3.35497        -9.31918         3.42406     56.8572E-03     54.2948E-03    -27.0389E-03    -27.2565E-03    -27.0031E-03     54.2385E-03    -27.2361E-03     4.25630E-03    -16.9379E+06    -18.3549E+06    -173.783E+06    -18.2329E+06    -173.774E+06    -17.0690E+06    -1.06806E+06         24.1020
             662     2.91943E-03     33.5482E-03         3.43836         3.40697        -9.38321         3.40471        -9.38096         3.43836    -93.7339E-03     54.4154E-03    -27.1056E-03    -27.3093E-03    -27.0875E-03     54.3816E-03    -27.2937E-03     3.22168E-03    -15.7348E+06    -19.2315E+06    -172.969E+06    -18.3413E+06    -172.942E+06    -16.6518E+06    -1.35842E+06         23.9621
             663     1.94631E-03     33.5470E-03         3.45312         3.42464        -9.40478         3.41663        -9.39676         3.45312     188.829E-03     54.6150E-03    -27.1353E-03    -27.4805E-03    -27.2552E-03     54.5976E-03    -27.3432E-03     2.35272E-03    -13.2106E+06    -22.0538E+06    -171.443E+06    -21.1970E+06    -171.383E+06    -14.1276E+06    -648.926E+03         23.8675
             664     973.631E-06     33.5428E-03         4.70968         2.24939        -9.47141         2.21510        -9.43712         4.70968    -366.015E-03     54.6076E-03    -26.9186E-03    -27.6891E-03    -27.2464E-03     54.5991E-03    -27.3528E-03     781.263E-06    -19.7282E+06    -28.0922E+06    -171.907E+06    -28.2083E+06    -171.791E+06    -19.7282E+06    -207.792E+03         23.8243
             665     16.5395E-03     33.2526E-03         2.91419         1.94043        -7.44763         1.94041        -7.44761         2.91419     1.39307E-03     216.850E-03    -27.3785E-03    -189.510E-03    -46.3415E-03     73.6812E-03    -27.3785E-03     387.865E-03     192.200E+06     152.065E+06    -10.9433E+06    -10.8831E+06     192.140E+06     152.065E+06     22.1757E+03         56.6300
             666     15.5854E-03     32.8032E-03         2.97505         2.08612        -7.65892         2.08609        -7.65890         2.97505    -2.55226E-03     160.547E-03    -27.1473E-03    -133.448E-03    -42.5195E-03     69.6183E-03    -27.1473E-03     270.261E-03     158.636E+06     88.4636E+06    -19.3160E+06    -19.1429E+06     158.463E+06     88.4636E+06    -1.13872E+06         53.1539
             667     14.6061E-03     32.6667E-03         3.03095         2.24107        -7.86761         2.24105        -7.86760         3.03095    -8.05745E-03     74.9204E-03    -26.7564E-03    -48.1953E-03    -26.8885E-03     53.6137E-03    -26.7564E-03     87.4267E-03     113.281E+06     10.9582E+06    -31.1720E+06    -23.7075E+06     113.113E+06     3.66160E+06     325.286E+03         48.6729
             668     13.6314E-03     32.6255E-03         3.08274         2.38154        -8.05272         2.38151        -8.05268         3.08274     25.1893E-03     56.2921E-03    -26.5548E-03    -29.7529E-03    -26.0597E-03     52.5989E-03    -26.5548E-03     34.4758E-03     69.4927E+06    -25.7861E+06    -52.8485E+06    -25.7273E+06     69.4339E+06    -52.8485E+06     964.426E+03         43.8209
             669     12.6576E-03     32.5966E-03         3.13228         2.50007        -8.21419         2.50000        -8.21412         3.13228    -2.99988E-03     54.8415E-03    -26.6477E-03    -28.1874E-03    -26.3366E-03     52.9908E-03    -26.6477E-03     24.0022E-03     14.3077E+06    -24.8813E+06    -53.3153E+06    -22.7606E+06     12.1870E+06    -53.3153E+06    -711.644E+03         39.3583
             670     11.6833E-03     32.5764E-03         3.17990         2.62356        -8.38052         2.62351        -8.38047         3.17990    -8.64647E-03     54.0104E-03    -26.7991E-03    -27.2353E-03    -26.3691E-03     53.1442E-03    -26.7991E-03     16.5236E-03    -19.2814E+06    -34.4166E+06    -55.1242E+06    -20.0333E+06    -45.7041E+06    -43.0848E+06    -1.56698E+06         35.5824
             671     10.7085E-03     32.5628E-03         3.22460         2.75328        -8.55198         2.75327        -8.55197         3.22460     15.6985E-03     54.1122E-03    -26.9352E-03    -27.2038E-03    -26.5331E-03     53.4414E-03    -26.9352E-03     14.6972E-03    -18.2127E+06    -31.1697E+06    -83.9130E+06    -18.9104E+06    -83.8262E+06    -30.5588E+06    -91.1366E+03         32.5234
             672     9.73567E-03     32.5466E-03         3.26537         2.88009        -8.71294         2.88004        -8.71290         3.26537    -7.14462E-03     54.2465E-03    -26.9936E-03    -27.2445E-03    -26.6173E-03     53.6630E-03    -27.0372E-03     13.6510E-03    -17.3997E+06    -21.8856E+06    -108.149E+06    -18.0444E+06    -108.115E+06    -21.2747E+06     1.49284E+06         30.1439
             673     8.76093E-03     32.5355E-03         3.30213         2.98853        -8.85383         2.98845        -8.85374         3.30213    -26.2963E-03     54.1365E-03    -26.9652E-03    -27.1620E-03    -26.6225E-03     53.7274E-03    -27.0956E-03     11.4652E-03    -17.0197E+06    -22.6762E+06    -133.246E+06    -17.0389E+06    -133.227E+06    -22.6762E+06     1.04171E+06         28.2789
             674     7.78713E-03     32.5243E-03         3.33544         3.08236        -8.98188         3.08227        -8.98178         3.33544    -1.28849E-03     54.2428E-03    -27.0130E-03    -27.2119E-03    -26.7233E-03     53.9284E-03    -27.1871E-03     10.0474E-03    -16.8426E+06    -19.5193E+06    -155.525E+06    -17.4621E+06    -155.520E+06    -18.9047E+06     392.377E+03         26.7771
             675     6.81343E-03     32.5148E-03         3.36573         3.16401        -9.09265         3.16390        -9.09255         3.36573    -18.7653E-03     54.3462E-03    -27.0763E-03    -27.2644E-03    -26.8767E-03     54.1290E-03    -27.2467E-03     8.34746E-03    -16.4019E+06    -18.9699E+06    -164.286E+06    -17.7394E+06    -164.285E+06    -17.6330E+06     181.925E+03         25.6076
             676     5.83976E-03     32.5072E-03         3.39335         3.23558        -9.18829         3.23546        -9.18817         3.39335    -11.0408E-03     54.4472E-03    -27.1327E-03    -27.3197E-03    -27.0089E-03     54.2986E-03    -27.2950E-03     6.93045E-03    -16.9268E+06    -19.3352E+06    -172.015E+06    -17.7854E+06    -172.014E+06    -18.4781E+06    -284.120E+03         24.7953
             677     4.86580E-03     32.5013E-03         3.41687         3.31391        -9.28516         3.31370        -9.28496         3.41687    -32.1083E-03     54.6689E-03    -27.2518E-03    -27.4165E-03    -27.2403E-03     54.5720E-03    -27.3311E-03     5.54688E-03    -17.1159E+06    -18.4531E+06    -175.127E+06    -17.7441E+06    -175.104E+06    -17.8477E+06    -1.36041E+06         24.3349
             678     3.89307E-03     32.4971E-03         3.43396         3.38034        -9.36420         3.38007        -9.36393         3.43396    -339.558E-06     54.7400E-03    -27.2543E-03    -27.4856E-03    -27.3511E-03     54.6904E-03    -27.3392E-03     3.95525E-03    -16.3879E+06    -18.7640E+06    -174.307E+06    -18.6571E+06    -174.283E+06    -16.5190E+06    -1.43160E+06         24.1123
             679     2.91993E-03     32.4940E-03         3.44798         3.40568        -9.40475         3.40443        -9.40351         3.44798    -95.4778E-03     54.6672E-03    -27.2413E-03    -27.4246E-03    -27.2941E-03     54.6363E-03    -27.3410E-03     3.09674E-03    -15.6534E+06    -20.9138E+06    -173.683E+06    -20.9464E+06    -173.650E+06    -15.6534E+06    -827.172E+03         23.9740
             680     1.94678E-03     32.4900E-03         3.47429         3.42906        -9.45025         3.43875        -9.44641         3.46077     110.006E-03     54.7143E-03    -27.2786E-03    -27.4344E-03    -27.3995E-03     54.6942E-03    -27.2933E-03     2.43322E-03    -17.3205E+06    -23.6833E+06    -173.296E+06     -23.738E+06    -173.241E+06    -17.3205E+06     599.606E+03         23.8737
             681     973.739E-06     32.4890E-03         4.71525         2.23439        -9.48116         2.23145        -9.46469         4.70173    -258.430E-03     54.4271E-03    -26.9455E-03    -27.4815E-03    -27.1991E-03     54.4207E-03    -27.2215E-03     1.22529E-03    -20.2284E+06    -27.2796E+06    -171.691E+06    -25.2279E+06    -171.437E+06    -22.5339E+06    -2.86336E+06         23.8230
             682     16.5724E-03     32.1962E-03         2.92060         1.93639        -7.47503         1.93635        -7.47499         2.92060     13.5501E-03     216.667E-03    -27.1339E-03    -189.575E-03    -46.1719E-03     73.2644E-03    -27.1339E-03     387.919E-03     192.779E+06     152.554E+06    -9.88728E+06    -9.81326E+06     192.705E+06     152.554E+06     357.226E+03         56.5823
             683     15.5814E-03     31.7574E-03         2.97652         2.09492        -7.68727         2.09490        -7.68725         2.97652     2.27435E-03     160.667E-03    -27.0881E-03    -133.628E-03    -37.0742E-03     64.1129E-03    -27.0881E-03     274.033E-03     157.090E+06     87.9220E+06    -19.9878E+06    -19.8792E+06     156.982E+06     87.9220E+06     537.600E+03         53.1285
             684     14.6041E-03     31.6091E-03         3.02965         2.23517        -7.87633         2.23515        -7.87631         3.02965    -12.1716E-03     76.3545E-03    -26.8665E-03    -49.5099E-03    -27.7477E-03     54.5922E-03    -26.8665E-03     88.2359E-03     113.186E+06     10.8435E+06    -30.0972E+06    -25.0872E+06     113.129E+06     5.88984E+06     1.03624E+06         48.6626
             685     13.6313E-03     31.5714E-03         3.08109         2.36910        -8.05299         2.36905        -8.05293         3.08109     8.70375E-03     56.5499E-03    -26.6186E-03    -29.9377E-03    -26.6863E-03     53.2985E-03    -26.6186E-03     32.6873E-03     71.2884E+06    -23.4013E+06    -49.2754E+06    -23.3446E+06     71.2318E+06    -49.2754E+06    -103.829E+03         43.8283
             686     12.6570E-03     31.5402E-03         3.13025         2.50768        -8.23484         2.50757        -8.23473         3.13025    -18.3360E-03     54.8716E-03    -26.6723E-03    -28.1943E-03    -26.4494E-03     53.1267E-03    -26.6723E-03     23.2289E-03     15.5305E+06    -22.6507E+06    -52.9257E+06    -20.5296E+06     13.4093E+06    -52.9257E+06    -780.851E+03         39.3767
             687     11.6830E-03     31.5231E-03         3.17649         2.63781        -8.40608         2.63771        -8.40598         3.17649    -17.6083E-03     54.0898E-03    -26.8137E-03    -27.2964E-03    -26.5069E-03     53.3003E-03    -26.8137E-03     15.8314E-03    -18.2161E+06    -34.2297E+06    -56.7290E+06    -19.3218E+06    -46.2688E+06    -43.5841E+06    -988.476E+03         35.6101
             688     10.7094E-03     31.5071E-03         3.22007         2.75162        -8.55950         2.75159        -8.55947         3.22007     23.2586E-03     54.0294E-03    -26.9168E-03    -27.1443E-03    -26.5004E-03     53.4099E-03    -26.9412E-03     14.1225E-03    -17.6223E+06    -33.1774E+06    -85.7393E+06    -17.8474E+06    -85.7033E+06    -32.9883E+06    -571.245E+03         32.5602
             689     9.73429E-03     31.4930E-03         3.26117         2.86213        -8.70551         2.86209        -8.70547         3.26117    -11.0348E-03     54.0920E-03    -26.9623E-03    -27.1343E-03    -26.4967E-03     53.5640E-03    -27.0719E-03     12.9576E-03    -16.1244E+06    -20.7625E+06    -109.434E+06    -16.5330E+06    -109.410E+06    -20.3773E+06     1.01779E+06         30.1855
             690     8.76079E-03     31.4800E-03         3.29877         2.97887        -8.85429         2.97879        -8.85421         3.29877    -39.5672E-03     54.2330E-03    -27.0563E-03    -27.1764E-03    -26.7167E-03     53.8585E-03    -27.1415E-03     10.9820E-03    -17.1270E+06    -20.6365E+06    -131.970E+06    -17.3580E+06    -131.935E+06    -20.4404E+06     1.87353E+06         28.3169
             691     7.78731E-03     31.4698E-03         3.33194         3.08407        -8.98869         3.08402        -8.98864         3.33194    -32.0395E-03     54.4264E-03    -27.1625E-03    -27.2555E-03    -26.9164E-03     54.1366E-03    -27.2119E-03     9.67669E-03    -16.0148E+06    -19.1488E+06    -153.722E+06    -17.3232E+06    -153.710E+06    -17.8524E+06     910.792E+03         26.8071
             692     6.81333E-03     31.4597E-03         3.36240         3.15177        -9.08515         3.15176        -9.08513         3.36240    -17.9879E-03     54.3355E-03    -27.0530E-03    -27.2799E-03    -26.8643E-03     54.1380E-03    -27.2712E-03     7.94378E-03    -14.7535E+06    -17.3937E+06    -165.152E+06    -17.1143E+06    -165.150E+06    -15.0340E+06     283.756E+03         25.6290
             693     5.83948E-03     31.4526E-03         3.39103         3.22709        -9.19010         3.22707        -9.19008         3.39103    -26.2234E-03     54.3438E-03    -27.0164E-03    -27.3309E-03    -26.8907E-03     54.2181E-03    -27.3309E-03     6.35865E-03    -14.7176E+06    -17.7196E+06    -170.925E+06    -17.1243E+06    -170.920E+06    -15.3183E+06    -257.572E+03         24.8072
             694     4.86609E-03     31.4458E-03         3.41271         3.33182        -9.31545         3.33177        -9.31540         3.41271    -27.1314E-03     54.5776E-03    -27.1325E-03    -27.4474E-03    -27.1058E-03     54.4930E-03    -27.3895E-03     5.21950E-03    -15.7744E+06    -18.4508E+06    -174.390E+06    -17.6126E+06    -174.360E+06    -16.6422E+06    -958.774E+03         24.3402
             695     3.89279E-03     31.4412E-03         3.42577         3.38562        -9.37721         3.38541        -9.37700         3.42577     50.9549E-03     54.8888E-03    -27.2935E-03    -27.5962E-03    -27.4354E-03     54.8394E-03    -27.4049E-03     3.94680E-03    -17.8863E+06    -21.0581E+06    -175.631E+06    -20.8181E+06    -175.604E+06    -18.1535E+06    -779.344E+03         24.1167
             696     2.91997E-03     31.4386E-03         3.43873         3.39120        -9.39511         3.39079        -9.39469         3.43873    -14.2263E-03     54.9156E-03    -27.3503E-03    -27.5645E-03    -27.5159E-03     54.8818E-03    -27.3651E-03     3.31528E-03    -17.7064E+06    -22.8140E+06    -174.299E+06    -22.8271E+06    -174.286E+06    -17.7064E+06     612.929E+03         23.9772
             697     1.94642E-03     31.4349E-03         3.46542         3.41879        -9.45483         3.43088        -9.45340         3.45189     83.3898E-03     54.6212E-03    -27.2244E-03    -27.3948E-03    -27.2722E-03     54.5994E-03    -27.3250E-03     2.49510E-03    -18.8293E+06    -23.5214E+06    -172.593E+06    -23.5534E+06    -172.561E+06    -18.8293E+06     182.426E+03         23.8730
             698     972.926E-06     31.4333E-03         4.70493         2.21453        -9.47822         2.22229        -9.47246         4.69140    -129.646E-03     54.5800E-03    -27.1130E-03    -27.4658E-03    -27.3734E-03     54.5736E-03    -27.1989E-03     1.42455E-03    -23.6857E+06    -29.0504E+06    -172.736E+06    -27.0132E+06    -172.468E+06    -25.9912E+06    -1.65444E+06         23.8219
             699     16.5668E-03     31.1729E-03         2.91448         1.96471        -7.50413         1.96464        -7.50406         2.91448    -28.3690E-03     218.248E-03    -27.1443E-03    -191.115E-03    -45.5727E-03     72.7063E-03    -27.1443E-03     391.538E-03     192.276E+06     152.223E+06    -10.3111E+06    -10.2542E+06     192.219E+06     152.223E+06     2.02214E+06         56.5224
             700     15.5755E-03     30.6998E-03         2.96494         2.10052        -7.69200         2.10049        -7.69196         2.96494    -26.3303E-03     166.836E-03    -27.1460E-03    -139.716E-03    -39.6074E-03     66.7280E-03    -27.1460E-03     284.468E-03     156.874E+06     88.6891E+06    -20.7062E+06    -20.6362E+06     156.804E+06     88.6891E+06     2.42465E+06         53.0934
             701     14.6060E-03     30.5530E-03         3.01505         2.22882        -7.86139         2.22878        -7.86134         3.01505    -31.4041E-03     75.9351E-03    -26.8872E-03    -49.0773E-03    -28.7799E-03     55.6378E-03    -26.8872E-03     85.8270E-03     115.138E+06     12.8821E+06    -28.4128E+06    -24.1617E+06     115.031E+06     8.73830E+06    -1.03032E+06         48.6560
             702     13.6316E-03     30.5156E-03         3.06494         2.36670        -8.04472         2.36660        -8.04462         3.06494     4.75161E-03     56.0883E-03    -26.5994E-03    -29.5035E-03    -26.4954E-03     53.0802E-03    -26.5994E-03     31.2653E-03     70.9996E+06    -23.1132E+06    -48.4978E+06    -22.9678E+06     70.8543E+06    -48.4978E+06    -1.38643E+06         43.8379
             703     12.6573E-03     30.4866E-03         3.11270         2.50259        -8.22665         2.50247        -8.22653         3.11270    -4.18146E-03     54.6242E-03    -26.6545E-03    -27.9660E-03    -26.3695E-03     53.0277E-03    -26.6545E-03     22.2338E-03     13.9174E+06    -21.8057E+06    -52.4724E+06    -20.7513E+06     12.8630E+06    -52.4724E+06    -98.2127E+03         39.3932
             704     11.6833E-03     30.4668E-03         3.15766         2.63063        -8.39224         2.63055        -8.39216         3.15766    -23.9381E-03     53.9632E-03    -26.8039E-03    -27.1864E-03    -26.4361E-03     53.2129E-03    -26.8039E-03     15.4052E-03    -18.5244E+06    -32.2165E+06    -55.8433E+06    -19.3810E+06    -45.5608E+06    -41.6424E+06    -214.394E+03         35.6346
             705     10.7090E-03     30.4537E-03         3.19993         2.74478        -8.54311         2.74475        -8.54309         3.19993     7.66225E-03     54.0329E-03    -26.8922E-03    -27.1845E-03    -26.5739E-03     53.4468E-03    -26.9166E-03     13.7412E-03    -18.2183E+06    -34.4242E+06    -86.4536E+06    -18.2618E+06    -86.4101E+06    -34.4242E+06    -681.333E+03         32.5933
             706     9.73548E-03     30.4376E-03         3.23968         2.85122        -8.68761         2.85119        -8.68758         3.23968    -12.9406E-03     54.0660E-03    -26.9441E-03    -27.1232E-03    -26.5320E-03     53.5731E-03    -27.0424E-03     12.5184E-03    -17.2259E+06    -22.0330E+06    -112.171E+06    -17.4551E+06    -112.137E+06    -21.8369E+06     952.651E+03         30.2238
             707     8.76106E-03     30.4261E-03         3.27648         2.95732        -8.82561         2.95730        -8.82559         3.27648    -14.0238E-03     54.1846E-03    -27.0456E-03    -27.1365E-03    -26.7130E-03     53.8350E-03    -27.1195E-03     10.6196E-03    -16.3345E+06    -18.1330E+06    -131.162E+06    -16.7851E+06    -131.112E+06    -17.7328E+06     2.35599E+06         28.3521
             708     7.78701E-03     30.4140E-03         3.31032         3.04730        -8.94344         3.04727        -8.94341         3.31032     11.3728E-03     54.3519E-03    -27.1531E-03    -27.2033E-03    -26.9164E-03     54.0894E-03    -27.1776E-03     9.16644E-03    -15.1224E+06    -18.1369E+06    -151.587E+06    -16.6432E+06    -151.567E+06    -16.6364E+06     1.04293E+06         26.8345
             709     6.81391E-03     30.4055E-03         3.34115         3.13576        -9.05810         3.13574        -9.05807         3.34115     14.6398E-03     54.3089E-03    -27.0782E-03    -27.2321E-03    -26.9116E-03     54.1336E-03    -27.2234E-03     7.51266E-03    -14.5693E+06    -16.9444E+06    -165.343E+06    -16.5532E+06    -165.339E+06    -14.9640E+06    -203.073E+03         25.6479
             710     5.84016E-03     30.3972E-03         3.36670         3.23338        -9.17936         3.23332        -9.17930         3.36670    -39.3726E-03     54.2889E-03    -27.0207E-03    -27.2711E-03    -26.8978E-03     54.1660E-03    -27.2711E-03     6.28398E-03    -15.1444E+06    -17.3240E+06    -170.142E+06    -17.3537E+06    -170.112E+06    -15.1444E+06     365.950E+03         24.8176
             711     4.86635E-03     30.3913E-03         3.38546         3.30693        -9.26989         3.30687        -9.26983         3.38546    -20.2946E-03     54.3344E-03    -27.0022E-03    -27.3349E-03    -26.9232E-03     54.2554E-03    -27.3349E-03     4.99726E-03    -17.2331E+06    -19.8554E+06    -174.163E+06    -19.6205E+06    -174.131E+06    -17.5002E+06     684.196E+03         24.3419
             712     3.89224E-03     30.3859E-03         3.39865         3.35472        -9.32593         3.35459        -9.32579         3.39865     69.9328E-03     54.5462E-03    -27.0835E-03    -27.4653E-03    -27.1012E-03     54.4985E-03    -27.3998E-03     3.89353E-03    -19.0452E+06    -21.1812E+06    -176.230E+06    -20.7160E+06    -176.221E+06    -19.5188E+06     70.8119E+03         24.1111
             713     2.91923E-03     30.3823E-03         3.40951         3.37713        -9.35926         3.37671        -9.35883         3.40951    -31.2205E-03     54.8956E-03    -27.3197E-03    -27.5759E-03    -27.4327E-03     54.8657E-03    -27.4330E-03     3.11006E-03    -17.7268E+06    -21.2392E+06    -174.749E+06    -21.0489E+06    -174.733E+06    -17.9333E+06    -256.156E+03         23.9708
             714     1.94683E-03     30.3800E-03         3.42274         3.39194        -9.39308         3.39132        -9.39246         3.42274     3.85136E-03     54.8854E-03    -27.3181E-03    -27.5652E-03    -27.4612E-03     54.8672E-03    -27.4041E-03     2.37276E-03    -16.2643E+06    -22.3809E+06    -171.723E+06    -22.4626E+06    -171.641E+06    -16.2643E+06     327.991E+03         23.8715
             715     973.298E-06     30.3779E-03         4.68361         2.17877        -9.44081         2.17749        -9.43954         4.68361    -30.0569E-03     54.6673E-03    -27.0893E-03    -27.5768E-03    -27.2930E-03     54.6587E-03    -27.3644E-03     1.48956E-03    -22.7763E+06    -28.2184E+06    -172.588E+06    -27.5726E+06    -172.446E+06    -23.5644E+06     2.22271E+06         23.8233
             716     16.5449E-03     30.1180E-03         2.89689         1.97324        -7.50741         1.97314        -7.50731         2.89689    -41.4017E-03     216.707E-03    -27.3961E-03    -189.335E-03    -46.9499E-03     74.3216E-03    -27.3961E-03     387.262E-03     192.615E+06     152.831E+06    -9.36965E+06    -9.28270E+06     192.528E+06     152.831E+06     3.44166E+06         56.4458
             717     15.5834E-03     29.6405E-03         2.94139         2.09818        -7.67229         2.09814        -7.67225         2.94139    -18.8654E-03     165.767E-03    -27.1751E-03    -138.637E-03    -44.0278E-03     71.1580E-03    -27.1751E-03     280.018E-03     160.561E+06     90.4743E+06    -16.4325E+06    -16.3541E+06     160.482E+06     90.4743E+06     1.97814E+06         53.0567
             718     14.6070E-03     29.4994E-03         2.98730         2.23097        -7.84518         2.23092        -7.84513         2.98730    -39.0915E-03     75.0133E-03    -26.7811E-03    -48.2601E-03    -27.5923E-03     54.3455E-03    -26.7811E-03     85.4416E-03     115.781E+06     13.8196E+06    -28.8842E+06    -21.2602E+06     115.637E+06     6.33911E+06    -926.760E+03         48.6526
             719     13.6322E-03     29.4595E-03         3.03434         2.36604        -8.02249         2.36598        -8.02243         3.03434    -16.2886E-03     55.8823E-03    -26.5346E-03    -29.3624E-03    -26.3723E-03     52.8923E-03    -26.5346E-03     31.0449E-03     69.6782E+06    -23.6272E+06    -51.9443E+06    -23.4885E+06     69.5395E+06    -51.9443E+06    -476.570E+03         43.8450
             720     12.6589E-03     29.4319E-03         3.08028         2.48077        -8.18077         2.48068        -8.18068         3.08028    -28.1168E-03     54.4011E-03    -26.5964E-03    -27.7995E-03    -26.2456E-03     52.8472E-03    -26.5964E-03     22.0165E-03     13.3320E+06    -22.6867E+06    -55.0964E+06    -22.3112E+06     12.9565E+06    -55.0964E+06    -260.447E+03         39.4069
             721     11.6835E-03     29.4131E-03         3.12457         2.59756        -8.33445         2.59749        -8.33438         3.12457    -47.4000E-03     53.8506E-03    -26.7641E-03    -27.1119E-03    -26.3586E-03     53.0973E-03    -26.7641E-03     15.3397E-03    -18.6438E+06    -29.9500E+06    -57.3490E+06    -19.2332E+06    -45.1864E+06    -41.5232E+06    -311.983E+03         35.6556
             722     10.7098E-03     29.3978E-03         3.16592         2.72676        -8.49989         2.72674        -8.49986         3.16592    -23.6182E-03     53.9422E-03    -26.8826E-03    -27.1074E-03    -26.5539E-03     53.3886E-03    -26.8826E-03     13.3420E-03    -17.3869E+06    -33.1868E+06    -87.4197E+06    -17.4074E+06    -87.3992E+06    -33.1868E+06     374.122E+03         32.6226
             723     9.73555E-03     29.3838E-03         3.20330         2.84394        -8.65353         2.84387        -8.65347         3.20330    -47.6844E-03     54.1817E-03    -26.9489E-03    -27.2339E-03    -26.7099E-03     53.6900E-03    -26.9813E-03     12.5413E-03    -16.8667E+06    -23.2589E+06    -113.613E+06    -16.8911E+06    -113.589E+06    -23.2589E+06     839.000E+03         30.2584
             724     8.76192E-03     29.3707E-03         3.23756         2.93510        -8.77414         2.93504        -8.77408         3.23756    -45.8244E-03     54.1859E-03    -27.0094E-03    -27.1681E-03    -26.7922E-03     53.8424E-03    -27.0418E-03     10.5251E-03    -15.8266E+06    -18.0256E+06    -131.232E+06    -16.0601E+06    -131.203E+06    -17.8214E+06     1.63407E+06         28.3839
             725     7.78848E-03     29.3598E-03         3.26982         3.01508        -8.88349         3.01505        -8.88345         3.26982     5.61630E-03     54.0693E-03    -26.9713E-03    -27.1016E-03    -26.7366E-03     53.8201E-03    -27.0871E-03     8.92464E-03    -16.0746E+06    -18.2931E+06    -150.084E+06    -16.3025E+06    -150.060E+06    -18.0889E+06     1.44581E+06         26.8585
             726     6.81416E-03     29.3503E-03         3.29877         3.11030        -9.00568         3.11027        -9.00565         3.29877     6.16464E-03     54.1245E-03    -26.9867E-03    -27.1415E-03    -26.8089E-03     53.9467E-03    -27.1415E-03     7.56630E-03    -16.7145E+06    -18.9993E+06    -165.051E+06    -18.0290E+06    -165.040E+06    -17.6964E+06     455.682E+03         25.6633
             727     5.84049E-03     29.3431E-03         3.32205         3.19958        -9.11255         3.19952        -9.11249         3.32205    -44.4025E-03     54.2925E-03    -27.0842E-03    -27.2130E-03    -26.9851E-03     54.1669E-03    -27.1865E-03     6.33778E-03    -16.3509E+06    -19.4612E+06    -170.804E+06    -19.4941E+06    -170.771E+06    -16.3509E+06     1.39970E+06         24.8239
             728     4.86688E-03     29.3359E-03         3.34201         3.24149        -9.16688         3.24143        -9.16682         3.34201    -18.4537E-03     54.2673E-03    -27.0270E-03    -27.2460E-03    -26.9829E-03     54.1967E-03    -27.2195E-03     4.70629E-03    -16.4812E+06    -19.9113E+06    -173.105E+06    -19.9557E+06    -173.060E+06    -16.4812E+06     1.90536E+06         24.3389
             729     3.89369E-03     29.3316E-03         3.36180         3.28217        -9.22195         3.28212        -9.22189         3.36180     22.7858E-03     54.2205E-03    -26.9507E-03    -27.2737E-03    -26.9096E-03     54.1793E-03    -27.2737E-03     3.64597E-03    -18.2459E+06    -20.7244E+06    -174.938E+06    -20.5380E+06    -174.918E+06    -18.4524E+06     451.553E+03         24.0999
             730     2.91940E-03     29.3264E-03         3.37762         3.34185        -9.29997         3.34157        -9.29969         3.37762    -65.2467E-03     54.4252E-03    -27.0549E-03    -27.3709E-03    -27.0412E-03     54.4001E-03    -27.3595E-03     2.75911E-03    -19.3795E+06    -22.0320E+06    -175.246E+06    -21.8370E+06    -175.234E+06    -19.5860E+06    -781.302E+03         23.9563
             731     1.94571E-03     29.3244E-03         3.39328         3.37101        -9.35007         3.37883        -9.34970         3.38509    -29.9867E-03     54.8129E-03    -27.2881E-03    -27.5240E-03    -27.3994E-03     54.7992E-03    -27.3990E-03     2.07134E-03    -18.0962E+06    -24.5979E+06    -172.568E+06    -24.6562E+06    -172.510E+06    -18.0962E+06     903.545E+03         23.8608
             732     973.565E-06     29.3218E-03         4.61360         2.15990        -9.36146         2.16789        -9.36126         4.60540     12.6612E-03     54.6896E-03    -27.1647E-03    -27.5266E-03    -27.3303E-03     54.6826E-03    -27.3539E-03     1.12793E-03    -21.6298E+06    -27.8862E+06    -170.428E+06    -26.3848E+06    -170.378E+06    -23.1812E+06     1.66300E+06         23.8170
             733     16.5572E-03     29.0415E-03         2.86621         1.95837        -7.47566         1.95832        -7.47561         2.86621    -13.1975E-03     217.420E-03    -27.3556E-03    -190.122E-03    -48.7769E-03     76.0747E-03    -27.3556E-03     387.763E-03     192.365E+06     154.234E+06    -9.30576E+06    -9.24082E+06     192.300E+06     154.234E+06     1.37808E+06         56.3770
             734     15.5858E-03     28.5952E-03         2.90448         2.09091        -7.63221         2.09087        -7.63217         2.90448    -13.6800E-03     163.046E-03    -27.0583E-03    -136.060E-03    -42.3330E-03     69.3195E-03    -27.0583E-03     276.053E-03     162.612E+06     90.3506E+06    -14.5208E+06    -14.4096E+06     162.501E+06     90.3506E+06     1.32575E+06         53.0255
             735     14.6062E-03     28.4418E-03         2.94582         2.22123        -7.80211         2.22119        -7.80206         2.94582    -39.4022E-03     75.9355E-03    -26.6680E-03    -49.2964E-03    -27.3646E-03     54.0036E-03    -26.6680E-03     87.4560E-03     115.201E+06     12.2299E+06    -29.4723E+06    -20.2415E+06     115.082E+06     3.11747E+06     1.91846E+06         48.6460
             736     13.6339E-03     28.4058E-03         2.99047         2.33652        -7.95564         2.33651        -7.95563         2.99047    -18.8961E-03     55.1855E-03    -26.4506E-03    -28.7509E-03    -25.9648E-03     52.3994E-03    -26.4506E-03     29.9327E-03     69.8623E+06    -21.0704E+06    -53.8786E+06    -21.0217E+06     69.8136E+06    -53.8786E+06     1.18065E+06         43.8491
             737     12.6576E-03     28.3774E-03         3.03484         2.45362        -8.11270         2.45356        -8.11264         3.03484    -39.5719E-03     54.3144E-03    -26.5236E-03    -27.7885E-03    -26.1833E-03     52.7092E-03    -26.5236E-03     22.1595E-03     14.8154E+06    -20.8675E+06    -58.3377E+06    -19.9450E+06     13.8929E+06    -58.3377E+06     538.480E+03         39.4164
             738     11.6850E-03     28.3576E-03         3.07686         2.58105        -8.27384         2.58099        -8.27377         3.07686    -45.2334E-03     53.8292E-03    -26.6924E-03    -27.1631E-03    -26.4439E-03     53.1101E-03    -26.6924E-03     15.0295E-03    -19.1880E+06    -31.5360E+06    -59.9736E+06    -19.7544E+06    -45.6329E+06    -45.3104E+06     848.261E+03         35.6724
             739     10.7102E-03     28.3444E-03         3.11571         2.69729        -8.42421         2.69727        -8.42420         3.11571    -8.19379E-03     53.8079E-03    -26.8022E-03    -27.0577E-03    -26.4910E-03     53.2412E-03    -26.8022E-03     13.4772E-03    -19.2038E+06    -37.8901E+06    -87.4102E+06    -19.2367E+06    -87.3773E+06    -37.8901E+06     751.996E+03         32.6480
             740     9.73631E-03     28.3283E-03         3.15161         2.79768        -8.56011         2.79764        -8.56007         3.15161    -23.3773E-03     54.1755E-03    -26.8830E-03    -27.3008E-03    -26.8066E-03     53.6813E-03    -26.8830E-03     12.5467E-03    -17.6651E+06    -28.6070E+06    -113.345E+06    -17.6764E+06    -113.333E+06    -28.6070E+06     508.463E+03         30.2889
             741     8.76288E-03     28.3162E-03         3.18478         2.89321        -8.68330         2.89316        -8.68325         3.18478    -35.7381E-03     54.0298E-03    -26.8990E-03    -27.1271E-03    -26.7406E-03     53.6902E-03    -26.9458E-03     10.4645E-03    -16.3289E+06    -21.0257E+06    -132.714E+06    -16.3455E+06    -132.697E+06    -21.0257E+06     1.12699E+06         28.4116
             742     7.78855E-03     28.3050E-03         3.21430         2.99115        -8.80673         2.99114        -8.80672         3.21430    -17.5499E-03     53.8933E-03    -26.8781E-03    -27.0250E-03    -26.6252E-03     53.6328E-03    -27.0174E-03     9.11871E-03    -14.5451E+06    -17.8537E+06    -150.016E+06    -15.7655E+06    -149.972E+06    -16.6769E+06     2.32617E+06         26.8786
             743     6.81468E-03     28.2964E-03         3.23956         3.07327        -8.91329         3.07325        -8.91327         3.23956    -26.3655E-03     54.1266E-03    -26.9786E-03    -27.1521E-03    -26.8692E-03     53.9402E-03    -27.0751E-03     7.75248E-03    -13.8452E+06    -17.7016E+06    -163.819E+06    -17.1578E+06    -163.775E+06    -14.4324E+06     2.37371E+06         25.6748
             744     5.84107E-03     28.2873E-03         3.26274         3.12123        -8.98202         3.12115        -8.98194         3.26274    -53.5372E-03     54.2167E-03    -27.0244E-03    -27.1963E-03    -27.0088E-03     54.0975E-03    -27.0927E-03     6.11984E-03    -14.5591E+06    -18.5915E+06    -171.266E+06    -18.6125E+06    -171.245E+06    -14.5591E+06     1.49422E+06         24.8250
             745     4.86787E-03     28.2817E-03         3.28625         3.16533        -9.04455         3.16524        -9.04446         3.28625    -11.5277E-03     54.1296E-03    -26.9999E-03    -27.1357E-03    -26.9587E-03     54.0544E-03    -27.1016E-03     4.90686E-03    -14.8616E+06    -18.8180E+06    -172.495E+06    -18.8411E+06    -172.472E+06    -14.8616E+06     1.51285E+06         24.3307
             746     3.89380E-03     28.2762E-03         3.30711         3.23452        -9.13006         3.23447        -9.13001         3.30711     21.1123E-03     54.2139E-03    -26.9939E-03    -27.2223E-03    -27.0532E-03     54.1628E-03    -27.1119E-03     3.91902E-03    -15.5972E+06    -19.0788E+06    -172.977E+06    -19.1100E+06    -172.946E+06    -15.5972E+06     1.47937E+06         24.0868
             747     2.92066E-03     28.2726E-03         3.32020         3.29861        -9.20769         3.29947        -9.20753         3.31919     1.00189E-03     54.1654E-03    -26.9242E-03    -27.2428E-03    -27.0289E-03     54.1428E-03    -27.1156E-03     2.62232E-03    -18.2207E+06    -21.4356E+06    -175.342E+06    -21.4542E+06    -175.323E+06    -18.2207E+06     760.314E+03         23.9381
             748     1.94696E-03     28.2685E-03         3.32999         3.31747        -9.24083         3.32648        -9.24062         3.32078     35.3074E-03     54.1747E-03    -26.9960E-03    -27.1806E-03    -27.0400E-03     54.1644E-03    -27.1263E-03     1.68774E-03    -19.3743E+06    -24.9743E+06    -172.755E+06    -24.9826E+06    -172.747E+06    -19.3743E+06     406.534E+03         23.8362
             749     973.088E-06     28.2667E-03         4.50661         2.13142        -9.22387         2.13916        -9.22341         4.49841     86.3552E-03     54.1801E-03    -26.8913E-03    -27.2912E-03    -27.2689E-03     54.1772E-03    -26.9107E-03     345.896E-06    -23.7043E+06    -30.2879E+06    -170.499E+06    -29.5341E+06    -170.489E+06    -24.4676E+06    -484.897E+03         23.7895
             750     16.5625E-03     27.9901E-03         2.82310         1.95544        -7.43252         1.95543        -7.43251         2.82310    -9.20811E-03     219.192E-03    -27.1814E-03    -192.066E-03    -48.4457E-03     75.5715E-03    -27.1814E-03     392.109E-03     190.033E+06     151.384E+06    -12.4822E+06    -12.4436E+06     189.994E+06     151.384E+06    -1.46523E+06         56.3146
             751     15.5804E-03     27.5402E-03         2.85480         2.08327        -7.58237         2.08323        -7.58232         2.85480    -27.6631E-03     163.792E-03    -26.9474E-03    -136.909E-03    -41.4208E-03     68.3040E-03    -26.9474E-03     277.627E-03     159.148E+06     87.0953E+06    -19.4700E+06    -19.3657E+06     159.044E+06     87.0953E+06    -531.952E+03         52.9922
             752     14.6116E-03     27.3859E-03         2.89145         2.20156        -7.72811         2.20151        -7.72805         2.89145    -43.4995E-03     75.1857E-03    -26.5824E-03    -48.6391E-03    -27.9721E-03     54.5187E-03    -26.5824E-03     85.5686E-03     115.490E+06     13.1968E+06    -29.5757E+06    -20.8597E+06     115.394E+06     4.57621E+06     1.90801E+06         48.6376
             753     13.6336E-03     27.3538E-03         2.93301         2.31217        -7.87433         2.31214        -7.87430         2.93301    -459.582E-06     54.3653E-03    -26.3669E-03    -28.0164E-03    -25.2390E-03     51.5880E-03    -26.3669E-03     29.5950E-03     70.1255E+06    -20.2538E+06    -51.4950E+06    -20.2040E+06     70.0756E+06    -51.4950E+06     1.88205E+06         43.8520
             754     12.6602E-03     27.3212E-03         2.97441         2.42923        -8.03056         2.42915        -8.03048         2.97441    -22.3517E-03     54.0698E-03    -26.4255E-03    -27.6411E-03    -25.9974E-03     52.4656E-03    -26.4650E-03     22.0138E-03     15.8827E+06    -20.9912E+06    -55.5995E+06    -18.2046E+06     13.0962E+06    -55.5995E+06     2.75260E+06         39.4221
             755     11.6849E-03     27.3043E-03         3.01310         2.55625        -8.18866         2.55618        -8.18859         3.01310    -30.7207E-03     53.5887E-03    -26.6038E-03    -27.0102E-03    -26.2865E-03     52.9045E-03    -26.6432E-03     14.6568E-03    -16.4402E+06    -29.4075E+06    -58.5317E+06    -17.7018E+06    -45.2824E+06    -41.3953E+06     3.51353E+06         35.6846
             756     10.7109E-03     27.2897E-03         3.04893         2.65603        -8.31709         2.65602        -8.31707         3.04893     2.73216E-03     53.8871E-03    -26.7400E-03    -27.1857E-03    -26.6161E-03     53.3175E-03    -26.7400E-03     13.5244E-03    -18.6857E+06    -34.7988E+06    -85.1929E+06    -18.8329E+06    -85.0457E+06    -34.7988E+06     2.08211E+06         32.6691
             757     9.73732E-03     27.2736E-03         3.08289         2.74022        -8.43296         2.74020        -8.43295         3.08289    -14.7601E-03     53.9538E-03    -26.7951E-03    -27.1591E-03    -26.6553E-03     53.4585E-03    -26.8036E-03     12.5250E-03    -18.5465E+06    -28.7985E+06    -112.957E+06    -18.5584E+06    -112.945E+06    -28.7985E+06     162.834E+03         30.3158
             758     8.76308E-03     27.2617E-03         3.11470         2.83379        -8.55587         2.83379        -8.55587         3.11470    -12.4177E-03     53.7885E-03    -26.8256E-03    -26.9659E-03    -26.5819E-03     53.4599E-03    -26.8810E-03     10.2594E-03    -17.6982E+06    -21.7485E+06    -134.472E+06    -17.7165E+06    -134.453E+06    -21.7485E+06     823.872E+03         28.4352
             759     7.78911E-03     27.2511E-03         3.14301         2.92677        -8.67474         2.92674        -8.67471         3.14301    -24.3503E-03     53.9794E-03    -26.9015E-03    -27.0939E-03    -26.7883E-03     53.7216E-03    -26.9493E-03     9.09561E-03    -15.0668E+06    -18.3909E+06    -150.122E+06    -17.6131E+06    -150.077E+06    -15.8902E+06     2.38985E+06         26.8942
             760     6.81546E-03     27.2411E-03         3.16771         3.00105        -8.77294         3.00101        -8.77290         3.16771    -35.7140E-03     54.0772E-03    -26.9097E-03    -27.1730E-03    -26.9246E-03     53.8937E-03    -26.9746E-03     7.65714E-03    -13.0355E+06    -16.6983E+06    -161.976E+06    -16.7498E+06    -161.925E+06    -13.0355E+06     2.68142E+06         25.6821
             761     5.84219E-03     27.2327E-03         3.19048         3.05302        -8.84663         3.05295        -8.84655         3.19048    -42.6695E-03     53.9141E-03    -26.8535E-03    -27.0655E-03    -26.8187E-03     53.7953E-03    -26.9815E-03     6.12395E-03    -14.6608E+06    -16.7160E+06    -171.018E+06    -16.7400E+06    -170.994E+06    -14.6608E+06     1.57883E+06         24.8229
             762     4.86764E-03     27.2275E-03         3.21090         3.11626        -8.92339         3.11610        -8.92323         3.21090     15.4448E-03     54.0352E-03    -26.9240E-03    -27.1147E-03    -26.9683E-03     53.9530E-03    -26.9881E-03     5.08766E-03    -15.4002E+06    -17.6465E+06    -172.592E+06    -17.5527E+06    -172.586E+06    -15.5000E+06     838.023E+03         24.3205
             763     3.89454E-03     27.2208E-03         3.22523         3.18298        -9.00273         3.18280        -9.00255         3.22523     25.6206E-03     54.1409E-03    -26.9505E-03    -27.1919E-03    -27.1228E-03     54.0908E-03    -26.9694E-03     3.88142E-03    -14.1208E+06    -18.3037E+06    -172.731E+06    -18.2205E+06    -172.714E+06    -14.2206E+06     1.45119E+06         24.0737
             764     2.92132E-03     27.2177E-03         3.23364         3.21700        -9.04950         3.21782        -9.04930         3.23263    -10.6683E-03     54.0792E-03    -26.8872E-03    -27.1935E-03    -27.1475E-03     54.0521E-03    -26.9062E-03     2.93910E-03    -12.4549E+06    -19.4973E+06    -174.074E+06    -19.5375E+06    -174.034E+06    -12.4549E+06     2.27460E+06         23.9224
             765     1.94790E-03     27.2142E-03         3.23858         3.22851        -9.06263         3.23068        -9.06241         3.23619     16.7414E-03     53.7859E-03    -26.7335E-03    -27.0534E-03    -27.0196E-03     53.7715E-03    -26.7529E-03     1.94260E-03    -17.0986E+06    -23.6996E+06    -172.320E+06    -23.7288E+06    -172.291E+06    -17.0986E+06     1.33667E+06         23.8134
             766     974.319E-06     27.2120E-03         4.38516         2.09086        -9.05970         2.09089        -9.05834         4.38378     160.820E-03     53.2332E-03    -26.2656E-03    -26.9684E-03    -26.6703E-03     53.2304E-03    -26.5609E-03     462.296E-06    -23.9373E+06    -31.1307E+06    -170.704E+06    -28.3613E+06    -170.639E+06    -26.7726E+06     931.119E+03         23.7582
             767     16.5595E-03     26.9533E-03         2.76868         1.95445        -7.36614         1.95443        -7.36612         2.76868    -20.7754E-03     218.351E-03    -27.0832E-03    -191.294E-03    -48.7830E-03     75.8398E-03    -27.0832E-03     390.222E-03     191.326E+06     152.169E+06    -10.5083E+06    -10.4753E+06     191.293E+06     152.169E+06     117.540E+03         56.2513
             768     15.5869E-03     26.4738E-03         2.79321         2.06717        -7.49887         2.06715        -7.49885         2.79321    -17.0430E-03     164.547E-03    -26.8344E-03    -137.747E-03    -42.0618E-03     68.8621E-03    -26.8344E-03     278.975E-03     157.800E+06     86.4104E+06    -19.2686E+06    -19.2346E+06     157.766E+06     86.4104E+06    -1.34493E+06         52.9582
             769     14.6117E-03     26.3381E-03         2.82480         2.17520        -7.63536         2.17513        -7.63529         2.82480    -41.8758E-03     73.6893E-03    -26.4888E-03    -47.2269E-03    -27.1699E-03     53.6323E-03    -26.4888E-03     84.2178E-03     112.986E+06     11.5385E+06    -30.8272E+06    -22.4518E+06     112.956E+06     3.19349E+06     462.926E+03         48.6251
             770     13.6361E-03     26.2973E-03         2.86232         2.29788        -7.78838         2.29779        -7.78829         2.86232    -2.15481E-03     54.6909E-03    -26.2961E-03    -28.4086E-03    -25.2059E-03     51.4882E-03    -26.2961E-03     31.7098E-03     69.3716E+06    -23.2186E+06    -51.8414E+06    -22.9927E+06     69.1457E+06    -51.8414E+06     3.45587E+06         43.8474
             771     12.6607E-03     26.2691E-03         2.89942         2.40395        -7.92562         2.40374        -7.92540         2.89942    -30.0024E-03     53.8334E-03    -26.3681E-03    -27.4535E-03    -25.7416E-03     52.1609E-03    -26.4075E-03     22.5189E-03     15.0704E+06    -23.8566E+06    -54.0808E+06    -21.6922E+06     12.9060E+06    -54.0808E+06     3.89901E+06         39.4209
             772     11.6858E-03     26.2495E-03         2.93514         2.49780        -8.04857         2.49762        -8.04839         2.93514    -46.3125E-03     53.5417E-03    -26.5560E-03    -26.9915E-03    -26.1969E-03     52.7866E-03    -26.5954E-03     15.3583E-03    -17.0922E+06    -28.5069E+06    -56.3089E+06    -18.8447E+06    -44.6102E+06    -38.4532E+06     3.11387E+06         35.6899
             773     10.7123E-03     26.2350E-03         2.96921         2.59283        -8.17402         2.59279        -8.17398         2.96921    -11.5597E-03     53.8767E-03    -26.6894E-03    -27.2092E-03    -26.6278E-03     53.2953E-03    -26.6894E-03     13.6688E-03    -15.2231E+06    -29.0552E+06     -82.524E+06    -15.3764E+06    -82.3707E+06    -29.0552E+06     2.60764E+06         32.6850
             774     9.73775E-03     26.2197E-03         3.00096         2.68482        -8.29636         2.68475        -8.29629         3.00096    -51.4664E-03     53.8068E-03    -26.7541E-03    -27.0474E-03    -26.5489E-03     53.3168E-03    -26.7627E-03     12.4586E-03    -14.4762E+06    -22.4993E+06    -112.851E+06    -14.5386E+06    -112.789E+06    -22.4993E+06     1.77356E+06         30.3390
             775     8.76372E-03     26.2074E-03         3.03021         2.76956        -8.40878         2.76945        -8.40867         3.03021    -53.1484E-03     53.8313E-03    -26.8104E-03    -27.0186E-03    -26.6822E-03     53.5035E-03    -26.8189E-03     10.2490E-03    -15.8235E+06    -19.7668E+06    -135.072E+06    -15.8708E+06    -135.025E+06    -19.7668E+06     1.42252E+06         28.4545
             776     7.78994E-03     26.1968E-03         3.05707         2.84405        -8.50642         2.84396        -8.50634         3.05707    -47.2350E-03     53.9668E-03    -26.8348E-03    -27.1430E-03    -26.8748E-03     53.7046E-03    -26.8408E-03     9.19961E-03    -15.1151E+06    -19.6328E+06    -149.870E+06    -16.4544E+06    -149.854E+06    -18.3090E+06     1.31618E+06         26.9044
             777     6.81671E-03     26.1858E-03         3.08194         2.90839        -8.59366         2.90837        -8.59363         3.08194    -26.5430E-03     53.8002E-03    -26.7940E-03    -27.0167E-03    -26.7597E-03     53.6131E-03    -26.8639E-03     7.68336E-03    -13.7751E+06    -16.7910E+06    -161.809E+06    -15.5401E+06    -161.783E+06    -15.0514E+06     1.83269E+06         25.6843
             778     5.84180E-03     26.1801E-03         3.10371         2.98279        -8.68911         2.98260        -8.68892         3.10371    -54.9712E-03     53.8575E-03    -26.8129E-03    -27.0519E-03    -26.8688E-03     53.7383E-03    -26.8768E-03     6.18591E-03    -14.0099E+06    -15.5839E+06    -170.024E+06    -15.6177E+06    -169.990E+06    -14.0099E+06     2.17736E+06         24.8180
             779     4.86891E-03     26.1712E-03         3.12000         3.05232        -8.77227         3.05204        -8.77200         3.12000    -34.6299E-03     53.9384E-03    -26.8297E-03    -27.1135E-03    -27.0066E-03     53.8595E-03    -26.8578E-03     4.97487E-03    -14.1932E+06    -16.7866E+06    -172.876E+06    -16.7142E+06    -172.848E+06    -14.2930E+06     1.89415E+06         24.3099
             780     3.89540E-03     26.1675E-03         3.13253         3.08303        -8.80926         3.08283        -8.80906         3.13253    -33.5319E-03     53.7586E-03    -26.7799E-03    -26.9817E-03    -26.8892E-03     53.7130E-03    -26.8268E-03     3.81902E-03    -14.0747E+06    -18.6680E+06    -172.511E+06    -18.5877E+06    -172.492E+06    -14.1745E+06     1.62059E+06         24.0600
             781     2.92105E-03     26.1626E-03         3.14562         3.10240        -8.83887         3.10225        -8.83873         3.14562    -66.7114E-03     53.6673E-03    -26.6667E-03    -27.0006E-03    -26.8370E-03     53.6347E-03    -26.7977E-03     3.22429E-03    -14.5542E+06    -21.3678E+06    -173.017E+06    -21.4041E+06    -172.981E+06    -14.5542E+06     2.12337E+06         23.9099
             782     1.94815E-03     26.1596E-03         3.16194         3.13726        -8.89480         3.14347        -8.89472         3.15565    -33.3294E-03     53.5556E-03    -26.5339E-03    -27.0208E-03    -26.7885E-03     53.5341E-03    -26.7447E-03     2.52346E-03    -15.8927E+06    -24.2958E+06    -171.251E+06    -24.3347E+06    -171.212E+06    -15.8927E+06     2.13614E+06         23.8033
             783     974.465E-06     26.1587E-03         4.24586         2.07513        -8.90992         2.07831        -8.90680         4.23956     223.663E-03     53.3280E-03    -26.4153E-03    -26.9129E-03    -26.5228E-03     53.3195E-03    -26.7969E-03     1.27104E-03    -20.7862E+06    -30.0461E+06    -169.021E+06    -27.3618E+06    -168.870E+06    -23.6215E+06     3.89666E+06         23.7512
             784     16.5645E-03     25.8946E-03         2.70278         1.94988        -7.28193         1.94986        -7.28192         2.70278    -15.7035E-03     218.025E-03    -27.0235E-03    -191.030E-03    -49.6460E-03     76.6414E-03    -27.0235E-03     389.069E-03     192.334E+06     153.774E+06    -8.46704E+06    -8.46306E+06     192.330E+06     153.774E+06     468.735E+03         56.1879
             785     15.5884E-03     25.4247E-03         2.71988         2.04525        -7.39424         2.04524        -7.39424         2.71988    -5.36108E-03     164.965E-03    -26.7628E-03    -138.237E-03    -41.1513E-03     67.8797E-03    -26.7628E-03     281.368E-03     158.097E+06     84.6696E+06    -16.5638E+06    -16.5481E+06     158.081E+06     84.6696E+06     953.585E+03         52.9192
             786     14.6102E-03     25.2822E-03         2.74615         2.14227        -7.51663         2.14217        -7.51653         2.74615    -41.2859E-03     74.4055E-03    -26.4751E-03    -47.9581E-03    -26.4327E-03     52.8801E-03    -26.4751E-03     86.7142E-03     109.777E+06     6.39180E+06    -31.4755E+06    -23.6277E+06     109.590E+06    -1.26885E+06     3.29025E+06         48.5998
             787     13.6358E-03     25.2449E-03         2.77990         2.25870        -7.65845         2.25858        -7.65833         2.77990    -30.2645E-03     55.4793E-03    -26.3023E-03    -29.1950E-03    -25.7711E-03     52.0554E-03    -26.3023E-03     33.1322E-03     69.7837E+06    -26.1345E+06    -53.3253E+06    -25.7749E+06     69.4240E+06    -53.3253E+06     4.09319E+06         43.8284
             788     12.6608E-03     25.2144E-03         2.81339         2.36334        -7.79610         2.36312        -7.79589         2.81339    -47.6753E-03     54.1736E-03    -26.3726E-03    -27.7941E-03    -25.9468E-03     52.3263E-03    -26.3726E-03     23.7904E-03     16.8924E+06    -24.6067E+06    -57.0914E+06    -22.7917E+06     15.0774E+06    -57.0914E+06     2.41599E+06         39.4071
             789     11.6867E-03     25.1955E-03         2.84575         2.44137        -7.90305         2.44118        -7.90285         2.84575    -49.1715E-03     53.7472E-03    -26.5376E-03    -27.2262E-03    -26.3740E-03     52.8950E-03    -26.5376E-03     16.3447E-03    -17.3984E+06    -30.3987E+06    -57.9442E+06    -18.4807E+06    -43.9072E+06    -43.3533E+06     1.22114E+06         35.6835
             790     10.7118E-03     25.1800E-03         2.87749         2.51801        -8.00800         2.51797        -8.00796         2.87749    -16.0700E-03     53.7468E-03    -26.6437E-03    -27.1420E-03    -26.5125E-03     53.1173E-03    -26.6437E-03     14.2105E-03    -16.1266E+06    -33.1575E+06    -82.9303E+06    -16.2041E+06    -82.8528E+06    -33.1575E+06     1.94450E+06         32.6909
             791     9.73849E-03     25.1654E-03         2.90759         2.60582        -8.12466         2.60572        -8.12456         2.90759    -64.9773E-03     53.9324E-03    -26.7215E-03    -27.2177E-03    -26.6954E-03     53.4101E-03    -26.7215E-03     12.8699E-03    -15.0502E+06    -24.7932E+06    -112.864E+06    -15.1618E+06    -112.752E+06    -24.7932E+06     3.11706E+06         30.3541
             792     8.76432E-03     25.1532E-03         2.93459         2.69864        -8.24322         2.69849        -8.24308         2.93459    -78.0271E-03     53.9741E-03    -26.7451E-03    -27.2277E-03    -26.8624E-03     53.6088E-03    -26.7451E-03     10.8470E-03    -14.7396E+06    -22.5217E+06    -133.864E+06    -14.8127E+06    -133.791E+06    -22.5217E+06     2.62460E+06         28.4653
             793     7.79108E-03     25.1414E-03         2.95807         2.77502        -8.33559         2.77491        -8.33548         2.95807    -29.7798E-03     53.8386E-03    -26.7497E-03    -27.0964E-03    -26.8136E-03     53.5618E-03    -26.7557E-03     9.37196E-03    -14.2953E+06    -20.4678E+06    -150.114E+06    -14.3304E+06    -150.079E+06    -20.4678E+06     1.82796E+06         26.9056
             794     6.81614E-03     25.1333E-03         2.98021         2.81708        -8.39654         2.81704        -8.39650         2.98021    -2.30768E-03     53.7663E-03    -26.7724E-03    -27.0024E-03    -26.8058E-03     53.5757E-03    -26.7784E-03     7.80381E-03    -15.0267E+06    -17.0164E+06    -162.653E+06    -15.4452E+06    -162.621E+06    -16.6302E+06     2.03447E+06         25.6796
             795     5.84344E-03     25.1237E-03         3.00197         2.87074        -8.47423         2.87051        -8.47400         3.00197    -79.0540E-03     53.8823E-03    -26.7711E-03    -27.1169E-03    -26.9849E-03     53.7503E-03    -26.7711E-03     6.46735E-03    -14.2289E+06    -17.2653E+06    -169.059E+06    -17.1258E+06    -169.001E+06    -14.4265E+06     2.92488E+06         24.8089
             796     4.86966E-03     25.1184E-03         3.02006         2.94210        -8.56231         2.94181        -8.56202         3.02006    -53.1978E-03     53.6909E-03    -26.7099E-03    -26.9876E-03    -26.8807E-03     53.6121E-03    -26.7380E-03     5.00333E-03    -13.6320E+06    -18.2854E+06    -172.490E+06    -18.3512E+06    -172.424E+06    -13.6320E+06     3.13461E+06         24.2970
             797     3.89523E-03     25.1124E-03         3.03342         2.99062        -8.62026         2.99144        -8.62015         3.03249     4.01036E-03     53.3732E-03    -26.5646E-03    -26.8121E-03    -26.6096E-03     53.3249E-03    -26.7188E-03     3.90059E-03    -14.9550E+06    -19.4867E+06    -172.406E+06    -19.5390E+06    -172.353E+06    -14.9550E+06     2.76768E+06         24.0468
             798     2.92222E-03     25.1089E-03         3.04508         3.00145        -8.64051         3.00234        -8.64047         3.04415    -3.14258E-03     53.2182E-03    -26.4014E-03    -26.8158E-03    -26.4079E-03     53.1820E-03    -26.7731E-03     3.38585E-03    -16.6938E+06    -20.0034E+06    -171.745E+06    -20.0346E+06    -171.714E+06    -16.6938E+06     1.33119E+06         23.9015
             799     1.94666E-03     25.1058E-03         3.06633         3.01414        -8.67513         3.01884        -8.67491         3.06141    -37.4839E-03     53.4848E-03    -26.5641E-03    -26.9206E-03    -26.5514E-03     53.4599E-03    -26.9082E-03     2.55820E-03    -14.7357E+06    -21.5815E+06    -169.683E+06    -21.6037E+06    -169.661E+06    -14.7357E+06     973.151E+03         23.8020
             800     972.512E-06     25.1041E-03         4.11362         2.03296        -8.74447         2.03400        -8.74060         4.10870     223.760E-03     53.8761E-03    -26.6641E-03    -27.2110E-03    -27.0976E-03     53.8683E-03    -26.7698E-03     678.831E-06    -17.0737E+06    -25.5873E+06    -165.545E+06    -25.7957E+06    -165.337E+06    -17.0737E+06     643.037E+03         23.7568
             801     16.5625E-03     24.8345E-03         2.62589         1.93058        -7.18833         1.93057        -7.18832         2.62589    -5.06857E-03     218.914E-03    -27.0881E-03    -191.867E-03    -48.3568E-03     75.4042E-03    -27.0881E-03     391.671E-03     190.011E+06     151.351E+06    -9.46106E+06    -9.40915E+06     189.959E+06     151.351E+06     186.671E+03         56.1193
             802     15.5862E-03     24.3764E-03         2.63595         2.02113        -7.28621         2.02113        -7.28620         2.63595    -5.75262E-03     166.300E-03    -26.8940E-03    -139.452E-03    -41.3125E-03     68.1608E-03    -26.8940E-03     283.849E-03     155.786E+06     83.5101E+06    -19.0403E+06    -18.9023E+06     155.648E+06     83.5101E+06     3.79128E+06         52.8636
             803     14.6087E-03     24.2272E-03         2.65647         2.11161        -7.38913         2.11153        -7.38906         2.65647    -39.9770E-03     76.4184E-03    -26.6096E-03    -49.8395E-03    -27.4876E-03     54.0665E-03    -26.6096E-03     89.4099E-03     110.983E+06     9.04336E+06    -29.7582E+06    -23.9539E+06     110.696E+06     3.52598E+06     4.20577E+06         48.5585
             804     13.6344E-03     24.1903E-03         2.68614         2.20438        -7.50600         2.20431        -7.50592         2.68614    -35.4394E-03     56.0056E-03    -26.3823E-03    -29.6418E-03    -26.3712E-03     52.7351E-03    -26.3823E-03     32.6415E-03     71.3353E+06    -22.1206E+06    -48.7219E+06    -21.8986E+06     71.1133E+06    -48.7219E+06     2.08448E+06         43.7950
             805     12.6601E-03     24.1607E-03         2.71668         2.29804        -7.62717         2.29796        -7.62709         2.71668    -40.5249E-03     54.6222E-03    -26.4048E-03    -28.2179E-03    -26.3553E-03     52.7596E-03    -26.4048E-03     24.1099E-03     18.3701E+06    -20.7968E+06    -55.2092E+06    -18.5305E+06     16.1038E+06    -55.2092E+06     1.78026E+06         39.3780
             806     11.6860E-03     24.1402E-03         2.74592         2.38130        -7.73839         2.38121        -7.73829         2.74592    -45.2819E-03     53.9205E-03    -26.5457E-03    -27.4072E-03    -26.5246E-03     53.0379E-03    -26.5457E-03     16.6379E-03    -16.5015E+06    -30.4605E+06    -58.3196E+06    -17.5713E+06    -43.9213E+06    -43.7890E+06     2.44126E+06         35.6611
             807     10.7125E-03     24.1268E-03         2.77386         2.45789        -7.84293         2.45784        -7.84289         2.77386    -28.1812E-03     53.8826E-03    -26.6457E-03    -27.2853E-03    -26.6537E-03     53.2510E-03    -26.6457E-03     14.2589E-03    -17.1717E+06    -34.1497E+06    -83.5217E+06    -17.3328E+06    -83.3606E+06    -34.1497E+06     2.30398E+06         32.6793
             808     9.73757E-03     24.1103E-03         2.79989         2.53615        -7.94414         2.53611        -7.94409         2.79989    -34.8887E-03     54.0140E-03    -26.7103E-03    -27.3154E-03    -26.7836E-03     53.4822E-03    -26.7103E-03     13.0116E-03    -16.8096E+06    -26.2616E+06    -113.069E+06    -16.9044E+06    -112.974E+06    -26.2616E+06     2.63569E+06         30.3509
             809     8.76477E-03     24.0987E-03         2.82384         2.60443        -8.03737         2.60437        -8.03731         2.82384    -42.9569E-03     54.0023E-03    -26.7278E-03    -27.2796E-03    -26.9083E-03     53.6309E-03    -26.7278E-03     10.9386E-03    -15.9924E+06    -22.5411E+06    -133.555E+06    -16.1077E+06    -133.440E+06    -22.5411E+06     3.56975E+06         28.4595
             810     7.79024E-03     24.0875E-03         2.84604         2.66622        -8.12065         2.66615        -8.12058         2.84604    -13.4532E-03     53.9570E-03    -26.7209E-03    -27.2464E-03    -26.9726E-03     53.6832E-03    -26.7209E-03     9.33350E-03    -16.4730E+06    -20.2045E+06    -149.344E+06    -16.5732E+06    -149.244E+06    -20.2045E+06     3.46778E+06         26.8938
             811     6.81774E-03     24.0784E-03         2.86633         2.72492        -8.19420         2.72480        -8.19408         2.86633    -23.3901E-03     53.8683E-03    -26.7051E-03    -27.1726E-03    -26.9849E-03     53.6806E-03    -26.7051E-03     7.76220E-03    -17.1548E+06    -18.0028E+06    -162.884E+06    -17.4577E+06    -162.803E+06    -17.7807E+06     3.32249E+06         25.6655
             812     5.84318E-03     24.0699E-03         2.88443         2.77766        -8.26338         2.77748        -8.26320         2.88443    -84.0777E-03     53.6618E-03    -26.6827E-03    -26.9858E-03    -26.8506E-03     53.5267E-03    -26.6827E-03     6.54848E-03    -15.5210E+06    -17.9888E+06    -169.293E+06    -17.8693E+06    -169.215E+06    -15.7186E+06     3.25392E+06         24.7950
             813     4.86956E-03     24.0636E-03         2.90010         2.82475        -8.32406         2.82457        -8.32389         2.90010    -791.579E-06     53.4510E-03    -26.6382E-03    -26.8167E-03    -26.7111E-03     53.3716E-03    -26.6644E-03     4.96953E-03    -14.5098E+06    -18.6829E+06    -171.220E+06    -18.7386E+06    -171.164E+06    -14.5098E+06     2.79613E+06         24.2870
             814     3.89644E-03     24.0589E-03         2.91296         2.87114        -8.37800         2.87197        -8.37789         2.91204     42.8952E-03     53.2077E-03    -26.4899E-03    -26.7201E-03    -26.4921E-03     53.1595E-03    -26.6696E-03     3.90619E-03    -14.2799E+06    -18.7586E+06    -170.790E+06    -18.8036E+06    -170.745E+06    -14.2799E+06     2.33698E+06         24.0438
             815     2.92068E-03     24.0556E-03         2.92530         2.89452        -8.41123         2.89989        -8.41119         2.91988     18.3375E-03     53.2767E-03    -26.4218E-03    -26.8547E-03    -26.5336E-03     53.2425E-03    -26.7087E-03     3.11615E-03    -13.9664E+06    -19.2567E+06    -170.009E+06    -19.2872E+06    -169.978E+06    -13.9664E+06     1.12561E+06         23.9020
             816     1.94770E-03     24.0514E-03         2.93782         2.88682        -8.41960         2.89107        -8.41936         2.93333    -32.6886E-03     53.4350E-03    -26.5674E-03    -26.8677E-03    -26.7174E-03     53.4180E-03    -26.7008E-03     1.99023E-03    -16.1378E+06    -22.0414E+06    -168.878E+06    -22.0592E+06    -168.860E+06    -16.1378E+06     538.303E+03         23.7990
             817     974.877E-06     24.0485E-03         3.93518         1.95429        -8.49625         1.95124        -8.49319         3.93518     181.816E-03     53.2631E-03    -26.3510E-03    -26.9106E-03    -26.7956E-03     53.2578E-03    -26.4608E-03     546.995E-06    -22.6133E+06    -27.4321E+06    -165.477E+06    -26.6952E+06    -165.332E+06    -23.4954E+06    -2.66584E+06         23.7466
             818     16.5562E-03     23.7790E-03         2.53983         1.90548        -7.08065         1.90541        -7.08058         2.53983    -27.0509E-03     219.417E-03    -27.2607E-03    -192.198E-03    -46.6994E-03     73.9184E-03    -27.2607E-03     393.476E-03     188.143E+06     150.729E+06    -11.0580E+06    -10.9803E+06     188.066E+06     150.729E+06     1.79273E+06         56.0424
             819     15.5786E-03     23.3196E-03         2.54304         1.99751        -7.16419         1.99747        -7.16414         2.54304    -21.6474E-03     165.945E-03    -27.0951E-03    -138.890E-03    -42.7648E-03     69.8196E-03    -27.0951E-03     281.216E-03     155.385E+06     87.9454E+06    -20.4320E+06    -20.2540E+06     155.207E+06     87.9454E+06     3.14265E+06         52.7949
             820     14.6075E-03     23.1718E-03         2.55735         2.08677        -7.25988         2.08666        -7.25977         2.55735    -56.6216E-03     76.6259E-03    -26.7216E-03    -49.9279E-03    -28.7634E-03     55.4614E-03    -26.7216E-03     87.5831E-03     113.150E+06     15.3995E+06    -28.3063E+06    -21.7927E+06     113.015E+06     9.02103E+06     351.909E+03         48.5054
             821     13.6338E-03     23.1350E-03         2.58194         2.15873        -7.35314         2.15867        -7.35308         2.58194    -31.5354E-03     56.0205E-03    -26.4259E-03    -29.6090E-03    -26.5796E-03     52.9911E-03    -26.4259E-03     31.4897E-03     70.7769E+06    -19.8331E+06    -48.1870E+06    -19.7770E+06     70.7208E+06    -48.1870E+06     640.353E+03         43.7484
             822     12.6603E-03     23.1059E-03         2.60892         2.22223        -7.43608         2.22217        -7.43602         2.60892    -34.2954E-03     54.8186E-03    -26.4464E-03    -28.3794E-03    -26.6156E-03     53.0548E-03    -26.4464E-03     23.5083E-03     17.5710E+06    -21.6432E+06    -52.2768E+06    -18.5486E+06     14.4763E+06    -52.2768E+06     3.43872E+06         39.3327
             823     11.6857E-03     23.0863E-03         2.63552         2.29965        -7.54124         2.29957        -7.54116         2.63552    -49.3197E-03     54.1050E-03    -26.5667E-03    -27.5766E-03    -26.7531E-03     53.2815E-03    -26.5667E-03     16.1056E-03    -15.7170E+06    -31.9959E+06    -54.1905E+06    -17.7341E+06    -43.5153E+06    -40.6540E+06     4.18407E+06         35.6205
             824     10.7118E-03     23.0711E-03         2.65975         2.39539        -7.66133         2.39529        -7.66122         2.65975    -51.6966E-03     54.0681E-03    -26.6362E-03    -27.4654E-03    -26.8953E-03     53.4980E-03    -26.6362E-03     13.5753E-03    -16.0275E+06    -30.9041E+06    -82.9670E+06    -16.2435E+06    -82.7510E+06    -30.9041E+06     3.18882E+06         32.6457
             825     9.73908E-03     23.0568E-03         2.68068         2.46986        -7.75105         2.46972        -7.75090         2.68068    -58.3821E-03     54.0753E-03    -26.6841E-03    -27.3825E-03    -26.8999E-03     53.5928E-03    -26.6841E-03     12.4391E-03    -16.2888E+06    -22.5121E+06    -113.355E+06    -16.4556E+06    -113.188E+06    -22.5121E+06     3.61719E+06         30.3228
             826     8.76414E-03     23.0434E-03         2.70131         2.49295        -7.79174         2.49281        -7.79159         2.70131    -61.2888E-03     53.9358E-03    -26.6780E-03    -27.2611E-03    -26.9415E-03     53.6163E-03    -26.6780E-03     10.0854E-03    -17.1981E+06    -21.8306E+06    -133.385E+06    -17.3476E+06    -133.236E+06    -21.8306E+06     3.86814E+06         28.4325
             827     7.79156E-03     23.0334E-03         2.72320         2.53743        -7.85611         2.53733        -7.85602         2.72320    -50.4546E-03     53.8727E-03    -26.6596E-03    -27.2278E-03    -26.9908E-03     53.6356E-03    -26.6596E-03     8.73699E-03    -16.8596E+06    -19.7140E+06    -149.024E+06    -16.9919E+06    -148.892E+06    -19.7140E+06     3.89313E+06         26.8658
             828     6.81728E-03     23.0233E-03         2.74178         2.62845        -7.96538         2.62835        -7.96529         2.74178    -35.9318E-03     53.7897E-03    -26.6419E-03    -27.1626E-03    -26.9853E-03     53.6124E-03    -26.6419E-03     7.49171E-03    -14.6578E+06    -17.2877E+06    -162.716E+06    -16.4861E+06    -162.594E+06    -15.5813E+06     3.92467E+06         25.6384
             829     5.84432E-03     23.0169E-03         2.75443         2.68826        -8.03498         2.68799        -8.03471         2.75443    -86.1938E-03     53.4927E-03    -26.6071E-03    -26.8967E-03    -26.7769E-03     53.3760E-03    -26.6102E-03     6.11098E-03    -13.5023E+06    -16.3556E+06    -168.581E+06    -16.4766E+06    -168.460E+06    -13.5023E+06     3.73779E+06         24.7737
             830     4.87013E-03     23.0090E-03         2.76541         2.70321        -8.05869         2.70299        -8.05847         2.76541    -31.7186E-03     53.2375E-03    -26.5545E-03    -26.6871E-03    -26.5865E-03     53.1663E-03    -26.5839E-03     4.61325E-03    -13.6222E+06    -16.2070E+06    -169.046E+06    -16.1169E+06    -168.958E+06    -13.8007E+06     2.42975E+06         24.2771
             831     3.89513E-03     23.0064E-03         2.77783         2.72338        -8.08449         2.72332        -8.08442         2.77783     9.39327E-03     53.3424E-03    -26.4987E-03    -26.8467E-03    -26.7584E-03     53.3077E-03    -26.5522E-03     3.23844E-03    -12.6526E+06    -18.0307E+06    -168.262E+06    -17.8719E+06    -168.242E+06    -12.8312E+06     1.01713E+06         24.0428
             832     2.92279E-03     23.0006E-03         2.79652         2.76502        -8.14161         2.77569        -8.14156         2.78580    -5.63303E-03     53.2127E-03    -26.3716E-03    -26.8416E-03    -26.7246E-03     53.1890E-03    -26.4650E-03     2.54636E-03    -14.0114E+06    -22.2121E+06    -169.184E+06    -22.2370E+06    -169.159E+06    -14.0114E+06     1.71106E+06         23.8978
             833     1.94904E-03     22.9978E-03         2.81399         2.76990        -8.17553         2.80171        -8.17547         2.78212    -5.78150E-03     52.7446E-03    -26.1900E-03    -26.5539E-03    -26.3292E-03     52.7292E-03    -26.3993E-03     2.12935E-03    -16.6784E+06    -25.3205E+06    -169.153E+06    -25.3380E+06    -169.136E+06    -16.6784E+06     1.26703E+06         23.7820
             834     973.589E-06     22.9957E-03         3.67657         1.87951        -8.15571         1.89920        -8.15426         3.65543     110.224E-03     52.6753E-03    -26.1251E-03    -26.5495E-03    -26.1235E-03     52.6651E-03    -26.5409E-03     1.59667E-03    -25.1569E+06    -30.7076E+06    -165.942E+06    -29.6442E+06    -165.836E+06    -26.3261E+06     804.673E+03         23.7195
             835     16.5542E-03     22.7255E-03         2.44578         1.88224        -6.95633         1.88217        -6.95626         2.44578    -26.3940E-03     219.213E-03    -27.2893E-03    -191.950E-03    -47.7708E-03     75.0334E-03    -27.2893E-03     392.316E-03     187.773E+06     153.009E+06    -10.9321E+06    -10.9010E+06     187.742E+06     153.009E+06     1.67582E+06         55.9598
             836     15.5831E-03     22.2624E-03         2.44169         1.96147        -7.01613         1.96143        -7.01608         2.44169    -27.3960E-03     163.693E-03    -27.0598E-03    -136.665E-03    -42.5617E-03     69.5891E-03    -27.0598E-03     276.649E-03     157.610E+06     90.9938E+06    -17.0276E+06    -16.9563E+06     157.539E+06     90.9938E+06     524.807E+03         52.7224
             837     14.6085E-03     22.1156E-03         2.45026         2.04144        -7.10037         2.04126        -7.10019         2.45026    -74.1083E-03     75.1150E-03    -26.6599E-03    -48.4836E-03    -28.1155E-03     54.7469E-03    -26.6599E-03     84.7626E-03     112.677E+06     14.3767E+06    -27.6483E+06    -19.8997E+06     112.627E+06     6.67760E+06     55.4458E+03         48.4427
             838     13.6342E-03     22.0808E-03         2.47026         2.10655        -7.18066         2.10640        -7.18051         2.47026    -42.8948E-03     55.6379E-03    -26.3926E-03    -29.2659E-03    -26.4327E-03     52.8047E-03    -26.3926E-03     30.3520E-03     67.4127E+06    -22.0152E+06    -50.5840E+06    -21.8769E+06     67.2744E+06    -50.5840E+06     2.13626E+06         43.6862
             839     12.6594E-03     22.0505E-03         2.49286         2.16084        -7.25270         2.16061        -7.25248         2.49286    -52.9386E-03     54.8763E-03    -26.4167E-03    -28.4754E-03    -26.8553E-03     53.2562E-03    -26.4167E-03     22.4580E-03     15.6254E+06    -22.9151E+06    -52.5046E+06    -20.3312E+06     13.0415E+06    -52.5046E+06     3.60673E+06         39.2693
             840     11.6868E-03     22.0314E-03         2.51523         2.22769        -7.34208         2.22744        -7.34183         2.51523    -80.7260E-03     54.1757E-03    -26.5027E-03    -27.7194E-03    -27.0053E-03     53.4616E-03    -26.5027E-03     15.0256E-03    -15.2611E+06    -32.1720E+06    -52.5959E+06    -17.0776E+06    -42.0596E+06    -40.8919E+06     3.67998E+06         35.5606
             841     10.7133E-03     22.0166E-03         2.53608         2.29933        -7.43499         2.29918        -7.43484         2.53608    -67.5764E-03     54.0502E-03    -26.5569E-03    -27.5278E-03    -27.0274E-03     53.5498E-03    -26.5569E-03     12.7347E-03    -15.3204E+06    -30.4065E+06    -83.8527E+06    -15.6732E+06    -83.4999E+06    -30.4065E+06     4.78258E+06         32.5904
             842     9.73882E-03     22.0017E-03         2.55506         2.35592        -7.50352         2.35575        -7.50334         2.55506    -69.4363E-03     54.1300E-03    -26.5839E-03    -27.5337E-03    -27.1187E-03     53.7150E-03    -26.5839E-03     11.5094E-03    -15.2361E+06    -20.5916E+06    -112.737E+06    -15.5397E+06    -112.433E+06    -20.5916E+06     5.25382E+06         30.2717
             843     8.76668E-03     21.9893E-03         2.57288         2.40380        -7.56277         2.40367        -7.56264         2.57288    -56.6864E-03     53.7804E-03    -26.5407E-03    -27.2396E-03    -26.9722E-03     53.5130E-03    -26.5407E-03     9.22536E-03    -15.4226E+06    -21.5956E+06    -131.826E+06    -15.5974E+06    -131.651E+06    -21.5956E+06     4.18485E+06         28.3844
             844     7.79197E-03     21.9790E-03         2.58895         2.46047        -7.63189         2.46038        -7.63179         2.58895    -56.8461E-03     53.5395E-03    -26.5278E-03    -27.0238E-03    -26.8246E-03     53.3402E-03    -26.5278E-03     7.97361E-03    -14.7835E+06    -19.4358E+06    -149.835E+06    -15.8447E+06    -149.696E+06    -18.5135E+06     3.82199E+06         26.8197
             845     6.81846E-03     21.9696E-03         2.60194         2.51485        -7.69630         2.51482        -7.69627         2.60194    -12.4457E-03     53.4707E-03    -26.5150E-03    -26.9694E-03    -26.8271E-03     53.3283E-03    -26.5150E-03     6.66508E-03    -12.8018E+06    -16.6696E+06    -161.708E+06    -16.1727E+06    -161.580E+06    -13.4266E+06     3.83868E+06         25.5949
             846     5.84451E-03     21.9617E-03         2.61329         2.53913        -7.72967         2.53899        -7.72953         2.61329    -34.6391E-03     53.2647E-03    -26.4649E-03    -26.8121E-03    -26.7239E-03     53.1797E-03    -26.4681E-03     5.10591E-03    -12.3474E+06    -16.6518E+06    -166.665E+06    -16.7898E+06    -166.527E+06    -12.3474E+06     3.18623E+06         24.7372
             847     4.87043E-03     21.9571E-03         2.62545         2.55735        -7.75736         2.55720        -7.75721         2.62545    -24.4854E-03     53.1329E-03    -26.3919E-03    -26.7483E-03    -26.6921E-03     53.0799E-03    -26.3951E-03     3.98235E-03    -14.0757E+06    -17.9425E+06    -167.178E+06    -17.9430E+06    -166.999E+06    -14.2543E+06     2.94621E+06         24.2489
             848     3.89769E-03     21.9504E-03         2.63674         2.59557        -7.81146         2.59547        -7.81136         2.63674    -16.4972E-03     53.0260E-03    -26.2846E-03    -26.7459E-03    -26.7020E-03     52.9983E-03    -26.3008E-03     2.89149E-03    -15.6947E+06    -20.6855E+06    -167.925E+06    -20.6285E+06    -167.804E+06    -15.8733E+06     2.83266E+06         24.0167
             849     2.92352E-03     21.9483E-03         2.64958         2.62537        -7.86094         2.63152        -7.86086         2.64335    -44.7531E-03     52.5734E-03    -26.1271E-03    -26.4482E-03    -26.3385E-03     52.5541E-03    -26.2176E-03     2.44454E-03    -15.6664E+06    -21.9915E+06    -167.614E+06    -22.0183E+06    -167.587E+06    -15.6664E+06     1.92569E+06         23.8691
             850     1.94813E-03     21.9449E-03         2.66728         2.63299        -7.88989         2.66049        -7.88984         2.63972    -42.3510E-03     52.2650E-03    -25.9921E-03    -26.2733E-03    -26.0409E-03     52.2501E-03    -26.2095E-03     2.05870E-03    -16.9347E+06    -25.6839E+06    -168.194E+06    -25.6937E+06    -168.184E+06    -16.9347E+06     1.10256E+06         23.7501
             851     974.328E-06     21.9429E-03         3.42428         1.84527        -7.86740         1.86547        -7.86627         3.40295     78.5349E-03     52.3538E-03    -25.8741E-03    -26.4800E-03    -26.1650E-03     52.3449E-03    -26.1802E-03     1.62928E-03    -23.6637E+06    -29.6346E+06    -164.404E+06    -29.4244E+06    -164.327E+06    -23.9508E+06     2.02869E+06         23.6842
             852     16.5630E-03     21.6721E-03         2.34463         1.87796        -6.83226         1.87791        -6.83221         2.34463    -23.9768E-03     218.737E-03    -27.1110E-03    -191.667E-03    -49.2406E-03     76.3105E-03    -27.1110E-03     390.689E-03     188.359E+06     153.289E+06    -9.16689E+06    -9.16155E+06     188.354E+06     153.289E+06     372.029E+03         55.8627
             853     15.5867E-03     21.2089E-03         2.33280         1.93586        -6.86796         1.93579        -6.86790         2.33280    -39.5526E-03     164.134E-03    -26.8708E-03    -137.318E-03    -41.0709E-03     67.8869E-03    -26.8708E-03     279.200E-03     158.139E+06     89.1051E+06    -15.7439E+06    -15.7234E+06     158.118E+06     89.1051E+06     272.093E+03         52.6315
             854     14.6100E-03     21.0620E-03         2.33554         1.98360        -6.91741         1.98347        -6.91728         2.33554    -59.5254E-03     75.1486E-03    -26.5307E-03    -48.6607E-03    -27.6566E-03     54.1444E-03    -26.5307E-03     85.3000E-03     110.005E+06     10.4103E+06    -30.3084E+06    -22.2236E+06     109.800E+06      2.5304E+06     2.89619E+06         48.3583
             855     13.6350E-03     21.0251E-03         2.35147         2.03513        -6.98571         2.03499        -6.98558         2.35147    -23.1929E-03     55.3664E-03    -26.2726E-03    -29.1289E-03    -26.4868E-03     52.7243E-03    -26.2726E-03     29.2804E-03     67.4399E+06    -23.6459E+06    -52.9518E+06    -23.3266E+06     67.1206E+06    -52.9518E+06     4.17897E+06         43.6027
             856     12.6624E-03     20.9959E-03         2.36953         2.10509        -7.06894         2.10484        -7.06869         2.36953    -42.4613E-03     54.6886E-03    -26.2721E-03    -28.4254E-03    -26.9333E-03     53.1965E-03    -26.2721E-03     21.4371E-03     15.3799E+06    -22.5001E+06    -56.2145E+06    -20.9695E+06     13.8494E+06    -56.2145E+06     2.46017E+06         39.1853
             857     11.6879E-03     20.9757E-03         2.38649         2.16251        -7.13587         2.16225        -7.13561         2.38649    -78.4186E-03     54.0126E-03    -26.3472E-03    -27.7014E-03    -27.1077E-03     53.4189E-03    -26.3472E-03     13.6334E-03    -16.9475E+06    -31.1990E+06    -56.7599E+06    -17.9096E+06    -43.5095E+06    -43.4874E+06     2.95835E+06         35.4803
             858     10.7142E-03     20.9626E-03         2.40340         2.19264        -7.17957         2.19256        -7.17949         2.40340    -47.1194E-03     53.9519E-03    -26.3894E-03    -27.6025E-03    -27.1802E-03     53.5295E-03    -26.3894E-03     11.6655E-03    -15.5746E+06    -31.3268E+06    -84.6517E+06    -15.9657E+06    -84.2606E+06    -31.3268E+06     5.06973E+06         32.5154
             859     9.74188E-03     20.9460E-03         2.42045         2.23389        -7.23679         2.23383        -7.23673         2.42045    -35.8937E-03     53.8355E-03    -26.3995E-03    -27.4316E-03    -27.0926E-03     53.4965E-03    -26.3995E-03     10.2924E-03    -14.1881E+06    -19.8150E+06    -111.680E+06    -14.5120E+06    -111.356E+06    -19.8150E+06     5.44202E+06         30.2014
             860     8.76727E-03     20.9355E-03         2.43495         2.31225        -7.32573         2.31216        -7.32564         2.43495    -41.1385E-03     53.4474E-03    -26.3517E-03    -27.0926E-03    -26.8838E-03     53.2387E-03    -26.3517E-03     8.16347E-03    -13.5599E+06    -17.8912E+06    -130.573E+06    -13.8057E+06    -130.327E+06    -17.8912E+06     5.27748E+06         28.3172
             861     7.79410E-03     20.9251E-03         2.44540         2.36464        -7.38289         2.36451        -7.38276         2.44540    -65.7747E-03     53.3386E-03    -26.3050E-03    -27.0433E-03    -26.8833E-03     53.1786E-03    -26.3050E-03     7.08891E-03    -13.5737E+06    -17.1335E+06    -148.263E+06    -14.7157E+06    -148.043E+06    -16.2112E+06     5.03915E+06         26.7546
             862     6.82030E-03     20.9155E-03         2.45497         2.37437        -7.39928         2.37410        -7.39900         2.45497    -72.0337E-03     53.0127E-03    -26.2530E-03    -26.7746E-03    -26.6795E-03     52.9176E-03    -26.2530E-03     5.41372E-03    -13.3510E+06    -16.1236E+06    -159.914E+06    -16.0191E+06    -159.746E+06    -13.6231E+06     4.28093E+06         25.5322
             863     5.84611E-03     20.9089E-03         2.46555         2.39583        -7.43069         2.39554        -7.43041         2.46555    -71.3779E-03     52.7475E-03    -26.1863E-03    -26.5732E-03    -26.5183E-03     52.6927E-03    -26.1863E-03     4.10971E-03    -14.2059E+06    -18.1981E+06    -165.638E+06    -18.3833E+06    -165.453E+06    -14.2059E+06     3.64163E+06         24.6782
             864     4.87275E-03     20.9021E-03         2.47603         2.42094        -7.46761         2.42089        -7.46756         2.47603    -23.1968E-03     52.6054E-03    -26.0929E-03    -26.5214E-03    -26.4828E-03     52.5669E-03    -26.0929E-03     3.46476E-03    -17.4322E+06    -22.2285E+06    -168.241E+06    -21.7763E+06    -168.016E+06    -18.1099E+06     3.88636E+06         24.1924
             865     3.89790E-03     20.8978E-03         2.48549         2.44838        -7.50712         2.44829        -7.50703         2.48549    -31.7517E-03     52.2433E-03    -25.9975E-03    -26.2522E-03    -26.2117E-03     52.2191E-03    -26.0138E-03     2.57891E-03    -18.0605E+06    -21.6326E+06    -166.349E+06    -21.0754E+06    -166.229E+06    -18.7382E+06     3.30371E+06         23.9608
             866     2.92305E-03     20.8949E-03         2.49348         2.47053        -7.54133         2.47043        -7.54124         2.49348    -53.5566E-03     52.0424E-03    -25.9451E-03    -26.1003E-03    -26.0647E-03     52.0312E-03    -25.9695E-03     1.70106E-03    -17.0731E+06    -21.0770E+06    -165.160E+06    -21.0999E+06    -165.137E+06    -17.0731E+06     1.72047E+06         23.8177
             867     1.94961E-03     20.8921E-03         2.50209         2.48186        -7.57199         2.48198        -7.57191         2.50190    -50.9725E-03     52.0114E-03    -25.8592E-03    -26.1520E-03    -26.1341E-03     52.0017E-03    -25.8673E-03     1.60302E-03    -17.5136E+06    -23.7798E+06    -166.354E+06    -23.7854E+06    -166.348E+06    -17.5136E+06     570.200E+03         23.7053
             868     975.028E-06     20.8895E-03         3.17753         1.83766        -7.60990         1.83520        -7.60726         3.17734     177.442E-03     51.4902E-03    -25.4609E-03    -26.0288E-03    -25.8900E-03     51.4827E-03    -25.5921E-03     1.38652E-03    -22.2383E+06    -27.0037E+06    -163.239E+06    -25.9412E+06    -163.140E+06    -23.3995E+06     1.91818E+06         23.6369
             869     16.5666E-03     20.6237E-03         2.23741         1.85777        -6.69363         1.85773        -6.69358         2.23741    -19.2815E-03     219.130E-03    -27.0078E-03    -192.182E-03    -49.0452E-03     75.9928E-03    -27.0078E-03     391.814E-03     186.008E+06     149.136E+06    -10.0147E+06    -10.0106E+06     186.004E+06     149.136E+06    -448.312E+03         55.7274
             870     15.5850E-03     20.1572E-03         2.21853         1.90544        -6.71244         1.90533        -6.71233         2.21853    -52.5514E-03     166.891E-03    -26.7903E-03    -140.174E-03    -41.9399E-03     68.6572E-03    -26.7903E-03     284.246E-03     154.532E+06     85.2002E+06    -18.6365E+06    -18.5008E+06     154.397E+06     85.2002E+06     1.67136E+06         52.4970
             871     14.6116E-03     20.0052E-03         2.21514         1.93757        -6.73509         1.93739        -6.73492         2.21514    -74.4394E-03     75.7076E-03    -26.4381E-03    -49.3053E-03    -28.5550E-03     54.9573E-03    -26.4381E-03     85.5936E-03     109.708E+06     9.93154E+06     -31.326E+06    -24.4458E+06     109.390E+06     3.36952E+06     4.29418E+06         48.2352
             872     13.6388E-03     19.9723E-03         2.22591         1.97703        -6.78749         1.97686        -6.78732         2.22591    -49.9495E-03     55.7144E-03    -26.1129E-03    -29.6248E-03    -26.9985E-03     53.0880E-03    -26.1129E-03     29.2970E-03     69.6552E+06    -24.3556E+06    -52.8063E+06    -24.0991E+06     69.3987E+06    -52.8063E+06     3.74752E+06         43.4879
             873     12.6634E-03     19.9394E-03         2.23907         2.03505        -6.85642         2.03485        -6.85622         2.23907    -56.6340E-03     54.6442E-03    -26.0609E-03    -28.5808E-03    -27.2113E-03     53.2747E-03    -26.0609E-03     20.3181E-03     17.3079E+06    -22.7765E+06    -57.1301E+06    -21.0216E+06     15.5530E+06    -57.1301E+06     2.54701E+06         39.0758
             874     11.6911E-03     19.9221E-03         2.25172         2.07359        -6.89960         2.07336        -6.89937         2.25172    -76.1258E-03     53.7474E-03    -26.1032E-03    -27.6749E-03    -27.1953E-03     53.2678E-03    -26.1032E-03     12.2646E-03    -17.9423E+06    -33.3404E+06    -59.1090E+06    -19.4087E+06    -45.1776E+06    -45.8053E+06     2.79079E+06         35.3795
             875     10.7179E-03     19.9068E-03         2.26451         2.10138        -6.93412         2.10122        -6.93396         2.26451    -60.2100E-03     53.6514E-03    -26.1086E-03    -27.5935E-03    -27.2602E-03     53.3181E-03    -26.1086E-03     10.3492E-03    -16.6196E+06    -34.4535E+06    -85.3887E+06    -16.8608E+06    -85.1475E+06    -34.4535E+06     3.99199E+06         32.4233
             876     9.74379E-03     19.8925E-03         2.27691         2.13999        -6.98644         2.13988        -6.98633         2.27691    -58.2637E-03     53.3314E-03    -26.0990E-03    -27.2370E-03    -26.9923E-03     53.0868E-03    -26.0990E-03     8.64035E-03    -15.1963E+06    -21.5632E+06    -111.616E+06    -15.4985E+06    -111.314E+06    -21.5632E+06     5.38486E+06         30.1152
             877     8.77041E-03     19.8817E-03         2.28803         2.18144        -7.03821         2.18125        -7.03802         2.28803    -77.6911E-03     52.9951E-03    -26.0300E-03    -26.9712E-03    -26.8329E-03     52.8569E-03    -26.0300E-03     6.57252E-03    -16.0346E+06     -19.198E+06    -129.808E+06    -16.3646E+06    -129.478E+06     -19.198E+06     6.03181E+06         28.2335
             878     7.79655E-03     19.8706E-03         2.29798         2.21075        -7.07387         2.21057        -7.07369         2.29798    -67.9013E-03     52.7268E-03    -25.9430E-03    -26.8052E-03    -26.7004E-03     52.6219E-03    -25.9430E-03     5.68553E-03    -15.7306E+06    -19.1590E+06    -146.388E+06    -16.0035E+06    -146.115E+06    -19.1590E+06     5.61408E+06         26.6712
             879     6.82284E-03     19.8627E-03         2.30762         2.23213        -7.10515         2.23183        -7.10484         2.30762    -83.2708E-03     52.4139E-03    -25.8685E-03    -26.5612E-03    -26.4993E-03     52.3520E-03    -25.8685E-03     4.33114E-03    -14.7302E+06    -16.7120E+06    -159.270E+06    -15.7461E+06    -158.996E+06    -15.9703E+06     5.46041E+06         25.4483
             880     5.84876E-03     19.8554E-03         2.31573         2.27160        -7.15091         2.27126        -7.15058         2.31573    -98.2988E-03     52.0537E-03    -25.7843E-03    -26.2784E-03    -26.2424E-03     52.0177E-03    -25.7843E-03     3.27502E-03    -14.5962E+06    -17.1851E+06    -165.052E+06    -17.0644E+06    -164.752E+06    -15.0171E+06     5.83041E+06         24.5945
             881     4.87368E-03     19.8495E-03         2.32879         2.29782        -7.19030         2.30663        -7.19024         2.31991    -39.9419E-03     51.6958E-03    -25.7011E-03    -26.0030E-03    -25.9800E-03     51.6728E-03    -25.7011E-03     2.48797E-03    -15.3634E+06    -18.4729E+06    -166.501E+06    -17.6488E+06    -166.310E+06    -16.3782E+06     4.58934E+06         24.1104
             882     3.89946E-03     19.8455E-03         2.33619         2.29992        -7.20122         2.31468        -7.20119         2.32140    -10.5122E-03     51.5133E-03    -25.6259E-03    -25.8934E-03    -25.8845E-03     51.5044E-03    -25.6259E-03     1.47833E-03    -16.5931E+06    -18.8860E+06    -164.097E+06    -18.1832E+06    -164.031E+06    -17.3627E+06     2.68245E+06         23.8831
             883     2.92534E-03     19.8424E-03         2.33005         2.30376        -7.20208         2.30956        -7.20196         2.32414     15.9676E-03     51.3637E-03    -25.5413E-03    -25.8255E-03    -25.8227E-03     51.3609E-03    -25.5413E-03     932.368E-06    -16.6952E+06    -19.8770E+06    -163.439E+06    -19.8105E+06    -163.414E+06    -16.7870E+06     1.82788E+06         23.7455
             884     1.94993E-03     19.8402E-03         2.33164         2.30963        -7.21621         2.30949        -7.21608         2.33164    -7.25742E-03     51.1145E-03    -25.4106E-03    -25.7044E-03    -25.6982E-03     51.1082E-03    -25.4106E-03     1.26491E-03    -16.0480E+06    -22.5747E+06    -164.630E+06    -22.5853E+06    -164.620E+06    -16.0480E+06     787.062E+03         23.6369
             885     975.629E-06     19.8375E-03         2.91414         1.76209        -7.25341         1.75970        -7.25102         2.91414     173.098E-03     50.5571E-03    -25.0853E-03    -25.4714E-03    -25.2230E-03     50.5503E-03    -25.3270E-03     629.662E-06    -21.6606E+06    -27.3497E+06    -163.300E+06    -26.3345E+06    -163.154E+06    -22.8218E+06     3.08461E+06         23.5695
             886     16.5577E-03     19.5754E-03         2.12437         1.82523        -6.53052         1.82519        -6.53047         2.12437    -14.6831E-03     218.434E-03    -27.0622E-03    -191.423E-03    -49.1153E-03     76.1264E-03    -27.0622E-03     390.237E-03     184.333E+06     147.708E+06    -10.0393E+06    -9.98899E+06     184.283E+06     147.708E+06     1.38204E+06         55.5404
             887     15.5861E-03     19.0955E-03         2.09913         1.84773        -6.52493         1.84766        -6.52486         2.09913    -30.4365E-03     167.956E-03    -26.7789E-03    -141.243E-03    -44.4431E-03     71.1561E-03    -26.7789E-03     284.420E-03     152.626E+06      84.132E+06    -20.6939E+06    -20.5118E+06     152.444E+06      84.132E+06     2.64420E+06         52.3100
             888     14.6138E-03     18.9540E-03         2.09025         1.88296        -6.54503         1.88280        -6.54488         2.09025    -63.2472E-03     75.7948E-03    -26.3209E-03    -49.5007E-03    -29.7597E-03     56.0537E-03    -26.3209E-03     84.1531E-03     111.162E+06     12.7884E+06    -29.5262E+06    -23.7108E+06     110.975E+06     7.15984E+06     2.81913E+06         48.0633
             889     13.6387E-03     18.9135E-03         2.09545         1.92833        -6.59063         1.92818        -6.59049         2.09545    -60.4865E-03     56.4411E-03    -25.8942E-03    -30.5649E-03    -28.1916E-03     54.0678E-03    -25.8942E-03     27.6875E-03     70.8785E+06    -22.4696E+06    -49.6918E+06    -22.3531E+06     70.7620E+06    -49.6918E+06     2.57400E+06         43.3327
             890     12.6693E-03     18.8859E-03         2.10368         1.95041        -6.62113         1.95027        -6.62099         2.10368    -58.6323E-03     54.4516E-03    -25.7571E-03    -28.6982E-03    -27.7191E-03     53.4725E-03    -25.7571E-03     17.1777E-03     18.5682E+06    -22.8078E+06    -55.7435E+06    -20.2378E+06     15.9983E+06    -55.7435E+06     3.27295E+06         38.9387
             891     11.6942E-03     18.8668E-03         2.11263         1.97585        -6.65094         1.97567        -6.65075         2.11263    -63.3298E-03     53.2545E-03    -25.7465E-03    -27.5390E-03    -27.1853E-03     52.9009E-03    -25.7465E-03     10.3934E-03    -16.5252E+06    -34.2542E+06    -58.5909E+06    -18.5626E+06    -45.2115E+06    -45.5962E+06     3.69057E+06         35.2618
             892     10.7215E-03     18.8526E-03         2.12117         2.01303        -6.69100         2.01288        -6.69086         2.12117    -55.8922E-03     53.0751E-03    -25.7048E-03    -27.4367E-03    -27.2159E-03     52.8543E-03    -25.7048E-03     8.26744E-03    -17.5612E+06    -37.6222E+06    -86.1437E+06    -17.7872E+06    -85.9177E+06    -37.6222E+06     3.70687E+06         32.3204
             893     9.74823E-03     18.8390E-03         2.12886         2.03636        -6.71961         2.03616        -6.71942         2.12886    -71.2400E-03     52.7876E-03    -25.6525E-03    -27.1585E-03    -27.0134E-03     52.6425E-03    -25.6525E-03     6.56463E-03    -16.8336E+06    -24.9811E+06    -112.929E+06    -17.1755E+06    -112.587E+06    -24.9811E+06     5.51537E+06         30.0196
             894     8.77466E-03     18.8274E-03         2.13680         2.04792        -6.74130         2.04766        -6.74105         2.13680    -92.3839E-03     52.3062E-03    -25.5468E-03    -26.7644E-03    -26.6914E-03     52.2332E-03    -25.5468E-03     4.70233E-03    -15.8300E+06    -19.6505E+06    -128.747E+06    -16.2443E+06    -128.333E+06    -19.6505E+06     6.66854E+06         28.1371
             895     7.80061E-03     18.8186E-03         2.14502         2.06998        -6.77358         2.06987        -6.77347         2.14502    -45.3010E-03     51.8108E-03    -25.4293E-03    -26.3979E-03    -26.3476E-03     51.7605E-03    -25.4293E-03     3.75910E-03    -15.6246E+06    -19.6092E+06    -144.817E+06    -15.9214E+06    -144.520E+06    -19.6092E+06     5.82484E+06         26.5696
             896     6.82573E-03     18.8093E-03         2.15208         2.10162        -6.81187         2.10153        -6.81178         2.15208    -41.6736E-03     51.4468E-03    -25.3361E-03    -26.1184E-03    -26.0905E-03     51.4190E-03    -25.3361E-03     2.56195E-03    -15.6203E+06    -17.8604E+06     -160.02E+06    -16.4889E+06    -159.733E+06    -17.2791E+06     5.47266E+06         25.3419
             897     5.85158E-03     18.8035E-03         2.15714         2.12738        -6.84258         2.12723        -6.84243         2.15714    -70.1613E-03     51.1279E-03    -25.2278E-03    -25.9039E-03    -25.8919E-03     51.1159E-03    -25.2278E-03     1.59075E-03    -14.4831E+06    -15.6378E+06    -163.741E+06    -15.5098E+06    -163.448E+06    -14.9041E+06     5.66451E+06         24.4853
             898     4.87710E-03     18.7981E-03         2.17567         2.14777        -6.87508         2.16532        -6.87502         2.15806    -34.4219E-03     50.6625E-03    -25.1155E-03    -25.5536E-03    -25.5488E-03     50.6577E-03    -25.1155E-03     919.022E-06    -14.1808E+06    -15.9512E+06    -163.374E+06    -15.2269E+06    -163.149E+06    -15.1303E+06     5.49506E+06         24.0014
             899     3.90186E-03     18.7936E-03         2.18178         2.15310        -6.88713         2.18172        -6.88707         2.15310    -14.0679E-03     50.2768E-03    -25.0298E-03    -25.2528E-03    -25.2510E-03     50.2750E-03    -25.0298E-03     527.925E-06    -16.1303E+06    -17.8753E+06    -162.125E+06    -17.3404E+06    -161.955E+06    -16.8346E+06     4.68033E+06         23.7769
             900     2.92626E-03     18.7912E-03         2.16287         2.14189        -6.86197         2.15710        -6.86171         2.14741    -15.5048E-03     50.1725E-03    -24.9495E-03    -25.2276E-03    -25.2262E-03     50.1711E-03    -24.9495E-03     447.997E-06    -16.4435E+06    -19.0011E+06    -161.273E+06    -19.0023E+06    -161.180E+06    -16.5354E+06     3.08603E+06         23.6433
             901     1.95164E-03     18.7885E-03         2.15332         2.13709        -6.84376         2.14423        -6.84338         2.14580    -49.7040E-03     49.8975E-03    -24.8424E-03    -25.0577E-03    -25.0561E-03     49.8959E-03    -24.8424E-03     456.740E-06    -14.6197E+06    -22.9424E+06    -162.525E+06    -22.9920E+06    -162.476E+06    -14.6197E+06     2.20209E+06         23.5380
             902     975.349E-06     18.7876E-03         2.63265         1.66183        -6.84383         1.66229        -6.84116         2.62952     151.496E-03     49.4245E-03    -24.5568E-03    -24.8695E-03    -24.7566E-03     49.4220E-03    -24.6672E-03    -173.734E-06    -22.1673E+06    -29.6683E+06    -163.526E+06    -29.7676E+06    -163.426E+06    -22.1673E+06     1.76917E+06         23.4754
             903     16.5620E-03     18.5193E-03         2.00718         1.81029        -6.38221         1.81021        -6.38213         2.00718    -25.8170E-03     217.020E-03    -27.0339E-03    -190.042E-03    -50.4622E-03     77.4411E-03    -27.0339E-03     386.422E-03     184.660E+06     150.724E+06    -9.08092E+06    -9.01021E+06     184.589E+06     150.724E+06     2.98912E+06         55.3022
             904     15.5879E-03     18.0402E-03         1.97491         1.81712        -6.35452         1.81709        -6.35449         1.97491    -8.31255E-03     167.575E-03    -26.6352E-03    -141.005E-03    -45.7548E-03     72.3249E-03    -26.6352E-03     282.454E-03     155.620E+06     87.7780E+06    -16.7164E+06    -16.6013E+06     155.505E+06     87.7780E+06     3.00807E+06         52.0696
             905     14.6151E-03     17.8960E-03         1.95968         1.83124        -6.34915         1.83119        -6.34909         1.95968    -37.3929E-03     76.0996E-03    -26.0358E-03    -50.0909E-03    -31.5224E-03     57.5311E-03    -26.0358E-03     80.8342E-03     110.286E+06     12.4782E+06    -28.2343E+06    -21.8128E+06     110.188E+06     6.15505E+06     1.53351E+06         47.8376
             906     13.6479E-03     17.8564E-03         1.95996         1.84976        -6.36417         1.84971        -6.36412         1.95996    -27.9192E-03     56.3168E-03    -25.4958E-03    -30.8437E-03    -29.1491E-03     54.6222E-03    -25.4958E-03     23.4471E-03     70.5211E+06    -21.2702E+06    -49.4432E+06    -21.0550E+06     70.3059E+06    -49.4432E+06     2.91435E+06         43.1330
             907     12.6732E-03     17.8311E-03         1.96429         1.86043        -6.37840         1.86033        -6.37830         1.96429    -35.2069E-03     53.8540E-03    -25.2870E-03    -28.5788E-03    -27.9419E-03     53.2171E-03    -25.2870E-03     13.7118E-03     19.2591E+06    -23.1944E+06    -54.7053E+06    -19.4397E+06     15.5044E+06    -54.7053E+06     4.40887E+06         38.7710
             908     11.7018E-03     17.8129E-03         1.96913         1.88668        -6.40350         1.88650        -6.40333         1.96913    -60.1313E-03     52.7441E-03    -25.2225E-03    -27.5628E-03    -27.3658E-03     52.5471E-03    -25.2225E-03     7.52274E-03    -15.8964E+06    -34.4094E+06    -56.7567E+06    -17.8915E+06    -45.1005E+06    -44.0705E+06     5.17606E+06         35.1346
             909     10.7274E-03     17.7991E-03         1.97341         1.90923        -6.41963         1.90913        -6.41953         1.97341    -42.4389E-03     52.2828E-03    -25.1291E-03    -27.2166E-03    -27.1184E-03     52.1847E-03    -25.1291E-03     5.40937E-03    -17.0976E+06    -36.1405E+06    -86.1857E+06    -17.6073E+06    -85.6760E+06    -36.1405E+06     5.45569E+06         32.2244
             910     9.75417E-03     17.7852E-03         1.97731         1.92124        -6.43451         1.92105        -6.43432         1.97731    -64.8425E-03     51.9443E-03    -25.0139E-03    -26.9483E-03    -26.8883E-03     51.8843E-03    -25.0139E-03     3.52656E-03    -16.8568E+06    -26.0427E+06    -113.593E+06    -17.2318E+06    -113.219E+06    -26.0427E+06     4.95354E+06         29.9251
             911     8.78005E-03     17.7757E-03         1.98106         1.93575        -6.45836         1.93553        -6.45814         1.98106    -68.8204E-03     51.2710E-03    -24.8599E-03    -26.4120E-03    -26.3892E-03     51.2483E-03    -24.8599E-03     1.79680E-03    -14.5917E+06    -19.5000E+06    -128.646E+06    -14.9326E+06    -128.305E+06    -19.5000E+06     5.41302E+06         28.0288
             912     7.80578E-03     17.7656E-03         1.98460         1.94628        -6.47721         1.94622        -6.47715         1.98460    -31.0961E-03     50.6778E-03    -24.7134E-03    -25.9720E-03    -25.9584E-03     50.6642E-03    -24.7134E-03     1.01590E-03    -13.8174E+06    -16.0762E+06    -144.135E+06    -14.2400E+06    -143.751E+06    -16.0378E+06     7.01187E+06         26.4496
             913     6.83181E-03     17.7590E-03         1.98790         1.95850        -6.49713         1.95843        -6.49707         1.98790    -41.2112E-03     50.1025E-03    -24.5694E-03    -25.5375E-03    -25.5333E-03     50.0983E-03    -24.5694E-03     218.293E-06    -15.3066E+06    -17.2020E+06    -158.448E+06    -16.3119E+06    -158.062E+06    -16.5824E+06     6.66081E+06         25.2121
             914     5.85595E-03     17.7520E-03         1.99101         1.97342        -6.51086         1.97389        -6.51069         1.99037    -70.0772E-03     49.6596E-03    -24.4165E-03    -25.2461E-03    -25.2411E-03     49.6546E-03    -24.4165E-03    -389.447E-06    -16.7568E+06    -18.9428E+06    -162.814E+06    -17.7824E+06    -162.522E+06    -18.2090E+06     5.19073E+06         24.3470
             915     4.88101E-03     17.7473E-03         2.00138         1.97232        -6.51700         1.98155        -6.51685         1.99200    -56.0471E-03     49.1189E-03    -24.2750E-03    -24.8500E-03    -24.8422E-03     49.1112E-03    -24.2750E-03    -943.509E-06    -16.4929E+06    -18.8240E+06    -161.930E+06    -16.9173E+06    -161.658E+06    -18.6716E+06     5.60526E+06         23.8579
             916     3.90482E-03     17.7445E-03         2.00805         1.96687        -6.52037         1.98065        -6.52026         1.99416    -49.7766E-03     48.6135E-03    -24.1892E-03    -24.4300E-03    -24.4253E-03     48.6088E-03    -24.1892E-03    -788.015E-06    -15.6784E+06    -17.8007E+06    -159.513E+06    -16.7299E+06    -159.273E+06    -16.9898E+06     5.54159E+06         23.6324
             917     2.92892E-03     17.7403E-03         2.00578         1.98212        -6.52973         1.99139        -6.52945         1.99623    -95.8518E-03     48.4456E-03    -24.1277E-03    -24.3216E-03    -24.3080E-03     48.4422E-03    -24.1380E-03    -700.051E-06    -13.8133E+06    -18.1863E+06    -158.954E+06    -18.3431E+06    -158.797E+06    -13.8133E+06     4.24758E+06         23.5017
             918     1.95257E-03     17.7393E-03         2.00322         1.99316        -6.53715         1.99998        -6.53644         1.99570    -148.824E-03     48.2606E-03    -24.0396E-03    -24.2227E-03    -24.2102E-03     48.2585E-03    -24.0499E-03    -509.406E-06    -12.6168E+06    -21.2434E+06    -159.339E+06    -21.3693E+06    -159.213E+06    -12.6168E+06     3.86656E+06         23.4030
             919     977.153E-06     17.7375E-03         2.38196         1.60962        -6.52276         1.60996        -6.51997         2.37883     90.1317E-03     47.8667E-03    -23.8191E-03    -24.0491E-03    -24.0486E-03     47.8662E-03    -23.8191E-03    -313.835E-06    -19.3601E+06    -26.6168E+06    -159.141E+06    -25.5537E+06    -159.047E+06    -20.5170E+06     338.370E+03         23.3482
             920     16.5656E-03     17.4653E-03         1.88727         1.77920        -6.22707         1.77911        -6.22698         1.88727    -19.4844E-03     216.706E-03    -26.8815E-03    -189.879E-03    -53.4325E-03     80.2601E-03    -26.8815E-03     383.948E-03     183.737E+06     151.459E+06    -9.61884E+06    -9.55979E+06     183.678E+06     151.459E+06     1.76523E+06         55.0043
             921     15.5923E-03     16.9861E-03         1.85259         1.78887        -6.18569         1.79294        -6.18561         1.84844    -13.9542E-03     168.560E-03    -26.2834E-03    -142.333E-03    -48.7299E-03     74.9567E-03    -26.2834E-03     281.892E-03     155.922E+06     88.2078E+06    -16.2745E+06    -16.2015E+06     155.849E+06     88.2078E+06     1.51406E+06         51.7687
             922     14.6257E-03     16.8330E-03         1.83095         1.78335        -6.15101         1.78731        -6.15083         1.82681    -69.1766E-03     75.0653E-03    -25.5108E-03    -49.5760E-03    -32.8493E-03     58.3386E-03    -25.5108E-03     75.6260E-03     109.539E+06     12.4197E+06    -27.9158E+06    -20.2414E+06     109.433E+06     4.85125E+06     1.98582E+06         47.5535
             923     13.6533E-03     16.8029E-03         1.82231         1.77101        -6.12943         1.77089        -6.12932         1.82231    -45.9102E-03     55.1955E-03    -24.8870E-03    -30.3326E-03    -29.2623E-03     54.1253E-03    -24.8870E-03     18.4217E-03     67.6997E+06    -21.9352E+06    -50.1109E+06    -21.6267E+06     67.3912E+06    -50.1109E+06     4.02415E+06         42.8819
             924     12.6827E-03     16.7748E-03         1.82269         1.77333        -6.12830         1.77319        -6.12816         1.82269    -50.1022E-03     53.1723E-03    -24.6243E-03    -28.5652E-03    -28.1973E-03     52.8043E-03    -24.6243E-03     9.41287E-03     18.7638E+06    -23.7448E+06    -52.6641E+06    -20.3700E+06     15.3890E+06    -52.6641E+06     5.89530E+06         38.5641
             925     11.7092E-03     16.7600E-03         1.82376         1.78530        -6.13775         1.78505        -6.13749         1.82376    -87.7638E-03     52.0365E-03    -24.4715E-03    -27.6121E-03    -27.5520E-03     51.9765E-03    -24.4715E-03     3.60793E-03    -15.8972E+06    -34.9906E+06    -55.2046E+06    -19.1334E+06    -43.6564E+06    -43.3025E+06     6.03497E+06         34.9923
             926     10.7367E-03     16.7456E-03         1.83207         1.79665        -6.15323         1.80423        -6.15306         1.82432    -68.0183E-03     51.3862E-03    -24.2916E-03    -27.1493E-03    -27.1207E-03     51.3576E-03    -24.2916E-03     1.93710E-03    -16.2485E+06    -36.1174E+06    -85.8496E+06    -16.8559E+06    -85.2422E+06    -36.1174E+06     6.02822E+06         32.1333
             927     9.76288E-03     16.7332E-03         1.84040         1.80690        -6.16950         1.82357        -6.16927         1.82350    -78.6535E-03     50.6523E-03    -24.1061E-03    -26.5474E-03    -26.5311E-03     50.6360E-03    -24.1061E-03    -168.219E-06    -14.0815E+06    -25.7940E+06    -111.597E+06    -14.4311E+06    -111.248E+06    -25.7940E+06     4.88660E+06         29.8276
             928     8.78898E-03     16.7240E-03         1.83335         1.81268        -6.16949         1.82388        -6.16927         1.82193    -67.0052E-03     49.8346E-03    -23.8922E-03    -25.9399E-03    -25.9236E-03     49.8184E-03    -23.8922E-03    -1.63292E-03    -14.8853E+06    -22.2582E+06    -129.960E+06    -15.1747E+06    -129.670E+06    -22.2582E+06     5.02054E+06         27.9044
             929     7.81419E-03     16.7154E-03         1.82342         1.80965        -6.16100         1.81183        -6.16092         1.82115    -40.0711E-03     48.9704E-03    -23.7034E-03    -25.2794E-03    -25.2563E-03     48.9472E-03    -23.7034E-03    -2.09545E-03    -14.7169E+06    -18.2667E+06    -145.651E+06    -15.1837E+06    -145.223E+06    -18.2283E+06     7.31288E+06         26.3099
             930     6.83779E-03     16.7090E-03         1.82182         1.80546        -6.15444         1.80534        -6.15433         1.82182    -55.1649E-03     48.2951E-03    -23.5207E-03    -24.7846E-03    -24.7565E-03     48.2670E-03    -23.5207E-03    -2.35834E-03    -13.3802E+06    -16.0850E+06    -154.741E+06    -13.9176E+06    -154.242E+06    -16.0466E+06     8.21166E+06         25.0582
             931     5.86294E-03     16.7027E-03         1.82412         1.80653        -6.15675         1.80681        -6.15639         1.82348    -94.2798E-03     47.6719E-03    -23.3429E-03    -24.3335E-03    -24.3017E-03     47.6401E-03    -23.3429E-03    -2.63386E-03    -14.4517E+06    -16.9943E+06    -160.492E+06    -14.8034E+06    -160.140E+06    -16.9943E+06     6.37903E+06         24.1767
             932     4.88586E-03     16.6991E-03         1.82745         1.80027        -6.15567         1.80058        -6.15533         1.82680    -64.5717E-03     47.1237E-03    -23.1840E-03    -23.9427E-03    -23.9066E-03     47.0877E-03    -23.1840E-03    -3.03555E-03    -15.3502E+06    -17.2849E+06    -160.918E+06    -15.8567E+06    -160.674E+06    -17.0218E+06     5.05895E+06         23.6748
             933     3.90962E-03     16.6955E-03         1.83312         1.79955        -6.16274         1.79945        -6.16264         1.83312    -9.46093E-03     46.5985E-03    -23.0509E-03    -23.5500E-03    -23.5216E-03     46.5701E-03    -23.0509E-03    -2.58507E-03    -14.3196E+06    -15.7762E+06    -157.653E+06    -15.2629E+06    -157.412E+06    -15.0746E+06     5.27954E+06         23.4460
             934     2.93237E-03     16.6934E-03         1.83997         1.82188        -6.18875         1.82159        -6.18846         1.83997     874.862E-06     46.0739E-03    -22.9636E-03    -23.1125E-03    -23.0838E-03     46.0590E-03    -22.9774E-03    -1.90207E-03    -12.0710E+06    -15.4493E+06    -157.329E+06    -15.5866E+06    -157.135E+06    -12.1270E+06     4.77754E+06         23.3160
             935     1.95503E-03     16.6911E-03         1.84621         1.83277        -6.19478         1.83218        -6.19419         1.84621    -30.4540E-03     45.8823E-03    -22.9086E-03    -22.9743E-03    -22.9300E-03     45.8735E-03    -22.9440E-03    -1.41686E-03    -10.6072E+06    -17.2491E+06    -155.798E+06    -17.3534E+06    -155.694E+06    -10.6072E+06     3.48712E+06         23.2222
             936     976.937E-06     16.6910E-03         2.17053         1.53032        -6.21875         1.52846        -6.21689         2.17053     107.594E-03     45.7676E-03    -22.8108E-03    -22.9571E-03    -22.9309E-03     45.7630E-03    -22.8325E-03    -922.114E-06    -15.8665E+06    -20.9970E+06    -153.281E+06    -19.8937E+06    -153.227E+06    -17.0234E+06     117.020E+03         23.1770
             937     16.5652E-03     16.4159E-03         1.78131         1.73194        -6.04262         1.74791        -6.04255         1.76527    -19.7336E-03     218.595E-03    -26.7244E-03    -191.926E-03    -58.2385E-03     84.9071E-03    -26.7244E-03     384.571E-03     181.283E+06     148.896E+06    -11.1256E+06    -11.0619E+06     181.219E+06     148.896E+06    -104.702E+03         54.6333
             938     15.6025E-03     15.9164E-03         1.74485         1.71089        -5.97407         1.73418        -5.97394         1.72143    -34.0173E-03     168.502E-03    -25.8032E-03    -142.750E-03    -54.3037E-03     80.0557E-03    -25.8032E-03     277.375E-03     154.658E+06     87.6539E+06    -16.9591E+06    -16.9049E+06     154.604E+06     87.6539E+06     788.838E+03         51.3954
             939     14.6364E-03     15.7808E-03         1.73123         1.69273        -5.93535         1.72812        -5.93512         1.69561    -83.9706E-03     73.0643E-03    -24.7923E-03    -48.2977E-03    -33.5847E-03     58.3513E-03    -24.7923E-03     69.8984E-03     109.734E+06     14.0406E+06    -27.5297E+06    -19.3591E+06     109.561E+06     6.04371E+06     3.51788E+06         47.2009
             940     13.6657E-03     15.7435E-03         1.72333         1.67985        -5.91373         1.71681        -5.91359         1.68623    -61.6742E-03     54.3607E-03    -24.0576E-03    -30.3337E-03    -29.6658E-03     53.6928E-03    -24.0576E-03     13.5375E-03     65.9598E+06    -21.4265E+06    -50.9829E+06    -21.0226E+06     65.5559E+06    -50.9829E+06     5.55969E+06         42.5717
             941     12.6945E-03     15.7226E-03         1.70764         1.67119        -5.89364         1.69722        -5.89350         1.68147    -60.2152E-03     52.0697E-03    -23.6983E-03    -28.3907E-03    -28.2873E-03     51.9663E-03    -23.6983E-03     4.27959E-03     18.9267E+06    -23.1499E+06    -53.6997E+06    -19.8727E+06     15.6495E+06    -53.6997E+06     6.56003E+06         38.3104
             942     11.7217E-03     15.7065E-03         1.69914         1.66646        -5.88120         1.68709        -5.88095         1.67826    -85.1318E-03     50.9415E-03    -23.4701E-03    -27.5140E-03    -27.5047E-03     50.9322E-03    -23.4701E-03     70.0257E-06    -12.4809E+06    -33.1770E+06    -54.6644E+06    -17.0543E+06    -41.1007E+06    -42.1673E+06     6.20551E+06         34.8066
             943     10.7485E-03     15.6936E-03         1.71223         1.66956        -5.89080         1.70702        -5.89060         1.67458    -70.8541E-03     50.2329E-03    -23.1981E-03    -27.0881E-03    -27.0612E-03     50.2061E-03    -23.1981E-03    -2.01720E-03    -13.8565E+06    -35.9144E+06    -84.0337E+06    -14.2518E+06    -83.6384E+06    -35.9144E+06     4.85914E+06         32.0007
             944     9.77457E-03     15.6828E-03         1.71186         1.66944        -5.89116         1.71167        -5.89097         1.66944    -71.0765E-03     49.0316E-03    -22.9301E-03    -26.1003E-03    -26.0357E-03     48.9670E-03    -22.9301E-03    -3.81556E-03    -12.6082E+06    -26.1132E+06    -111.513E+06    -12.9484E+06    -111.173E+06    -26.1132E+06     5.71443E+06         29.6984
             945     8.79950E-03     15.6738E-03         1.69128         1.66460        -5.87051         1.69100        -5.87023         1.66460    -88.2421E-03     47.9487E-03    -22.6661E-03    -25.2706E-03    -25.1691E-03     47.8473E-03    -22.6661E-03    -5.03301E-03    -11.8663E+06    -20.7694E+06    -130.844E+06    -12.3276E+06    -130.383E+06    -20.7694E+06     7.18036E+06         27.7573
             946     7.82371E-03     15.6679E-03         1.67695         1.66055        -5.85373         1.67615        -5.85353         1.66115    -75.8873E-03     46.9968E-03    -22.4103E-03    -24.5901E-03    -24.4803E-03     46.8870E-03    -22.4103E-03    -5.29177E-03    -12.1107E+06    -18.3841E+06    -145.360E+06    -12.5525E+06    -144.918E+06    -18.3841E+06     7.22747E+06         26.1499
             947     6.84813E-03     15.6610E-03         1.66898         1.65447        -5.83862         1.66431        -5.83840         1.65892    -79.3093E-03     46.0144E-03    -22.1771E-03    -23.8401E-03    -23.7273E-03     45.9017E-03    -22.1771E-03    -5.36943E-03    -11.0022E+06    -14.8228E+06    -153.388E+06    -11.4084E+06    -152.982E+06    -14.8228E+06     7.30084E+06         24.8826
             948     5.87004E-03     15.6565E-03         1.66548         1.64633        -5.82604         1.65326        -5.82567         1.65818    -96.6067E-03     45.1690E-03    -21.9755E-03    -23.1970E-03    -23.0827E-03     45.0547E-03    -21.9755E-03    -5.35239E-03    -9.50135E+06    -12.5790E+06    -157.420E+06    -9.87223E+06    -157.049E+06    -12.5790E+06     7.26523E+06         23.9778
             949     4.89326E-03     15.6523E-03         1.66259         1.64496        -5.82411         1.64820        -5.82385         1.65909    -29.5753E-03     44.5758E-03    -21.7902E-03    -22.7848E-03    -22.6863E-03     44.4774E-03    -21.7902E-03    -4.99504E-03    -10.7529E+06    -12.5880E+06    -158.903E+06    -11.3162E+06    -158.603E+06    -12.3249E+06     6.25430E+06         23.4542
             950     3.91521E-03     15.6506E-03         1.66081         1.65245        -5.83062         1.65222        -5.83040         1.66081    -5.75390E-03     43.9538E-03    -21.6064E-03    -22.3453E-03    -22.2676E-03     43.8762E-03    -21.6064E-03    -4.40827E-03    -12.5110E+06    -13.1181E+06    -156.630E+06    -13.2361E+06    -156.363E+06    -12.6595E+06     5.75226E+06         23.2199
             951     2.93675E-03     15.6480E-03         1.66668         1.65734        -5.83407         1.66222        -5.83367         1.66140    -9.15106E-03     43.2444E-03    -21.4612E-03    -21.7832E-03    -21.7310E-03     43.1957E-03    -21.4646E-03    -3.35121E-03    -12.5519E+06    -13.3196E+06    -153.568E+06    -13.4603E+06    -153.371E+06    -12.6079E+06     4.93048E+06         23.0922
             952     1.95772E-03     15.6467E-03         1.67449         1.64928        -5.82311         1.66331        -5.82284         1.66018     9.65814E-03     42.8595E-03    -21.3730E-03    -21.4854E-03    -21.4368E-03     42.8362E-03    -21.3982E-03    -2.32491E-03    -11.8349E+06    -15.4127E+06    -152.994E+06    -15.4927E+06    -152.914E+06    -11.8349E+06     3.09139E+06         22.9980
             953     979.437E-06     15.6451E-03         1.90931         1.41023        -5.81267         1.41802        -5.81143         1.90027     115.967E-03     42.6863E-03    -21.1988E-03    -21.4877E-03    -21.3212E-03     42.6772E-03    -21.3561E-03    -1.44416E-03    -14.9606E+06    -18.9824E+06    -149.243E+06    -18.2801E+06    -149.200E+06    -15.7054E+06     66.5775E+03         22.9526
             954     16.5617E-03     15.3282E-03         1.71919         1.64322        -5.86569         1.71915        -5.86565         1.64322    -22.9946E-03     219.347E-03    -26.3369E-03    -193.065E-03    -64.1096E-03     90.3915E-03    -26.3369E-03     382.134E-03     180.389E+06     148.279E+06    -9.89415E+06    -9.85608E+06     180.351E+06     148.279E+06    -654.101E+03         54.1964
             955     15.6152E-03     14.8565E-03         1.68203         1.59513        -5.77645         1.68188        -5.77631         1.59513    -45.5171E-03     161.637E-03    -25.0684E-03    -136.623E-03    -56.0188E-03     81.0333E-03    -25.0684E-03     262.026E-03     152.827E+06     87.0036E+06    -16.4579E+06    -16.4084E+06     152.778E+06     87.0036E+06     1.15273E+06         50.9548
             956     14.6479E-03     14.7209E-03         1.66386         1.56596        -5.72416         1.66357        -5.72388         1.56596    -90.1381E-03     70.8547E-03    -23.8690E-03    -47.0155E-03    -33.7287E-03     57.5679E-03    -23.8690E-03     63.9870E-03     108.011E+06     12.5559E+06    -29.5656E+06    -21.2970E+06     107.608E+06     4.69087E+06     5.30304E+06         46.7776
             957     13.6808E-03     14.6885E-03         1.65604         1.55225        -5.70282         1.65585        -5.70264         1.55225    -70.3114E-03     53.3255E-03    -23.0359E-03    -30.3149E-03    -29.9374E-03     52.9481E-03    -23.0359E-03     9.27196E-03     66.7963E+06    -23.3847E+06    -52.7008E+06    -22.7673E+06     66.1789E+06    -52.7008E+06     6.98465E+06         42.1977
             958     12.7085E-03     14.6699E-03         1.63382         1.54236        -5.67411         1.63367        -5.67397         1.54236    -63.2639E-03     50.7952E-03    -22.5888E-03    -28.2209E-03    -28.2012E-03     50.7755E-03    -22.5888E-03     1.14759E-03     20.1849E+06    -22.1850E+06    -54.9055E+06    -19.3999E+06     17.3998E+06    -54.9055E+06     5.48138E+06         38.0018
             959     11.7358E-03     14.6548E-03         1.61863         1.53332        -5.64766         1.61830        -5.64733         1.53332    -94.9346E-03     49.7938E-03    -22.2833E-03    -27.5514E-03    -27.5234E-03     49.7657E-03    -22.2833E-03    -2.28806E-03    -11.7984E+06    -29.9896E+06    -53.9159E+06    -14.9559E+06    -39.4890E+06    -41.2591E+06     4.99992E+06         34.5584
             960     10.7625E-03     14.6430E-03         1.60663         1.52444        -5.62138         1.60638        -5.62112         1.52444    -77.2180E-03     48.7735E-03    -21.9194E-03    -26.8932E-03    -26.7967E-03     48.6771E-03    -21.9194E-03    -5.04251E-03    -12.3180E+06    -33.4276E+06    -82.4443E+06    -12.6868E+06    -82.0754E+06    -33.4276E+06     4.85111E+06         31.7988
             961     9.78862E-03     14.6339E-03         1.57582         1.51647        -5.58461         1.57569        -5.58448         1.51647    -57.0481E-03     47.3759E-03    -21.5566E-03    -25.8048E-03    -25.6225E-03     47.1936E-03    -21.5566E-03    -7.09930E-03    -10.8316E+06    -24.5517E+06    -113.033E+06    -11.2131E+06    -112.651E+06    -24.5517E+06     6.18621E+06         29.5207
             962     8.81271E-03     14.6273E-03         1.54979         1.51030        -5.55889         1.54954        -5.55865         1.51030    -82.1856E-03     45.9326E-03    -21.2075E-03    -24.6937E-03    -24.4515E-03     45.6904E-03    -21.2075E-03    -8.13999E-03    -8.95738E+06    -18.0145E+06    -130.680E+06    -9.43618E+06    -130.201E+06    -18.0145E+06     7.37420E+06         27.5849
             963     7.83649E-03     14.6207E-03         1.54370         1.50486        -5.54952         1.54350        -5.54932         1.50486    -72.4953E-03     44.7195E-03    -20.8728E-03    -23.8279E-03    -23.5630E-03     44.4547E-03    -20.8728E-03    -8.35286E-03    -7.84083E+06    -14.5815E+06    -143.790E+06    -8.28254E+06    -143.348E+06    -14.5815E+06     7.29480E+06         25.9723
             964     6.85861E-03     14.6166E-03         1.54514         1.49841        -5.54326         1.54499        -5.54311         1.49841    -59.3290E-03     43.4474E-03    -20.5636E-03    -22.8747E-03    -22.6056E-03     43.1783E-03    -20.5636E-03    -8.25984E-03    -8.45430E+06    -12.5507E+06    -152.860E+06    -8.89641E+06    -152.418E+06    -12.5507E+06     7.75042E+06         24.6918
             965     5.88106E-03     14.6123E-03         1.52465         1.49177        -5.51544         1.52454        -5.51533         1.49177    -50.9835E-03     42.2130E-03    -20.2957E-03    -21.9139E-03    -21.6638E-03     41.9629E-03    -20.2957E-03    -7.87023E-03    -8.89511E+06    -11.9467E+06    -155.623E+06    -9.38644E+06    -155.131E+06    -11.9467E+06     8.25335E+06         23.7616
             966     4.90116E-03     14.6097E-03         1.49564         1.47961        -5.48092         1.48639        -5.48085         1.48881    -27.1191E-03     41.3393E-03    -20.0688E-03    -21.2664E-03    -21.0603E-03     41.1331E-03    -20.0688E-03    -7.04094E-03    -8.90337E+06    -12.9215E+06    -156.748E+06    -9.33006E+06    -156.322E+06    -12.9215E+06     7.60724E+06         23.2083
             967     3.92187E-03     14.6074E-03         1.49276         1.48023        -5.48207         1.48328        -5.48186         1.48950    -45.8135E-03     40.7293E-03    -19.8677E-03    -20.8568E-03    -20.6924E-03     40.5648E-03    -19.8677E-03    -6.22266E-03    -8.50596E+06    -11.1960E+06    -153.523E+06    -9.46841E+06    -153.224E+06    -10.5320E+06     6.39406E+06         22.9607
             968     2.94229E-03     14.6070E-03         1.49829         1.48843        -5.48572         1.49787        -5.48539         1.48851    -29.0814E-03     39.9880E-03    -19.6782E-03    -20.3073E-03    -20.2014E-03     39.8821E-03    -19.6782E-03    -4.89313E-03    -7.25983E+06    -10.8303E+06    -149.496E+06    -11.0616E+06    -149.265E+06    -7.25983E+06     5.56186E+06         22.8336
             969     1.96191E-03     14.6053E-03         1.50026         1.47765        -5.46836         1.49295        -5.46812         1.48471    -25.4866E-03     39.2455E-03    -19.4898E-03    -19.7544E-03    -19.6704E-03     39.2006E-03    -19.5289E-03    -3.10596E-03    -8.23379E+06    -12.8487E+06    -149.092E+06    -12.9719E+06    -148.969E+06    -8.23379E+06     3.86930E+06         22.7358
             970     980.696E-06     14.6043E-03         1.66392         1.30151        -5.45175         1.31015        -5.45136         1.65489     22.5288E-03     38.8837E-03    -19.2890E-03    -19.5940E-03    -19.4058E-03     38.8703E-03    -19.4637E-03    -1.62396E-03    -14.5686E+06    -17.7256E+06    -149.148E+06    -17.0333E+06    -149.095E+06    -15.3134E+06     1.08991E+06         22.6804
             971     16.5910E-03     14.2514E-03         1.68816         1.52319        -5.69463         1.68805        -5.69452         1.52319    -38.1636E-03     215.350E-03    -25.4726E-03    -189.915E-03    -70.2652E-03     95.7009E-03    -25.4726E-03     368.451E-03     181.221E+06     150.131E+06    -6.09823E+06    -6.08582E+06     181.209E+06     150.131E+06     667.470E+03         53.7060
             972     15.6330E-03     13.7997E-03         1.65694         1.47128        -5.59969         1.65681        -5.59957         1.47128    -40.6018E-03     156.127E-03    -24.0019E-03    -132.179E-03    -52.3953E-03     76.3432E-03    -24.0019E-03     254.313E-03     151.008E+06     86.3563E+06    -15.5785E+06    -15.3411E+06     150.770E+06     86.3563E+06     2.56132E+06         50.4562
             973     14.6665E-03     13.6622E-03         1.61093         1.43758        -5.52456         1.61070        -5.52433         1.43758    -73.0977E-03     68.9642E-03    -22.8258E-03    -46.1735E-03    -33.5616E-03     56.3523E-03    -22.8258E-03     60.6557E-03     105.614E+06     8.76371E+06    -29.9549E+06    -24.8288E+06     105.064E+06     4.18734E+06     6.41179E+06         46.2864
             974     13.6946E-03     13.6353E-03         1.58180         1.41975        -5.47512         1.58166        -5.47498         1.41975    -54.5452E-03     51.5664E-03    -21.9504E-03    -29.6381E-03    -29.4420E-03     51.3703E-03    -21.9504E-03     5.90279E-03     70.4350E+06    -23.1244E+06    -48.6631E+06    -23.0398E+06     70.0519E+06    -48.3644E+06     5.03316E+06         41.7611
             975     12.7234E-03     13.6176E-03         1.57157         1.40524        -5.45032         1.57148        -5.45024         1.40524    -46.2517E-03     49.6926E-03    -21.4258E-03    -28.2772E-03    -28.2623E-03     49.6777E-03    -21.4258E-03    -836.651E-06     21.4848E+06    -20.6844E+06    -53.3600E+06    -18.2800E+06     19.0804E+06    -53.3600E+06     3.42406E+06         37.6374
             976     11.7511E-03     13.6047E-03         1.54124         1.39087        -5.40985         1.54093        -5.40955         1.39087    -83.7843E-03     48.5562E-03    -21.0158E-03    -27.5749E-03    -27.5141E-03     48.4953E-03    -21.0158E-03    -3.90793E-03    -13.3152E+06    -29.9000E+06    -53.0674E+06    -15.2421E+06    -39.1286E+06    -41.9119E+06     4.23962E+06         34.2590
             977     10.7777E-03     13.5936E-03         1.48840         1.37831        -5.34554         1.48806        -5.34519         1.37831    -90.8857E-03     47.2206E-03    -20.5622E-03    -26.6909E-03    -26.5099E-03     47.0396E-03    -20.5622E-03    -7.06499E-03    -12.6299E+06    -32.3610E+06    -82.7667E+06    -13.0334E+06    -82.3633E+06    -32.3610E+06     5.11869E+06         31.5508
             978     9.80286E-03     13.5874E-03         1.45031         1.36829        -5.30025         1.44991        -5.29985         1.36829    -93.0692E-03     45.6752E-03    -20.0917E-03    -25.5680E-03    -25.2705E-03     45.3776E-03    -20.0917E-03    -9.12318E-03    -11.3423E+06    -24.6078E+06    -112.875E+06    -11.6938E+06    -112.523E+06    -24.6078E+06     5.71153E+06         29.3084
             979     8.82752E-03     13.5819E-03         1.43263         1.35946        -5.27249         1.43218        -5.27205         1.35946    -103.529E-03     44.0187E-03    -19.6146E-03    -24.3630E-03    -23.9889E-03     43.6446E-03    -19.6146E-03    -10.0292E-03    -9.31388E+06    -18.7908E+06    -129.216E+06    -9.62493E+06    -128.905E+06    -18.7908E+06     5.80667E+06         27.3918
             980     7.84987E-03     13.5780E-03         1.42197         1.35039        -5.24643         1.42172        -5.24617         1.35039    -77.1057E-03     42.2790E-03    -19.1819E-03    -23.0696E-03    -22.6500E-03     41.8595E-03    -19.1819E-03    -10.3921E-03    -6.82582E+06    -12.7560E+06    -144.323E+06    -7.22192E+06    -143.926E+06    -12.7560E+06     7.19743E+06         25.7841
             981     6.87189E-03     13.5739E-03         1.41321         1.34030        -5.22372         1.41293        -5.22344         1.34030    -73.9630E-03     40.6572E-03    -18.7883E-03    -21.8588E-03    -21.4176E-03     40.2160E-03    -18.7883E-03    -10.4072E-03    -6.10854E+06    -9.32323E+06    -151.916E+06    -6.67369E+06    -151.351E+06    -9.32323E+06     8.91063E+06         24.4962
             982     5.89161E-03     13.5727E-03         1.37820         1.33085        -5.18727         1.37795        -5.18703         1.33085    -69.7239E-03     39.1986E-03    -18.4341E-03    -20.7547E-03    -20.3450E-03     38.7889E-03    -18.4341E-03    -9.79798E-03    -6.94334E+06    -8.39738E+06    -154.297E+06    -7.57242E+06    -153.668E+06    -8.39738E+06     9.47507E+06         23.5441
             983     4.91150E-03     13.5702E-03         1.35144         1.31753        -5.15344         1.34410        -5.15329         1.32472    -59.5888E-03     37.9077E-03    -18.1239E-03    -19.7757E-03    -19.4296E-03     37.5616E-03    -18.1239E-03    -8.83239E-03    -6.85689E+06    -9.82642E+06    -154.176E+06    -7.33685E+06    -153.696E+06    -9.82642E+06     8.16485E+06         22.9571
             984     3.92995E-03     13.5690E-03         1.34631         1.31305        -5.14522         1.33901        -5.14511         1.32024    -48.7809E-03     36.8653E-03    -17.8805E-03    -18.9815E-03    -18.7082E-03     36.5920E-03    -17.8805E-03    -7.70254E-03    -5.25695E+06    -9.28156E+06    -150.230E+06    -6.02923E+06    -149.927E+06    -8.81306E+06     6.51374E+06         22.6814
             985     2.94802E-03     13.5683E-03         1.32858         1.31260        -5.12570         1.32445        -5.12543         1.31646     32.4631E-03     36.1153E-03    -17.7055E-03    -18.4092E-03    -18.2423E-03     35.9484E-03    -17.7055E-03    -5.90041E-03    -665.467E+03    -7.38912E+06    -146.136E+06    -6.24096E+06    -145.924E+06    -2.02584E+06     5.21466E+06         22.5440
             986     1.96589E-03     13.5683E-03         1.32229         1.29614        -5.09918         1.29701        -5.09882         1.32105     12.0004E-03     35.3927E-03    -17.5059E-03    -17.8875E-03    -17.7733E-03     35.3176E-03    -17.5450E-03    -3.81832E-03     1.68264E+06    -8.57056E+06    -144.718E+06    -8.69708E+06    -144.592E+06     1.68264E+06     3.91795E+06         22.4433
             987     983.016E-06     13.5677E-03         1.47326         1.18076        -5.15050         1.18057        -5.15031         1.47326    -20.0702E-03     34.8128E-03    -17.3043E-03    -17.5086E-03    -17.4500E-03     34.7934E-03    -17.3434E-03    -1.64493E-03    -7.08640E+06    -15.3444E+06    -147.694E+06    -13.3171E+06    -147.526E+06    -9.28221E+06     4.29887E+06         22.3822
             988     16.6186E-03     13.2136E-03         1.66994         1.40531        -5.53248         1.66984        -5.53238         1.40531    -39.0290E-03     211.318E-03    -24.7311E-03    -186.598E-03    -76.0688E-03     100.789E-03    -24.7311E-03     354.236E-03     179.360E+06     148.611E+06    -9.19471E+06    -8.96043E+06     179.126E+06     148.611E+06     1.26335E+06         53.1368
             989     15.6442E-03     12.7339E-03         1.63326         1.35022        -5.43668         1.63321        -5.43663         1.35022    -29.7953E-03     158.825E-03    -23.0688E-03    -135.791E-03    -53.9819E-03     77.0163E-03    -23.0688E-03     259.490E-03     149.950E+06     89.2498E+06    -17.6548E+06    -17.2480E+06     149.543E+06     89.2498E+06     6.46386E+06         49.8836
             990     14.6804E-03     12.6098E-03         1.57110         1.31156        -5.33927         1.57104        -5.33921         1.31156    -38.3793E-03     66.7418E-03    -21.8513E-03    -44.9287E-03    -33.5115E-03     55.3246E-03    -21.8513E-03     57.8867E-03     108.203E+06     14.3607E+06    -27.2713E+06    -23.0171E+06     107.895E+06     10.4147E+06     3.49451E+06         45.7274
             991     13.7106E-03     12.5814E-03         1.51982         1.28903        -5.26536         1.51969        -5.26523         1.28903    -49.1575E-03     50.1548E-03    -20.9162E-03    -29.2605E-03    -29.0204E-03     49.9147E-03    -20.9162E-03     5.78145E-03     72.0860E+06    -18.8391E+06    -43.2470E+06    -18.9888E+06     71.9369E+06    -42.9483E+06     1.38084E+06         41.2656
             992     12.7387E-03     12.5684E-03         1.49370         1.27019        -5.22133         1.49357        -5.22120         1.27019    -49.9454E-03     48.5385E-03    -20.3279E-03    -28.2164E-03    -28.2089E-03     48.5309E-03    -20.3279E-03    -715.290E-06     21.0804E+06    -18.4505E+06    -49.1374E+06    -16.4183E+06     19.0481E+06    -49.1374E+06     3.39544E+06         37.2242
             993     11.7656E-03     12.5543E-03         1.43782         1.25245        -5.15232         1.43765        -5.15215         1.25245    -51.8190E-03     47.4386E-03    -19.8244E-03    -27.6413E-03    -27.5599E-03     47.3572E-03    -19.8244E-03    -3.66835E-03    -12.5193E+06    -28.2265E+06    -51.7347E+06    -14.5034E+06    -39.2270E+06    -38.7502E+06     4.36021E+06         33.9244
             994     10.7923E-03     12.5475E-03         1.37355         1.23758        -5.07648         1.37330        -5.07624         1.23758    -69.5576E-03     45.9244E-03    -19.2733E-03    -26.6790E-03    -26.4578E-03     45.7032E-03    -19.2733E-03    -7.87475E-03    -12.8233E+06    -28.4721E+06    -82.8333E+06    -13.2988E+06    -82.3578E+06    -28.4721E+06     5.59533E+06         31.2821
             995     9.81737E-03     12.5420E-03         1.34477         1.22482        -5.04271         1.34440        -5.04234         1.22482    -88.2833E-03     44.1072E-03    -18.6785E-03    -25.4174E-03    -25.0515E-03     43.7413E-03    -18.6785E-03    -9.98078E-03    -11.4205E+06    -21.7447E+06    -110.975E+06    -11.6858E+06    -110.710E+06    -21.7447E+06     4.80799E+06         29.0814
             996     8.84093E-03     12.5390E-03         1.32934         1.21197        -5.01641         1.32898        -5.01605         1.21197    -74.0105E-03     42.2491E-03    -18.0643E-03    -24.1530E-03    -23.6591E-03     41.7553E-03    -18.0643E-03    -11.3575E-03    -9.46807E+06    -18.0310E+06    -129.475E+06    -9.65082E+06    -129.292E+06    -18.0310E+06     4.51726E+06         27.1897
             997     7.86384E-03     12.5370E-03         1.29590         1.19924        -4.96686         1.29566        -4.96663         1.19924    -61.1585E-03     40.0906E-03    -17.5096E-03    -22.5580E-03    -21.9904E-03     39.5230E-03    -17.5096E-03    -11.8226E-03    -8.21142E+06    -10.9588E+06    -145.777E+06    -8.56683E+06    -145.422E+06    -10.9588E+06     6.79228E+06         25.5964
             998     6.88391E-03     12.5361E-03         1.25053         1.18870        -4.90743         1.25023        -4.90714         1.18870    -74.5512E-03     38.0067E-03    -16.9940E-03    -21.0022E-03    -20.4095E-03     37.4140E-03    -16.9940E-03    -11.7268E-03    -6.31146E+06    -8.34935E+06    -152.006E+06    -7.72239E+06    -151.492E+06    -7.45235E+06     8.43134E+06         24.3090
             999     5.90363E-03     12.5352E-03         1.23423         1.17971        -4.87617         1.23390        -4.87584         1.17971    -79.1651E-03     36.2122E-03    -16.5320E-03    -19.6701E-03    -19.1106E-03     35.6526E-03    -16.5320E-03    -11.0868E-03    -3.61200E+06    -5.98090E+06    -151.662E+06    -6.11601E+06    -151.138E+06    -4.00168E+06     8.59225E+06         23.3416
            1000     4.92167E-03     12.5344E-03         1.23858         1.16815        -4.86925         1.23836        -4.86904         1.16815    -59.9281E-03     34.4384E-03    -16.1257E-03    -18.3059E-03    -17.8284E-03     33.9609E-03    -16.1257E-03    -9.94784E-03    -3.41313E+06    -5.57935E+06    -150.303E+06    -4.89534E+06    -149.903E+06    -4.49712E+06     7.53796E+06         22.7204
            1001     3.93851E-03     12.5349E-03         1.20089         1.15276        -4.81622         1.19760        -4.81611         1.15594    -42.4571E-03     32.9194E-03    -15.8243E-03    -17.0927E-03    -16.7315E-03     32.5582E-03    -15.8243E-03    -8.40760E-03    -2.64308E+06    -6.00081E+06    -147.452E+06    -3.95535E+06    -147.208E+06    -4.93167E+06     5.77121E+06         22.4052
            1002     2.95415E-03     12.5347E-03         1.15865         1.14195        -4.76355         1.14939        -4.76336         1.15102    -4.26330E-03     31.9677E-03    -15.6450E-03    -16.3215E-03    -16.0923E-03     31.7385E-03    -15.6450E-03    -6.54987E-03     1.62424E+06    -3.81436E+06    -143.884E+06    -2.58070E+06    -143.757E+06     263.868E+03     4.14603E+06         22.2479
            1003     1.96967E-03     12.5351E-03         1.17915         1.12886        -4.78058         1.15898        -4.78030         1.14876    -19.4459E-03     31.3750E-03    -15.4907E-03    -15.8835E-03    -15.7698E-03     31.2612E-03    -15.4907E-03    -4.44721E-03     4.20929E+06    -4.83464E+06    -142.269E+06    -4.92769E+06    -142.176E+06     4.20929E+06     2.95034E+06         22.1453
            1004     985.348E-06     12.5353E-03         1.25615         1.03695        -4.77503         1.06654        -4.77422         1.22575     19.0507E-03     30.7118E-03    -15.2563E-03    -15.4558E-03    -15.3947E-03     30.6825E-03    -15.2882E-03    -1.75951E-03     1.22939E+06    -9.94159E+06    -140.094E+06    -7.90504E+06    -139.934E+06    -966.420E+03     3.66171E+06         22.0854
            1005     16.5973E-03     12.1299E-03         1.64397         1.28879        -5.36789         1.64394        -5.36786         1.28879    -31.2485E-03     204.312E-03    -24.5534E-03    -179.753E-03    -79.9797E-03     104.539E-03    -24.5534E-03     335.442E-03     175.258E+06     146.420E+06    -14.1874E+06    -13.9089E+06     174.979E+06     146.420E+06     612.855E+03         52.4717
            1006     15.6604E-03     11.6705E-03         1.58649         1.23228        -5.25911         1.58646        -5.25907         1.23228    -30.0822E-03     157.240E-03    -22.5062E-03    -134.757E-03    -60.6362E-03     83.1197E-03    -22.5062E-03     250.296E-03     149.904E+06     92.2907E+06    -19.4081E+06    -19.2080E+06     149.704E+06     92.2907E+06     2.35895E+06         49.2296
            1007     14.6940E-03     11.5568E-03         1.52989         1.19078        -5.15722         1.52976        -5.15709         1.19078    -50.3285E-03     64.1360E-03    -21.0340E-03    -43.1378E-03    -32.9895E-03     53.9877E-03    -21.0340E-03     55.3190E-03     111.427E+06     20.1663E+06    -22.6375E+06    -17.4361E+06     111.333E+06     15.0588E+06     881.562E+03         45.1061
            1008     13.7219E-03     11.5301E-03         1.47147         1.16368        -5.07740         1.47114        -5.07707         1.16368    -87.0145E-03     49.1723E-03    -20.0724E-03    -29.1188E-03    -28.7094E-03     48.7629E-03    -20.0724E-03     8.44059E-03     70.6205E+06    -18.3529E+06    -41.2367E+06    -18.1821E+06     70.4497E+06    -41.2367E+06     975.417E+03         40.7161
            1009     12.7498E-03     11.5193E-03         1.40157         1.14104        -4.99064         1.40125        -4.99032         1.14104    -84.8658E-03     47.8717E-03    -19.4432E-03    -28.4421E-03    -28.4305E-03     47.8600E-03    -19.4432E-03     1.50874E-03     20.5684E+06    -18.7553E+06    -44.2326E+06    -16.4705E+06     18.2836E+06    -44.2326E+06     3.02301E+06         36.7688
            1010     11.7777E-03     11.5059E-03         1.34333         1.12068        -4.91454         1.34310        -4.91431         1.12068    -64.1594E-03     46.7505E-03    -18.8457E-03    -27.9362E-03    -27.8656E-03     46.6799E-03    -18.8457E-03    -2.04952E-03    -11.1713E+06    -25.1935E+06    -48.5840E+06    -13.4623E+06    -38.5919E+06    -32.8945E+06     4.01291E+06         33.5608
            1011     10.8046E-03     11.5016E-03         1.29813         1.10187        -4.85017         1.29792        -4.84996         1.10187    -63.5216E-03     45.1931E-03    -18.1733E-03    -27.0483E-03    -26.8548E-03     44.9996E-03    -18.1733E-03    -7.29516E-03    -10.5729E+06    -22.6277E+06    -82.1698E+06    -10.9048E+06    -81.8380E+06    -22.6277E+06     4.38830E+06         30.9973
            1012     9.83006E-03     11.4986E-03         1.25177         1.08439        -4.78349         1.25138        -4.78310         1.08439    -86.2347E-03     43.1728E-03    -17.4436E-03    -25.7144E-03    -25.3421E-03     42.8004E-03    -17.4436E-03    -9.95731E-03    -8.62391E+06    -14.5704E+06    -109.573E+06    -9.14427E+06    -109.330E+06    -14.2937E+06     4.81389E+06         28.8498
            1013     8.85423E-03     11.4978E-03         1.21263         1.06804        -4.72986         1.21221        -4.72944         1.06804    -76.2038E-03     40.7967E-03    -16.6874E-03    -24.0768E-03    -23.5060E-03     40.2258E-03    -16.6874E-03    -12.0581E-03    -8.55169E+06    -12.7430E+06    -130.145E+06    -9.43644E+06    -129.939E+06    -12.0636E+06     4.85915E+06         26.9930
            1014     7.87580E-03     11.4986E-03         1.16748         1.05307        -4.67531         1.16732        -4.67515         1.05307    -39.4022E-03     38.2450E-03    -15.9937E-03    -22.2325E-03    -21.5412E-03     37.5536E-03    -15.9937E-03    -12.8363E-03    -6.11189E+06    -10.4668E+06    -146.878E+06    -10.2913E+06    -146.602E+06    -6.56397E+06     5.85009E+06         25.4238
            1015     6.89629E-03     11.5003E-03         1.12080         1.04045        -4.61779         1.12075        -4.61775         1.04045    -13.1855E-03     35.6855E-03    -15.3453E-03    -20.3323E-03    -19.6287E-03     34.9819E-03    -15.3453E-03    -12.4673E-03    -2.29036E+06    -9.23696E+06    -150.960E+06    -9.28976E+06    -150.623E+06    -2.57399E+06     6.69764E+06         24.1460
            1016     5.91441E-03     11.5008E-03         1.10097         1.02899        -4.58790         1.10080        -4.58773         1.02899    -38.0731E-03     33.2577E-03    -14.7672E-03    -18.4842E-03    -17.8219E-03     32.5953E-03    -14.7672E-03    -11.6193E-03    -953.012E+03    -6.97411E+06    -149.519E+06    -7.26270E+06    -149.230E+06    -953.012E+03     5.84530E+06         23.1708
            1017     4.93102E-03     11.5033E-03         1.08438         1.01650        -4.55534         1.08422        -4.55518         1.01650    -40.1872E-03     31.1382E-03    -14.2880E-03    -16.8475E-03    -16.2874E-03     30.5780E-03    -14.2880E-03    -10.2805E-03    -283.587E+03    -4.97965E+06    -147.009E+06    -4.52108E+06    -146.802E+06    -949.579E+03     4.83514E+06         22.5185
            1018     3.94606E-03     11.5041E-03         1.04353         1.00245        -4.49713         1.04031        -4.49709         1.00563    -17.1463E-03     29.4817E-03    -13.9196E-03    -15.5608E-03    -15.1466E-03     29.0675E-03    -13.9196E-03    -8.57194E-03     342.731E+03    -2.95910E+06    -144.677E+06    -2.42399E+06    -144.546E+06    -323.261E+03     4.23136E+06         22.1613
            1019     2.96061E-03     11.5057E-03         1.01999     993.588E-03        -4.46826         1.01473        -4.46822     998.808E-03    -19.2640E-03     28.1928E-03    -13.6586E-03    -14.5324E-03    -14.2655E-03     27.9260E-03    -13.6586E-03    -6.64979E-03     1.80379E+06    -764.097E+03    -142.572E+06    -842.902E+03    -142.493E+06     1.80379E+06     2.97441E+06         21.9797
            1020     1.97390E-03     11.5061E-03         1.02934     984.012E-03        -4.47160         1.02690        -4.47121     986.055E-03    -60.8032E-03     27.3575E-03    -13.4731E-03    -13.8824E-03    -13.7500E-03     27.2251E-03    -13.4731E-03    -4.57448E-03     4.79903E+06    -70.5341E+03    -138.882E+06    -103.776E+03    -138.849E+06     4.79903E+06     1.44797E+06         21.8718
            1021     986.988E-06     11.5066E-03         1.04432     908.727E-03        -4.41616     938.260E-03        -4.41490         1.01352     31.6757E-03     26.7325E-03    -13.2413E-03    -13.4910E-03    -13.3481E-03     26.6897E-03    -13.3414E-03    -2.15237E-03     2.77496E+06    -6.01404E+06    -136.156E+06    -3.98046E+06    -136.107E+06     691.997E+03    -154.679E+03         21.8143
            1022     16.6068E-03     11.0225E-03         1.60195         1.17529        -5.20270         1.60191        -5.20266         1.17529    -31.8506E-03     198.264E-03    -24.4866E-03    -173.789E-03    -83.3733E-03     107.849E-03    -24.4866E-03     318.756E-03     175.580E+06     148.658E+06    -10.9436E+06    -10.8742E+06     175.511E+06     148.658E+06     411.553E+03         51.7374
            1023     15.6654E-03     10.6033E-03         1.52303         1.11926        -5.06507         1.52294        -5.06498         1.11926    -42.6227E-03     146.560E-03    -22.1036E-03    -124.499E-03    -62.1211E-03     84.1824E-03    -22.1036E-03     225.521E-03     148.271E+06     92.2416E+06    -15.3945E+06    -15.3464E+06     148.223E+06     92.2416E+06    -93.6447E+03         48.5119
            1024     14.7016E-03     10.5067E-03         1.47081         1.07739        -4.96631         1.47046        -4.96596         1.07739    -84.8266E-03     62.0614E-03    -20.4956E-03    -41.5996E-03    -32.0648E-03     52.5266E-03    -20.4956E-03     54.3238E-03     110.587E+06     17.7481E+06    -21.6508E+06    -18.5697E+06     110.544E+06     14.7095E+06     1.07319E+06         44.4288
            1025     13.7291E-03     10.4799E-03         1.41183         1.04723        -4.87485         1.41130        -4.87431         1.04723    -114.585E-03     49.2837E-03    -19.5295E-03    -29.7703E-03    -29.0573E-03     48.5707E-03    -19.5295E-03     12.2475E-03     70.5543E+06    -18.7621E+06    -38.5654E+06    -18.6323E+06     70.4244E+06    -38.5654E+06     1.74718E+06         40.1208
            1026     12.7581E-03     10.4694E-03         1.32708         1.02115        -4.77396         1.32661        -4.77349         1.02115    -107.115E-03     47.9275E-03    -18.8164E-03    -29.1280E-03    -29.0774E-03     47.8769E-03    -18.8164E-03     3.75522E-03     19.5012E+06    -18.0934E+06    -42.5130E+06    -16.5371E+06     17.9449E+06    -42.5130E+06     1.91203E+06         36.2823
            1027     11.7862E-03     10.4589E-03         1.27247     997.202E-03        -4.70461         1.27203        -4.70416     997.202E-03    -102.657E-03     46.7135E-03    -18.1220E-03    -28.6330E-03    -28.5744E-03     46.6549E-03    -18.1220E-03    -396.189E-06    -10.9530E+06    -21.9418E+06    -47.9456E+06    -13.8006E+06    -37.4431E+06    -29.5967E+06     2.32293E+06         33.1777
            1028     10.8134E-03     10.4554E-03         1.23527     973.617E-03        -4.64323         1.23498        -4.64293     973.617E-03    -76.2987E-03     45.0502E-03    -17.3326E-03    -27.7472E-03    -27.5728E-03     44.8759E-03    -17.3326E-03    -6.69433E-03    -9.27743E+06    -19.9275E+06    -81.8872E+06    -11.5773E+06    -81.7568E+06    -17.7580E+06     2.78333E+06         30.7032
            1029     9.84020E-03     10.4556E-03         1.16728     951.174E-03        -4.55131         1.16683        -4.55085     951.174E-03    -89.7328E-03     42.5685E-03    -16.4748E-03    -26.0629E-03    -25.6948E-03     42.2004E-03    -16.4748E-03    -9.91715E-03    -6.28765E+06    -12.3183E+06    -109.710E+06    -10.7342E+06    -109.555E+06    -8.02630E+06     3.71761E+06         28.6242
            1030     8.86425E-03     10.4580E-03         1.09821     931.627E-03        -4.46108         1.09771        -4.46058     931.627E-03    -92.3159E-03     39.6820E-03    -15.6066E-03    -24.0302E-03    -23.4735E-03     39.1254E-03    -15.6066E-03    -11.7839E-03    -3.35260E+06    -9.65517E+06    -130.233E+06    -9.87557E+06    -130.012E+06    -3.35260E+06     5.04890E+06         26.8172
            1031     7.88654E-03     10.4620E-03         1.05497     914.226E-03        -4.40502         1.05479        -4.40484     914.226E-03    -48.0014E-03     36.7844E-03    -14.7844E-03    -21.9732E-03    -21.2888E-03     36.1000E-03    -14.7844E-03    -12.5916E-03     1.34396E+06    -8.76475E+06    -145.509E+06    -8.93168E+06    -145.342E+06     1.34396E+06     4.52100E+06         25.2827
            1032     6.90595E-03     10.4661E-03         1.01714     897.575E-03        -4.36214         1.01699        -4.36200     897.575E-03    -33.7016E-03     33.6858E-03    -14.0162E-03    -19.6603E-03    -18.9543E-03     32.9799E-03    -14.0162E-03    -12.1874E-03     3.31844E+06    -7.21854E+06    -149.403E+06    -7.35440E+06    -149.267E+06     3.31844E+06     3.01366E+06         24.0247
            1033     5.92337E-03     10.4707E-03     957.963E-03     883.502E-03        -4.29413     957.462E-03        -4.29363     883.502E-03    -73.0573E-03     30.8066E-03    -13.3499E-03    -17.4549E-03    -16.7864E-03     30.1382E-03    -13.3499E-03    -11.2798E-03     2.87054E+06    -4.39162E+06    -148.646E+06    -4.49229E+06    -148.545E+06     2.87054E+06     1.98775E+06         23.0514
            1034     4.93844E-03     10.4744E-03     909.099E-03     874.446E-03        -4.23350     908.681E-03        -4.23308     874.446E-03    -62.6885E-03     28.4954E-03    -12.8126E-03    -15.6804E-03    -15.1299E-03     27.9449E-03    -12.8126E-03    -9.78256E-03     3.96196E+06    -1.85747E+06    -145.280E+06    -1.89494E+06    -145.242E+06     3.96196E+06     1.35789E+06         22.3772
            1035     3.95276E-03     10.4777E-03     908.509E-03     866.170E-03        -4.22612     908.479E-03        -4.22609     866.170E-03    -20.1363E-03     26.6524E-03    -12.3701E-03    -14.2813E-03    -13.8754E-03     26.2465E-03    -12.3701E-03    -8.10010E-03     4.22730E+06    -522.168E+03    -143.625E+06     608.416E+03    -143.566E+06     3.03838E+06     896.736E+03         21.9835
            1036     2.96534E-03     10.4801E-03     907.125E-03     852.054E-03        -4.20864     907.090E-03        -4.20861     852.054E-03    -10.0464E-03     25.1467E-03    -12.0416E-03    -13.1050E-03    -12.8532E-03     24.8948E-03    -12.0416E-03    -6.08475E-03     7.22492E+06     2.33826E+06    -139.824E+06     3.49817E+06    -139.795E+06     6.03600E+06     564.686E+03         21.7766
            1037     1.97758E-03     10.4813E-03     865.588E-03     827.627E-03        -4.14179     853.083E-03        -4.14145     839.789E-03    -39.7154E-03     24.0602E-03    -11.8195E-03    -12.2396E-03    -12.1259E-03     23.9465E-03    -11.8195E-03    -3.98016E-03     9.85525E+06     3.09582E+06    -136.938E+06     3.08862E+06    -136.931E+06     9.85525E+06     884.511E+03         21.6606
            1038     989.109E-06     10.4823E-03     887.107E-03     787.603E-03        -4.13445     786.466E-03        -4.13291     886.706E-03     56.3739E-03     23.3789E-03    -11.5486E-03    -11.8303E-03    -11.7241E-03     23.3409E-03    -11.6168E-03    -1.96870E-03     3.33466E+06    -3.08368E+06    -137.580E+06    -1.15065E+06     -137.43E+06     1.25170E+06     1.30796E+06         21.6032
            1039     16.6038E-03     9.89331E-03         1.58183         1.06924        -5.05575         1.58173        -5.05564         1.06924    -45.5823E-03     195.048E-03    -24.3416E-03    -170.751E-03    -83.9446E-03     108.242E-03    -24.3416E-03     311.149E-03     175.182E+06     149.637E+06    -8.90564E+06    -8.85511E+06     175.132E+06     149.637E+06     282.388E+03         50.9496
            1040     15.6752E-03     9.54526E-03         1.49279         1.01344        -4.90244         1.49258        -4.90223         1.01344    -69.3312E-03     132.957E-03    -21.9098E-03    -111.115E-03    -58.2292E-03     80.0710E-03    -21.9098E-03     199.510E-03     148.245E+06     92.3707E+06    -14.8662E+06    -14.8080E+06     148.187E+06     92.3707E+06     865.445E+03         47.7356
            1041     14.7023E-03     9.45552E-03         1.41724     970.763E-03        -4.78654         1.41692        -4.78622     970.763E-03    -81.5961E-03     62.4544E-03    -20.3206E-03    -42.1703E-03    -32.0892E-03     52.3732E-03    -20.3206E-03     55.9934E-03     109.684E+06     17.3874E+06    -22.0378E+06    -20.1241E+06     109.647E+06     15.5104E+06     1.46247E+06         43.6967
            1042     13.7328E-03     9.42862E-03         1.34429     937.918E-03        -4.68588         1.34395        -4.68554     937.918E-03    -70.8195E-03     50.4644E-03    -19.3041E-03    -31.1803E-03    -30.2626E-03     49.5467E-03    -19.3041E-03     15.2682E-03     70.3634E+06    -20.9799E+06    -37.6258E+06    -21.5311E+06     70.2654E+06    -36.9766E+06     1.79754E+06         39.4891
            1043     12.7622E-03     9.42003E-03         1.27417     908.304E-03        -4.58913         1.27391        -4.58886     908.304E-03    -59.9817E-03     48.4776E-03    -18.4994E-03    -29.9850E-03    -29.8244E-03     48.3169E-03    -18.4994E-03     6.85602E-03     19.2588E+06    -20.1169E+06    -40.1647E+06    -19.8652E+06     19.0071E+06    -40.1647E+06     1.27501E+06         35.7813
            1044     11.7914E-03     9.41090E-03         1.20964     880.069E-03        -4.50334         1.20920        -4.50290     880.069E-03    -91.3481E-03     47.3950E-03    -17.7145E-03    -29.7189E-03    -29.6231E-03     47.2992E-03    -17.7145E-03     1.83169E-03    -14.8928E+06    -20.7334E+06    -46.7358E+06    -18.3056E+06    -37.5904E+06    -26.4661E+06     585.011E+03         32.7967
            1045     10.8208E-03     9.40906E-03         1.15287     852.845E-03        -4.42838         1.15254        -4.42805     852.845E-03    -55.4186E-03     44.9912E-03    -16.8218E-03    -28.1952E-03    -28.0692E-03     44.8652E-03    -16.8218E-03    -5.36280E-03    -11.0356E+06    -18.2850E+06    -81.5951E+06    -16.0389E+06    -81.5111E+06    -13.3657E+06     1.05622E+06         30.4242
            1046     9.84697E-03     9.41358E-03         1.08540     826.963E-03        -4.33667         1.08514        -4.33641     826.963E-03    -47.2519E-03     41.9081E-03    -15.8856E-03    -25.9860E-03    -25.6980E-03     41.6201E-03    -15.8856E-03    -8.60292E-03    -2.44928E+06    -12.8969E+06    -109.317E+06    -12.9566E+06    -109.257E+06    -2.44928E+06     488.627E+03         28.4255
            1047     8.87084E-03     9.41906E-03         1.00032     804.057E-03        -4.23208         1.00001        -4.23178     804.057E-03    -70.4173E-03     38.7650E-03    -14.9554E-03    -23.7590E-03    -23.3403E-03     38.3463E-03    -14.9554E-03    -10.0766E-03     2.12335E+06    -8.47290E+06    -130.579E+06    -8.60329E+06    -130.449E+06     2.12335E+06     273.117E+03         26.6794
            1048     7.89252E-03     9.42646E-03     934.484E-03     784.840E-03        -4.15286     934.091E-03        -4.15247     784.840E-03    -73.5686E-03     35.6401E-03    -14.0750E-03    -21.5261E-03    -21.0101E-03     35.1241E-03    -14.0750E-03    -10.7238E-03     7.70093E+06    -3.92339E+06    -144.075E+06    -4.01541E+06    -143.983E+06     7.70093E+06     1.08990E+06         25.1905
            1049     6.91212E-03     9.43476E-03     889.544E-03     767.876E-03        -4.09376     889.136E-03        -4.09335     767.876E-03    -71.3957E-03     32.3911E-03    -13.2546E-03    -19.1225E-03    -18.5785E-03     31.8471E-03    -13.2546E-03    -10.4567E-03     10.3465E+06    -1.81596E+06    -146.896E+06    -1.85011E+06    -146.862E+06     10.3465E+06    -445.240E+03         23.9637
            1050     5.92865E-03     9.44202E-03     833.865E-03     753.502E-03        -4.02292     833.401E-03        -4.02245     753.502E-03    -70.0711E-03     29.3801E-03    -12.5206E-03    -16.8585E-03    -16.3590E-03     28.8807E-03    -12.5206E-03    -9.47116E-03     7.22913E+06    -1.55393E+06    -148.001E+06    -1.59027E+06    -147.964E+06     7.22913E+06    -1.63157E+06         23.0051
            1051     4.94372E-03     9.44837E-03     790.605E-03     742.919E-03        -3.96886     790.177E-03        -3.96843     742.919E-03    -70.0727E-03     26.8352E-03    -11.9135E-03    -14.9190E-03    -14.5113E-03     26.4276E-03    -11.9135E-03    -8.13789E-03     6.01981E+06    -706.106E+03    -145.220E+06    -755.637E+03    -145.171E+06     6.01981E+06    -1.78610E+06         22.3239
            1052     3.95654E-03     9.45275E-03     786.767E-03     732.035E-03        -3.95688     786.644E-03        -3.95676     732.035E-03    -43.4166E-03     24.7643E-03    -11.4343E-03    -13.3286E-03    -13.0310E-03     24.4668E-03    -11.4343E-03    -6.63137E-03     7.08452E+06     314.649E+03    -143.064E+06     1.44596E+06    -143.006E+06     5.89560E+06    -2.64849E+06         21.9070
            1053     2.96875E-03     9.45738E-03     766.092E-03     717.724E-03        -3.92770     765.783E-03        -3.92739     717.724E-03     11.9781E-03     23.1941E-03    -11.0722E-03    -12.1219E-03    -11.9445E-03     23.0167E-03    -11.0722E-03    -4.86796E-03     7.45955E+06     769.282E+03    -141.252E+06     2.33200E+06    -141.218E+06     5.86230E+06    -1.56701E+06         21.6811
            1054     1.97943E-03     9.45925E-03     733.615E-03     694.337E-03        -3.87062     720.732E-03        -3.86990     706.499E-03    -13.6449E-03     22.0724E-03    -10.8356E-03    -11.2365E-03    -11.1610E-03     21.9970E-03    -10.8356E-03    -3.05407E-03     10.4801E+06     1.63445E+06    -138.544E+06     2.02041E+06    -138.521E+06     10.0718E+06    -773.792E+03         21.5578
            1055     989.689E-06     9.46108E-03     743.070E-03     664.598E-03        -3.85068     675.331E-03        -3.84923     730.880E-03     19.8689E-03     21.3865E-03    -10.5827E-03    -10.8037E-03    -10.7465E-03     21.3659E-03    -10.6192E-03    -1.24271E-03     6.29290E+06    -312.752E+03    -136.285E+06    -311.536E+03    -136.131E+06     6.13797E+06     2.48971E+06         21.4966
            1056     16.6116E-03     8.76154E-03         1.57180     973.036E-03        -4.91568         1.57169        -4.91556     973.036E-03    -38.4842E-03     189.591E-03    -24.2667E-03    -165.359E-03    -79.7857E-03     104.018E-03    -24.2667E-03     303.580E-03     173.743E+06     148.152E+06    -8.95297E+06    -8.92253E+06     173.713E+06     148.152E+06    -525.569E+03         50.1093
            1057     15.6652E-03     8.49232E-03         1.48644     916.342E-03        -4.77409         1.48607        -4.77373     916.342E-03    -89.3187E-03     119.908E-03    -22.0199E-03    -97.9507E-03    -52.8660E-03     74.8235E-03    -22.0199E-03     175.093E-03     145.588E+06     90.4202E+06    -18.1114E+06    -18.0717E+06     145.548E+06     90.4202E+06    -394.430E+03         46.8967
            1058     14.6998E-03     8.39804E-03         1.38940     871.350E-03        -4.64659         1.38903        -4.64623     871.350E-03    -86.3720E-03     64.5433E-03    -20.4828E-03    -44.1041E-03    -33.7795E-03     54.2187E-03    -20.4828E-03     57.4469E-03     109.204E+06     18.9100E+06    -23.0123E+06    -22.9149E+06     109.107E+06     18.9100E+06     2.85889E+06         42.9082
            1059     13.7325E-03     8.37798E-03         1.30161     834.616E-03        -4.53124         1.30128        -4.53091     834.616E-03    -66.9318E-03     51.5556E-03    -19.3891E-03    -32.1986E-03    -31.2494E-03     50.6064E-03    -19.3891E-03     16.8106E-03     71.3823E+06    -22.7028E+06    -34.9694E+06    -25.0358E+06     71.2962E+06    -32.5504E+06     2.46679E+06         38.8300
            1060     12.7614E-03     8.36992E-03         1.22889     800.775E-03        -4.43076         1.22865        -4.43052     800.775E-03    -34.3478E-03     49.3997E-03    -18.5157E-03    -30.8959E-03    -30.5447E-03     49.0485E-03    -18.5157E-03     10.4631E-03     20.8519E+06    -24.4860E+06    -37.8951E+06    -24.1690E+06     20.5348E+06    -37.8951E+06    -31.2184E+03         35.2903
            1061     11.7927E-03     8.36014E-03         1.14192     768.600E-03        -4.31444         1.14158        -4.31410     768.600E-03    -58.1256E-03     47.6821E-03    -17.6897E-03    -30.0218E-03    -29.8538E-03     47.5141E-03    -17.6897E-03     4.84500E-03    -15.2864E+06    -21.8441E+06    -46.4327E+06    -21.5550E+06    -37.8086E+06    -24.1996E+06    -1.12356E+06         32.4538
            1062     10.8213E-03     8.36447E-03         1.06015     738.952E-03        -4.20468         1.05981        -4.20434     738.952E-03    -50.7909E-03     44.6291E-03    -16.7845E-03    -27.8796E-03    -27.8411E-03     44.5906E-03    -16.7845E-03    -2.07855E-03    -11.8005E+06    -17.3191E+06    -80.5257E+06    -17.7250E+06    -80.1198E+06    -11.8005E+06    -3.29438E+06         30.1931
            1063     9.84755E-03     8.37114E-03     993.322E-03     711.295E-03        -4.11330     993.180E-03        -4.11316     711.295E-03    -23.2761E-03     41.4556E-03    -15.8736E-03    -25.5803E-03    -25.4707E-03     41.3459E-03    -15.8736E-03    -4.70414E-03     805.932E+03    -11.0460E+06    -108.196E+06    -11.6783E+06    -107.564E+06     805.932E+03    -6.01943E+06         28.2768
            1064     8.87176E-03     8.38156E-03     911.792E-03     685.910E-03        -4.01027     911.600E-03        -4.01008     685.910E-03    -47.5045E-03     38.2610E-03    -14.9788E-03    -23.2634E-03    -23.0820E-03     38.0795E-03    -14.9788E-03    -6.09454E-03     6.32734E+06    -7.53532E+06    -132.475E+06    -7.86538E+06    -132.145E+06     6.32734E+06    -5.73575E+06         26.5978
            1065     7.89297E-03     8.39186E-03     828.758E-03     664.471E-03        -3.91286     828.421E-03        -3.91253     664.471E-03    -57.1185E-03     35.1188E-03    -14.1141E-03    -20.9821E-03    -20.7491E-03     34.8858E-03    -14.1141E-03    -6.67061E-03     8.48758E+06    -5.61037E+06    -145.647E+06    -5.74123E+06    -145.516E+06     8.48758E+06    -3.48488E+06         25.1648
            1066     6.91186E-03     8.40346E-03     771.015E-03     646.743E-03        -3.83967     770.687E-03        -3.83934     646.743E-03    -23.0417E-03     32.2145E-03    -13.3082E-03    -18.8955E-03    -18.6406E-03     31.9595E-03    -13.3082E-03    -6.76673E-03     12.1370E+06    -4.38035E+06    -145.509E+06    -4.45377E+06    -145.435E+06     12.1370E+06    -2.43861E+06         23.9821
            1067     5.92911E-03     8.41409E-03     732.825E-03     630.684E-03        -3.78334     732.748E-03        -3.78327     630.684E-03     4.84602E-03     29.3428E-03    -12.5542E-03    -16.7858E-03    -16.5603E-03     29.1172E-03    -12.5542E-03    -6.07270E-03     9.22751E+06    -4.45563E+06    -146.792E+06    -4.61208E+06    -146.636E+06     9.22751E+06    -4.02958E+06         23.0543
            1068     4.94399E-03     8.42239E-03     692.803E-03     615.589E-03        -3.72657     692.737E-03        -3.72650     615.589E-03    -28.0912E-03     26.7174E-03    -11.9001E-03    -14.8158E-03    -14.6378E-03     26.5394E-03    -11.9001E-03    -5.02817E-03     5.00249E+06    -3.10919E+06    -146.233E+06    -3.38894E+06    -145.953E+06     5.00249E+06    -5.83237E+06         22.3859
            1069     3.95731E-03     8.43007E-03     648.653E-03     603.119E-03        -3.67009     648.536E-03        -3.66997     603.119E-03    -39.3469E-03     24.6190E-03    -11.3935E-03    -13.2238E-03    -13.0953E-03     24.4905E-03    -11.3935E-03    -4.07417E-03     5.55830E+06    -1.65172E+06    -144.472E+06    -1.86919E+06    -144.254E+06     5.55830E+06    -5.19232E+06         21.9651
            1070     2.96875E-03     8.43479E-03     619.290E-03     594.017E-03        -3.63599     618.739E-03        -3.63544     594.017E-03     39.5824E-03     23.0151E-03    -11.0004E-03    -12.0139E-03    -11.9382E-03     22.9393E-03    -11.0004E-03    -3.03490E-03     5.49874E+06    -1.22862E+06    -144.287E+06    -972.078E+03    -144.135E+06     5.09041E+06     -4.2973E+06         21.7307
            1071     1.97991E-03     8.43916E-03     610.220E-03     584.076E-03        -3.62491     609.246E-03        -3.62393     584.076E-03     9.49660E-03     21.8873E-03    -10.7145E-03    -11.1726E-03    -11.1389E-03     21.8536E-03    -10.7145E-03    -1.85398E-03     8.01070E+06    -1.20174E+06    -141.811E+06    -889.487E+03    -141.714E+06     7.60237E+06    -3.15464E+06         21.6002
            1072     990.352E-06     8.44010E-03     600.318E-03     557.860E-03        -3.58974     584.150E-03        -3.58770     571.982E-03     27.8905E-03     21.0735E-03    -10.4185E-03    -10.6550E-03    -10.5158E-03     21.0660E-03    -10.5501E-03    -586.093E-06     5.53332E+06    -2.24443E+06    -135.426E+06    -2.24333E+06    -135.272E+06     5.37838E+06    -1.74581E+06         21.5299
            1073     16.6091E-03     7.66303E-03         1.54514     885.352E-03        -4.77287         1.54495        -4.77268     885.352E-03    -40.9507E-03     182.377E-03    -24.3781E-03    -158.011E-03    -74.6525E-03     99.0180E-03    -24.3781E-03     292.687E-03     174.877E+06     148.047E+06    -8.68337E+06    -8.62371E+06     174.817E+06     148.047E+06     1.94238E+06         49.2188
            1074     15.6596E-03     7.42830E-03         1.46583     828.194E-03        -4.65123         1.46538        -4.65078     828.194E-03    -98.2746E-03     111.059E-03    -22.3578E-03    -88.7390E-03    -48.8011E-03     71.1214E-03    -22.3578E-03     157.556E-03     142.168E+06     88.9409E+06    -19.5640E+06    -19.5429E+06     142.147E+06     88.9409E+06     992.239E+03         45.9977
            1075     14.6961E-03     7.34143E-03         1.36922     780.929E-03        -4.51929         1.36886        -4.51893     780.929E-03    -83.7146E-03     65.0393E-03    -20.9013E-03    -44.1758E-03    -35.0009E-03     55.8644E-03    -20.9013E-03     55.5720E-03     106.865E+06     21.6229E+06    -26.7913E+06    -26.7060E+06     106.780E+06     21.6229E+06     2.58367E+06         42.0627
            1076     13.7261E-03     7.32633E-03         1.27401     740.198E-03        -4.39128         1.27360        -4.39088     740.198E-03    -87.1601E-03     52.3318E-03    -19.7901E-03    -32.5841E-03    -31.4239E-03     51.1715E-03    -19.7901E-03     19.2087E-03     74.8613E+06    -19.6894E+06    -35.8296E+06    -27.8571E+06     74.7796E+06    -27.5803E+06     2.35837E+06         38.1517
            1077     12.7586E-03     7.31723E-03         1.18016     702.407E-03        -4.26913         1.17982        -4.26879     702.407E-03    -62.0197E-03     50.0268E-03    -18.9093E-03    -31.1485E-03    -30.4588E-03     49.3371E-03    -18.9093E-03     14.6589E-03     23.2135E+06    -26.4182E+06    -39.3496E+06    -26.1436E+06     22.9390E+06    -39.3496E+06    -833.740E+03         34.8356
            1078     11.7872E-03     7.31259E-03         1.07509     667.172E-03        -4.13511         1.07475        -4.13478     667.172E-03    -59.9287E-03     47.2320E-03    -18.1471E-03    -29.1161E-03    -28.7408E-03     46.8566E-03    -18.1471E-03     8.80199E-03    -14.0533E+06    -22.8903E+06    -49.2351E+06    -23.0985E+06    -36.1600E+06    -26.9203E+06    -4.96093E+06         32.1870
            1079     10.8147E-03     7.31830E-03     973.744E-03     635.574E-03        -4.00632     973.304E-03        -4.00588     635.574E-03    -81.2185E-03     43.9718E-03    -17.4050E-03    -26.6132E-03    -26.5513E-03     43.9099E-03    -17.4050E-03     2.70222E-03    -10.6536E+06    -16.3557E+06     -78.288E+06    -17.7374E+06    -76.0621E+06    -11.4977E+06    -9.73509E+06         30.0376
            1080     9.84041E-03     7.33037E-03     899.074E-03     606.826E-03        -3.91103     898.812E-03        -3.91076     606.826E-03    -55.2966E-03     41.3170E-03    -16.6826E-03    -24.6556E-03    -24.5907E-03     41.2520E-03    -16.6826E-03     1.45137E-03     2.29826E+06    -12.4696E+06    -110.247E+06    -13.9040E+06    -108.813E+06     2.29826E+06    -11.4292E+06         28.1957
            1081     8.86352E-03     7.34275E-03     836.768E-03     579.345E-03        -3.82120     836.583E-03        -3.82102     579.345E-03    -44.3803E-03     38.7184E-03    -15.9575E-03    -22.7663E-03    -22.7064E-03     38.6585E-03    -15.9575E-03     335.114E-06     11.6718E+06    -11.2998E+06    -136.358E+06    -12.0867E+06    -135.571E+06     11.6718E+06    -9.43470E+06         26.5901
            1082     7.88501E-03     7.35785E-03     756.510E-03     553.915E-03        -3.71463     756.287E-03        -3.71440     553.915E-03    -45.7139E-03     36.1077E-03    -15.1927E-03    -20.9160E-03    -20.8497E-03     36.0414E-03    -15.1927E-03    -95.6897E-06     10.3974E+06    -10.7198E+06    -147.615E+06    -11.2120E+06    -147.123E+06     10.3974E+06    -7.79202E+06         25.2235
            1083     6.90453E-03     7.37085E-03     673.101E-03     532.775E-03        -3.61471     672.870E-03        -3.61448     532.775E-03    -23.6443E-03     33.7037E-03    -14.4479E-03    -19.2520E-03    -19.1783E-03     33.6300E-03    -14.4479E-03    -527.835E-06     9.90404E+06    -8.05484E+06    -146.748E+06    -8.53386E+06    -146.269E+06     9.90404E+06    -7.22463E+06         24.0987
            1084     5.92260E-03     7.38500E-03     622.766E-03     515.274E-03        -3.55107     622.283E-03        -3.55059     515.274E-03    -36.2911E-03     31.3912E-03    -13.7575E-03    -17.6339E-03    -17.5687E-03     31.3260E-03    -13.7575E-03    -625.224E-06     12.0570E+06    -4.99103E+06    -146.329E+06    -5.50895E+06    -145.811E+06     12.0570E+06    -7.83074E+06         23.2199
            1085     4.93839E-03     7.39599E-03     586.356E-03     498.882E-03        -3.49973     585.912E-03        -3.49929     498.882E-03    -55.6503E-03     29.0688E-03    -13.1011E-03    -15.9681E-03    -15.9299E-03     29.0306E-03    -13.1011E-03    -564.524E-06     8.01788E+06    -4.53335E+06    -148.527E+06    -5.10507E+06    -147.956E+06     8.01788E+06    -9.02016E+06         22.5905
            1086     3.95285E-03     7.40523E-03     528.917E-03     485.813E-03        -3.42640     528.764E-03        -3.42625     485.813E-03    -40.0195E-03     26.9879E-03    -12.5288E-03    -14.4587E-03    -14.4317E-03     26.9609E-03    -12.5288E-03    -561.803E-06     4.57442E+06    -3.89842E+06    -148.013E+06    -4.45277E+06    -147.459E+06     4.57442E+06    -8.70571E+06         22.1929
            1087     2.96623E-03     7.41240E-03     494.781E-03     476.684E-03        -3.38471     492.018E-03        -3.38432     479.059E-03     11.9915E-03     25.2768E-03    -12.0748E-03    -13.2017E-03    -13.1839E-03     25.2590E-03    -12.0748E-03    -483.291E-06     5.16917E+06    -3.21767E+06    -146.327E+06    -3.62471E+06    -145.920E+06     5.16917E+06    -7.37267E+06         21.9625
            1088     1.97804E-03     7.41660E-03     489.208E-03     472.286E-03        -3.38463     485.733E-03        -3.38353     474.661E-03    -23.4462E-03     23.9529E-03    -11.7137E-03    -12.2391E-03    -12.2299E-03     23.9437E-03    -11.7137E-03    -94.2183E-06     3.50401E+06    -4.96238E+06    -146.067E+06    -5.30114E+06    -145.728E+06     3.50401E+06    -6.16545E+06         21.8236
            1089     989.217E-06     7.42009E-03     490.928E-03     456.231E-03        -3.37303     472.186E-03        -3.37022     472.170E-03     55.2501E-03     23.0034E-03    -11.2850E-03    -11.7187E-03    -11.6196E-03     22.9996E-03    -11.3801E-03     348.784E-06    -1.58985E+06    -7.68940E+06    -141.209E+06    -7.15697E+06    -140.897E+06    -2.43405E+06    -3.99879E+06         21.7408
            1090     16.6048E-03     6.58082E-03         1.51524     805.667E-03        -4.64079         1.51467        -4.64023     805.667E-03    -102.171E-03     173.125E-03    -24.7471E-03    -148.410E-03    -69.2310E-03     93.9460E-03    -24.7471E-03     277.008E-03     172.947E+06     148.006E+06    -8.75139E+06    -8.62099E+06     172.816E+06     148.006E+06     2.45898E+06         48.2810
            1091     15.6487E-03     6.35656E-03         1.44042     748.580E-03        -4.53253         1.43997        -4.53209     748.580E-03    -95.7175E-03     107.552E-03    -22.9470E-03    -84.6432E-03    -46.3722E-03     69.2812E-03    -22.9470E-03     149.636E-03     142.563E+06     92.5669E+06    -18.2180E+06    -17.9846E+06     142.329E+06     92.5669E+06     5.19879E+06         45.0549
            1092     14.6853E-03     6.28817E-03         1.34590     699.329E-03        -4.40130         1.34569        -4.40109     699.329E-03    -63.1176E-03     64.6730E-03    -21.5696E-03    -43.1317E-03    -35.3367E-03     56.8780E-03    -21.5696E-03     52.3374E-03     107.387E+06     23.1510E+06    -26.1019E+06    -25.9017E+06     107.187E+06     23.1510E+06     4.36353E+06         41.1900
            1093     13.7177E-03     6.27056E-03         1.23477     655.680E-03        -4.25911         1.23453        -4.25887     655.680E-03    -65.4839E-03     52.4940E-03    -20.5118E-03    -32.0281E-03    -30.4943E-03     50.9602E-03    -20.5118E-03     22.3001E-03     76.9346E+06    -22.2615E+06    -36.9055E+06    -29.8068E+06     76.7594E+06    -29.1851E+06     3.19945E+06         37.4826
            1094     12.7459E-03     6.26813E-03         1.11789     615.544E-03        -4.10874         1.11775        -4.10860     615.544E-03    -52.0045E-03     49.6278E-03    -19.7874E-03    -29.8785E-03    -28.7680E-03     48.5174E-03    -19.7874E-03     18.5469E-03     30.1106E+06    -31.1982E+06    -41.1392E+06    -31.0201E+06     29.0061E+06    -40.2127E+06    -1.43742E+06         34.4251
            1095     11.7748E-03     6.26272E-03         1.01557     578.336E-03        -3.97468         1.01534        -3.97445     578.336E-03    -53.7130E-03     46.2375E-03    -19.2556E-03    -27.0037E-03    -26.2747E-03     45.5085E-03    -19.2556E-03     13.5629E-03    -10.0880E+06    -26.4596E+06    -49.3462E+06    -26.8664E+06    -30.4770E+06    -28.5505E+06    -11.1064E+06         31.9880
            1096     10.7999E-03     6.27679E-03     912.419E-03     544.263E-03        -3.84511     912.087E-03        -3.84478     544.263E-03    -61.9714E-03     43.3262E-03    -18.8334E-03    -24.5257E-03    -24.1017E-03     42.9021E-03    -18.8334E-03     9.70053E-03    -10.8377E+06    -20.0571E+06    -79.4634E+06    -22.0145E+06    -74.8926E+06    -13.4511E+06    -15.1450E+06         29.9589
            1097     9.82245E-03     6.28675E-03     821.943E-03     513.352E-03        -3.73155     821.685E-03        -3.73129     513.352E-03    -51.9830E-03     41.7933E-03    -18.4660E-03    -23.3471E-03    -22.9095E-03     41.3557E-03    -18.4660E-03     9.61114E-03     3.14121E+06    -16.9807E+06    -114.491E+06    -19.4807E+06    -111.991E+06     3.14121E+06    -14.8171E+06         28.1972
            1098     8.84550E-03     6.30516E-03     757.430E-03     484.183E-03        -3.64059     757.199E-03        -3.64036     484.183E-03    -24.9416E-03     40.5604E-03    -18.0350E-03    -22.5187E-03    -22.1062E-03     40.1480E-03    -18.0350E-03     8.99262E-03     11.9740E+06    -14.7756E+06    -140.881E+06    -16.6061E+06    -139.050E+06     11.9740E+06    -14.6321E+06         26.6752
            1099     7.86683E-03     6.31980E-03     678.646E-03     456.656E-03        -3.53267     678.361E-03        -3.53238     456.656E-03    -35.0134E-03     39.2302E-03    -17.5193E-03    -21.7084E-03    -21.3088E-03     38.8306E-03    -17.5193E-03     8.69632E-03     14.1505E+06    -10.0289E+06    -149.869E+06    -11.7682E+06    -148.130E+06     14.1505E+06    -14.8722E+06         25.3857
            1100     6.88764E-03     6.33759E-03     591.981E-03     432.921E-03        -3.42615     591.789E-03        -3.42596     432.921E-03    -38.8037E-03     37.7011E-03    -16.9603E-03    -20.7445E-03    -20.4126E-03     37.3692E-03    -16.9603E-03     7.80408E-03     14.5876E+06    -6.23072E+06    -149.964E+06    -7.75995E+06    -148.435E+06     14.5876E+06    -14.3137E+06         24.3318
            1101     5.90653E-03     6.35146E-03     528.761E-03     413.416E-03        -3.34962     528.308E-03        -3.34917     413.416E-03    -54.7630E-03     36.1833E-03    -16.3789E-03    -19.8082E-03    -19.5522E-03     35.9273E-03    -16.3789E-03     6.72404E-03     14.7861E+06    -4.28744E+06    -149.582E+06    -5.46473E+06    -148.404E+06     14.7861E+06    -12.8080E+06         23.5204
            1102     4.92606E-03     6.36595E-03     482.690E-03     396.624E-03        -3.28875     481.987E-03        -3.28804     396.624E-03    -31.1440E-03     34.4415E-03    -15.7683E-03    -18.6743E-03    -18.4910E-03     34.2583E-03    -15.7683E-03     5.43875E-03     12.3211E+06    -3.79953E+06    -151.341E+06    -4.78192E+06    -150.359E+06     12.3211E+06    -11.8261E+06         22.9599
            1103     3.94303E-03     6.37687E-03     431.724E-03     383.201E-03        -3.22290     431.334E-03        -3.22251     383.201E-03    -7.92113E-03     32.4226E-03    -15.1707E-03    -17.2516E-03    -17.1235E-03     32.2944E-03    -15.1707E-03     4.36572E-03     6.84914E+06    -4.98677E+06    -151.953E+06    -5.84256E+06    -151.097E+06     6.84914E+06    -11.1555E+06         22.6195
            1104     2.95883E-03     6.38580E-03     389.421E-03     369.846E-03        -3.17384     381.831E-03        -3.17370     377.300E-03    -15.1183E-03     30.5761E-03    -14.6493E-03    -15.9271E-03    -15.8478E-03     30.4969E-03    -14.6493E-03     3.28364E-03     1.11510E+06    -6.96819E+06    -150.780E+06    -7.64264E+06    -150.105E+06     1.11510E+06    -9.67924E+06         22.4108
            1105     1.97336E-03     6.39224E-03     383.144E-03     365.250E-03        -3.16208     367.026E-03        -3.16124     380.531E-03    -42.1989E-03     29.1268E-03    -14.2299E-03    -14.8971E-03    -14.8545E-03     29.0843E-03    -14.2299E-03     2.43756E-03    -2.26771E+06    -9.92927E+06    -151.433E+06    -10.4041E+06    -150.958E+06    -2.26771E+06    -7.69692E+06         22.2677
            1106     987.135E-06     6.39489E-03     399.280E-03     371.352E-03        -3.17944     373.492E-03        -3.17742     395.119E-03     38.3700E-03     27.9858E-03    -13.8015E-03    -14.1835E-03    -14.1575E-03     27.9649E-03    -13.8066E-03     1.65927E-03    -9.33619E+06    -16.2452E+06    -149.734E+06    -15.6468E+06    -149.488E+06    -10.1804E+06    -3.54260E+06         22.1794
            1107     16.5949E-03     5.50855E-03         1.50366     734.790E-03        -4.56421         1.50263        -4.56318     734.790E-03    -155.159E-03     167.626E-03    -25.4961E-03    -142.187E-03    -66.8317E-03     92.2702E-03    -25.4961E-03     265.655E-03     169.641E+06     144.753E+06    -9.59258E+06    -9.38875E+06     169.437E+06     144.753E+06     3.43083E+06         47.2939
            1108     15.6325E-03     5.28515E-03         1.41592     677.671E-03        -4.44171         1.41541        -4.44120     677.671E-03    -103.280E-03     105.719E-03    -23.7726E-03    -81.9881E-03    -46.6838E-03     70.4146E-03    -23.7726E-03     141.798E-03     140.029E+06     89.9687E+06    -20.1978E+06    -19.9608E+06     139.793E+06     89.9687E+06     5.28898E+06         44.1016
            1109     14.6735E-03     5.22822E-03         1.31315     627.190E-03        -4.30834         1.31289        -4.30807     627.190E-03    -68.3691E-03     62.6337E-03    -22.4929E-03    -40.1520E-03    -34.1684E-03     56.6501E-03    -22.4929E-03     45.6006E-03     108.232E+06     27.6908E+06    -27.3248E+06    -26.4012E+06     107.308E+06     27.6908E+06     8.48771E+06         40.3571
            1110     13.7014E-03     5.22194E-03         1.19317     581.673E-03        -4.15539         1.19301        -4.15524     581.673E-03    -46.1791E-03     51.5874E-03    -21.6228E-03    -30.0075E-03    -28.2404E-03     49.8203E-03    -21.6228E-03     23.6574E-03     82.4254E+06    -19.6752E+06    -34.9075E+06    -31.9567E+06     81.4835E+06    -21.6840E+06     6.39536E+06         36.8765
            1111     12.7301E-03     5.21426E-03         1.07421     539.272E-03        -3.99722         1.07416        -3.99718     539.272E-03    -18.5829E-03     47.7883E-03    -21.1907E-03    -26.6387E-03    -24.9905E-03     46.1400E-03    -21.1907E-03     21.7091E-03     41.7089E+06    -31.7953E+06    -36.2570E+06    -30.8319E+06     39.7930E+06    -35.3044E+06    -4.74251E+06         34.0708
            1112     11.7531E-03     5.22100E-03     967.176E-03     499.582E-03        -3.84873     967.152E-03        -3.84870     499.582E-03    -5.34610E-03     44.6807E-03    -20.7051E-03    -23.9926E-03    -22.2764E-03     43.3290E-03    -21.0697E-03     18.6354E-03    -4.86934E+06    -28.6215E+06    -48.5528E+06    -27.8104E+06    -24.1114E+06    -30.1217E+06    -14.2590E+06         31.8380
            1113     10.7738E-03     5.23116E-03     866.909E-03     462.491E-03        -3.71011     866.904E-03        -3.71011     462.491E-03    -5.55508E-03     43.3699E-03    -20.4753E-03    -22.9068E-03    -20.9703E-03     42.0707E-03    -21.1126E-03     17.7541E-03    -13.7931E+06    -23.4499E+06    -83.3230E+06    -26.5234E+06    -75.8416E+06    -18.2012E+06    -19.5259E+06         29.9540
            1114     9.79567E-03     5.24772E-03     760.969E-03     428.526E-03        -3.57564     760.948E-03        -3.57561     428.526E-03    -13.4481E-03     43.5912E-03    -20.8488E-03    -22.7459E-03    -21.0131E-03     42.2116E-03    -21.2020E-03     18.3907E-03    -1.52739E+06    -17.5743E+06    -120.062E+06    -22.6074E+06    -115.029E+06    -1.52739E+06    -21.4110E+06         28.3016
            1115     8.81570E-03     5.26168E-03     661.765E-03     398.486E-03        -3.45356     661.693E-03        -3.45349     398.486E-03     7.15089E-03     43.9536E-03    -21.1257E-03    -22.8111E-03    -21.4380E-03     42.6612E-03    -21.2063E-03     18.0122E-03     9.18754E+06    -13.7102E+06    -145.240E+06    -17.6365E+06    -141.313E+06     9.18754E+06    -22.0738E+06         26.8771
            1116     7.83814E-03     5.28080E-03     589.930E-03     371.516E-03        -3.35814     589.844E-03        -3.35806     371.516E-03     117.958E-06     44.2295E-03    -21.0780E-03    -23.1416E-03    -21.9581E-03     43.0460E-03    -21.0780E-03     17.4382E-03     13.4756E+06    -9.99064E+06    -155.052E+06    -13.5942E+06    -151.448E+06     13.4756E+06    -22.3697E+06         25.6751
            1117     6.85977E-03     5.29597E-03     533.175E-03     345.809E-03        -3.27743     533.138E-03        -3.27739     345.809E-03    -15.4525E-03     44.1273E-03    -20.8159E-03    -23.3148E-03    -22.2964E-03     43.1089E-03    -20.8159E-03     16.1952E-03     13.0426E+06    -8.16024E+06    -156.150E+06    -11.1247E+06    -153.186E+06     13.0426E+06    -20.4996E+06         24.7000
            1118     5.88308E-03     5.31378E-03     461.298E-03     322.160E-03        -3.18372     461.237E-03        -3.18365     322.160E-03    -19.4203E-03     43.5077E-03    -20.4457E-03    -23.0627E-03    -22.2485E-03     42.6935E-03    -20.4457E-03     14.3814E-03     10.0488E+06    -7.00595E+06    -155.439E+06    -9.21454E+06    -153.231E+06     10.0488E+06    -17.6801E+06         23.9679
            1119     4.90393E-03     5.32744E-03     381.631E-03     304.115E-03        -3.08484     381.283E-03        -3.08449     304.115E-03    -3.57952E-03     42.4598E-03    -20.0075E-03    -22.4516E-03    -21.8505E-03     41.8587E-03    -20.0075E-03     12.2217E-03     7.17856E+06    -6.48395E+06    -155.543E+06    -7.99763E+06    -154.029E+06     7.17856E+06    -14.8537E+06         23.4995
            1120     3.92596E-03     5.34192E-03     336.055E-03     292.049E-03        -3.02734     335.739E-03        -3.02702     292.049E-03     3.50263E-03     41.0857E-03    -19.5223E-03    -21.5631E-03    -21.1514E-03     40.6740E-03    -19.5223E-03     9.95683E-03     2.88652E+06    -8.47166E+06    -156.823E+06    -9.56022E+06    -155.735E+06     2.88652E+06    -12.5855E+06         23.2451
            1121     2.94551E-03     5.35203E-03     313.466E-03     278.293E-03        -2.98768     308.223E-03        -2.98751     283.372E-03     11.6025E-03     39.4206E-03    -19.0325E-03    -20.3882E-03    -20.1429E-03     39.1754E-03    -19.0325E-03     7.49790E-03    -3.98344E+06    -11.7270E+06    -157.623E+06    -12.5049E+06    -156.846E+06    -3.98344E+06    -10.5813E+06         23.0820
            1122     1.96477E-03     5.35971E-03     291.542E-03     267.682E-03        -2.95560     278.158E-03        -2.95512     280.588E-03    -6.00251E-03     37.9602E-03    -18.6194E-03    -19.3398E-03    -19.2117E-03     37.8321E-03    -18.6194E-03     5.29828E-03    -7.17165E+06    -15.5531E+06    -158.664E+06    -15.9396E+06    -158.278E+06    -7.17165E+06    -6.83012E+06         22.9539
            1123     982.696E-06     5.36433E-03     300.391E-03     264.553E-03        -2.96505     291.215E-03        -2.96370     272.380E-03     48.5312E-03     36.7764E-03    -18.2051E-03    -18.5707E-03    -18.5143E-03     36.7251E-03    -18.2102E-03     3.12324E-03    -15.1906E+06    -22.9274E+06    -157.395E+06    -22.4348E+06    -157.274E+06    -15.8050E+06    -4.01131E+06         22.8758
            1124     16.5620E-03     4.40830E-03         1.51455     673.382E-03        -4.53327         1.51325        -4.53197     673.382E-03    -168.977E-03     168.871E-03    -26.6504E-03    -142.269E-03    -69.3813E-03     95.9830E-03    -26.6504E-03     260.707E-03     168.075E+06     137.927E+06    -10.6065E+06    -10.3945E+06     167.863E+06     137.927E+06     4.01731E+06         46.2454
            1125     15.6256E-03     4.21566E-03         1.39472     615.991E-03        -4.37689         1.39432        -4.37649     615.991E-03    -89.8284E-03     101.492E-03    -24.8214E-03    -76.7028E-03    -50.2764E-03     75.0658E-03    -24.8214E-03     122.747E-03     134.883E+06     88.0720E+06    -22.5138E+06    -21.5936E+06     133.963E+06     88.0720E+06     8.54192E+06         43.1229
            1126     14.6548E-03     4.17291E-03         1.26692     565.402E-03        -4.20724         1.26679        -4.20711     565.402E-03    -39.1435E-03     58.1683E-03    -23.4117E-03    -34.7638E-03    -29.6803E-03     53.3457E-03    -23.6725E-03     39.7646E-03     110.495E+06     40.5923E+06    -29.7861E+06    -28.1674E+06     108.877E+06     40.5923E+06     9.70037E+06         39.6024
            1127     13.6851E-03     4.16918E-03         1.14955     518.994E-03        -4.05058         1.14948        -4.05051     518.994E-03    -27.7810E-03     48.9730E-03    -22.6550E-03    -26.3423E-03    -23.0550E-03     46.2245E-03    -23.1938E-03     27.1584E-03     90.8401E+06    -2.64498E+06    -33.4824E+06    -26.5177E+06     90.0130E+06    -8.78265E+06     2.86922E+06         36.3965
            1128     12.7045E-03     4.17057E-03         1.04973     474.302E-03        -3.90260         1.04964        -3.90252     474.302E-03    -9.14732E-03     46.4253E-03    -22.0443E-03    -24.4169E-03    -20.0571E-03     43.2104E-03    -23.1892E-03     28.5489E-03     48.7692E+06    -25.7208E+06    -37.3872E+06    -24.8471E+06     47.8694E+06    -37.3611E+06    -4.25865E+06         33.8242
            1129     11.7231E-03     4.17674E-03     930.735E-03     431.564E-03        -3.74044     930.712E-03        -3.74042     431.564E-03     9.28485E-03     44.8464E-03    -21.1604E-03    -23.7223E-03    -18.6858E-03     42.2086E-03    -23.5591E-03     25.5092E-03     651.676E+03    -33.9537E+06    -50.7874E+06    -28.0023E+06    -16.6307E+06    -39.4564E+06    -13.3179E+06         31.7809
            1130     10.7410E-03     4.19112E-03     812.590E-03     392.116E-03        -3.58419     812.566E-03        -3.58417     392.116E-03    -13.3853E-03     45.1812E-03    -21.1117E-03    -24.0847E-03    -18.6735E-03     42.7429E-03    -24.0847E-03     24.7838E-03    -15.9932E+06    -31.2324E+06    -85.1224E+06    -26.6848E+06    -75.1626E+06    -30.5005E+06    -22.8761E+06         30.0578
            1131     9.75841E-03     4.20241E-03     699.731E-03     356.459E-03        -3.43732     699.694E-03        -3.43729     356.459E-03    -20.1336E-03     46.6484E-03    -22.0048E-03    -24.6456E-03    -19.6899E-03     44.3334E-03    -24.6456E-03     24.7084E-03    -11.0529E+06    -20.5197E+06    -124.228E+06    -24.1441E+06    -116.410E+06    -15.2464E+06    -27.6748E+06         28.5421
            1132     8.78012E-03     4.21912E-03     592.391E-03     325.202E-03        -3.30191     592.371E-03        -3.30189     325.202E-03    -9.64656E-03     48.2966E-03    -23.1178E-03    -25.1697E-03    -21.0760E-03     46.2138E-03    -25.1287E-03     24.0079E-03    -3.63402E+06    -14.6970E+06    -150.896E+06    -20.7184E+06    -144.160E+06    -4.34802E+06    -29.2152E+06         27.2305
            1133     7.80117E-03     4.23325E-03     523.114E-03     297.115E-03        -3.20792     523.092E-03        -3.20790     297.115E-03    -11.4250E-03     50.0528E-03    -24.1683E-03    -25.8733E-03    -22.6674E-03     48.1487E-03    -25.4702E-03     23.4823E-03     186.806E+03    -12.2825E+06    -163.154E+06    -16.9833E+06    -157.827E+06    -439.025E+03    -27.7862E+06         26.1228
            1134     6.82586E-03     4.25091E-03     463.314E-03     270.165E-03        -3.12543     463.285E-03        -3.12540     270.165E-03    -10.3254E-03     51.4645E-03    -24.9647E-03    -26.4982E-03    -24.1857E-03     49.8273E-03    -25.6400E-03     22.2111E-03    -943.938E+03    -10.9690E+06    -163.969E+06    -14.4296E+06    -159.701E+06    -1.75157E+06    -25.1673E+06         25.2275
            1135     5.84977E-03     4.26550E-03     380.479E-03     246.161E-03        -3.02077     380.422E-03        -3.02071     246.161E-03    -16.2474E-03     52.1760E-03    -25.4805E-03    -26.6951E-03    -25.1792E-03     50.8530E-03    -25.6734E-03     20.1803E-03    -3.30825E+06    -10.4731E+06    -163.573E+06    -13.4433E+06    -160.421E+06    -3.49005E+06    -21.6071E+06         24.5674
            1136     4.87643E-03     4.28228E-03     304.441E-03     228.296E-03        -2.92373     304.321E-03        -2.92361     228.296E-03    -23.0305E-03     52.3346E-03    -25.5893E-03    -26.7444E-03    -25.7406E-03     51.3390E-03    -25.5975E-03     17.5696E-03    -4.36397E+06    -12.1023E+06    -162.626E+06    -14.0317E+06    -160.696E+06    -4.36397E+06    -16.6618E+06         24.1796
            1137     3.90103E-03     4.29486E-03     269.477E-03     214.768E-03        -2.87310     269.089E-03        -2.87271     214.768E-03    -42.3012E-03     52.0593E-03    -25.4022E-03    -26.6569E-03    -25.9768E-03     51.3792E-03    -25.4022E-03     14.4707E-03    -7.02869E+06    -14.0176E+06    -163.303E+06    -14.4279E+06    -162.105E+06    -7.81694E+06    -13.3169E+06         24.0170
            1138     2.92788E-03     4.30792E-03     254.329E-03     199.826E-03        -2.84356     253.541E-03        -2.84277     199.826E-03     15.2505E-03     51.3056E-03    -25.1326E-03    -26.1731E-03    -25.7640E-03     50.8965E-03    -25.1326E-03     11.1202E-03    -9.48770E+06    -16.7278E+06    -164.815E+06    -16.6582E+06    -164.096E+06    -10.2759E+06    -9.80703E+06         23.9328
            1139     1.95200E-03     4.31640E-03     223.149E-03     181.515E-03        -2.79487     221.694E-03        -2.79342     181.515E-03    -22.9460E-03     50.2724E-03    -24.8498E-03    -25.4224E-03    -25.2105E-03     50.0604E-03    -24.8498E-03     7.85031E-03    -11.9772E+06    -21.1614E+06    -165.527E+06    -21.4463E+06    -165.242E+06    -11.9772E+06    -6.11071E+06         23.8581
            1140     976.498E-06     4.32201E-03     209.496E-03     138.906E-03        -2.74697     205.167E-03        -2.74265     138.906E-03     44.3860E-03     49.3594E-03    -24.4803E-03    -24.8800E-03    -24.6891E-03     49.2796E-03    -24.5914E-03     4.59058E-03    -19.7421E+06    -27.4440E+06    -164.040E+06    -24.8904E+06    -163.888E+06    -22.4480E+06    -3.54693E+06         23.8093
            1141     16.5377E-03     3.27011E-03         1.50869     622.253E-03        -4.50035         1.50746        -4.49912     622.253E-03    -160.944E-03     167.897E-03    -27.6742E-03    -140.289E-03    -76.2222E-03     103.830E-03    -27.6742E-03     243.268E-03     165.447E+06     133.437E+06    -9.03774E+06    -8.02713E+06     164.436E+06     133.437E+06     9.75067E+06         45.2141
            1142     15.6051E-03     3.14771E-03         1.37845     565.220E-03        -4.32182         1.37823        -4.32160     565.220E-03    -58.5868E-03     87.0611E-03    -25.7949E-03    -61.2926E-03    -47.4190E-03     73.1874E-03    -25.7949E-03     82.3470E-03     136.364E+06     91.9831E+06    -23.1449E+06    -21.7722E+06     134.991E+06     91.9831E+06     10.5998E+06         42.2022
            1143     14.6393E-03     3.12189E-03         1.23454     514.437E-03        -4.12353         1.23453        -4.12352     514.437E-03    -6.60694E-03     50.6566E-03    -21.8308E-03    -28.8291E-03    -22.3851E-03     47.3794E-03    -24.9976E-03     29.6915E-03     117.178E+06     49.5974E+06    -22.0996E+06    -21.1467E+06     116.225E+06     49.5974E+06     4.57766E+06         39.0156
            1144     13.6507E-03     3.12640E-03         1.10808     467.057E-03        -3.95079         1.10798        -3.95070     467.057E-03    -3.89048E-03     44.4953E-03    -19.4345E-03    -25.0718E-03    -16.2559E-03     41.3168E-03    -25.0718E-03     27.4211E-03     90.7159E+06    -1.90574E+06    -28.8481E+06    -20.8659E+06     90.5405E+06    -9.71251E+06     1.66290E+06         36.1435
            1145     12.6675E-03     3.12542E-03     998.014E-03     421.682E-03        -3.79728     997.902E-03        -3.79717     421.682E-03     7.16513E-03     44.8426E-03    -19.2767E-03    -25.5802E-03    -16.0066E-03     41.5725E-03    -25.5802E-03     27.8255E-03     55.1069E+06    -24.3244E+06    -47.6081E+06    -24.0178E+06     54.8004E+06    -47.6081E+06    -848.916E+03         33.7757
            1146     11.6841E-03     3.13471E-03     886.116E-03     378.221E-03        -3.64403     886.078E-03        -3.64400     378.221E-03     1.08728E-03     45.4528E-03    -19.0786E-03    -26.4033E-03    -16.1604E-03     42.5346E-03    -26.4033E-03     26.6599E-03     11.2163E+06    -37.3161E+06    -58.2685E+06    -23.5583E+06    -6.72773E+06    -54.0823E+06    -12.2773E+06         31.8914
            1147     10.7019E-03     3.14514E-03     763.866E-03     337.727E-03        -3.48365     763.811E-03        -3.48359     337.727E-03    -29.7221E-03     48.0755E-03    -20.7619E-03    -27.3357E-03    -17.9945E-03     45.3080E-03    -27.3357E-03     26.9399E-03    -13.5926E+06    -49.5386E+06    -83.7186E+06    -23.3406E+06    -72.6815E+06    -50.8279E+06    -23.1309E+06         30.3329
            1148     9.72195E-03     3.15753E-03     652.304E-03     300.966E-03        -3.33550     652.267E-03        -3.33546     300.966E-03    -19.8673E-03     50.1846E-03    -21.9338E-03    -28.2577E-03    -19.5503E-03     47.8010E-03    -28.2577E-03     25.6961E-03    -13.4422E+06    -42.5679E+06    -124.542E+06    -22.1121E+06    -115.872E+06    -42.5679E+06    -29.5969E+06         28.9702
            1149     8.74064E-03     3.16878E-03     560.826E-03     267.390E-03        -3.21058     560.811E-03        -3.21057     267.390E-03    -10.3736E-03     52.4808E-03    -23.2960E-03    -29.1830E-03    -21.1488E-03     50.3336E-03    -29.1830E-03     25.0852E-03    -12.5353E+06    -33.0400E+06    -156.987E+06    -20.5768E+06    -149.065E+06    -32.9210E+06    -32.6346E+06         27.7801
            1150     7.76388E-03     3.18323E-03     471.314E-03     236.845E-03        -3.09202     471.165E-03        -3.09187     236.845E-03    -32.3138E-03     55.4010E-03    -25.3607E-03    -30.0324E-03    -23.4114E-03     53.4518E-03    -30.0324E-03     24.6888E-03    -12.7451E+06    -27.4588E+06    -171.166E+06    -19.0588E+06    -164.972E+06    -27.3398E+06    -30.5810E+06         26.7686
            1151     6.78740E-03     3.19509E-03     383.377E-03     210.349E-03        -2.97759     383.217E-03        -2.97743     210.349E-03    -12.2779E-03     58.0682E-03    -27.3030E-03    -30.7621E-03    -25.6501E-03     56.4153E-03    -30.7621E-03     23.3969E-03    -13.8494E+06    -23.5820E+06    -172.644E+06    -18.3738E+06    -168.119E+06    -23.5820E+06    -26.3104E+06         25.9463
            1152     5.81547E-03     3.21068E-03     314.183E-03     188.052E-03        -2.88157     314.141E-03        -2.88153     188.052E-03     3.04212E-03     60.4893E-03    -29.1229E-03    -31.3646E-03    -27.7751E-03     59.1415E-03    -31.3646E-03     21.7040E-03    -15.7916E+06    -20.8846E+06    -173.377E+06    -18.9479E+06    -170.295E+06    -20.8104E+06    -21.5602E+06         25.3357
            1153     4.84311E-03     3.22322E-03     273.549E-03     167.566E-03        -2.81888     273.497E-03        -2.81883     167.566E-03     5.50885E-03     62.4289E-03    -30.4703E-03    -31.9565E-03    -29.5788E-03     61.3866E-03    -31.8057E-03     19.4378E-03    -15.5646E+06    -21.8240E+06    -170.453E+06    -19.5053E+06    -168.414E+06    -19.9214E+06    -17.2735E+06         24.9754
            1154     3.87479E-03     3.23811E-03     228.347E-03     147.614E-03        -2.76101     227.981E-03        -2.76065     147.614E-03    -6.80369E-03     63.6848E-03    -31.2813E-03    -32.3998E-03    -30.8509E-03     62.9642E-03    -32.1096E-03     16.3539E-03    -15.6695E+06    -22.6925E+06    -170.422E+06    -20.4277E+06    -169.180E+06    -19.1762E+06    -13.0863E+06         24.8564
            1155     2.90435E-03     3.24866E-03     182.902E-03     129.549E-03        -2.70385     181.825E-03        -2.70277     129.549E-03     43.5734E-03     64.4869E-03    -31.8513E-03    -32.6329E-03    -31.7586E-03     64.0453E-03    -32.2840E-03     12.8218E-03    -16.7407E+06    -22.3518E+06    -172.210E+06    -21.4479E+06    -171.686E+06    -18.1677E+06    -8.31852E+06         24.8642
            1156     1.93736E-03     3.25945E-03     156.544E-03     110.353E-03        -2.66008     154.536E-03        -2.65808     110.353E-03    -18.6768E-03     64.8089E-03    -32.1598E-03    -32.6501E-03    -32.2961E-03     64.5856E-03    -32.2905E-03     9.07529E-03    -17.6467E+06    -25.7424E+06    -170.882E+06    -25.3090E+06    -170.676E+06    -18.2855E+06    -4.53530E+06         24.8886
            1157     968.412E-06     3.26447E-03     138.615E-03     66.5511E-03        -2.59965     132.759E-03        -2.59379     66.5511E-03     71.1888E-03     64.4564E-03    -32.0332E-03    -32.4235E-03    -32.1037E-03     64.3767E-03    -32.2733E-03     5.00790E-03    -25.0488E+06    -34.6313E+06    -171.035E+06    -32.7474E+06    -170.828E+06    -27.1403E+06    -3.20579E+06         24.9015
            1158     16.5549E-03     2.16742E-03         1.51564     584.230E-03        -4.50326         1.51433        -4.50196     584.230E-03    -157.818E-03     155.787E-03    -28.0922E-03    -127.811E-03    -86.1395E-03     114.116E-03    -28.0922E-03     192.206E-03     165.861E+06     137.559E+06    -7.75948E+06    -6.64199E+06     164.744E+06     137.559E+06     10.7394E+06         44.4073
            1159     15.6008E-03     2.07309E-03         1.35749     528.723E-03        -4.28036         1.35733        -4.28020     528.723E-03    -50.0370E-03     63.2265E-03    -21.3597E-03    -41.8922E-03    -32.2016E-03     58.4598E-03    -26.2838E-03     40.3781E-03     143.828E+06     92.2775E+06    -11.5544E+06    -10.8799E+06     143.154E+06     92.2775E+06     6.97330E+06         41.6625
            1160     14.6171E-03     2.09019E-03         1.22372     477.228E-03        -4.08878         1.22357        -4.08863     477.228E-03    -34.3085E-03     42.7085E-03    -16.2987E-03    -26.4126E-03    -14.5817E-03     40.7949E-03    -26.2160E-03     20.1066E-03     114.900E+06     39.8477E+06    -15.0165E+06    -14.8461E+06     114.729E+06     39.8477E+06     2.55444E+06         38.8351
            1161     13.6281E-03     2.08125E-03         1.09224     427.988E-03        -3.90045         1.09208        -3.90030     427.988E-03    -8.58282E-03     42.4133E-03    -15.5648E-03    -26.8530E-03    -13.3374E-03     40.1860E-03    -26.8530E-03     21.7990E-03     91.5333E+06    -2.15065E+06    -22.9791E+06    -19.9023E+06     91.3255E+06    -5.01959E+06     3.46184E+06         36.2675
            1162     12.6418E-03     2.08350E-03     945.146E-03     382.026E-03        -3.70879     945.109E-03        -3.70875     382.026E-03     20.3705E-03     42.0761E-03    -14.3857E-03    -27.6883E-03    -12.8436E-03     40.5340E-03    -27.6883E-03     18.1229E-03     62.5071E+06    -17.6644E+06    -50.3675E+06    -17.3260E+06     62.1686E+06    -50.3675E+06    -1.81508E+06         34.0611
            1163     11.6527E-03     2.09208E-03     832.968E-03     339.332E-03        -3.55666     832.899E-03        -3.55659     339.332E-03     13.5270E-03     44.7749E-03    -15.9532E-03    -28.8258E-03    -14.2465E-03     43.0682E-03    -28.8258E-03     19.6570E-03     16.9420E+06    -30.3272E+06    -74.6533E+06    -14.5908E+06     1.20556E+06    -74.6533E+06    -9.68406E+06         32.2754
            1164     10.6675E-03     2.09584E-03     733.173E-03     298.658E-03        -3.41343     733.055E-03        -3.41332     298.658E-03     10.1404E-03     48.8980E-03    -18.8014E-03    -30.1226E-03    -17.1305E-03     47.2271E-03    -30.1226E-03     20.2208E-03    -7.17244E+06    -62.9520E+06    -87.7000E+06    -13.8012E+06    -66.5793E+06    -77.4439E+06    -18.8787E+06         30.8512
            1165     9.68686E-03     2.10632E-03     626.971E-03     260.360E-03        -3.26565     626.910E-03        -3.26559     260.360E-03    -1.31771E-03     52.3399E-03    -20.9705E-03    -31.3952E-03    -19.5029E-03     50.8724E-03    -31.3952E-03     19.9679E-03    -7.24427E+06    -77.1287E+06    -122.579E+06    -14.0045E+06    -115.819E+06    -77.1287E+06    -26.6324E+06         29.6454
            1166     8.70799E-03     2.11685E-03     527.968E-03     225.098E-03        -3.13218     527.944E-03        -3.13216     225.098E-03    -7.35485E-03     55.8622E-03    -23.1561E-03    -32.7143E-03    -21.7311E-03     54.4372E-03    -32.7143E-03     20.5741E-03    -8.78380E+06    -65.4948E+06    -159.788E+06    -14.8215E+06    -153.751E+06    -65.4948E+06    -28.8643E+06         28.5812
            1167     7.72970E-03     2.12488E-03     421.823E-03     194.015E-03        -2.99649     421.668E-03        -2.99634     194.015E-03    -27.0466E-03     59.3985E-03    -25.3674E-03    -34.0336E-03    -24.0953E-03     58.1264E-03    -34.0336E-03     20.2139E-03    -12.6707E+06    -52.9952E+06    -177.534E+06    -17.3051E+06    -172.899E+06    -52.9952E+06    -26.6281E+06         27.6591
            1168     6.75595E-03     2.13579E-03     337.168E-03     167.758E-03        -2.88695     337.010E-03        -2.88679     167.758E-03    -13.6968E-03     63.1783E-03    -27.8800E-03    -35.2981E-03    -26.7942E-03     62.0925E-03    -35.2981E-03     19.3700E-03    -17.5103E+06    -44.1744E+06    -180.327E+06    -20.7336E+06    -177.103E+06    -44.1744E+06    -22.0019E+06         26.8960
            1169     5.78243E-03     2.14506E-03     289.400E-03     143.680E-03        -2.81847     289.375E-03        -2.81845     143.680E-03     8.27890E-03     67.0792E-03    -30.5991E-03    -36.4787E-03    -29.7169E-03     66.1969E-03    -36.4787E-03     18.0368E-03    -21.8682E+06    -37.2189E+06    -180.852E+06    -24.0053E+06    -178.715E+06    -37.2189E+06    -17.8441E+06         26.3152
            1170     4.81479E-03     2.15656E-03     249.700E-03     118.676E-03        -2.75416     249.659E-03        -2.75412     118.676E-03    -3.69516E-03     70.6702E-03    -33.1495E-03    -37.5166E-03    -32.4658E-03     69.9865E-03    -37.5166E-03     16.3189E-03    -24.8184E+06    -34.9309E+06    -177.114E+06    -26.4035E+06    -175.529E+06    -34.9309E+06    -14.8823E+06         25.9403
            1171     3.84697E-03     2.16622E-03     181.892E-03     95.0265E-03        -2.66233     181.823E-03        -2.66226     95.0265E-03     5.94270E-03     73.9041E-03    -35.4750E-03    -38.4238E-03    -34.9908E-03     73.4199E-03    -38.4238E-03     14.1052E-03    -25.7997E+06    -34.0602E+06    -177.656E+06    -28.3733E+06    -176.771E+06    -32.3723E+06    -10.5673E+06         25.7871
            1172     2.88454E-03     2.17726E-03     112.406E-03     78.1674E-03        -2.57547     110.561E-03        -2.57474     79.2832E-03     13.3217E-03     76.6720E-03    -37.5072E-03    -39.1597E-03    -37.2047E-03     76.3695E-03    -39.1597E-03     11.3540E-03    -25.4458E+06    -32.6737E+06    -179.936E+06    -30.7470E+06    -179.588E+06    -27.7200E+06    -7.00028E+06         25.8139
            1173     1.92083E-03     2.18388E-03     87.7085E-03     66.5882E-03        -2.54340     80.7232E-03        -2.54202     72.1972E-03    -46.8123E-03     78.6157E-03    -38.8682E-03    -39.7475E-03    -38.8273E-03     78.4658E-03    -39.6386E-03     7.97452E-03    -23.9421E+06    -33.7675E+06    -176.300E+06    -33.3226E+06    -176.106E+06    -24.5809E+06    -4.30463E+06         25.9171
            1174     961.396E-06     2.19062E-03     94.6003E-03     49.0535E-03        -2.54434     86.8063E-03        -2.54104     53.5467E-03     64.5417E-03     79.5918E-03    -39.5106E-03    -40.0802E-03    -39.6600E-03     79.5381E-03    -39.8771E-03     4.64805E-03    -32.0451E+06    -42.0961E+06    -176.916E+06    -40.8234E+06    -176.589E+06    -33.6451E+06    -1.45281E+06         26.0173
            1175     16.5680E-03     1.05320E-03         1.52370     561.197E-03        -4.51715         1.52295        -4.51640     561.197E-03    -77.4923E-03     132.646E-03    -28.4423E-03    -104.341E-03    -86.3127E-03     114.638E-03    -28.4619E-03     119.950E-03     162.729E+06     131.584E+06    -6.89977E+06    -6.44707E+06     162.276E+06     131.584E+06     254.808E+03         44.1770
            1176     15.5971E-03     1.05376E-03         1.35199     506.891E-03        -4.27170         1.35194        -4.27165     506.891E-03    -21.2880E-03     50.8386E-03    -20.1164E-03    -30.7351E-03    -21.5388E-03     48.4209E-03    -26.8950E-03     26.2170E-03     143.023E+06     94.3393E+06    -5.27407E+06    -4.04804E+06     141.797E+06     94.3393E+06     6.07507E+06         41.8188
            1177     14.5924E-03     1.04243E-03         1.20958     454.737E-03        -4.06159         1.20941        -4.06143     454.737E-03    -25.1544E-03     41.3707E-03    -14.1112E-03    -27.2752E-03    -12.7716E-03     40.0311E-03    -27.2752E-03     15.8195E-03     118.584E+06     45.0947E+06    -10.7444E+06    -9.83909E+06     117.679E+06     45.0947E+06     7.04699E+06         39.2937
            1178     13.6137E-03     1.03806E-03         1.07544     404.888E-03        -3.86149         1.07528        -3.86133     404.888E-03    -4.28948E-03     41.3217E-03    -13.2376E-03    -28.0885E-03    -12.2734E-03     40.3575E-03    -28.0885E-03     12.5235E-03     96.7198E+06     9.20003E+06    -19.5556E+06    -9.94949E+06     96.6075E+06    -293.748E+03    -469.523E+03         36.9216
            1179     12.6217E-03     1.04598E-03     940.432E-03     357.792E-03        -3.67218     940.392E-03        -3.67214     357.792E-03     2.65648E-03     41.6136E-03    -12.5556E-03    -29.0601E-03    -11.9715E-03     41.0295E-03    -29.0601E-03     10.3307E-03     63.4954E+06    -7.21201E+06    -56.0557E+06    -7.11097E+06     63.3944E+06    -56.0557E+06    -2.12042E+06         34.8241
            1180     11.6341E-03     1.04489E-03     812.363E-03     313.918E-03        -3.50394     812.285E-03        -3.50386     313.918E-03     12.1476E-03     44.6674E-03    -14.3395E-03    -30.3305E-03    -13.7361E-03     44.0641E-03    -30.3305E-03     10.7108E-03     21.3763E+06    -18.8084E+06    -90.6912E+06    -4.78607E+06     7.35396E+06    -90.6912E+06    -4.78825E+06         33.0846
            1181     10.6496E-03     1.04878E-03     704.659E-03     272.908E-03        -3.35478     704.548E-03        -3.35467     272.908E-03     40.7722E-03     48.0467E-03    -16.1852E-03    -31.8666E-03    -15.7230E-03     47.5845E-03    -31.8666E-03     9.82356E-03    -1.22594E+06    -62.6326E+06    -97.9641E+06    -3.82251E+06    -60.2059E+06    -97.7942E+06    -11.3239E+06         31.7264
            1182     9.66390E-03     1.05318E-03     602.013E-03     234.381E-03        -3.21240     601.945E-03        -3.21233     234.381E-03     10.1919E-03     52.5255E-03    -19.0397E-03    -33.4899E-03    -18.5942E-03     52.0801E-03    -33.4899E-03     10.0412E-03    -2.91054E+06    -93.6579E+06    -120.188E+06    -5.80932E+06    -114.661E+06    -96.2866E+06    -15.4611E+06         30.6458
            1183     8.68431E-03     1.05831E-03     498.039E-03     198.974E-03        -3.07414     497.988E-03        -3.07409     198.974E-03     4.88584E-03     57.4884E-03    -22.3565E-03    -35.1309E-03    -21.8601E-03     56.9920E-03    -35.1309E-03     11.2230E-03    -8.54718E+06    -88.0664E+06    -160.045E+06    -11.1430E+06    -157.449E+06    -88.0664E+06    -16.9781E+06         29.6946
            1184     7.70788E-03     1.06475E-03     406.239E-03     167.102E-03        -2.94918     406.191E-03        -2.94913     167.102E-03     16.0148E-03     61.9962E-03    -25.2132E-03    -36.7787E-03    -24.7406E-03     61.5236E-03    -36.7787E-03     11.6417E-03    -14.5928E+06    -74.2254E+06    -182.405E+06    -16.4643E+06    -180.534E+06    -74.2254E+06    -15.9246E+06         28.8391
            1185     6.73198E-03     1.06896E-03     324.802E-03     138.642E-03        -2.84297     324.742E-03        -2.84291     138.642E-03     15.8580E-03     66.5595E-03    -28.1417E-03    -38.4067E-03    -27.7380E-03     66.1558E-03    -38.4067E-03     11.0602E-03    -20.5855E+06    -60.9841E+06    -185.839E+06    -21.8391E+06    -184.586E+06    -60.9841E+06    -12.4535E+06         28.1174
            1186     5.76243E-03     1.07480E-03     254.032E-03     113.512E-03        -2.75035     253.973E-03        -2.75029     113.512E-03     9.22932E-03     71.2465E-03    -31.2334E-03    -40.0027E-03    -30.9188E-03     70.9319E-03    -40.0027E-03     10.1634E-03    -25.9881E+06    -50.3836E+06    -184.240E+06    -26.8939E+06    -183.334E+06    -50.3836E+06    -9.95597E+06         27.5542
            1187     4.79301E-03     1.08014E-03     188.240E-03     92.1605E-03        -2.66123     187.997E-03        -2.66098     92.1605E-03    -37.2817E-03     76.0338E-03    -34.4910E-03    -41.5308E-03    -34.2545E-03     75.7972E-03    -41.5308E-03     9.13494E-03    -30.9264E+06    -43.7959E+06    -181.952E+06    -31.6428E+06    -181.235E+06    -43.7959E+06    -8.30316E+06         27.1644
            1188     3.82976E-03     1.08671E-03     132.670E-03     75.4088E-03        -2.58533     132.435E-03        -2.58510     75.4088E-03    -31.6533E-03     80.8133E-03    -37.8698E-03    -42.9373E-03    -37.6984E-03     80.6419E-03    -42.9373E-03     7.96540E-03    -34.4530E+06    -40.8561E+06    -183.396E+06     -35.383E+06    -183.054E+06    -40.2682E+06    -6.57688E+06         26.9559
            1189     2.86723E-03     1.09103E-03     100.068E-03     61.0360E-03        -2.53640     98.6345E-03        -2.53608     62.1518E-03    -35.2313E-03     85.1654E-03    -41.0123E-03    -44.1499E-03    -40.9003E-03     85.0534E-03    -44.1499E-03     6.59921E-03    -34.6549E+06    -40.7213E+06    -184.437E+06    -39.2977E+06    -184.225E+06    -36.2902E+06    -4.95745E+06         26.9184
            1190     1.91113E-03     1.09678E-03     73.3206E-03     46.6843E-03        -2.50071     67.2921E-03        -2.50029     52.2932E-03    -37.2243E-03     88.6067E-03    -43.5301E-03    -45.0775E-03    -43.4745E-03     88.5511E-03    -45.0775E-03     4.62146E-03    -33.7042E+06    -44.8934E+06    -181.117E+06    -45.0425E+06    -180.968E+06    -33.7042E+06    -3.37488E+06         27.0043
            1191     953.347E-06     1.09992E-03     68.6189E-03     29.8125E-03        -2.49818     62.8658E-03        -2.49692     34.3056E-03     48.1679E-03     90.9287E-03    -45.1337E-03    -45.7948E-03    -45.3385E-03     90.9067E-03    -45.5680E-03     2.60041E-03    -42.5994E+06    -51.9125E+06    -181.766E+06    -50.5453E+06    -181.533E+06    -44.1995E+06    -90.8277E+03         27.1344
            1192     973.624E-06     58.8504E-03         2.37657     211.096E-03        -4.20138    -474.410E-03        -1.35040     211.096E-03        -2.68070     54.0971E-03    -26.9328E-03    -27.1648E-03    -26.9774E-03     54.0924E-03    -27.1155E-03     1.12184E-03    -16.9097E+06    -24.1701E+06    -168.875E+06    -21.4473E+06    -168.868E+06    -19.6393E+06    -216.348E+03         23.8063
            1193     1.94728E-03     58.8522E-03     854.842E-03    -128.208E-03        -2.34063    -113.523E-03        -1.37227    -128.208E-03     893.233E-03     54.2902E-03    -27.0975E-03    -27.1930E-03    -27.1580E-03     54.2768E-03    -27.1192E-03     2.01665E-03    -12.8415E+06    -19.2915E+06    -172.247E+06    -19.2987E+06    -172.239E+06    -12.8415E+06     249.027E+03         23.8481
            1194     2.92041E-03     58.8538E-03     320.835E-03    -118.957E-03        -1.82051    -83.6991E-03        -1.41598    -118.957E-03    -352.346E-03     54.3448E-03    -27.0978E-03    -27.2470E-03    -27.1687E-03     54.3169E-03    -27.1481E-03     2.95393E-03    -13.6930E+06    -16.2654E+06    -175.569E+06    -16.1581E+06    -175.556E+06    -13.8133E+06     93.2212E+03         23.9333
            1195     3.89384E-03     58.8575E-03     118.572E-03    -107.629E-03        -1.62939    -60.6318E-03        -1.45018    -107.629E-03     272.519E-03     54.4998E-03    -27.1236E-03    -27.3765E-03    -27.2881E-03     54.4582E-03    -27.1704E-03     3.67270E-03    -13.9480E+06    -14.8182E+06    -176.083E+06    -14.7124E+06    -176.068E+06    -14.0683E+06     617.824E+03         24.0663
            1196     4.86681E-03     58.8616E-03     39.7202E-03    -95.3170E-03        -1.55910    -26.0008E-03        -1.49338    -95.3170E-03    -144.251E-03     54.4958E-03    -27.0922E-03    -27.4043E-03    -27.2344E-03     54.4388E-03    -27.2052E-03     4.28925E-03    -11.5501E+06    -13.7648E+06    -175.251E+06    -13.7784E+06    -175.237E+06    -11.5501E+06     1.20766E+06         24.2329
            1197     5.84047E-03     58.8652E-03     37.1109E-03    -80.9923E-03        -1.56652     15.1541E-03        -1.54456    -80.9923E-03     113.886E-03     54.1884E-03    -26.9210E-03    -27.2674E-03    -26.8881E-03     54.0882E-03    -27.2000E-03     5.62211E-03    -10.2414E+06    -14.2491E+06    -175.303E+06    -14.2690E+06    -175.284E+06    -10.2414E+06     1.72613E+06         24.5093
            1198     6.81443E-03     58.8733E-03     80.8212E-03    -64.1349E-03        -1.62512     71.1612E-03        -1.61546    -64.1349E-03     18.0215E-03     54.0037E-03    -26.8507E-03    -27.1503E-03    -26.6902E-03     53.8432E-03    -27.1503E-03     7.16212E-03    -9.61800E+06    -13.6868E+06    -171.121E+06    -13.7192E+06    -171.089E+06    -9.61800E+06     1.70949E+06         25.0768
            1199     7.78819E-03     58.8806E-03     163.310E-03    -43.0167E-03        -1.72467     156.520E-03        -1.71788    -43.0167E-03     60.0078E-03     53.9740E-03    -26.8960E-03    -27.0733E-03    -26.6629E-03     53.7409E-03    -27.0733E-03     8.62110E-03    -10.8937E+06    -14.0017E+06    -158.240E+06    -13.0096E+06    -158.183E+06    -11.9428E+06     1.20247E+06         26.0206
            1200     8.76258E-03     58.8914E-03     241.454E-03    -17.5195E-03        -1.82237     238.591E-03        -1.81951    -17.5195E-03    -277.326E-06     53.8104E-03    -26.8239E-03    -26.9869E-03    -26.5024E-03     53.4888E-03    -26.9869E-03     10.1352E-03    -13.4068E+06    -15.9688E+06    -138.482E+06    -13.4679E+06    -138.421E+06    -15.9688E+06     102.382E+03         27.3209
            1201     9.73621E-03     58.9026E-03     307.740E-03     10.0907E-03        -1.91195     305.955E-03        -1.91017     10.0907E-03     36.4141E-03     53.6717E-03    -26.7509E-03    -26.9200E-03    -26.3007E-03     53.2160E-03    -26.9145E-03     12.0107E-03    -11.5740E+06    -17.1858E+06    -113.501E+06    -13.7496E+06    -113.467E+06    -15.0436E+06    -94.8744E+03         29.0314
            1202     10.7112E-03     58.9171E-03     385.541E-03     38.9968E-03        -2.01596     384.306E-03        -2.01472     38.9968E-03     24.3509E-03     53.4600E-03    -26.6701E-03    -26.8014E-03    -26.1433E-03     52.9278E-03    -26.7959E-03     13.0165E-03    -11.6477E+06    -24.3001E+06    -85.6911E+06    -13.8302E+06    -85.6508E+06    -22.1579E+06     878.809E+03         31.4357
            1203     11.6850E-03     58.9313E-03     475.830E-03     69.8252E-03        -2.13568     474.882E-03        -2.13473     69.8252E-03     43.4636E-03     53.5518E-03    -26.5784E-03    -26.9797E-03    -26.1859E-03     52.8258E-03    -26.6463E-03     15.0550E-03    -14.9963E+06    -28.6636E+06    -56.7591E+06    -15.5433E+06    -48.4697E+06    -36.4060E+06     790.495E+03         34.7632
            1204     12.6599E-03     58.9508E-03     576.346E-03     102.705E-03        -2.26576     575.891E-03        -2.26531     102.705E-03     21.2140E-03     54.1628E-03    -26.4881E-03    -27.6635E-03    -26.1457E-03     52.6450E-03    -26.4881E-03     21.6394E-03     12.3280E+06    -24.4171E+06    -50.2820E+06    -19.8004E+06     7.71129E+06    -50.2820E+06     819.224E+03         38.8927
            1205     13.6344E-03     58.9782E-03     673.617E-03     137.054E-03        -2.39422     673.241E-03        -2.39384     137.054E-03     57.1929E-03     55.2589E-03    -26.4073E-03    -28.8613E-03    -25.8846E-03     52.2822E-03    -26.4073E-03     30.7299E-03     65.1314E+06    -22.3127E+06    -49.8216E+06    -22.2902E+06     65.1090E+06    -49.8216E+06     237.654E+03         43.6804
            1206     14.6078E-03     59.0182E-03     771.313E-03     169.806E-03        -2.51433     771.252E-03        -2.51426     169.806E-03     18.8661E-03     75.3765E-03    -26.6186E-03    -48.7845E-03    -27.5829E-03     54.1750E-03    -26.6186E-03     86.9029E-03     113.859E+06     13.0273E+06    -29.9369E+06    -20.5186E+06     113.827E+06     3.64097E+06    -729.409E+03         49.0399
            1207     15.5843E-03     59.1644E-03     861.050E-03     191.115E-03        -2.61525     861.018E-03        -2.61522     191.115E-03    -948.995E-06     167.797E-03    -26.9693E-03    -140.877E-03    -42.6290E-03     69.5489E-03    -26.9693E-03     285.664E-03     160.243E+06     88.1409E+06    -16.9587E+06    -16.8659E+06     160.150E+06     88.1409E+06     1.15139E+06         54.4197
            1208     16.5580E-03     59.6437E-03     950.050E-03     200.022E-03        -2.69776     949.804E-03        -2.69752     200.022E-03     36.6922E-03     215.486E-03    -27.1892E-03    -188.353E-03    -47.8859E-03     75.0190E-03    -27.1892E-03     384.676E-03     194.763E+06     152.421E+06    -9.85023E+06    -9.77102E+06     194.684E+06     152.421E+06     966.051E+03         58.7697
            1209     973.948E-06     59.9056E-03         2.29779     169.651E-03        -4.03860    -631.849E-03        -1.10896     169.651E-03        -2.61800     53.9201E-03    -26.7344E-03    -27.1871E-03    -26.9521E-03     53.9168E-03    -26.9660E-03     852.602E-06    -13.4714E+06    -21.8713E+06    -168.996E+06    -20.3526E+06    -168.962E+06    -15.0238E+06     1.05157E+06         23.8006
            1210     1.94702E-03     59.9067E-03     814.174E-03    -240.648E-03        -2.14918    -278.106E-03        -1.05690    -240.648E-03     836.024E-03     54.1364E-03    -26.9650E-03    -27.1726E-03    -27.0990E-03     54.1255E-03    -27.0277E-03     1.79764E-03    -11.8871E+06    -16.8298E+06    -171.861E+06    -16.8360E+06    -171.855E+06    -11.8871E+06    -467.685E+03         23.8460
            1211     2.92075E-03     59.9090E-03     267.410E-03    -248.276E-03        -1.60150    -236.093E-03        -1.09800    -248.276E-03    -374.976E-03     54.3715E-03    -27.0897E-03    -27.2816E-03    -27.2554E-03     54.3452E-03    -27.0897E-03     2.86453E-03    -13.1459E+06    -16.0040E+06    -175.405E+06    -15.8905E+06    -175.398E+06    -13.2662E+06    -786.997E+03         23.9349
            1212     3.89380E-03     59.9127E-03     50.7423E-03    -238.900E-03        -1.39012    -176.958E-03        -1.16242    -238.900E-03     236.032E-03     54.2627E-03    -27.0436E-03    -27.2178E-03    -27.1004E-03     54.2231E-03    -27.1213E-03     3.56830E-03    -13.9790E+06    -15.9243E+06    -177.413E+06    -15.8146E+06    -177.402E+06    -14.0993E+06     97.7830E+03         24.0678
            1213     4.86794E-03     59.9161E-03    -32.4404E-03    -221.625E-03        -1.31697    -121.740E-03        -1.22768    -221.625E-03    -154.488E-03     54.2718E-03    -27.0532E-03    -27.2191E-03    -27.0783E-03     54.2087E-03    -27.1309E-03     4.45146E-03    -11.6318E+06    -14.5057E+06    -176.919E+06    -14.5248E+06    -176.900E+06    -11.6318E+06     1.26799E+06         24.2343
            1214     5.84069E-03     59.9211E-03    -58.7666E-03    -202.511E-03        -1.30429    -86.5249E-03        -1.27653    -202.511E-03     140.875E-03     54.3862E-03    -27.0764E-03    -27.3133E-03    -27.1410E-03     54.2835E-03    -27.1460E-03     5.74747E-03    -8.56531E+06    -12.1747E+06    -175.686E+06    -12.1965E+06    -175.665E+06    -8.56531E+06     1.41188E+06         24.5099
            1215     6.81444E-03     59.9265E-03    -24.7410E-03    -182.979E-03        -1.35391    -35.2865E-03        -1.34336    -182.979E-03     41.3643E-03     54.1694E-03    -26.9681E-03    -27.2029E-03    -26.8738E-03     53.9961E-03    -27.1238E-03     7.40544E-03    -9.74417E+06    -11.3066E+06    -171.326E+06    -11.3557E+06    -171.277E+06    -9.74417E+06     1.58145E+06         25.0685
            1216     7.78859E-03     59.9361E-03     53.3096E-03    -160.404E-03        -1.45385     45.6514E-03        -1.44620    -160.404E-03     88.1530E-03     54.1094E-03    -26.9875E-03    -27.1182E-03    -26.7800E-03     53.8604E-03    -27.0768E-03     8.96205E-03    -9.98016E+06    -12.4917E+06    -158.813E+06    -12.2174E+06    -158.745E+06    -10.3225E+06     2.07412E+06         26.0010
            1217     8.76189E-03     59.9451E-03     128.565E-03    -134.200E-03        -1.55369     123.751E-03        -1.54888    -134.200E-03     61.1465E-03     53.9968E-03    -26.9337E-03    -27.0562E-03    -26.6598E-03     53.6815E-03    -27.0148E-03     10.0576E-03    -11.3769E+06    -14.5873E+06    -137.107E+06    -13.5706E+06    -137.017E+06    -12.4830E+06     1.33375E+06         27.2930
            1218     9.73669E-03     59.9572E-03     207.955E-03    -105.594E-03        -1.66013     203.663E-03        -1.65584    -105.594E-03     83.7908E-03     53.8594E-03    -26.8629E-03    -26.9905E-03    -26.4462E-03     53.3930E-03    -26.9408E-03     12.1482E-03    -12.1830E+06    -18.5024E+06    -113.583E+06    -14.8353E+06    -113.504E+06    -15.9289E+06     326.495E+03         28.9981
            1219     10.7100E-03     59.9712E-03     302.809E-03    -74.4401E-03        -1.78368     300.575E-03        -1.78145    -74.4401E-03     61.1445E-03     53.7883E-03    -26.8282E-03    -26.9727E-03    -26.4108E-03     53.2331E-03    -26.8350E-03     13.3407E-03    -13.1868E+06    -26.8241E+06    -86.2375E+06    -15.3698E+06    -86.1967E+06    -24.6819E+06     429.526E+03         31.4038
            1220     11.6849E-03     59.9856E-03     405.918E-03    -40.3911E-03        -1.91602     403.972E-03        -1.91407    -40.3911E-03     75.0867E-03     53.7290E-03    -26.6931E-03    -27.0515E-03    -26.2687E-03     52.9530E-03    -26.6998E-03     15.5602E-03    -16.3308E+06    -30.0681E+06    -57.8026E+06      -16.65E+06    -49.2268E+06    -38.3247E+06     1.49402E+06         34.7409
            1221     12.6588E-03     60.0051E-03     510.313E-03    -4.03686E-03        -2.05230     509.875E-03        -2.05186    -4.03686E-03     33.0726E-03     54.2789E-03    -26.5403E-03    -27.7427E-03    -26.1613E-03     52.6975E-03    -26.5403E-03     22.1826E-03     12.2463E+06    -23.5242E+06    -51.1507E+06    -18.5917E+06     7.31388E+06    -51.1507E+06     1.36105E+06         38.8839
            1222     13.6328E-03     60.0333E-03     605.681E-03     33.4751E-03        -2.18220     605.169E-03        -2.18169     33.4751E-03     69.4679E-03     55.7403E-03    -26.4848E-03    -29.2644E-03    -26.1501E-03     52.6260E-03    -26.4848E-03     31.5512E-03     68.1810E+06    -20.0717E+06    -45.3574E+06    -20.0613E+06     68.1706E+06    -45.3574E+06    -165.927E+03         43.6853
            1223     14.6090E-03     60.0719E-03     703.842E-03     69.2520E-03        -2.30552     703.714E-03        -2.30540     69.2520E-03     15.8251E-03     75.8944E-03    -26.7149E-03    -49.1995E-03    -27.9801E-03     54.6749E-03    -26.7149E-03     87.6070E-03     113.468E+06     12.3853E+06    -28.3794E+06    -22.4070E+06     113.411E+06     6.46948E+06    -331.478E+03         49.0674
            1224     15.5819E-03     60.2206E-03     814.375E-03     95.3978E-03        -2.42951     814.363E-03        -2.42950     95.3978E-03    -6.23649E-03     167.518E-03    -27.0387E-03    -140.530E-03    -42.2735E-03     69.2617E-03    -27.0387E-03     285.095E-03     157.017E+06     85.4643E+06    -18.9528E+06    -18.8383E+06     156.903E+06     85.4643E+06     1.76015E+06         54.4893
            1225     16.5606E-03     60.6953E-03     922.076E-03     111.482E-03        -2.53961     921.926E-03        -2.53946     111.482E-03     34.5267E-03     216.275E-03    -27.2157E-03    -189.112E-03    -47.1531E-03     74.3157E-03    -27.2157E-03     386.758E-03     195.538E+06     151.506E+06    -8.47894E+06    -8.39801E+06     195.457E+06     151.506E+06     1.20891E+06         58.8788
            1226     973.069E-06     60.9598E-03         2.22910     97.7074E-03        -3.85958    -816.061E-03    -814.423E-03     97.7074E-03        -2.46651     53.8673E-03    -26.7298E-03    -27.1388E-03    -26.9588E-03     53.8637E-03    -26.9061E-03     768.837E-06    -13.4217E+06    -23.1068E+06    -168.821E+06    -20.2121E+06    -168.780E+06    -16.3571E+06     1.64807E+06         23.7949
            1227     1.94757E-03     60.9614E-03     824.530E-03    -362.102E-03        -2.00395    -372.927E-03    -806.497E-03    -362.102E-03     810.178E-03     54.1387E-03    -26.9565E-03    -27.1835E-03    -27.1057E-03     54.1237E-03    -27.0192E-03     2.11428E-03    -9.63633E+06    -16.0536E+06    -170.943E+06    -16.0583E+06    -170.938E+06    -9.63633E+06    -342.097E+03         23.8417
            1228     2.92042E-03     60.9643E-03     256.471E-03    -363.133E-03        -1.43967    -351.424E-03    -831.772E-03    -363.133E-03    -363.173E-03     54.2497E-03    -27.0447E-03    -27.2063E-03    -27.1451E-03     54.2247E-03    -27.0809E-03     2.84444E-03    -9.44053E+06    -14.2221E+06    -175.650E+06    -14.2247E+06    -175.648E+06    -9.44053E+06    -337.644E+03         23.9303
            1229     3.89419E-03     60.9673E-03     10.5473E-03    -353.123E-03        -1.19521    -286.240E-03    -898.426E-03    -353.123E-03     243.006E-03     54.1024E-03    -26.9851E-03    -27.1169E-03    -26.9823E-03     54.0680E-03    -27.0853E-03     3.30591E-03    -10.4906E+06    -12.7287E+06    -178.439E+06    -12.7300E+06    -178.438E+06    -10.4906E+06     13.4450E+03         24.0619
            1230     4.86765E-03     60.9705E-03    -104.200E-03    -334.470E-03        -1.09034    -227.813E-03    -966.730E-03    -334.470E-03    -137.209E-03     54.0115E-03    -26.9217E-03    -27.0902E-03    -26.8900E-03     53.9494E-03    -27.0598E-03     4.40139E-03    -10.6938E+06    -11.6349E+06    -178.156E+06    -11.6455E+06    -178.145E+06    -10.6938E+06     234.732E+03         24.2294
            1231     5.84201E-03     60.9762E-03    -128.789E-03    -312.984E-03        -1.08150    -177.156E-03        -1.03314    -312.984E-03     112.052E-03     54.1669E-03    -26.9794E-03    -27.1914E-03    -27.0126E-03     54.0621E-03    -27.0534E-03     5.78374E-03    -9.13274E+06    -11.2949E+06    -176.390E+06    -11.3230E+06    -176.362E+06    -9.13274E+06     1.01819E+06         24.5059
            1232     6.81491E-03     60.9816E-03    -88.1965E-03    -289.167E-03        -1.14286    -105.245E-03        -1.12581    -289.167E-03    -19.2567E-03     54.4201E-03    -27.0444E-03    -27.3813E-03    -27.1826E-03     54.2467E-03    -27.0698E-03     7.44579E-03    -7.89807E+06    -11.0304E+06    -172.537E+06    -11.0886E+06    -172.479E+06    -7.89807E+06     2.18845E+06         25.0582
            1233     7.78853E-03     60.9901E-03    -32.8420E-03    -262.998E-03        -1.22514    -41.8977E-03        -1.21609    -262.998E-03     43.3281E-03     54.2867E-03    -27.0021E-03    -27.2895E-03    -26.9868E-03     54.0356E-03    -27.0536E-03     9.01266E-03    -8.25470E+06    -13.8519E+06    -159.777E+06    -11.6590E+06    -159.684E+06    -10.5402E+06     2.81744E+06         25.9804
            1234     8.76249E-03     61.0006E-03     36.4767E-03    -235.401E-03        -1.32313     28.7898E-03        -1.31544    -235.401E-03     42.5798E-03     54.0321E-03    -26.9458E-03    -27.0835E-03    -26.7160E-03     53.7132E-03    -26.9943E-03     10.1293E-03    -10.0344E+06    -16.1894E+06    -135.924E+06    -12.2320E+06    -135.831E+06    -14.0852E+06     2.41892E+06         27.2639
            1235     9.73568E-03     61.0108E-03     123.356E-03    -205.594E-03        -1.43825     117.767E-03        -1.43266    -205.594E-03     73.3566E-03     54.0277E-03    -26.9123E-03    -27.1133E-03    -26.6012E-03     53.5378E-03    -26.9346E-03     12.4438E-03    -11.6722E+06    -17.7009E+06    -112.852E+06    -13.0479E+06    -112.757E+06    -16.4198E+06     1.59123E+06         28.9636
            1236     10.7107E-03     61.0263E-03     222.826E-03    -172.765E-03        -1.56921     219.907E-03        -1.56629    -172.765E-03     41.8527E-03     53.9477E-03    -26.8472E-03    -27.1286E-03    -26.5378E-03     53.3570E-03    -26.8472E-03     13.7845E-03    -14.5504E+06    -26.2147E+06    -87.4088E+06    -15.4789E+06    -87.3302E+06    -25.3647E+06     1.22175E+06         31.3708
            1237     11.6838E-03     61.0398E-03     329.228E-03    -136.913E-03        -1.70707     327.164E-03        -1.70501    -136.913E-03     54.0891E-03     53.8638E-03    -26.7229E-03    -27.1709E-03    -26.3624E-03     53.0554E-03    -26.7229E-03     15.9024E-03    -17.6533E+06    -29.6011E+06    -57.9998E+06    -17.7615E+06    -49.3245E+06    -38.1682E+06     1.23694E+06         34.7173
            1238     12.6588E-03     61.0595E-03     431.680E-03    -98.9154E-03        -1.84139     431.351E-03        -1.84106    -98.9154E-03    -7.51403E-03     54.4484E-03    -26.5629E-03    -27.8953E-03    -26.2343E-03     52.7873E-03    -26.5629E-03     22.7693E-03     12.6736E+06    -22.9975E+06    -50.6260E+06    -18.9365E+06     8.61252E+06    -50.6260E+06     159.744E+03         38.8735
            1239     13.6339E-03     61.0879E-03     548.371E-03    -59.2441E-03        -1.99110     548.130E-03        -1.99086    -59.2441E-03     43.5904E-03     55.8458E-03    -26.5042E-03    -29.3496E-03    -26.1728E-03     52.6690E-03    -26.5042E-03     31.9552E-03     67.9762E+06    -21.6784E+06    -45.7913E+06    -21.5525E+06     67.8503E+06    -45.7913E+06     918.604E+03         43.6891
            1240     14.6059E-03     61.1278E-03     662.215E-03    -19.8950E-03        -2.13721     662.087E-03        -2.13709    -19.8950E-03     24.1918E-03     76.4913E-03    -26.7379E-03    -49.7754E-03    -28.0697E-03     54.7856E-03    -26.7379E-03     88.8815E-03     113.640E+06     12.1225E+06    -27.5542E+06    -22.3740E+06     113.511E+06     7.07104E+06     2.08853E+06         49.0951
            1241     15.5817E-03     61.2749E-03     767.629E-03     11.5471E-03        -2.26093     767.616E-03        -2.26092     11.5471E-03     2.85348E-03     166.710E-03    -27.0621E-03    -139.705E-03    -41.9257E-03     68.9313E-03    -27.0621E-03     283.676E-03     157.417E+06     84.8512E+06    -18.5664E+06    -18.5333E+06     157.384E+06     84.8512E+06     504.585E+03         54.5563
            1242     16.5588E-03     61.7440E-03     880.714E-03     34.3390E-03        -2.38078     880.570E-03        -2.38063     34.3390E-03     33.1089E-03     216.152E-03    -27.2263E-03    -188.977E-03    -46.5250E-03     73.6998E-03    -27.2263E-03     386.866E-03     194.118E+06     148.800E+06    -10.2087E+06    -10.1938E+06     194.103E+06     148.800E+06    -548.971E+03         58.9805
            1243     974.634E-06     62.0147E-03         2.10376     66.0876E-03        -3.67027    -999.269E-03    -567.236E-03     66.0876E-03        -2.26939     53.8816E-03    -26.7625E-03    -27.1200E-03    -27.0027E-03     53.8780E-03    -26.8761E-03     812.091E-06    -14.9366E+06    -23.0713E+06    -169.229E+06    -20.1621E+06    -169.203E+06    -17.8721E+06    -388.721E+03         23.7884
            1244     1.94688E-03     62.0161E-03     818.042E-03    -464.721E-03        -1.85471    -456.770E-03    -579.900E-03    -464.721E-03     812.281E-03     54.0856E-03    -26.9350E-03    -27.1504E-03    -27.0557E-03     54.0707E-03    -27.0149E-03     2.09909E-03    -10.3019E+06    -16.6237E+06    -171.251E+06    -16.6390E+06    -171.236E+06    -10.3019E+06    -391.749E+03         23.8344
            1245     2.92082E-03     62.0194E-03     249.118E-03    -456.116E-03        -1.29880    -415.218E-03    -634.462E-03    -456.116E-03    -323.803E-03     53.9665E-03    -26.8960E-03    -27.0728E-03    -26.9034E-03     53.9417E-03    -27.0405E-03     2.82499E-03    -8.15878E+06    -14.0224E+06    -175.565E+06    -14.0279E+06    -175.559E+06    -8.15878E+06    -280.377E+03         23.9225
            1246     3.89446E-03     62.0214E-03    -21.3641E-03    -443.107E-03        -1.03340    -391.741E-03    -663.019E-03    -443.107E-03     245.615E-03     53.9783E-03    -26.9427E-03    -27.0368E-03    -26.9348E-03     53.9409E-03    -27.0074E-03     3.43899E-03    -10.1509E+06    -13.3558E+06    -179.011E+06    -12.5607E+06    -179.002E+06    -10.9546E+06     311.822E+03         24.0561
            1247     4.86819E-03     62.0258E-03    -163.579E-03    -428.792E-03    -897.500E-03    -346.926E-03    -714.153E-03    -428.792E-03    -101.884E-03     53.9316E-03    -26.9105E-03    -27.0220E-03    -26.8897E-03     53.8733E-03    -26.9846E-03     4.32114E-03    -12.4413E+06    -13.9626E+06    -178.827E+06    -13.1670E+06    -178.819E+06    -13.2450E+06     457.743E+03         24.2260
            1248     5.84177E-03     62.0295E-03    -198.355E-03    -409.867E-03    -877.717E-03    -276.047E-03    -800.025E-03    -409.867E-03     110.523E-03     54.0126E-03    -26.9110E-03    -27.1025E-03    -26.9234E-03     53.9076E-03    -26.9851E-03     5.74165E-03    -11.9698E+06    -14.3087E+06    -177.718E+06    -14.3354E+06    -177.691E+06    -11.9698E+06     1.23407E+06         24.5005
            1249     6.81608E-03     62.0375E-03    -170.913E-03    -385.495E-03    -929.260E-03    -192.453E-03    -907.720E-03    -385.495E-03    -50.1388E-03     54.3416E-03    -27.0024E-03    -27.3389E-03    -27.1724E-03     54.1751E-03    -27.0024E-03     7.34582E-03    -11.2882E+06    -14.8744E+06    -173.880E+06    -14.9153E+06    -173.839E+06    -11.2882E+06     2.37551E+06         25.0454
            1250     7.78846E-03     62.0449E-03    -104.384E-03    -357.249E-03        -1.02536    -114.676E-03        -1.01507    -357.249E-03    -2.22170E-03     54.2955E-03    -26.9744E-03    -27.3230E-03    -27.0530E-03     54.0517E-03    -27.0006E-03     8.85217E-03    -10.6269E+06    -15.5624E+06    -159.882E+06    -13.3466E+06    -159.812E+06    -12.9123E+06     2.51445E+06         25.9582
            1251     8.76254E-03     62.0545E-03    -29.4524E-03    -326.811E-03        -1.12888    -37.1897E-03        -1.12114    -326.811E-03    -10.4342E-03     54.0706E-03    -26.9334E-03    -27.1396E-03    -26.7831E-03     53.7403E-03    -26.9595E-03     10.3193E-03    -10.9473E+06    -16.3800E+06    -136.136E+06    -12.4818E+06    -135.983E+06    -14.9981E+06     3.20979E+06         27.2327
            1252     9.73704E-03     62.0660E-03     58.1463E-03    -294.279E-03        -1.24685     53.4558E-03        -1.24216    -294.279E-03     18.9359E-03     54.1898E-03    -26.9255E-03    -27.2650E-03    -26.7785E-03     53.7033E-03    -26.9255E-03     12.4505E-03    -12.5185E+06    -16.3512E+06    -112.508E+06    -14.1035E+06    -112.361E+06    -14.9130E+06     2.92131E+06         28.9263
            1253     10.7099E-03     62.0803E-03     158.707E-03    -259.087E-03        -1.38172     155.940E-03        -1.37895    -259.087E-03    -4.57637E-03     54.0615E-03    -26.8554E-03    -27.2297E-03    -26.6526E-03     53.4844E-03    -26.8554E-03     13.6404E-03    -14.2750E+06    -23.9178E+06    -87.7063E+06    -15.2055E+06    -87.6258E+06    -23.0679E+06     2.07993E+06         31.3344
            1254     11.6850E-03     62.0949E-03     262.008E-03    -221.293E-03        -1.51860     260.646E-03        -1.51724    -221.293E-03     47.4690E-03     53.8987E-03    -26.7377E-03    -27.1927E-03    -26.4079E-03     53.1138E-03    -26.7377E-03     15.6823E-03    -16.6683E+06    -28.1489E+06    -56.5745E+06    -16.8213E+06    -48.8764E+06    -35.6940E+06     1.46940E+06         34.6891
            1255     12.6586E-03     62.1135E-03     368.698E-03    -181.539E-03        -1.65949     368.272E-03        -1.65907    -181.539E-03     10.9954E-03     54.7354E-03    -26.5843E-03    -28.1613E-03    -26.4566E-03     53.0307E-03    -26.5843E-03     23.0433E-03     12.7337E+06    -24.1470E+06    -49.6936E+06    -20.8162E+06     9.40293E+06    -49.6936E+06     1.33243E+06         38.8570
            1256     13.6317E-03     62.1437E-03     497.978E-03    -139.642E-03        -1.82118     497.662E-03        -1.82087    -139.642E-03     42.6188E-03     55.6066E-03    -26.5069E-03    -29.1114E-03    -26.0032E-03     52.4984E-03    -26.5069E-03     31.5955E-03      66.657E+06    -24.0203E+06    -49.0734E+06    -23.7247E+06     66.3613E+06    -49.0734E+06     909.094E+03         43.6872
            1257     14.6094E-03     62.1807E-03     632.472E-03    -96.8634E-03        -1.98891     632.400E-03        -1.98884    -96.8634E-03     22.2536E-03     76.4322E-03    -26.6993E-03    -49.7592E-03    -27.3444E-03     54.0174E-03    -26.6993E-03     89.5938E-03     112.616E+06     10.0661E+06    -29.2697E+06    -22.0086E+06     112.407E+06     3.01459E+06     1.26219E+06         49.1202
            1258     15.5829E-03     62.3332E-03     741.588E-03    -60.0938E-03        -2.12577     741.581E-03        -2.12576    -60.0938E-03     5.54571E-03     166.842E-03    -26.9955E-03    -139.890E-03    -41.1998E-03     68.1517E-03    -26.9955E-03     284.822E-03     160.288E+06     85.7849E+06    -16.2448E+06    -16.1934E+06     160.237E+06     85.7849E+06     541.539E+03         54.6239
            1259     16.5572E-03     62.7943E-03     845.740E-03    -30.8033E-03        -2.24313     845.634E-03        -2.24302    -30.8033E-03     26.8036E-03     217.654E-03    -27.1714E-03    -190.523E-03    -47.5780E-03     74.7085E-03    -27.1714E-03     389.395E-03     195.114E+06     149.949E+06    -10.5415E+06    -10.5244E+06     195.097E+06     149.949E+06    -763.403E+03         59.0803
            1260     972.731E-06     63.0691E-03         1.96718     22.0576E-03        -3.44917        -1.14120    -340.801E-03     22.0576E-03        -2.18474     53.9327E-03    -26.7883E-03    -27.1451E-03    -27.0186E-03     53.9256E-03    -26.9077E-03     742.947E-06    -12.6724E+06    -19.1658E+06    -168.132E+06    -17.9108E+06    -168.099E+06    -13.9602E+06    -1.16529E+06         23.7774
            1261     1.94724E-03     63.0714E-03     781.963E-03    -550.762E-03        -1.69284    -515.241E-03    -395.632E-03    -550.762E-03     690.156E-03     53.7892E-03    -26.7684E-03    -27.0203E-03    -26.8043E-03     53.7724E-03    -26.9677E-03     2.24302E-03    -11.7992E+06    -16.3629E+06    -172.597E+06    -16.3836E+06    -172.577E+06    -11.7992E+06     360.679E+03         23.8226
            1262     2.92107E-03     63.0729E-03     268.566E-03    -534.206E-03        -1.19935    -487.086E-03    -443.693E-03    -534.206E-03    -319.793E-03     53.7757E-03    -26.8274E-03    -26.9487E-03    -26.8122E-03     53.7501E-03    -26.9384E-03     2.85555E-03    -9.87626E+06    -14.6781E+06    -175.542E+06    -14.6877E+06    -175.533E+06    -9.87626E+06     586.702E+03         23.9153
            1263     3.89493E-03     63.0767E-03    -3.56959E-03    -520.833E-03    -934.320E-03    -474.969E-03    -462.920E-03    -520.833E-03     217.654E-03     53.7654E-03    -26.8336E-03    -26.9333E-03    -26.8166E-03     53.7285E-03    -26.9134E-03     3.43578E-03    -10.8413E+06    -15.5338E+06    -179.751E+06    -14.7452E+06    -179.736E+06    -11.6450E+06     925.034E+03         24.0542
            1264     4.86851E-03     63.0795E-03    -167.067E-03    -506.296E-03    -776.029E-03    -415.659E-03    -527.437E-03    -506.296E-03    -118.832E-03     53.9306E-03    -26.8513E-03    -27.0799E-03    -26.9681E-03     53.8675E-03    -26.9000E-03     4.45250E-03    -14.3184E+06    -16.9256E+06    -179.328E+06    -16.1514E+06    -179.299E+06    -15.1221E+06     1.84075E+06         24.2265
            1265     5.84232E-03     63.0847E-03    -258.102E-03    -486.498E-03    -707.181E-03    -353.648E-03    -611.635E-03    -486.498E-03     127.263E-03     54.1741E-03    -26.9408E-03    -27.2330E-03    -27.1213E-03     54.0624E-03    -26.9408E-03     5.96776E-03    -13.3049E+06    -17.0944E+06    -178.923E+06    -17.1249E+06    -178.893E+06    -13.3049E+06     1.88303E+06         24.4970
            1266     6.81497E-03     63.0917E-03    -260.063E-03    -463.171E-03    -730.407E-03    -285.603E-03    -704.867E-03    -463.171E-03    -11.1917E-03     54.0941E-03    -26.9573E-03    -27.1306E-03    -26.9529E-03     53.9249E-03    -26.9658E-03     7.37547E-03    -11.9113E+06    -15.9926E+06    -174.925E+06    -16.0229E+06    -174.895E+06    -11.9113E+06     2.10220E+06         25.0319
            1267     7.78999E-03     63.0999E-03    -183.359E-03    -435.895E-03    -832.311E-03    -194.159E-03    -821.511E-03    -435.895E-03     39.3174E-03     54.0907E-03    -26.9327E-03    -27.1460E-03    -26.8982E-03     53.8514E-03    -26.9412E-03     8.76329E-03    -13.1783E+06    -16.0055E+06    -159.968E+06    -15.2128E+06    -159.929E+06    -14.0099E+06     2.15524E+06         25.9339
            1268     8.76304E-03     63.1092E-03    -93.7451E-03    -404.441E-03    -952.084E-03    -99.0390E-03    -946.790E-03    -404.441E-03     23.1492E-03     54.2026E-03    -26.8995E-03    -27.2969E-03    -26.9580E-03     53.8637E-03    -26.8995E-03     10.4335E-03    -13.8002E+06    -19.8963E+06    -137.843E+06    -15.3009E+06    -137.724E+06    -18.5145E+06     2.39905E+06         27.1988
            1269     9.73614E-03     63.1207E-03     9.13316E-03    -369.507E-03        -1.08557     4.88271E-03        -1.08132    -369.507E-03     27.4884E-03     54.2892E-03    -26.8841E-03    -27.4034E-03    -26.8959E-03     53.7817E-03    -26.8841E-03     12.7478E-03    -13.4716E+06    -18.8034E+06    -113.289E+06    -14.5794E+06    -113.002E+06    -17.9834E+06     3.69767E+06         28.8857
            1270     10.7105E-03     63.1354E-03     109.991E-03    -331.671E-03        -1.22269     107.434E-03        -1.22013    -331.671E-03     14.7209E-03     54.2246E-03    -26.8372E-03    -27.4002E-03    -26.8105E-03     53.6348E-03    -26.8372E-03     13.8138E-03    -15.6182E+06    -24.0399E+06    -86.5582E+06    -16.0827E+06    -86.3252E+06    -23.8082E+06     3.31760E+06         31.2925
            1271     11.6836E-03     63.1488E-03     213.758E-03    -291.638E-03        -1.36262     212.187E-03        -1.36105    -291.638E-03     58.8187E-03     54.0895E-03    -26.7399E-03    -27.3650E-03    -26.5750E-03     53.2995E-03    -26.7399E-03     15.7837E-03    -18.2305E+06     -30.194E+06    -56.1570E+06    -19.1929E+06    -48.9437E+06    -36.4449E+06     2.69831E+06         34.6514
            1272     12.6583E-03     63.1688E-03     326.171E-03    -249.702E-03        -1.51060     325.843E-03        -1.51028    -249.702E-03     16.6288E-03     54.7076E-03    -26.5871E-03    -28.1240E-03    -26.3048E-03     52.8885E-03    -26.5871E-03     23.6640E-03     13.3159E+06    -24.2464E+06    -50.1788E+06     -20.592E+06     9.66147E+06    -50.1788E+06     1.96416E+06         38.8295
            1273     13.6332E-03     63.1987E-03     446.327E-03    -205.901E-03        -1.66736     446.027E-03        -1.66706    -205.901E-03     30.2774E-03     55.6316E-03    -26.4948E-03    -29.1433E-03    -26.0558E-03     52.5442E-03    -26.4948E-03     31.6713E-03     67.8813E+06    -22.2126E+06    -49.9503E+06    -21.8868E+06     67.5555E+06    -49.9503E+06     519.551E+03         43.6764
            1274     14.6061E-03     63.2335E-03     585.631E-03    -161.201E-03        -1.84135     585.567E-03        -1.84129    -161.201E-03     1.65628E-03     76.0429E-03    -26.6736E-03    -49.3864E-03    -27.1947E-03     53.8512E-03    -26.6736E-03     88.3896E-03     111.507E+06     6.77848E+06    -30.5699E+06    -22.2370E+06     111.230E+06    -1.27773E+06    -186.837E+03         49.1364
            1275     15.5853E-03     63.3864E-03     722.311E-03    -120.323E-03        -2.00859     722.298E-03        -2.00858    -120.323E-03    -4.94760E-03     164.455E-03    -26.9574E-03    -137.545E-03    -39.9389E-03     66.8494E-03    -26.9574E-03     280.780E-03     159.145E+06     82.6692E+06    -16.2612E+06    -16.1365E+06     159.021E+06     82.6692E+06    -1.05112E+06         54.6819
            1276     16.5686E-03     63.8493E-03     834.617E-03    -84.6938E-03        -2.14191     834.515E-03        -2.14181    -84.6938E-03     25.3661E-03     217.164E-03    -27.1503E-03    -190.063E-03    -47.9046E-03     75.0063E-03    -27.1503E-03     388.218E-03     196.885E+06     151.785E+06    -8.76302E+06    -8.74455E+06     196.867E+06     151.785E+06     461.367E+03         59.1706
            1277     974.202E-06     64.1239E-03         1.85140     31.3389E-03        -3.30215        -1.29864    -152.110E-03     31.3389E-03        -2.05647     53.4161E-03    -26.5051E-03    -26.9110E-03    -26.6895E-03     53.4075E-03    -26.7180E-03     1.06340E-03    -15.3007E+06    -21.3998E+06    -169.439E+06    -20.1383E+06    -169.413E+06    -16.5885E+06     823.093E+03         23.7593
            1278     1.94781E-03     64.1249E-03     775.299E-03    -622.997E-03        -1.57786    -579.985E-03    -222.579E-03    -622.997E-03     636.987E-03     53.5801E-03    -26.6484E-03    -26.9309E-03    -26.7932E-03     53.5618E-03    -26.7678E-03     2.37966E-03    -11.6809E+06    -17.8810E+06    -173.107E+06    -17.8920E+06    -173.096E+06    -11.6809E+06     1.17690E+06         23.8064
            1279     2.92141E-03     64.1280E-03     304.459E-03    -605.329E-03        -1.12294    -562.950E-03    -255.532E-03    -605.329E-03    -295.544E-03     53.6372E-03    -26.7938E-03    -26.8430E-03    -26.8134E-03     53.6103E-03    -26.7965E-03     2.92681E-03    -12.8794E+06    -16.4287E+06    -177.138E+06    -16.4577E+06    -177.109E+06    -12.8794E+06     1.76009E+06         23.9037
            1280     3.89505E-03     64.1302E-03     46.3476E-03    -589.795E-03    -879.711E-03    -520.578E-03    -312.785E-03    -589.795E-03     193.182E-03     53.7208E-03    -26.7707E-03    -26.9508E-03    -26.8641E-03     53.6856E-03    -26.8222E-03     3.36297E-03    -12.3401E+06    -16.4731E+06    -179.900E+06    -16.5105E+06    -179.862E+06    -12.3401E+06     2.26190E+06         24.0482
            1281     4.86942E-03     64.1340E-03    -136.856E-03    -569.715E-03    -714.893E-03    -453.242E-03    -398.507E-03    -569.715E-03    -138.022E-03     53.9363E-03    -26.8084E-03    -27.1272E-03    -27.0134E-03     53.8712E-03    -26.8571E-03     4.48869E-03    -11.6773E+06    -15.8301E+06    -180.380E+06    -15.8749E+06    -180.335E+06    -11.6773E+06     2.56471E+06         24.2240
            1282     5.84207E-03     64.1399E-03    -261.367E-03    -542.873E-03    -618.277E-03    -399.593E-03    -476.790E-03    -546.134E-03     106.651E-03     54.0509E-03    -26.8949E-03    -27.1551E-03    -27.0432E-03     53.9391E-03    -26.8949E-03     5.99549E-03    -11.3392E+06    -15.4293E+06    -178.962E+06    -15.4799E+06    -178.911E+06    -11.3392E+06     2.74744E+06         24.4926
            1283     6.81647E-03     64.1458E-03    -295.562E-03    -517.841E-03    -611.758E-03    -337.035E-03    -567.024E-03    -521.102E-03    -20.0706E-03     53.9968E-03    -26.9004E-03    -27.0941E-03    -26.9103E-03     53.8216E-03    -26.9089E-03     7.47177E-03    -12.0722E+06    -15.6463E+06    -175.026E+06    -15.5874E+06    -175.004E+06    -12.1533E+06     1.54395E+06         25.0176
            1284     7.78930E-03     64.1542E-03    -246.109E-03    -493.716E-03    -682.591E-03    -259.770E-03    -668.930E-03    -493.716E-03     47.4259E-03     54.0049E-03    -26.8737E-03    -27.1192E-03    -26.8564E-03     53.7506E-03    -26.8822E-03     9.03524E-03    -13.1409E+06    -15.5389E+06    -160.298E+06    -14.0737E+06    -160.274E+06    -14.6299E+06     1.24597E+06         25.9075
            1285     8.76360E-03     64.1640E-03    -150.703E-03    -462.559E-03    -801.803E-03    -156.789E-03    -795.717E-03    -462.559E-03     39.9890E-03     54.1195E-03    -26.8417E-03    -27.2629E-03    -26.9069E-03     53.7636E-03    -26.8417E-03     10.6821E-03    -13.3795E+06    -18.9795E+06    -139.463E+06    -13.7747E+06    -139.377E+06    -18.6701E+06     2.00297E+06         27.1625
            1286     9.73746E-03     64.1756E-03    -41.8514E-03    -427.128E-03    -940.801E-03    -47.2553E-03    -935.397E-03    -427.128E-03     34.6300E-03     54.2178E-03    -26.8199E-03    -27.3952E-03    -26.8576E-03     53.6803E-03    -26.8199E-03     13.1228E-03    -14.7603E+06    -20.9048E+06    -115.505E+06    -15.5603E+06    -115.246E+06    -20.3637E+06     3.55783E+06         28.8417
            1287     10.7108E-03     64.1899E-03     55.7977E-03    -388.678E-03        -1.07495     53.4433E-03        -1.07259    -388.678E-03     11.9181E-03     54.1845E-03    -26.7879E-03    -27.4031E-03    -26.7529E-03     53.5342E-03    -26.7879E-03     14.5045E-03    -15.5078E+06    -23.0508E+06    -86.9686E+06    -16.2584E+06    -86.4496E+06    -22.8191E+06     4.94321E+06         31.2444
            1288     11.6848E-03     64.2045E-03     166.594E-03    -347.933E-03        -1.22147     165.056E-03        -1.21993    -347.933E-03     32.4892E-03     54.2997E-03    -26.6892E-03    -27.6169E-03    -26.7323E-03     53.4151E-03    -26.6892E-03     16.7736E-03    -14.6703E+06    -25.9030E+06    -58.4296E+06    -16.4307E+06    -47.0699E+06    -35.5023E+06     2.85143E+06         34.6008
            1289     12.6585E-03     64.2224E-03     293.076E-03    -304.524E-03        -1.38757     292.807E-03        -1.38730    -304.524E-03    -14.1938E-03     54.6482E-03    -26.5338E-03    -28.1197E-03    -26.2540E-03     52.7825E-03    -26.5338E-03     24.0465E-03     15.7162E+06    -21.7402E+06    -51.1777E+06    -17.3552E+06     11.3312E+06    -51.1777E+06     588.552E+03         38.7852
            1290     13.6333E-03     64.2534E-03     418.426E-03    -258.638E-03        -1.55630     418.234E-03        -1.55611    -258.638E-03     23.6929E-03     55.8516E-03    -26.4532E-03    -29.4098E-03    -26.1170E-03     52.5588E-03    -26.4532E-03     32.6905E-03     67.3479E+06    -19.7226E+06    -50.5291E+06    -19.4023E+06     67.0276E+06    -50.5291E+06     665.071E+03         43.6540
            1291     14.6083E-03     64.2896E-03     543.226E-03    -211.908E-03        -1.71902     543.047E-03        -1.71884    -211.908E-03    -1.02258E-03     76.2074E-03    -26.6750E-03    -49.5551E-03    -27.7806E-03     54.4329E-03    -26.6750E-03     88.4173E-03     113.798E+06     13.6947E+06    -30.1986E+06    -18.9867E+06     113.554E+06     2.72639E+06    -365.279E+03         49.1461
            1292     15.5809E-03     64.4374E-03     678.321E-03    -168.048E-03        -1.88347     678.261E-03        -1.88341    -168.048E-03    -7.22182E-03     164.635E-03    -27.0677E-03    -137.625E-03    -42.6629E-03     69.6732E-03    -27.0677E-03     278.983E-03     158.645E+06     84.6024E+06    -18.2017E+06    -18.0856E+06     158.529E+06     84.6024E+06    -144.776E+03         54.7235
            1293     16.5515E-03     64.8941E-03     811.107E-03    -127.304E-03        -2.03941     811.030E-03        -2.03934    -127.304E-03     22.9616E-03     215.757E-03    -27.2884E-03    -188.522E-03    -46.5389E-03     73.7746E-03    -27.2884E-03     385.742E-03     194.463E+06     148.123E+06    -11.6277E+06    -11.5766E+06     194.412E+06     148.123E+06     94.1613E+03         59.2416
            1294     974.555E-06     65.1777E-03         1.61363     155.484E-03        -3.16478        -1.45685    -94.2964E-03     155.484E-03        -1.84579     52.9813E-03    -26.1934E-03    -26.7881E-03    -26.6748E-03     52.9771E-03    -26.3025E-03     917.963E-06    -19.8186E+06    -24.5435E+06    -171.316E+06    -23.8668E+06    -171.282E+06    -20.5287E+06     5.72521E+03         23.7411
            1295     1.94787E-03     65.1796E-03     735.076E-03    -656.156E-03        -1.46901    -679.134E-03    -54.8049E-03    -656.156E-03     623.115E-03     53.3368E-03    -26.5738E-03    -26.7627E-03    -26.7326E-03     53.3223E-03    -26.5894E-03     2.07165E-03    -13.4845E+06    -19.6750E+06    -173.867E+06    -19.6981E+06    -173.844E+06    -13.4845E+06     1.37149E+06         23.7919
            1296     2.92191E-03     65.1815E-03     304.985E-03    -655.033E-03        -1.04029    -613.418E-03    -121.891E-03    -655.033E-03    -233.147E-03     53.5097E-03    -26.6789E-03    -26.8310E-03    -26.8042E-03     53.4829E-03    -26.6789E-03     2.92342E-03    -12.6806E+06    -18.2849E+06    -178.417E+06    -18.3299E+06    -178.372E+06    -12.6806E+06     2.21609E+06         23.8901
            1297     3.89589E-03     65.1848E-03     75.9392E-03    -637.546E-03    -830.172E-03    -552.303E-03    -201.929E-03    -637.546E-03     184.611E-03     53.8235E-03    -26.7544E-03    -27.0697E-03    -27.0317E-03     53.7856E-03    -26.7544E-03     3.48270E-03    -12.0387E+06    -16.6878E+06    -181.375E+06    -16.7325E+06    -181.330E+06    -12.0387E+06     2.46841E+06         24.0365
            1298     4.86828E-03     65.1887E-03    -98.1021E-03    -610.849E-03    -684.993E-03    -498.137E-03    -280.493E-03    -615.314E-03    -113.978E-03     53.8974E-03    -26.8212E-03    -27.0772E-03    -27.0113E-03     53.8316E-03    -26.8212E-03     4.54066E-03    -11.2988E+06    -15.2149E+06    -181.542E+06    -15.2600E+06    -181.497E+06    -11.2988E+06       2.722E+06         24.2155
            1299     5.84317E-03     65.1939E-03    -225.004E-03    -566.167E-03    -606.672E-03    -442.848E-03    -363.591E-03    -591.403E-03     89.5500E-03     53.7943E-03    -26.8489E-03    -26.9440E-03    -26.8373E-03     53.6887E-03    -26.8500E-03     5.81370E-03    -10.0291E+06    -13.7841E+06    -178.749E+06    -13.8266E+06    -178.706E+06    -10.0291E+06     2.60633E+06         24.4834
            1300     6.81623E-03     65.2005E-03    -296.868E-03    -521.399E-03    -579.099E-03    -374.552E-03    -457.197E-03    -565.617E-03    -43.3991E-03     53.8336E-03    -26.8444E-03    -26.9882E-03    -26.8179E-03     53.6645E-03    -26.8455E-03     7.31918E-03    -10.6753E+06    -13.1574E+06    -173.548E+06    -13.0986E+06    -173.526E+06    -10.7563E+06     1.56761E+06         25.0001
            1301     7.79070E-03     65.2085E-03    -265.455E-03    -513.471E-03    -611.845E-03    -291.311E-03    -562.543E-03    -536.918E-03    -1.99895E-03     53.9142E-03    -26.8176E-03    -27.0987E-03    -26.8323E-03     53.6477E-03    -26.8176E-03     9.23061E-03    -13.6804E+06    -15.7044E+06    -161.266E+06    -14.3793E+06    -161.235E+06    -15.0370E+06     1.34771E+06         25.8791
            1302     8.76401E-03     65.2185E-03    -175.317E-03    -504.401E-03    -705.883E-03    -189.224E-03    -691.977E-03    -504.401E-03    -2.21707E-03     53.9424E-03    -26.7847E-03    -27.1539E-03    -26.7857E-03     53.5743E-03    -26.7847E-03     10.8758E-03    -14.8077E+06    -18.4047E+06    -140.543E+06    -15.2124E+06    -140.448E+06    -18.0953E+06     2.22690E+06         27.1242
            1303     9.73776E-03     65.2301E-03    -91.2003E-03    -468.699E-03    -818.988E-03    -97.0011E-03    -813.187E-03    -468.699E-03     32.8796E-03     54.0034E-03    -26.7511E-03    -27.2663E-03    -26.7266E-03     53.4637E-03    -26.7511E-03     13.1147E-03    -14.1932E+06    -20.6304E+06    -117.120E+06    -14.6568E+06    -116.966E+06    -20.3210E+06     3.01139E+06         28.7945
            1304     10.7120E-03     65.2446E-03     8.17667E-03    -430.709E-03    -951.793E-03     5.94084E-03    -949.557E-03    -430.709E-03     5.43093E-03     53.9373E-03    -26.6942E-03    -27.2763E-03    -26.6242E-03     53.2852E-03    -26.6942E-03     14.4908E-03    -13.0350E+06    -25.6730E+06    -87.8947E+06    -13.4674E+06    -87.4623E+06    -25.6730E+06     3.22764E+06         31.1891
            1305     11.6863E-03     65.2587E-03     136.171E-03    -389.498E-03        -1.11921     134.954E-03        -1.11800    -389.498E-03     35.7808E-03     54.0280E-03    -26.5917E-03    -27.4574E-03    -26.5422E-03     53.1128E-03    -26.5917E-03     16.9759E-03    -11.0211E+06    -25.1701E+06    -56.8481E+06    -13.1230E+06    -43.7492E+06    -36.1672E+06     1.80568E+06         34.5360
            1306     12.6598E-03     65.2786E-03     269.363E-03    -344.649E-03        -1.29257     269.163E-03        -1.29237    -344.649E-03    -4.57487E-03     54.7268E-03    -26.4447E-03    -28.2922E-03    -26.4562E-03     52.8907E-03    -26.4447E-03     24.0267E-03     15.2787E+06    -19.7775E+06    -52.1146E+06    -15.7396E+06     11.2408E+06    -52.1146E+06     820.146E+03         38.7222
            1307     13.6345E-03     65.3055E-03     394.414E-03    -297.186E-03        -1.46170     394.123E-03        -1.46141    -297.186E-03     38.7845E-03     55.8676E-03    -26.3985E-03    -29.4901E-03    -26.0207E-03     52.3982E-03    -26.3985E-03     33.3619E-03     67.5183E+06    -19.4256E+06    -47.0999E+06    -19.1205E+06     67.2132E+06    -47.0999E+06     795.512E+03         43.6198
            1308     14.6082E-03     65.3473E-03     515.275E-03    -248.870E-03        -1.62248     514.707E-03        -1.62192    -248.870E-03    -3.80604E-03     76.3077E-03    -26.6462E-03    -49.6930E-03    -28.2323E-03     54.8470E-03    -26.6462E-03     88.9843E-03     113.843E+06     12.8381E+06    -28.1420E+06    -21.6411E+06     113.676E+06     6.50381E+06     929.928E+03         49.1519
            1309     15.5853E-03     65.4903E-03     639.781E-03    -202.435E-03        -1.78032     639.430E-03        -1.77997    -202.435E-03    -26.8462E-03     167.730E-03    -27.0282E-03    -140.759E-03    -43.7071E-03     70.6782E-03    -27.0282E-03     284.419E-03     157.143E+06     82.7531E+06    -20.4133E+06    -20.3693E+06     157.099E+06     82.7531E+06     1.52411E+06         54.7701
            1310     16.5531E-03     65.9672E-03     770.886E-03    -157.623E-03        -1.94026     770.850E-03        -1.94022    -157.623E-03     4.15460E-03     216.555E-03    -27.2274E-03    -189.380E-03    -46.2836E-03     73.4579E-03    -27.2274E-03     387.647E-03     195.506E+06     147.971E+06    -10.5214E+06    -10.4806E+06     195.465E+06     147.971E+06    -5.48591E+03         59.3233
            1311     973.571E-06     66.2316E-03         1.31134     242.839E-03        -2.91502        -1.58678    -16.9055E-03     242.839E-03        -1.58820     52.9831E-03    -26.1484E-03    -26.8347E-03    -26.4916E-03     52.9791E-03    -26.4876E-03     753.359E-06    -18.8912E+06    -24.1532E+06    -172.561E+06    -23.4669E+06    -172.538E+06    -19.6014E+06    -646.829E+03         23.7324
            1312     1.94837E-03     66.2330E-03     637.691E-03    -677.653E-03        -1.31964    -700.058E-03     18.1098E-03    -677.653E-03     505.363E-03     53.1344E-03    -26.4896E-03    -26.6444E-03    -26.5656E-03     53.1201E-03    -26.5541E-03     2.07347E-03    -13.9866E+06    -20.0795E+06    -176.198E+06    -20.1059E+06    -176.172E+06    -13.9866E+06     1.38328E+06         23.7855
            1313     2.92219E-03     66.2357E-03     277.900E-03    -676.583E-03    -964.295E-03    -636.321E-03    -50.0745E-03    -676.583E-03    -222.608E-03     53.4943E-03    -26.6327E-03    -26.8613E-03    -26.8347E-03     53.4677E-03    -26.6327E-03     2.90491E-03    -10.6533E+06    -16.9602E+06    -179.131E+06    -17.0067E+06    -179.084E+06    -10.6533E+06     2.47758E+06         23.8823
            1314     3.89527E-03     66.2393E-03     77.4587E-03    -660.950E-03    -781.794E-03    -589.219E-03    -115.116E-03    -660.950E-03     156.315E-03     53.6853E-03    -26.7097E-03    -26.9762E-03    -26.9350E-03     53.6441E-03    -26.7097E-03     3.62019E-03    -11.4853E+06    -15.5827E+06    -182.843E+06    -15.6163E+06    -182.809E+06    -11.4853E+06     1.96183E+06         24.0245
            1315     4.86994E-03     66.2431E-03    -72.8717E-03    -626.327E-03    -665.975E-03    -535.211E-03    -188.535E-03    -641.428E-03    -96.2026E-03     53.7208E-03    -26.7533E-03    -26.9690E-03    -26.9014E-03     53.6533E-03    -26.7533E-03     4.62460E-03    -12.7407E+06    -14.7247E+06    -181.771E+06    -14.7543E+06    -181.741E+06    -12.7407E+06     2.01010E+06         24.2020
            1316     5.84244E-03     66.2481E-03    -194.061E-03    -553.604E-03    -619.397E-03    -481.379E-03    -266.285E-03    -619.397E-03     85.0462E-03     53.6771E-03    -26.7809E-03    -26.8952E-03    -26.7802E-03     53.5632E-03    -26.7820E-03     5.99594E-03    -10.6115E+06    -13.8311E+06    -179.115E+06    -13.8586E+06    -179.087E+06    -10.6115E+06     2.10887E+06         24.4685
            1317     6.81717E-03     66.2545E-03    -281.774E-03    -490.154E-03    -594.639E-03    -407.376E-03    -364.552E-03    -594.639E-03    -19.1381E-03     53.7192E-03    -26.7849E-03    -26.9349E-03    -26.7555E-03     53.5409E-03    -26.7861E-03     7.53024E-03    -9.95655E+06    -13.2062E+06    -173.586E+06    -13.2623E+06    -173.530E+06    -9.95655E+06     2.61259E+06         24.9790
            1318     7.79060E-03     66.2627E-03    -273.018E-03    -501.327E-03    -586.871E-03    -313.079E-03    -482.506E-03    -565.632E-03    -8.27245E-03     53.8005E-03    -26.7624E-03    -27.0395E-03    -26.7805E-03     53.5415E-03    -26.7624E-03     9.10071E-03    -12.8488E+06    -15.1688E+06    -161.925E+06    -14.3178E+06    -161.843E+06    -13.7818E+06     3.20818E+06         25.8489
            1319     8.76479E-03     66.2730E-03    -199.076E-03    -521.913E-03    -634.881E-03    -215.360E-03    -608.085E-03    -532.425E-03    -18.4695E-03     53.7540E-03    -26.7118E-03    -27.0441E-03    -26.6803E-03     53.3902E-03    -26.7118E-03     10.7815E-03    -16.4403E+06    -20.9086E+06    -141.092E+06    -16.5352E+06    -140.997E+06    -20.9086E+06     2.65968E+06         27.0846
            1320     9.73876E-03     66.2843E-03    -112.872E-03    -496.157E-03    -740.136E-03    -118.462E-03    -734.547E-03    -496.157E-03     27.7418E-03     53.8068E-03    -26.6657E-03    -27.1605E-03    -26.6181E-03     53.2643E-03    -26.6657E-03     13.1295E-03    -16.4316E+06    -24.9050E+06    -117.319E+06    -16.6325E+06    -117.118E+06    -24.9050E+06     1.32061E+06         28.7449
            1321     10.7126E-03     66.2991E-03    -3.24780E-03    -456.970E-03    -884.133E-03    -4.87239E-03    -882.508E-03    -456.970E-03    -6.70212E-03     53.8211E-03    -26.6024E-03    -27.2619E-03    -26.6112E-03     53.1704E-03    -26.6024E-03     14.4641E-03    -15.1721E+06    -30.5418E+06    -86.8275E+06    -15.3700E+06    -86.6296E+06    -30.5418E+06     37.7391E+03         31.1274
            1322     11.6863E-03     66.3132E-03     120.072E-03    -414.419E-03        -1.04801     119.498E-03        -1.04743    -414.419E-03     33.4025E-03     53.7144E-03    -26.5270E-03    -27.2205E-03    -26.3501E-03     52.8440E-03    -26.5270E-03     16.5267E-03    -14.3314E+06    -29.4816E+06    -52.3190E+06    -15.5824E+06    -43.8937E+06    -36.6560E+06     1.20184E+06         34.4598
            1323     12.6619E-03     66.3323E-03     234.461E-03    -369.279E-03        -1.20373     234.381E-03        -1.20365    -369.279E-03    -11.2040E-03     54.5704E-03    -26.3890E-03    -28.1900E-03    -26.3573E-03     52.7377E-03    -26.3890E-03     23.8586E-03     14.8024E+06    -22.1601E+06    -50.1721E+06    -18.4377E+06     11.0800E+06    -50.1721E+06     2.16882E+06         38.6469
            1324     13.6346E-03     66.3622E-03     359.897E-03    -322.190E-03        -1.36970     359.715E-03        -1.36952    -322.190E-03     1.45864E-03     55.4570E-03    -26.3201E-03    -29.1626E-03    -25.8933E-03     52.1877E-03    -26.3201E-03     32.3446E-03     67.3793E+06    -23.0468E+06    -49.3030E+06    -22.7657E+06     67.0981E+06    -49.3030E+06     2.25469E+06         43.5769
            1325     14.6118E-03     66.3980E-03     497.266E-03    -273.248E-03        -1.54921     496.811E-03        -1.54876    -273.248E-03    -22.2759E-03     77.4908E-03    -26.5493E-03    -50.9757E-03    -28.0472E-03     54.5624E-03    -26.5493E-03     91.7012E-03     112.519E+06     8.92853E+06    -29.3688E+06    -23.7216E+06     112.290E+06     3.50991E+06     3.46866E+06         49.1561
            1326     15.5797E-03     66.5537E-03     619.440E-03    -224.086E-03        -1.70967     619.086E-03        -1.70931    -224.086E-03    -32.4884E-03     166.542E-03    -26.8301E-03    -139.770E-03    -40.2871E-03     67.0595E-03    -26.8301E-03     284.776E-03     158.577E+06     82.3896E+06    -17.6366E+06    -17.4600E+06     158.401E+06     82.3896E+06     847.952E+03         54.8271
            1327     16.5724E-03     67.0092E-03     738.339E-03    -175.147E-03        -1.86229     738.300E-03        -1.86225    -175.147E-03     4.48287E-03     215.381E-03    -27.0090E-03    -188.428E-03    -47.3016E-03     74.2544E-03    -27.0090E-03     384.997E-03     196.690E+06     149.593E+06    -8.30732E+06    -8.27551E+06     196.658E+06     149.593E+06    -1.21143E+06         59.4130
            1328     974.462E-06     67.2849E-03         1.10615     268.908E-03        -2.70245        -1.67204     64.5926E-03     280.055E-03        -1.29282     52.9766E-03    -26.2799E-03    -26.6967E-03    -26.3676E-03     52.9727E-03    -26.6051E-03     937.959E-06    -18.8825E+06    -26.4165E+06    -174.210E+06    -24.9475E+06    -174.207E+06    -20.3546E+06     461.920E+03         23.7314
            1329     1.94807E-03     67.2866E-03     567.151E-03    -692.645E-03        -1.20708    -678.265E-03     38.3361E-03    -692.645E-03     453.061E-03     53.2589E-03    -26.5203E-03    -26.7386E-03    -26.6653E-03     53.2425E-03    -26.5773E-03     2.16300E-03    -13.8189E+06    -20.9211E+06    -178.131E+06    -20.9359E+06    -178.117E+06    -13.8189E+06     1.22201E+06         23.7851
            1330     2.92172E-03     67.2901E-03     244.280E-03    -683.642E-03    -896.119E-03    -651.134E-03    -704.707E-06    -683.642E-03    -236.667E-03     53.3929E-03    -26.6308E-03    -26.7621E-03    -26.7263E-03     53.3652E-03    -26.6389E-03     2.96422E-03    -13.6698E+06    -17.6820E+06    -180.418E+06    -17.7160E+06    -180.384E+06    -13.6698E+06     2.17834E+06         23.8802
            1331     3.89621E-03     67.2930E-03     73.9706E-03    -670.488E-03    -741.938E-03    -608.460E-03    -59.5075E-03    -670.488E-03     87.2505E-03     53.3804E-03    -26.6231E-03    -26.7591E-03    -26.6739E-03     53.3408E-03    -26.6686E-03     3.52806E-03    -13.2391E+06    -15.7900E+06    -182.260E+06    -15.8191E+06    -182.231E+06    -13.2391E+06     1.85069E+06         24.0174
            1332     4.86913E-03     67.2974E-03    -53.2662E-03    -620.706E-03    -663.716E-03    -546.710E-03    -138.775E-03    -652.204E-03    -105.957E-03     53.3668E-03    -26.6194E-03    -26.7492E-03    -26.6275E-03     53.2971E-03    -26.6714E-03     4.66765E-03    -13.4093E+06    -15.4425E+06    -182.743E+06    -15.4572E+06    -182.728E+06    -13.4093E+06     1.31012E+06         24.1901
            1333     5.84426E-03     67.3020E-03    -172.025E-03    -534.198E-03    -630.346E-03    -494.437E-03    -211.786E-03    -630.346E-03     78.1377E-03     53.5452E-03    -26.6772E-03    -26.8690E-03    -26.7450E-03     53.4277E-03    -26.6837E-03     6.09133E-03    -11.8597E+06    -15.0503E+06    -180.480E+06    -15.1012E+06    -180.430E+06    -11.8597E+06     2.36332E+06         24.4528
            1334     6.81738E-03     67.3086E-03    -275.904E-03    -454.419E-03    -605.457E-03    -415.297E-03    -315.026E-03    -605.457E-03    -33.9925E-03     53.7785E-03    -26.7144E-03    -27.0618E-03    -26.8767E-03     53.5935E-03    -26.7144E-03     7.67604E-03    -9.86262E+06    -14.5806E+06    -175.055E+06    -14.6675E+06    -174.968E+06    -9.86262E+06     3.23576E+06         24.9574
            1335     7.79129E-03     67.3173E-03    -299.720E-03    -456.041E-03    -576.155E-03    -324.352E-03    -431.410E-03    -576.155E-03    -3.48599E-03     53.8009E-03    -26.7162E-03    -27.0729E-03    -26.8176E-03     53.5455E-03    -26.7162E-03     9.05563E-03    -10.9435E+06    -14.5491E+06    -162.634E+06    -13.7154E+06    -162.548E+06    -11.8631E+06     3.15829E+06         25.8185
            1336     8.76505E-03     67.3266E-03    -232.018E-03    -509.868E-03    -583.837E-03    -240.491E-03    -541.639E-03    -543.594E-03     12.4078E-03     53.6615E-03    -26.6763E-03    -26.9801E-03    -26.6279E-03     53.3094E-03    -26.6763E-03     10.5843E-03    -11.9003E+06    -16.3465E+06    -140.454E+06    -12.0010E+06    -140.353E+06    -16.3465E+06     3.05342E+06         27.0446
            1337     9.73918E-03     67.3389E-03    -122.157E-03    -507.718E-03    -690.152E-03    -126.539E-03    -685.770E-03    -507.718E-03     27.4861E-03     53.7435E-03    -26.6245E-03    -27.1299E-03    -26.6011E-03     53.2147E-03    -26.6245E-03     12.9659E-03    -13.1219E+06    -21.3114E+06    -115.145E+06    -13.2826E+06    -114.985E+06    -21.3114E+06     1.15626E+06         28.6936
            1338     10.7132E-03     67.3530E-03    -1.94384E-03    -467.558E-03    -846.557E-03    -2.60367E-03    -845.897E-03    -467.558E-03    -21.1105E-03     53.7497E-03    -26.5524E-03    -27.2255E-03    -26.5945E-03     53.1188E-03    -26.5524E-03     14.2319E-03    -16.2402E+06    -30.4254E+06    -85.7079E+06    -16.3985E+06    -85.5496E+06    -30.4254E+06    -387.228E+03         31.0615
            1339     11.6876E-03     67.3680E-03     101.015E-03    -424.574E-03    -990.308E-03     100.896E-03    -990.189E-03    -424.574E-03     8.36100E-03     53.7266E-03    -26.4873E-03    -27.2679E-03    -26.4503E-03     52.9091E-03    -26.4873E-03     16.0680E-03    -17.3584E+06    -31.4722E+06    -54.1086E+06    -18.3031E+06    -46.8278E+06    -37.8084E+06     1.07760E+06         34.3774
            1340     12.6608E-03     67.3860E-03     205.765E-03    -380.208E-03        -1.13638     205.672E-03        -1.13629    -380.208E-03    -12.9602E-03     54.2091E-03    -26.3487E-03    -27.8669E-03    -26.0296E-03     52.3717E-03    -26.3487E-03     23.6287E-03     14.2253E+06    -24.5798E+06    -50.4615E+06    -20.7223E+06     10.3678E+06    -50.4615E+06     3.20921E+06         38.5656
            1341     13.6367E-03     67.4177E-03     338.272E-03    -333.760E-03        -1.30962     338.181E-03        -1.30953    -333.760E-03    -13.4998E-03     55.2134E-03    -26.2537E-03    -28.9821E-03    -25.8538E-03     52.0851E-03    -26.2537E-03     31.7665E-03     67.8916E+06    -22.9557E+06    -51.5465E+06    -22.7476E+06     67.6836E+06    -51.5465E+06     3.08411E+06         43.5290
            1342     14.6099E-03     67.4501E-03     482.215E-03    -284.385E-03        -1.49505     482.136E-03        -1.49497    -284.385E-03    -16.6343E-03     76.7293E-03    -26.4284E-03    -50.3403E-03    -26.6770E-03     53.0661E-03    -26.4284E-03     91.0652E-03     112.478E+06     9.14831E+06    -30.8024E+06    -21.4893E+06     112.210E+06      103.08E+03     1.84120E+06         49.1598
            1343     15.5934E-03     67.6109E-03     607.398E-03    -232.831E-03        -1.65659     607.306E-03        -1.65650    -232.831E-03    -10.2066E-03     164.081E-03    -26.7275E-03    -137.424E-03    -40.4124E-03     67.0696E-03    -26.7275E-03     280.468E-03     160.892E+06     84.9909E+06    -15.0651E+06    -14.8138E+06     160.641E+06     84.9909E+06     94.2229E+03         54.8758
            1344     16.5604E-03     68.0521E-03     727.064E-03    -179.592E-03        -1.81389     727.023E-03        -1.81385    -179.592E-03     19.4141E-03     215.725E-03    -27.0142E-03    -188.774E-03    -49.4208E-03     76.3716E-03    -27.0142E-03     384.340E-03     197.921E+06     152.009E+06    -7.47918E+06    -7.42496E+06     197.867E+06     152.009E+06     43.3469E+03         59.4853
            1345     974.129E-06     68.3390E-03         1.06297     220.172E-03        -2.58162        -1.75634     73.7538E-03     384.105E-03        -1.14344     53.0695E-03    -26.3743E-03    -26.6961E-03    -26.6895E-03     53.0644E-03    -26.3759E-03     1.02955E-03    -19.5165E+06    -27.0701E+06    -174.124E+06    -25.6242E+06    -174.097E+06    -20.9886E+06     1.30535E+06         23.7292
            1346     1.94772E-03     68.3406E-03     476.633E-03    -683.236E-03        -1.09704    -672.947E-03     52.5409E-03    -683.236E-03     408.067E-03     53.3972E-03    -26.6245E-03    -26.7734E-03    -26.7482E-03     53.3801E-03    -26.6326E-03     2.23367E-03    -14.8472E+06    -22.1970E+06    -179.564E+06    -22.2064E+06    -179.555E+06    -14.8472E+06     936.549E+03         23.7822
            1347     2.92206E-03     68.3437E-03     203.985E-03    -676.675E-03    -838.936E-03    -652.996E-03     18.0453E-03    -676.675E-03    -189.564E-03     53.2305E-03    -26.5223E-03    -26.7083E-03    -26.5407E-03     53.2042E-03    -26.6635E-03     2.88443E-03    -15.3380E+06    -19.0690E+06    -181.571E+06    -19.0817E+06    -181.558E+06    -15.3380E+06     1.22874E+06         23.8785
            1348     3.89537E-03     68.3472E-03     72.6347E-03    -666.137E-03    -720.787E-03    -613.785E-03    -34.3678E-03    -666.137E-03     58.8738E-03     53.1058E-03    -26.4530E-03    -26.6548E-03    -26.4359E-03     53.0655E-03    -26.6316E-03     3.53338E-03    -14.9033E+06    -17.3219E+06    -182.321E+06    -17.3402E+06    -182.303E+06    -14.9033E+06     1.67337E+06         24.0176
            1349     4.87081E-03     68.3504E-03    -45.5017E-03    -609.275E-03    -656.303E-03    -546.716E-03    -115.075E-03    -649.289E-03    -112.310E-03     53.2675E-03    -26.5680E-03    -26.7021E-03    -26.5864E-03     53.2038E-03    -26.6200E-03     4.46192E-03    -13.3419E+06    -17.1324E+06    -183.060E+06    -17.1546E+06    -183.038E+06    -13.3419E+06     1.75225E+06         24.1888
            1350     5.84391E-03     68.3562E-03    -165.260E-03    -516.771E-03    -627.130E-03    -484.901E-03    -197.130E-03    -627.130E-03     55.5468E-03     53.5011E-03    -26.6371E-03    -26.8669E-03    -26.7569E-03     53.3976E-03    -26.6436E-03     5.67806E-03    -11.4726E+06    -16.6104E+06    -182.316E+06    -16.6591E+06    -182.267E+06    -11.4726E+06     2.18042E+06         24.4448
            1351     6.81799E-03     68.3629E-03    -283.897E-03    -420.898E-03    -601.281E-03    -406.226E-03    -298.570E-03    -601.281E-03    -77.1436E-03     53.7170E-03    -26.6737E-03    -27.0387E-03    -26.8696E-03     53.5480E-03    -26.6737E-03     7.33130E-03    -10.4237E+06    -15.4678E+06    -175.784E+06    -15.5397E+06    -175.712E+06    -10.4237E+06     2.77021E+06         24.9391
            1352     7.79156E-03     68.3713E-03    -307.588E-03    -421.052E-03    -571.350E-03    -316.677E-03    -411.964E-03    -571.350E-03    -32.5505E-03     53.7350E-03    -26.6796E-03    -27.0478E-03    -26.8138E-03     53.5010E-03    -26.6796E-03     8.65944E-03    -11.4423E+06    -14.7381E+06    -162.588E+06     -14.128E+06    -162.512E+06    -12.1280E+06     1.82448E+06         25.7890
            1353     8.76544E-03     68.3810E-03    -225.042E-03    -497.860E-03    -575.549E-03    -228.486E-03    -531.845E-03    -538.120E-03     4.90734E-03     53.6589E-03    -26.6522E-03    -27.0018E-03    -26.6650E-03     53.3221E-03    -26.6522E-03     10.3354E-03    -12.0090E+06    -15.3502E+06    -140.138E+06    -12.3638E+06    -140.080E+06    -15.0532E+06     1.24114E+06         27.0046
            1354     9.73946E-03     68.3926E-03    -126.747E-03    -502.095E-03    -666.777E-03    -128.743E-03    -664.780E-03    -502.095E-03     6.80781E-03     53.7628E-03    -26.6132E-03    -27.1581E-03    -26.6344E-03     53.2391E-03    -26.6132E-03     12.9015E-03    -10.9686E+06    -17.7210E+06    -113.183E+06    -11.0317E+06    -113.120E+06    -17.7210E+06     1.23505E+06         28.6412
            1355     10.7133E-03     68.4080E-03    -17.8210E-03    -463.044E-03    -812.192E-03    -18.3970E-03    -811.616E-03    -463.044E-03    -31.5164E-03     53.7646E-03    -26.5602E-03    -27.2239E-03    -26.6198E-03     53.1604E-03    -26.5602E-03     13.9325E-03    -12.3513E+06    -24.7759E+06    -87.2440E+06    -12.7968E+06    -86.7984E+06    -24.7759E+06     2.22490E+06         30.9923
            1356     11.6871E-03     68.4216E-03     92.6264E-03    -421.255E-03    -962.872E-03     92.5540E-03    -962.800E-03    -421.255E-03     5.29470E-03     53.7176E-03    -26.4831E-03    -27.2337E-03    -26.4293E-03     52.9133E-03    -26.4831E-03     15.8845E-03    -16.2894E+06    -28.1101E+06    -56.4460E+06    -17.5854E+06    -48.5536E+06    -34.7065E+06     3.11500E+06         34.2912
            1357     12.6618E-03     68.4414E-03     214.011E-03    -376.896E-03        -1.12270     213.897E-03        -1.12258    -376.896E-03    -2.28745E-03     54.0261E-03    -26.3333E-03    -27.6854E-03    -25.9845E-03     52.3253E-03    -26.3333E-03     22.8404E-03     12.6568E+06    -22.6299E+06    -48.6964E+06    -19.6928E+06     9.71980E+06    -48.6964E+06     2.51202E+06         38.4818
            1358     13.6370E-03     68.4685E-03     335.725E-03    -330.055E-03        -1.28494     335.619E-03        -1.28483    -330.055E-03    -1.66189E-03     55.1530E-03    -26.2436E-03    -28.9293E-03    -25.7425E-03     51.9662E-03    -26.2436E-03     31.8342E-03     68.1581E+06    -19.8879E+06    -48.2170E+06    -19.7801E+06     68.0503E+06    -48.2170E+06     1.79691E+06         43.4795
            1359     14.6113E-03     68.5098E-03     458.372E-03    -280.929E-03        -1.44837     458.279E-03        -1.44827    -280.929E-03    -2.44255E-03     74.8026E-03    -26.4268E-03    -48.4102E-03    -26.7591E-03     53.1514E-03    -26.4268E-03     87.0704E-03     115.615E+06     13.3704E+06    -28.3549E+06    -19.3545E+06     115.474E+06     4.51144E+06    -409.223E+03         49.1558
            1360     15.5870E-03     68.6492E-03     595.686E-03    -228.227E-03        -1.62261     595.544E-03        -1.62247    -228.227E-03     6.08462E-03     165.113E-03    -26.7676E-03    -138.408E-03    -42.4464E-03     69.1513E-03    -26.7676E-03     280.711E-03     160.592E+06     84.5032E+06    -16.7355E+06    -16.6462E+06     160.503E+06     84.5032E+06    -141.220E+03         54.9125
            1361     16.5599E-03     69.1307E-03     729.885E-03    -171.188E-03        -1.80051     729.776E-03        -1.80040    -171.188E-03     19.5644E-03     216.843E-03    -27.0617E-03    -189.840E-03    -49.1335E-03     76.1362E-03    -27.0617E-03     386.864E-03     196.745E+06     149.038E+06    -9.12274E+06    -9.09323E+06     196.716E+06     149.038E+06     1.52184E+06         59.5579
            1362     973.953E-06     69.3924E-03         1.11202     52.4562E-03        -2.43907        -1.87207     59.9722E-03     537.501E-03    -968.530E-03     53.1586E-03    -26.4142E-03    -26.7444E-03    -26.7362E-03     53.1504E-03    -26.4142E-03     1.19036E-03    -21.9465E+06    -26.4010E+06    -175.013E+06    -26.0211E+06    -174.977E+06    -22.3618E+06     1.83586E+06         23.7284
            1363     1.94810E-03     69.3950E-03     318.725E-03    -661.742E-03    -940.567E-03    -640.796E-03     18.9534E-03    -661.742E-03     304.999E-03     53.2905E-03    -26.5766E-03    -26.7132E-03    -26.6376E-03     53.2718E-03    -26.6334E-03     2.43769E-03    -18.0623E+06    -23.4557E+06    -180.872E+06    -23.4723E+06    -180.855E+06    -18.0623E+06     1.26638E+06         23.7787
            1364     2.92122E-03     69.3976E-03     110.812E-03    -650.155E-03    -755.278E-03    -612.554E-03    -31.9117E-03    -650.155E-03    -128.022E-03     53.1149E-03    -26.4416E-03    -26.6725E-03    -26.4516E-03     53.0908E-03    -26.6383E-03     2.75896E-03    -15.7106E+06    -21.0598E+06    -182.543E+06    -21.0701E+06    -182.533E+06    -15.7106E+06     826.309E+03         23.8784
            1365     3.89691E-03     69.3998E-03     23.2290E-03    -639.070E-03    -678.298E-03    -601.497E-03    -53.5719E-03    -639.070E-03     71.5210E-03     53.1342E-03    -26.4674E-03    -26.6676E-03    -26.4861E-03     53.0927E-03    -26.6073E-03     3.57527E-03    -15.5619E+06    -19.7682E+06    -183.541E+06    -19.7917E+06    -183.517E+06    -15.5619E+06     1.50880E+06         24.0229
            1366     4.86947E-03     69.4052E-03    -65.4125E-03    -594.951E-03    -630.006E-03    -552.767E-03    -110.784E-03    -626.819E-03    -70.3902E-03     53.4465E-03    -26.6225E-03    -26.8263E-03    -26.7654E-03     53.3857E-03    -26.6225E-03     4.40289E-03    -14.2667E+06    -19.0605E+06    -182.792E+06    -19.0893E+06    -182.763E+06    -14.2667E+06     1.92977E+06         24.1952
            1367     5.84385E-03     69.4096E-03    -177.461E-03    -496.516E-03    -607.420E-03    -465.428E-03    -208.549E-03    -607.420E-03     42.9617E-03     53.5991E-03    -26.6672E-03    -26.9339E-03    -26.8369E-03     53.5020E-03    -26.6672E-03     5.50003E-03    -12.8516E+06    -17.5518E+06    -182.950E+06    -17.5656E+06    -182.936E+06    -12.8516E+06     1.30741E+06         24.4447
            1368     6.81761E-03     69.4172E-03    -287.935E-03    -406.357E-03    -580.983E-03    -379.250E-03    -315.042E-03    -580.983E-03    -54.2730E-03     53.6101E-03    -26.6834E-03    -26.9273E-03    -26.7700E-03     53.4528E-03    -26.6834E-03     7.07949E-03    -13.0354E+06    -15.5903E+06    -176.120E+06    -15.6280E+06    -176.083E+06    -13.0354E+06     1.95804E+06         24.9249
            1369     7.79144E-03     69.4255E-03    -290.387E-03    -431.623E-03    -550.933E-03    -304.448E-03    -417.562E-03    -550.933E-03    -26.2860E-03     53.6193E-03    -26.6835E-03    -26.9289E-03    -26.7142E-03     53.4046E-03    -26.6835E-03     8.28634E-03    -12.4000E+06    -14.7416E+06    -161.160E+06    -14.8006E+06    -161.101E+06    -12.4000E+06     1.53000E+06         25.7606
            1370     8.76549E-03     69.4348E-03    -199.229E-03    -494.106E-03    -577.693E-03    -204.011E-03    -549.192E-03    -517.825E-03    -9.35587E-03     53.6500E-03    -26.6504E-03    -26.9888E-03    -26.6670E-03     53.3282E-03    -26.6504E-03     10.0887E-03    -13.3538E+06    -17.3878E+06    -139.321E+06    -14.7787E+06    -139.228E+06    -16.0557E+06    -397.141E+03         26.9651
            1371     9.73927E-03     69.4472E-03    -110.712E-03    -481.648E-03    -679.024E-03    -113.159E-03    -676.577E-03    -481.648E-03    -10.8965E-03     53.7615E-03    -26.6120E-03    -27.1542E-03    -26.6466E-03     53.2538E-03    -26.6120E-03     12.7052E-03    -14.4107E+06    -20.3715E+06    -115.422E+06    -14.6044E+06    -115.228E+06    -20.3715E+06     632.920E+03         28.5884
            1372     10.7134E-03     69.4619E-03    -19.3379E-03    -443.638E-03    -809.937E-03    -20.7490E-03    -808.526E-03    -443.638E-03    -40.3606E-03     53.7388E-03    -26.5665E-03    -27.1937E-03    -26.6033E-03     53.1484E-03    -26.5665E-03     13.7697E-03    -14.8307E+06    -26.2650E+06    -90.5207E+06    -15.3216E+06    -90.0298E+06    -26.2650E+06     3.61842E+06         30.9204
            1373     11.6874E-03     69.4766E-03     99.6584E-03    -403.076E-03    -965.894E-03     99.5804E-03    -965.816E-03    -403.076E-03     5.58218E-03     53.5991E-03    -26.4851E-03    -27.1153E-03    -26.3524E-03     52.8362E-03    -26.4851E-03     15.4751E-03    -14.5479E+06    -26.9109E+06    -55.4059E+06    -15.3012E+06    -47.7619E+06    -33.8016E+06     3.54390E+06         34.2028
            1374     12.6618E-03     69.4943E-03     229.722E-03    -358.996E-03        -1.13333     229.535E-03        -1.13315    -358.996E-03    -15.1405E-03     54.2531E-03    -26.3409E-03    -27.9054E-03    -26.2615E-03     52.6092E-03    -26.3409E-03     22.4861E-03     14.5648E+06    -20.1687E+06    -47.2781E+06    -16.3302E+06     10.7263E+06    -47.2781E+06     1.80174E+06         38.3986
            1375     13.6352E-03     69.5245E-03     344.659E-03    -312.217E-03        -1.28947     344.462E-03        -1.28928    -312.217E-03    -2.63437E-03     55.1113E-03    -26.2721E-03    -28.8616E-03    -25.8625E-03     52.1122E-03    -26.2721E-03     30.9086E-03     68.8078E+06    -18.8064E+06    -47.1004E+06    -18.7434E+06     68.7448E+06    -47.1004E+06     753.167E+03         43.4294
            1376     14.6124E-03     69.5602E-03     452.318E-03    -263.402E-03        -1.43714     452.227E-03        -1.43705    -263.402E-03     9.75177E-03     75.3678E-03    -26.5066E-03    -48.8937E-03    -27.9671E-03     54.4412E-03    -26.5066E-03     86.5269E-03     116.747E+06     14.8414E+06    -27.4157E+06    -19.3098E+06     116.716E+06     6.76622E+06     532.435E+03         49.1471
            1377     15.5838E-03     69.7108E-03     577.960E-03    -209.998E-03        -1.60498     577.858E-03        -1.60488    -209.998E-03     7.12696E-03     165.950E-03    -26.8452E-03    -139.164E-03    -41.8468E-03     68.6335E-03    -26.8452E-03     282.206E-03     160.907E+06     84.6472E+06    -16.6439E+06    -16.6298E+06     160.893E+06     84.6472E+06     1.22045E+06         54.9511
            1378     16.5639E-03     70.1761E-03     717.016E-03    -150.535E-03        -1.79300     716.920E-03        -1.79290    -150.535E-03     6.84006E-03     216.708E-03    -27.0630E-03    -189.696E-03    -47.7885E-03     74.8007E-03    -27.0630E-03     387.465E-03     196.392E+06     146.977E+06    -9.60971E+06    -9.59152E+06     196.374E+06     146.977E+06     1.08741E+06         59.6386
            1379     974.158E-06     70.4461E-03         1.14463    -148.606E-03        -2.25871        -1.94298    -19.5438E-03     699.839E-03    -672.431E-03     53.1928E-03    -26.4899E-03    -26.7016E-03    -26.6360E-03     53.1852E-03    -26.5479E-03     1.05278E-03    -24.0800E+06    -26.3103E+06    -177.097E+06    -25.5497E+06    -177.061E+06    -24.8762E+06     398.815E+03         23.7374
            1380     1.94766E-03     70.4490E-03     154.685E-03    -620.331E-03    -803.223E-03    -616.651E-03    -31.8873E-03    -620.331E-03     205.429E-03     53.0481E-03    -26.4233E-03    -26.6242E-03    -26.4382E-03     53.0323E-03    -26.5936E-03     2.19991E-03    -20.3474E+06    -22.8098E+06    -180.732E+06    -22.8433E+06    -180.698E+06    -20.3474E+06     879.515E+03         23.7840
            1381     2.92294E-03     70.4506E-03    -9.64040E-03    -605.741E-03    -657.911E-03    -563.394E-03    -98.5883E-03    -611.311E-03    -112.987E-03     53.1815E-03    -26.4676E-03    -26.7141E-03    -26.5719E-03     53.1584E-03    -26.5867E-03     2.65324E-03    -17.5465E+06    -21.5990E+06    -183.256E+06    -21.6349E+06    -183.220E+06    -17.5465E+06     551.671E+03         23.8847
            1382     3.89526E-03     70.4542E-03    -86.5970E-03    -577.411E-03    -608.561E-03    -545.884E-03    -129.870E-03    -596.815E-03     41.8758E-03     53.4480E-03    -26.6225E-03    -26.8258E-03    -26.7801E-03     53.4091E-03    -26.6293E-03     3.48889E-03    -15.3576E+06    -20.4418E+06    -184.758E+06    -20.4750E+06    -184.725E+06    -15.3576E+06     1.73436E+06         24.0307
            1383     4.87040E-03     70.4586E-03    -144.238E-03    -536.629E-03    -585.508E-03    -511.183E-03    -172.146E-03    -583.045E-03    -37.0563E-03     53.5175E-03    -26.6630E-03    -26.8565E-03    -26.7933E-03     53.4542E-03    -26.6630E-03     4.46135E-03    -15.6057E+06    -19.8293E+06    -183.395E+06    -19.1499E+06    -183.364E+06    -16.3165E+06     1.88792E+06         24.2004
            1384     5.84346E-03     70.4644E-03    -237.677E-03    -457.533E-03    -564.836E-03    -436.052E-03    -259.158E-03    -564.836E-03     44.1669E-03     53.6920E-03    -26.7019E-03    -26.9916E-03    -26.8944E-03     53.5948E-03    -26.7019E-03     5.57106E-03    -14.7047E+06    -19.3227E+06    -181.956E+06    -18.6326E+06    -181.936E+06    -15.4155E+06     1.05441E+06         24.4432
            1385     6.81705E-03     70.4709E-03    -302.582E-03    -410.019E-03    -540.315E-03    -352.079E-03    -360.522E-03    -540.315E-03    -2.83685E-03     53.6306E-03    -26.7282E-03    -26.9031E-03    -26.7501E-03     53.4775E-03    -26.7282E-03     6.95960E-03    -13.8703E+06    -17.7533E+06    -176.825E+06    -17.7617E+06    -176.817E+06    -13.8703E+06     195.050E+03         24.9114
            1386     7.79136E-03     70.4796E-03    -268.076E-03    -449.771E-03    -531.062E-03    -280.684E-03    -456.206E-03    -512.018E-03    -17.8252E-03     53.5785E-03    -26.7125E-03    -26.8556E-03    -26.6369E-03     53.3597E-03    -26.7125E-03     8.35854E-03    -12.9218E+06    -15.6604E+06    -161.111E+06    -15.4070E+06    -161.089E+06    -13.1968E+06     562.881E+03         25.7335
            1387     8.76500E-03     70.4891E-03    -184.172E-03    -474.337E-03    -592.597E-03    -191.116E-03    -578.979E-03    -481.010E-03    -9.75795E-03     53.7282E-03    -26.6740E-03    -27.0377E-03    -26.7217E-03     53.4122E-03    -26.6740E-03     10.0190E-03    -13.6453E+06    -17.5472E+06    -137.831E+06    -15.0584E+06    -137.698E+06    -16.2671E+06     630.294E+03         26.9263
            1388     9.73914E-03     70.5012E-03    -91.2010E-03    -446.781E-03    -713.063E-03    -94.4752E-03    -709.788E-03    -446.781E-03    -102.099E-06     53.7652E-03    -26.6397E-03    -27.1300E-03    -26.6395E-03     53.2746E-03    -26.6397E-03     12.4832E-03    -16.2728E+06    -22.0432E+06    -118.423E+06    -16.7802E+06    -118.160E+06    -21.7982E+06     907.242E+03         28.5356
            1389     10.7128E-03     70.5164E-03     3.49246E-03    -409.886E-03    -844.820E-03     1.92295E-03    -843.250E-03    -409.886E-03    -53.5878E-03     53.6513E-03    -26.5726E-03    -27.1144E-03    -26.5284E-03     53.0653E-03    -26.5726E-03     13.7068E-03    -15.5810E+06    -30.0690E+06    -91.4527E+06    -15.7446E+06    -91.2890E+06    -30.0690E+06     1.31734E+06         30.8475
            1390     11.6870E-03     70.5304E-03     115.400E-03    -370.340E-03    -993.798E-03     115.141E-03    -993.539E-03    -370.340E-03    -22.9238E-03     53.7160E-03    -26.4876E-03    -27.2469E-03    -26.5111E-03     52.9802E-03    -26.4876E-03     15.2738E-03    -14.4257E+06    -30.2462E+06    -55.5665E+06    -14.8445E+06    -47.2320E+06    -38.1619E+06     1.36622E+06         34.1133
            1391     12.6611E-03     70.5491E-03     237.720E-03    -327.624E-03        -1.15144     237.512E-03        -1.15123    -327.624E-03    -33.0773E-03     54.3864E-03    -26.3610E-03    -28.0221E-03    -26.3886E-03     52.7530E-03    -26.3610E-03     22.3522E-03     15.3091E+06    -20.8198E+06    -49.9108E+06    -16.6339E+06     11.1232E+06    -49.9108E+06     1.86496E+06         38.3159
            1392     13.6362E-03     70.5790E-03     353.883E-03    -282.166E-03        -1.30749     353.716E-03        -1.30732    -282.166E-03    -13.7898E-03     55.5234E-03    -26.3144E-03    -29.2282E-03    -26.3142E-03     52.6095E-03    -26.3144E-03     30.7472E-03     69.9880E+06    -19.4696E+06    -47.6383E+06    -19.3785E+06     69.8968E+06    -47.6383E+06     1.50467E+06         43.3790
            1393     14.6082E-03     70.6146E-03     471.123E-03    -233.796E-03        -1.46457     471.049E-03        -1.46449    -233.796E-03    -4.19088E-03     76.2809E-03    -26.5644E-03    -49.7496E-03    -28.2283E-03     54.7595E-03    -26.5644E-03     87.6425E-03     115.205E+06     10.3753E+06    -27.5084E+06    -20.4564E+06     115.146E+06     3.38190E+06     1.71078E+06         49.1406
            1394     15.5850E-03     70.7669E-03     583.534E-03    -179.450E-03        -1.62426     583.482E-03        -1.62421    -179.450E-03    -15.8596E-03     164.017E-03    -26.9199E-03    -137.163E-03    -41.4020E-03     68.2567E-03    -26.9199E-03     278.602E-03     160.406E+06     82.0821E+06    -16.5110E+06    -16.4620E+06     160.357E+06     82.0821E+06     1.38241E+06         54.9906
            1395     16.5614E-03     71.2224E-03     700.371E-03    -118.244E-03        -1.79634     700.353E-03        -1.79632    -118.244E-03    -12.3716E-03     216.232E-03    -27.1648E-03    -189.125E-03    -47.6884E-03     74.7946E-03    -27.1648E-03     386.385E-03     198.360E+06     148.777E+06    -8.89698E+06    -8.88020E+06     198.343E+06     148.777E+06     1.32240E+06         59.7113
            1396     973.543E-06     71.5009E-03         1.16528    -292.771E-03        -2.11935        -1.98286    -129.632E-03     865.650E-03    -414.822E-03     53.2829E-03    -26.4231E-03    -26.8586E-03    -26.4719E-03     53.2795E-03    -26.8064E-03     567.215E-06    -22.3384E+06    -25.9256E+06    -177.034E+06    -24.7221E+06    -176.982E+06    -23.5940E+06    -1.51548E+06         23.7504
            1397     1.94833E-03     71.5018E-03    -21.2435E-03    -562.288E-03    -668.432E-03    -575.814E-03    -113.862E-03    -562.288E-03     95.8527E-03     53.1224E-03    -26.4318E-03    -26.6904E-03    -26.4765E-03     53.1111E-03    -26.6345E-03     1.77364E-03    -19.9347E+06    -23.1556E+06    -181.132E+06    -22.5068E+06    -181.084E+06    -20.6310E+06    -903.810E+03         23.7951
            1398     2.92157E-03     71.5046E-03    -119.530E-03    -551.532E-03    -582.362E-03    -528.016E-03    -165.254E-03    -560.154E-03    -85.8131E-03     53.3815E-03    -26.5691E-03    -26.8134E-03    -26.7348E-03     53.3583E-03    -26.6245E-03     2.65908E-03    -19.6781E+06    -22.1592E+06    -184.016E+06    -20.7507E+06    -183.980E+06    -21.1223E+06     131.236E+03         23.8926
            1399     3.89626E-03     71.5086E-03    -196.778E-03    -507.927E-03    -545.691E-03    -474.413E-03    -230.292E-03    -545.691E-03     8.69407E-03     53.5800E-03    -26.6858E-03    -26.8941E-03    -26.8586E-03     53.5445E-03    -26.6858E-03     3.35942E-03    -17.3572E+06    -20.4339E+06    -185.392E+06    -19.6390E+06    -185.370E+06    -18.1742E+06     819.319E+03         24.0351
            1400     4.86880E-03     71.5123E-03    -266.851E-03    -454.948E-03    -525.860E-03    -419.239E-03    -302.559E-03    -525.860E-03    -45.8399E-03     53.6129E-03    -26.7372E-03    -26.8756E-03    -26.8102E-03     53.5475E-03    -26.7372E-03     4.49150E-03    -13.5253E+06    -18.3468E+06    -184.150E+06    -17.5912E+06    -184.126E+06    -14.3052E+06     1.70067E+06         24.2025
            1401     5.84335E-03     71.5189E-03    -311.146E-03    -423.741E-03    -505.205E-03    -389.387E-03    -345.501E-03    -505.205E-03     1.63138E-03     53.6336E-03    -26.7301E-03    -26.9040E-03    -26.7688E-03     53.5321E-03    -26.7638E-03     5.69760E-03    -10.9455E+06    -17.7236E+06    -181.577E+06    -17.0459E+06    -181.544E+06    -11.6563E+06     1.72870E+06         24.4400
            1402     6.81701E-03     71.5250E-03    -298.102E-03    -430.371E-03    -506.612E-03    -328.601E-03    -422.439E-03    -484.046E-03    -41.8543E-03     53.6866E-03    -26.7314E-03    -26.9507E-03    -26.7613E-03     53.5309E-03    -26.7651E-03     7.00899E-03    -12.1530E+06    -17.5672E+06    -175.624E+06    -17.5809E+06    -175.611E+06    -12.1530E+06    -128.175E+03         24.8977
            1403     7.79076E-03     71.5332E-03    -226.170E-03    -444.587E-03    -563.850E-03    -236.180E-03    -539.859E-03    -458.568E-03    -65.1088E-03     53.7448E-03    -26.7362E-03    -26.9981E-03    -26.7673E-03     53.5140E-03    -26.7362E-03     8.59957E-03    -15.3630E+06    -18.2794E+06    -161.362E+06    -17.3456E+06    -161.352E+06    -16.3069E+06    -1.15166E+06         25.7072
            1404     8.76495E-03     71.5436E-03    -148.194E-03    -428.816E-03    -658.433E-03    -153.664E-03    -652.963E-03    -428.816E-03    -26.9983E-03     53.7567E-03    -26.7084E-03    -27.0368E-03    -26.7172E-03     53.4372E-03    -26.7084E-03     10.1013E-03    -15.5135E+06    -18.7401E+06    -139.612E+06    -15.8301E+06    -139.540E+06    -18.4950E+06     378.080E+03         26.8883
            1405     9.73827E-03     71.5554E-03    -67.9734E-03    -396.514E-03    -769.549E-03    -69.7926E-03    -767.730E-03    -396.514E-03     4.02221E-03     53.8310E-03    -26.6801E-03    -27.1597E-03    -26.6690E-03     53.3403E-03    -26.6801E-03     12.4829E-03    -14.3295E+06    -20.7692E+06    -117.516E+06    -14.6803E+06    -117.410E+06    -20.5242E+06     711.069E+03         28.4834
            1406     10.7129E-03     71.5701E-03     30.7349E-03    -361.612E-03    -901.089E-03     30.0023E-03    -900.357E-03    -361.612E-03    -48.6628E-03     53.7118E-03    -26.6025E-03    -27.1474E-03    -26.5670E-03     53.1314E-03    -26.6025E-03     13.6444E-03    -15.2589E+06    -31.2030E+06    -90.9521E+06    -15.3886E+06    -90.8223E+06    -31.2030E+06    -845.576E+03         30.7747
            1407     11.6868E-03     71.5853E-03     140.084E-03    -323.673E-03        -1.04466     139.786E-03        -1.04436    -323.673E-03    -30.9230E-03     53.8259E-03    -26.5164E-03    -27.3241E-03    -26.5513E-03     53.0531E-03    -26.5164E-03     15.5964E-03    -16.5029E+06    -31.7181E+06    -57.9993E+06    -16.8351E+06    -48.9106E+06    -40.4746E+06    -65.1548E+03         34.0233
            1408     12.6604E-03     71.6038E-03     249.647E-03    -282.859E-03        -1.18682     249.517E-03        -1.18669    -282.859E-03    -23.0300E-03     54.4638E-03    -26.3960E-03    -28.0622E-03    -26.4454E-03     52.8470E-03    -26.3960E-03     22.4210E-03     14.4883E+06    -21.0800E+06    -50.4302E+06    -17.8025E+06     11.2108E+06    -50.4302E+06     1.08714E+06         38.2323
            1409     13.6344E-03     71.6329E-03     359.217E-03    -239.614E-03        -1.33069     359.141E-03        -1.33061    -239.614E-03    -11.5120E-03     55.7542E-03    -26.3414E-03    -29.4269E-03    -26.3161E-03     52.6434E-03    -26.3414E-03     31.6537E-03     69.1800E+06    -19.5704E+06    -49.3261E+06    -19.3983E+06     69.0078E+06    -49.3261E+06     1.98146E+06         43.3300
            1410     14.6098E-03     71.6716E-03     482.970E-03    -192.803E-03        -1.49691     482.874E-03        -1.49681    -192.803E-03    -17.4267E-03     76.2579E-03    -26.5730E-03    -49.7084E-03    -27.8695E-03     54.4191E-03    -26.5730E-03     88.6612E-03     115.233E+06     11.2566E+06    -28.6315E+06    -19.3418E+06     115.105E+06     2.09472E+06     2.31124E+06         49.1383
            1411     15.5828E-03     71.8192E-03     603.263E-03    -138.102E-03        -1.66554     603.161E-03        -1.66543    -138.102E-03    -21.1431E-03     165.334E-03    -26.9766E-03    -138.408E-03    -43.1653E-03     70.0918E-03    -26.9766E-03     280.259E-03     162.374E+06     83.9997E+06    -15.9505E+06    -15.8798E+06     162.303E+06     83.9997E+06     1.78054E+06         55.0304
            1412     16.5541E-03     72.2783E-03     704.479E-03    -75.2540E-03        -1.82101     704.323E-03        -1.82085    -75.2540E-03    -24.9826E-03     216.338E-03    -27.2638E-03    -189.118E-03    -47.8396E-03     75.0588E-03    -27.2638E-03     386.306E-03     198.921E+06     149.236E+06    -10.0934E+06    -10.0623E+06     198.890E+06     149.236E+06     1.80986E+06         59.7826
            1413     973.980E-06     72.5544E-03         1.18718    -358.094E-03        -2.05642        -2.02413    -238.758E-03         1.03557    -149.343E-03     53.4617E-03    -26.4090E-03    -27.0537E-03    -26.7270E-03     53.4603E-03    -26.7342E-03     422.482E-06    -19.6455E+06    -24.4524E+06    -175.741E+06    -23.6320E+06    -175.687E+06    -20.5203E+06    -652.382E+03         23.7586
            1414     1.94751E-03     72.5555E-03    -222.585E-03    -482.094E-03    -525.873E-03    -484.880E-03    -253.293E-03    -492.379E-03     38.8475E-03     53.5638E-03    -26.6258E-03    -26.9382E-03    -26.7855E-03     53.5537E-03    -26.7684E-03     1.63052E-03    -18.9809E+06    -22.6415E+06    -180.701E+06    -21.9874E+06    -180.659E+06    -19.6772E+06    -1.64095E+06         23.8043
            1415     2.92172E-03     72.5590E-03    -261.164E-03    -473.050E-03    -498.282E-03    -463.081E-03    -283.028E-03    -486.386E-03    -10.1908E-03     53.4856E-03    -26.6602E-03    -26.8252E-03    -26.6982E-03     53.4621E-03    -26.7638E-03     2.69825E-03    -20.1587E+06    -22.8363E+06    -184.131E+06    -20.8615E+06    -184.117E+06    -22.1476E+06    -384.405E+03         23.8963
            1416     3.89483E-03     72.5622E-03    -290.311E-03    -457.201E-03    -485.058E-03    -422.402E-03    -334.607E-03    -475.561E-03    -15.4173E-03     53.5124E-03    -26.6986E-03    -26.8135E-03    -26.7183E-03     53.4727E-03    -26.7541E-03     3.52778E-03    -20.9199E+06    -22.3968E+06    -186.804E+06    -21.0402E+06    -186.799E+06    -22.2816E+06    -246.857E+03         24.0346
            1417     4.86967E-03     72.5670E-03    -320.907E-03    -421.023E-03    -487.096E-03    -354.739E-03    -416.053E-03    -458.233E-03    -46.4639E-03     53.6052E-03    -26.7603E-03    -26.8445E-03    -26.7567E-03     53.5350E-03    -26.7780E-03     4.68559E-03    -16.6686E+06    -20.1057E+06    -185.992E+06    -20.0464E+06    -185.982E+06    -16.7376E+06     749.146E+03         24.2031
            1418     5.84276E-03     72.5723E-03    -304.682E-03    -410.570E-03    -507.297E-03    -318.927E-03    -466.017E-03    -437.605E-03    -2.14138E-03     53.5837E-03    -26.7476E-03    -26.8367E-03    -26.6844E-03     53.4773E-03    -26.7935E-03     5.82105E-03    -11.7373E+06    -18.0910E+06    -181.585E+06    -18.1091E+06    -181.567E+06    -11.7373E+06     1.52084E+06         24.4387
            1419     6.81726E-03     72.5792E-03    -247.155E-03    -411.169E-03    -559.694E-03    -263.326E-03    -538.390E-03    -416.302E-03    -66.0984E-03     53.6936E-03    -26.7466E-03    -26.9464E-03    -26.7522E-03     53.5331E-03    -26.7802E-03     7.13467E-03    -11.8758E+06    -16.5151E+06    -173.228E+06    -16.5266E+06    -173.216E+06    -11.8758E+06     556.737E+03         24.8855
            1420     7.79074E-03     72.5878E-03    -173.074E-03    -391.450E-03    -654.462E-03    -178.351E-03    -649.184E-03    -391.450E-03    -74.9091E-03     53.8197E-03    -26.7539E-03    -27.0565E-03    -26.8095E-03     53.5727E-03    -26.7539E-03     8.87409E-03    -15.3607E+06    -17.6795E+06    -160.235E+06    -16.9112E+06    -160.223E+06    -16.1410E+06    -988.598E+03         25.6814
            1421     8.76406E-03     72.5977E-03    -101.434E-03    -362.997E-03    -756.169E-03    -103.438E-03    -754.165E-03    -362.997E-03    -13.0053E-03     53.7988E-03    -26.7188E-03    -27.0734E-03    -26.7256E-03     53.4510E-03    -26.7188E-03     10.5453E-03    -17.1453E+06    -21.3584E+06    -141.077E+06    -17.1960E+06    -141.026E+06    -21.3584E+06    -2.10844E+06         26.8512
            1422     9.73884E-03     72.6096E-03    -23.2206E-03    -332.321E-03    -861.194E-03    -23.9490E-03    -860.465E-03    -332.321E-03    -13.4057E-03     53.9437E-03    -26.6982E-03    -27.2514E-03    -26.7291E-03     53.4215E-03    -26.6982E-03     12.8902E-03    -14.9652E+06    -21.3828E+06    -117.329E+06    -15.0335E+06    -117.261E+06    -21.3828E+06    -1.37422E+06         28.4321
            1423     10.7116E-03     72.6251E-03     75.4455E-03    -298.979E-03    -987.975E-03     74.6495E-03    -987.179E-03    -298.979E-03    -55.2701E-03     53.8709E-03    -26.6370E-03    -27.2535E-03    -26.6539E-03     53.2713E-03    -26.6370E-03     13.8807E-03    -14.2877E+06    -28.8093E+06    -90.0065E+06    -14.4109E+06    -89.8834E+06    -28.8093E+06    -502.046E+03         30.7026
            1424     11.6861E-03     72.6387E-03     168.618E-03    -262.990E-03        -1.11269     168.334E-03        -1.11241    -262.990E-03    -25.0487E-03     53.7417E-03    -26.5229E-03    -27.2247E-03    -26.3841E-03     52.9011E-03    -26.5229E-03     16.1588E-03    -15.0489E+06    -32.3591E+06    -60.7045E+06    -15.8507E+06    -49.8036E+06    -42.4582E+06    -1.02517E+06         33.9338
            1425     12.6606E-03     72.6595E-03     260.332E-03    -225.068E-03        -1.23648     260.198E-03        -1.23634    -225.068E-03    -18.3551E-03     54.4105E-03    -26.3834E-03    -28.0224E-03    -26.3016E-03     52.6896E-03    -26.3834E-03     23.2153E-03     14.5743E+06    -22.6070E+06    -53.8695E+06    -17.4770E+06     9.44425E+06    -53.8695E+06    -248.772E+03         38.1500
            1426     13.6349E-03     72.6866E-03     373.047E-03    -184.776E-03        -1.38388     372.722E-03        -1.38355    -184.776E-03    -34.6031E-03     55.6797E-03    -26.3283E-03    -29.3667E-03    -26.0507E-03     52.3637E-03    -26.3283E-03     32.5495E-03     68.3340E+06    -18.7677E+06    -50.6749E+06    -18.6117E+06     68.1781E+06    -50.6749E+06     1.19152E+06         43.2840
            1427     14.6090E-03     72.7267E-03     495.516E-03    -140.074E-03        -1.54974     495.187E-03        -1.54941    -140.074E-03    -40.5614E-03     75.9343E-03    -26.5515E-03    -49.4047E-03    -27.6015E-03     54.1311E-03    -26.5515E-03     88.8893E-03     115.926E+06     14.1000E+06    -29.8325E+06    -18.9294E+06     115.767E+06     3.35616E+06     2.04762E+06         49.1391
            1428     15.5869E-03     72.8728E-03     610.160E-03    -86.0211E-03        -1.71160     610.019E-03        -1.71146    -86.0211E-03    -20.7974E-03     167.260E-03    -26.9365E-03    -140.371E-03    -43.5580E-03     70.4474E-03    -26.9365E-03     284.041E-03     162.850E+06     85.3612E+06    -17.4357E+06    -17.3392E+06     162.754E+06     85.3612E+06     2.93628E+06         55.0781
            1429     16.5584E-03     73.3467E-03     714.839E-03    -22.5259E-03        -1.86480     714.659E-03        -1.86462    -22.5259E-03    -26.0050E-03     215.141E-03    -27.1847E-03    -188.000E-03    -47.2391E-03     74.3803E-03    -27.1847E-03     384.288E-03     199.179E+06     148.088E+06    -10.9249E+06    -10.8886E+06     199.142E+06     148.088E+06     2.41890E+06         59.8669
            1430     974.065E-06     73.6090E-03         1.31509    -409.510E-03        -2.11953        -2.03294    -420.586E-03         1.23958     156.862E-03     53.4995E-03    -26.4584E-03    -27.0430E-03    -27.0389E-03     53.4955E-03    -26.4584E-03     807.847E-06    -21.5678E+06    -25.4038E+06    -175.784E+06    -25.4413E+06    -175.746E+06    -21.5678E+06     1.02371E+06         23.7596
            1431     1.94714E-03     73.6103E-03    -280.281E-03    -387.093E-03    -547.832E-03    -404.142E-03    -413.687E-03    -397.377E-03    -32.1779E-03     53.9054E-03    -26.7980E-03    -27.1076E-03    -27.0429E-03     53.8942E-03    -26.8515E-03     1.84956E-03    -17.4822E+06    -23.1361E+06    -179.445E+06    -23.1599E+06    -179.421E+06    -17.4822E+06    -124.829E+03         23.8085
            1432     2.92073E-03     73.6126E-03    -316.624E-03    -384.447E-03    -509.323E-03    -370.215E-03    -445.448E-03    -394.732E-03     37.0461E-03     53.6634E-03    -26.7372E-03    -26.9255E-03    -26.7417E-03     53.6407E-03    -26.8982E-03     2.64796E-03    -17.4124E+06    -22.6968E+06    -184.256E+06    -22.1749E+06    -184.233E+06    -17.9571E+06    -891.190E+03         23.9004
            1433     3.89567E-03     73.6165E-03    -316.111E-03    -386.495E-03    -507.182E-03    -355.941E-03    -467.352E-03    -386.495E-03    -61.5259E-03     53.5030E-03    -26.6630E-03    -26.8402E-03    -26.6237E-03     53.4636E-03    -26.8402E-03     3.51792E-03    -19.8722E+06    -22.8922E+06    -187.691E+06    -21.2553E+06    -187.674E+06    -21.5269E+06    -419.670E+03         24.0377
            1434     4.86858E-03     73.6208E-03    -292.611E-03    -374.996E-03    -542.164E-03    -302.285E-03    -532.490E-03    -374.996E-03    -22.8664E-03     53.4787E-03    -26.6763E-03    -26.8029E-03    -26.6111E-03     53.4135E-03    -26.8029E-03     4.51994E-03    -19.5418E+06    -22.6483E+06    -187.107E+06    -21.5458E+06    -187.100E+06    -20.6518E+06     65.0025E+03         24.2055
            1435     5.84339E-03     73.6265E-03    -227.506E-03    -356.615E-03    -620.638E-03    -229.263E-03    -618.880E-03    -356.615E-03     24.0731E-03     53.5845E-03    -26.7411E-03    -26.8440E-03    -26.6795E-03     53.4770E-03    -26.7981E-03     5.83467E-03    -15.7261E+06    -20.3682E+06    -182.098E+06    -20.3729E+06    -182.094E+06    -15.7261E+06     117.836E+03         24.4377
            1436     6.81647E-03     73.6334E-03    -158.750E-03    -333.151E-03    -710.737E-03    -161.841E-03    -707.646E-03    -333.151E-03    -44.4985E-03     53.6652E-03    -26.7893E-03    -26.8781E-03    -26.7117E-03     53.4988E-03    -26.7893E-03     7.27440E-03    -13.4112E+06    -18.3067E+06    -172.219E+06    -18.3105E+06    -172.216E+06    -13.4112E+06    -7.44859E+03         24.8735
            1437     7.79080E-03     73.6419E-03    -114.906E-03    -308.259E-03    -782.320E-03    -117.731E-03    -779.495E-03    -308.259E-03    -64.0660E-03     53.7463E-03    -26.7663E-03    -26.9682E-03    -26.7188E-03     53.4969E-03    -26.7663E-03     8.90950E-03    -13.3908E+06    -15.7433E+06    -157.833E+06    -15.6757E+06    -157.789E+06    -13.5022E+06    -1.72553E+06         25.6560
            1438     8.76525E-03     73.6521E-03    -59.6821E-03    -283.090E-03    -863.175E-03    -59.9317E-03    -862.926E-03    -283.090E-03     4.79355E-03     53.8583E-03    -26.7230E-03    -27.1214E-03    -26.7754E-03     53.5123E-03    -26.7230E-03     10.5311E-03    -13.4148E+06    -18.4469E+06    -138.838E+06    -13.6606E+06    -138.699E+06    -18.3407E+06    -3.86352E+06         26.8146
            1439     9.73785E-03     73.6641E-03     32.1888E-03    -255.372E-03    -979.383E-03     31.1419E-03    -978.337E-03    -255.372E-03    -32.4927E-03     53.8738E-03    -26.6877E-03    -27.1890E-03    -26.6487E-03     53.3335E-03    -26.6877E-03     13.0647E-03    -13.7402E+06    -23.1461E+06    -119.388E+06    -13.8595E+06    -119.269E+06    -23.1461E+06    -3.33104E+06         28.3817
            1440     10.7129E-03     73.6794E-03     129.828E-03    -223.913E-03        -1.10376     128.666E-03        -1.10260    -223.913E-03    -71.0968E-03     53.8158E-03    -26.6214E-03    -27.2134E-03    -26.5666E-03     53.1690E-03    -26.6214E-03     14.4137E-03    -13.9613E+06    -30.1531E+06    -91.0037E+06    -14.0680E+06    -90.8971E+06    -30.1531E+06    -1.28010E+06         30.6320
            1441     11.6863E-03     73.6935E-03     207.121E-03    -190.154E-03        -1.20695     206.813E-03        -1.20664    -190.154E-03    -21.3134E-03     53.6962E-03    -26.5119E-03    -27.1917E-03    -26.3382E-03     52.8427E-03    -26.5119E-03     16.3399E-03    -14.5152E+06    -31.8727E+06    -58.2626E+06    -15.1680E+06    -48.3315E+06    -41.1511E+06    -1.16197E+06         33.8461
            1442     12.6611E-03     73.7125E-03     287.068E-03    -155.090E-03        -1.31968     286.931E-03        -1.31954    -155.090E-03    -8.87555E-03     54.2559E-03    -26.3616E-03    -27.8912E-03    -26.0859E-03     52.4507E-03    -26.3616E-03     23.6079E-03     12.1274E+06    -23.1390E+06    -54.4933E+06    -17.8763E+06     6.86471E+06    -54.4933E+06    -583.223E+03         38.0694
            1443     13.6354E-03     73.7427E-03     394.882E-03    -117.714E-03        -1.46338     394.563E-03        -1.46306    -117.714E-03    -37.8827E-03     55.5002E-03    -26.3082E-03    -29.2106E-03    -25.9869E-03     52.2765E-03    -26.3082E-03     32.1854E-03     66.8646E+06    -20.7524E+06    -49.3046E+06    -20.6248E+06     66.7370E+06    -49.3046E+06     731.759E+03         43.2389
            1444     14.6115E-03     73.7790E-03     506.525E-03    -75.6763E-03        -1.61293     506.238E-03        -1.61264    -75.6763E-03    -38.3023E-03     76.5207E-03    -26.5685E-03    -49.9654E-03    -28.4976E-03     55.0528E-03    -26.5685E-03     88.5968E-03     115.968E+06     12.0945E+06    -28.3282E+06    -21.7263E+06     115.843E+06     5.61817E+06     2.61625E+06         49.1369
            1445     15.5828E-03     73.9304E-03     608.888E-03    -23.2737E-03        -1.76257     608.798E-03        -1.76248    -23.2737E-03    -15.4534E-03     166.137E-03    -26.8754E-03    -139.306E-03    -40.9589E-03     67.7898E-03    -26.8754E-03     283.044E-03     161.109E+06     81.0315E+06    -19.5048E+06    -19.3878E+06     160.992E+06     81.0315E+06     4.21259E+06         55.1255
            1446     16.5626E-03     74.3980E-03     709.348E-03     39.9272E-03        -1.91488     709.284E-03        -1.91481     39.9272E-03    -2.74652E-03     214.737E-03    -27.0213E-03    -187.778E-03    -46.2560E-03     73.2151E-03    -27.0213E-03     384.293E-03     200.225E+06     145.553E+06    -10.5524E+06    -10.5043E+06     200.177E+06     145.553E+06     2.02318E+06         59.9542
            1447     974.147E-06     74.6632E-03         1.53582    -389.913E-03        -2.34832        -2.02283    -616.546E-03         1.43697     432.996E-03     53.3668E-03    -26.5052E-03    -26.8624E-03    -26.7638E-03     53.3603E-03    -26.5973E-03     1.22171E-03    -24.5880E+06    -29.5477E+06    -176.977E+06    -29.5604E+06    -176.964E+06    -24.5880E+06     953.302E+03         23.7543
            1448     1.94775E-03     74.6653E-03    -150.665E-03    -296.203E-03    -750.234E-03    -310.725E-03    -590.174E-03    -296.203E-03    -164.351E-03     53.8330E-03    -26.7380E-03    -27.0949E-03    -27.0046E-03     53.8182E-03    -26.8136E-03     2.17359E-03    -15.6792E+06    -25.5185E+06    -179.698E+06    -25.5344E+06    -179.682E+06    -15.6792E+06     1.42310E+06         23.8058
            1449     2.92116E-03     74.6669E-03    -219.256E-03    -294.678E-03    -682.665E-03    -265.186E-03    -636.735E-03    -294.678E-03     76.0904E-03     54.0022E-03    -26.8637E-03    -27.1381E-03    -27.0581E-03     53.9798E-03    -26.9213E-03     2.68253E-03    -15.0953E+06    -23.0924E+06    -183.381E+06    -23.1123E+06    -183.361E+06    -15.0953E+06     100.945E+03         23.9043
            1450     3.89400E-03     74.6705E-03    -233.247E-03    -284.768E-03    -674.940E-03    -247.482E-03    -660.705E-03    -284.768E-03    -69.3255E-03     53.6718E-03    -26.6975E-03    -26.9749E-03    -26.7118E-03     53.6355E-03    -26.9243E-03     3.38424E-03    -16.5675E+06    -22.0270E+06    -187.059E+06    -20.9462E+06    -187.029E+06    -17.6775E+06    -752.096E+03         24.0431
            1451     4.86919E-03     74.6747E-03    -214.356E-03    -273.938E-03    -706.105E-03    -216.876E-03    -703.584E-03    -273.938E-03    -3.48651E-03     53.5135E-03    -26.6391E-03    -26.8736E-03    -26.5745E-03     53.4488E-03    -26.8736E-03     4.49683E-03    -17.2349E+06    -21.0566E+06    -187.781E+06    -19.9633E+06    -187.764E+06    -18.3449E+06    -458.000E+03         24.2080
            1452     5.84245E-03     74.6805E-03    -145.896E-03    -258.349E-03    -786.446E-03    -146.831E-03    -785.510E-03    -258.349E-03    -12.4178E-03     53.5607E-03    -26.7005E-03    -26.8595E-03    -26.6105E-03     53.4553E-03    -26.8443E-03     5.77854E-03    -13.8616E+06    -18.1611E+06    -181.666E+06    -18.1969E+06    -181.631E+06    -13.8616E+06    -1.15618E+06         24.4345
            1453     6.81710E-03     74.6877E-03    -76.8176E-03    -237.194E-03    -877.767E-03    -80.8686E-03    -873.716E-03    -237.194E-03    -66.5044E-03     53.6946E-03    -26.7426E-03    -26.9490E-03    -26.7059E-03     53.5300E-03    -26.8211E-03     7.22592E-03    -10.5916E+06    -15.7499E+06    -170.427E+06    -15.4752E+06    -170.347E+06    -10.9463E+06    -2.66516E+06         24.8598
            1454     7.79067E-03     74.6958E-03    -42.7728E-03    -214.720E-03    -937.295E-03    -46.7421E-03    -933.326E-03    -214.720E-03    -93.2770E-03     53.8485E-03    -26.7910E-03    -27.0433E-03    -26.8045E-03     53.6097E-03    -26.7910E-03     8.74924E-03    -11.3594E+06    -14.3169E+06    -155.471E+06    -13.3886E+06    -155.351E+06    -12.4072E+06    -3.83415E+06         25.6305
            1455     8.76378E-03     74.7069E-03     14.0140E-03    -191.857E-03        -1.01293     13.7756E-03        -1.01269    -191.857E-03    -26.2033E-03     53.7573E-03    -26.7506E-03    -26.9928E-03    -26.6617E-03     53.4288E-03    -26.7532E-03     10.2440E-03    -12.3065E+06    -16.7716E+06    -137.984E+06    -12.8010E+06    -137.843E+06    -16.4187E+06    -4.05589E+06         26.7783
            1456     9.73892E-03     74.7181E-03     102.193E-03    -165.951E-03        -1.12349     101.344E-03        -1.12265    -165.951E-03    -55.8159E-03     53.7071E-03    -26.7006E-03    -27.0032E-03    -26.4955E-03     53.2019E-03    -26.7032E-03     12.6235E-03    -13.4735E+06    -21.7244E+06    -121.250E+06    -13.8442E+06    -121.126E+06    -21.4778E+06    -3.32791E+06         28.3319
            1457     10.7124E-03     74.7333E-03     177.390E-03    -137.057E-03        -1.22488     176.611E-03        -1.22410    -137.057E-03    -52.4188E-03     53.5627E-03    -26.6092E-03    -26.9729E-03    -26.3476E-03     52.9374E-03    -26.6092E-03     14.1280E-03    -14.5607E+06    -30.0857E+06    -91.7710E+06    -14.6978E+06    -91.6339E+06    -30.0857E+06    -2.91645E+06         30.5623
            1458     11.6871E-03     74.7482E-03     252.507E-03    -106.473E-03        -1.32390     252.406E-03        -1.32380    -106.473E-03    -10.2559E-03     53.6437E-03    -26.5077E-03    -27.1654E-03    -26.3511E-03     52.8294E-03    -26.5077E-03     16.0308E-03    -14.9540E+06    -31.7300E+06    -55.0699E+06    -15.2123E+06    -48.5755E+06    -37.9659E+06    -1.64792E+06         33.7595
            1459     12.6610E-03     74.7662E-03     340.794E-03    -73.8571E-03        -1.44541     340.537E-03        -1.44515    -73.8571E-03    -21.6501E-03     54.2694E-03    -26.3623E-03    -27.9242E-03    -26.1787E-03     52.5239E-03    -26.3623E-03     23.1312E-03     11.1078E+06    -23.3473E+06    -51.8114E+06    -17.6157E+06     5.37618E+06    -51.8114E+06     33.6931E+03         37.9888
            1460     13.6360E-03     74.7970E-03     428.850E-03    -38.8465E-03        -1.56687     428.470E-03        -1.56649    -38.8465E-03    -43.4493E-03     55.7171E-03    -26.2969E-03    -29.4406E-03    -26.2535E-03     52.5300E-03    -26.2969E-03     32.1296E-03     64.6934E+06    -22.1253E+06    -51.2734E+06    -21.9866E+06     64.5547E+06    -51.2734E+06     2.20573E+06         43.1915
            1461     14.6088E-03     74.8341E-03     516.018E-03     95.2026E-06        -1.68764     515.854E-03        -1.68747     95.2026E-06    -27.6670E-03     77.3394E-03    -26.5465E-03    -50.8109E-03    -28.2502E-03     54.7787E-03    -26.5465E-03     90.5235E-03     113.039E+06     7.24639E+06    -31.4838E+06    -24.4011E+06     112.876E+06     326.440E+03     4.40925E+06         49.1349
            1462     15.5820E-03     74.9898E-03     611.114E-03     49.8759E-03        -1.82409     611.100E-03        -1.82408     49.8759E-03    -9.18290E-03     163.558E-03    -26.8395E-03    -136.777E-03    -39.5950E-03     66.3756E-03    -26.8395E-03     279.008E-03     161.411E+06     77.2226E+06    -19.4205E+06    -19.2880E+06     161.279E+06     77.2226E+06     3.66955E+06         55.1691
            1463     16.5703E-03     75.4321E-03     704.471E-03     111.884E-03        -1.96982     704.442E-03        -1.96979     111.884E-03     6.29553E-03     215.168E-03    -27.0168E-03    -188.221E-03    -46.9857E-03     73.9327E-03    -27.0168E-03     384.755E-03     203.224E+06     145.915E+06    -8.72875E+06    -8.68878E+06     203.184E+06     145.915E+06     1.30767E+06         60.0264
            1464     973.449E-06     75.7169E-03         1.73659    -284.889E-03        -2.62245        -1.99642    -769.067E-03         1.59473     662.452E-03     53.4210E-03    -26.6013E-03    -26.8200E-03    -26.6439E-03     53.4154E-03    -26.7717E-03     1.18664E-03    -25.2616E+06    -30.0141E+06    -178.515E+06    -29.3486E+06    -178.503E+06    -25.9393E+06     1.07483E+06         23.7517
            1465     1.94802E-03     75.7191E-03     7.85283E-03    -196.384E-03    -995.168E-03    -178.532E-03    -808.783E-03    -196.384E-03    -250.858E-03     53.6649E-03    -26.6839E-03    -26.9812E-03    -26.8541E-03     53.6479E-03    -26.7940E-03     2.27848E-03    -17.9999E+06    -25.5353E+06    -180.746E+06    -25.5514E+06    -180.730E+06    -17.9999E+06     1.33290E+06         23.8007
            1466     2.92102E-03     75.7226E-03    -96.6492E-03    -186.014E-03    -902.855E-03    -152.253E-03    -847.251E-03    -186.014E-03     100.436E-03     53.9493E-03    -26.8399E-03    -27.1095E-03    -27.0523E-03     53.9267E-03    -26.8744E-03     2.68533E-03    -16.1994E+06    -23.3736E+06    -181.633E+06    -23.3914E+06    -181.615E+06    -16.1994E+06     1.07676E+06         23.9005
            1467     3.89505E-03     75.7244E-03    -118.493E-03    -175.091E-03    -889.516E-03    -135.317E-03    -872.692E-03    -175.091E-03    -109.985E-03     53.9347E-03    -26.8290E-03    -27.1063E-03    -26.9647E-03     53.8982E-03    -26.9341E-03     3.34076E-03    -15.9083E+06    -22.3870E+06    -185.915E+06    -22.4047E+06    -185.898E+06    -15.9083E+06    -164.575E+03         24.0413
            1468     4.86806E-03     75.7288E-03    -91.0586E-03    -162.948E-03    -926.617E-03    -95.7738E-03    -921.902E-03    -162.948E-03    -36.6410E-03     53.7292E-03    -26.7190E-03    -27.0083E-03    -26.7282E-03     53.6622E-03    -26.9321E-03     4.61042E-03    -15.6715E+06    -20.4355E+06    -186.825E+06    -20.5033E+06    -186.757E+06    -15.6715E+06    -1.52871E+06         24.2061
            1469     5.84258E-03     75.7347E-03    -52.3335E-03    -147.921E-03    -979.480E-03    -55.6782E-03    -976.136E-03    -147.921E-03    -54.2529E-03     53.6093E-03    -26.6964E-03    -26.9097E-03    -26.6176E-03     53.5038E-03    -26.8829E-03     5.78062E-03    -13.3580E+06    -19.6810E+06    -179.437E+06    -17.5567E+06    -179.309E+06    -15.6097E+06    -3.66427E+06         24.4282
            1470     6.81622E-03     75.7412E-03    -12.4198E-03    -131.162E-03        -1.03810    -15.1194E-03        -1.03540    -131.162E-03    -52.1067E-03     53.7208E-03    -26.7532E-03    -26.9613E-03    -26.7028E-03     53.5447E-03    -26.8356E-03     7.44804E-03    -13.0553E+06    -18.3957E+06    -168.929E+06    -15.4672E+06    -168.755E+06    -16.1580E+06    -5.13744E+06         24.8450
            1471     7.78989E-03     75.7512E-03     38.7532E-03    -112.642E-03        -1.10796     36.2337E-03        -1.10545    -112.642E-03    -78.6536E-03     53.8473E-03    -26.8046E-03    -27.0263E-03    -26.7720E-03     53.5968E-03    -26.8084E-03     8.96277E-03    -15.4049E+06    -17.1121E+06    -155.451E+06    -15.5563E+06    -155.299E+06    -17.1121E+06    -4.52269E+06         25.6052
            1472     8.76448E-03     75.7601E-03     111.048E-03    -91.1019E-03        -1.19865     110.379E-03        -1.19798    -91.1019E-03    -48.9808E-03     53.7355E-03    -26.7825E-03    -26.9384E-03    -26.6101E-03     53.4098E-03    -26.7851E-03     10.2008E-03    -15.9732E+06    -17.5371E+06    -137.928E+06    -16.3174E+06    -137.831E+06    -17.2905E+06    -3.33107E+06         26.7428
            1473     9.73770E-03     75.7728E-03     180.359E-03    -66.4214E-03        -1.28787     179.143E-03        -1.28665    -66.4214E-03    -83.0070E-03     53.6320E-03    -26.7196E-03    -26.9093E-03    -26.4036E-03     53.1289E-03    -26.7222E-03     12.5718E-03    -15.0151E+06    -21.7790E+06    -119.864E+06    -15.5314E+06    -119.594E+06    -21.5324E+06    -4.64694E+06         28.2831
            1474     10.7123E-03     75.7870E-03     234.246E-03    -40.3281E-03        -1.36289     233.460E-03        -1.36211    -40.3281E-03    -61.2167E-03     53.4722E-03    -26.6029E-03    -26.8887E-03    -26.2684E-03     52.8518E-03    -26.6029E-03     14.0540E-03    -13.5896E+06    -32.8308E+06    -92.6915E+06    -13.9293E+06    -92.3518E+06    -32.8308E+06    -4.89776E+06         30.4936
            1475     11.6870E-03     75.8019E-03     308.131E-03    -13.0052E-03        -1.46216     307.780E-03        -1.46181    -13.0052E-03    -40.1072E-03     53.5229E-03    -26.5017E-03    -27.0552E-03    -26.2109E-03     52.6787E-03    -26.5017E-03     16.2379E-03    -14.1997E+06    -34.6271E+06    -57.6256E+06    -14.4443E+06    -52.2401E+06    -39.7679E+06    -2.04925E+06         33.6737
            1476     12.6608E-03     75.8218E-03     394.793E-03     16.7873E-03        -1.58183     394.395E-03        -1.58143     16.7873E-03    -50.1034E-03     54.3780E-03    -26.3592E-03    -28.0385E-03    -26.3129E-03     52.6523E-03    -26.3592E-03     23.1789E-03     10.3886E+06    -25.0113E+06    -52.9374E+06    -17.7926E+06     3.16985E+06    -52.9374E+06     1.44762E+06         37.9088
            1477     13.6352E-03     75.8494E-03     472.943E-03     49.0403E-03        -1.69166     472.467E-03        -1.69118     49.0403E-03    -60.1771E-03     55.6495E-03    -26.2604E-03    -29.4075E-03    -25.9253E-03     52.1672E-03    -26.2604E-03     33.2468E-03     61.7430E+06    -22.3265E+06    -57.5267E+06    -22.0547E+06     61.4712E+06    -57.5267E+06     4.55053E+06         43.1464
            1478     14.6097E-03     75.8926E-03     544.908E-03     85.0239E-03        -1.79494     544.675E-03        -1.79471     85.0239E-03    -38.6159E-03     76.0476E-03    -26.4311E-03    -49.6489E-03    -26.4711E-03     52.8698E-03    -26.4311E-03     91.1049E-03     111.549E+06     5.36864E+06    -35.4286E+06    -22.7576E+06     111.293E+06    -7.04627E+06     4.47161E+06         49.1405
            1479     15.5914E-03     76.0363E-03     619.709E-03     132.067E-03        -1.90748     619.679E-03        -1.90745     132.067E-03    -16.1133E-03     163.922E-03    -26.8047E-03    -137.172E-03    -42.7704E-03     69.5206E-03    -26.8047E-03     278.248E-03     163.823E+06     77.5769E+06    -16.4493E+06    -16.3543E+06     163.728E+06     77.5769E+06     2.05302E+06         55.2123
            1480     16.5514E-03     76.4927E-03     703.875E-03     191.775E-03        -2.04111     703.843E-03        -2.04107     191.775E-03    -13.5432E-03     214.428E-03    -27.1476E-03    -187.320E-03    -48.3559E-03     75.4640E-03    -27.1476E-03     382.035E-03     205.378E+06     147.250E+06    -8.45502E+06    -8.44637E+06     205.370E+06     147.250E+06     888.542E+03         60.0907
            1481     974.376E-06     76.7716E-03         1.96423    -193.406E-03        -2.92718        -1.94880        -1.01525         1.80769     921.171E-03     53.8120E-03    -26.7597E-03    -27.0518E-03    -26.8041E-03     53.8081E-03    -27.0035E-03     677.030E-06    -27.7407E+06    -31.2684E+06    -179.467E+06    -30.6013E+06    -179.456E+06    -28.4184E+06     921.034E+03         23.7553
            1482     1.94692E-03     76.7733E-03     154.525E-03    -70.1387E-03        -1.25570    -67.7002E-03        -1.03347    -70.1387E-03    -303.651E-03     53.6929E-03    -26.7315E-03    -26.9611E-03    -26.7661E-03     53.6791E-03    -26.9128E-03     1.99415E-03    -23.5452E+06    -27.0143E+06    -182.025E+06    -27.0306E+06    -182.009E+06    -23.5452E+06     475.583E+03         23.7959
            1483     2.92169E-03     76.7767E-03     25.6923E-03    -65.5580E-03        -1.13798    -43.8576E-03        -1.06843    -65.5580E-03     157.760E-03     53.6567E-03    -26.7166E-03    -26.9393E-03    -26.7414E-03     53.6360E-03    -26.8938E-03     2.53017E-03    -17.6430E+06    -23.1930E+06    -181.629E+06    -23.2278E+06    -181.594E+06    -17.6430E+06     902.498E+03         23.8898
            1484     3.89471E-03     76.7792E-03     4.04576E-03    -56.5015E-03        -1.11678    -16.0526E-03        -1.09668    -56.5015E-03    -122.160E-03     53.9412E-03    -26.8767E-03    -27.0648E-03    -26.9976E-03     53.9082E-03    -26.9109E-03     3.19342E-03    -15.4583E+06    -22.1272E+06    -184.041E+06    -22.1733E+06    -183.995E+06    -15.4583E+06     53.1454E+03         24.0340
            1485     4.86851E-03     76.7833E-03     38.5750E-03    -43.3501E-03        -1.16103     32.8010E-03        -1.15525    -43.3501E-03    -20.6357E-03     53.8479E-03    -26.8254E-03    -27.0214E-03    -26.8684E-03     53.7825E-03    -26.9129E-03     4.53086E-03    -16.2028E+06    -22.4673E+06    -183.314E+06    -20.5793E+06    -183.218E+06    -18.1862E+06    -2.83773E+06         24.2047
            1486     5.84210E-03     76.7882E-03     61.9448E-03    -27.8967E-03        -1.20085     58.2643E-03        -1.19717    -27.8967E-03    -53.1362E-03     53.6871E-03    -26.7786E-03    -26.9069E-03    -26.6953E-03     53.5630E-03    -26.8661E-03     6.22848E-03    -17.9081E+06    -23.9737E+06    -176.743E+06    -19.9283E+06    -176.554E+06    -22.1432E+06    -5.23457E+06         24.4245
            1487     6.81609E-03     76.7961E-03     82.9921E-03    -13.0971E-03        -1.23831     81.3951E-03        -1.23672    -13.0971E-03    -23.0055E-03     53.7648E-03    -26.8316E-03    -26.9285E-03    -26.7308E-03     53.5710E-03    -26.8355E-03     7.85383E-03    -19.1753E+06    -21.9780E+06    -168.103E+06    -19.4525E+06    -167.868E+06    -21.9358E+06    -5.86213E+06         24.8318
            1488     7.79048E-03     76.8044E-03     129.203E-03     2.54474E-03        -1.30091     128.032E-03        -1.29974     2.54474E-03    -62.6843E-03     53.7766E-03    -26.8118E-03    -26.9511E-03    -26.6876E-03     53.5170E-03    -26.8157E-03     9.10873E-03    -17.6227E+06    -20.7409E+06    -156.184E+06    -17.8757E+06    -155.931E+06    -20.7409E+06    -5.61636E+06         25.5811
            1489     8.76346E-03     76.8156E-03     194.287E-03     21.1415E-03        -1.38194     193.756E-03        -1.38140     21.1415E-03    -40.1311E-03     53.6769E-03    -26.7719E-03    -26.8902E-03    -26.5604E-03     53.3477E-03    -26.7725E-03     10.2594E-03    -15.3240E+06    -21.0383E+06    -137.422E+06    -15.6161E+06    -137.130E+06    -21.0383E+06    -5.57009E+06         26.7086
            1490     9.73826E-03     76.8258E-03     245.513E-03     42.1711E-03        -1.44917     244.640E-03        -1.44830     42.1711E-03    -61.7622E-03     53.6392E-03    -26.7141E-03    -26.9202E-03    -26.4032E-03     53.1229E-03    -26.7148E-03     12.7111E-03    -13.9779E+06    -22.9873E+06    -117.111E+06    -14.3554E+06    -116.733E+06    -22.9873E+06    -5.92043E+06         28.2359
            1491     10.7126E-03     76.8415E-03     303.836E-03     64.6220E-03        -1.52687     303.189E-03        -1.52623     64.6220E-03    -61.4407E-03     53.4868E-03    -26.5998E-03    -26.9090E-03    -26.2805E-03     52.8583E-03    -26.5998E-03     14.1520E-03    -16.0543E+06    -35.8876E+06    -94.2128E+06    -16.5072E+06    -93.7599E+06    -35.8876E+06    -5.75982E+06         30.4269
            1492     11.6863E-03     76.8558E-03     379.558E-03     89.1928E-03        -1.62522     379.089E-03        -1.62476     89.1928E-03    -58.8640E-03     53.3830E-03    -26.4934E-03    -26.9142E-03    -26.0474E-03     52.5162E-03    -26.4934E-03     16.3729E-03    -18.4378E+06    -39.4744E+06    -62.5602E+06    -18.7112E+06    -57.2283E+06    -44.5329E+06    -2.55748E+06         33.5903
            1493     12.6621E-03     76.8754E-03     445.468E-03     116.030E-03        -1.71990     445.115E-03        -1.71954     116.030E-03    -53.2098E-03     54.1304E-03    -26.3441E-03    -27.7899E-03    -25.9355E-03     52.2760E-03    -26.3441E-03     23.9120E-03     6.30134E+06    -27.0077E+06    -54.9710E+06    -19.8356E+06    -870.778E+03    -54.9710E+06     1.81162E+06         37.8326
            1494     13.6351E-03     76.9061E-03     510.612E-03     144.561E-03        -1.81160     510.179E-03        -1.81116     144.561E-03    -60.8323E-03     54.8505E-03    -26.2001E-03    -28.6585E-03    -25.2420E-03     51.4340E-03    -26.2001E-03     32.7412E-03     59.6641E+06    -20.8959E+06    -59.3956E+06    -20.6421E+06     59.4103E+06    -59.3956E+06     3.98569E+06         43.1078
            1495     14.6142E-03     76.9405E-03     576.335E-03     176.795E-03        -1.90251     576.041E-03        -1.90221     176.795E-03    -45.4340E-03     75.2211E-03    -26.3505E-03    -48.8937E-03    -26.6615E-03     52.9889E-03    -26.3505E-03     89.0549E-03     113.327E+06     7.40487E+06    -35.2414E+06    -19.4860E+06     113.166E+06    -8.18991E+06     2.81781E+06         49.1475
            1496     15.5861E-03     77.0931E-03     641.812E-03     221.106E-03        -2.00822     641.685E-03        -2.00809     221.106E-03    -32.2540E-03     167.836E-03    -26.7371E-03    -141.136E-03    -43.8778E-03     70.5778E-03    -26.7371E-03     285.456E-03     164.391E+06     77.7119E+06    -16.2042E+06    -16.1695E+06     164.356E+06     77.7119E+06     303.520E+03         55.2633
            1497     16.5591E-03     77.5658E-03     708.194E-03     278.352E-03        -2.12583     708.068E-03        -2.12571     278.352E-03    -23.4276E-03     214.800E-03    -27.0826E-03    -187.746E-03    -49.0242E-03     76.0780E-03    -27.0826E-03     382.429E-03     205.884E+06     147.122E+06    -9.92617E+06    -9.89359E+06     205.851E+06     147.122E+06     845.235E+03         60.1778
            1498     972.537E-06     77.8257E-03         2.21666    -100.017E-03        -3.27094        -1.87008        -1.32256         2.03834         1.11155     54.2557E-03    -26.7684E-03    -27.4870E-03    -27.2274E-03     54.2521E-03    -27.0245E-03     681.897E-06    -27.6064E+06    -32.0750E+06    -178.543E+06    -32.0858E+06    -178.532E+06    -27.6064E+06     818.717E+03         23.7521
            1499     1.94718E-03     77.8283E-03     319.828E-03     77.8867E-03        -1.55858     49.5081E-03        -1.28826     77.8867E-03    -370.684E-03     53.8600E-03    -26.7675E-03    -27.0925E-03    -26.7586E-03     53.8511E-03    -27.0925E-03     1.67216E-03    -23.7184E+06    -28.2026E+06    -181.067E+06    -28.2089E+06    -181.061E+06    -23.7184E+06    -569.033E+03         23.7868
            1500     2.92052E-03     77.8299E-03     171.494E-03     72.5876E-03        -1.40756     81.1146E-03        -1.31718     72.5876E-03     215.853E-03     53.5688E-03    -26.6056E-03    -26.9628E-03    -26.5849E-03     53.5481E-03    -26.9628E-03     2.50703E-03    -22.4684E+06    -26.8362E+06    -183.679E+06    -25.7115E+06    -183.642E+06    -23.6303E+06    -542.561E+03         23.8781
            1501     3.89510E-03     77.8345E-03     146.199E-03     79.6763E-03        -1.38837     121.301E-03        -1.36347     79.6763E-03    -120.222E-03     53.6055E-03    -26.6801E-03    -26.9245E-03    -26.6762E-03     53.5693E-03    -26.8922E-03     3.38951E-03    -19.2727E+06    -23.9444E+06    -181.792E+06    -22.6209E+06    -181.733E+06    -20.6548E+06    -1.24211E+06         24.0266
            1502     4.86850E-03     77.8372E-03     148.444E-03     90.3801E-03        -1.40038     139.930E-03        -1.39187     90.3801E-03     19.1378E-03     53.8355E-03    -26.8149E-03    -27.0187E-03    -26.9054E-03     53.7734E-03    -26.8661E-03     4.41703E-03    -18.7605E+06    -22.1638E+06    -179.207E+06    -20.1038E+06    -179.063E+06    -20.9641E+06    -4.14715E+06         24.2048
            1503     5.84259E-03     77.8427E-03     162.769E-03     100.841E-03        -1.42272     158.560E-03        -1.41851     100.841E-03    -61.7539E-03     53.8802E-03    -26.8659E-03    -27.0159E-03    -26.8993E-03     53.7635E-03    -26.8659E-03     6.04290E-03    -18.4495E+06    -20.7362E+06    -173.386E+06    -18.9968E+06    -173.106E+06    -20.4692E+06    -6.27192E+06         24.4245
            1504     6.81634E-03     77.8500E-03     197.639E-03     112.408E-03        -1.46865     194.450E-03        -1.46546     112.408E-03    -48.3107E-03     53.8116E-03    -26.8616E-03    -26.9488E-03    -26.7572E-03     53.6252E-03    -26.8668E-03     7.68617E-03    -16.8144E+06    -17.8589E+06    -166.217E+06    -17.2636E+06    -165.810E+06    -17.8168E+06    -7.59468E+06         24.8212
            1505     7.78941E-03     77.8594E-03     242.724E-03     126.422E-03        -1.52477     239.769E-03        -1.52182     126.422E-03    -120.071E-03     53.7330E-03    -26.8189E-03    -26.9089E-03    -26.6433E-03     53.4726E-03    -26.8241E-03     9.11448E-03    -14.2961E+06    -19.9948E+06    -155.666E+06    -14.8143E+06    -155.148E+06    -19.9948E+06    -8.36523E+06         25.5581
            1506     8.76450E-03     77.8690E-03     282.381E-03     142.451E-03        -1.57654     281.830E-03        -1.57599     142.451E-03    -55.4064E-03     53.6485E-03    -26.7693E-03    -26.8635E-03    -26.5383E-03     53.3240E-03    -26.7700E-03     10.1901E-03    -13.4129E+06    -21.5573E+06    -137.886E+06    -13.9513E+06    -137.348E+06    -21.5573E+06    -8.15486E+06         26.6756
            1507     9.73809E-03     77.8804E-03     324.117E-03     159.785E-03        -1.62871     323.739E-03        -1.62833     159.785E-03    -48.3434E-03     53.7381E-03    -26.7319E-03    -26.9813E-03    -26.4891E-03     53.2466E-03    -26.7326E-03     12.4223E-03    -12.9667E+06    -20.1994E+06    -118.161E+06    -13.3846E+06    -117.743E+06    -20.1994E+06    -6.55329E+06         28.1901
            1508     10.7119E-03     77.8954E-03     385.750E-03     178.949E-03        -1.70667     385.216E-03        -1.70613     178.949E-03    -62.1033E-03     53.5543E-03    -26.6425E-03    -26.9107E-03    -26.3203E-03     52.9639E-03    -26.6425E-03     13.7203E-03    -13.5123E+06    -28.9078E+06    -94.3093E+06    -13.8077E+06    -94.0139E+06    -28.9078E+06     -4.4937E+06         30.3622
            1509     11.6874E-03     77.9091E-03     447.251E-03     200.362E-03        -1.79133     446.813E-03        -1.79089     200.362E-03    -51.4820E-03     53.3800E-03    -26.5122E-03    -26.8835E-03    -26.0657E-03     52.5623E-03    -26.5122E-03     15.8841E-03    -15.5186E+06    -38.2234E+06    -65.0208E+06    -15.8338E+06    -60.0194E+06    -42.9097E+06    -3.14045E+06         33.5094
            1510     12.6606E-03     77.9297E-03     493.739E-03     223.263E-03        -1.86229     493.444E-03        -1.86199     223.263E-03    -46.3232E-03     53.5572E-03    -26.3328E-03    -27.2326E-03    -25.4980E-03     51.8226E-03    -26.3328E-03     22.9546E-03     5.96107E+06    -27.8342E+06    -56.1548E+06    -16.8028E+06    -5.07027E+06    -56.1548E+06    -995.307E+03         37.7593
            1511     13.6387E-03     77.9579E-03     541.967E-03     247.143E-03        -1.93167     541.509E-03        -1.93121     247.143E-03    -64.2071E-03     54.5478E-03    -26.1777E-03    -28.3760E-03    -25.3084E-03     51.4801E-03    -26.1777E-03     31.0997E-03     58.2733E+06    -17.4019E+06    -59.1918E+06    -17.3068E+06     58.1782E+06    -59.1918E+06     1.27533E+06         43.0697
            1512     14.6105E-03     77.9954E-03     599.260E-03     274.676E-03        -2.01082     598.984E-03        -2.01055     274.676E-03    -47.5334E-03     75.6999E-03    -26.3258E-03    -49.3980E-03    -27.0741E-03     53.3760E-03    -26.3258E-03     88.7912E-03     114.504E+06     7.47584E+06    -35.5121E+06    -17.3181E+06     114.466E+06    -10.6798E+06     2.13461E+06         49.1538
            1513     15.5878E-03     78.1474E-03     667.513E-03     315.499E-03        -2.11228     667.259E-03        -2.11203     315.499E-03    -50.7396E-03     168.237E-03    -26.6462E-03    -141.651E-03    -41.3095E-03     67.8961E-03    -26.6462E-03     288.302E-03     165.860E+06     77.0503E+06    -15.7512E+06    -15.6577E+06     165.766E+06     77.0503E+06     2.18243E+06         55.3246
            1514     16.5712E-03     78.6209E-03     729.135E-03     370.472E-03        -2.22088     728.902E-03        -2.22065     370.472E-03    -20.6746E-03     214.442E-03    -26.9216E-03    -187.578E-03    -49.5392E-03     76.4035E-03    -26.9216E-03     381.695E-03     206.837E+06     147.197E+06    -11.3310E+06    -11.2332E+06     206.739E+06     147.197E+06     1.14501E+06         60.2812
            1515     973.910E-06     78.8819E-03         2.41796     8.62108E-03        -3.56857        -1.78551        -1.57642         2.21994         1.26695     53.9542E-03    -26.6091E-03    -27.3454E-03    -27.1420E-03     53.9496E-03    -26.8079E-03     808.510E-06    -27.3885E+06    -30.5153E+06    -177.678E+06    -30.3399E+06    -177.635E+06    -27.6078E+06    -856.174E+03         23.7333
            1516     1.94651E-03     78.8821E-03     484.297E-03     215.282E-03        -1.84902     203.765E-03        -1.56848     215.282E-03    -454.371E-03     53.9196E-03    -26.8240E-03    -27.0961E-03    -26.9022E-03     53.9039E-03    -27.0022E-03     2.13798E-03    -22.5702E+06    -27.0082E+06    -180.375E+06    -27.0154E+06    -180.368E+06    -22.5702E+06    -499.237E+03         23.7763
            1517     2.92082E-03     78.8849E-03     330.230E-03     215.492E-03        -1.69603     232.224E-03        -1.59802     215.492E-03     161.688E-03     53.7278E-03    -26.7290E-03    -26.9987E-03    -26.7571E-03     53.7007E-03    -26.9435E-03     2.89688E-03    -24.9461E+06    -28.1747E+06    -182.323E+06    -26.6385E+06    -182.282E+06    -26.5234E+06    -1.77350E+06         23.8722
            1518     3.89462E-03     78.8873E-03     291.136E-03     222.674E-03        -1.66420     254.318E-03        -1.62738     222.674E-03    -196.448E-03     53.6541E-03    -26.7040E-03    -26.9491E-03    -26.7351E-03     53.6180E-03    -26.8819E-03     3.39368E-03    -24.2040E+06    -27.7256E+06    -179.060E+06    -24.3916E+06    -178.872E+06    -27.7256E+06    -4.45549E+06         24.0218
            1519     4.86920E-03     78.8923E-03     265.382E-03     229.703E-03        -1.64868     254.844E-03        -1.63814     229.703E-03     15.6121E-03     53.8433E-03    -26.8151E-03    -27.0271E-03    -26.9120E-03     53.7889E-03    -26.8759E-03     4.14899E-03    -21.6282E+06    -24.5039E+06    -175.181E+06    -22.1718E+06    -174.862E+06    -24.2790E+06    -6.33015E+06         24.2020
            1520     5.84175E-03     78.8972E-03     264.999E-03     234.971E-03        -1.65060     259.469E-03        -1.64507     234.971E-03    -81.1944E-03     53.9620E-03    -26.8783E-03    -27.0844E-03    -26.9724E-03     53.8596E-03    -26.8880E-03     5.65670E-03    -19.4862E+06    -22.5764E+06    -170.354E+06    -20.1466E+06    -169.918E+06    -22.3515E+06    -7.92934E+06         24.4224
            1521     6.81551E-03     78.9044E-03     311.315E-03     242.523E-03        -1.70060     306.928E-03        -1.69621     242.523E-03    -69.8145E-03     53.7866E-03    -26.8364E-03    -26.9493E-03    -26.7380E-03     53.6121E-03    -26.8732E-03     7.42999E-03    -18.7299E+06    -23.0475E+06    -163.941E+06    -19.3905E+06    -163.280E+06    -23.0475E+06    -9.61076E+06         24.8111
            1522     7.79045E-03     78.9131E-03     359.354E-03     254.525E-03        -1.75872     355.373E-03        -1.75474     254.525E-03    -138.587E-03     53.6466E-03    -26.7900E-03    -26.8501E-03    -26.5696E-03     53.4029E-03    -26.8268E-03     8.81122E-03    -17.7366E+06    -24.7051E+06    -154.315E+06    -18.6627E+06    -153.389E+06    -24.7051E+06    -10.9964E+06         25.5360
            1523     8.76350E-03     78.9232E-03     384.210E-03     268.462E-03        -1.79369     383.414E-03        -1.79290     268.462E-03    -61.9033E-03     53.7091E-03    -26.7776E-03    -26.9232E-03    -26.6053E-03     53.3912E-03    -26.7776E-03     10.0781E-03    -14.9641E+06    -25.4534E+06    -138.288E+06    -15.9958E+06    -137.257E+06    -25.4534E+06    -10.9450E+06         26.6433
            1524     9.73762E-03     78.9348E-03     427.186E-03     283.439E-03        -1.84564     426.462E-03        -1.84491     283.439E-03    -80.2590E-03     53.7437E-03    -26.7316E-03    -27.0049E-03    -26.5326E-03     53.2714E-03    -26.7316E-03     12.2144E-03    -12.5406E+06    -26.1176E+06    -120.150E+06    -13.4334E+06    -119.257E+06    -26.1176E+06    -9.50926E+06         28.1453
            1525     10.7124E-03     78.9493E-03     473.750E-03     300.065E-03        -1.90632     472.639E-03        -1.90521     300.065E-03    -98.8575E-03     53.6270E-03    -26.6475E-03    -26.9875E-03    -26.4105E-03     53.0500E-03    -26.6475E-03     13.5748E-03    -10.3752E+06    -33.3822E+06    -97.2922E+06    -10.9175E+06    -96.7499E+06    -33.3822E+06    -6.32869E+06         30.2988
            1526     11.6852E-03     78.9638E-03     509.246E-03     317.653E-03        -1.95888     508.252E-03        -1.95789     317.653E-03    -84.6750E-03     53.5367E-03    -26.5300E-03    -27.0233E-03    -26.2427E-03     52.7561E-03    -26.5300E-03     15.6181E-03    -9.94411E+06    -38.9590E+06    -66.3044E+06    -10.4658E+06    -60.2061E+06    -44.5355E+06    -4.25868E+06         33.4303
            1527     12.6616E-03     78.9826E-03     547.412E-03     335.972E-03        -2.01360     546.894E-03        -2.01309     335.972E-03    -63.8421E-03     53.7596E-03    -26.3588E-03    -27.4054E-03    -25.8700E-03     52.2243E-03    -26.3588E-03     21.7486E-03     5.74592E+06    -26.5364E+06    -59.7082E+06    -12.9782E+06    -7.81224E+06    -59.7082E+06    -2.73091E+06         37.6856
            1528     13.6345E-03     79.0111E-03     584.209E-03     355.331E-03        -2.07098     583.725E-03        -2.07050     355.331E-03    -67.1974E-03     54.8484E-03    -26.2278E-03    -28.6269E-03    -25.6744E-03     51.8959E-03    -26.2278E-03     30.5158E-03     55.1806E+06    -15.8386E+06    -63.7089E+06    -15.7961E+06     55.1381E+06    -63.7089E+06    -58.6671E+03         43.0279
            1529     14.6121E-03     79.0509E-03     628.554E-03     378.354E-03        -2.13737     628.374E-03        -2.13719     378.354E-03    -43.3163E-03     74.3974E-03    -26.3931E-03    -48.0292E-03    -26.9323E-03     53.3006E-03    -26.3931E-03     85.8071E-03     113.927E+06     6.69209E+06    -37.5930E+06    -17.2595E+06     113.869E+06    -13.5829E+06     2.05849E+06         49.1568
            1530     15.5898E-03     79.1959E-03     686.078E-03     415.168E-03        -2.22391     685.877E-03        -2.22370     415.168E-03    -45.7723E-03     165.063E-03    -26.7170E-03    -138.412E-03    -41.0497E-03     67.7008E-03    -26.7170E-03     281.453E-03     166.369E+06     72.5041E+06    -15.5846E+06    -15.4512E+06     166.236E+06     72.5041E+06     4.65326E+06         55.3757
            1531     16.5623E-03     79.6721E-03     744.447E-03     467.446E-03        -2.32944     744.224E-03        -2.32922     467.446E-03    -4.65378E-03     215.269E-03    -26.9938E-03    -188.341E-03    -48.9736E-03     75.9017E-03    -26.9938E-03     383.743E-03     208.931E+06     144.868E+06    -10.0099E+06    -9.90158E+06     208.823E+06     144.868E+06     2.89883E+06         60.3714
            1532     974.005E-06     79.9359E-03         2.60985     149.164E-03        -3.90132        -1.70576        -1.86249         2.42595         1.55853     53.1273E-03    -26.3958E-03    -26.7321E-03    -26.4920E-03     53.1216E-03    -26.6303E-03     839.411E-06    -27.9569E+06    -30.9455E+06    -178.920E+06    -30.7607E+06    -178.885E+06    -28.1762E+06    -1.26926E+06         23.7099
            1533     1.94835E-03     79.9371E-03     624.339E-03     355.923E-03        -2.11808     341.229E-03        -1.83497     355.923E-03    -489.784E-03     53.7136E-03    -26.6818E-03    -27.0318E-03    -27.0141E-03     53.6959E-03    -26.6818E-03     2.31460E-03    -25.3552E+06    -28.8023E+06    -179.846E+06    -28.7968E+06    -179.819E+06    -25.3877E+06    -1.08954E+06         23.7712
            1534     2.92130E-03     79.9389E-03     477.524E-03     356.659E-03        -1.97111     381.104E-03        -1.87470     356.659E-03     178.075E-03     54.0798E-03    -26.8285E-03    -27.2518E-03    -27.2267E-03     54.0546E-03    -26.8285E-03     2.82766E-03    -24.3017E+06    -26.8813E+06    -176.031E+06    -25.2348E+06    -175.865E+06    -26.1141E+06    -3.76149E+06         23.8749
            1535     3.89461E-03     79.9424E-03     414.829E-03     362.997E-03        -1.91418     377.663E-03        -1.87701     362.997E-03    -222.147E-03     53.9948E-03    -26.8936E-03    -27.1016E-03    -27.0636E-03     53.9567E-03    -26.8936E-03     3.43568E-03    -23.8014E+06    -29.4423E+06    -174.834E+06    -24.1814E+06    -174.454E+06    -29.4423E+06     -7.2696E+06         24.0212
            1536     4.86724E-03     79.9462E-03     399.111E-03     367.552E-03        -1.90353     389.181E-03        -1.89360     367.552E-03     16.0710E-03     53.8140E-03    -26.8839E-03    -26.9313E-03    -26.8489E-03     53.7460E-03    -26.8983E-03     4.58660E-03    -23.9170E+06    -30.4085E+06    -172.988E+06    -24.4242E+06    -172.481E+06    -30.4085E+06    -8.49813E+06         24.1993
            1537     5.84219E-03     79.9520E-03     412.480E-03     373.290E-03        -1.92576     407.333E-03        -1.92061     373.290E-03    -83.6108E-03     53.8413E-03    -26.8711E-03    -26.9716E-03    -26.8419E-03     53.7260E-03    -26.8855E-03     6.01199E-03    -22.7059E+06    -28.8492E+06    -167.462E+06    -23.4411E+06    -166.727E+06    -28.8492E+06    -9.99562E+06         24.4197
            1538     6.81571E-03     79.9586E-03     438.584E-03     380.937E-03        -1.95989     434.932E-03        -1.95624     380.937E-03    -59.7547E-03     53.8840E-03    -26.8347E-03    -27.0443E-03    -26.8379E-03     53.7092E-03    -26.8663E-03     7.47389E-03    -19.9074E+06    -28.4240E+06    -160.576E+06    -21.0140E+06    -159.469E+06    -28.4240E+06    -12.2604E+06         24.8011
            1539     7.78878E-03     79.9672E-03     461.705E-03     390.240E-03        -1.99251     458.809E-03        -1.98961     390.240E-03    -105.529E-03     53.7885E-03    -26.7993E-03    -26.9723E-03    -26.6945E-03     53.5423E-03    -26.8309E-03     8.85980E-03    -17.7580E+06    -29.8993E+06    -151.540E+06    -19.1577E+06    -150.140E+06    -29.8993E+06    -13.5070E+06         25.5141
            1540     8.76372E-03     79.9775E-03     488.185E-03     400.698E-03        -2.02747     487.799E-03        -2.02708     400.698E-03    -28.7899E-03     53.6813E-03    -26.7693E-03    -26.9050E-03    -26.5790E-03     53.3553E-03    -26.7693E-03     10.2056E-03    -15.8178E+06    -34.3026E+06    -137.766E+06    -17.7304E+06    -135.854E+06    -34.3026E+06    -14.8657E+06         26.6113
            1541     9.73755E-03     79.9890E-03     527.048E-03     412.756E-03        -2.07052     526.512E-03        -2.06999     412.756E-03    -71.4847E-03     53.7671E-03    -26.7192E-03    -27.0535E-03    -26.5856E-03     53.2992E-03    -26.7192E-03     12.1821E-03    -13.9546E+06    -36.2449E+06    -122.717E+06    -15.8492E+06    -120.823E+06    -36.2449E+06    -13.9886E+06         28.1008
            1542     10.7111E-03     80.0032E-03     548.653E-03     425.704E-03        -2.10304     547.849E-03        -2.10224     425.704E-03    -82.3122E-03     53.7546E-03    -26.6496E-03    -27.1340E-03    -26.5695E-03     53.1901E-03    -26.6496E-03     13.4478E-03    -12.8106E+06    -42.7232E+06    -100.995E+06    -14.3327E+06    -99.4731E+06    -42.7232E+06    -11.0394E+06         30.2356
            1543     11.6867E-03     80.0180E-03     568.215E-03     438.487E-03        -2.13487     567.314E-03        -2.13397     438.487E-03    -91.1978E-03     53.6892E-03    -26.5571E-03    -27.1655E-03    -26.4214E-03     52.9450E-03    -26.5571E-03     15.3013E-03    -11.9436E+06    -45.6889E+06    -69.2052E+06    -13.1634E+06    -62.5039E+06    -51.1703E+06    -7.47514E+06         33.3512
            1544     12.6589E-03     80.0369E-03     610.096E-03     452.222E-03        -2.18583     609.451E-03        -2.18518     452.222E-03    -82.9853E-03     54.3520E-03    -26.4178E-03    -27.9404E-03    -26.4071E-03     52.8187E-03    -26.4178E-03     21.8204E-03     3.14175E+06    -28.7928E+06    -64.1933E+06    -14.3992E+06    -11.2518E+06    -64.1933E+06    -3.19387E+06         37.6116
            1545     13.6347E-03     80.0654E-03     644.819E-03     467.756E-03        -2.23482     644.340E-03        -2.23434     467.756E-03    -68.9364E-03     55.4824E-03    -26.3248E-03    -29.1704E-03    -26.2353E-03     52.5473E-03    -26.3248E-03     30.6853E-03     52.6883E+06    -18.3172E+06    -68.4324E+06    -18.2353E+06     52.6064E+06    -68.4324E+06    -68.6653E+03         42.9845
            1546     14.6077E-03     80.1040E-03     674.378E-03     487.074E-03        -2.28176     674.216E-03        -2.28159     487.074E-03    -41.0616E-03     74.9877E-03    -26.5419E-03    -48.4666E-03    -28.0365E-03     54.5576E-03    -26.5419E-03     85.3515E-03     111.703E+06     2.49786E+06    -40.9344E+06    -20.6547E+06     111.619E+06    -17.6982E+06     2.72568E+06         49.1540
            1547     15.5791E-03     80.2504E-03     713.972E-03     520.090E-03        -2.35319     713.847E-03        -2.35307     520.090E-03    -37.8004E-03     164.856E-03    -26.9132E-03    -138.012E-03    -42.0453E-03     68.8887E-03    -26.9132E-03     279.654E-03     164.521E+06     65.6046E+06    -17.6406E+06    -17.5472E+06     164.428E+06     65.6046E+06     3.91420E+06         55.4159
            1548     16.5589E-03     80.7184E-03     747.221E-03     568.417E-03        -2.43915     747.068E-03        -2.43900     568.417E-03    -14.2420E-03     217.233E-03    -27.1588E-03    -190.154E-03    -46.9950E-03     74.0743E-03    -27.1588E-03     388.956E-03     210.858E+06     141.842E+06    -8.44417E+06    -8.39267E+06     210.806E+06     141.842E+06     3.14462E+06         60.4538
            1549     974.504E-06     80.9885E-03         2.81077     317.310E-03        -4.26629        -1.57369        -2.16844         2.60392         1.77067     53.0069E-03    -26.2741E-03    -26.7328E-03    -26.6018E-03     53.0021E-03    -26.4003E-03     707.739E-06    -28.7144E+06    -33.7582E+06    -179.511E+06    -33.5496E+06    -179.503E+06    -28.9312E+06     905.340E+03         23.7006
            1550     1.94811E-03     80.9913E-03     798.338E-03     512.706E-03        -2.43963     500.830E-03        -2.14212     512.706E-03    -555.903E-03     53.6806E-03    -26.6397E-03    -27.0412E-03    -27.0284E-03     53.6679E-03    -26.6397E-03     1.98966E-03    -25.4150E+06    -30.5383E+06    -175.190E+06    -30.6104E+06    -175.085E+06    -25.4475E+06    -2.16221E+06         23.7692
            1551     2.92118E-03     80.9944E-03     612.250E-03     511.186E-03        -2.24165     517.406E-03        -2.14680     511.186E-03     252.992E-03     53.9547E-03    -26.7784E-03    -27.1779E-03    -27.1553E-03     53.9320E-03    -26.7784E-03     2.67321E-03    -27.0493E+06    -30.1364E+06    -170.189E+06    -27.8175E+06    -169.806E+06    -29.7507E+06    -7.01223E+06         23.8771
            1552     3.89420E-03     80.9969E-03     539.260E-03     511.954E-03        -2.17216     506.088E-03        -2.13898     511.954E-03    -176.221E-03     53.8893E-03    -26.8430E-03    -27.0465E-03    -27.0039E-03     53.8466E-03    -26.8430E-03     3.64363E-03    -26.0896E+06    -32.6630E+06    -170.432E+06    -26.6935E+06    -169.828E+06    -32.6630E+06    -9.15400E+06         24.0226
            1553     4.86901E-03     81.0007E-03     538.064E-03     513.206E-03        -2.17702     527.085E-03        -2.16604     513.206E-03     56.8967E-03     53.8244E-03    -26.8548E-03    -26.9698E-03    -26.8845E-03     53.7439E-03    -26.8596E-03     5.03354E-03    -24.6325E+06    -32.4257E+06    -170.056E+06    -25.5151E+06    -169.173E+06    -32.4257E+06    -10.9916E+06         24.2007
            1554     5.84168E-03     81.0060E-03     566.417E-03     518.982E-03        -2.21356     562.011E-03        -2.20916     518.982E-03    -73.9280E-03     53.8636E-03    -26.8450E-03    -27.0232E-03    -26.8914E-03     53.7366E-03    -26.8498E-03     6.37186E-03    -21.4109E+06    -31.5066E+06    -163.126E+06    -22.8574E+06    -161.679E+06    -31.5066E+06    -13.9036E+06         24.4195
            1555     6.81561E-03     81.0134E-03     569.313E-03     526.407E-03        -2.22970     566.199E-03        -2.22658     526.407E-03    -48.4879E-03     53.9377E-03    -26.8383E-03    -27.0947E-03    -26.9099E-03     53.7529E-03    -26.8383E-03     7.68852E-03    -18.0328E+06    -31.7015E+06    -157.098E+06    -20.0426E+06    -155.088E+06    -31.7015E+06    -16.3401E+06         24.7914
            1556     7.78977E-03     81.0216E-03     567.485E-03     532.470E-03        -2.23491     565.136E-03        -2.23256     532.470E-03    -107.177E-03     53.9883E-03    -26.8207E-03    -27.1464E-03    -26.8863E-03     53.7282E-03    -26.8207E-03     9.14323E-03    -15.3832E+06    -33.0227E+06    -149.900E+06    -17.7058E+06    -147.577E+06    -33.0227E+06    -17.2754E+06         25.4920
            1557     8.76275E-03     81.0317E-03     594.988E-03     538.949E-03        -2.26340     594.536E-03        -2.26295     538.949E-03    -43.5812E-03     53.8327E-03    -26.7883E-03    -27.0268E-03    -26.6962E-03     53.5021E-03    -26.7883E-03     10.3049E-03    -14.5622E+06    -34.6307E+06    -135.881E+06    -17.0542E+06    -133.389E+06    -34.6307E+06    -16.9833E+06         26.5789
            1558     9.73706E-03     81.0431E-03     619.708E-03     547.201E-03        -2.29251     619.153E-03        -2.29195     547.201E-03    -74.6288E-03     53.9095E-03    -26.7480E-03    -27.1541E-03    -26.6650E-03     53.4204E-03    -26.7480E-03     12.4462E-03    -14.5022E+06    -37.3461E+06    -123.711E+06    -17.4713E+06    -120.742E+06    -37.3461E+06    -17.3838E+06         28.0556
            1559     10.7113E-03     81.0582E-03     625.974E-03     555.743E-03        -2.30571     625.652E-03        -2.30539     555.743E-03    -60.5275E-03     54.0684E-03    -26.6845E-03    -27.4140E-03    -26.8335E-03     53.4878E-03    -26.6845E-03     13.6895E-03    -13.2489E+06    -45.7730E+06    -104.026E+06    -16.3201E+06    -100.955E+06    -45.7730E+06    -16.1554E+06         30.1711
            1560     11.6836E-03     81.0722E-03     638.638E-03     563.943E-03        -2.32499     638.252E-03        -2.32460     563.943E-03    -66.0508E-03     53.9420E-03    -26.6137E-03    -27.3625E-03    -26.6325E-03     53.2120E-03    -26.6137E-03     15.1985E-03    -12.4376E+06    -50.7824E+06    -73.3823E+06    -14.9673E+06    -67.5236E+06    -54.1114E+06    -11.5220E+06         33.2700
            1561     12.6600E-03     81.0915E-03     667.823E-03     573.107E-03        -2.36074     667.462E-03        -2.36038     573.107E-03    -64.7513E-03     54.5700E-03    -26.4846E-03    -28.0940E-03    -26.4846E-03     52.9605E-03    -26.4846E-03     22.2983E-03     642.451E+03    -33.3618E+06    -66.6291E+06    -15.6669E+06    -17.0524E+06    -66.6291E+06    -5.00500E+06         37.5362
            1562     13.6320E-03     81.1207E-03     700.998E-03     584.225E-03        -2.40172     700.775E-03        -2.40149     584.225E-03    -47.6031E-03     55.8128E-03    -26.3873E-03    -29.4517E-03    -26.3721E-03     52.7332E-03    -26.3873E-03     31.5547E-03     48.7264E+06    -19.6737E+06    -72.5452E+06    -19.5143E+06     48.5670E+06    -72.5452E+06     1.53270E+06         42.9425
            1563     14.6072E-03     81.1593E-03     726.838E-03     599.633E-03        -2.43997     726.730E-03        -2.43987     599.633E-03    -33.8415E-03     76.6095E-03    -26.6004E-03    -50.0386E-03    -28.3767E-03     54.9475E-03    -26.6004E-03     88.7572E-03     109.729E+06    -650.210E+03    -44.9768E+06    -21.9014E+06     109.586E+06    -23.5834E+06     3.97851E+06         49.1572
            1564     15.5831E-03     81.3080E-03     743.540E-03     628.438E-03        -2.48484     743.348E-03        -2.48465     628.438E-03    -48.0850E-03     165.613E-03    -27.0038E-03    -138.676E-03    -42.2903E-03     69.2280E-03    -27.0038E-03     281.171E-03     166.113E+06     65.9626E+06    -17.2159E+06    -17.1707E+06     166.068E+06     65.9626E+06     2.17235E+06         55.4652
            1565     16.5562E-03     81.7689E-03     748.009E-03     667.866E-03        -2.53184     744.424E-03        -2.53170     671.308E-03    -28.7167E-03     216.647E-03    -27.2419E-03    -189.472E-03    -46.1070E-03     73.2817E-03    -27.2419E-03     388.134E-03     211.950E+06     142.444E+06    -9.60094E+06    -9.58513E+06     211.934E+06     142.444E+06     1.24037E+06         60.5381
            1566     973.955E-06     82.0435E-03         2.97118     445.258E-03        -4.54139        -1.41276        -2.43916         2.72697         1.86681     53.6091E-03    -26.5744E-03    -27.0342E-03    -26.8733E-03     53.6022E-03    -26.7285E-03     709.637E-06    -33.1970E+06    -37.4128E+06    -178.228E+06    -36.8056E+06    -178.174E+06    -33.8580E+06    -1.05418E+06         23.7042
            1567     1.94686E-03     82.0456E-03     973.421E-03     661.824E-03        -2.75346     678.505E-03        -2.45854     661.824E-03    -623.359E-03     53.6141E-03    -26.6453E-03    -26.9693E-03    -26.7738E-03     53.5973E-03    -26.8240E-03     2.26251E-03    -27.0271E+06    -31.1976E+06    -169.134E+06    -30.8963E+06    -168.991E+06    -27.4713E+06    -3.27106E+06         23.7646
            1568     2.92124E-03     82.0486E-03     760.845E-03     666.250E-03        -2.54335     665.467E-03        -2.44798     666.250E-03     234.262E-03     53.5046E-03    -26.6802E-03    -26.8253E-03    -26.6852E-03     53.4782E-03    -26.7939E-03     2.88715E-03    -27.2013E+06    -30.5588E+06    -164.054E+06    -29.6941E+06    -163.614E+06    -28.5057E+06    -7.42751E+06         23.8728
            1569     3.89556E-03     82.0514E-03     707.883E-03     667.086E-03        -2.48830     671.220E-03        -2.45164     667.086E-03    -201.783E-03     53.6835E-03    -26.7383E-03    -26.9453E-03    -26.8774E-03     53.6441E-03    -26.7668E-03     3.54442E-03    -28.0559E+06    -34.9614E+06    -165.683E+06    -29.7928E+06    -164.706E+06    -34.2020E+06    -11.2687E+06         24.0233
            1570     4.86807E-03     82.0550E-03     689.248E-03     667.522E-03        -2.47503     675.166E-03        -2.46227     668.841E-03     55.6440E-03     53.8136E-03    -26.7748E-03    -27.0387E-03    -26.9615E-03     53.7364E-03    -26.7748E-03     4.88839E-03    -26.2552E+06    -36.7140E+06    -164.180E+06    -28.0767E+06    -162.359E+06    -36.7140E+06    -15.2609E+06         24.2046
            1571     5.84247E-03     82.0610E-03     689.264E-03     664.172E-03        -2.47639     677.065E-03        -2.47084     670.817E-03    -92.2342E-03     53.8772E-03    -26.7859E-03    -27.0958E-03    -26.9643E-03     53.7456E-03    -26.7859E-03     6.48859E-03    -23.3793E+06    -36.8874E+06    -158.313E+06    -25.9143E+06    -155.778E+06    -36.8874E+06    -18.0355E+06         24.4201
            1572     6.81586E-03     82.0674E-03     692.391E-03     667.760E-03        -2.48357     683.490E-03        -2.47999     673.086E-03    -54.1121E-03     53.9937E-03    -26.8006E-03    -27.1921E-03    -27.0084E-03     53.8100E-03    -26.8006E-03     7.69010E-03    -21.3479E+06    -36.3400E+06    -153.314E+06    -24.5863E+06    -150.076E+06    -36.3400E+06    -20.2059E+06         24.7812
            1573     7.78912E-03     82.0764E-03     689.435E-03     675.688E-03        -2.48862     686.765E-03        -2.48595     675.688E-03    -127.791E-03     54.0015E-03    -26.8121E-03    -27.1704E-03    -26.9188E-03     53.7499E-03    -26.8121E-03     8.99550E-03    -18.3055E+06    -35.5784E+06    -148.965E+06    -22.1559E+06    -145.115E+06    -35.5784E+06    -21.9199E+06         25.4692
            1574     8.76328E-03     82.0863E-03     699.029E-03     678.786E-03        -2.49791     698.158E-03        -2.49704     678.786E-03    -73.4529E-03     53.9673E-03    -26.7963E-03    -27.1580E-03    -26.8238E-03     53.6331E-03    -26.7963E-03     10.3695E-03    -14.5804E+06    -36.4180E+06    -136.464E+06    -18.4683E+06    -132.576E+06    -36.4180E+06    -21.0587E+06         26.5454
            1575     9.73688E-03     82.0973E-03     711.119E-03     682.795E-03        -2.51153     710.181E-03        -2.51059     682.795E-03    -93.9925E-03     54.1591E-03    -26.7772E-03    -27.3802E-03    -26.8684E-03     53.6473E-03    -26.7772E-03     12.7663E-03    -12.0864E+06    -36.6248E+06    -121.505E+06    -16.0976E+06    -117.494E+06    -36.6248E+06    -20.1973E+06         28.0085
            1576     10.7103E-03     82.1128E-03     721.491E-03     687.464E-03        -2.52723     720.944E-03        -2.52668     687.464E-03    -74.2010E-03     54.1488E-03    -26.7157E-03    -27.4664E-03    -26.8585E-03     53.5408E-03    -26.7157E-03     14.0258E-03    -12.0911E+06    -47.0652E+06    -106.391E+06    -16.4260E+06    -102.056E+06    -47.0652E+06    -19.5474E+06         30.1040
            1577     11.6850E-03     82.1274E-03     731.738E-03     692.527E-03        -2.54123     731.205E-03        -2.54070     692.527E-03    -72.5321E-03     54.1439E-03    -26.6426E-03    -27.5315E-03    -26.7499E-03     53.3623E-03    -26.6426E-03     15.7442E-03    -13.4798E+06    -56.2609E+06    -78.3901E+06    -17.4201E+06    -72.9472E+06    -57.7635E+06    -15.0828E+06         33.1862
            1578     12.6571E-03     82.1450E-03     733.514E-03     696.934E-03        -2.54631     732.189E-03        -2.54598     697.922E-03    -60.4092E-03     54.7373E-03    -26.5271E-03    -28.2105E-03    -26.4958E-03     53.0226E-03    -26.5271E-03     23.0499E-03    -5.44999E+06    -37.8185E+06    -69.5246E+06    -18.3032E+06    -25.3942E+06    -69.0957E+06    -7.33636E+06         37.4584
            1579     13.6335E-03     82.1764E-03     744.240E-03     702.839E-03        -2.56138     742.783E-03        -2.56108     704.002E-03    -51.1212E-03     55.5482E-03    -26.3930E-03    -29.1779E-03    -26.0327E-03     52.4029E-03    -26.3930E-03     31.8274E-03     41.6957E+06    -19.4346E+06    -77.5517E+06    -18.8101E+06     41.0712E+06    -77.5517E+06        -998.072         42.8997
            1580     14.6082E-03     82.2118E-03     761.727E-03     712.289E-03        -2.58732     759.761E-03        -2.58706     713.990E-03    -48.3882E-03     76.7139E-03    -26.5811E-03    -50.1662E-03    -28.1710E-03     54.7187E-03    -26.5811E-03     89.4296E-03     109.436E+06     1.15320E+06    -46.5485E+06    -18.1018E+06     109.332E+06    -27.1894E+06     2.90390E+06         49.1619
            1581     15.5811E-03     82.3656E-03     773.152E-03     730.942E-03        -2.61356     766.454E-03        -2.61318     737.256E-03    -69.5391E-03     164.950E-03    -27.0207E-03    -137.987E-03    -42.6334E-03     69.5964E-03    -27.0207E-03     279.613E-03     167.676E+06     66.0171E+06    -16.3460E+06    -16.3183E+06     167.648E+06     66.0171E+06     1.61483E+06         55.5131
            1582     16.5572E-03     82.8222E-03     786.616E-03     753.637E-03        -2.64342     765.635E-03        -2.64328     774.479E-03    -23.7928E-03     213.879E-03    -27.2885E-03    -186.632E-03    -45.5553E-03     72.8024E-03    -27.2885E-03     382.544E-03     212.998E+06     142.862E+06    -10.5513E+06    -10.5412E+06     212.988E+06     142.862E+06     975.203E+03         60.6148
            1583     972.769E-06     83.0972E-03         3.10239     508.896E-03        -4.73147        -1.28222        -2.70225         2.86428         1.86405     53.7410E-03    -26.7761E-03    -26.9647E-03    -26.7988E-03     53.7292E-03    -26.9302E-03     1.42954E-03    -35.1638E+06    -40.6287E+06    -173.398E+06    -38.2302E+06    -173.296E+06    -37.6637E+06    -2.90375E+06         23.7050
            1584     1.94768E-03     83.1002E-03         1.11610     796.287E-03        -3.03532     817.121E-03        -2.73634     796.287E-03    -673.291E-03     53.4504E-03    -26.6206E-03    -26.8300E-03    -26.6052E-03     53.4299E-03    -26.8249E-03     2.54198E-03    -32.8089E+06    -36.7683E+06    -164.114E+06    -35.8890E+06    -163.785E+06    -34.0174E+06    -5.83924E+06         23.7606
            1585     2.92137E-03     83.1021E-03     935.152E-03     807.196E-03        -2.85343     839.272E-03        -2.75755     807.196E-03     216.748E-03     53.4208E-03    -26.6210E-03    -26.8000E-03    -26.6332E-03     53.3933E-03    -26.7603E-03     2.90083E-03    -29.4322E+06    -32.7241E+06    -157.056E+06    -31.7249E+06    -156.431E+06    -31.0567E+06    -8.46797E+06         23.8694
            1586     3.89483E-03     83.1060E-03     877.415E-03     815.902E-03        -2.80104     839.174E-03        -2.76280     815.902E-03    -250.903E-03     53.6101E-03    -26.7103E-03    -26.8993E-03    -26.8312E-03     53.5705E-03    -26.7387E-03     3.55519E-03    -26.8712E+06    -34.0091E+06    -157.547E+06    -29.2575E+06    -155.920E+06    -33.2498E+06    -13.7527E+06         24.0248
            1587     4.86913E-03     83.1096E-03     837.053E-03     818.286E-03        -2.76540     821.777E-03        -2.75145     819.605E-03     4.49377E-03     53.7751E-03    -26.7439E-03    -27.0317E-03    -26.9582E-03     53.7016E-03    -26.7439E-03     4.75344E-03    -24.5429E+06    -36.5982E+06    -157.195E+06    -27.4004E+06    -154.337E+06    -36.5982E+06    -19.0821E+06         24.2086
            1588     5.84224E-03     83.1150E-03     821.528E-03     809.863E-03        -2.74401     804.291E-03        -2.73626     819.347E-03    -143.031E-03     53.9206E-03    -26.7729E-03    -27.1494E-03    -27.0210E-03     53.7921E-03    -26.7729E-03     6.41272E-03    -22.9140E+06    -36.0303E+06    -153.385E+06    -26.7580E+06    -149.541E+06    -36.0303E+06    -21.8121E+06         24.4194
            1589     6.81569E-03     83.1229E-03     822.079E-03     807.595E-03        -2.74337     807.437E-03        -2.73944     818.303E-03    -68.6345E-03     54.0111E-03    -26.7991E-03    -27.2066E-03    -27.0240E-03     53.8285E-03    -26.7991E-03     7.66610E-03    -20.2175E+06    -35.0476E+06    -149.651E+06    -24.8729E+06    -144.995E+06    -35.0476E+06    -23.9336E+06         24.7696
            1590     7.78930E-03     83.1308E-03     822.802E-03     813.710E-03        -2.75099     814.922E-03        -2.74786     818.456E-03    -130.624E-03     53.9752E-03    -26.8007E-03    -27.1580E-03    -26.9039E-03     53.7212E-03    -26.8007E-03     9.03448E-03    -17.2242E+06    -36.7813E+06    -145.395E+06    -22.7202E+06    -139.899E+06    -36.7813E+06    -25.7769E+06         25.4454
            1591     8.76298E-03     83.1406E-03     819.545E-03     806.962E-03        -2.74006     806.711E-03        -2.73915     818.893E-03    -59.3497E-03     54.0432E-03    -26.7745E-03    -27.2570E-03    -26.9083E-03     53.6946E-03    -26.7745E-03     10.5898E-03    -14.8855E+06    -41.9496E+06    -137.263E+06    -21.2389E+06    -130.909E+06    -41.9496E+06    -26.9671E+06         26.5101
            1592     9.73658E-03     83.1524E-03     821.673E-03     799.002E-03        -2.73085     800.919E-03        -2.73000     818.910E-03    -84.9746E-03     54.2846E-03    -26.7743E-03    -27.5056E-03    -26.9735E-03     53.7525E-03    -26.7743E-03     13.0473E-03    -13.3362E+06    -41.0942E+06    -123.231E+06    -19.0022E+06    -117.565E+06    -41.0942E+06    -24.1379E+06         27.9588
            1593     10.7102E-03     83.1676E-03     828.924E-03     801.091E-03        -2.73902     809.864E-03        -2.73823     819.361E-03    -83.6592E-03     54.0909E-03    -26.7402E-03    -27.3730E-03    -26.7620E-03     53.4799E-03    -26.7402E-03     14.0443E-03    -13.3777E+06    -46.0529E+06    -106.822E+06    -18.4182E+06    -101.781E+06    -46.0529E+06    -20.9326E+06         30.0336
            1594     11.6839E-03     83.1811E-03     833.002E-03     804.841E-03        -2.74701     816.332E-03        -2.74615     820.659E-03    -96.2377E-03     54.0100E-03    -26.6441E-03    -27.3871E-03    -26.5591E-03     53.1820E-03    -26.6441E-03     16.1144E-03    -14.1290E+06    -59.6893E+06    -82.6977E+06    -19.3461E+06    -77.4806E+06    -59.6893E+06    -17.9833E+06         33.0984
            1595     12.6591E-03     83.2015E-03     827.769E-03     802.393E-03        -2.74016     807.266E-03        -2.73957     822.308E-03    -81.5963E-03     54.6790E-03    -26.5068E-03    -28.1723E-03    -26.4067E-03     52.9134E-03    -26.5068E-03     23.4872E-03    -8.12334E+06    -43.5000E+06    -75.1385E+06    -18.8670E+06    -34.0635E+06    -73.8314E+06    -11.8636E+06         37.3772
            1596     13.6320E-03     83.2284E-03     823.924E-03     793.503E-03        -2.72748     792.926E-03        -2.72690     823.924E-03    -78.9319E-03     55.7640E-03    -26.3627E-03    -29.4170E-03    -26.1579E-03     52.5049E-03    -26.3627E-03     32.4066E-03     37.0703E+06    -20.5313E+06    -82.6446E+06    -18.1013E+06     34.6403E+06    -82.6446E+06    -5.54517E+06         42.8530
            1597     14.6069E-03     83.2684E-03     828.397E-03     783.043E-03        -2.71981     782.776E-03        -2.71955     828.397E-03    -49.3565E-03     77.2588E-03    -26.5239E-03    -50.7578E-03    -28.1005E-03     54.6016E-03    -26.5239E-03     91.0434E-03     106.263E+06    -3.57454E+06    -49.9068E+06    -17.9678E+06     106.106E+06    -35.3566E+06     283.986E+03         49.1604
            1598     15.5821E-03     83.4207E-03     845.870E-03     780.706E-03        -2.73124     780.421E-03        -2.73096     845.870E-03    -53.5813E-03     166.572E-03    -26.9360E-03    -139.698E-03    -42.4652E-03     69.3395E-03    -26.9360E-03     283.446E-03     166.433E+06     57.8801E+06    -16.7800E+06    -16.6575E+06     166.311E+06     57.8801E+06     4.11569E+06         55.5571
            1599     16.5525E-03     83.8798E-03     877.472E-03     784.120E-03        -2.76144     783.992E-03        -2.76131     877.472E-03    -10.8326E-03     213.146E-03    -27.2082E-03    -185.986E-03    -45.4715E-03     72.6311E-03    -27.2082E-03     381.198E-03     215.835E+06     141.606E+06    -9.43182E+06    -9.34238E+06     215.745E+06     141.606E+06     2.41753E+06         60.6911
            1600     974.795E-06     84.1526E-03         3.24767     596.872E-03        -4.97071        -1.14062        -3.02641         3.04086         1.99184     53.4500E-03    -26.6024E-03    -26.8483E-03    -26.8393E-03     53.4410E-03    -26.6024E-03     1.41804E-03    -31.2919E+06    -37.7497E+06    -166.928E+06    -35.8052E+06    -166.816E+06    -33.3475E+06    -2.06684E+06         23.7026
            1601     1.94722E-03     84.1538E-03         1.24087     951.495E-03        -3.30386     952.314E-03        -3.01531     951.495E-03    -631.127E-03     53.5347E-03    -26.7092E-03    -26.8255E-03    -26.7787E-03     53.5169E-03    -26.7382E-03     2.14305E-03    -31.2573E+06    -36.1710E+06    -156.450E+06    -35.1819E+06    -155.797E+06    -32.8988E+06    -8.18237E+06         23.7627
            1602     2.92126E-03     84.1567E-03         1.08013     956.850E-03        -3.13947     985.166E-03        -3.04450     956.850E-03     279.145E-03     53.4922E-03    -26.6913E-03    -26.7998E-03    -26.7395E-03     53.4609E-03    -26.7202E-03     3.10564E-03    -30.7491E+06    -37.1828E+06    -149.879E+06    -32.2948E+06    -148.333E+06    -37.1828E+06    -12.9420E+06         23.8733
            1603     3.89513E-03     84.1602E-03         1.01016     963.515E-03        -3.07051     974.928E-03        -3.03527     963.515E-03    -218.850E-03     53.6499E-03    -26.7272E-03    -26.9213E-03    -26.8795E-03     53.6081E-03    -26.7272E-03     3.66572E-03    -27.1364E+06    -37.2122E+06    -148.461E+06    -29.7145E+06    -145.883E+06    -37.2122E+06    -17.0368E+06         24.0288
            1604     4.86841E-03     84.1640E-03     972.726E-03     961.125E-03        -3.03604     955.216E-03        -3.02203     964.618E-03     34.7406E-03     53.8348E-03    -26.7641E-03    -27.0711E-03    -27.0028E-03     53.7665E-03    -26.7641E-03     4.61671E-03    -25.1124E+06    -36.9676E+06    -150.008E+06    -29.0556E+06    -146.065E+06    -36.9676E+06    -21.5219E+06         24.2118
            1605     5.84204E-03     84.1703E-03     965.688E-03     956.603E-03        -3.02788     951.946E-03        -3.02105     963.507E-03    -139.163E-03     53.8788E-03    -26.7883E-03    -27.0904E-03    -26.9683E-03     53.7567E-03    -26.7883E-03     6.23538E-03    -23.1821E+06    -37.7915E+06    -148.147E+06    -28.4924E+06    -142.837E+06    -37.7915E+06    -24.9193E+06         24.4179
            1606     6.81570E-03     84.1769E-03     962.606E-03     953.292E-03        -3.02003     949.786E-03        -3.01653     962.606E-03    -67.2695E-03     53.8168E-03    -26.7907E-03    -27.0197E-03    -26.8386E-03     53.6357E-03    -26.7907E-03     7.61572E-03    -20.1116E+06    -38.0355E+06    -144.828E+06    -26.9387E+06    -138.001E+06    -38.0355E+06    -27.9708E+06         24.7580
            1607     7.78951E-03     84.1855E-03     961.159E-03     937.040E-03        -3.00056     934.259E-03        -2.99778     961.159E-03    -121.629E-03     53.9857E-03    -26.7852E-03    -27.1970E-03    -26.9439E-03     53.7326E-03    -26.7852E-03     9.02078E-03    -16.7858E+06    -39.1078E+06    -141.597E+06    -24.7420E+06    -133.641E+06    -39.1078E+06    -30.1309E+06         25.4209
            1608     8.76302E-03     84.1951E-03     958.536E-03     918.379E-03        -2.97778     917.574E-03        -2.97697     958.536E-03    -50.0766E-03     54.1116E-03    -26.7828E-03    -27.3217E-03    -26.9716E-03     53.7615E-03    -26.7828E-03     10.6184E-03    -15.8803E+06    -41.6795E+06    -135.764E+06    -24.0549E+06    -127.590E+06    -41.6795E+06    -30.1827E+06         26.4731
            1609     9.73656E-03     84.2075E-03     955.304E-03     905.364E-03        -2.96151     904.632E-03        -2.96078     955.304E-03    -84.4930E-03     54.0772E-03    -26.7670E-03    -27.3087E-03    -26.7632E-03     53.5317E-03    -26.7670E-03     13.1621E-03    -15.0138E+06    -44.5802E+06    -127.074E+06    -23.1146E+06    -118.974E+06    -44.5802E+06    -28.9083E+06         27.9066
            1610     10.7105E-03     84.2219E-03     951.652E-03     888.790E-03        -2.94164     888.225E-03        -2.94108     951.652E-03    -71.5756E-03     54.0224E-03    -26.7181E-03    -27.3257E-03    -26.6850E-03     53.3817E-03    -26.7181E-03     14.3713E-03    -12.0346E+06    -48.7689E+06    -110.731E+06    -19.3309E+06    -103.434E+06    -48.7689E+06    -25.6584E+06         29.9599
            1611     11.6845E-03     84.2360E-03     947.721E-03     878.021E-03        -2.92480     877.338E-03        -2.92412     947.721E-03    -93.3383E-03     53.8656E-03    -26.6188E-03    -27.2623E-03    -26.4201E-03     53.0234E-03    -26.6188E-03     16.2578E-03    -9.66627E+06    -59.7143E+06    -86.5696E+06    -16.5689E+06    -79.6669E+06    -59.7143E+06    -21.7382E+06         33.0063
            1612     12.6585E-03     84.2545E-03     944.283E-03     870.373E-03        -2.91437     869.810E-03        -2.91381     944.283E-03    -86.6713E-03     54.3220E-03    -26.4489E-03    -27.8799E-03    -26.0611E-03     52.5032E-03    -26.4489E-03     23.6779E-03    -4.63306E+06    -49.2915E+06    -79.9458E+06    -15.9114E+06    -40.1019E+06    -77.8570E+06    -17.3691E+06         37.2921
            1613     13.6342E-03     84.2846E-03     941.438E-03     851.995E-03        -2.89110     851.423E-03        -2.89053     941.438E-03    -87.3381E-03     55.7715E-03    -26.2904E-03    -29.5008E-03    -26.0154E-03     52.2861E-03    -26.2904E-03     33.4740E-03     34.4631E+06    -24.8826E+06    -88.5027E+06    -17.2925E+06     26.8730E+06    -88.5027E+06    -9.35461E+06         42.8047
            1614     14.6083E-03     84.3218E-03     941.433E-03     828.686E-03        -2.86624     828.422E-03        -2.86598     941.433E-03    -57.6807E-03     77.3556E-03    -26.4035E-03    -50.9697E-03    -27.6516E-03     54.0376E-03    -26.4035E-03     92.4352E-03     100.312E+06    -10.9241E+06    -55.3083E+06    -20.0946E+06     100.152E+06    -45.9787E+06    -800.646E+03         49.1595
            1615     15.5841E-03     84.4760E-03     953.783E-03     808.049E-03        -2.85992     807.754E-03        -2.85962     953.783E-03    -57.7262E-03     166.487E-03    -26.7235E-03    -139.820E-03    -40.7781E-03     67.4450E-03    -26.7235E-03     284.892E-03     164.589E+06     46.2408E+06    -17.0587E+06    -16.9435E+06     164.474E+06     46.2408E+06     3.53283E+06         55.6052
            1616     16.5677E-03     84.9384E-03     979.270E-03     791.146E-03        -2.86875     790.917E-03        -2.86853     979.270E-03    -26.8062E-03     212.486E-03    -26.9903E-03    -185.553E-03    -45.9105E-03     72.8437E-03    -26.9903E-03     379.897E-03     217.850E+06     136.889E+06    -8.08180E+06    -7.98918E+06     217.757E+06     136.889E+06     2.51653E+06         60.7722
            1617     973.252E-06     85.2076E-03         3.38964     723.804E-03        -5.22524    -934.812E-03        -3.36344         3.18646         2.06932     53.4969E-03    -26.4664E-03    -27.0315E-03    -26.6725E-03     53.4916E-03    -26.8201E-03     805.941E-06    -31.7190E+06    -36.1925E+06    -162.119E+06    -34.5246E+06    -161.885E+06    -33.6211E+06    -4.25295E+06         23.7035
            1618     1.94770E-03     85.2079E-03         1.37153         1.12048        -3.59141         1.10025        -3.32013         1.12048    -698.255E-03     53.4858E-03    -26.5551E-03    -26.9298E-03    -26.7283E-03     53.4687E-03    -26.7394E-03     2.09121E-03    -28.4902E+06    -32.1554E+06    -144.631E+06    -30.9216E+06    -143.641E+06    -30.7139E+06    -9.28265E+06         23.7683
            1619     2.92124E-03     85.2111E-03         1.18749         1.11366        -3.39665         1.10065        -3.30982         1.11366     246.412E-03     53.6814E-03    -26.7280E-03    -26.9515E-03    -26.9169E-03     53.6501E-03    -26.7314E-03     3.16839E-03    -28.1106E+06    -36.2512E+06    -139.483E+06    -30.7869E+06    -136.807E+06    -36.2512E+06    -16.7412E+06         23.8815
            1620     3.89477E-03     85.2145E-03         1.14784         1.11221        -3.35119         1.11380        -3.31715         1.11221    -230.698E-03     53.8214E-03    -26.7612E-03    -27.0596E-03    -27.0174E-03     53.7792E-03    -26.7612E-03     3.67616E-03    -26.1374E+06    -40.5002E+06    -141.279E+06    -30.1306E+06    -137.285E+06    -40.5002E+06    -20.8465E+06         24.0342
            1621     4.86821E-03     85.2192E-03         1.12112         1.09750        -3.31749         1.09551        -3.30582         1.11144     66.5169E-03     53.9074E-03    -26.8125E-03    -27.0937E-03    -27.0257E-03     53.8395E-03    -26.8125E-03     4.64656E-03    -24.5322E+06    -38.4010E+06    -141.293E+06    -29.7606E+06    -136.065E+06    -38.4010E+06    -23.9556E+06         24.2147
            1622     5.84164E-03     85.2244E-03         1.10809         1.08227        -3.28864         1.07766        -3.28403         1.10809    -135.038E-03     53.7779E-03    -26.8238E-03    -26.9526E-03    -26.8270E-03     53.6638E-03    -26.8354E-03     6.00936E-03    -21.6318E+06    -36.7048E+06    -142.420E+06    -28.4524E+06    -135.599E+06    -36.7048E+06    -27.7642E+06         24.4184
            1623     6.81557E-03     85.2317E-03         1.10440         1.07754        -3.27527         1.07494        -3.27267         1.10440    -81.7200E-03     53.7883E-03    -26.8010E-03    -26.9869E-03    -26.7979E-03     53.6110E-03    -26.8127E-03     7.52440E-03    -18.7383E+06    -37.8127E+06    -137.872E+06    -27.2716E+06    -129.339E+06    -37.8127E+06    -30.5786E+06         24.7484
            1624     7.78923E-03     85.2397E-03         1.10016         1.05030        -3.24106         1.04806        -3.23882         1.10016    -130.060E-03     53.9962E-03    -26.8083E-03    -27.1906E-03    -26.9397E-03     53.7454E-03    -26.8083E-03     8.98558E-03    -18.2970E+06    -39.5106E+06    -137.655E+06    -28.2378E+06    -127.714E+06    -39.5106E+06    -32.9023E+06         25.3963
            1625     8.76255E-03     85.2507E-03         1.09422         1.02398        -3.20646         1.02305        -3.20553         1.09422    -80.1337E-03     53.9175E-03    -26.7867E-03    -27.1267E-03    -26.7907E-03     53.5815E-03    -26.7867E-03     10.3884E-03    -15.4397E+06    -43.8094E+06    -134.873E+06    -26.2423E+06    -124.071E+06    -43.8094E+06    -34.0766E+06         26.4344
            1626     9.73658E-03     85.2609E-03         1.08769         1.00785        -3.18526         1.00674        -3.18414         1.08769    -123.653E-03     53.8121E-03    -26.7360E-03    -27.0930E-03    -26.5500E-03     53.2691E-03    -26.7360E-03     13.0624E-03    -10.6779E+06    -48.9791E+06    -127.976E+06    -22.3294E+06    -116.324E+06    -48.9791E+06    -34.9257E+06         27.8517
            1627     10.7110E-03     85.2767E-03         1.08068     979.797E-03        -3.15532     978.946E-03        -3.15447         1.08068    -105.192E-03     53.7120E-03    -26.6588E-03    -27.0991E-03    -26.4436E-03     53.0564E-03    -26.6588E-03     14.4882E-03    -8.98450E+06    -57.3734E+06    -117.544E+06    -19.9939E+06    -106.535E+06    -57.3734E+06    -32.6896E+06         29.8831
            1628     11.6847E-03     85.2902E-03         1.07274     951.039E-03        -3.11952     950.244E-03        -3.11873         1.07274    -104.275E-03     53.6282E-03    -26.5563E-03    -27.0986E-03    -26.2556E-03     52.7852E-03    -26.5563E-03     16.2470E-03    -5.98687E+06    -64.5134E+06    -92.4334E+06    -16.9114E+06    -81.5089E+06    -64.5134E+06    -28.1923E+06         32.9115
            1629     12.6597E-03     85.3084E-03         1.06448     923.445E-03        -3.08190     923.088E-03        -3.08155         1.06448    -75.3792E-03     54.1934E-03    -26.3849E-03    -27.8170E-03    -25.9917E-03     52.3681E-03    -26.3849E-03     23.6684E-03    -2.68445E+06    -53.4769E+06    -85.9868E+06    -15.5584E+06    -44.9178E+06    -81.6720E+06    -22.2944E+06         37.2041
            1630     13.6345E-03     85.3375E-03         1.05649     896.322E-03        -3.04613     896.011E-03        -3.04582         1.05649    -68.1440E-03     55.2748E-03    -26.2084E-03    -29.0819E-03    -25.6544E-03     51.8473E-03    -26.2084E-03     33.0515E-03     27.4773E+06    -29.8765E+06    -96.2676E+06    -17.5711E+06     15.1719E+06    -96.2676E+06    -11.6855E+06         42.7538
            1631     14.6103E-03     85.3769E-03         1.05158     874.082E-03        -3.01644     873.774E-03        -3.01614         1.05158    -67.2190E-03     76.4532E-03    -26.2809E-03    -50.1914E-03    -26.9309E-03     53.1927E-03    -26.2809E-03     91.4569E-03     93.3703E+06    -15.7714E+06    -57.1907E+06    -18.7003E+06     93.0759E+06    -53.9673E+06    -2.12567E+06         49.1574
            1632     15.5863E-03     85.5284E-03         1.05869     841.065E-03        -2.99556     840.714E-03        -2.99521         1.05869    -63.9162E-03     165.152E-03    -26.5490E-03    -138.655E-03    -39.5881E-03     66.0850E-03    -26.5490E-03     283.217E-03     164.204E+06     39.0551E+06    -15.9105E+06    -15.8959E+06     164.190E+06     39.0551E+06     1.38117E+06         55.6510
            1633     16.5611E-03     85.9847E-03         1.07801     798.016E-03        -2.97329     797.850E-03        -2.97313         1.07801    -34.4446E-03     213.744E-03    -26.8217E-03    -186.976E-03    -46.6585E-03     73.4265E-03    -26.8217E-03     382.283E-03     218.246E+06     132.136E+06    -9.36952E+06    -9.34498E+06     218.221E+06     132.136E+06     1.10834E+06         60.8505
            1634     973.434E-06     86.2597E-03         3.45424     835.158E-03        -5.38788    -724.542E-03        -3.62261         3.24867         2.07454     53.6109E-03    -26.5674E-03    -27.0443E-03    -26.6458E-03     53.6027E-03    -26.9576E-03     560.992E-06    -28.0941E+06    -31.8201E+06    -152.021E+06    -30.3825E+06    -151.487E+06    -30.0659E+06    -7.19588E+06         23.7095
            1635     1.94772E-03     86.2629E-03         1.52007         1.26115        -3.87459         1.25998        -3.61450         1.26115    -723.222E-03     53.6239E-03    -26.6060E-03    -27.0184E-03    -26.8179E-03     53.6045E-03    -26.7870E-03     2.46847E-03    -25.8705E+06    -29.1679E+06    -132.593E+06    -27.4281E+06    -131.048E+06    -29.1557E+06    -11.7571E+06         23.7770
            1636     2.92093E-03     86.2657E-03         1.33548         1.26018        -3.67729         1.25362        -3.59543         1.26018     241.415E-03     53.9491E-03    -26.8261E-03    -27.1227E-03    -27.0940E-03     53.9204E-03    -26.8261E-03     3.04624E-03    -23.5114E+06    -29.8555E+06    -126.439E+06    -26.8817E+06    -123.069E+06    -29.8555E+06    -18.1424E+06         23.8893
            1637     3.89424E-03     86.2694E-03         1.28869         1.25092        -3.62250         1.24826        -3.58950         1.25834    -242.222E-03     53.9744E-03    -26.8706E-03    -27.1036E-03    -27.0614E-03     53.9322E-03    -26.8706E-03     3.66995E-03    -21.6300E+06    -34.9187E+06    -133.187E+06    -26.9558E+06    -127.861E+06    -34.9187E+06    -23.6732E+06         24.0387
            1638     4.86773E-03     86.2739E-03         1.26326         1.22906        -3.57779         1.22663        -3.56695         1.25486     71.5738E-03     53.8620E-03    -26.8746E-03    -26.9861E-03    -26.9177E-03     53.7946E-03    -26.8756E-03     4.63622E-03    -19.4778E+06    -37.2149E+06    -134.197E+06    -26.3041E+06    -127.370E+06    -37.2149E+06    -26.9955E+06         24.2170
            1639     5.84139E-03     86.2790E-03         1.24856         1.20225        -3.53653         1.19835        -3.53263         1.24856    -160.814E-03     53.8406E-03    -26.8708E-03    -26.9717E-03    -26.8497E-03     53.7313E-03    -26.8834E-03     5.89219E-03    -17.3372E+06    -34.4302E+06    -134.759E+06    -25.9640E+06    -126.132E+06    -34.4302E+06    -30.4053E+06         24.4183
            1640     6.81521E-03     86.2856E-03         1.24070         1.17826        -3.50193         1.17655        -3.50022         1.24070    -92.8157E-03     53.9128E-03    -26.8441E-03    -27.0669E-03    -26.8711E-03     53.7287E-03    -26.8557E-03     7.64305E-03    -14.5516E+06    -36.5465E+06    -132.082E+06    -24.9153E+06    -121.718E+06    -36.5465E+06    -33.1830E+06         24.7388
            1641     7.78856E-03     86.2954E-03         1.23242         1.15779        -3.46974         1.15617        -3.46812         1.23242    -132.758E-03     53.8800E-03    -26.8145E-03    -27.0586E-03    -26.7816E-03     53.6283E-03    -26.8398E-03     8.99982E-03    -11.8877E+06    -38.0744E+06    -132.787E+06    -23.1603E+06    -121.515E+06    -38.0744E+06    -35.0539E+06         25.3716
            1642     8.76267E-03     86.3042E-03         1.22382         1.13429        -3.43699         1.13341        -3.43611         1.22382    -98.8734E-03     53.7008E-03    -26.7477E-03    -26.9427E-03    -26.5827E-03     53.3661E-03    -26.7730E-03     10.3197E-03    -8.93065E+06    -45.6787E+06    -131.096E+06    -22.9474E+06    -117.079E+06    -45.6787E+06    -38.5975E+06         26.3945
            1643     9.73681E-03     86.3158E-03         1.21452         1.10216        -3.39917         1.10110        -3.39811         1.21452    -122.403E-03     53.7121E-03    -26.7098E-03    -27.0073E-03    -26.4766E-03     53.1814E-03    -26.7098E-03     12.9406E-03    -7.28537E+06    -51.5965E+06    -128.106E+06    -22.5565E+06    -112.835E+06    -51.5965E+06    -40.0029E+06         27.7946
            1644     10.7106E-03     86.3302E-03         1.20433         1.07109        -3.36239         1.07022        -3.36153         1.20433    -107.071E-03     53.4915E-03    -26.6317E-03    -26.9015E-03    -26.2772E-03     52.8673E-03    -26.6317E-03     14.1036E-03    -5.72408E+06    -60.3270E+06    -121.149E+06    -20.5610E+06    -106.312E+06    -60.3270E+06    -38.4111E+06         29.8037
            1645     11.6860E-03     86.3441E-03         1.19323         1.03292        -3.31495         1.03213        -3.31416         1.19323    -105.796E-03     53.3951E-03    -26.5133E-03    -26.9156E-03    -26.1276E-03     52.6071E-03    -26.5133E-03     15.6879E-03    -3.27006E+06    -70.4152E+06    -99.5745E+06    -19.2489E+06    -83.5957E+06    -70.4152E+06    -35.5037E+06         32.8142
            1646     12.6601E-03     86.3622E-03         1.18104     982.751E-03        -3.25328     982.237E-03        -3.25277         1.18104    -87.7953E-03     54.2267E-03    -26.3603E-03    -27.8792E-03    -26.1804E-03     52.5279E-03    -26.3603E-03     22.8460E-03    -1.90466E+06    -60.4308E+06     -94.473E+06    -18.1856E+06    -52.1778E+06     -86.445E+06    -28.1979E+06         37.1130
            1647     13.6346E-03     86.3916E-03         1.16833     943.071E-03        -3.19938     942.636E-03        -3.19894         1.16833    -75.6201E-03     54.7020E-03    -26.1659E-03    -28.5536E-03    -25.3195E-03     51.4679E-03    -26.1659E-03     31.8749E-03     19.2417E+06    -35.0819E+06    -104.100E+06    -17.6709E+06     1.83069E+06    -104.100E+06    -16.1755E+06         42.6981
            1648     14.6101E-03     86.4292E-03         1.15827     905.676E-03        -3.15232     905.366E-03        -3.15201         1.15827    -65.6384E-03     75.6882E-03    -26.1936E-03    -49.5222E-03    -26.1693E-03     52.3352E-03    -26.1936E-03     90.8448E-03     84.3540E+06    -18.9090E+06    -63.7376E+06    -18.5876E+06     83.5773E+06    -63.2824E+06    -4.30398E+06         49.1508
            1649     15.5883E-03     86.5807E-03         1.15941     862.444E-03        -3.11300     862.077E-03        -3.11263         1.15941    -66.7626E-03     163.770E-03    -26.4288E-03    -137.414E-03    -38.9870E-03     65.3425E-03    -26.4288E-03     281.016E-03     163.047E+06     31.6437E+06    -17.2810E+06    -15.8968E+06     163.033E+06     30.2740E+06     648.277E+03         55.6940
            1650     16.5718E-03     87.0385E-03         1.17210     806.677E-03        -3.06908     806.528E-03        -3.06893         1.17210    -36.5322E-03     215.586E-03    -26.7580E-03    -188.895E-03    -48.1303E-03     74.8211E-03    -26.7580E-03     385.285E-03     218.487E+06     128.476E+06    -9.24714E+06    -9.23458E+06     218.475E+06     128.476E+06    -251.102E+03         60.9264
            1651     974.362E-06     87.3154E-03         3.51299     897.524E-03        -5.49475    -514.581E-03        -3.88534         3.31568         2.06558     53.8245E-03    -26.5719E-03    -27.2531E-03    -27.2104E-03     53.8184E-03    -26.6084E-03     694.352E-06    -19.5558E+06    -23.5601E+06    -137.813E+06    -23.6053E+06    -137.197E+06    -20.1270E+06    -6.44270E+06         23.7250
            1652     1.94679E-03     87.3170E-03         1.66126         1.40685        -4.13568         1.42544        -3.89986         1.40685    -626.635E-03     54.1544E-03    -26.9046E-03    -27.2519E-03    -27.1942E-03     54.1365E-03    -26.9443E-03     2.24105E-03    -19.0256E+06    -24.9604E+06    -119.048E+06    -23.0774E+06    -116.687E+06    -23.2693E+06    -14.1868E+06         23.7906
            1653     2.92060E-03     87.3211E-03         1.47701         1.40230        -3.94689         1.38835        -3.86453         1.40861     294.384E-03     54.0316E-03    -26.9258E-03    -27.1066E-03    -27.0132E-03     54.0026E-03    -26.9902E-03     3.06458E-03    -17.3494E+06    -25.4996E+06    -114.144E+06    -21.7212E+06    -109.772E+06    -25.4996E+06    -19.8925E+06         23.8956
            1654     3.89378E-03     87.3243E-03         1.41108         1.37091        -3.84927         1.35221        -3.81927         1.39978    -250.749E-03     53.9867E-03    -26.9271E-03    -27.0589E-03    -26.9731E-03     53.9486E-03    -26.9748E-03     3.49130E-03    -16.0985E+06    -30.1960E+06    -123.196E+06    -22.2146E+06    -117.080E+06    -30.1960E+06    -24.7765E+06         24.0409
            1655     4.86753E-03     87.3283E-03         1.38987         1.35506        -3.81621         1.34495        -3.80610         1.38987     46.9771E-03     53.8125E-03    -26.8843E-03    -26.9278E-03    -26.8203E-03     53.7442E-03    -26.9234E-03     4.61876E-03    -14.9171E+06    -36.7713E+06    -126.639E+06    -23.2342E+06    -118.322E+06    -36.7713E+06    -29.2162E+06         24.2172
            1656     5.84132E-03     87.3337E-03         1.38180         1.33511        -3.79114         1.33066        -3.78669         1.38180    -147.338E-03     53.9022E-03    -26.8865E-03    -27.0153E-03    -26.8836E-03     53.7866E-03    -26.9026E-03     6.07679E-03    -12.4949E+06    -35.7655E+06    -126.139E+06    -22.9299E+06    -115.704E+06    -35.7655E+06    -32.7736E+06         24.4151
            1657     6.81451E-03     87.3407E-03         1.37219         1.28690        -3.72949         1.28516        -3.72774         1.37219    -56.3741E-03     53.8986E-03    -26.8510E-03    -27.0369E-03    -26.8232E-03     53.7057E-03    -26.8718E-03     7.81087E-03    -10.5298E+06    -37.9083E+06    -126.474E+06    -23.2719E+06    -113.732E+06    -37.9083E+06    -36.1690E+06         24.7283
            1658     7.78860E-03     87.3495E-03         1.36057         1.25897        -3.68754         1.25766        -3.68623         1.36057    -117.855E-03     53.7413E-03    -26.7921E-03    -26.9316E-03    -26.6275E-03     53.4833E-03    -26.8382E-03     9.10282E-03    -6.89941E+06    -39.5804E+06    -129.023E+06    -22.0073E+06    -113.915E+06    -39.5804E+06    -39.8424E+06         25.3476
            1659     8.76265E-03     87.3586E-03         1.34918         1.23979        -3.65773         1.23922        -3.65716         1.34918    -77.5719E-03     53.7084E-03    -26.7662E-03    -26.9344E-03    -26.5808E-03     53.3800E-03    -26.7914E-03     10.2247E-03    -3.43493E+06    -41.4861E+06    -126.001E+06    -19.9439E+06    -109.492E+06    -41.4861E+06    -41.4336E+06         26.3545
            1660     9.73641E-03     87.3702E-03         1.33744         1.19863        -3.60743         1.19798        -3.60678         1.33744    -98.5997E-03     53.6979E-03    -26.7342E-03    -26.9617E-03    -26.4595E-03     53.1957E-03    -26.7342E-03     12.6010E-03    -2.68595E+06    -46.3936E+06    -125.271E+06    -20.0475E+06    -107.909E+06    -46.3936E+06    -42.5897E+06         27.7367
            1661     10.7111E-03     87.3841E-03         1.32367         1.14186        -3.54258         1.14117        -3.54190         1.32367    -97.9531E-03     53.5111E-03    -26.6338E-03    -26.8982E-03    -26.3064E-03     52.9194E-03    -26.6338E-03     13.7412E-03    -1.21295E+06    -59.1823E+06    -121.870E+06    -20.2223E+06    -102.861E+06    -59.1823E+06    -43.7407E+06         29.7236
            1662     11.6847E-03     87.3979E-03         1.30799         1.09281        -3.47911         1.09207        -3.47837         1.30799    -107.100E-03     53.4579E-03    -26.5267E-03    -26.9577E-03    -26.1808E-03     52.6811E-03    -26.5267E-03     15.5730E-03     680.398E+03    -70.6973E+06    -105.191E+06    -19.5194E+06    -84.9908E+06    -70.6973E+06    -41.5209E+06         32.7164
            1663     12.6594E-03     87.4164E-03         1.29162         1.04744        -3.42069         1.04689        -3.42014         1.29162    -93.5420E-03     54.0497E-03    -26.3813E-03    -27.6793E-03    -25.9337E-03     52.3041E-03    -26.3813E-03     23.0282E-03     1.29912E+06    -67.8119E+06    -99.0140E+06    -18.4823E+06    -60.6533E+06    -86.3912E+06    -34.6906E+06         37.0196
            1664     13.6339E-03     87.4455E-03         1.27499     996.230E-03        -3.35310     995.776E-03        -3.35265         1.27499    -79.1727E-03     54.3411E-03    -26.1597E-03    -28.2006E-03    -25.1810E-03     51.3216E-03    -26.1597E-03     30.8249E-03     14.5172E+06    -44.4657E+06    -107.137E+06    -17.8078E+06    -12.1407E+06    -107.137E+06    -22.8584E+06         42.6364
            1665     14.6124E-03     87.4785E-03         1.26014     935.321E-03        -3.27803     934.951E-03        -3.27766         1.26014    -72.5994E-03     75.2801E-03    -26.1291E-03    -49.1843E-03    -25.9715E-03     52.0672E-03    -26.1291E-03     89.5085E-03     74.9027E+06    -19.5978E+06    -74.5763E+06    -16.3917E+06     71.6966E+06    -74.5763E+06    -8.49216E+06         49.1379
            1666     15.5882E-03     87.6357E-03         1.25502     871.501E-03        -3.20701     871.072E-03        -3.20658         1.25502    -74.5932E-03     162.696E-03    -26.4203E-03    -136.350E-03    -40.7266E-03     67.0733E-03    -26.4203E-03     277.730E-03     160.722E+06     30.2711E+06    -25.1544E+06    -14.2332E+06     160.688E+06     19.3845E+06    -2.07380E+06         55.7278
            1667     16.5624E-03     88.0804E-03         1.26045     804.906E-03        -3.14816     804.750E-03        -3.14800         1.26045    -40.8464E-03     215.222E-03    -26.8843E-03    -188.396E-03    -48.7061E-03     75.5330E-03    -26.8843E-03     383.884E-03     219.369E+06     124.911E+06    -9.89560E+06    -9.86214E+06     219.336E+06     124.911E+06    -721.425E+03         60.9935
            1668     973.426E-06     88.3714E-03         3.57419     948.211E-03        -5.57187    -286.574E-03        -4.15914         3.39624         1.93724     54.4353E-03    -26.8829E-03    -27.5524E-03    -27.4395E-03     54.4315E-03    -26.9920E-03     1.08423E-03    -14.0183E+06    -17.4543E+06    -124.561E+06    -16.5775E+06    -123.901E+06    -15.5549E+06    -6.08263E+06         23.7430
            1669     1.94639E-03     88.3727E-03         1.76249         1.55486        -4.36309         1.55092        -4.15152         1.55486    -652.990E-03     54.4286E-03    -27.0450E-03    -27.3837E-03    -27.2133E-03     54.4126E-03    -27.1994E-03     2.05403E-03    -11.0290E+06    -16.4076E+06    -102.723E+06    -15.3099E+06    -100.133E+06    -14.7165E+06    -14.2829E+06         23.8017
            1670     2.91967E-03     88.3757E-03         1.57514         1.53380        -4.15958         1.49281        -4.08891         1.54545     266.367E-03     54.1114E-03    -26.9716E-03    -27.1390E-03    -26.9402E-03     54.0800E-03    -27.1390E-03     3.18363E-03    -12.4151E+06    -20.9217E+06    -101.594E+06    -17.2703E+06    -96.7391E+06    -20.9217E+06    -20.1424E+06         23.9019
            1671     3.89362E-03     88.3798E-03         1.52970         1.49628        -4.07646         1.47066        -4.05084         1.52970    -264.808E-03     53.9512E-03    -26.8946E-03    -27.0552E-03    -26.8580E-03     53.9147E-03    -27.0552E-03     3.43389E-03    -11.5354E+06    -27.4701E+06    -112.357E+06    -19.0086E+06    -104.884E+06    -27.4701E+06    -26.1856E+06         24.0441
            1672     4.86721E-03     88.3826E-03         1.51812         1.47950        -4.05408         1.47130        -4.04588         1.51812     16.3475E-03     53.8911E-03    -26.8989E-03    -26.9904E-03    -26.8354E-03     53.8276E-03    -26.9904E-03     4.43420E-03    -8.51702E+06    -30.8134E+06    -116.428E+06    -18.6898E+06    -106.256E+06    -30.8134E+06    -31.3541E+06         24.2169
            1673     5.84090E-03     88.3889E-03         1.50914         1.45415        -4.02155         1.44972        -4.01712         1.50914    -119.567E-03     53.8169E-03    -26.8184E-03    -26.9956E-03    -26.7524E-03     53.6970E-03    -26.9417E-03     6.15975E-03    -5.87244E+06    -32.1342E+06    -118.876E+06    -18.5403E+06    -106.208E+06    -32.1342E+06    -35.5038E+06         24.4127
            1674     6.81484E-03     88.3954E-03         1.49819         1.40491        -3.95905         1.40284        -3.95699         1.49819    -36.2610E-03     53.8358E-03    -26.8089E-03    -27.0164E-03    -26.7403E-03     53.6509E-03    -26.9001E-03     7.67973E-03    -3.48103E+06    -32.0800E+06    -119.770E+06    -18.2741E+06    -104.977E+06    -32.0800E+06    -38.6554E+06         24.7204
            1675     7.78870E-03     88.4036E-03         1.48449         1.36058        -3.90099         1.35918        -3.89958         1.48449    -125.225E-03     53.7448E-03    -26.7672E-03    -26.9636E-03    -26.6246E-03     53.4987E-03    -26.8601E-03     8.87280E-03    -1.39428E+06    -33.6372E+06    -121.443E+06    -18.7516E+06    -104.086E+06    -33.6372E+06    -42.1612E+06         25.3247
            1676     8.76226E-03     88.4136E-03         1.46950         1.32219        -3.84708         1.32140        -3.84629         1.46950    -90.5361E-03     53.6751E-03    -26.7294E-03    -26.9411E-03    -26.5297E-03     53.3358E-03    -26.8015E-03     10.3780E-03     426.514E+03    -39.2265E+06    -122.843E+06    -19.1397E+06    -103.277E+06    -39.2265E+06    -44.8457E+06         26.3145
            1677     9.73647E-03     88.4240E-03         1.45351         1.27481        -3.78750         1.27391        -3.78660         1.45351    -119.783E-03     53.7261E-03    -26.7456E-03    -26.9814E-03    -26.4811E-03     53.2259E-03    -26.7456E-03     12.6038E-03     2.59282E+06    -43.2631E+06    -121.864E+06    -17.8480E+06    -101.423E+06    -43.2631E+06    -45.9286E+06         27.6797
            1678     10.7103E-03     88.4383E-03         1.43560         1.21018        -3.70942         1.20938        -3.70863         1.43560    -113.419E-03     53.5128E-03    -26.6432E-03    -26.8900E-03    -26.2867E-03     52.9095E-03    -26.6432E-03     13.8730E-03     5.31678E+06    -56.0008E+06    -119.439E+06    -17.2245E+06    -96.8980E+06    -56.0008E+06    -47.9193E+06         29.6454
            1679     11.6852E-03     88.4518E-03         1.41589         1.15551        -3.63798         1.15462        -3.63709         1.41589    -124.840E-03     53.3795E-03    -26.5285E-03    -26.8748E-03    -26.0509E-03     52.5557E-03    -26.5285E-03     16.0356E-03     6.01203E+06    -69.5812E+06    -109.657E+06    -17.3071E+06    -86.3379E+06    -69.5812E+06    -46.3596E+06         32.6226
            1680     12.6598E-03     88.4700E-03         1.39560         1.10295        -3.56886         1.10242        -3.56832         1.39560    -98.8405E-03     53.6909E-03    -26.3664E-03    -27.3298E-03    -25.5900E-03     51.9510E-03    -26.3664E-03     22.9635E-03     5.37033E+06    -73.7546E+06    -102.579E+06    -17.9847E+06    -66.3415E+06    -86.6375E+06    -40.5797E+06         36.9268
            1681     13.6363E-03     88.4979E-03         1.37469         1.03492        -3.48633         1.03438        -3.48579         1.37469    -93.7314E-03     54.8787E-03    -26.1613E-03    -28.7304E-03    -25.7391E-03     51.8874E-03    -26.1613E-03     30.9241E-03     11.7056E+06    -54.9544E+06    -107.957E+06    -17.9065E+06    -25.3423E+06    -107.957E+06    -30.1219E+06         42.5666
            1682     14.6085E-03     88.5328E-03         1.35504     968.371E-03        -3.40218     967.900E-03        -3.40171         1.35504    -87.0161E-03     74.7152E-03    -26.1397E-03    -48.6060E-03    -26.7254E-03     52.8345E-03    -26.1397E-03     86.7168E-03     66.4280E+06    -24.7813E+06    -83.3559E+06    -15.8645E+06     57.5111E+06    -83.3559E+06    -16.9264E+06         49.1137
            1683     15.5894E-03     88.6822E-03         1.34452     890.443E-03        -3.31171     890.185E-03        -3.31145         1.34452    -51.0352E-03     166.080E-03    -26.4396E-03    -139.692E-03    -42.8170E-03     69.2046E-03    -26.4396E-03     283.187E-03     156.005E+06     23.8186E+06    -34.4454E+06    -15.2146E+06     155.229E+06     5.36344E+06    -5.81882E+06         55.7587
            1684     16.5526E-03     89.1529E-03         1.34332     800.468E-03        -3.22984     800.441E-03        -3.22982         1.34332    -17.9076E-03     217.352E-03    -26.8848E-03    -190.502E-03    -48.0974E-03     74.9474E-03    -26.8848E-03     388.737E-03     218.303E+06     116.038E+06    -10.7035E+06    -10.6416E+06     218.241E+06     116.038E+06     1.32030E+06         61.0729
            1685     972.410E-06     89.4264E-03         3.55466     995.050E-03        -5.58197    -79.6080E-03        -4.36762         3.41497         1.80029     54.7157E-03    -27.2073E-03    -27.5088E-03    -27.2010E-03     54.7071E-03    -27.5064E-03     1.58075E-03    -5.17224E+06    -7.66518E+06    -108.893E+06    -6.94065E+06    -108.171E+06    -6.61839E+06    -6.92124E+06         23.7501
            1686     1.94652E-03     89.4286E-03         1.82712         1.66160        -4.51956         1.63891        -4.33136         1.66160    -662.572E-03     54.4385E-03    -27.1519E-03    -27.2856E-03    -27.1310E-03     54.4176E-03    -27.2856E-03     2.51992E-03    -4.82806E+06    -8.02896E+06    -89.8690E+06    -6.95300E+06    -87.7441E+06    -8.02896E+06    -12.9397E+06         23.8051
            1687     2.91977E-03     89.4312E-03         1.69905         1.64766        -4.37693         1.63410        -4.31734         1.65301     225.567E-03     54.3147E-03    -27.0950E-03    -27.2180E-03    -27.0650E-03     54.2847E-03    -27.2180E-03     3.11315E-03    -2.64430E+06    -8.18375E+06    -87.4660E+06    -7.37532E+06    -82.7350E+06    -8.18375E+06    -19.1390E+06         23.9060
            1688     3.89335E-03     89.4341E-03         1.66750         1.62627        -4.32875         1.62410        -4.30637         1.64729    -268.223E-03     54.0869E-03    -26.9361E-03    -27.1497E-03    -26.8977E-03     54.0485E-03    -27.1497E-03     3.49439E-03    -339.090E+03    -12.8329E+06    -97.9954E+06    -8.55347E+06    -89.7810E+06    -12.8329E+06    -26.9976E+06         24.0488
            1689     4.86680E-03     89.4384E-03         1.63862         1.58413        -4.26131         1.57667        -4.25384         1.63862    -4.86536E-03     53.9810E-03    -26.9108E-03    -27.0687E-03    -26.8463E-03     53.9165E-03    -27.0687E-03     4.51000E-03     872.846E+03    -19.3605E+06    -105.733E+06    -10.3655E+06    -94.4948E+06    -19.3605E+06    -32.6428E+06         24.2194
            1690     5.84060E-03     89.4428E-03         1.62594         1.54563        -4.21474         1.54147        -4.21058         1.62594    -154.932E-03     53.8267E-03    -26.8298E-03    -26.9952E-03    -26.7142E-03     53.7111E-03    -26.9952E-03     6.04064E-03     2.06127E+06    -23.8514E+06    -109.113E+06    -12.4759E+06    -94.5759E+06    -23.8514E+06    -37.4098E+06         24.4116
            1691     6.81467E-03     89.4503E-03         1.61293         1.52137        -4.17453         1.51961        -4.17278         1.61293    -70.9930E-03     53.6918E-03    -26.6938E-03    -26.9891E-03    -26.5688E-03     53.5044E-03    -26.9267E-03     7.69837E-03     4.23209E+06    -26.5287E+06    -113.021E+06    -12.7014E+06    -96.0873E+06    -26.5287E+06    -41.1919E+06         24.7117
            1692     7.78792E-03     89.4586E-03         1.59850         1.46241        -4.10075         1.46094        -4.09928         1.59850    -136.944E-03     53.6817E-03    -26.6713E-03    -27.0082E-03    -26.5540E-03     53.4251E-03    -26.8688E-03     9.04482E-03     6.17612E+06    -28.0946E+06    -113.359E+06    -12.3862E+06    -94.7969E+06    -28.0946E+06    -43.1664E+06         25.3002
            1693     8.76280E-03     89.4670E-03         1.58036         1.39269        -4.01866         1.39157        -4.01754         1.58036    -118.546E-03     53.6094E-03    -26.6661E-03    -26.9472E-03    -26.4612E-03     53.2599E-03    -26.8026E-03     10.5299E-03     7.48895E+06    -33.0241E+06    -116.058E+06    -13.5653E+06    -95.0038E+06    -33.0241E+06    -46.3195E+06         26.2730
            1694     9.73653E-03     89.4792E-03         1.55997         1.34118        -3.95421         1.34002        -3.95305         1.55997    -131.332E-03     53.6336E-03    -26.6547E-03    -26.9754E-03    -26.3863E-03     53.1090E-03    -26.7191E-03     12.8763E-03     9.74767E+06    -40.7876E+06    -118.350E+06    -14.4062E+06    -94.1964E+06    -40.7876E+06    -49.8778E+06         27.6221
            1695     10.7109E-03     89.4917E-03         1.53867         1.28569        -3.88075         1.28512        -3.88018         1.53867    -95.3722E-03     53.4995E-03    -26.6264E-03    -26.8950E-03    -26.2833E-03     52.8878E-03    -26.6264E-03     13.9535E-03     11.1402E+06    -51.8762E+06    -116.427E+06    -14.7124E+06    -90.5745E+06    -51.8762E+06    -51.1607E+06         29.5680
            1696     11.6854E-03     89.5059E-03         1.51593         1.21585        -3.78766         1.21501        -3.78682         1.51593    -127.885E-03     53.3172E-03    -26.5215E-03    -26.8257E-03    -26.0228E-03     52.5142E-03    -26.5215E-03     15.8034E-03     9.74679E+06    -65.5800E+06    -112.200E+06    -15.8571E+06    -86.5963E+06    -65.5800E+06    -49.5998E+06         32.5310
            1697     12.6603E-03     89.5231E-03         1.49148         1.13909        -3.68960         1.13842        -3.68892         1.49148    -113.101E-03     53.7844E-03    -26.3760E-03    -27.4189E-03    -25.8522E-03     52.2178E-03    -26.3760E-03     21.9865E-03     8.95362E+06    -77.4234E+06    -101.207E+06    -17.2765E+06    -69.2583E+06    -83.1416E+06    -44.9684E+06         36.8329
            1698     13.6349E-03     89.5503E-03         1.46592         1.06662        -3.59513         1.06599        -3.59450         1.46592    -107.345E-03     55.2392E-03    -26.2020E-03    -29.0535E-03    -25.9587E-03     52.1444E-03    -26.2020E-03     31.3137E-03     11.2551E+06    -67.0390E+06    -106.084E+06    -18.9350E+06    -36.8489E+06    -106.084E+06    -36.9897E+06         42.4910
            1699     14.6105E-03     89.5900E-03         1.44167     996.838E-03        -3.50269     996.186E-03        -3.50204         1.44167    -105.840E-03     74.8100E-03    -26.1644E-03    -48.6687E-03    -27.9565E-03     54.0978E-03    -26.1644E-03     86.1198E-03     59.1936E+06    -36.3358E+06    -94.2082E+06    -19.9072E+06     42.7650E+06    -94.2082E+06    -23.4648E+06         49.0825
            1700     15.5825E-03     89.7297E-03         1.42597     928.670E-03        -3.41261     928.293E-03        -3.41223         1.42597    -58.7892E-03     166.583E-03    -26.3592E-03    -140.271E-03    -40.9361E-03     67.2474E-03    -26.3592E-03     284.768E-03     145.115E+06     7.83337E+06    -41.4245E+06    -15.8939E+06     144.129E+06    -16.7118E+06    -7.82188E+06         55.7943
            1701     16.5732E-03     90.2174E-03         1.41884     837.738E-03        -3.31649     837.544E-03        -3.31630         1.41884    -37.1969E-03     216.012E-03    -26.6698E-03    -189.385E-03    -45.5389E-03     72.1654E-03    -26.6698E-03     387.892E-03     213.287E+06     99.6472E+06    -7.84924E+06    -7.78936E+06     213.227E+06     99.6472E+06     386.578E+03         61.1707
            1702     974.034E-06     90.4823E-03         3.50161         1.05445        -5.56518     129.526E-03        -4.51169         3.37305         1.72870     54.3932E-03    -26.9632E-03    -27.4304E-03    -27.2299E-03     54.3828E-03    -27.1532E-03     1.72499E-03     4.38933E+06     1.62976E+06    -94.0954E+06     1.93506E+06    -93.5099E+06     3.49856E+06    -5.65967E+06         23.7479
            1703     1.94651E-03     90.4839E-03         1.92246         1.75329        -4.69116         1.76073        -4.52942         1.75329    -590.094E-03     54.5672E-03    -27.1833E-03    -27.3840E-03    -27.3438E-03     54.5474E-03    -27.2038E-03     2.52022E-03     6.55680E+06     1.49286E+06    -76.2971E+06     2.92103E+06    -73.6915E+06     2.52308E+06    -13.5279E+06         23.8018
            1704     2.91991E-03     90.4870E-03         1.82954         1.75861        -4.60088         1.77779        -4.54913         1.75861     247.744E-03     54.2919E-03    -27.0838E-03    -27.2071E-03    -27.0557E-03     54.2638E-03    -27.2071E-03     2.96988E-03     9.15017E+06     1.90038E+06    -74.8040E+06     3.87657E+06    -69.5304E+06     1.90038E+06    -20.1148E+06         23.9017
            1705     3.89302E-03     90.4895E-03         1.79054         1.73415        -4.53951         1.74495        -4.51998         1.76022    -201.273E-03     54.0876E-03    -26.9386E-03    -27.1478E-03    -26.8934E-03     54.0424E-03    -27.1478E-03     3.77792E-03     10.9922E+06    -366.865E+03    -82.7357E+06     3.29190E+06    -75.0354E+06    -366.865E+03    -25.6981E+06         24.0466
            1706     4.86712E-03     90.4931E-03         1.74992         1.66976        -4.44404         1.66212        -4.43640         1.74992     41.0310E-03     54.0084E-03    -26.9452E-03    -27.0630E-03    -26.8677E-03     53.9309E-03    -27.0630E-03     4.94874E-03     10.8728E+06    -9.00270E+06    -92.6570E+06    -63.0246E+03    -81.7212E+06    -9.00270E+06    -31.6803E+06         24.2179
            1707     5.84056E-03     90.4982E-03         1.73227         1.62309        -4.38160         1.61980        -4.37831         1.73227    -154.356E-03     53.8706E-03    -26.8803E-03    -26.9867E-03    -26.7531E-03     53.7434E-03    -26.9867E-03     6.35096E-03     11.1612E+06    -15.6361E+06    -96.9218E+06    -3.65677E+06    -82.1039E+06    -15.6361E+06    -37.1012E+06         24.4059
            1708     6.81416E-03     90.5043E-03         1.71527         1.60152        -4.34258         1.60001        -4.34108         1.71527    -88.2151E-03     53.5989E-03    -26.6740E-03    -26.9169E-03    -26.4764E-03     53.4013E-03    -26.9169E-03     7.89992E-03     11.0054E+06    -20.1489E+06    -103.807E+06    -6.67473E+06    -86.1273E+06    -20.1489E+06    -41.4361E+06         24.6975
            1709     7.78970E-03     90.5125E-03         1.69873         1.55567        -4.28265         1.55423        -4.28121         1.69873    -147.703E-03     53.5241E-03    -26.6189E-03    -26.9087E-03    -26.4200E-03     53.2481E-03    -26.8317E-03     9.36938E-03     12.5024E+06    -24.9338E+06    -106.999E+06    -8.29121E+06    -86.2053E+06    -24.9338E+06    -45.2201E+06         25.2704
            1710     8.76224E-03     90.5225E-03         1.67950         1.48239        -4.19497         1.48132        -4.19389         1.67950    -126.827E-03     53.5496E-03    -26.6581E-03    -26.8924E-03    -26.4267E-03     53.1978E-03    -26.7720E-03     10.5911E-03     15.8573E+06    -26.4165E+06    -108.784E+06    -7.02594E+06    -85.9005E+06    -26.4165E+06    -48.1695E+06         26.2265
            1711     9.73730E-03     90.5318E-03         1.65708         1.41054        -4.10885         1.40939        -4.10769         1.65708    -142.174E-03     53.5525E-03    -26.6216E-03    -26.9250E-03    -26.3195E-03     53.0115E-03    -26.6861E-03     13.0181E-03     17.7141E+06    -34.7919E+06    -110.704E+06    -7.99648E+06    -84.9932E+06    -34.7919E+06    -51.1669E+06         27.5603
            1712     10.7114E-03     90.5475E-03         1.63273         1.34603        -4.02672         1.34540        -4.02609         1.63273    -107.861E-03     53.5568E-03    -26.5989E-03    -26.9846E-03    -26.3782E-03     52.9504E-03    -26.5989E-03     13.8902E-03     16.6888E+06    -47.4904E+06    -113.401E+06    -11.2269E+06     -85.485E+06    -47.4904E+06    -53.3730E+06         29.4875
            1713     11.6855E-03     90.5584E-03         1.60668         1.26766        -3.91936         1.26694        -3.91863         1.60668    -116.113E-03     53.4312E-03    -26.5063E-03    -26.9721E-03    -26.1892E-03     52.6482E-03    -26.5063E-03     15.5580E-03     14.3600E+06    -62.4468E+06    -112.282E+06    -13.0070E+06    -84.9150E+06    -62.4468E+06    -52.0761E+06         32.4363
            1714     12.6601E-03     90.5778E-03         1.57867         1.18027        -3.79834         1.17976        -3.79783         1.57867    -96.3409E-03     54.1932E-03    -26.3741E-03    -27.8448E-03    -26.1693E-03     52.5177E-03    -26.3741E-03     22.7774E-03     14.7078E+06    -81.3693E+06    -99.6009E+06    -14.1007E+06    -70.3620E+06    -81.7997E+06    -49.3560E+06         36.7358
            1715     13.6341E-03     90.6040E-03         1.54916         1.09403        -3.68633         1.09362        -3.68592         1.54916    -85.6946E-03     55.3405E-03    -26.2217E-03    -29.1382E-03    -25.9859E-03     52.1882E-03    -26.2217E-03     31.6875E-03     14.5839E+06    -74.9742E+06    -106.152E+06    -15.2875E+06    -46.4163E+06    -104.839E+06    -41.8696E+06         42.4122
            1716     14.6100E-03     90.6420E-03         1.52017         1.00518        -3.57710         1.00460        -3.57652         1.52017    -96.8947E-03     75.8465E-03    -26.1185E-03    -49.7473E-03    -28.0326E-03     54.1318E-03    -26.1185E-03     88.6075E-03     51.1012E+06    -41.3672E+06    -105.137E+06    -16.6173E+06     26.3513E+06    -105.137E+06    -27.3247E+06         49.0529
            1717     15.5836E-03     90.7910E-03         1.49845     939.069E-03        -3.48563     938.609E-03        -3.48517         1.49845    -69.4699E-03     164.052E-03    -26.2879E-03    -137.810E-03    -40.7129E-03     66.9553E-03    -26.2879E-03     279.816E-03     131.409E+06    -4.62655E+06    -50.9526E+06    -14.2723E+06     129.064E+06    -38.9624E+06    -11.8354E+06         55.8250
            1718     16.5605E-03     91.2412E-03         1.48455     856.021E-03        -3.38722     855.803E-03        -3.38700         1.48455    -44.6279E-03     213.939E-03    -26.6579E-03    -187.326E-03    -44.2485E-03     70.8609E-03    -26.6579E-03     384.286E-03     207.381E+06     84.2367E+06    -7.39845E+06    -7.33273E+06     207.315E+06     84.2367E+06    -3.22342E+06         61.2591
            1719     973.655E-06     91.5374E-03         3.45363         1.13184        -5.57782     368.394E-03        -4.68789         3.32714         1.61678     54.4680E-03    -26.9014E-03    -27.5674E-03    -27.3431E-03     54.4603E-03    -27.1180E-03     1.05763E-03      23.054E+06     19.1665E+06    -79.5604E+06     21.0822E+06    -78.6188E+06     20.1968E+06    -8.28752E+06         23.7425
            1720     1.94660E-03     91.5408E-03         2.02338         1.85686        -4.87285         1.89106        -4.74053         1.85686    -585.947E-03     54.2427E-03    -26.8890E-03    -27.3555E-03    -27.0512E-03     54.2247E-03    -27.1753E-03     2.36647E-03     25.0741E+06     19.3357E+06    -62.1573E+06     21.5398E+06    -59.6532E+06     20.3659E+06    -13.6042E+06         23.7898
            1721     2.91984E-03     91.5416E-03         1.91525         1.85287        -4.75955         1.86202        -4.71856         1.86511     196.379E-03     53.9534E-03    -26.8833E-03    -27.0701E-03    -26.8493E-03     53.9195E-03    -27.0701E-03     3.24421E-03     23.3509E+06     13.3555E+06    -61.0613E+06     18.3530E+06    -56.0634E+06     13.3555E+06    -19.4935E+06         23.8881
            1722     3.89441E-03     91.5449E-03         1.86864         1.81408        -4.67519         1.80820        -4.65920         1.85853    -229.743E-03     53.8676E-03    -26.8707E-03    -26.9955E-03    -26.8139E-03     53.8098E-03    -26.9945E-03     4.28309E-03     22.3837E+06     8.69871E+06    -69.2338E+06     15.3270E+06    -62.1771E+06     8.69871E+06    -24.3621E+06         24.0337
            1723     4.86742E-03     91.5479E-03         1.84511         1.77700        -4.62395         1.77088        -4.61783         1.84511    -14.6552E-03     53.8960E-03    -26.9364E-03    -26.9595E-03    -26.8513E-03     53.8010E-03    -26.9496E-03     5.48738E-03     22.2016E+06     4.57464E+06    -78.7969E+06     12.3338E+06    -68.9291E+06     4.57464E+06    -29.7713E+06         24.2046
            1724     5.84139E-03     91.5532E-03         1.82884         1.72105        -4.56168         1.71787        -4.55849         1.82884    -152.918E-03     53.7829E-03    -26.8439E-03    -26.9380E-03    -26.7438E-03     53.6379E-03    -26.8931E-03     6.80493E-03     22.7876E+06    -1.81511E+06    -84.2817E+06     9.35374E+06    -70.8478E+06    -1.81511E+06    -35.3356E+06         24.3896
            1725     6.81568E-03     91.5587E-03         1.80885         1.65247        -4.47574         1.65112        -4.47438         1.80885    -75.5572E-03     53.6863E-03    -26.7631E-03    -26.9247E-03    -26.6285E-03     53.4704E-03    -26.8435E-03     8.26798E-03     23.1557E+06    -6.71676E+06    -91.1162E+06     6.21075E+06    -74.1712E+06    -6.71676E+06    -40.5115E+06         24.6733
            1726     7.78815E-03     91.5671E-03         1.78762         1.61918        -4.42016         1.61791        -4.41889         1.78762    -142.664E-03     53.4268E-03    -26.6305E-03    -26.8006E-03    -26.3667E-03     53.1177E-03    -26.7554E-03     9.87525E-03     24.6613E+06    -15.4607E+06    -96.7450E+06     3.71069E+06    -75.7944E+06    -15.4607E+06    -45.8172E+06         25.2309
            1727     8.76423E-03     91.5760E-03         1.76667         1.56847        -4.34882         1.56760        -4.34795         1.76667    -119.856E-03     53.3665E-03    -26.5854E-03    -26.7660E-03    -26.2772E-03     52.9647E-03    -26.6725E-03     11.2792E-03     24.6702E+06    -22.0806E+06    -101.148E+06     608.635E+03    -77.0859E+06    -22.0806E+06    -49.4620E+06         26.1710
            1728     9.73732E-03     91.5869E-03         1.74303         1.47586        -4.23791         1.47480        -4.23685         1.74303    -150.243E-03     53.5923E-03    -26.5957E-03    -26.9760E-03    -26.3764E-03     52.9926E-03    -26.5957E-03     13.7195E-03     24.4828E+06    -30.2247E+06    -102.992E+06    -2.21030E+06    -76.2991E+06    -30.2247E+06    -51.8281E+06         27.4923
            1729     10.7119E-03     91.6006E-03         1.71571         1.38968        -4.12985         1.38891        -4.12909         1.71571    -127.910E-03     53.5618E-03    -26.5245E-03    -27.0528E-03    -26.3582E-03     52.8671E-03    -26.5245E-03     14.8511E-03     23.8511E+06    -41.8473E+06    -107.134E+06    -4.02908E+06    -79.2538E+06    -41.8473E+06    -53.5878E+06         29.4050
            1730     11.6860E-03     91.6138E-03         1.68646         1.31778        -4.03031         1.31709        -4.02962         1.68646    -115.384E-03     53.5640E-03    -26.4341E-03    -27.1751E-03    -26.3286E-03     52.7175E-03    -26.4341E-03     16.2859E-03     22.8962E+06    -58.6288E+06    -109.857E+06    -6.33819E+06    -80.6229E+06    -58.6288E+06    -54.9127E+06         32.3404
            1731     12.6609E-03     91.6296E-03         1.65591         1.22915        -3.91017         1.22861        -3.90963         1.65591    -100.220E-03     54.2470E-03    -26.3030E-03    -27.9846E-03    -26.1087E-03     52.3711E-03    -26.3030E-03     23.9419E-03     22.4868E+06    -80.3115E+06    -101.046E+06    -8.47402E+06    -70.0851E+06    -80.3115E+06    -53.3903E+06         36.6368
            1732     13.6357E-03     91.6604E-03         1.62340         1.12359        -3.77927         1.12311        -3.77880         1.62340    -93.1466E-03     55.4037E-03    -26.1662E-03    -29.2652E-03    -25.8994E-03     52.0380E-03    -26.1662E-03     32.9141E-03     18.6733E+06    -81.5662E+06    -105.109E+06    -10.7886E+06    -54.9768E+06    -102.236E+06    -46.4276E+06         42.3320
            1733     14.6099E-03     91.6932E-03         1.59053         1.02263        -3.65344         1.02224        -3.65304         1.59053    -82.5331E-03     76.4910E-03    -26.0385E-03    -50.4694E-03    -27.5293E-03     53.5509E-03    -26.0385E-03     90.8313E-03     44.2718E+06    -46.2276E+06    -106.053E+06    -11.2523E+06     9.29646E+06    -106.053E+06    -33.4369E+06         49.0243
            1734     15.5883E-03     91.8465E-03         1.56313     923.144E-03        -3.53202     922.851E-03        -3.53173         1.56313    -63.2037E-03     165.172E-03    -26.1894E-03    -139.011E-03    -42.6906E-03     68.8521E-03    -26.1894E-03     281.617E-03     118.261E+06    -12.2709E+06    -55.1594E+06    -11.4219E+06     113.965E+06    -51.7121E+06    -18.1207E+06         55.8547
            1735     16.5571E-03     92.3003E-03         1.54140     828.234E-03        -3.42212     828.165E-03        -3.42205         1.54140    -32.1568E-03     213.726E-03    -26.6193E-03    -187.132E-03    -44.6791E-03     71.2734E-03    -26.6193E-03     383.536E-03     200.141E+06     69.3234E+06    -9.55914E+06    -8.76841E+06     199.636E+06     69.0374E+06    -5.53380E+06         61.3508
            1736     972.003E-06     92.5938E-03         3.38526         1.22089        -5.58811     623.617E-03        -4.88176         3.27619         1.43043     54.2882E-03    -26.8632E-03    -27.4260E-03    -27.0812E-03     54.2809E-03    -27.2006E-03     1.03959E-03     39.7375E+06     35.2070E+06    -63.5646E+06     36.9530E+06    -62.5924E+06     37.0193E+06    -9.44374E+06         23.7194
            1737     1.94729E-03     92.5946E-03         2.07443         1.94046        -4.98827         1.95323        -4.87735         1.95074    -601.541E-03     53.4325E-03    -26.4670E-03    -26.9679E-03    -26.4423E-03     53.4077E-03    -26.9679E-03     2.69364E-03     36.3803E+06     31.2938E+06    -50.7770E+06     34.5140E+06    -48.9107E+06     31.2938E+06    -12.2591E+06         23.7646
            1738     2.92173E-03     92.5975E-03         1.95907         1.91898        -4.84842         1.90228        -4.81710         1.94446     150.210E-03     53.5204E-03    -26.6175E-03    -26.9040E-03    -26.6856E-03     53.4808E-03    -26.7963E-03     3.55860E-03     37.8214E+06     29.2442E+06    -46.8061E+06     33.7083E+06    -42.6929E+06     29.2442E+06    -17.7869E+06         23.8651
            1739     3.89472E-03     92.5989E-03         1.93168         1.89647        -4.80121         1.88446        -4.78920         1.93168    -254.409E-03     53.6283E-03    -26.7505E-03    -26.8765E-03    -26.8001E-03     53.5672E-03    -26.7659E-03     4.36928E-03     37.0315E+06     24.1495E+06    -56.6619E+06     30.7838E+06    -50.4142E+06     24.1495E+06    -23.3345E+06         24.0112
            1740     4.86924E-03     92.6036E-03         1.92098         1.87461        -4.77790         1.87081        -4.77411         1.92098    -59.9537E-03     53.4856E-03    -26.7255E-03    -26.7583E-03    -26.6371E-03     53.3854E-03    -26.7464E-03     5.63945E-03     37.0799E+06     20.3050E+06    -65.2476E+06     28.5402E+06    -56.7080E+06     20.3050E+06    -28.1545E+06         24.1799
            1741     5.84285E-03     92.6071E-03         1.90837         1.81630        -4.71519         1.81357        -4.71245         1.90837    -159.947E-03     53.4540E-03    -26.6727E-03    -26.7822E-03    -26.5909E-03     53.2837E-03    -26.6937E-03     7.27441E-03     37.3681E+06     13.9821E+06    -70.5120E+06     25.5162E+06    -58.6601E+06     13.9821E+06    -33.6755E+06         24.3606
            1742     6.81620E-03     92.6142E-03         1.88962         1.73336        -4.61765         1.73202        -4.61631         1.88962    -99.9619E-03     53.4159E-03    -26.6329E-03    -26.7885E-03    -26.5213E-03     53.1487E-03    -26.6329E-03     9.18098E-03     37.7234E+06     5.36112E+06    -77.7205E+06     21.8548E+06    -61.8519E+06     5.36112E+06    -39.6455E+06         24.6349
            1743     7.79161E-03     92.6207E-03         1.86636         1.66756        -4.52866         1.66611        -4.52722         1.86636    -161.758E-03     53.3241E-03    -26.5312E-03    -26.7940E-03    -26.3879E-03     52.9555E-03    -26.5688E-03     10.8068E-03     37.1696E+06    -3.08809E+06    -84.1361E+06     17.9172E+06    -64.8838E+06    -3.08809E+06    -44.2818E+06         25.1777
            1744     8.76452E-03     92.6302E-03         1.84162         1.61155        -4.44802         1.61068        -4.44715         1.84162    -128.717E-03     53.2684E-03    -26.4664E-03    -26.7944E-03    -26.2708E-03     52.7823E-03    -26.5040E-03     12.3980E-03     35.4960E+06    -11.6122E+06    -89.9163E+06     12.9562E+06    -67.3765E+06    -11.6122E+06    -48.0643E+06         26.1035
            1745     9.73997E-03     92.6410E-03         1.81556         1.53805        -4.35027         1.53709        -4.34930         1.81556    -147.309E-03     53.3751E-03    -26.4339E-03    -26.9269E-03    -26.2335E-03     52.6818E-03    -26.4339E-03     14.7674E-03     34.6616E+06    -20.6591E+06    -94.1107E+06     8.77426E+06    -68.2234E+06    -20.6591E+06    -51.5489E+06         27.4165
            1746     10.7138E-03     92.6545E-03         1.78644         1.43585        -4.22422         1.43505        -4.22342         1.78644    -132.575E-03     53.3232E-03    -26.3588E-03    -26.9807E-03    -26.1708E-03     52.5133E-03    -26.3588E-03     16.0420E-03     32.0292E+06    -33.1380E+06    -100.415E+06     4.64579E+06    -73.0316E+06    -33.1380E+06    -53.5772E+06         29.3217
            1747     11.6887E-03     92.6673E-03         1.75410         1.34254        -4.10396         1.34162        -4.10305         1.75410    -140.232E-03     53.6094E-03    -26.2708E-03    -27.3697E-03    -26.3267E-03     52.5664E-03    -26.2708E-03     18.0830E-03     31.0840E+06    -49.6476E+06    -103.400E+06     646.038E+03    -72.9625E+06    -49.6476E+06    -56.1686E+06         32.2464
            1748     12.6620E-03     92.6846E-03         1.72030         1.26238        -3.99528         1.26152        -3.99443         1.72030    -133.726E-03     54.3102E-03    -26.1658E-03    -28.1724E-03    -26.1779E-03     52.3157E-03    -26.1658E-03     24.8975E-03     28.4673E+06    -72.0384E+06    -101.599E+06    -3.15089E+06    -69.9806E+06    -72.0384E+06    -55.7849E+06         36.5364
            1749     13.6380E-03     92.7114E-03         1.68553         1.16695        -3.87167         1.16623        -3.87095         1.68553    -118.816E-03     55.2052E-03    -26.0410E-03    -29.2029E-03    -25.6097E-03     51.6120E-03    -26.0410E-03     33.8074E-03     24.1290E+06    -82.1511E+06    -104.023E+06    -6.11944E+06    -60.1747E+06    -95.7509E+06    -50.2964E+06         42.2480
            1750     14.6141E-03     92.7491E-03         1.65043         1.05841        -3.72437         1.05793        -3.72389         1.65043    -94.6760E-03     76.5007E-03    -25.9096E-03    -50.6083E-03    -27.5289E-03     53.4213E-03    -25.9096E-03     91.7927E-03     39.4384E+06    -54.8160E+06    -104.885E+06    -9.92014E+06    -5.45749E+06    -104.885E+06    -39.5660E+06         48.9899
            1751     15.5877E-03     92.8970E-03         1.61848     925.519E-03        -3.56463     925.234E-03        -3.56434         1.61848    -68.1025E-03     167.641E-03    -25.9287E-03    -141.737E-03    -41.5282E-03     67.4321E-03    -25.9287E-03     287.767E-03     104.704E+06    -20.0523E+06    -63.9707E+06    -10.9087E+06     95.5606E+06    -63.9707E+06    -22.4469E+06         55.8902
            1752     16.5651E-03     93.3665E-03         1.58947     807.742E-03        -3.42250     807.422E-03        -3.42218         1.58947    -60.4404E-03     213.442E-03    -26.2376E-03    -187.229E-03    -44.8004E-03     71.0139E-03    -26.2376E-03     383.443E-03     191.374E+06     58.4092E+06    -17.3571E+06    -9.31080E+06     190.776E+06     50.9601E+06    -7.15353E+06         61.4519
            1753     974.962E-06     93.6491E-03         3.27514         1.32017        -5.55926     864.515E-03        -5.02779         3.19933         1.24566     52.8093E-03    -26.0970E-03    -26.7127E-03    -26.4186E-03     52.8002E-03    -26.3820E-03     1.20239E-03     51.0319E+06     45.2672E+06    -51.5298E+06     47.5948E+06    -50.8763E+06     48.0507E+06    -7.07751E+06         23.6677
            1754     1.94800E-03     93.6483E-03         2.10024         2.00957        -5.06809         1.99452        -4.97723         2.02443    -501.061E-03     53.0298E-03    -26.2019E-03    -26.8288E-03    -26.5843E-03     53.0012E-03    -26.4178E-03     2.92426E-03     50.3429E+06     45.0326E+06    -36.8068E+06     47.4223E+06    -34.8574E+06     46.0038E+06    -12.4095E+06         23.7243
            1755     2.92230E-03     93.6516E-03         2.01195         1.99218        -4.95396         1.96753        -4.92736         2.01001     194.002E-03     53.0090E-03    -26.3244E-03    -26.6845E-03    -26.5170E-03     52.9604E-03    -26.4433E-03     3.89485E-03     49.2283E+06     40.9639E+06    -35.4954E+06     45.6094E+06    -31.8765E+06     40.9639E+06    -17.0165E+06         23.8272
            1756     3.89643E-03     93.6544E-03         2.00079         1.97124        -4.92312         1.96469        -4.91463         1.99885    -201.832E-03     53.0661E-03    -26.4285E-03    -26.6367E-03    -26.5450E-03     52.9981E-03    -26.4523E-03     4.60350E-03     49.8019E+06     37.0688E+06    -44.0608E+06     44.0185E+06    -38.2774E+06     37.0688E+06    -22.4697E+06         23.9740
            1757     4.86999E-03     93.6568E-03         1.98710         1.91313        -4.85993         1.91024        -4.85704         1.98710    -37.0374E-03     52.9026E-03    -26.3908E-03    -26.5098E-03    -26.3509E-03     52.7859E-03    -26.4331E-03     5.97817E-03     50.0434E+06     31.5233E+06    -52.7267E+06     41.7834E+06    -44.4667E+06     31.5233E+06    -27.8800E+06         24.1407
            1758     5.84482E-03     93.6621E-03         1.97093         1.86798        -4.80269         1.86617        -4.80087         1.97093    -160.212E-03     52.7357E-03    -26.3145E-03    -26.4206E-03    -26.1596E-03     52.5371E-03    -26.3769E-03     7.82897E-03     51.2700E+06     26.4243E+06    -58.1363E+06     39.9437E+06    -46.8100E+06     26.4243E+06    -33.2192E+06         24.3165
            1759     6.81986E-03     93.6674E-03         1.95284         1.81846        -4.74264         1.81738        -4.74156         1.95284    -116.198E-03     52.7803E-03    -26.2924E-03    -26.4911E-03    -26.1667E-03     52.4760E-03    -26.3125E-03     9.74270E-03     51.5176E+06     20.0601E+06    -65.0361E+06     37.3702E+06    -50.8886E+06     20.0601E+06    -37.9720E+06         24.5814
            1760     7.79316E-03     93.6752E-03         1.93091         1.72990        -4.63630         1.72859        -4.63499         1.93091    -162.506E-03     52.9313E-03    -26.2646E-03    -26.6725E-03    -26.2424E-03     52.5012E-03    -26.2646E-03     11.6191E-03     49.2207E+06     12.5049E+06    -71.5322E+06     32.5089E+06    -54.8203E+06     12.5049E+06    -41.5557E+06         25.1079
            1761     8.76836E-03     93.6840E-03         1.90428         1.64466        -4.52265         1.64385        -4.52184         1.90428    -134.121E-03     53.0187E-03    -26.2179E-03    -26.8014E-03    -26.2212E-03     52.4384E-03    -26.2179E-03     13.5088E-03     47.1090E+06     2.90207E+06    -76.9263E+06     26.7721E+06    -56.5894E+06     2.90207E+06    -45.8295E+06         26.0191
            1762     9.74195E-03     93.6944E-03         1.87536         1.57587        -4.42670         1.57505        -4.42589         1.87536    -135.592E-03     53.0432E-03    -26.1688E-03    -26.8786E-03    -26.0636E-03     52.2281E-03    -26.1688E-03     15.9692E-03     44.2636E+06    -7.53923E+06    -83.7201E+06     21.5462E+06    -61.0026E+06    -7.53923E+06    -48.8459E+06         27.3260
            1763     10.7172E-03     93.7082E-03         1.84431         1.47850        -4.30787         1.47792        -4.30728         1.84431    -115.113E-03     53.0607E-03    -26.1013E-03    -26.9946E-03    -26.0746E-03     52.1407E-03    -26.1013E-03     17.0420E-03     41.1733E+06    -21.4198E+06    -90.0660E+06     15.8429E+06    -64.7355E+06    -21.4198E+06    -51.7286E+06         29.2276
            1764     11.6918E-03     93.7202E-03         1.80972         1.36376        -4.16833         1.36300        -4.16757         1.80972    -128.745E-03     53.3545E-03    -26.0241E-03    -27.3663E-03    -26.1845E-03     52.1726E-03    -26.0241E-03     19.2223E-03     37.7012E+06    -39.2486E+06    -94.7585E+06     8.72736E+06    -65.7847E+06    -39.2486E+06    -54.7035E+06         32.1457
            1765     12.6670E-03     93.7394E-03         1.77290         1.27808        -4.04601         1.27727        -4.04519         1.77290    -131.160E-03     54.3246E-03    -25.9456E-03    -28.4056E-03    -26.3283E-03     52.2473E-03    -25.9456E-03     25.6382E-03     33.9413E+06    -61.4729E+06    -97.5890E+06     2.31156E+06    -65.9593E+06    -61.4729E+06    -56.1802E+06         36.4297
            1766     13.6404E-03     93.7636E-03         1.73556         1.19214        -3.92475         1.19152        -3.92412         1.73556    -109.801E-03     55.4224E-03    -25.8626E-03    -29.5929E-03    -26.0115E-03     51.8409E-03    -25.8626E-03     33.8627E-03     27.1016E+06    -79.2367E+06    -102.350E+06    -2.99433E+06    -64.2632E+06    -87.2275E+06    -52.4197E+06         42.1542
            1767     14.6162E-03     93.8014E-03         1.69784         1.07631        -3.77496         1.07584        -3.77449         1.69784    -93.4502E-03     76.7753E-03    -25.7744E-03    -51.0090E-03    -27.4698E-03     53.2361E-03    -25.7744E-03     92.6828E-03     34.4118E+06    -57.4527E+06    -98.9126E+06    -7.54682E+06    -18.1659E+06    -96.2407E+06    -41.2430E+06         48.9451
            1768     15.5928E-03     93.9526E-03         1.66163     945.624E-03        -3.61120     945.312E-03        -3.61088         1.66163    -70.3954E-03     165.065E-03    -25.6622E-03    -139.428E-03    -39.2977E-03     64.9347E-03    -25.6622E-03     284.283E-03     87.7649E+06    -25.7121E+06    -75.6926E+06    -13.4986E+06     75.5514E+06    -75.6926E+06    -26.2626E+06         55.9142
            1769     16.5822E-03     94.4118E-03         1.62654     813.184E-03        -3.43664     812.663E-03        -3.43612         1.62654    -83.1104E-03     211.164E-03    -25.8199E-03    -185.374E-03    -43.8775E-03     69.6676E-03    -25.8199E-03     379.899E-03     176.749E+06     40.5339E+06    -30.7420E+06    -9.92283E+06     175.113E+06     21.3506E+06    -11.4627E+06         61.5397
            1770     975.655E-06     94.7014E-03         3.14491         1.37709        -5.46437         1.06270        -5.08081         3.07574         1.02043     51.5600E-03    -25.4657E-03    -26.0946E-03    -25.9191E-03     51.5525E-03    -25.6337E-03     940.591E-06     67.2706E+06     60.0229E+06    -37.2117E+06     63.1540E+06    -36.3825E+06     63.3103E+06    -8.33205E+06         23.6003
            1771     1.94985E-03     94.7039E-03         2.15953         2.06752        -5.15965         2.08320        -5.08790         2.07210    -458.893E-03     52.2408E-03    -25.8731E-03    -26.3675E-03    -26.3375E-03     52.2145E-03    -25.8768E-03     2.78072E-03     67.4845E+06     62.0855E+06    -25.3452E+06     64.3628E+06    -23.1947E+06     63.0567E+06    -13.4757E+06         23.6615
            1772     2.92331E-03     94.7047E-03         2.09255         2.05723        -5.07799         2.05661        -5.05718         2.07235     157.172E-03     52.2080E-03    -25.9625E-03    -26.2444E-03    -26.1573E-03     52.1446E-03    -25.9863E-03     4.35168E-03     67.1816E+06     57.3188E+06    -24.2545E+06     63.7116E+06    -20.7846E+06     57.3188E+06    -17.4116E+06         23.7660
            1773     3.89819E-03     94.7083E-03         2.06318         1.99734        -4.99277         1.99216        -4.98566         2.06124    -185.377E-03     52.0527E-03    -25.9463E-03    -26.1060E-03    -25.9693E-03     51.9561E-03    -25.9864E-03     5.45600E-03     67.5076E+06     52.3646E+06    -31.6928E+06     62.2809E+06    -26.4661E+06     52.3646E+06    -21.9420E+06         23.9117
            1774     4.87295E-03     94.7107E-03         2.04191         1.93632        -4.91331         1.93348        -4.91046         2.04191    -51.3078E-03     52.0775E-03    -25.9227E-03    -26.1543E-03    -25.9604E-03     51.9213E-03    -25.9603E-03     6.86527E-03     67.1104E+06     47.5122E+06    -39.4465E+06     59.1590E+06    -31.4950E+06     47.5122E+06    -27.8851E+06         24.0754
            1775     5.84742E-03     94.7149E-03         2.02184         1.91085        -4.87215         1.90891        -4.87022         2.02184    -169.504E-03     52.0614E-03    -25.8852E-03    -26.1772E-03    -25.8846E-03     51.8103E-03    -25.9267E-03     8.77037E-03     66.9069E+06     42.0468E+06    -46.7777E+06     56.4352E+06    -36.3060E+06     42.0468E+06    -32.7982E+06         24.2470
            1776     6.82197E-03     94.7208E-03         2.00226         1.85694        -4.80396         1.85636        -4.80338         2.00226    -93.7149E-03     52.0635E-03    -25.8725E-03    -26.1913E-03    -25.8089E-03     51.7013E-03    -25.8927E-03     10.5326E-03     65.5134E+06     36.9662E+06    -53.9531E+06     53.2182E+06    -41.6579E+06     36.9662E+06    -36.2523E+06         24.5030
            1777     7.79770E-03     94.7283E-03         1.97936         1.77601        -4.70518         1.77503        -4.70419         1.97936    -151.264E-03     52.1591E-03    -25.8420E-03    -26.3187E-03    -25.8050E-03     51.6454E-03    -25.8420E-03     12.6028E-03     63.1409E+06     27.7864E+06    -60.3416E+06     48.8787E+06    -46.0794E+06     27.7864E+06    -39.2807E+06         25.0139
            1778     8.77183E-03     94.7372E-03         1.95205         1.68553        -4.58957         1.68432        -4.58836         1.95205    -161.260E-03     52.3133E-03    -25.7903E-03    -26.5237E-03    -25.8369E-03     51.6265E-03    -25.7903E-03     14.6085E-03     58.8138E+06     17.6478E+06    -64.0407E+06     42.7921E+06    -48.0190E+06     17.6478E+06    -41.1317E+06         25.9116
            1779     9.74715E-03     94.7478E-03         1.92122         1.59564        -4.46843         1.59433        -4.46712         1.92122    -169.811E-03     52.6438E-03    -25.7537E-03    -26.9012E-03    -25.9363E-03     51.6789E-03    -25.7537E-03     17.3213E-03     53.9910E+06     6.12189E+06    -70.9772E+06     35.0500E+06    -52.0362E+06     6.12189E+06    -44.6448E+06         27.2117
            1780     10.7215E-03     94.7608E-03         1.88812         1.51036        -4.35719         1.50951        -4.35633         1.88812    -136.314E-03     53.0174E-03    -25.7149E-03    -27.3359E-03    -26.2273E-03     51.9088E-03    -25.7149E-03     18.7191E-03     48.2770E+06    -10.9417E+06    -78.4094E+06     27.0978E+06    -57.2302E+06    -10.9417E+06    -47.1456E+06         29.1093
            1781     11.6957E-03     94.7747E-03         1.85296         1.41053        -4.23257         1.40986        -4.23190         1.85296    -122.651E-03     53.2841E-03    -25.6891E-03    -27.6233E-03    -26.3210E-03     51.9818E-03    -25.6891E-03     20.2569E-03     42.4785E+06    -28.3657E+06    -82.5000E+06     17.6588E+06    -57.6803E+06    -28.3657E+06    -49.5026E+06         32.0249
            1782     12.6702E-03     94.7910E-03         1.81501         1.29201        -4.08202         1.29128        -4.08129         1.81501    -124.274E-03     54.1720E-03    -25.6474E-03    -28.5430E-03    -26.2612E-03     51.8902E-03    -25.6474E-03     26.7232E-03     37.2397E+06    -50.9478E+06    -88.8995E+06     8.02705E+06    -59.6868E+06    -50.9478E+06    -53.1471E+06         36.3081
            1783     13.6450E-03     94.8199E-03         1.77436         1.17624        -3.92787         1.17568        -3.92731         1.77436    -104.246E-03     55.7968E-03    -25.5917E-03    -30.2105E-03    -26.4352E-03     52.0216E-03    -25.5917E-03     35.0590E-03     26.6230E+06    -78.8942E+06    -97.7314E+06    -883.201E+03    -68.4440E+06    -80.6753E+06    -50.9934E+06         42.0491
            1784     14.6190E-03     94.8516E-03         1.73245         1.06718        -3.78074         1.06652        -3.78008         1.73245    -105.316E-03     77.1473E-03    -25.5361E-03    -51.5984E-03    -27.3364E-03     52.8853E-03    -25.5361E-03     93.7860E-03     29.2377E+06    -64.5143E+06    -94.1581E+06    -8.01173E+06    -29.9368E+06    -91.4863E+06    -41.6258E+06         48.8934
            1785     15.5960E-03     95.0064E-03         1.69149     953.782E-03        -3.63342     953.197E-03        -3.63283         1.69149    -91.5208E-03     165.120E-03    -25.4187E-03    -139.702E-03    -40.0582E-03     65.4763E-03    -25.4187E-03     284.608E-03     76.6089E+06    -24.7230E+06    -78.1332E+06    -9.72963E+06     61.6155E+06    -78.1332E+06    -28.4849E+06         55.9284
            1786     16.5641E-03     95.4503E-03         1.65077     827.226E-03        -3.45648     826.829E-03        -3.45608         1.65077    -75.4971E-03     212.683E-03    -25.4980E-03    -187.192E-03    -43.9496E-03     69.4401E-03    -25.4980E-03     383.427E-03     161.591E+06     26.4685E+06    -36.9427E+06    -6.42828E+06     159.296E+06     -1.7508E+06    -15.5734E+06         61.6264
            1787     974.318E-06     95.7540E-03         3.00681         1.46854        -5.39155         1.25627        -5.11344         2.94097     892.330E-03     50.8184E-03    -25.2295E-03    -25.5887E-03    -25.4380E-03     50.8065E-03    -25.3683E-03     1.30393E-03     80.8465E+06     74.5154E+06    -19.2937E+06     76.6810E+06    -18.3643E+06     77.7516E+06    -8.76657E+06         23.5137
            1788     1.95016E-03     95.7558E-03         2.19108         2.10524        -5.20034         2.13953        -5.15054         2.10698    -410.142E-03     50.6249E-03    -25.1890E-03    -25.4356E-03    -25.2237E-03     50.5798E-03    -25.3558E-03     3.45699E-03     81.1412E+06     74.6393E+06    -13.1831E+06     77.7424E+06    -10.7043E+06     75.5593E+06    -14.6074E+06         23.5652
            1789     2.92601E-03     95.7582E-03         2.13127         2.09540        -5.12748         2.10008        -5.11391         2.11302     106.410E-03     50.7370E-03    -25.2697E-03    -25.4666E-03    -25.3561E-03     50.6545E-03    -25.2977E-03     4.92347E-03     82.0932E+06     70.0653E+06    -13.8747E+06     77.9303E+06    -9.71178E+06     70.0653E+06    -19.4042E+06         23.6692
            1790     3.90090E-03     95.7600E-03         2.10203         2.03615        -5.04516         2.03084        -5.03985         2.10203    -157.471E-03     50.7207E-03    -25.2577E-03    -25.4628E-03    -25.3116E-03     50.5858E-03    -25.2740E-03     6.31311E-03     83.1064E+06     63.9714E+06    -21.2831E+06     77.5054E+06    -15.6820E+06     63.9714E+06    -23.3698E+06         23.8114
            1791     4.87650E-03     95.7635E-03         2.08303         1.98349        -4.97822         1.98102        -4.97576         2.08303    -57.4389E-03     50.8454E-03    -25.2443E-03    -25.6007E-03    -25.3751E-03     50.6361E-03    -25.2606E-03     7.91739E-03     82.7668E+06     59.7821E+06    -27.9520E+06     75.4521E+06    -20.6374E+06     59.7821E+06    -27.3953E+06         23.9699
            1792     5.85160E-03     95.7675E-03         2.06206         1.93278        -4.90772         1.93106        -4.90600         2.06206    -157.666E-03     51.0432E-03    -25.2676E-03    -25.7777E-03    -25.4439E-03     50.7094E-03    -25.2676E-03     9.99913E-03     80.3282E+06     56.4028E+06    -35.4045E+06     71.3351E+06    -26.4114E+06     56.4028E+06    -30.9036E+06         24.1384
            1793     6.82680E-03     95.7733E-03         2.03838         1.85798        -4.80916         1.85731        -4.80849         2.03838    -97.3775E-03     51.1542E-03    -25.2705E-03    -25.8820E-03    -25.3842E-03     50.6564E-03    -25.2705E-03     12.2573E-03     77.7006E+06     51.6801E+06    -43.0054E+06     66.8295E+06    -32.1343E+06     51.6801E+06    -34.4888E+06         24.3866
            1794     7.80152E-03     95.7803E-03         2.01180         1.79164        -4.72241         1.79050        -4.72127         2.01180    -169.002E-03     51.2987E-03    -25.2569E-03    -26.0425E-03    -25.3689E-03     50.6251E-03    -25.2569E-03     14.2700E-03     73.0266E+06     43.8256E+06    -51.8773E+06     61.5733E+06    -40.4240E+06     43.8256E+06    -35.9365E+06         24.8870
            1795     8.77755E-03     95.7897E-03         1.98310         1.71298        -4.62358         1.71181        -4.62241         1.98310    -161.284E-03     51.5062E-03    -25.2227E-03    -26.2929E-03    -25.4351E-03     50.6484E-03    -25.2227E-03     16.1849E-03     69.2249E+06     33.5196E+06    -54.1088E+06     56.4258E+06    -41.3097E+06     33.5196E+06    -37.3543E+06         25.7768
            1796     9.75261E-03     95.7995E-03         1.95157         1.61879        -4.50135         1.61748        -4.50004         1.95157    -170.754E-03     52.1053E-03    -25.2248E-03    -26.8899E-03    -25.7252E-03     50.9406E-03    -25.2248E-03     18.9298E-03     66.0094E+06     26.0951E+06    -58.0011E+06     51.0653E+06    -43.0569E+06     26.0951E+06    -39.9828E+06         27.0696
            1797     10.7274E-03     95.8146E-03         1.91769         1.53396        -4.38327         1.53292        -4.38223         1.91769    -155.368E-03     52.7270E-03    -25.2205E-03    -27.5273E-03    -26.1549E-03     51.3546E-03    -25.2205E-03     20.7699E-03     58.3222E+06     7.56956E+06    -68.0457E+06     42.9251E+06    -52.6486E+06     7.56956E+06    -40.9019E+06         28.9624
            1798     11.7017E-03     95.8272E-03         1.88205         1.43920        -4.25853         1.43842        -4.25775         1.88205    -132.928E-03     53.3638E-03    -25.2349E-03    -28.1458E-03    -26.5327E-03     51.7507E-03    -25.2349E-03     22.5970E-03     50.6684E+06    -11.0141E+06    -67.9822E+06     32.8474E+06    -50.1611E+06    -11.0141E+06    -41.6938E+06         31.8800
            1799     12.6757E-03     95.8453E-03         1.84316         1.30280        -4.09369         1.30195        -4.09283         1.84316    -135.019E-03     54.4091E-03    -25.2624E-03    -29.1510E-03    -26.5950E-03     51.8531E-03    -25.2624E-03     28.4993E-03     41.2702E+06    -32.8535E+06    -74.0412E+06     19.9696E+06    -52.7406E+06    -32.8535E+06    -44.2588E+06         36.1683
            1800     13.6511E-03     95.8708E-03         1.80017         1.16543        -3.91627         1.16473        -3.91557         1.80017    -116.272E-03     55.6743E-03    -25.2087E-03    -30.4535E-03    -26.3321E-03     51.5529E-03    -25.2087E-03     36.5550E-03     26.3963E+06    -71.9358E+06    -92.5630E+06     5.56279E+06    -69.9484E+06    -73.7169E+06    -44.6210E+06         41.9356
            1801     14.6251E-03     95.9086E-03         1.75493         1.04925        -3.75763         1.04860        -3.75697         1.75493    -104.907E-03     76.8062E-03    -25.1645E-03    -51.6208E-03    -27.7593E-03     52.9447E-03    -25.1645E-03     93.8148E-03     28.1717E+06    -65.9758E+06    -94.6062E+06    -5.66340E+06    -35.2907E+06    -91.4563E+06    -40.4720E+06         48.8402
            1802     15.6039E-03     96.0515E-03         1.70941     933.099E-03        -3.60035     932.553E-03        -3.59980         1.70941    -85.4527E-03     165.439E-03    -25.0717E-03    -140.355E-03    -38.9305E-03     64.0142E-03    -25.0717E-03     286.007E-03     68.3756E+06    -26.9073E+06    -74.3168E+06    -6.62424E+06     48.0925E+06    -74.3168E+06    -33.2924E+06         55.9511
            1803     16.5915E-03     96.5221E-03         1.66299     809.374E-03        -3.43089     809.192E-03        -3.43071         1.66299    -48.4364E-03     214.883E-03    -25.0648E-03    -189.811E-03    -44.5525E-03     69.6247E-03    -25.0648E-03     388.119E-03     145.853E+06     13.9634E+06    -31.1363E+06    -1.83074E+06     140.258E+06    -9.74666E+06    -19.6388E+06         61.7222
            1804     976.221E-06     96.8058E-03         2.86787         1.61684        -5.35749         1.46420        -5.17888         2.84189     740.627E-03     48.8983E-03    -24.2292E-03    -24.6683E-03    -24.3797E-03     48.8770E-03    -24.4965E-03     1.95621E-03     91.0818E+06     85.8868E+06    -3.73243E+06     88.8778E+06    -2.44834E+06     86.8068E+06    -10.1579E+06         23.3803
            1805     1.95240E-03     96.8060E-03         2.17125         2.12061        -5.16502         2.11440        -5.13283         2.14528    -352.072E-03     48.8176E-03    -24.2455E-03    -24.5717E-03    -24.3364E-03     48.7455E-03    -24.4086E-03     4.46333E-03     92.6678E+06     85.5467E+06     1.93932E+06     89.0123E+06     4.67491E+06     86.4667E+06    -15.0654E+06         23.4287
            1806     2.92845E-03     96.8094E-03         2.13156         2.10344        -5.10221         2.09539        -5.09416         2.13156     81.3655E-03     48.7777E-03    -24.3172E-03    -24.4597E-03    -24.3181E-03     48.6641E-03    -24.3452E-03     5.72900E-03     92.3482E+06     78.7322E+06    -1.91083E+06     87.0895E+06     3.34784E+06     78.7322E+06    -21.4609E+06         23.5282
            1807     3.90498E-03     96.8108E-03         2.12061         2.08383        -5.07752         2.08100        -5.07468         2.12061    -152.090E-03     48.9058E-03    -24.3118E-03    -24.5936E-03    -24.4065E-03     48.7187E-03    -24.3118E-03     7.25278E-03     91.9882E+06     71.0808E+06    -12.1702E+06     84.8234E+06    -5.00536E+06     71.0808E+06    -26.3201E+06         23.6634
            1808     4.88077E-03     96.8145E-03         2.10671         2.01853        -5.00290         2.01691        -5.00128         2.10671    -101.008E-03     49.1086E-03    -24.3202E-03    -24.7880E-03    -24.4732E-03     48.7939E-03    -24.3202E-03     9.49767E-03     91.2837E+06     68.4135E+06    -20.0569E+06     83.8600E+06    -12.6332E+06     68.4135E+06    -27.7328E+06         23.8134
            1809     5.85683E-03     96.8183E-03         2.08457         1.92768        -4.89378         1.92609        -4.89219         2.08457    -170.077E-03     49.3535E-03    -24.3383E-03    -25.0148E-03    -24.5359E-03     48.8746E-03    -24.3383E-03     11.7324E-03     90.0611E+06     66.6396E+06    -25.6967E+06     81.8120E+06    -17.4476E+06     66.6396E+06    -29.7169E+06         23.9765
            1810     6.83310E-03     96.8242E-03         2.05758         1.86455        -4.80197         1.86372        -4.80114         2.05758    -124.733E-03     49.6946E-03    -24.3655E-03    -25.3286E-03    -24.6224E-03     48.9884E-03    -24.3655E-03     14.3629E-03     85.8257E+06     63.6635E+06    -34.3599E+06     77.0597E+06    -25.5938E+06     63.6635E+06    -30.9706E+06         24.2222
            1811     7.80911E-03     96.8318E-03         2.02993         1.80886        -4.72266         1.80775        -4.72155         2.02993    -166.554E-03     50.1492E-03    -24.3882E-03    -25.7644E-03    -24.7941E-03     49.1788E-03    -24.3882E-03     16.9325E-03     80.2930E+06     56.7773E+06    -44.3705E+06     71.4787E+06    -35.5563E+06     56.7773E+06    -31.6932E+06         24.7224
            1812     8.78442E-03     96.8401E-03         2.00087         1.72619        -4.62259         1.72549        -4.62189         2.00087    -130.078E-03     50.7039E-03    -24.3715E-03    -26.3343E-03    -25.0738E-03     49.4434E-03    -24.3715E-03     19.3789E-03     76.3043E+06     41.3079E+06    -44.1098E+06     65.4050E+06    -33.2105E+06     41.3079E+06    -34.2439E+06         25.6148
            1813     9.75976E-03     96.8520E-03         1.96885         1.63222        -4.50455         1.63140        -4.50373         1.96885    -138.907E-03     51.4883E-03    -24.4243E-03    -27.0618E-03    -25.3989E-03     49.8255E-03    -24.4243E-03     22.4034E-03     70.4779E+06     32.8990E+06    -49.7571E+06     58.5896E+06    -37.8687E+06     32.8990E+06    -35.6801E+06         26.9073
            1814     10.7351E-03     96.8656E-03         1.93385         1.53233        -4.37332         1.53120        -4.37219         1.93385    -162.021E-03     52.2850E-03    -24.4728E-03    -27.8160E-03    -25.9056E-03     50.3746E-03    -24.4728E-03     24.3177E-03     64.0710E+06     16.6358E+06    -59.9045E+06     52.4391E+06    -48.2726E+06     16.6358E+06    -36.0612E+06         28.8000
            1815     11.7100E-03     96.8807E-03         1.89594         1.42237        -4.22999         1.42139        -4.22900         1.89594    -147.543E-03     53.2138E-03    -24.5501E-03    -28.6718E-03    -26.5145E-03     51.0565E-03    -24.5501E-03     26.1026E-03     57.4453E+06     547.520E+03    -59.6636E+06     45.3632E+06    -47.5816E+06     547.520E+03    -35.5160E+06         31.7213
            1816     12.6841E-03     96.8981E-03         1.85510         1.30412        -4.07796         1.30319        -4.07703         1.85510    -140.388E-03     54.9142E-03    -24.6843E-03    -30.2378E-03    -27.0714E-03     51.7478E-03    -24.6843E-03     31.9166E-03     48.0879E+06    -12.3870E+06    -59.6004E+06     35.7641E+06    -47.2766E+06    -12.3870E+06    -33.8610E+06         36.0190
            1817     13.6563E-03     96.9251E-03         1.81169         1.18573        -3.91960         1.18499        -3.91885         1.81169    -119.465E-03     56.3155E-03    -24.7022E-03    -31.6004E-03    -27.0842E-03     51.7993E-03    -24.7022E-03     38.6513E-03     32.1023E+06    -57.5428E+06    -80.6208E+06     20.3620E+06    -68.8806E+06    -57.5428E+06    -32.8783E+06         41.8230
            1818     14.6338E-03     96.9574E-03         1.76571         1.04807        -3.74636         1.04761        -3.74589         1.76571    -92.0770E-03     77.8690E-03    -24.7166E-03    -53.1327E-03    -28.6357E-03     53.3721E-03    -24.7166E-03     96.0120E-03     32.6797E+06    -56.9780E+06    -86.6096E+06     4.41421E+06    -34.1525E+06    -81.1696E+06    -32.8696E+06         48.7940
            1819     15.6033E-03     97.1113E-03         1.71688     908.843E-03        -3.55853     908.538E-03        -3.55823         1.71688    -65.2113E-03     162.273E-03    -24.7124E-03    -137.548E-03    -38.9672E-03     63.6921E-03    -24.7124E-03     279.808E-03     67.3874E+06    -24.2686E+06    -68.2653E+06    -4.16819E+06     47.2870E+06    -68.2653E+06    -36.2025E+06         55.9725
            1820     16.5904E-03     97.5412E-03         1.66486     775.623E-03        -3.37109     775.376E-03        -3.37085         1.66486    -49.7653E-03     213.245E-03    -24.8268E-03    -188.409E-03    -44.6677E-03     69.5039E-03    -24.8268E-03     384.920E-03     126.231E+06     11.8500E+06    -34.2730E+06    -5.50585E+06     117.269E+06    -7.95513E+06    -27.1295E+06         61.8093
            1821     978.074E-06     97.8536E-03         2.73632         1.70448        -5.26302         1.60903        -5.15369         2.72245     547.537E-03     46.0241E-03    -22.7305E-03    -23.2934E-03    -23.1353E-03     45.9983E-03    -22.8627E-03     2.39776E-03     103.756E+06     97.6290E+06     12.7392E+06     98.7521E+06     14.1161E+06     101.256E+06    -10.1377E+06         23.1865
            1822     1.95474E-03     97.8558E-03         2.17013         2.12615        -5.12784         2.11800        -5.10582         2.15625    -305.408E-03     46.3198E-03    -23.0264E-03    -23.2934E-03    -23.2006E-03     46.2269E-03    -23.0264E-03     4.88087E-03     102.624E+06     93.9795E+06     16.2531E+06     97.7855E+06     19.2234E+06     95.8475E+06    -15.2178E+06         23.2387
            1823     2.93225E-03     97.8571E-03         2.13868         2.09565        -5.06378         2.09059        -5.05873         2.13868     56.7145E-03     46.2919E-03    -23.0391E-03    -23.2521E-03    -23.0605E-03     46.1003E-03    -23.0391E-03     7.11509E-03     100.596E+06     88.4306E+06     12.2338E+06     95.0893E+06     17.7406E+06     88.4306E+06    -21.2462E+06         23.3336
            1824     3.90945E-03     97.8599E-03         2.12357         2.06865        -5.03066         2.06686        -5.02887         2.12357    -149.189E-03     46.4767E-03    -23.0336E-03    -23.4426E-03    -23.1402E-03     46.1743E-03    -23.0336E-03     9.01147E-03     98.1931E+06     81.4908E+06    -1.53764E+06     90.8528E+06     5.80265E+06     81.4908E+06    -26.0300E+06         23.4599
            1825     4.88718E-03     97.8626E-03         2.10636         2.00651        -4.95528         2.00546        -4.95423         2.10636    -108.182E-03     46.6539E-03    -23.0207E-03    -23.6327E-03    -23.1430E-03     46.1642E-03    -23.0207E-03     11.5061E-03     96.3216E+06     72.8623E+06    -13.1587E+06     88.1387E+06    -4.97582E+06     72.8623E+06    -28.7274E+06         23.5972
            1826     5.86471E-03     97.8673E-03         2.08398         1.93853        -4.86987         1.93712        -4.86847         2.08398    -187.953E-03     47.0043E-03    -23.0028E-03    -23.9996E-03    -23.2469E-03     46.2516E-03    -23.0028E-03     14.3730E-03     93.4684E+06     64.0012E+06    -19.6830E+06     85.0243E+06    -11.2388E+06     64.0012E+06    -29.6567E+06         23.7500
            1827     6.84144E-03     97.8728E-03         2.05937         1.88778        -4.79690         1.88676        -4.79589         2.05937    -161.368E-03     47.5664E-03    -23.0363E-03    -24.5294E-03    -23.4444E-03     46.4814E-03    -23.0363E-03     17.3354E-03     88.1955E+06     60.0976E+06    -29.9316E+06     80.9283E+06    -22.6644E+06     60.0976E+06    -28.1953E+06         23.9994
            1828     7.81877E-03     97.8805E-03         2.03320         1.81354        -4.70073         1.81227        -4.69946         2.03320    -181.302E-03     48.3145E-03    -23.0856E-03    -25.2292E-03    -23.7371E-03     46.8225E-03    -23.0856E-03     20.5193E-03     82.2741E+06     55.3124E+06    -36.5503E+06     75.3170E+06    -29.5931E+06     55.3124E+06    -27.7414E+06         24.5173
            1829     8.79545E-03     97.8904E-03         2.00365         1.72215        -4.58748         1.72091        -4.58624         2.00365    -175.256E-03     49.2868E-03    -23.1192E-03    -26.1638E-03    -24.2207E-03     47.3437E-03    -23.1192E-03     23.7059E-03     74.7680E+06     41.9177E+06    -35.6310E+06     66.9525E+06    -27.8155E+06     41.9177E+06    -28.2133E+06         25.4298
            1830     9.77167E-03     97.9014E-03         1.97073         1.62872        -4.46807         1.62742        -4.46677         1.97073    -176.108E-03     50.6149E-03    -23.2348E-03    -27.3762E-03    -24.8648E-03     48.1035E-03    -23.2348E-03     27.3483E-03     66.3158E+06     33.6703E+06    -42.2977E+06     57.6180E+06    -33.5999E+06     33.6703E+06    -29.3187E+06         26.7379
            1831     10.7470E-03     97.9171E-03         1.93429         1.51252        -4.32246         1.51104        -4.32098         1.93429    -185.379E-03     51.9295E-03    -23.3702E-03    -28.5599E-03    -25.6940E-03     49.0635E-03    -23.3702E-03     29.6709E-03     57.5872E+06     19.1101E+06    -53.3408E+06     47.9730E+06    -43.7266E+06     19.1101E+06    -31.1027E+06         28.6434
            1832     11.7213E-03     97.9322E-03         1.89437         1.40010        -4.17552         1.39892        -4.17435         1.89437    -159.722E-03     53.2553E-03    -23.5383E-03    -29.7209E-03    -26.5891E-03     50.1235E-03    -23.5383E-03     31.4533E-03     49.3303E+06     2.29564E+06    -56.4794E+06     39.6206E+06    -46.7696E+06     2.29564E+06    -30.5329E+06         31.5728
            1833     12.6956E-03     97.9512E-03         1.85245         1.30169        -4.04054         1.30070        -4.03954         1.85245    -144.439E-03     55.2568E-03    -23.7828E-03    -31.4783E-03    -27.3679E-03     51.1464E-03    -23.7828E-03     36.6609E-03     37.8178E+06    -8.71722E+06    -56.9113E+06     29.9428E+06    -49.0363E+06    -8.71722E+06    -26.0069E+06         35.8859
            1834     13.6705E-03     97.9787E-03         1.80908         1.19176        -3.89493         1.19092        -3.89410         1.80908    -126.779E-03     58.0704E-03    -23.9610E-03    -34.0945E-03    -28.7474E-03     52.7233E-03    -23.9610E-03     43.0293E-03     24.9440E+06    -46.4254E+06    -73.2312E+06     19.1217E+06    -67.4088E+06    -46.4254E+06    -22.8777E+06         41.7337
            1835     14.6388E-03     98.0119E-03         1.76294         1.05450        -3.72484         1.05391        -3.72425         1.76294    -104.758E-03     78.9351E-03    -24.1470E-03    -54.7723E-03    -29.8913E-03     54.0541E-03    -24.1470E-03     97.8421E-03     31.5489E+06    -44.9973E+06    -68.2102E+06     9.27853E+06    -28.0661E+06    -62.8711E+06    -25.0045E+06         48.7684
            1836     15.6217E-03     98.1621E-03         1.71188     902.348E-03        -3.52795     901.958E-03        -3.52756         1.71188    -66.9820E-03     164.177E-03    -24.3525E-03    -139.818E-03    -43.7701E-03     68.1291E-03    -24.3525E-03     281.473E-03     75.3934E+06    -13.3540E+06    -49.7408E+06     1.56932E+06     60.4701E+06    -49.7408E+06    -30.6679E+06         55.9997
            1837     16.5823E-03     98.6027E-03         1.65507     753.158E-03        -3.30970     752.796E-03        -3.30934         1.65507    -59.6979E-03     213.136E-03    -24.7739E-03    -188.355E-03    -46.1594E-03     70.9405E-03    -24.7739E-03     383.796E-03     114.866E+06     31.9439E+06    -29.5368E+06    -3.87000E+06     102.753E+06     18.3896E+06    -27.0458E+06         61.9018
            1838     979.053E-06     98.9007E-03         2.58269         1.74275        -5.08814         1.70852        -5.02333         2.55211     386.089E-03     42.5337E-03    -21.0992E-03    -21.4350E-03    -21.3611E-03     42.4852E-03    -21.1247E-03     3.18487E-03     111.241E+06     105.210E+06     27.9185E+06     106.979E+06     28.5530E+06     108.837E+06    -5.33434E+06         22.9275
            1839     1.95832E-03     98.9005E-03         2.16294         2.12393        -5.06042         2.14028        -5.04618         2.13235    -265.562E-03     42.6827E-03    -21.2147E-03    -21.4682E-03    -21.3023E-03     42.5423E-03    -21.2402E-03     5.76485E-03     107.015E+06     99.9797E+06     30.8529E+06     102.447E+06     33.5530E+06     101.848E+06    -12.9786E+06         22.9786
            1840     2.93772E-03     98.9028E-03         2.12776         2.09222        -5.00495         2.08860        -5.00134         2.12776    -987.031E-06     42.8749E-03    -21.2353E-03    -21.6392E-03    -21.3369E-03     42.5726E-03    -21.2353E-03     8.63773E-03     102.560E+06     92.1166E+06     26.0036E+06     97.8417E+06     30.7214E+06     92.1166E+06    -18.3437E+06         23.0686
            1841     3.91677E-03     98.9055E-03         2.11050         2.02692        -4.93672         2.02515        -4.93495         2.11050    -142.791E-03     43.1621E-03    -21.2390E-03    -21.9229E-03    -21.4396E-03     42.6788E-03    -21.2390E-03     11.0499E-03     99.7672E+06     81.6625E+06     11.0991E+06     92.8194E+06     18.0469E+06     81.6625E+06    -23.6278E+06         23.1853
            1842     4.89546E-03     98.9081E-03         2.08847         1.97634        -4.87260         1.97553        -4.87179         2.08847    -89.8254E-03     43.4094E-03    -21.2139E-03    -22.1952E-03    -21.4249E-03     42.6391E-03    -21.2139E-03     13.8720E-03     95.4521E+06     65.6749E+06    -5.71543E+06     86.8646E+06     2.87208E+06     65.6749E+06    -28.0712E+06         23.3120
            1843     5.87448E-03     98.9128E-03         2.06695         1.94661        -4.82773         1.94538        -4.82649         2.06695    -181.336E-03     43.8042E-03    -21.1740E-03    -22.6294E-03    -21.4245E-03     42.5992E-03    -21.1740E-03     17.4785E-03     87.5369E+06     50.0053E+06    -16.3657E+06     79.8181E+06    -8.64690E+06     50.0053E+06    -27.1909E+06         23.4566
            1844     6.85395E-03     98.9188E-03         2.04491         1.88112        -4.74424         1.88005        -4.74317         2.04491    -167.002E-03     44.7618E-03    -21.2058E-03    -23.5575E-03    -21.8304E-03     43.0347E-03    -21.2058E-03     21.1943E-03     78.0563E+06     43.2432E+06    -25.7950E+06     71.2145E+06    -18.9532E+06     43.2432E+06    -25.7095E+06         23.7183
            1845     7.83195E-03     98.9268E-03         2.01859         1.78993        -4.62968         1.78845        -4.62819         2.01859    -193.194E-03     45.9541E-03    -21.3322E-03    -24.6237E-03    -22.3502E-03     43.6805E-03    -21.3322E-03     24.7354E-03     69.8131E+06     45.1662E+06    -33.5870E+06     63.9446E+06    -27.7184E+06     45.1662E+06    -23.7575E+06         24.2762
            1846     8.81034E-03     98.9369E-03         1.98817         1.70500        -4.52029         1.70324        -4.51853         1.98817    -208.550E-03     47.3137E-03    -21.4660E-03    -25.8473E-03    -22.9812E-03     44.4476E-03    -21.4660E-03     28.2009E-03     61.3852E+06     41.9428E+06    -31.3809E+06     56.4641E+06    -26.4598E+06     41.9428E+06    -20.7105E+06         25.2298
            1847     9.78743E-03     98.9500E-03         1.95478         1.60984        -4.40058         1.60838        -4.39912         1.95478    -185.720E-03     49.2686E-03    -21.6669E-03    -27.6017E-03    -24.0139E-03     45.6808E-03    -21.6669E-03     32.2596E-03     53.1554E+06     35.0602E+06    -34.6135E+06     45.8018E+06    -29.6939E+06     37.4941E+06    -19.8011E+06         26.5691
            1848     10.7636E-03     98.9661E-03         1.91797         1.49625        -4.25589         1.49487        -4.25450         1.91797    -176.587E-03     51.2660E-03    -21.9328E-03    -29.3350E-03    -25.3121E-03     47.2430E-03    -21.9328E-03     34.9991E-03     43.3287E+06     26.7977E+06    -44.6548E+06     34.8341E+06    -38.5942E+06     29.2316E+06    -21.7202E+06         28.5029
            1849     11.7387E-03     98.9832E-03         1.87809         1.38969        -4.11543         1.38828        -4.11401         1.87809    -174.723E-03     53.4569E-03    -22.2351E-03    -31.2253E-03    -26.9441E-03     49.1757E-03    -22.2351E-03     37.0367E-03     30.1054E+06     11.2041E+06    -52.9165E+06     23.2900E+06    -46.2742E+06     11.3772E+06    -22.2754E+06         31.4550
            1850     12.7115E-03     99.0036E-03         1.83620         1.28601        -3.97738         1.28478        -3.97615         1.83620    -159.633E-03     56.1875E-03    -22.6239E-03    -33.5652E-03    -28.5731E-03     51.1954E-03    -22.6239E-03     41.0819E-03     18.6623E+06    -6.00271E+06    -58.6805E+06     13.5284E+06    -53.7197E+06    -5.82958E+06    -18.6598E+06         35.7939
            1851     13.6829E-03     99.0316E-03         1.79220         1.16550        -3.82243         1.16443        -3.82137         1.79220    -143.033E-03     59.8856E-03    -23.0008E-03    -36.8737E-03    -30.5306E-03     53.5425E-03    -23.0008E-03     47.8268E-03     14.7919E+06    -37.5284E+06    -67.4363E+06     9.01046E+06    -61.6548E+06    -37.5284E+06    -20.8394E+06         41.6838
            1852     14.6547E-03     99.0723E-03         1.74508         1.04016        -3.65904         1.03923        -3.65811         1.74508    -128.604E-03     79.5146E-03    -23.4711E-03    -56.0349E-03    -32.7291E-03     56.2088E-03    -23.4711E-03     97.6554E-03     28.5053E+06    -33.9782E+06    -49.9574E+06     7.58074E+06    -22.0879E+06    -40.9230E+06    -24.3513E+06         48.7628
            1853     15.6216E-03     99.2079E-03         1.69201     903.141E-03        -3.47123     902.574E-03        -3.47066         1.69201    -81.7467E-03     168.062E-03    -23.8880E-03    -144.174E-03    -46.7001E-03     70.5879E-03    -23.8880E-03     287.291E-03     80.1294E+06    -8.33869E+06    -24.4426E+06     2.13479E+06     69.1689E+06    -23.9556E+06    -24.9694E+06         56.0401
            1854     16.5985E-03     99.6824E-03         1.63149     743.543E-03        -3.24209     743.304E-03        -3.24185         1.63149    -50.0570E-03     210.070E-03    -24.4592E-03    -185.607E-03    -47.5019E-03     71.9652E-03    -24.4592E-03     377.019E-03     115.221E+06     33.9249E+06    -15.1907E+06    -1.35303E+06     92.8813E+06     42.4266E+06    -22.1100E+06         61.9957
            1855     981.461E-06     99.9402E-03         2.43056         1.82061        -4.95060         1.80101        -4.91430         2.41385     301.328E-03     37.8923E-03    -18.7344E-03    -19.1585E-03    -19.0566E-03     37.8159E-03    -18.7598E-03     3.93430E-03     106.136E+06     97.7492E+06     36.2161E+06     103.472E+06     37.0251E+06     99.6045E+06    -5.33599E+06         22.5964
            1856     1.96328E-03     99.9425E-03         2.11997         2.07746        -4.92123         2.08658        -4.91362         2.10325    -211.602E-03     38.1499E-03    -18.8678E-03    -19.2826E-03    -19.0437E-03     37.9365E-03    -18.8933E-03     6.77284E-03     102.125E+06     93.2123E+06     44.2833E+06     100.213E+06     46.1950E+06     93.2123E+06    -9.16212E+06         22.6429
            1857     2.94398E-03     99.9439E-03         2.09402         2.06579        -4.89620         2.06401        -4.89442         2.09402    -25.7007E-03     38.4501E-03    -18.9163E-03    -19.5340E-03    -19.0935E-03     38.0097E-03    -18.9163E-03     9.85651E-03     96.9054E+06     83.6780E+06     38.0798E+06     92.7715E+06     42.2138E+06     83.6780E+06    -13.7284E+06         22.7235
            1858     3.92550E-03     99.9471E-03         2.07952         2.00547        -4.84348         2.00433        -4.84234         2.07952    -107.446E-03     38.6803E-03    -18.8951E-03    -19.7859E-03    -19.0272E-03     37.9216E-03    -18.8951E-03     12.9907E-03     91.9261E+06     68.5246E+06     23.4431E+06     84.9429E+06     30.4263E+06     68.5246E+06    -20.3332E+06         22.8302
            1859     4.90669E-03     99.9497E-03         2.05986         1.95929        -4.78649         1.95830        -4.78551         2.05986    -100.019E-03     39.2210E-03    -18.8714E-03    -20.3500E-03    -19.1571E-03     38.0281E-03    -18.8714E-03     16.4415E-03     82.2262E+06     50.9020E+06     1.49652E+06     74.7024E+06     9.02031E+06     50.9020E+06    -23.4045E+06         22.9564
            1860     5.88820E-03     99.9536E-03         2.03890         1.91224        -4.72710         1.91097        -4.72583         2.03890    -175.605E-03     40.0932E-03    -18.8848E-03    -21.2079E-03    -19.4123E-03     38.2976E-03    -18.8848E-03     20.4627E-03     68.1320E+06     36.1916E+06    -13.6553E+06     62.2636E+06    -7.78689E+06     36.1916E+06    -20.9702E+06         23.1098
            1861     6.86894E-03     99.9604E-03         2.01492         1.83238        -4.62712         1.83147        -4.62621         2.01492    -149.861E-03     41.3262E-03    -18.9774E-03    -22.3500E-03    -19.8302E-03     38.8064E-03    -18.9774E-03     24.6372E-03     54.7574E+06     31.2877E+06    -21.5969E+06     50.0295E+06    -16.8691E+06     31.2877E+06    -18.2693E+06         23.4017
            1862     7.84944E-03     99.9697E-03         1.98725         1.76072        -4.52742         1.75912        -4.52583         1.98725    -198.423E-03     43.0446E-03    -19.1565E-03    -23.8896E-03    -20.6124E-03     39.7674E-03    -19.1565E-03     28.6899E-03     43.3313E+06     30.6813E+06    -31.7227E+06     38.4754E+06    -27.5987E+06     31.4132E+06    -16.8225E+06         24.0171
            1863     8.82829E-03     99.9805E-03         1.95690         1.67572        -4.41936         1.67397        -4.41760         1.95690    -206.090E-03     45.1776E-03    -19.3890E-03    -25.7890E-03    -21.7099E-03     41.0984E-03    -19.3890E-03     32.8493E-03     36.2284E+06     24.7145E+06    -32.4815E+06     28.5844E+06    -29.8565E+06     29.7334E+06    -12.0552E+06         25.0255
            1864     9.80681E-03     99.9953E-03         1.92305         1.57098        -4.28825         1.56947        -4.28674         1.92305    -184.939E-03     47.8059E-03    -19.7287E-03    -28.0778E-03    -23.1730E-03     42.9011E-03    -19.7287E-03     37.1841E-03     36.1744E+06     17.8248E+06    -29.0386E+06     19.5206E+06    -27.3041E+06     32.7441E+06    -8.61036E+06         26.4070
            1865     10.7836E-03     100.013E-03         1.88630         1.47974        -4.16906         1.47800        -4.16732         1.88630    -194.396E-03     50.7044E-03    -20.1666E-03    -30.5391E-03    -25.3111E-03     45.4764E-03    -20.1666E-03     39.7836E-03     31.0663E+06     12.4447E+06    -36.0400E+06     10.2105E+06    -33.1620E+06     30.4225E+06    -11.2410E+06         28.3812
            1866     11.7579E-03     100.033E-03         1.84757         1.37751        -4.03783         1.37591        -4.03624         1.84757    -183.374E-03     53.7550E-03    -20.6854E-03    -33.0757E-03    -27.8415E-03     48.5208E-03    -20.6854E-03     41.3028E-03     17.3300E+06     5.54317E+06    -49.3824E+06     2.85190E+06    -46.0473E+06     16.6862E+06    -13.0130E+06         31.3698
            1867     12.7299E-03     100.057E-03         1.80599         1.25109        -3.87685         1.24982        -3.87558         1.80599    -160.488E-03     57.6804E-03    -21.3033E-03    -36.3842E-03    -30.6185E-03     51.9147E-03    -21.3033E-03     45.1106E-03     10.7787E+06    -2.78571E+06    -56.9524E+06     1.23651E+06    -51.2075E+06     1.01162E+06    -16.5834E+06         35.7429
            1868     13.6995E-03     100.088E-03         1.76106         1.12300        -3.71555         1.12177        -3.71432         1.76106    -153.951E-03     62.3255E-03    -21.9597E-03    -40.3652E-03    -33.5594E-03     55.5197E-03    -21.9597E-03     51.0542E-03     12.6015E+06    -25.9827E+06    -60.9236E+06     3.11423E+06    -51.4363E+06    -25.9827E+06    -23.5667E+06         41.6629
            1869     14.6658E-03     100.130E-03         1.71268         1.00351        -3.55433         1.00226        -3.55308         1.71268    -150.402E-03     81.3743E-03    -22.7712E-03    -58.6004E-03    -37.0327E-03     59.8066E-03    -22.7712E-03     97.1017E-03     23.5748E+06    -27.5080E+06    -43.1436E+06     2.61840E+06    -22.1872E+06    -27.5080E+06    -25.8319E+06         48.7557
            1870     15.6350E-03     100.271E-03         1.65750     885.407E-03        -3.37737     884.629E-03        -3.37659         1.65750    -101.974E-03     166.401E-03    -23.4033E-03    -142.998E-03    -47.3912E-03     70.7942E-03    -23.4033E-03     282.467E-03     82.1378E+06    -7.32979E+06    -16.2053E+06     714.836E+03     70.6794E+06    -12.7915E+06    -22.7166E+06         56.0527
            1871     16.6095E-03     100.734E-03         1.59397     740.547E-03        -3.16854     740.422E-03        -3.16842         1.59397    -39.4988E-03     206.666E-03    -24.0985E-03    -182.565E-03    -49.2021E-03     73.3033E-03    -24.0985E-03     369.389E-03     118.230E+06     23.0168E+06    -8.57958E+06     296.344E+03     86.8045E+06     45.5662E+06    -16.8876E+06         62.0273
            1872     984.510E-06     100.978E-03         2.31357         1.85646        -4.84273         1.84222        -4.82489         2.30997     185.919E-03     32.5153E-03    -15.9908E-03    -16.5247E-03    -16.3780E-03     32.4206E-03    -16.0428E-03     4.01973E-03     98.0191E+06     90.1341E+06     44.7496E+06     93.8927E+06     45.5107E+06     93.4995E+06    -3.70391E+06         22.2033
            1873     1.96793E-03     100.978E-03         2.06899         2.02307        -4.77700         2.02253        -4.77287         2.06539    -195.011E-03     32.7870E-03    -16.1593E-03    -16.6280E-03    -16.3273E-03     32.4863E-03    -16.1593E-03     7.38837E-03     90.2822E+06     75.1655E+06     51.5480E+06     87.0252E+06     53.2949E+06     76.6755E+06    -6.35361E+06         22.2415
            1874     2.95238E-03     100.981E-03         2.04639         1.99806        -4.73905         1.99726        -4.73824         2.04639    -50.6353E-03     32.9466E-03    -16.1248E-03    -16.8219E-03    -16.1806E-03     32.3053E-03    -16.1248E-03     10.9892E-03     83.3613E+06     63.5333E+06     46.6808E+06     79.6374E+06     51.4404E+06     62.4977E+06    -9.54887E+06         22.3113
            1875     3.93616E-03     100.982E-03         2.03084         1.97374        -4.71563         1.97300        -4.71489         2.03084    -119.558E-03     33.3605E-03    -16.0979E-03    -17.2633E-03    -16.1710E-03     32.2683E-03    -16.0979E-03     14.5128E-03     73.1904E+06     52.8553E+06     33.0351E+06     68.4242E+06     38.8368E+06     51.8197E+06    -12.6692E+06         22.4152
            1876     4.92086E-03     100.986E-03         2.01497         1.93183        -4.66504         1.93039        -4.66361         2.01497    -161.079E-03     34.3947E-03    -16.1305E-03    -18.2649E-03    -16.5641E-03     32.6939E-03    -16.1305E-03     18.4182E-03     55.1936E+06     37.9514E+06     6.99959E+06     51.3758E+06     10.8174E+06     37.9514E+06    -12.0599E+06         22.5530
            1877     5.90370E-03     100.990E-03         1.99460         1.85631        -4.57848         1.85470        -4.57687         1.99460    -193.941E-03     35.9285E-03    -16.2334E-03    -19.6942E-03    -17.2102E-03     33.4445E-03    -16.2334E-03     22.7678E-03     36.2387E+06     24.6841E+06    -11.0339E+06     33.7534E+06    -8.58581E+06     24.7213E+06    -9.21715E+06         22.7366
            1878     6.88651E-03     100.998E-03         1.96940         1.78602        -4.49254         1.78496        -4.49147         1.96940    -158.260E-03     37.5669E-03    -16.4004E-03    -21.1651E-03    -17.7402E-03     34.1420E-03    -16.4004E-03     27.3316E-03     23.0568E+06     13.5100E+06    -18.9080E+06     18.7419E+06    -17.2472E+06     16.1642E+06    -6.08006E+06         23.0819
            1879     7.86891E-03     101.008E-03         1.94189         1.72159        -4.40490         1.71997        -4.40328         1.94189    -197.491E-03     39.8289E-03    -16.6674E-03    -23.1612E-03    -18.7362E-03     35.4039E-03    -16.6674E-03     32.0508E-03     19.2199E+06     5.40102E+06    -28.1392E+06     6.43839E+06    -26.5442E+06     16.5875E+06    -5.04517E+06         23.7625
            1880     8.85028E-03     101.021E-03         1.91128         1.62224        -4.28020         1.62071        -4.27867         1.91128    -189.350E-03     42.8009E-03    -17.0451E-03    -25.7564E-03    -20.4467E-03     37.4912E-03    -17.0451E-03     36.5647E-03     20.4478E+06    -47.8529E+03    -35.3484E+06    -916.684E+03    -34.4795E+06     20.4478E+06    -4.16129E+06         24.8281
            1881     9.82900E-03     101.037E-03         1.87674         1.52514        -4.15701         1.52349        -4.15536         1.87674    -191.557E-03     46.6303E-03    -17.5474E-03    -29.0851E-03    -22.8455E-03     40.3906E-03    -17.5474E-03     41.5771E-03     27.1418E+06    -2.46425E+06    -27.6677E+06    -2.83276E+06    -27.2992E+06     27.1418E+06    -1.93730E+06         26.2580
            1882     10.8055E-03     101.059E-03         1.84029         1.44759        -4.05000         1.44531        -4.04771         1.84029    -223.743E-03     50.7611E-03    -18.2131E-03    -32.5512E-03    -26.0854E-03     44.2953E-03    -18.2131E-03     44.4883E-03     30.0666E+06    -3.55086E+06    -29.6359E+06    -4.45937E+06    -28.7274E+06     30.0666E+06    -2.62620E+06         28.2797
            1883     11.7780E-03     101.083E-03         1.80225         1.34338        -3.91870         1.34159        -3.91691         1.80225    -190.195E-03     54.8027E-03    -19.0097E-03    -35.7975E-03    -29.6616E-03     48.6668E-03    -19.0097E-03     45.4987E-03     20.8562E+06    -873.914E+03    -43.5749E+06    -4.75915E+06    -39.6897E+06     20.8562E+06    -9.61472E+06         31.3111
            1884     12.7482E-03     101.110E-03         1.76097         1.21383        -3.75728         1.21232        -3.75577         1.76097    -170.066E-03     59.8940E-03    -19.9178E-03    -39.9771E-03    -33.5764E-03     53.4932E-03    -19.9178E-03     48.9153E-03     13.3905E+06    -922.157E+03    -49.1763E+06    -1.50563E+06    -40.0729E+06     4.87056E+06    -19.7701E+06         35.7166
            1885     13.7139E-03     101.147E-03         1.71604         1.08361        -3.59393         1.08218        -3.59249         1.71604    -161.533E-03     66.0391E-03    -20.9596E-03    -45.0769E-03    -38.1088E-03     59.0709E-03    -20.9596E-03     53.8720E-03     10.8068E+06    -19.4746E+06    -56.9745E+06    -729.487E+03    -45.4382E+06    -19.4746E+06    -25.3035E+06         41.6437
            1886     14.6754E-03     101.193E-03         1.66727     960.115E-03        -3.43279     958.903E-03        -3.43158         1.66727    -144.866E-03     84.9381E-03    -22.2000E-03    -62.7304E-03    -43.2663E-03     65.4739E-03    -22.2000E-03     96.2448E-03     20.2282E+06    -21.2692E+06    -41.8175E+06    -1.14030E+06    -20.4490E+06    -21.2692E+06    -25.9450E+06         48.7080
            1887     15.6339E-03     101.334E-03         1.61065     839.872E-03        -3.25901     839.109E-03        -3.25825         1.61065    -95.2437E-03     159.759E-03    -23.2077E-03    -136.545E-03    -50.0062E-03     73.2206E-03    -23.2077E-03     264.452E-03     80.4160E+06    -5.64299E+06    -19.7362E+06     37.9081E+03     68.0764E+06    -13.0775E+06    -23.2950E+06         55.9678
            1888     16.6077E-03     101.774E-03         1.54440     709.419E-03        -3.06846     709.355E-03        -3.06840         1.54440    -29.1104E-03     203.506E-03    -24.0719E-03    -179.440E-03    -48.8287E-03     72.8951E-03    -24.0719E-03     363.002E-03     106.149E+06     12.5981E+06    -9.14841E+06     1.22338E+06     75.9839E+06     32.3909E+06    -14.3864E+06         61.9220
            1889     986.916E-06     102.007E-03         2.15917         1.85895        -4.65645         1.85713        -4.64787         2.15241     102.763E-03     26.6810E-03    -13.1672E-03    -13.5139E-03    -13.1348E-03     26.5510E-03    -13.4162E-03     4.19175E-03     83.5341E+06     77.8098E+06     48.7264E+06     81.1558E+06     49.5946E+06     79.3198E+06     1.63159E+06         21.7720
            1890     1.97403E-03     102.009E-03         2.00460         1.96649        -4.62292         1.97082        -4.62049         1.99784    -174.010E-03     26.6800E-03    -13.1428E-03    -13.5371E-03    -13.0959E-03     26.2789E-03    -13.1829E-03     7.69194E-03     75.9834E+06     64.1776E+06     55.1532E+06     71.2223E+06     58.5063E+06     65.5855E+06    -443.556E+03         21.7996
            1891     2.96112E-03     102.010E-03         1.98142         1.92485        -4.55894         1.92416        -4.55825         1.98142    -90.9165E-03     26.8890E-03    -13.0391E-03    -13.8495E-03    -13.0059E-03     26.0454E-03    -13.0391E-03     11.3954E-03     66.3320E+06     48.3635E+06     41.8115E+06     58.5005E+06     56.0053E+06     42.0012E+06    -3.78603E+06         21.8661
            1892     3.94890E-03     102.013E-03         1.96489         1.91142        -4.53357         1.91044        -4.53259         1.96489    -154.762E-03     27.7216E-03    -13.0256E-03    -14.6957E-03    -13.2685E-03     26.2943E-03    -13.0256E-03     15.1182E-03     51.1929E+06     34.8706E+06     21.8068E+06     42.2913E+06     36.9687E+06     28.6103E+06    -141.736E+03         21.9811
            1893     4.93488E-03     102.015E-03         1.94939         1.86664        -4.48475         1.86525        -4.48336         1.94939    -177.632E-03     29.3294E-03    -13.1741E-03    -16.1554E-03    -13.9031E-03     27.0771E-03    -13.1741E-03     19.5225E-03     31.5194E+06     24.4628E+06     938.689E+03     24.1713E+06     8.28672E+06     24.4628E+06     5.76168E+06         22.1381
            1894     5.92128E-03     102.022E-03         1.92970         1.80131        -4.40801         1.79934        -4.40604         1.92970    -218.062E-03     31.2662E-03    -13.3670E-03    -17.8985E-03    -14.6537E-03     28.0213E-03    -13.3670E-03     24.2490E-03     14.7235E+06     12.2017E+06    -18.7414E+06     5.58318E+06    -11.3306E+06     13.9313E+06     8.23187E+06         22.3618
            1895     6.90616E-03     102.029E-03         1.90644         1.74290        -4.33764         1.74082        -4.33556         1.90644    -221.087E-03     33.7721E-03    -13.6491E-03    -20.1214E-03    -15.7473E-03     29.3979E-03    -13.6491E-03     29.3011E-03     9.47189E+06    -1.86899E+06    -24.7686E+06    -8.15588E+06    -18.4817E+06     9.47189E+06     7.68783E+06         22.7752
            1896     7.89007E-03     102.042E-03         1.88013         1.66309        -4.24179         1.66080        -4.23950         1.88013    -231.049E-03     36.8869E-03    -14.0733E-03    -22.8130E-03    -17.2661E-03     31.3400E-03    -14.0733E-03     34.5740E-03     16.1670E+06    -10.2745E+06    -27.1983E+06    -14.0870E+06    -23.3857E+06     16.1670E+06     4.83712E+06         23.5244
            1897     8.87183E-03     102.057E-03         1.84977         1.56940        -4.12727         1.56747        -4.12533         1.84977    -208.142E-03     40.6545E-03    -14.6123E-03    -26.0432E-03    -19.4868E-03     34.0981E-03    -14.6123E-03     39.6316E-03     21.9362E+06    -12.1516E+06    -33.8798E+06    -13.6380E+06    -32.3934E+06     21.9362E+06    -897.115E+03         24.6459
            1898     9.85189E-03     102.077E-03         1.81652         1.49094        -4.02104         1.48878        -4.01888         1.81652    -214.532E-03     45.7878E-03    -15.2901E-03    -30.5001E-03    -22.8038E-03     38.0915E-03    -15.2901E-03     45.8751E-03     26.3407E+06    -8.55617E+06    -30.3738E+06    -9.06411E+06    -29.8659E+06     26.3407E+06    -2.11970E+06         26.1257
            1899     10.8273E-03     102.104E-03         1.78097         1.39129        -3.89272         1.38887        -3.89030         1.78097    -224.512E-03     51.1886E-03    -16.1764E-03    -35.0136E-03    -27.0464E-03     43.2214E-03    -16.1764E-03     49.7899E-03     30.1699E+06    -2.71054E+06    -26.2299E+06    -2.98180E+06    -25.9586E+06     30.1699E+06    -728.502E+03         28.1961
            1900     11.7992E-03     102.132E-03         1.74228         1.27759        -3.75101         1.27565        -3.74907         1.74228    -196.568E-03     56.8404E-03    -17.2700E-03    -39.5694E-03    -32.0796E-03     49.3506E-03    -17.2700E-03     51.5201E-03       25.83E+06     4.22455E+06    -29.6833E+06    -146.662E+03    -25.3121E+06       25.83E+06    -8.60332E+06         31.2745
            1901     12.7649E-03     102.167E-03         1.70101         1.17632        -3.61824         1.17457        -3.61650         1.70101    -181.315E-03     63.8197E-03    -18.5511E-03    -45.2596E-03    -37.7544E-03     56.3146E-03    -18.5511E-03     55.1746E-03     17.7069E+06     2.26294E+06    -40.1074E+06    -1.01780E+06    -27.7471E+06     8.62729E+06    -21.3106E+06         35.7047
            1902     13.7266E-03     102.209E-03         1.65740         1.05743        -3.46742         1.05599        -3.46598         1.65740    -159.652E-03     71.6206E-03    -20.0567E-03    -51.5579E-03    -43.8994E-03     63.9621E-03    -20.0567E-03     59.4596E-03     11.9949E+06    -13.6386E+06    -56.3481E+06    -981.748E+03    -43.3715E+06    -13.6386E+06    -25.6493E+06         41.6010
            1903     14.6821E-03     102.264E-03         1.60956     923.042E-03        -3.29884     921.892E-03        -3.29769         1.60956    -138.826E-03     91.1875E-03    -21.7991E-03    -69.3843E-03    -50.8513E-03     72.6545E-03    -21.7991E-03     99.5583E-03     21.5290E+06    -13.2656E+06    -42.9332E+06    -2.84813E+06    -18.5561E+06    -13.2656E+06    -25.5125E+06         48.5836
            1904     15.6316E-03     102.410E-03         1.55254     792.347E-03        -3.12086     791.643E-03        -3.12015         1.55254    -96.9719E-03     155.862E-03    -23.3292E-03    -132.527E-03    -56.4776E-03     79.8127E-03    -23.3292E-03     248.450E-03     77.4597E+06    -5.54765E+06    -21.7587E+06    -5.23693E+06     66.5451E+06    -11.1549E+06    -23.3845E+06         55.7451
            1905     16.5932E-03     102.811E-03         1.48440     663.857E-03        -2.92986     663.711E-03        -2.92972         1.48440    -42.5800E-03     197.151E-03    -24.4260E-03    -172.729E-03    -45.7393E-03     70.1612E-03    -24.4260E-03     350.369E-03     97.1023E+06     3.76675E+06    -14.8963E+06    -3.07708E+06     62.3213E+06     26.7285E+06    -15.2812E+06         61.6407
            1906     989.718E-06     103.031E-03         2.00787         1.82242        -4.43458         1.82038        -4.42939         2.00471     76.4671E-03     20.3991E-03    -9.98169E-03    -10.4173E-03    -10.0627E-03     20.2415E-03    -10.1788E-03     3.99709E-03     59.4123E+06     51.3888E+06     38.3982E+06     54.3330E+06     43.4775E+06     51.3888E+06     1.19151E+06         21.3285
            1907     1.98051E-03     103.032E-03         1.90845         1.87500        -4.39532         1.87664        -4.39381         1.90529    -139.698E-03     20.4035E-03    -9.99602E-03    -10.4071E-03    -9.89233E-03     19.9289E-03    -10.0361E-03     7.37076E-03     65.1778E+06     47.1190E+06     42.6104E+06     49.9097E+06     59.3090E+06     45.6885E+06     7.02802E+06         21.3558
            1908     2.97075E-03     103.034E-03         1.89485         1.86889        -4.36887         1.86852        -4.36741         1.89377    -133.458E-03     20.9833E-03    -9.95160E-03    -11.0314E-03    -10.0529E-03     20.0048E-03    -9.95160E-03     10.8556E-03     58.2892E+06     33.0239E+06     19.6607E+06     32.3072E+06     52.2979E+06     26.3687E+06     10.9327E+06         21.4318
            1909     3.96039E-03     103.036E-03         1.88534         1.84435        -4.33805         1.84386        -4.33648         1.88426    -171.994E-03     22.2228E-03    -10.0156E-03    -12.2066E-03    -10.4867E-03     20.5028E-03    -10.0156E-03     14.8403E-03     39.9324E+06     14.7046E+06    -10.5522E+06     9.36025E+06     25.2446E+06     9.47996E+06     18.9578E+06         21.5678
            1910     4.95025E-03     103.041E-03         1.87073         1.79067        -4.27279         1.78976        -4.27189         1.87073    -137.165E-03     24.0944E-03    -10.2198E-03    -13.8739E-03    -11.1524E-03     21.3729E-03    -10.2198E-03     19.4395E-03     22.5680E+06     4.64056E+06    -29.6725E+06    -8.43913E+06     1.33459E+06     4.64056E+06     24.8802E+06         21.7483
            1911     5.93830E-03     103.047E-03         1.85261         1.74022        -4.21321         1.73872        -4.21172         1.85261    -183.113E-03     26.6360E-03    -10.5334E-03    -16.1024E-03    -12.2099E-03     22.7436E-03    -10.5334E-03     24.4880E-03     14.6214E+06     3.42070E+06    -37.2121E+06    -17.4394E+06    -10.7127E+06     8.98213E+06     22.0397E+06         22.0124
            1912     6.92601E-03     103.057E-03         1.83084         1.67080        -4.13553         1.66924        -4.13396         1.83084    -176.388E-03     30.0279E-03    -10.9591E-03    -19.0678E-03    -13.8397E-03     24.7997E-03    -10.9591E-03     30.1913E-03     16.0914E+06    -1.51919E+06    -34.4623E+06    -18.6568E+06    -17.3248E+06     16.0914E+06     15.9966E+06         22.4909
            1913     7.91071E-03     103.071E-03         1.80436         1.58298        -4.03501         1.58127        -4.03329         1.80436    -185.957E-03     33.9982E-03    -11.4977E-03    -22.4990E-03    -15.8971E-03     27.3964E-03    -11.4977E-03     36.2231E-03     22.2958E+06    -8.03984E+06    -25.0540E+06    -16.0972E+06    -16.9966E+06     22.2958E+06     8.47116E+06         23.3056
            1914     8.89438E-03     103.089E-03         1.77432         1.51049        -3.94529         1.50847        -3.94328         1.77432    -207.172E-03     38.8888E-03    -12.1826E-03    -26.7066E-03    -18.7131E-03     30.8953E-03    -12.1826E-03     42.8452E-03     25.7809E+06    -10.4735E+06    -27.1421E+06    -12.4519E+06    -25.1636E+06     25.7809E+06     140.198E+03         24.4817
            1915     9.87374E-03     103.115E-03         1.74235         1.43616        -3.84619         1.43339        -3.84342         1.74235    -240.402E-03     45.1523E-03    -13.0410E-03    -32.1132E-03    -22.6014E-03     35.6405E-03    -13.0410E-03     50.6954E-03     26.8012E+06    -7.90798E+06    -32.2804E+06    -8.96753E+06    -31.2208E+06     26.8012E+06    -3.79094E+06         26.0094
            1916     10.8503E-03     103.147E-03         1.70745         1.32905        -3.71219         1.32642        -3.70957         1.70745    -228.422E-03     51.8177E-03    -14.1088E-03    -37.7096E-03    -27.6831E-03     41.7912E-03    -14.1088E-03     56.3038E-03     26.6124E+06    -1.16609E+06    -25.3865E+06    -2.99011E+06    -23.5625E+06     26.6124E+06    -5.45445E+06         28.1226
            1917     11.8201E-03     103.184E-03         1.66886         1.21543        -3.56990         1.21327        -3.56773         1.66886    -202.370E-03     59.3587E-03    -15.4635E-03    -43.8947E-03    -34.2170E-03     49.6810E-03    -15.4635E-03     60.0252E-03     25.5272E+06     8.30382E+06    -18.1676E+06     4.03305E+06    -13.8968E+06     25.5272E+06    -9.14602E+06         31.2463
            1918     12.7841E-03     103.226E-03         1.62777         1.11977        -3.43990         1.11773        -3.43786         1.62777    -191.027E-03     68.7005E-03    -17.1340E-03    -51.5625E-03    -41.9063E-03     59.0444E-03    -17.1340E-03     65.2280E-03     17.7647E+06     6.37481E+06    -27.1351E+06     862.633E+03    -18.1294E+06     14.2711E+06    -13.9996E+06         35.6911
            1919     13.7389E-03     103.278E-03         1.58487         1.01666        -3.30620         1.01486        -3.30440         1.58487    -173.630E-03     79.1972E-03    -19.0915E-03    -60.1048E-03    -50.3209E-03     69.4133E-03    -19.0915E-03     71.0483E-03     9.27443E+06    -11.7787E+06    -51.2520E+06    -8.67923E+06    -35.0084E+06    -10.0687E+06    -22.7295E+06         41.5155
            1920     14.6866E-03     103.342E-03         1.53813     892.730E-03        -3.15171     891.113E-03        -3.15010         1.53813    -158.762E-03     98.7955E-03    -21.3117E-03    -77.4878E-03    -57.6522E-03     78.9598E-03    -21.3117E-03     108.925E-03     21.4940E+06    -9.69080E+06    -46.5355E+06    -8.30950E+06    -16.7320E+06    -9.69080E+06    -29.9061E+06         48.3662
            1921     15.6318E-03     103.493E-03         1.48167     756.727E-03        -2.97062     755.860E-03        -2.96975         1.48167    -108.465E-03     157.715E-03    -23.3204E-03    -134.396E-03    -62.9223E-03     86.2415E-03    -23.3204E-03     245.966E-03     69.6877E+06     266.888E+03    -18.3757E+06    -1.93651E+06     54.6795E+06    -1.16408E+06    -24.8292E+06         55.3863
            1922     16.5790E-03     103.871E-03         1.41382     628.813E-03        -2.77471     628.599E-03        -2.77449         1.41382    -48.7323E-03     188.379E-03    -24.6683E-03    -163.708E-03    -43.7942E-03     68.4650E-03    -24.6683E-03     331.860E-03     103.176E+06     8.58686E+06    -5.28189E+06     6.46858E+06     52.3529E+06     47.6595E+06    -10.2453E+06         61.1780
            1923     993.533E-06     104.049E-03         1.88599         1.73315        -4.19358         1.73092        -4.19096         1.88558     61.4565E-03     14.2197E-03    -6.90518E-03    -7.31426E-03    -7.15168E-03     14.0571E-03    -6.90518E-03     3.32316E-03     39.3999E+06     19.9134E+06     12.5408E+06     18.1730E+06     33.7677E+06     19.9134E+06     471.233E+03         20.9163
            1924     1.98589E-03     104.049E-03         1.80352         1.78319        -4.15491         1.78274        -4.15406         1.80311    -87.2655E-03     14.7099E-03    -7.02875E-03    -7.68081E-03    -7.16398E-03     14.1930E-03    -7.02875E-03     6.52455E-03     50.7751E+06     12.5062E+06     4.86957E+06     12.2151E+06     44.7580E+06     11.1778E+06     15.1280E+06         20.9565
            1925     2.97921E-03     104.051E-03         1.79721         1.78622        -4.14130         1.78580        -4.13980         1.79612    -136.824E-03     15.5946E-03    -7.11790E-03    -8.47684E-03    -7.39040E-03     14.5082E-03    -7.11790E-03     9.83473E-03     53.9498E+06     6.41206E+06    -16.9313E+06     1.43270E+06     36.9143E+06     5.08362E+06     28.5882E+06         21.0475
            1926     3.97159E-03     104.054E-03         1.79200         1.76611        -4.10972         1.76564        -4.10816         1.79091    -161.108E-03     17.2675E-03    -7.31528E-03    -9.95219E-03    -8.00321E-03     15.3185E-03    -7.31528E-03     13.8883E-03     39.4823E+06     2.34187E+06    -40.5767E+06    -10.4047E+06     9.31038E+06     2.34187E+06     38.3908E+06         21.2038
            1927     4.96296E-03     104.059E-03         1.78129         1.72330        -4.05335         1.72202        -4.05206         1.78129    -145.627E-03     19.5462E-03    -7.58901E-03    -11.9565E-03    -8.90758E-03     16.4973E-03    -7.58901E-03     18.5405E-03     27.8398E+06     2.01203E+06    -49.1741E+06    -18.4803E+06    -2.85401E+06     2.01203E+06     37.3186E+06         21.4083
            1928     5.95436E-03     104.068E-03         1.76585         1.66341        -3.98751         1.66118        -3.98527         1.76585    -211.208E-03     22.5374E-03    -7.99837E-03    -14.5391E-03    -10.1949E-03     18.1932E-03    -7.99837E-03     23.7772E-03     21.9396E+06     8.46961E+06    -42.5875E+06    -19.0519E+06    -6.25107E+06     13.1247E+06     28.9384E+06         21.7080
            1929     6.94268E-03     104.080E-03         1.74441         1.58415        -3.90562         1.58206        -3.90352         1.74441    -191.060E-03     26.3241E-03    -8.49889E-03    -17.8254E-03    -11.8642E-03     20.3629E-03    -8.49889E-03     30.0934E-03     21.0675E+06     5.24453E+06    -33.4367E+06    -16.7887E+06    -11.4035E+06     21.0675E+06     18.9583E+06         22.2386
            1930     7.93072E-03     104.097E-03         1.71764         1.50068        -3.81346         1.49855        -3.81134         1.71764    -195.769E-03     30.9709E-03    -9.08094E-03    -21.8891E-03    -14.1934E-03     23.2752E-03    -9.08094E-03     37.2066E-03     21.8530E+06    -1.75953E+06    -22.8792E+06    -14.3899E+06    -10.2488E+06     21.8530E+06     9.85767E+06         23.1076
            1931     8.91465E-03     104.119E-03         1.68717         1.42285        -3.72035         1.41989        -3.71739         1.68717    -236.886E-03     36.9092E-03    -9.84684E-03    -27.0619E-03    -17.5199E-03     27.3672E-03    -9.84684E-03     45.4956E-03     20.9009E+06    -8.92791E+06    -25.2526E+06    -15.0424E+06    -19.1381E+06     20.9009E+06     3.66629E+06         24.3326
            1932     9.89622E-03     104.149E-03         1.65427         1.34786        -3.62167         1.34430        -3.61812         1.65427    -262.581E-03     44.4042E-03    -10.8386E-03    -33.5670E-03    -21.9574E-03     32.7946E-03    -10.8386E-03     55.4279E-03     23.0153E+06    -8.22737E+06    -29.0281E+06    -13.5668E+06    -23.6886E+06     23.0153E+06    -4.55633E+06         25.9014
            1933     10.8720E-03     104.189E-03         1.61944         1.26643        -3.51022         1.26341        -3.50720         1.61944    -239.155E-03     52.4429E-03    -12.0668E-03    -40.3780E-03    -27.7448E-03     39.8097E-03    -12.0668E-03     63.4872E-03     23.4780E+06     2.85044E+06    -28.3116E+06    -5.75397E+06    -19.7072E+06     23.4780E+06    -12.8359E+06         28.0456
            1934     11.8426E-03     104.234E-03         1.58226         1.16624        -3.38484         1.16360        -3.38221         1.58226    -218.185E-03     61.8514E-03    -13.6223E-03    -48.2297E-03    -35.4143E-03     49.0361E-03    -13.6223E-03     70.3977E-03     23.0958E+06     9.97535E+06    -20.6253E+06     1.46027E+06    -12.1102E+06     23.0958E+06    -12.7118E+06         31.2004
            1935     12.8039E-03     104.288E-03         1.54211         1.05552        -3.24488         1.05315        -3.24251         1.54211    -201.881E-03     73.3549E-03    -15.5756E-03    -57.7796E-03    -44.8156E-03     60.3909E-03    -15.5756E-03     78.0373E-03     16.4123E+06     7.73415E+06    -24.2713E+06     3.15212E+06    -19.6893E+06     16.4123E+06    -5.86657E+06         35.6402
            1936     13.7572E-03     104.352E-03         1.49929     952.152E-03        -3.11097     950.056E-03        -3.10888         1.49929    -183.838E-03     86.2610E-03    -17.8588E-03    -68.4051E-03    -54.8503E-03     72.7061E-03    -17.8588E-03     87.2595E-03     18.7956E+06    -3.57452E+06    -33.6367E+06    -2.95085E+06    -14.2169E+06    -1.24778E+06    -12.6991E+06         41.3642
            1937     14.6988E-03     104.431E-03         1.45307     847.173E-03        -2.97540     845.530E-03        -2.97376         1.45307    -156.207E-03     106.325E-03    -20.4498E-03    -85.8777E-03    -63.2125E-03     83.6593E-03    -20.4498E-03     122.578E-03     26.2326E+06    -5.00240E+06    -41.0935E+06    -11.7345E+06    -3.12638E+06    -5.00240E+06    -30.8823E+06         48.0442
            1938     15.6403E-03     104.577E-03         1.39784     728.931E-03        -2.81043     728.092E-03        -2.80959         1.39784    -104.198E-03     159.667E-03    -22.7044E-03    -136.963E-03    -64.0312E-03     86.7348E-03    -22.7044E-03     249.191E-03     56.0687E+06    -3.71772E+06    -40.3460E+06    -17.8795E+06     33.8520E+06    -3.96755E+06    -31.5887E+06         54.8905
            1939     16.5970E-03     104.953E-03         1.33200     604.756E-03        -2.61887     604.530E-03        -2.61864         1.33200    -50.2112E-03     179.821E-03    -24.1989E-03    -155.622E-03    -45.8231E-03     70.0212E-03    -24.1989E-03     313.725E-03     94.8945E+06     1.61929E+06    -32.4660E+06    -18.4831E+06     36.4810E+06     46.0500E+06    -18.8983E+06         60.5017
            1940     995.695E-06     105.060E-03         1.74223         1.66974        -3.93228         1.67304        -3.93064         1.73730     84.0132E-03     9.11209E-03    -4.39357E-03    -4.71869E-03    -4.54461E-03     8.93802E-03    -4.39357E-03     2.73286E-03     24.8942E+06    -1.25398E+06    -18.9939E+06    -8.79229E+06     14.6926E+06    -1.25398E+06     10.9981E+06         20.5904
            1941     1.99146E-03     105.061E-03         1.71133         1.70243        -3.92452         1.70789        -3.92429         1.70564    -51.1814E-03     10.0054E-03    -4.57200E-03    -5.43352E-03    -4.89461E-03     9.46644E-03    -4.57200E-03     5.52974E-03     34.9264E+06    -7.47480E+06    -29.6705E+06    -16.0703E+06     21.3262E+06    -7.47480E+06     25.3759E+06         20.6429
            1942     2.98589E-03     105.063E-03         1.70280         1.67817        -3.88167         1.67833        -3.88106         1.70204    -84.0631E-03     11.2228E-03    -4.78525E-03    -6.43800E-03    -5.28112E-03     10.0660E-03    -4.78525E-03     8.61763E-03     40.4687E+06    -8.73580E+06    -48.0851E+06    -20.0465E+06     12.4301E+06    -8.73580E+06     39.6567E+06         20.7435
            1943     3.98079E-03     105.067E-03         1.69206         1.64784        -3.82765         1.64709        -3.82690         1.69206    -117.099E-03     13.1725E-03    -5.06335E-03    -8.10953E-03    -6.00033E-03     11.0633E-03    -5.06335E-03     12.6273E-03     33.9480E+06    -3.39412E+06    -55.9015E+06    -18.2657E+06    -3.68780E+06    -3.39412E+06     44.1966E+06         20.9096
            1944     4.97459E-03     105.074E-03         1.67978         1.62173        -3.78881         1.62036        -3.78745         1.67978    -153.423E-03     15.9312E-03    -5.42094E-03    -10.5102E-03    -7.13237E-03     12.5534E-03    -5.42094E-03     17.5620E-03     31.6153E+06     7.30548E+06    -46.3962E+06    -11.3761E+06    -3.40470E+06     7.30548E+06     38.7730E+06         21.1301
            1945     5.96587E-03     105.084E-03         1.66379         1.55858        -3.72196         1.55615        -3.71953         1.66379    -221.877E-03     19.1313E-03    -5.86994E-03    -13.2618E-03    -8.41232E-03     14.2818E-03    -5.86994E-03     23.0291E-03     28.0147E+06     16.1769E+06    -38.4796E+06    -6.53498E+06    -4.71598E+06     16.9629E+06     32.6256E+06         21.4550
            1946     6.95790E-03     105.098E-03         1.64198         1.48637        -3.64403         1.48369        -3.64135         1.64198    -230.189E-03     23.0721E-03    -6.39490E-03    -16.6775E-03    -9.95295E-03     16.3475E-03    -6.39490E-03     29.7188E-03     26.9233E+06     18.0581E+06    -29.9637E+06    -6.80962E+06    -3.12995E+06     24.9572E+06     24.3714E+06         22.0220
            1947     7.94657E-03     105.118E-03         1.61619         1.42048        -3.57067         1.41764        -3.56783         1.61619    -236.418E-03     28.1971E-03    -6.99423E-03    -21.2029E-03    -12.3045E-03     19.2986E-03    -6.99423E-03     37.8936E-03     24.3276E+06     8.77835E+06    -23.2794E+06    -10.0558E+06    -3.93050E+06     23.8128E+06     14.7609E+06         22.9298
            1948     8.93386E-03     105.144E-03         1.58702         1.33746        -3.47645         1.33391        -3.47290         1.58702    -259.131E-03     34.8894E-03    -7.77389E-03    -27.1155E-03    -15.8472E-03     23.6210E-03    -7.77389E-03     47.7402E-03     21.0637E+06    -2.48275E+06    -21.6790E+06    -10.4848E+06    -13.6769E+06     21.0637E+06      7.8074E+06         24.1915
            1949     9.91596E-03     105.180E-03         1.55464         1.26093        -3.37453         1.25728        -3.37089         1.55464    -258.364E-03     43.4445E-03    -8.80144E-03    -34.6432E-03    -20.6195E-03     29.4208E-03    -8.80144E-03     59.8484E-03     24.1650E+06    -2.43783E+06    -18.6319E+06    -10.5975E+06    -10.4723E+06     24.1650E+06    -1.67151E+06         25.7918
            1950     10.8939E-03     105.228E-03         1.52030         1.18831        -3.27584         1.18535        -3.27287         1.52030    -229.986E-03     52.8490E-03    -10.1105E-03    -42.7389E-03    -26.9560E-03     37.0661E-03    -10.1105E-03     70.7966E-03     22.8734E+06     4.33171E+06    -28.4048E+06    -14.3412E+06    -9.73194E+06     22.8734E+06    -13.4874E+06         27.9534
            1951     11.8645E-03     105.282E-03         1.48392         1.09830        -3.16391         1.09578        -3.16139         1.48392    -206.713E-03     64.0313E-03    -11.7824E-03    -52.2488E-03    -35.4815E-03     47.2639E-03    -11.7824E-03     81.4944E-03     18.3069E+06     3.34701E+06    -34.1491E+06    -14.2409E+06    -16.5612E+06     18.3069E+06    -16.5182E+06         31.1131
            1952     12.8267E-03     105.351E-03         1.44471     995.346E-03        -3.03707     992.915E-03        -3.03464         1.44471    -196.721E-03     77.2413E-03    -13.8835E-03    -63.3581E-03    -45.9559E-03     59.8391E-03    -13.8835E-03     92.2863E-03     11.5812E+06    -674.218E+03    -36.4567E+06    -7.30287E+06    -29.8280E+06     11.5812E+06    -9.26863E+06         35.5165
            1953     13.7771E-03     105.427E-03         1.40262     890.888E-03        -2.90673     888.525E-03        -2.90437         1.40262    -187.275E-03     91.4636E-03    -16.3693E-03    -75.0965E-03    -56.9402E-03     73.3074E-03    -16.3693E-03     103.619E-03     31.5804E+06     6.24060E+06    -22.6969E+06    -910.469E+03     5.93440E+06     10.1002E+06    -9.00845E+06         41.1129
            1954     14.7213E-03     105.522E-03         1.35693     787.534E-03        -2.76919     786.093E-03        -2.76775         1.35693    -139.520E-03     113.156E-03    -19.2421E-03    -93.9146E-03    -68.3210E-03     87.5619E-03    -19.2421E-03     135.852E-03     34.9197E+06     7.72249E+06    -25.1050E+06    -3.14354E+06     12.9582E+06     7.72249E+06    -17.8815E+06         47.5832
            1955     15.6541E-03     105.673E-03         1.30325     681.056E-03        -2.61927     680.378E-03        -2.61859         1.30325    -93.1992E-03     151.469E-03    -21.7640E-03    -129.704E-03    -64.9399E-03     86.7055E-03    -21.7640E-03     230.345E-03     57.6657E+06     1.02558E+06    -34.3740E+06    -9.32542E+06     33.6675E+06    -24.7694E+03    -25.5118E+06         54.1979
            1956     16.6250E-03     105.998E-03         1.23962     566.698E-03        -2.45096     566.432E-03        -2.45070         1.23962    -49.0980E-03     170.222E-03    -23.5925E-03    -146.626E-03    -50.8327E-03     74.4281E-03    -23.5925E-03     290.742E-03     98.7966E+06     7.28551E+06    -46.7264E+06    -10.7511E+06     23.2837E+06      46.823E+06    -23.2724E+06         59.5423
            1957     997.769E-06     106.067E-03         1.61669         1.58236        -3.64227         1.59489        -3.64107         1.60296     24.4677E-03     5.61224E-03    -2.62615E-03    -2.98610E-03    -2.80317E-03     5.42931E-03    -2.62615E-03     2.31449E-03     13.3101E+06    -8.29598E+06    -48.9828E+06    -16.1793E+06    -19.4934E+06    -8.29598E+06     25.8562E+06         20.3726
            1958     1.99450E-03     106.069E-03         1.61580         1.59752        -3.65184         1.61166        -3.65149         1.60131    -74.1105E-03     6.51929E-03    -2.84784E-03    -3.67142E-03    -3.12344E-03     5.97131E-03    -2.84784E-03     4.48068E-03     26.5010E+06    -4.76828E+06    -50.5384E+06    -19.7718E+06    -4.26556E+06    -4.76828E+06     36.0659E+06         20.4296
            1959     2.99165E-03     106.071E-03         1.59863         1.56345        -3.59721         1.56377        -3.59677         1.59786    -92.5847E-03     8.05945E-03    -3.08042E-03    -4.97931E-03    -3.71088E-03     6.79102E-03    -3.08042E-03     7.60338E-03     28.4479E+06    -4.89398E+06    -59.0701E+06    -18.7841E+06    -11.8381E+06    -4.89398E+06     42.9242E+06         20.5332
            1960     3.98711E-03     106.076E-03         1.58338         1.51937        -3.53438         1.51799        -3.53300         1.58338    -146.719E-03     10.3226E-03    -3.38468E-03    -6.93809E-03    -4.55848E-03     7.94302E-03    -3.38468E-03     11.8025E-03     30.3899E+06     1.87641E+06    -53.0417E+06    -12.7731E+06    -9.87869E+06     1.87641E+06     41.2663E+06         20.6977
            1961     4.98208E-03     106.084E-03         1.56711         1.49792        -3.49423         1.49602        -3.49233         1.56711    -183.695E-03     13.0362E-03    -3.74585E-03    -9.29021E-03    -5.50643E-03     9.25242E-03    -3.74585E-03     16.6758E-03     30.2277E+06     7.80723E+06    -44.9176E+06    -7.88840E+06    -6.80146E+06     7.80723E+06     37.2949E+06         20.9234
            1962     5.97715E-03     106.096E-03         1.55001         1.44863        -3.43995         1.44684        -3.43816         1.55001    -184.798E-03     16.2246E-03    -4.16897E-03    -12.0557E-03    -6.71966E-03     10.8885E-03    -4.16897E-03     22.0805E-03     28.2486E+06     12.5578E+06    -40.4944E+06    -6.09762E+06    -6.14822E+06     12.5578E+06     34.1358E+06         21.2598
            1963     6.96900E-03     106.112E-03         1.52852         1.37683        -3.36290         1.37444        -3.36051         1.52852    -208.413E-03     20.3283E-03    -4.66775E-03    -15.6605E-03    -8.24112E-03     12.9090E-03    -4.66775E-03     29.0600E-03     28.5640E+06     19.4254E+06    -31.3023E+06    -4.54623E+06     1.80786E+06     19.4254E+06     29.1928E+06         21.8413
            1964     7.96089E-03     106.135E-03         1.50358         1.32468        -3.29846         1.32183        -3.29560         1.50358    -226.922E-03     25.8159E-03    -5.27767E-03    -20.5381E-03    -10.4986E-03     15.7764E-03    -5.27767E-03     38.1345E-03     28.2984E+06     17.8801E+06    -24.1812E+06    -4.98778E+06     2.61513E+06     24.3700E+06     21.7667E+06         22.7684
            1965     8.94887E-03     106.166E-03         1.47688         1.26506        -3.22628         1.26206        -3.22328         1.47688    -231.620E-03     32.9646E-03    -6.03506E-03    -26.9296E-03    -13.8617E-03     19.8968E-03    -6.03506E-03     49.3943E-03     23.0825E+06     7.36019E+06    -19.5313E+06    -6.88177E+06    -5.28936E+06     23.0825E+06     10.9637E+06         24.0518
            1966     9.93416E-03     106.208E-03         1.44706         1.18067        -3.12836         1.17759        -3.12528         1.44706    -229.861E-03     42.2822E-03    -7.00831E-03    -35.2737E-03    -18.5990E-03     25.6075E-03    -7.00831E-03     63.6222E-03     24.3055E+06     3.29260E+06    -9.80509E+06    -5.98442E+06    -528.062E+03     24.3055E+06     1.54233E+06         25.6749
            1967     10.9139E-03     106.263E-03         1.41345         1.09333        -3.01850         1.09063        -3.01579         1.41345    -209.951E-03     52.9220E-03    -8.32111E-03    -44.6009E-03    -25.2416E-03     33.5628E-03    -8.32111E-03     77.6204E-03     30.9985E+06     6.75704E+06    -12.1510E+06    -6.45128E+06     1.05733E+06     30.9985E+06    -4.53220E+06         27.8442
            1968     11.8862E-03     106.329E-03         1.37666         1.00639        -2.90836         1.00398        -2.90595         1.37666    -193.012E-03     66.0361E-03    -10.0173E-03    -56.0191E-03    -34.6001E-03     44.6172E-03    -10.0173E-03     92.6378E-03     26.6574E+06     5.51227E+06    -29.2860E+06    -11.5653E+06    -12.2085E+06     26.6574E+06    -13.4781E+06         30.9750
            1969     12.8491E-03     106.410E-03         1.33730     920.321E-03        -2.80135     917.550E-03        -2.79858         1.33730    -201.657E-03     80.1032E-03    -12.1358E-03    -67.9668E-03    -45.4618E-03     57.5981E-03    -12.1358E-03     106.020E-03     15.0850E+06     598.441E+03    -46.5846E+06    -8.15813E+06    -35.2685E+06     12.5255E+06    -18.6641E+06         35.2999
            1970     13.8026E-03     106.504E-03         1.29560     828.041E-03        -2.68290     825.306E-03        -2.68016         1.29560    -195.794E-03     96.6450E-03    -14.7173E-03    -81.9274E-03    -58.2787E-03     72.9964E-03    -14.7173E-03     120.826E-03     38.7410E+06     12.4486E+06    -25.2333E+06     1.78196E+06     8.48291E+06     15.6914E+06    -13.5326E+06         40.7329
            1971     14.7414E-03     106.612E-03         1.25035     729.060E-03        -2.55313     727.139E-03        -2.55121         1.25035    -156.235E-03     120.827E-03    -17.8090E-03    -103.020E-03    -72.8127E-03     90.6196E-03    -17.8090E-03     152.749E-03     45.9492E+06     18.7311E+06    -13.6129E+06     8.35362E+06     23.9827E+06     18.7311E+06    -14.4425E+06         46.9460
            1972     15.6686E-03     106.785E-03         1.19857     627.613E-03        -2.41632     626.640E-03        -2.41534         1.19857    -105.531E-03     147.724E-03    -20.8262E-03    -126.897E-03    -74.0598E-03     94.8866E-03    -20.8262E-03     213.416E-03     67.2890E+06     12.7667E+06    -11.2903E+06     13.1357E+06     43.9134E+06     11.7164E+06    -18.7950E+06         53.2522
            1973     16.6075E-03     107.031E-03         1.13816     525.406E-03        -2.26973     525.110E-03        -2.26943         1.13816    -48.1149E-03     166.599E-03    -23.3272E-03    -143.267E-03    -58.7514E-03     82.0839E-03    -23.3272E-03     274.239E-03     108.998E+06     10.6950E+06    -33.1394E+06     10.8946E+06     15.5056E+06     60.1537E+06    -11.5459E+06         58.3023
            1974     998.558E-06     107.071E-03         1.50553         1.45551        -3.32610         1.46460        -3.32599         1.49633    -22.6249E-03     3.49814E-03    -1.58816E-03    -1.90996E-03    -1.68086E-03     3.26904E-03    -1.58816E-03     2.03223E-03    -10.7971E+06    -26.6915E+06    -79.0436E+06    -28.7933E+06    -62.1581E+06    -25.5808E+06     23.9966E+06         20.2424
            1975     1.99702E-03     107.073E-03         1.48514         1.45044        -3.29732         1.45908        -3.29676         1.47594    -81.5115E-03     4.24998E-03    -1.75410E-03    -2.49584E-03    -1.90681E-03     3.66095E-03    -1.75410E-03     3.72041E-03     16.4407E+06    -5.48369E+06    -66.5825E+06    -15.4486E+06    -34.6932E+06    -5.48369E+06     39.0173E+06         20.2953
            1976     2.99478E-03     107.076E-03         1.47003         1.43826        -3.26772         1.44054        -3.26676         1.46680    -130.753E-03     5.96478E-03    -1.94003E-03    -4.02484E-03    -2.50897E-03     4.44890E-03    -1.94003E-03     7.04556E-03     26.2670E+06     1.95020E+06    -62.2326E+06    -8.10187E+06    -27.8637E+06     1.95020E+06     42.7462E+06         20.3939
            1977     3.99228E-03     107.083E-03         1.46041         1.42063        -3.24354         1.42227        -3.24195         1.45717    -160.451E-03     8.27727E-03    -2.20843E-03    -6.06868E-03    -3.37222E-03     5.58082E-03    -2.20843E-03     11.1551E-03     30.5421E+06     5.83301E+06    -56.5815E+06    -8.22417E+06    -17.8152E+06     5.83301E+06     42.7757E+06         20.5483
            1978     4.98858E-03     107.092E-03         1.44477         1.37850        -3.19125         1.37667        -3.18942         1.44477    -174.019E-03     10.9286E-03    -2.55838E-03    -8.36993E-03    -4.23159E-03     6.79025E-03    -2.55838E-03     15.7892E-03     30.3281E+06     10.4412E+06    -51.2153E+06    -9.72610E+06    -11.1611E+06     10.4412E+06     40.6077E+06         20.7697
            1979     5.98326E-03     107.106E-03         1.42770         1.32688        -3.13070         1.32497        -3.12879         1.42770    -181.188E-03     14.1049E-03    -2.94483E-03    -11.1600E-03    -5.27419E-03     8.21911E-03    -2.94483E-03     21.3088E-03     27.0399E+06     13.6508E+06    -42.1121E+06    -8.74619E+06    -6.32602E+06     13.6508E+06     34.4694E+06         21.1064
            1980     6.97831E-03     107.124E-03         1.40748         1.27909        -3.07688         1.27647        -3.07427         1.40748    -211.864E-03     18.2933E-03    -3.38971E-03    -14.9036E-03    -6.78887E-03     10.1786E-03    -3.38971E-03     28.4845E-03     27.9220E+06     17.7514E+06    -28.5433E+06    -4.21707E+06     3.59586E+06     17.7514E+06     27.9438E+06         21.6890
            1981     7.97045E-03     107.149E-03         1.38493         1.22610        -3.01762         1.22313        -3.01465         1.38493    -223.023E-03     23.9822E-03    -3.95021E-03    -20.0319E-03    -8.89613E-03     12.8464E-03    -3.95021E-03     38.2234E-03     29.1614E+06     21.8848E+06    -21.2515E+06     1.93122E+06     5.25946E+06     22.6040E+06     23.9095E+06         22.6212
            1982     8.96119E-03     107.184E-03         1.35985         1.16779        -2.94770         1.16475        -2.94465         1.35985    -223.795E-03     31.3586E-03    -4.65966E-03    -26.6992E-03    -11.8982E-03     16.5576E-03    -4.65966E-03     50.5533E-03     29.9004E+06     20.9011E+06    -11.9261E+06     4.42973E+06     6.52879E+06     27.9169E+06     15.4842E+06         23.9104
            1983     9.94847E-03     107.230E-03         1.33102         1.08529        -2.85226         1.08154        -2.84851         1.33102    -239.327E-03     41.1777E-03    -5.56213E-03    -35.6152E-03    -16.2631E-03     21.8257E-03    -5.56213E-03     66.5995E-03     30.9939E+06     11.9820E+06    -2.30987E+06     2.43805E+06     7.23409E+06     30.9939E+06     4.79419E+06         25.5424
            1984     10.9309E-03     107.295E-03         1.29757     996.128E-03        -2.74880     991.976E-03        -2.74465         1.29757    -243.838E-03     52.8385E-03    -6.77095E-03    -46.0674E-03    -22.8795E-03     29.6506E-03    -6.77095E-03     83.6320E-03     36.1657E+06     8.24971E+06    -2.38088E+06     1.76929E+06     4.09954E+06     36.1657E+06     1.19031E+06         27.7011
            1985     11.9071E-03     107.369E-03         1.26065     920.191E-03        -2.65320     916.644E-03        -2.64966         1.26065    -221.224E-03     67.4515E-03    -8.38399E-03    -59.0683E-03    -32.4336E-03     40.8169E-03    -8.38399E-03     102.944E-03     39.7244E+06     13.0233E+06    -7.39260E+06     2.40919E+06     3.22155E+06     39.7244E+06    -5.98592E+06         30.7815
            1986     12.8713E-03     107.471E-03         1.22155     841.204E-03        -2.55217     838.028E-03        -2.54899         1.22155    -207.174E-03     82.3558E-03    -10.4379E-03    -71.9174E-03    -43.8940E-03     54.3324E-03    -10.4379E-03     118.572E-03     24.1023E+06     6.99608E+06    -40.8057E+06    -1.42387E+06    -29.8263E+06     21.5428E+06    -18.5145E+06         34.9995
            1987     13.8271E-03     107.569E-03         1.18000     753.141E-03        -2.43986     750.675E-03        -2.43740         1.18000    -176.449E-03     102.331E-03    -13.0265E-03    -89.3034E-03    -58.7591E-03     71.7864E-03    -13.0265E-03     140.052E-03     37.4357E+06     14.5480E+06    -38.0702E+06    -3.80497E+06     123.977E+03     17.5945E+06    -18.3902E+06         40.2102
            1988     14.7658E-03     107.718E-03         1.13469     655.953E-03        -2.31676     654.280E-03        -2.31508         1.13469    -139.794E-03     127.318E-03    -16.2030E-03    -111.116E-03    -74.4837E-03     90.6857E-03    -16.2030E-03     171.784E-03     53.5558E+06     25.6948E+06    -16.4453E+06    -1.54722E+06     38.6578E+06     25.6948E+06    -21.1622E+06         46.1074
            1989     15.6961E-03     107.884E-03         1.08416     568.833E-03        -2.19390     567.795E-03        -2.19287         1.08416    -104.688E-03     154.004E-03    -19.5242E-03    -134.483E-03    -83.5146E-03     103.036E-03    -19.5242E-03     219.382E-03     56.1698E+06     9.03877E+06    -22.8963E+06    -781.969E+03     40.2201E+06     2.87418E+06    -22.0008E+06         52.0655
            1990     16.6188E-03     108.141E-03         1.02771     485.583E-03        -2.07118     485.114E-03        -2.07071         1.02771    -63.4488E-03     165.707E-03    -22.6341E-03    -143.074E-03    -70.2536E-03     92.8864E-03    -22.6341E-03     259.846E-03     79.6870E+06    -724.991E+03    -47.1300E+06    -488.892E+03    -4.64978E+06     36.9707E+06    -7.04809E+06         56.8266
            1991     998.893E-06     108.072E-03         1.36426         1.32506        -2.96997         1.32487        -2.96979         1.36426    -415.570E-06     2.46324E-03    -1.15104E-03    -1.31225E-03    -1.13881E-03     2.30823E-03    -1.16947E-03     1.14412E-03    -66.5258E+06    -86.9969E+06    -119.638E+06    -86.9008E+06    -94.4869E+06    -91.7729E+06     11.0332E+06         20.1812
            1992     1.99799E-03     108.076E-03         1.33855         1.30626        -2.92671         1.30749        -2.92624         1.33686    -63.0677E-03     2.88761E-03    -1.20746E-03    -1.68015E-03    -1.27894E-03     2.48640E-03    -1.20746E-03     2.48913E-03    -30.7624E+06    -60.4547E+06    -99.0269E+06    -63.1529E+06    -60.7496E+06    -66.3414E+06     18.7951E+06         20.2181
            1993     2.99700E-03     108.079E-03         1.33627         1.31836        -2.94205         1.32540        -2.94121         1.32840    -98.8475E-03     4.36029E-03    -1.40433E-03    -2.95593E-03    -1.79167E-03     3.19604E-03    -1.40433E-03     5.23003E-03    -2.55933E+06    -31.2235E+06    -72.4649E+06    -32.5270E+06    -42.4973E+06    -31.2235E+06     27.8127E+06         20.2954
            1994     3.99483E-03     108.088E-03         1.33182         1.31016        -2.93564         1.31554        -2.93484         1.32564    -116.447E-03     6.29730E-03    -1.64203E-03    -4.65515E-03    -2.40706E-03     4.04921E-03    -1.64203E-03     8.81067E-03     19.4287E+06    -7.27649E+06    -60.2514E+06    -8.65374E+06    -32.1690E+06    -7.27649E+06     36.3560E+06         20.4247
            1995     4.99205E-03     108.097E-03         1.31611         1.24877        -2.86851         1.24778        -2.86752         1.31611    -124.907E-03     8.83426E-03    -1.91538E-03    -6.91874E-03    -3.11269E-03     5.02821E-03    -1.91538E-03     13.4628E-03     37.8730E+06     11.9625E+06    -48.7492E+06     5.35442E+06    -16.2306E+06     11.9625E+06     39.6273E+06         20.6296
            1996     5.98911E-03     108.113E-03         1.29879         1.19823        -2.80907         1.19635        -2.80719         1.29879    -169.794E-03     12.1792E-03    -2.22109E-03    -9.95790E-03    -4.15103E-03     6.37238E-03    -2.22109E-03     19.4741E-03     39.9151E+06     20.3705E+06    -36.5769E+06     9.53770E+06    -6.19952E+06     20.3705E+06     36.1207E+06         20.9685
            1997     6.98399E-03     108.132E-03         1.27994         1.17537        -2.77569         1.17278        -2.77310         1.27994    -199.995E-03     16.5135E-03    -2.60912E-03    -13.9041E-03    -5.65767E-03     8.26700E-03    -2.60912E-03     27.0367E-03     36.1809E+06     22.4571E+06    -30.8033E+06     2.77084E+06     2.60680E+06     22.4571E+06     32.9295E+06         21.5615
            1998     7.97803E-03     108.161E-03         1.25959         1.11771        -2.71520         1.11427        -2.71176         1.25959    -224.047E-03     22.1133E-03    -3.10956E-03    -19.0039E-03    -7.54573E-03     10.6551E-03    -3.10956E-03     36.8623E-03     34.1691E+06     24.3645E+06    -27.5178E+06    -3.66399E+06     10.3153E+06     24.3645E+06     25.5690E+06         22.4925
            1999     8.97019E-03     108.197E-03         1.23476         1.04355        -2.63040         1.03961        -2.62646         1.23476    -237.674E-03     29.6107E-03    -3.74115E-03    -25.8701E-03    -10.0907E-03     13.8313E-03    -3.74115E-03     50.0301E-03     35.7842E+06     26.1329E+06    -12.7453E+06     444.349E+03     17.2224E+06     31.5050E+06     13.6149E+06         23.7670
            2000     9.95902E-03     108.251E-03         1.20558     974.839E-03        -2.54705     970.554E-03        -2.54277         1.20558    -243.499E-03     39.6148E-03    -4.54548E-03    -35.0691E-03    -13.8554E-03     18.4012E-03    -4.54548E-03     67.3165E-03     39.3760E+06     20.3283E+06    -1.30028E+06     7.37423E+06     11.6538E+06     39.3760E+06     7.60315E+06         25.3804
            2001     10.9453E-03     108.318E-03         1.17299     906.639E-03        -2.46728     902.106E-03        -2.46274         1.17299    -246.177E-03     52.5248E-03    -5.59126E-03    -46.9329E-03    -20.1513E-03     25.7432E-03    -5.59126E-03     88.1139E-03     41.9968E+06     15.3372E+06    -2.82837E+06     8.11244E+06     4.39641E+06     41.9968E+06     5.46374E+06         27.4923
            2002     11.9221E-03     108.411E-03         1.13737     834.886E-03        -2.38274     831.200E-03        -2.37905         1.13737    -216.551E-03     67.7221E-03    -7.00149E-03    -60.7209E-03    -28.8716E-03     35.8727E-03    -7.00149E-03     110.744E-03     46.3921E+06     24.6497E+06    -1.65187E+06     6.02831E+06     16.9695E+06     46.3921E+06    -244.613E+03         30.4926
            2003     12.8944E-03     108.517E-03         1.09900     760.037E-03        -2.28968     756.367E-03        -2.28601         1.09900    -209.212E-03     84.7779E-03    -8.91282E-03    -75.8651E-03    -41.5175E-03     50.4303E-03    -8.91282E-03     131.264E-03     33.1093E+06     18.2691E+06    -35.8972E+06     2.06379E+06    -19.6919E+06     33.1093E+06    -9.10949E+06         34.5661
            2004     13.8490E-03     108.644E-03         1.05770     680.948E-03        -2.18341     678.081E-03        -2.18054         1.05770    -175.264E-03     107.027E-03    -11.4107E-03    -95.6155E-03    -57.6252E-03     69.0364E-03    -11.4107E-03     157.988E-03     45.2735E+06     21.1761E+06    -40.6014E+06    -2.68089E+06     1.27118E+06     27.2579E+06    -14.8665E+06         39.4961
            2005     14.7930E-03     108.806E-03         1.01258     586.131E-03        -2.06288     584.636E-03        -2.06138         1.01258    -124.296E-03     131.631E-03    -14.5096E-03    -117.121E-03    -73.0306E-03     87.5406E-03    -14.5096E-03     189.743E-03     60.8734E+06     34.6252E+06    -13.3449E+06    -6.82051E+06     52.1513E+06     36.8229E+06    -19.0629E+06         45.0404
            2006     15.7210E-03     108.997E-03     962.523E-03     499.753E-03        -1.94646     498.456E-03        -1.94516     962.523E-03    -110.490E-03     160.530E-03    -17.8458E-03    -142.691E-03    -85.8768E-03     103.716E-03    -17.8458E-03     236.232E-03     41.9817E+06     10.5108E+06    -28.1388E+06    -14.5151E+06     32.3250E+06     6.54385E+06    -18.6243E+06         50.6417
            2007     16.6444E-03     109.256E-03     908.879E-03     428.551E-03        -1.84138     427.865E-03        -1.84070     908.879E-03    -71.1825E-03     168.202E-03    -21.3655E-03    -146.844E-03    -84.8048E-03     106.163E-03    -21.3655E-03     249.650E-03     50.0990E+06    -3.92025E+06    -62.6819E+06    -11.9560E+06    -25.2433E+06     20.6961E+06    -11.9645E+06         55.0940
            2008     998.157E-06     109.076E-03         1.21910         1.17963        -2.58793         1.20372        -2.58755         1.19462     36.4658E-03     3.19241E-03    -1.53987E-03    -1.65261E-03    -1.61564E-03     3.17545E-03    -1.55988E-03     120.188E-06    -99.7203E+06    -145.628E+06    -158.148E+06    -145.200E+06    -101.560E+06    -156.736E+06    -343.700E+03         20.2100
            2009     1.99635E-03     109.077E-03         1.21547         1.19142        -2.60602         1.20627        -2.60571         1.20030    -35.6028E-03     3.32093E-03    -1.53849E-03    -1.78248E-03    -1.67195E-03     3.21040E-03    -1.53849E-03     1.11020E-03    -64.3472E+06    -141.424E+06    -152.532E+06    -140.493E+06    -65.9965E+06    -151.813E+06    -7.50487E+06         20.2315
            2010     2.99420E-03     109.083E-03         1.20538         1.18610        -2.59881         1.19090        -2.59789         1.19966    -93.3361E-03     3.88773E-03    -1.64657E-03    -2.24116E-03    -1.79318E-03     3.43975E-03    -1.64657E-03     2.93270E-03    -43.9283E+06    -121.616E+06    -135.627E+06    -117.385E+06    -55.3521E+06    -128.434E+06    -4.96629E+06         20.2768
            2011     3.99261E-03     109.090E-03         1.19514         1.15109        -2.56373         1.15310        -2.56280         1.19220    -112.405E-03     4.83214E-03    -1.74122E-03    -3.09098E-03    -1.94286E-03     3.68402E-03    -1.74122E-03     5.39457E-03    -18.6792E+06    -89.3449E+06    -121.526E+06    -81.5818E+06    -45.9026E+06    -102.065E+06     3.93261E+06         20.3618
            2012     4.99132E-03     109.102E-03         1.17951         1.11899        -2.52546         1.11796        -2.52443         1.17951    -118.654E-03     6.57154E-03    -1.86219E-03    -4.70926E-03    -2.32289E-03     4.18517E-03    -1.86219E-03     9.09061E-03     8.45764E+06    -50.7359E+06    -96.4768E+06    -43.3068E+06    -25.8521E+06    -69.5962E+06     12.7114E+06         20.5347
            2013     5.98888E-03     109.117E-03         1.16420         1.08410        -2.48767         1.08171        -2.48527         1.16420    -180.598E-03     9.49729E-03    -2.10708E-03    -7.38994E-03    -3.23255E-03     5.33990E-03    -2.10708E-03     14.5037E-03     21.0432E+06    -17.4593E+06    -58.3906E+06    -10.9195E+06    -12.8769E+06    -31.0102E+06     21.7185E+06         20.8774
            2014     6.98561E-03     109.140E-03         1.14652         1.04208        -2.44013         1.03845        -2.43649         1.14652    -223.001E-03     13.8093E-03    -2.49293E-03    -11.3160E-03    -4.55499E-03     7.04837E-03    -2.49293E-03     22.2638E-03     37.6561E+06     12.7916E+06    -32.4425E+06     13.7311E+06    -5.11134E+06     9.38551E+06     29.6240E+06         21.4814
            2015     7.98011E-03     109.170E-03         1.12583     989.678E-03        -2.37889     985.680E-03        -2.37489         1.12583    -230.478E-03     19.6681E-03    -2.94612E-03    -16.7218E-03    -6.34400E-03     9.29031E-03    -2.94612E-03     32.8558E-03     59.3348E+06     38.0032E+06    -20.8794E+06     23.2742E+06     15.1812E+06     38.0032E+06     30.9226E+06         22.3949
            2016     8.97254E-03     109.211E-03         1.10145     926.153E-03        -2.31143     921.487E-03        -2.30676         1.10145    -242.921E-03     27.2387E-03    -3.46181E-03    -23.7768E-03    -8.64690E-03     12.1088E-03    -3.46181E-03     46.5969E-03     53.9878E+06     40.3308E+06    -16.2599E+06     9.74386E+06     25.2661E+06     43.0486E+06     24.9029E+06         23.6270
            2017     9.96456E-03     109.265E-03         1.07393     877.016E-03        -2.25329     872.430E-03        -2.24871         1.07393    -237.933E-03     37.2500E-03    -4.13210E-03    -33.1176E-03    -11.9650E-03     16.0974E-03    -4.13210E-03     64.5255E-03     41.8663E+06     28.5654E+06    -20.7371E+06    -8.48473E+06     17.0273E+06     41.1520E+06     14.8589E+06         25.1826
            2018     10.9517E-03     109.342E-03         1.04379     820.179E-03        -2.17849     815.958E-03        -2.17427         1.04379    -222.156E-03     50.4477E-03    -4.99119E-03    -45.4562E-03    -16.9929E-03     21.9844E-03    -4.99119E-03     87.5875E-03     42.7951E+06     24.7090E+06    -19.5073E+06    -7.34460E+06     12.5462E+06     42.7951E+06     1.82535E+06         27.1978
            2019     11.9359E-03     109.440E-03         1.00964     736.702E-03        -2.08614     732.599E-03        -2.08204         1.00964    -211.184E-03     66.1023E-03    -6.15320E-03    -59.9494E-03    -24.8371E-03     30.9900E-03    -6.15320E-03     112.892E-03     49.4623E+06     31.7725E+06    -9.85048E+06     4.52814E+06     17.3939E+06     49.4623E+06    -300.987E+03         30.0404
            2020     12.9097E-03     109.561E-03     971.064E-03     661.486E-03        -1.99767     656.783E-03        -1.99297     971.064E-03    -219.561E-03     85.6906E-03    -7.83271E-03    -77.8582E-03    -37.9503E-03     45.7827E-03    -7.83271E-03     140.187E-03     47.2768E+06     25.8999E+06    -25.2434E+06     9.91250E+06    -9.25601E+06     47.2768E+06    -2.66159E+06         33.8890
            2021     13.8706E-03     109.713E-03     929.353E-03     602.449E-03        -1.90847     598.482E-03        -1.90451     929.353E-03    -192.498E-03     108.381E-03    -10.0700E-03    -98.3115E-03    -53.3193E-03     63.3887E-03    -10.0700E-03     170.328E-03     53.2738E+06     28.2738E+06    -18.7665E+06     11.0837E+06     8.55312E+06     43.1444E+06    -10.0917E+06         38.5207
            2022     14.8171E-03     109.888E-03     884.755E-03     529.649E-03        -1.81205     527.566E-03        -1.80997     884.755E-03    -138.267E-03     133.619E-03    -12.8531E-03    -120.766E-03    -67.9303E-03     80.7830E-03    -12.8531E-03     206.105E-03     63.2121E+06     44.3949E+06    -1.13656E+06     4.37829E+06     52.5335E+06     49.5586E+06    -4.23341E+06         43.7286
            2023     15.7572E-03     110.103E-03     835.659E-03     447.583E-03        -1.69971     446.063E-03        -1.69819     835.659E-03    -112.154E-03     166.624E-03    -16.0976E-03    -150.531E-03    -85.8174E-03     101.911E-03    -16.0976E-03     255.459E-03     56.5088E+06     35.2240E+06    -13.2569E+06    -5.26848E+06     41.1414E+06     42.6030E+06    -7.02628E+06         48.9661
            2024     16.6832E-03     110.376E-03     783.899E-03     372.960E-03        -1.58896     372.224E-03        -1.58823     783.899E-03    -68.4040E-03     179.278E-03    -19.9552E-03    -159.324E-03    -100.535E-03     120.489E-03    -19.9552E-03     254.842E-03     52.6665E+06     17.0757E+06    -64.0374E+06    -1.05649E+06    -35.5234E+06     42.2846E+06    -13.6572E+06         53.0684
            2025     996.979E-06     110.079E-03         1.10999         1.03664        -2.23537         1.09764        -2.23503         1.04865     55.5758E-03     5.81964E-03    -2.81314E-03    -3.00651E-03    -3.00014E-03     5.81485E-03    -2.81472E-03     218.319E-06    -91.0127E+06    -145.751E+06    -156.192E+06    -149.641E+06    -92.3428E+06    -150.972E+06    -8.23482E+06         20.3597
            2026     1.99317E-03     110.083E-03         1.08322         1.04504        -2.23474         1.05786        -2.23409         1.06975    -54.4466E-03     6.12360E-03    -2.88795E-03    -3.23563E-03    -3.21549E-03     6.10347E-03    -2.88795E-03     428.850E-06    -49.1024E+06    -151.517E+06     -157.88E+06    -149.362E+06    -52.2223E+06    -156.916E+06    -16.9054E+06         20.3835
            2027     2.98997E-03     110.086E-03         1.06109         1.02469        -2.20398         1.02413        -2.20234         1.06001    -143.506E-03     6.18517E-03    -2.95231E-03    -3.23285E-03    -3.11739E-03     6.06972E-03    -2.95231E-03     1.27012E-03    -44.9956E+06    -155.448E+06    -165.180E+06    -151.006E+06    -51.4564E+06    -163.161E+06    -24.8674E+06         20.4149
            2028     3.98668E-03     110.095E-03         1.04687         1.00129        -2.17385     999.639E-03        -2.17220         1.04687    -138.592E-03     6.21785E-03    -2.93056E-03    -3.28733E-03    -2.92224E-03     5.90798E-03    -2.98579E-03     2.39798E-03    -38.7748E+06    -141.627E+06    -164.182E+06    -142.573E+06    -47.6628E+06    -154.347E+06    -28.2524E+06         20.4636
            2029     4.98347E-03     110.105E-03         1.03477     992.247E-03        -2.16618     990.625E-03        -2.16456         1.03477    -135.796E-03     6.71775E-03    -2.93670E-03    -3.78108E-03    -2.85345E-03     5.85709E-03    -3.00367E-03     4.88973E-03    -25.7162E+06    -116.123E+06    -148.687E+06    -121.887E+06    -33.6559E+06    -134.983E+06    -24.8460E+06         20.5943
            2030     5.98072E-03     110.123E-03         1.02275     963.817E-03        -2.13873     961.297E-03        -2.13621         1.02275    -173.588E-03     8.26201E-03    -3.06169E-03    -5.20018E-03    -3.14552E-03     6.21910E-03    -3.07344E-03     9.19695E-03    -13.7656E+06    -93.1321E+06    -113.592E+06    -89.8077E+06    -23.9987E+06    -106.683E+06    -15.6632E+06         20.9106
            2031     6.97760E-03     110.145E-03         1.00731     913.546E-03        -2.08148     910.196E-03        -2.07813         1.00731    -199.326E-03     11.3412E-03    -3.24274E-03    -8.09788E-03    -3.95503E-03     7.19833E-03    -3.24274E-03     15.6776E-03     10.8613E+06    -61.3823E+06    -81.8307E+06    -48.6036E+06    -14.6583E+06    -69.0899E+06    -6.92087E+06         21.4872
            2032     7.97458E-03     110.179E-03     987.837E-03     862.082E-03        -2.02688     859.240E-03        -2.02404     987.837E-03    -179.062E-03     16.2716E-03    -3.55162E-03    -12.7196E-03    -5.32805E-03     8.88008E-03    -3.55162E-03     25.1376E-03     37.6649E+06    -13.1658E+06    -49.9114E+06    -5.29047E+06     1.63841E+06    -21.7602E+06     8.51855E+06         22.3511
            2033     8.96971E-03     110.221E-03     965.183E-03     813.170E-03        -1.98502     809.456E-03        -1.98131     965.183E-03    -197.639E-03     23.4069E-03    -4.05272E-03    -19.3541E-03    -7.40130E-03     11.4541E-03    -4.05272E-03     38.3196E-03     60.0353E+06     38.2546E+06    -18.6776E+06     28.0813E+06     17.5693E+06     33.9616E+06     29.0302E+06         23.5066
            2034     9.96023E-03     110.280E-03     939.783E-03     768.666E-03        -1.93669     764.297E-03        -1.93232     939.783E-03    -216.008E-03     33.8433E-03    -4.64559E-03    -29.1980E-03    -10.4895E-03     15.1348E-03    -4.64559E-03     57.5757E-03     78.7930E+06     62.6095E+06    -11.9556E+06     35.9100E+06     27.0963E+06     66.4406E+06     31.5884E+06         24.9597
            2035     10.9491E-03     110.359E-03     910.946E-03     708.545E-03        -1.86676     704.075E-03        -1.86229     910.946E-03    -212.371E-03     47.0011E-03    -5.31360E-03    -41.6879E-03    -14.7832E-03     20.0965E-03    -5.31360E-03     81.5349E-03     74.2846E+06     55.2544E+06    -8.39663E+06     20.8786E+06     32.8889E+06     67.3750E+06     13.2822E+06         26.8186
            2036     11.9349E-03     110.464E-03     877.593E-03     640.129E-03        -1.79015     634.890E-03        -1.78491     877.593E-03    -225.082E-03     63.0730E-03    -6.25470E-03    -56.8185E-03    -21.8293E-03     28.0837E-03    -6.25470E-03     108.959E-03     59.5261E+06     29.1422E+06    -9.57810E+06     7.42544E+06     12.1387E+06     59.5261E+06     1.21194E+06         29.4099
            2037     12.9136E-03     110.601E-03     839.920E-03     574.053E-03        -1.70766     569.406E-03        -1.70301     839.920E-03    -203.425E-03     83.3619E-03    -7.60421E-03    -75.7576E-03    -32.4844E-03     40.0887E-03    -7.60421E-03     141.447E-03     59.5742E+06     20.2780E+06    -7.76216E+06     8.79740E+06     3.71844E+06     59.5742E+06    -3.17681E+06         32.9533
            2038     13.8806E-03     110.768E-03     798.899E-03     509.549E-03        -1.61779     506.508E-03        -1.61475     798.899E-03    -153.050E-03     105.355E-03    -9.38824E-03    -95.9676E-03    -44.9834E-03     54.3712E-03    -9.38824E-03     174.823E-03     58.2072E+06     24.0267E+06    -2.43608E+06     9.44465E+06     12.1460E+06     58.2072E+06    -7.26131E+06         37.2860
            2039     14.8412E-03     110.960E-03     754.756E-03     448.233E-03        -1.53284     446.750E-03        -1.53136     754.756E-03    -103.470E-03     132.228E-03    -11.7009E-03    -120.529E-03    -61.9289E-03     73.6286E-03    -11.7009E-03     213.096E-03     66.2198E+06     40.2851E+06     5.94341E+06     13.8929E+06     35.8595E+06     62.6958E+06     2.44937E+06         42.1616
            2040     15.7875E-03     111.195E-03     706.158E-03     391.194E-03        -1.43850     390.308E-03        -1.43761     706.158E-03    -76.5860E-03     170.010E-03    -14.7716E-03    -155.239E-03    -87.4955E-03     102.267E-03    -14.7716E-03     263.987E-03     81.6832E+06     60.6808E+06     12.6317E+06     21.0634E+06     62.6382E+06     71.2941E+06     7.99353E+06         46.9820
            2041     16.7022E-03     111.512E-03     654.872E-03     318.764E-03        -1.32611     318.234E-03        -1.32558     654.872E-03    -57.2539E-03     189.486E-03    -18.9540E-03    -170.528E-03    -112.823E-03     131.781E-03    -18.9540E-03     261.352E-03     65.7883E+06     26.7801E+06    -62.6233E+06     5.90504E+06    -34.8831E+06     58.9231E+06    -3.08270E+06         50.6524
            2042     995.391E-06     111.088E-03     981.381E-03     903.880E-03        -1.86428     954.079E-03        -1.86307     929.972E-03     61.0264E-03     9.98482E-03    -4.79745E-03    -5.18732E-03    -4.95254E-03     9.97027E-03    -5.01768E-03    -302.135E-06    -64.2791E+06    -108.272E+06    -119.279E+06    -107.679E+06    -74.8684E+06    -109.282E+06    -10.7837E+06         20.6394
            2043     1.98999E-03     111.090E-03     929.044E-03     880.024E-03        -1.81335     879.417E-03        -1.81274     929.044E-03    -60.3799E-03     10.5680E-03    -5.04239E-03    -5.52530E-03    -5.50883E-03     10.5515E-03    -5.04239E-03    -629.776E-06    -32.8601E+06    -108.496E+06    -114.791E+06    -109.182E+06    -36.5635E+06    -110.402E+06    -16.5752E+06         20.6762
            2044     2.98375E-03     111.096E-03     909.211E-03     870.489E-03        -1.80501     869.399E-03        -1.80392     909.211E-03    -101.011E-03     10.8561E-03    -5.24568E-03    -5.61018E-03    -5.57450E-03     10.8204E-03    -5.24568E-03    -1.03421E-03    -25.6947E+06    -107.174E+06    -120.584E+06    -111.599E+06    -33.7840E+06    -108.069E+06    -25.4100E+06         20.7136
            2045     3.97789E-03     111.102E-03     897.318E-03     865.644E-03        -1.80195     864.465E-03        -1.80077     897.318E-03    -101.969E-03     10.6230E-03    -5.23400E-03    -5.38911E-03    -5.24391E-03     10.5858E-03    -5.34204E-03    -306.522E-06    -22.1394E+06    -104.070E+06    -126.983E+06    -112.895E+06    -36.2267E+06    -104.070E+06    -35.6818E+06         20.7573
            2046     4.97251E-03     111.114E-03     887.294E-03     847.133E-03        -1.78838     845.460E-03        -1.78671     887.294E-03    -127.161E-03     10.5600E-03    -5.21732E-03    -5.34290E-03    -5.06688E-03     10.4095E-03    -5.34290E-03     1.68104E-03    -17.1432E+06    -101.876E+06    -128.990E+06    -114.431E+06    -31.7020E+06    -101.876E+06    -37.4756E+06         20.8562
            2047     5.96738E-03     111.129E-03     876.773E-03     833.670E-03        -1.77540     831.155E-03        -1.77288     876.773E-03    -160.375E-03     11.1508E-03    -5.32050E-03    -5.83047E-03    -5.21182E-03     10.5497E-03    -5.33804E-03     4.73586E-03    -11.0249E+06    -100.433E+06    -126.936E+06    -112.981E+06    -24.9798E+06    -100.433E+06    -37.3903E+06         21.1119
            2048     6.96240E-03     111.154E-03     865.199E-03     808.064E-03        -1.74355     805.478E-03        -1.74096     865.199E-03    -160.892E-03     12.6655E-03    -5.39712E-03    -7.26837E-03    -5.70894E-03     11.1061E-03    -5.39712E-03     9.10708E-03    -3.78154E+06    -90.8171E+06    -124.011E+06    -105.993E+06    -17.4982E+06    -95.1185E+06    -36.9321E+06         21.6161
            2049     7.95585E-03     111.186E-03     850.195E-03     754.806E-03        -1.69204     752.799E-03        -1.69003     850.195E-03    -139.171E-03     15.2568E-03    -5.59010E-03    -9.66672E-03    -6.29211E-03     11.8822E-03    -5.59010E-03     15.7627E-03    -3.87265E+06    -65.1476E+06    -107.782E+06    -87.4872E+06    -15.5730E+06    -73.7420E+06    -29.9975E+06         22.3939
            2050     8.94962E-03     111.232E-03     830.252E-03     694.437E-03        -1.64517     691.613E-03        -1.64234     830.252E-03    -158.534E-03     20.0027E-03    -5.90331E-03    -14.0994E-03    -7.25476E-03     13.1581E-03    -5.90331E-03     26.5830E-03     21.8093E+06    -26.1308E+06    -77.4833E+06    -45.7556E+06    -5.62536E+06    -30.4238E+06    -14.4382E+06         23.4395
            2051     9.94446E-03     111.292E-03     805.301E-03     630.311E-03        -1.58887     626.663E-03        -1.58522     805.301E-03    -179.233E-03     28.5036E-03    -6.31598E-03    -22.1882E-03    -9.35475E-03     15.6701E-03    -6.31598E-03     43.7118E-03     66.8303E+06     24.4501E+06    -32.7295E+06     13.6550E+06     20.4458E+06     24.4501E+06     3.87347E+06         24.7449
            2052     10.9356E-03     111.376E-03     776.102E-03     580.204E-03        -1.52988     576.423E-03        -1.52610     776.102E-03    -177.505E-03     40.8837E-03    -6.92575E-03    -33.9585E-03    -12.9377E-03     19.8629E-03    -6.92575E-03     67.1364E-03     90.8707E+06     69.5412E+06     3.13994E+06     53.0247E+06     33.4221E+06     77.1050E+06     22.7251E+06         26.3930
            2053     11.9200E-03     111.486E-03     743.730E-03     540.774E-03        -1.48198     535.998E-03        -1.47720     743.730E-03    -195.503E-03     57.9242E-03    -7.68992E-03    -50.2338E-03    -18.7023E-03     26.3927E-03    -7.68992E-03     98.2948E-03     95.9434E+06     70.3933E+06     4.25066E+06     51.6827E+06     22.9613E+06     95.9434E+06     23.5185E+06         28.6819
            2054     12.9000E-03     111.631E-03     708.266E-03     495.019E-03        -1.42390     490.980E-03        -1.41986     708.266E-03    -173.208E-03     78.0215E-03    -8.62434E-03    -69.3970E-03    -26.7128E-03     35.3373E-03    -8.62434E-03     133.714E-03     84.1244E+06     46.3534E+06    -1.64146E+06     29.2194E+06     15.4925E+06     84.1244E+06     12.5416E+06         31.8730
            2055     13.8791E-03     111.809E-03     669.291E-03     432.572E-03        -1.33826     430.189E-03        -1.33588     669.291E-03    -124.214E-03     98.1420E-03    -9.94626E-03    -88.1959E-03    -37.5791E-03     47.5252E-03    -9.94626E-03     165.670E-03     80.0077E+06     35.4830E+06     3.05668E+06     17.6890E+06     20.8507E+06     80.0077E+06     2.41316E+06         35.8580
            2056     14.8465E-03     112.017E-03     625.770E-03     364.648E-03        -1.24727     362.916E-03        -1.24554     625.770E-03    -95.6446E-03     127.972E-03    -11.9125E-03    -116.060E-03    -57.8323E-03     69.7442E-03    -11.9125E-03     207.761E-03     83.0395E+06     38.4574E+06     9.17128E+06     23.8619E+06     23.7668E+06     83.0395E+06    -5.14355E+06         40.3299
            2057     15.7849E-03     112.290E-03     576.508E-03     315.421E-03        -1.16163     314.482E-03        -1.16069     576.508E-03    -67.8142E-03     170.333E-03    -14.6617E-03    -155.672E-03    -87.1476E-03     101.809E-03    -14.6617E-03     265.490E-03     88.2427E+06     42.0510E+06     10.0651E+06     29.1904E+06     49.2753E+06     61.8931E+06     15.0729E+06         44.6228
            2058     16.7073E-03     112.632E-03     523.858E-03     256.461E-03        -1.06644     256.175E-03        -1.06616     523.858E-03    -31.0912E-03     199.879E-03    -18.8330E-03    -181.046E-03    -118.509E-03     137.342E-03    -18.8330E-03     279.623E-03     86.7718E+06     30.5996E+06    -53.6264E+06     21.4165E+06    -13.3618E+06     55.6903E+06     27.8053E+06         47.7079
            2059     991.918E-06     112.098E-03     831.629E-03     749.246E-03        -1.45172     815.898E-03        -1.45007     763.329E-03     83.2631E-03     16.2883E-03    -7.68416E-03    -8.60402E-03    -8.35234E-03     16.2569E-03    -7.90439E-03    -1.02910E-03    -39.0211E+06    -71.9939E+06    -80.8468E+06    -69.2650E+06    -55.2407E+06    -67.3561E+06    -8.48638E+06         21.0384
            2060     1.98414E-03     112.105E-03     788.483E-03     755.938E-03        -1.44369     760.794E-03        -1.44335     783.290E-03    -17.8001E-03     16.2256E-03    -7.83075E-03    -8.39454E-03    -8.08287E-03     16.1596E-03    -8.07642E-03    -2.38873E-03    -20.1002E+06    -69.8210E+06    -76.9285E+06    -70.1148E+06    -25.0998E+06    -71.6352E+06    -15.3587E+06         21.0778
            2061     2.97521E-03     112.109E-03     771.434E-03     738.560E-03        -1.43330     738.361E-03        -1.43310     771.434E-03    -36.6045E-03     16.2682E-03    -7.86750E-03    -8.40165E-03    -8.07350E-03     16.1857E-03    -8.11318E-03    -2.80613E-03    -9.39492E+06    -66.4269E+06    -80.3573E+06    -72.7996E+06    -16.1488E+06    -67.2306E+06    -20.0901E+06         21.1234
            2062     3.96712E-03     112.116E-03     758.671E-03     708.984E-03        -1.41342     708.851E-03        -1.41329     758.671E-03    -28.6727E-03     16.6255E-03    -8.13602E-03    -8.49072E-03    -8.36606E-03     16.5537E-03    -8.18884E-03    -2.54512E-03    -6.88909E+06    -65.7350E+06    -90.9254E+06    -78.9552E+06    -18.8593E+06    -65.7350E+06    -28.5752E+06         21.1890
            2063     4.95891E-03     112.126E-03     745.046E-03     687.739E-03        -1.39199     687.086E-03        -1.39133     745.046E-03    -60.3861E-03     17.1772E-03    -8.27074E-03    -8.90685E-03    -8.79312E-03     17.1220E-03    -8.32934E-03    -1.72777E-03    -8.02231E+06    -63.7200E+06    -97.7229E+06    -81.1909E+06    -24.5544E+06    -63.7200E+06    -34.3756E+06         21.2930
            2064     5.94988E-03     112.144E-03     732.848E-03     687.222E-03        -1.38714     685.328E-03        -1.38525     732.848E-03    -121.586E-03     18.0634E-03    -8.55737E-03    -9.50661E-03    -9.43251E-03     17.9951E-03    -8.56316E-03    -4.35226E-06    -1.53527E+06    -51.9085E+06    -97.0321E+06    -80.5705E+06    -17.9968E+06    -51.9085E+06    -35.7258E+06         21.4979
            2065     6.93930E-03     112.168E-03     722.309E-03     681.102E-03        -1.38035     679.124E-03        -1.37837     722.309E-03    -125.453E-03     19.1235E-03    -8.87742E-03    -10.2468E-03    -10.0338E-03     18.9106E-03    -8.87742E-03     2.69566E-03     1.46274E+06    -37.0406E+06    -96.6744E+06    -80.9708E+06    -14.2409E+06    -37.0406E+06    -35.9302E+06         21.9064
            2066     7.92922E-03     112.201E-03     710.064E-03     642.868E-03        -1.34910     640.195E-03        -1.34643     710.064E-03    -135.501E-03     20.6091E-03    -9.19133E-03    -11.4187E-03    -10.6337E-03     19.8241E-03    -9.19133E-03     7.02239E-03     1.73455E+06    -31.6507E+06    -100.503E+06    -83.9317E+06    -14.8368E+06    -31.6507E+06    -37.6112E+06         22.5647
            2067     8.91859E-03     112.245E-03     692.553E-03     576.868E-03        -1.30146     572.378E-03        -1.29697     692.553E-03    -175.752E-03     23.0856E-03    -9.47467E-03    -13.6115E-03    -11.3519E-03     20.8260E-03    -9.47467E-03     14.1086E-03     11.9702E+06    -36.3613E+06    -105.383E+06    -83.8722E+06    -9.54079E+06    -36.3613E+06    -44.8554E+06         23.4705
            2068     9.90616E-03     112.307E-03     669.247E-03     513.871E-03        -1.25073     509.610E-03        -1.24647     669.247E-03    -170.247E-03     27.1494E-03    -9.82529E-03    -17.3260E-03    -11.9644E-03     21.7878E-03    -9.82529E-03     25.9530E-03     19.1621E+06    -28.2624E+06    -91.0706E+06    -72.4014E+06     492.911E+03    -28.2624E+06    -40.5236E+06         24.6108
            2069     10.8941E-03     112.392E-03     642.068E-03     473.487E-03        -1.20778     470.268E-03        -1.20456     642.068E-03    -146.811E-03     34.4258E-03    -10.3236E-03    -24.1035E-03    -12.9773E-03     23.2997E-03    -10.3236E-03     44.0513E-03     36.3877E+06     6.67319E+06    -73.3211E+06    -41.6016E+06     3.23803E+06     8.10339E+06    -16.2256E+06         26.0317
            2070     11.8853E-03     112.505E-03     611.841E-03     434.038E-03        -1.16368     429.989E-03        -1.15963     611.841E-03    -158.429E-03     47.1366E-03    -10.9341E-03    -36.2013E-03    -15.8147E-03     26.7501E-03    -10.9341E-03     70.6174E-03     67.1698E+06     46.2525E+06    -49.2999E+06    -4.27288E+06     12.9363E+06     55.4590E+06     14.5370E+06         27.9947
            2071     12.8715E-03     112.656E-03     577.862E-03     388.710E-03        -1.10895     384.608E-03        -1.10484     577.862E-03    -155.093E-03     64.1865E-03    -11.6682E-03    -52.5180E-03    -20.9517E-03     32.6202E-03    -11.6682E-03     103.332E-03     89.6315E+06     53.6023E+06    -12.8586E+06     17.2259E+06     23.5178E+06     89.6315E+06     24.4644E+06         30.7978
            2072     13.8461E-03     112.841E-03     540.097E-03     348.596E-03        -1.05071     346.099E-03        -1.04821     540.097E-03    -114.473E-03     85.8999E-03    -12.6476E-03    -73.2524E-03    -31.8193E-03     44.4667E-03    -12.6476E-03     139.533E-03     97.6564E+06     48.8745E+06     4.85298E+06     18.6777E+06     35.0498E+06     97.6564E+06     12.9982E+06         34.3443
            2073     14.8097E-03     113.065E-03     497.606E-03     293.266E-03    -976.051E-03     291.625E-03    -974.410E-03     497.606E-03    -84.1593E-03     119.248E-03    -14.2517E-03    -104.996E-03    -52.6349E-03     66.8866E-03    -14.2517E-03     189.602E-03     83.5085E+06     45.0860E+06    -11.2599E+06     1.00437E+06     32.8218E+06     83.5085E+06     1.32264E+06         38.2517
            2074     15.7619E-03     113.368E-03     448.621E-03     237.448E-03    -880.543E-03     236.669E-03    -879.764E-03     448.621E-03    -45.4027E-03     162.545E-03    -16.7665E-03    -145.779E-03    -81.7034E-03     98.4696E-03    -16.7665E-03     249.950E-03     69.9458E+06     11.5074E+06    -33.9077E+06    -14.7717E+06     11.8557E+06     50.4614E+06     2.63322E+06         41.8821
            2075     16.6864E-03     113.741E-03     395.202E-03     183.363E-03    -783.228E-03     182.989E-03    -782.854E-03     395.202E-03     4.36926E-03     194.357E-03    -20.3031E-03    -174.054E-03    -104.849E-03     125.152E-03    -20.3031E-03     286.300E-03     67.7762E+06     11.1226E+06    -68.1871E+06    -14.7880E+06    -18.0602E+06     43.5599E+06     17.3722E+06         44.3942
            2076     988.221E-06     113.122E-03     703.245E-03     571.189E-03        -1.05563     701.187E-03        -1.05357     571.189E-03     68.4031E-03     24.1107E-03    -10.6191E-03    -13.4915E-03    -11.1690E-03     24.0052E-03    -12.8360E-03    -3.04141E-03    -11.3439E+06     -43.841E+06    -50.8609E+06    -31.6104E+06    -35.7159E+06    -38.7195E+06    -11.1376E+06         21.5080
            2077     1.97533E-03     113.122E-03     644.662E-03     633.679E-03        -1.08225     640.298E-03        -1.08093     636.722E-03    -42.8183E-03     22.6330E-03    -10.8769E-03    -11.7560E-03    -10.8263E-03     22.5188E-03    -11.6923E-03    -3.78656E-03    -6.19664E+06    -39.4293E+06    -48.1578E+06    -35.5528E+06    -15.3700E+06    -42.8609E+06    -15.0595E+06         21.5415
            2078     2.96678E-03     113.128E-03     632.909E-03     609.831E-03        -1.06160     608.503E-03        -1.06010     632.736E-03    -72.8425E-03     22.5468E-03    -10.9335E-03    -11.6141E-03    -11.0446E-03     22.4575E-03    -11.4137E-03    -3.39200E-03     1.16578E+06    -39.4074E+06    -48.7222E+06    -37.8663E+06    -6.25854E+06    -42.8390E+06    -16.1620E+06         21.6049
            2079     3.95475E-03     113.136E-03     621.273E-03     572.922E-03        -1.03083     572.209E-03        -1.03012     621.273E-03    -46.7064E-03     24.2691E-03    -11.5992E-03    -12.6707E-03    -12.5577E-03     24.1561E-03    -11.5992E-03    -4.05937E-03     4.55879E+06    -25.8666E+06    -50.1284E+06    -41.4444E+06    -4.12519E+06    -25.8666E+06    -18.9595E+06         21.7149
            2080     4.94113E-03     113.148E-03     607.710E-03     551.603E-03        -1.01453     551.190E-03        -1.01412     607.710E-03    -42.1352E-03     26.1593E-03    -12.0503E-03    -14.1089E-03    -13.9806E-03     26.0310E-03    -12.0503E-03    -4.50860E-03     1.44547E+06    -19.8082E+06    -62.1964E+06    -48.5999E+06    -14.0187E+06    -17.9406E+06    -25.1808E+06         21.8689
            2081     5.92637E-03     113.166E-03     595.091E-03     542.446E-03    -999.886E-03     541.325E-03    -998.765E-03     595.091E-03    -80.1822E-03     27.6391E-03    -12.5550E-03    -15.0855E-03    -14.9836E-03     27.5371E-03    -12.5550E-03    -4.03588E-03     3.53332E+06    -17.7360E+06    -68.1015E+06    -53.5191E+06    -12.9167E+06    -15.8684E+06    -28.0966E+06         22.0760
            2082     6.91117E-03     113.192E-03     583.052E-03     526.755E-03    -982.184E-03     525.668E-03    -981.097E-03     583.052E-03    -67.9672E-03     29.5115E-03    -13.1351E-03    -16.3778E-03    -16.3025E-03     29.4361E-03    -13.1351E-03    -2.94799E-03     3.97849E+06    -9.69725E+06    -67.8233E+06    -55.6166E+06    -9.47105E+06    -8.45444E+06    -26.6787E+06         22.4050
            2083     7.89404E-03     113.225E-03     569.503E-03     495.823E-03    -962.249E-03     494.060E-03    -960.487E-03     569.503E-03    -69.7586E-03     31.9255E-03    -13.8001E-03    -18.1257E-03    -18.0418E-03     31.8416E-03    -13.8001E-03    -1.44798E-03     10.2903E+06    -2.35372E+06    -69.1518E+06    -55.1391E+06    -4.96524E+06    -1.11091E+06    -29.9285E+06         22.9204
            2084     8.87407E-03     113.272E-03     552.911E-03     456.438E-03    -940.427E-03     453.190E-03    -937.179E-03     552.911E-03    -113.140E-03     34.2865E-03    -14.5233E-03    -19.7633E-03    -19.5403E-03     34.0635E-03    -14.5233E-03     2.05203E-03     17.7405E+06     340.792E+03    -74.8158E+06    -58.2773E+06     1.20196E+06     340.792E+03    -33.7772E+06         23.6456
            2085     9.85303E-03     113.332E-03     532.983E-03     415.027E-03    -913.985E-03     412.314E-03    -911.272E-03     532.983E-03    -108.639E-03     36.8137E-03    -15.2807E-03    -21.5343E-03    -20.5657E-03     35.8451E-03    -15.2807E-03     8.75034E-03     9.86893E+06    -7.66459E+06    -89.4790E+06    -74.4454E+06    -5.27567E+06    -7.55364E+06    -33.6840E+06         24.6106
            2086     10.8326E-03     113.415E-03     509.523E-03     370.246E-03    -878.581E-03     367.976E-03    -876.311E-03     509.523E-03    -103.011E-03     40.2392E-03    -16.0520E-03    -24.1884E-03    -21.3758E-03     37.4267E-03    -16.0520E-03     18.3599E-03     3.10565E+06    -22.5033E+06    -103.628E+06    -91.9820E+06    -12.7211E+06    -18.3227E+06    -31.8802E+06         25.8451
            2087     11.8078E-03     113.526E-03     481.880E-03     321.958E-03    -834.871E-03     318.688E-03    -831.601E-03     481.880E-03    -121.341E-03     44.5721E-03    -16.8909E-03    -27.6806E-03    -21.3213E-03     38.2128E-03    -16.8909E-03     32.7990E-03     5.77589E+06    -16.5167E+06    -102.202E+06    -86.6544E+06    -18.1603E+06    -8.12777E+06    -21.4257E+06         27.4996
            2088     12.7848E-03     113.675E-03     449.681E-03     273.868E-03    -784.380E-03     270.323E-03    -780.835E-03     449.681E-03    -121.698E-03     51.0744E-03    -17.7630E-03    -33.3103E-03    -20.6670E-03     38.4311E-03    -17.7630E-03     53.9729E-03     49.0516E+06     18.3553E+06    -65.5102E+06    -52.0384E+06     14.4595E+06     39.4755E+06    -10.3270E+06         29.8454
            2089     13.7695E-03     113.862E-03     413.196E-03     242.823E-03    -742.183E-03     240.102E-03    -739.462E-03     413.196E-03    -95.8125E-03     66.9464E-03    -18.7085E-03    -48.2365E-03    -25.9372E-03     44.6472E-03    -18.7085E-03     87.9303E-03     83.4822E+06     30.9838E+06    -33.4860E+06    -21.9544E+06     26.8356E+06     76.0990E+06     7.66835E+06         32.8608
            2090     14.7379E-03     114.110E-03     371.992E-03     215.162E-03    -695.454E-03     213.938E-03    -694.230E-03     371.992E-03    -51.4935E-03     98.0915E-03    -20.1778E-03    -77.9139E-03    -43.4768E-03     63.6545E-03    -20.1778E-03     138.417E-03     97.1300E+06     53.4724E+06    -29.1734E+06    -15.0123E+06     39.3112E+06     97.1300E+06     23.4751E+06         36.1199
            2091     15.6813E-03     114.421E-03     324.640E-03     172.529E-03    -616.450E-03     172.445E-03    -616.366E-03     324.640E-03    -8.58977E-03     139.149E-03    -22.4571E-03    -116.693E-03    -67.3602E-03     89.8165E-03    -22.4571E-03     201.330E-03     97.3544E+06     43.7299E+06    -35.4460E+06    -15.8601E+06     24.1440E+06     97.3544E+06     11.9403E+06         39.0859
            2092     16.6001E-03     114.830E-03     273.183E-03     117.956E-03    -509.369E-03     116.887E-03    -508.299E-03     273.183E-03     33.3261E-03     159.637E-03    -24.5993E-03    -135.038E-03    -65.6454E-03     90.2441E-03    -24.5993E-03     246.567E-03     54.3442E+06     1.75754E+06    -59.6547E+06    -29.3648E+06    -25.6035E+06     51.4154E+06     1.49161E+06         41.2883
            2093     982.554E-06     114.150E-03     543.491E-03     409.630E-03    -646.052E-03     541.270E-03    -643.831E-03     409.630E-03    -8.11297E-03     31.3080E-03    -13.4870E-03    -17.8208E-03    -14.8429E-03     31.1759E-03    -16.3328E-03    -4.69427E-03     21.7260E+06    -11.5680E+06    -26.9085E+06     6.13954E+06    -18.2920E+06    -4.59809E+06    -14.2233E+06         21.9191
            2094     1.97074E-03     114.148E-03     492.774E-03     478.696E-03    -677.468E-03     491.438E-03    -676.131E-03     478.696E-03    -72.2708E-03     29.5559E-03    -14.0228E-03    -15.5324E-03    -14.2531E-03     29.4752E-03    -15.2213E-03    -3.38386E-03     9.31927E+06    -10.7391E+06    -26.0901E+06    -7.70890E+06    -6.43407E+06    -13.3669E+06    -12.7670E+06         21.9638
            2095     2.95491E-03     114.154E-03     488.272E-03     473.727E-03    -681.763E-03     479.592E-03    -680.087E-03     480.731E-03    -59.4203E-03     30.8920E-03    -14.8969E-03    -15.9944E-03    -15.6985E-03     30.8305E-03    -15.1314E-03    -3.24362E-03     11.1066E+06    -8.59174E+06    -24.7713E+06    -15.1503E+06     243.683E+03    -7.34971E+06    -12.4159E+06         22.0631
            2096     3.93963E-03     114.165E-03     478.478E-03     453.155E-03    -663.048E-03     454.533E-03    -662.197E-03     476.248E-03    -32.5587E-03     33.1345E-03    -15.5904E-03    -17.5436E-03    -17.4513E-03     33.0422E-03    -15.5904E-03    -4.16443E-03     12.7032E+06    -3.39591E+06    -23.8733E+06    -18.6615E+06    -571.781E+03     4.66723E+06    -10.5137E+06         22.2194
            2097     4.92055E-03     114.180E-03     467.919E-03     434.245E-03    -646.566E-03     433.300E-03    -645.621E-03     467.919E-03    -53.3147E-03     36.2636E-03    -16.3291E-03    -19.9335E-03    -19.8108E-03     36.1409E-03    -16.3291E-03    -5.12533E-03     16.5093E+06     1.36229E+06    -27.9699E+06    -22.4245E+06    -3.23991E+06     15.5661E+06    -11.2399E+06         22.4310
            2098     5.89950E-03     114.199E-03     458.252E-03     419.493E-03    -631.281E-03     417.958E-03    -629.746E-03     458.252E-03    -75.6674E-03     39.6158E-03    -17.2114E-03    -22.4043E-03    -22.2540E-03     39.4654E-03    -17.2114E-03    -6.03805E-03     15.8427E+06    -2.64421E+06    -36.2323E+06    -27.9155E+06    -8.10058E+06     12.9823E+06    -15.1604E+06         22.6816
            2099     6.87678E-03     114.226E-03     447.147E-03     392.413E-03    -602.668E-03     391.610E-03    -601.864E-03     447.147E-03    -42.3146E-03     43.2097E-03    -18.2228E-03    -24.9855E-03    -24.8142E-03     43.0384E-03    -18.2228E-03    -6.81910E-03     12.4627E+06     474.578E+03    -42.2400E+06    -33.5644E+06    -5.34062E+06     9.60227E+06    -17.8051E+06         22.9882
            2100     7.84936E-03     114.265E-03     434.015E-03     365.887E-03    -587.849E-03     365.797E-03    -587.759E-03     434.015E-03    -8.36614E-03     47.2876E-03    -19.4095E-03    -27.8749E-03    -27.6967E-03     47.1094E-03    -19.4095E-03    -7.27540E-03     18.0662E+06     7.03624E+06    -47.5524E+06    -38.6850E+06     1.29974E+06     14.9353E+06    -19.2984E+06         23.3910
            2101     8.82000E-03     114.312E-03     418.869E-03     335.730E-03    -577.267E-03     335.620E-03    -577.157E-03     418.869E-03    -17.1590E-03     52.1514E-03    -20.7630E-03    -31.3864E-03    -31.1816E-03     51.9466E-03    -20.7630E-03    -7.58569E-03     21.9389E+06     3.84893E+06    -52.3686E+06    -46.7481E+06     2.09955E+06     18.0679E+06    -15.3727E+06         23.9321
            2102     9.78743E-03     114.376E-03     400.788E-03     293.815E-03    -551.352E-03     293.549E-03    -551.086E-03     400.788E-03    -28.9515E-03     57.7727E-03    -22.3234E-03    -35.4488E-03    -35.1513E-03     57.4752E-03    -22.3234E-03    -8.08795E-03     21.4284E+06     2.38798E+06    -55.8802E+06    -52.6971E+06    -54.9722E+03     20.6882E+06    -12.2591E+06         24.7059
            2103     10.7472E-03     114.460E-03     378.965E-03     249.543E-03    -522.062E-03     248.686E-03    -521.205E-03     378.965E-03    -42.7526E-03     62.6161E-03    -24.0487E-03    -38.5708E-03    -38.0875E-03     62.1327E-03    -24.0487E-03    -7.62917E-03     19.4575E+06    -5.20718E+06    -59.0066E+06    -53.8263E+06    -10.3875E+06     19.4575E+06    -12.7341E+06         25.7989
            2104     11.7044E-03     114.571E-03     353.291E-03     205.418E-03    -489.925E-03     203.741E-03    -488.248E-03     353.291E-03    -62.2881E-03     65.0086E-03    -25.7820E-03    -39.2289E-03    -38.1793E-03     63.9589E-03    -25.7820E-03    -5.10718E-03     17.4239E+06    -2.97902E+06    -68.7594E+06    -55.7969E+06    -13.7487E+06     15.2311E+06    -22.6994E+06         27.2394
            2105     12.6629E-03     114.707E-03     323.800E-03     165.938E-03    -454.777E-03     164.006E-03    -452.845E-03     323.800E-03    -68.0822E-03     65.8961E-03    -27.4279E-03    -38.4650E-03    -36.1192E-03     63.5503E-03    -27.4279E-03    -562.901E-06     22.9797E+06     2.23061E+06    -76.0285E+06    -62.6421E+06    -1.57978E+06     13.4036E+06    -26.2960E+06         29.1597
            2106     13.6159E-03     114.888E-03     290.070E-03     132.635E-03    -421.623E-03     130.640E-03    -419.628E-03     290.070E-03    -63.0727E-03     70.5426E-03    -29.2229E-03    -41.3158E-03    -35.7655E-03     64.9923E-03    -29.2229E-03     11.4075E-03     40.1429E+06     3.38044E+06    -67.5714E+06    -55.7818E+06    -1.02593E+06     32.7597E+06    -11.0731E+06         31.6463
            2107     14.5738E-03     115.129E-03     250.780E-03     104.018E-03    -384.757E-03     102.901E-03    -383.640E-03     250.780E-03    -38.1476E-03     83.7519E-03    -31.5270E-03    -52.2223E-03    -41.3203E-03     72.8499E-03    -31.5270E-03     38.4707E-03     80.6720E+06     29.0379E+06    -46.7529E+06    -30.2682E+06     12.5533E+06     80.6720E+06     7.29522E+06         34.3653
            2108     15.5121E-03     115.467E-03     205.633E-03     79.7172E-03    -340.423E-03     79.2342E-03    -339.940E-03     205.633E-03    -16.0847E-03     90.3134E-03    -21.0378E-03    -69.2743E-03    -35.4847E-03     69.1523E-03    -33.6663E-03     84.8141E-03     102.430E+06     40.3999E+06    -25.9166E+06    -6.25002E+06     34.1289E+06     89.0343E+06     17.0664E+06         36.8623
            2109     16.4684E-03     115.850E-03     157.550E-03     48.0428E-03    -268.288E-03     46.7481E-03    -266.993E-03     157.550E-03     11.2226E-03     81.8162E-03    -6.78841E-03    -75.0284E-03    -12.0931E-03     46.4646E-03    -34.3721E-03     112.914E-03     65.9549E+06     16.4212E+06    -49.8648E+06     15.5231E+06     7.43063E+06     9.55756E+06     19.1597E+06         38.9560


