********************************************************************************
Field Output Report, written Tue May  6 12:17:02 2025

Source 1
---------

   ODB: D:/AISI_1020/Vel_20/1020_2a_40_rd_1000_cal_75_v_20_f_025.odb
   Step: Step-1
   Frame: Increment   5988055: Step Time =   0.7289

Loc 1 : Nodal values from source 1

Output sorted by column "Node Label".

Field Output reported at nodes for region: DIE_2A_40_D0_36-1.Region_1
   Computation algorithm: EXTRAPOLATE_COMPUTE_AVERAGE
   Averaged at nodes
   Averaging regions: ODB_REGIONS

      Node Label     COORD.COOR1     COORD.COOR2
                          @Loc 1          @Loc 1
-------------------------------------------------
               1     21.7407E-03     187.149E-03


Field Output reported at nodes for region: DIE_2A_40_D0_36-1.Region_2
   Computation algorithm: EXTRAPOLATE_COMPUTE_AVERAGE
   Averaged at nodes
   Averaging regions: ODB_REGIONS

      Node Label     COORD.COOR1     COORD.COOR2
                          @Loc 1          @Loc 1
-------------------------------------------------
               1     21.7407E-03     187.149E-03


Field Output reported at nodes for part: WIRE_1-1
   Computation algorithm: EXTRAPOLATE_COMPUTE_AVERAGE
   Averaged at nodes
   Averaging regions: ODB_REGIONS

      Node Label     COORD.COOR1     COORD.COOR2    ER.Max. Prin    ER.Mid. Prin    ER.Min. Prin         ER.ER11         ER.ER22         ER.ER33         ER.ER12    PE.Max. Prin    PE.Mid. Prin    PE.Min. Prin         PE.PE11         PE.PE22         PE.PE33         PE.PE12     S.Max. Prin     S.Mid. Prin     S.Min. Prin           S.S11           S.S22           S.S33           S.S12            TEMP
                          @Loc 1          @Loc 1          @Loc 1          @Loc 1          @Loc 1          @Loc 1          @Loc 1          @Loc 1          @Loc 1          @Loc 1          @Loc 1          @Loc 1          @Loc 1          @Loc 1          @Loc 1          @Loc 1          @Loc 1          @Loc 1          @Loc 1          @Loc 1          @Loc 1          @Loc 1          @Loc 1          @Loc 1
-----------------------------------------------------------------------------------------------------------------------------------------------------------------------------------------------------------------------------------------------------------------------------------------------------------------------------------------------------------------------------------------------------------------
               1     15.9291E-03     71.2849E-03         1.64242    -1.36185E-03    -651.646E-03    -651.486E-03         1.64226    -1.36185E-03    -32.4756E-03     244.302E-03    -121.397E-03    -122.935E-03    -120.343E-03     243.248E-03    -122.935E-03     39.1761E-03     106.912E+06     94.6917E+06    -2.67832E+06    -2.64056E+06     106.874E+06     94.6917E+06     809.658E+03         66.7795
               2     2.07305E-06     70.2759E-03     636.991E-03     346.082E-03    -27.5078E-03     507.928E-03     475.145E-03    -27.5078E-03    -257.443E-03     246.760E-03    -122.529E-03    -124.236E-03    -124.235E-03     246.759E-03    -122.529E-03     213.957E-06    -102.893E+06    -103.797E+06    -295.971E+06    -102.934E+06    -295.930E+06    -103.797E+06    -1.38138E+06         39.7449
               3    -1.33354E-06     305.474E-09         4.75603        -1.70785        -1.98784        -1.98740         4.75559        -1.70785     108.801E-03     491.933E-03    -245.501E-03    -246.413E-03    -246.386E-03     491.907E-03    -245.501E-03     8.85383E-03    -74.6045E+06    -77.1203E+06    -258.799E+06    -77.3293E+06    -258.590E+06    -74.6045E+06     6.15829E+06         56.0271
               4     15.2404E-03     305.474E-09         3.98267        -1.03147        -1.43709        -1.01306         3.96426        -1.43709     606.616E-03     538.987E-03    -152.384E-03    -385.876E-03    -342.371E-03     495.482E-03    -152.384E-03     391.629E-03     82.3914E+06     73.7213E+06    -84.3419E+06    -62.8195E+06     52.1988E+06     82.3914E+06     54.2097E+06         64.0763
               5     15.2055E-03     142.966E-03     340.493E-03     145.855E-03    -841.632E-03     146.928E-03     339.420E-03    -841.632E-03    -28.8296E-03     78.6034E-03     68.8453E-03    -147.451E-03     78.2488E-03     69.1999E-03    -147.451E-03     3.65200E-03     60.5575E+06     1.83922E+06    -44.2943E+06     47.3022E+06    -31.0391E+06     1.83922E+06     34.8445E+06         56.1443
               6     2.18666E-06     137.444E-03     31.7915E-03    -3.48433E-03    -87.7292E-03     25.3394E-03     2.96773E-03    -87.7292E-03     27.2744E-03     105.200E-03    -51.3935E-03    -53.8077E-03    -53.7185E-03     105.111E-03    -51.3935E-03    -7.52956E-03     81.0822E+06     75.7132E+06    -3.11470E+06     75.0454E+06    -2.44686E+06     81.0822E+06    -7.22482E+06         26.6014
               7     15.0430E-03     71.2391E-03         1.58051     11.9919E-03    -605.438E-03    -605.318E-03         1.58039     11.9919E-03    -3.50389E-03     261.555E-03    -122.163E-03    -139.465E-03    -121.680E-03     244.540E-03    -122.932E-03     134.701E-03     104.841E+06     96.3095E+06    -4.75505E+06    -4.71587E+06     104.802E+06     96.3095E+06     866.838E+03         65.6560
               8     14.1592E-03     70.9511E-03         1.46124     35.2703E-03    -514.390E-03    -514.235E-03         1.46109     35.2703E-03    -3.88978E-03     267.941E-03    -122.949E-03    -145.040E-03    -121.260E-03     244.161E-03    -122.949E-03     189.213E-03     100.118E+06     96.9213E+06    -10.5251E+06    -10.4482E+06     99.2661E+06     97.6965E+06     544.850E+03         63.3871
               9     13.2741E-03     70.7730E-03         1.35395     55.0966E-03    -431.475E-03    -431.188E-03         1.35366     55.0966E-03    -300.288E-06     257.274E-03    -123.039E-03    -134.360E-03    -118.357E-03     241.271E-03    -123.039E-03     154.893E-03     97.3914E+06     94.2280E+06    -17.3892E+06    -17.3099E+06     94.1487E+06     97.3914E+06    -49.9586E+03         61.0148
              10     12.3860E-03     70.5844E-03         1.25687     74.2948E-03    -356.093E-03    -355.866E-03         1.25664     74.2948E-03     19.1641E-03     253.984E-03    -123.003E-03    -131.107E-03    -117.626E-03     240.503E-03    -123.003E-03     140.076E-03     93.2812E+06     85.6096E+06    -25.0501E+06    -25.0250E+06     90.8678E+06     87.9979E+06     115.692E+03         58.3794
              11     11.5040E-03     70.4413E-03         1.15832     93.7055E-03    -278.589E-03    -278.449E-03         1.15818     93.7055E-03     17.4087E-03     247.693E-03    -122.411E-03    -125.294E-03    -118.324E-03     241.263E-03    -122.952E-03     94.0123E-03     86.0085E+06     63.3232E+06    -33.6783E+06    -33.6450E+06     85.9752E+06     63.3232E+06      643.16E+03         55.4261
              12     10.6172E-03     70.3646E-03         1.05547     114.272E-03    -200.745E-03    -200.656E-03         1.05538     114.272E-03     17.1426E-03     244.302E-03    -121.255E-03    -122.971E-03    -118.625E-03     241.672E-03    -122.971E-03     61.2357E-03     78.0886E+06     33.2537E+06    -41.4704E+06    -41.4371E+06     78.0552E+06     33.2537E+06     677.976E+03         52.4077
              13     9.73082E-03     70.3092E-03     965.148E-03     135.024E-03    -134.972E-03    -134.698E-03     964.873E-03     135.024E-03     25.2860E-03     243.626E-03    -120.537E-03    -122.983E-03    -119.055E-03     242.144E-03    -122.983E-03     45.7673E-03     42.8553E+06     14.4904E+06    -47.8182E+06    -47.8108E+06     41.9159E+06     15.4223E+06     498.982E+03         49.6826
              14     8.84538E-03     70.2719E-03     886.362E-03     155.819E-03    -80.5510E-03    -80.1042E-03     885.916E-03     155.819E-03     37.3731E-03     243.543E-03    -120.647E-03    -123.143E-03    -119.932E-03     242.828E-03    -123.143E-03     31.4372E-03     5.73407E+06    -23.3893E+06    -54.9882E+06    -53.8886E+06    -24.4888E+06     5.73407E+06     320.618E+03         47.4266
              15     7.95909E-03     70.2502E-03     802.356E-03     176.344E-03    -18.6118E-03    -18.3751E-03     802.119E-03     176.344E-03     22.9446E-03     244.296E-03    -121.326E-03    -123.292E-03    -121.031E-03     244.001E-03    -123.292E-03     20.2836E-03    -4.95173E+06    -59.8547E+06    -87.6519E+06    -59.8893E+06    -87.6173E+06    -4.95173E+06     338.092E+03         45.6200
              16     7.07527E-03     70.2365E-03     718.726E-03     195.135E-03     48.2915E-03     48.7042E-03     718.314E-03     195.135E-03     25.1738E-03     245.056E-03    -121.821E-03    -123.360E-03    -121.713E-03     244.948E-03    -123.360E-03     11.6829E-03    -13.7695E+06     -65.372E+06    -137.023E+06    -65.3814E+06    -137.013E+06    -13.7695E+06     415.204E+03         44.1641
              17     6.19036E-03     70.2334E-03     643.840E-03     211.249E-03     106.491E-03     107.832E-03     642.499E-03     211.249E-03     23.5506E-03     245.326E-03    -122.004E-03    -123.396E-03    -121.984E-03     245.306E-03    -123.396E-03     4.86342E-03    -24.8818E+06    -71.6775E+06    -175.050E+06    -71.6822E+06    -175.046E+06    -24.8818E+06     455.608E+03         42.9766
              18     5.30588E-03     70.2350E-03     593.324E-03     225.743E-03     139.141E-03     142.323E-03     590.143E-03     225.743E-03     41.8324E-03     245.793E-03    -122.456E-03    -123.397E-03    -122.453E-03     245.791E-03    -123.397E-03     659.429E-06    -37.5572E+06    -78.4814E+06    -211.528E+06    -78.4857E+06    -211.524E+06    -37.5572E+06     598.742E+03         42.0138
              19     4.42189E-03     70.2413E-03     551.850E-03     240.493E-03     161.924E-03     168.022E-03     545.752E-03     240.493E-03     50.1494E-03     246.142E-03    -122.825E-03    -123.428E-03    -122.831E-03     246.137E-03    -123.417E-03    -2.38313E-03    -50.6014E+06    -84.3406E+06    -241.040E+06    -84.3470E+06    -241.034E+06    -50.6014E+06     576.856E+03         41.2647
              20     3.53753E-03     70.2490E-03     504.247E-03     254.095E-03     192.836E-03     209.955E-03     487.128E-03     254.095E-03    -17.4809E-03     246.440E-03    -123.071E-03    -123.436E-03    -123.066E-03     246.424E-03    -123.425E-03    -4.71748E-03    -65.1292E+06    -90.7698E+06    -266.138E+06     -90.782E+06    -266.126E+06    -65.1292E+06     748.921E+03         40.7105
              21     2.65264E-03     70.2621E-03     466.339E-03     262.109E-03     221.018E-03     252.727E-03     434.631E-03     262.109E-03    -4.60973E-03     246.586E-03    -123.166E-03    -123.458E-03    -123.228E-03     246.568E-03    -123.377E-03    -5.08402E-03    -78.9580E+06    -97.3833E+06    -285.591E+06    -97.4035E+06    -285.571E+06    -78.9580E+06     1.39098E+06         40.3002
              22     1.76862E-03     70.2684E-03     437.057E-03     270.155E-03     243.133E-03     279.077E-03     411.709E-03     259.558E-03     52.6227E-03     246.489E-03    -123.086E-03    -123.451E-03    -123.192E-03     246.479E-03    -123.336E-03    -3.77901E-03    -92.7560E+06    -101.603E+06    -291.305E+06    -101.623E+06    -291.285E+06    -92.7560E+06     1.44233E+06         40.0018
              23     883.656E-06     70.2750E-03     530.694E-03     311.132E-03     111.698E-03     396.865E-03     442.918E-03     113.740E-03    -103.947E-03     246.582E-03    -122.781E-03    -123.817E-03    -123.665E-03     246.578E-03    -122.929E-03    -1.55059E-03    -101.684E+06    -103.478E+06    -294.379E+06    -103.055E+06    -294.351E+06    -102.136E+06    -142.084E+03         39.8123
              24    -702.827E-09     68.9952E-03     764.920E-03     422.578E-03    -238.975E-03     467.908E-03     719.590E-03    -238.975E-03    -163.060E-03     246.277E-03    -122.480E-03    -123.791E-03    -123.789E-03     246.276E-03    -122.480E-03    -244.980E-06    -104.785E+06    -105.961E+06    -294.237E+06    -105.084E+06    -294.214E+06    -105.685E+06     1.86781E+06         39.7482
              25     1.60499E-06     67.7210E-03     959.629E-03     453.065E-03    -460.250E-03     457.055E-03     955.638E-03    -460.250E-03    -89.5275E-03     245.944E-03    -122.681E-03    -123.284E-03    -123.283E-03     245.942E-03    -122.681E-03    -291.775E-06    -108.233E+06    -110.602E+06    -298.714E+06    -110.676E+06    -298.640E+06    -108.233E+06    -949.979E+03         39.7521
              26    -1.43271E-06     66.4428E-03         1.30238     447.737E-03    -801.723E-03     450.332E-03         1.29978    -801.723E-03    -69.8468E-03     247.579E-03    -123.401E-03    -124.201E-03    -124.199E-03     247.577E-03    -123.401E-03    -661.838E-06    -105.558E+06    -111.518E+06    -301.451E+06    -107.710E+06    -301.392E+06    -109.426E+06    -2.93272E+06         39.7567
              27     2.71805E-06     65.1593E-03         1.70246     359.843E-03        -1.12790     361.641E-03         1.70066        -1.12790     57.7728E-03     246.897E-03    -122.635E-03    -124.260E-03    -124.258E-03     246.895E-03    -122.635E-03    -1.25221E-03    -109.010E+06    -115.072E+06    -301.576E+06    -111.294E+06    -301.488E+06    -112.877E+06     2.12952E+06         39.7455
              28    -1.11470E-06     63.8840E-03         2.12961     257.156E-03        -1.45686     258.948E-03         2.12781        -1.45686     93.8541E-03     245.418E-03    -122.115E-03    -123.310E-03    -123.310E-03     245.417E-03    -122.115E-03     800.019E-06    -108.008E+06    -110.585E+06    -296.784E+06    -110.304E+06    -296.683E+06    -108.389E+06     1.53571E+06         39.7335
              29     1.62965E-06     62.6037E-03         2.54595     134.748E-03        -1.75296     135.332E-03         2.54537        -1.75296     71.5046E-03     246.500E-03    -122.569E-03    -123.945E-03    -123.944E-03     246.499E-03    -122.569E-03     1.39130E-03    -105.523E+06    -106.845E+06    -295.447E+06    -105.540E+06    -295.431E+06    -106.845E+06    -1.13419E+06         39.7492
              30     260.446E-09     61.3272E-03         2.76517     74.3242E-03        -1.91590     76.6323E-03         2.76286        -1.91590    -48.9735E-03     247.128E-03    -122.907E-03    -124.245E-03    -124.244E-03     247.127E-03    -122.907E-03     27.0951E-06    -108.972E+06    -109.930E+06    -299.398E+06    -108.999E+06    -299.389E+06    -109.912E+06     1.00744E+06         39.7665
              31     181.047E-09     60.0491E-03         3.11950    -62.9041E-03        -2.13505    -56.4503E-03         3.11305        -2.13505    -282.992E-03     246.497E-03    -123.092E-03    -123.419E-03    -123.418E-03     246.496E-03    -123.092E-03    -813.480E-06    -109.003E+06    -110.110E+06    -299.396E+06    -110.119E+06    -299.388E+06    -109.003E+06     880.229E+03         39.7510
              32    -38.7946E-09     58.7685E-03         3.62130    -262.167E-03        -2.43972    -249.462E-03         3.60859        -2.43972    -441.019E-03     246.044E-03    -122.618E-03    -123.428E-03    -123.428E-03     246.043E-03    -122.618E-03    -8.36619E-06    -112.019E+06    -113.229E+06    -298.238E+06    -113.255E+06    -298.213E+06    -112.019E+06     1.50398E+06         39.7259
              33     1.33178E-06     57.4922E-03         3.86525    -361.784E-03        -2.59775    -351.360E-03         3.85483        -2.59775    -400.170E-03     246.441E-03    -122.743E-03    -123.701E-03    -123.700E-03     246.441E-03    -122.743E-03     923.651E-06    -108.859E+06    -109.460E+06    -294.054E+06    -109.031E+06    -294.003E+06    -109.339E+06    -10.5473E+03         39.7245
              34    -945.644E-09     56.2125E-03         4.09306    -533.663E-03        -2.65441    -530.272E-03         4.08967        -2.65441    -243.773E-03     246.528E-03    -122.926E-03    -123.607E-03    -123.604E-03     246.525E-03    -122.926E-03    -512.695E-06    -105.210E+06    -107.451E+06    -294.293E+06    -105.236E+06    -294.266E+06    -107.451E+06    -1.90780E+06         39.7376
              35     1.72351E-06     54.9373E-03         4.32316    -761.937E-03        -2.65527    -758.996E-03         4.32021        -2.65527    -242.375E-03     245.791E-03    -122.553E-03    -123.250E-03    -123.248E-03     245.789E-03    -122.553E-03    -974.058E-06    -106.178E+06    -108.695E+06    -296.811E+06    -106.935E+06    -296.809E+06    -107.940E+06    -169.681E+03         39.7489
              36    -1.30056E-06     53.6582E-03         4.48435    -990.820E-03        -2.59498    -986.941E-03         4.48047        -2.59498    -291.338E-03     246.041E-03    -122.458E-03    -123.596E-03    -123.596E-03     246.041E-03    -122.458E-03    -381.128E-06    -105.579E+06    -106.446E+06    -295.115E+06    -106.349E+06    -295.101E+06    -105.691E+06     1.35358E+06         39.7675
              37     2.86376E-06     52.3801E-03         4.66524        -1.24129        -2.51618        -1.23538         4.65933        -2.51618    -369.206E-03     247.379E-03    -122.660E-03    -124.712E-03    -124.712E-03     247.378E-03    -122.660E-03    -370.575E-06    -105.620E+06    -107.102E+06    -293.679E+06    -107.078E+06    -293.592E+06    -105.732E+06    -1.44666E+06         39.7972
              38    -798.474E-09     51.1026E-03         4.71200        -1.42100        -2.36369        -1.41274         4.70373        -2.36369    -449.840E-03     248.099E-03    -123.416E-03    -124.687E-03    -124.685E-03     248.098E-03    -123.416E-03    -718.891E-06    -106.298E+06    -109.068E+06    -294.074E+06    -107.787E+06    -293.956E+06    -107.698E+06    -4.64921E+06         39.8129
              39     1.01487E-06     49.8173E-03         4.66409        -1.55808        -2.19336        -1.54992         4.65594        -2.19336    -449.989E-03     247.216E-03    -123.346E-03    -123.894E-03    -123.893E-03     247.214E-03    -123.346E-03    -196.641E-06    -114.325E+06    -115.749E+06    -301.760E+06    -114.463E+06    -301.646E+06    -115.724E+06     485.335E+03         39.8046
              40    -208.687E-09     48.5407E-03         4.66587        -1.69668        -2.05269        -1.69137         4.66056        -2.05269    -357.422E-03     246.816E-03    -122.731E-03    -124.100E-03    -124.099E-03     246.816E-03    -122.731E-03     659.255E-06    -110.577E+06    -111.429E+06    -292.607E+06    -111.499E+06    -292.537E+06    -110.577E+06     2.80819E+06         39.7954
              41     1.86264E-06     47.2625E-03         4.54920        -1.75367        -1.86729        -1.75107         4.54660        -1.86729    -255.298E-03     246.756E-03    -122.808E-03    -123.965E-03    -123.964E-03     246.756E-03    -122.808E-03    -617.049E-06    -104.412E+06    -107.370E+06    -287.933E+06    -105.305E+06    -287.868E+06    -106.543E+06    -2.20640E+06         39.7870
              42    -1.50780E-06     45.9849E-03         4.32685        -1.64562        -1.74110        -1.73958         4.32550        -1.64579    -170.598E-03     245.906E-03    -122.390E-03    -123.531E-03    -123.530E-03     245.906E-03    -122.390E-03    -762.732E-06    -104.315E+06    -107.082E+06    -291.628E+06    -105.155E+06    -291.424E+06    -106.446E+06      1.1009E+06         39.7715
              43     3.19056E-06     44.7044E-03         4.12206        -1.46282        -1.70465        -1.70397         4.12139        -1.46282    -124.043E-03     245.770E-03    -122.191E-03    -123.583E-03    -123.583E-03     245.769E-03    -122.191E-03     448.350E-06    -107.209E+06    -108.015E+06    -290.096E+06    -108.157E+06    -289.953E+06    -107.209E+06     3.05467E+06         39.7657
              44    -2.36490E-06     43.4314E-03         3.89575        -1.25767        -1.67723        -1.67678         3.89530        -1.25767    -57.4422E-03     246.120E-03    -122.792E-03    -123.322E-03    -123.254E-03     246.111E-03    -122.850E-03    -1.88105E-03    -107.804E+06    -108.957E+06    -291.574E+06    -108.004E+06    -291.543E+06    -108.787E+06     1.06264E+06         39.7717
              45     2.24487E-06     42.1553E-03         3.63500    -975.113E-03        -1.66972        -1.66966         3.63494    -975.113E-03    -7.59742E-03     246.745E-03    -122.676E-03    -124.061E-03    -123.994E-03     246.736E-03    -122.734E-03    -2.43331E-03    -102.999E+06    -105.822E+06    -291.540E+06    -104.889E+06    -291.491E+06    -103.981E+06     156.053E+03         39.7824
              46     118.092E-09     40.8683E-03         3.27513    -669.536E-03        -1.58628        -1.58575         3.27460    -669.536E-03    -87.6451E-03     247.294E-03    -122.939E-03    -124.345E-03    -124.265E-03     247.292E-03    -123.018E-03     1.24773E-03    -102.983E+06    -107.447E+06    -293.455E+06    -104.846E+06    -293.433E+06    -105.606E+06    -1.41006E+06         39.8012
              47    -296.907E-09     39.5918E-03         2.89584    -377.383E-03        -1.48140        -1.48076         2.89520    -377.383E-03    -101.618E-03     246.851E-03    -123.073E-03    -123.766E-03    -123.686E-03     246.849E-03    -123.151E-03     927.440E-06    -103.532E+06    -107.780E+06    -293.191E+06    -105.157E+06    -293.191E+06    -106.155E+06     23.9027E+03         39.8123
              48     1.40275E-06     38.3134E-03         2.57585    -141.735E-03        -1.39941        -1.39858         2.57501    -141.735E-03    -106.997E-03     245.843E-03    -122.151E-03    -123.693E-03    -123.693E-03     245.843E-03    -122.151E-03    -700.835E-06    -104.683E+06    -106.992E+06    -292.211E+06    -106.308E+06    -292.210E+06    -105.368E+06    -233.027E+03         39.8073
              49     216.034E-09     37.0404E-03         2.24402     73.4762E-03        -1.26922        -1.26677         2.24157     73.4762E-03    -179.401E-03     245.864E-03    -122.272E-03    -123.592E-03    -123.197E-03     245.862E-03    -122.665E-03    -1.68998E-03    -106.374E+06    -107.253E+06    -290.096E+06    -106.580E+06    -290.083E+06    -107.059E+06    -1.26065E+06         39.8107
              50    -925.048E-09     35.7632E-03         1.82633     336.544E-03        -1.10690        -1.10334         1.82277     336.544E-03    -203.958E-03     247.176E-03    -123.108E-03    -124.066E-03    -123.670E-03     247.173E-03    -123.501E-03    -2.13372E-03    -111.234E+06    -112.319E+06    -295.501E+06    -111.447E+06    -295.483E+06    -112.125E+06    -1.78687E+06         39.8290
              51     1.90410E-06     34.4781E-03         1.51107     518.773E-03    -943.721E-03    -941.198E-03         1.50855     518.773E-03    -154.446E-03     247.767E-03    -123.283E-03    -124.496E-03    -124.493E-03     247.765E-03    -123.283E-03     96.3688E-06    -109.064E+06    -110.294E+06    -293.648E+06    -109.422E+06    -293.630E+06    -109.955E+06     287.640E+03         39.8405
              52    -758.367E-09     33.1982E-03         1.30245     642.136E-03    -845.166E-03    -842.506E-03         1.29979     642.136E-03    -145.435E-03     247.203E-03    -122.743E-03    -124.474E-03    -124.473E-03     247.201E-03    -122.743E-03     1.01375E-03    -107.428E+06    -109.407E+06    -289.751E+06    -109.420E+06    -289.738E+06    -107.428E+06     1.43635E+06         39.8310
              53     2.71733E-06     31.9198E-03         1.05554     752.102E-03    -703.560E-03    -693.283E-03     966.238E-03     831.123E-03    -237.772E-03     246.030E-03    -122.442E-03    -123.593E-03    -123.593E-03     246.030E-03    -122.442E-03    -233.536E-06    -108.139E+06    -112.696E+06    -294.422E+06    -109.780E+06    -294.420E+06    -111.057E+06     536.293E+03         39.8088
              54    -2.63148E-06     30.6472E-03     908.357E-03     689.964E-03    -480.837E-03    -470.208E-03     679.335E-03     908.357E-03    -82.9367E-03     246.220E-03    -123.002E-03    -123.218E-03    -123.068E-03     246.220E-03    -123.151E-03    -637.920E-06    -103.259E+06    -109.876E+06    -290.532E+06    -106.959E+06    -290.531E+06    -106.177E+06    -118.245E+03         39.7947
              55     2.41775E-06     29.3634E-03     931.664E-03     550.465E-03    -367.448E-03    -358.582E-03     541.600E-03     931.664E-03     172.156E-03     246.737E-03    -122.714E-03    -124.024E-03    -123.873E-03     246.736E-03    -122.864E-03    -1.44510E-03    -102.398E+06    -111.086E+06    -289.972E+06    -106.110E+06    -289.959E+06    -107.387E+06    -1.32552E+06         39.7925
              56    -429.069E-09     28.0885E-03         1.02715     345.441E-03    -238.142E-03    -231.401E-03     338.700E-03         1.02715     115.519E-03     246.460E-03    -122.311E-03    -124.147E-03    -124.145E-03     246.458E-03    -122.311E-03    -615.650E-06    -103.167E+06    -113.671E+06    -291.150E+06    -108.735E+06    -291.098E+06    -108.156E+06     823.650E+03         39.7946
              57     1.72332E-06     26.8095E-03     968.221E-03     292.876E-03    -115.488E-03    -114.686E-03     292.075E-03     968.221E-03    -15.0734E-03     247.300E-03    -122.427E-03    -124.816E-03    -124.815E-03     247.299E-03    -122.427E-03    -553.304E-06    -101.284E+06    -112.457E+06    -288.714E+06    -106.840E+06    -288.673E+06    -106.942E+06     1.77945E+06         39.7817
              58     1.32263E-06     25.5256E-03     881.613E-03     380.801E-03    -114.856E-03    -114.036E-03     379.981E-03     881.613E-03    -11.8270E-03     245.455E-03    -121.829E-03    -123.573E-03    -123.571E-03     245.454E-03    -121.829E-03    -648.608E-06    -100.320E+06    -110.519E+06    -288.242E+06    -104.872E+06    -288.232E+06    -105.978E+06     843.320E+03         39.7282
              59    -1.22092E-06     24.2557E-03     924.481E-03     272.230E-03    -55.8136E-03    -50.5601E-03     266.977E-03     924.481E-03    -26.9202E-03     243.423E-03    -121.589E-03    -121.838E-03    -121.618E-03     243.423E-03    -121.809E-03    -112.944E-06    -103.876E+06    -111.674E+06    -285.217E+06    -108.455E+06    -285.179E+06    -107.132E+06    -601.409E+03         39.6646
              60     796.455E-09     22.9829E-03     875.170E-03     309.791E-03    -35.0958E-03    -27.3612E-03     302.057E-03     875.170E-03     11.9567E-03     244.478E-03    -122.123E-03    -122.372E-03    -122.151E-03     244.478E-03    -122.343E-03    -777.191E-06    -107.341E+06    -114.563E+06    -283.204E+06    -111.354E+06    -283.157E+06    -110.597E+06    -2.83848E+06         39.6131
              61    -709.944E-09     21.7006E-03     772.277E-03     504.375E-03    -115.320E-03    -112.589E-03     501.644E-03     772.277E-03     42.7821E-03     243.459E-03    -121.167E-03    -122.306E-03    -122.302E-03     243.455E-03    -121.167E-03    -2.02390E-03    -108.230E+06    -117.974E+06    -293.321E+06    -112.216E+06    -293.302E+06    -114.008E+06    -1.26383E+06         39.5210
              62     2.60142E-06     20.4347E-03     850.412E-03     502.593E-03    -184.981E-03    -184.885E-03     760.889E-03     592.020E-03    -732.108E-06     241.197E-03    -120.030E-03    -121.169E-03    -121.135E-03     241.192E-03    -120.059E-03    -832.280E-06    -107.954E+06    -119.800E+06    -293.537E+06    -114.043E+06    -293.516E+06    -113.732E+06     1.34817E+06         39.3556
              63    -2.56847E-06     19.1571E-03         1.03693     323.873E-03    -238.908E-03    -237.690E-03         1.03571     323.873E-03     65.9708E-03     238.927E-03    -119.297E-03    -119.641E-03    -119.603E-03     238.918E-03    -119.327E-03    -1.48929E-03    -108.202E+06    -119.651E+06    -288.363E+06    -114.432E+06    -288.201E+06    -113.583E+06    -2.27310E+06         39.1140
              64     3.04989E-06     17.8958E-03         1.20289     193.445E-03    -298.192E-03    -289.145E-03         1.19385     193.445E-03     216.061E-03     234.598E-03    -116.851E-03    -117.747E-03    -117.738E-03     234.589E-03    -116.851E-03    -3.30477E-03    -110.881E+06    -119.536E+06    -292.236E+06    -114.421E+06    -291.971E+06    -116.262E+06    -318.741E+03         38.7540
              65    -1.96943E-06     16.6348E-03         1.49463     24.5544E-03    -422.951E-03    -414.823E-03         1.48651     24.5544E-03     124.591E-03     228.942E-03    -113.953E-03    -114.968E-03    -114.524E-03     228.930E-03    -114.385E-03    -3.65858E-03    -107.271E+06    -113.154E+06    -289.737E+06    -110.776E+06    -289.506E+06    -109.880E+06     141.459E+03         38.2142
              66     1.17652E-06     15.3814E-03         1.92573    -289.917E-03    -518.685E-03    -517.195E-03         1.92424    -289.917E-03     46.5721E-03     220.682E-03    -109.775E-03    -110.893E-03    -110.445E-03     220.666E-03    -110.207E-03    -4.44900E-03    -105.876E+06    -108.918E+06    -288.760E+06    -106.466E+06    -288.604E+06    -108.485E+06    -1.00272E+06         37.4474
              67     45.3029E-09     14.1415E-03         2.25750    -552.885E-03    -590.796E-03    -585.880E-03         2.25314    -553.444E-03     218.315E-03     208.353E-03    -103.683E-03    -104.656E-03    -104.624E-03     208.321E-03    -103.683E-03    -5.77788E-03    -108.240E+06    -108.767E+06    -289.616E+06    -108.729E+06    -289.560E+06    -108.334E+06     2.80478E+06         36.4548
              68     419.374E-09     12.9237E-03         2.56224    -735.746E-03    -750.717E-03    -746.776E-03         2.55886    -736.305E-03     179.752E-03     193.415E-03    -96.3992E-03    -97.0062E-03    -96.9458E-03     193.355E-03    -96.3992E-03    -8.35007E-03    -108.677E+06    -109.209E+06    -284.131E+06    -109.132E+06    -284.113E+06    -108.771E+06     1.69704E+06         35.2872
              69     89.0146E-09     11.7186E-03         2.91187    -848.199E-03    -945.324E-03    -861.837E-03         2.91109    -930.912E-03    -22.0208E-03     176.268E-03    -87.6428E-03    -88.6302E-03    -88.5426E-03     176.181E-03    -87.6428E-03    -9.53611E-03    -110.737E+06    -111.691E+06    -280.315E+06    -111.734E+06    -280.272E+06    -110.737E+06    -592.973E+03         34.1280
              70     1.03496E-06     10.5396E-03         3.18060    -960.963E-03        -1.11670    -960.394E-03         3.18003        -1.11670    -83.8824E-03     158.764E-03    -78.6534E-03    -80.1295E-03    -80.0384E-03     158.673E-03    -78.6534E-03    -9.30442E-03    -110.487E+06    -112.917E+06    -282.179E+06    -111.138E+06    -282.043E+06    -112.401E+06     1.38216E+06         33.4242
              71     332.752E-09     9.37843E-03         3.53104        -1.13942        -1.30770        -1.13928         3.53091        -1.30770    -49.1624E-03     146.097E-03    -72.4141E-03    -73.6922E-03    -73.6229E-03     146.028E-03    -72.4141E-03    -7.79881E-03    -99.4957E+06    -104.552E+06    -266.328E+06    -102.747E+06    -266.219E+06    -101.410E+06     3.62403E+06         33.5754
              72     512.733E-09     8.22794E-03         3.87841        -1.27127        -1.51157        -1.27064         3.87778        -1.51157    -105.329E-03     145.109E-03    -71.8942E-03    -73.2090E-03    -73.1759E-03     145.076E-03    -71.8942E-03    -4.32711E-03    -88.0115E+06    -94.3435E+06    -251.358E+06    -91.1845E+06    -251.327E+06    -91.2014E+06     2.08519E+06         34.6657
              73     1.03248E-06     7.07138E-03         4.05098        -1.31177        -1.67406        -1.31117         4.05037        -1.67406    -49.4660E-03     166.039E-03    -82.1433E-03    -83.8969E-03    -83.8691E-03     166.011E-03    -82.1433E-03     3.23451E-03    -73.6256E+06    -83.4259E+06    -249.061E+06    -80.2628E+06    -249.034E+06    -76.8155E+06     1.74638E+06         36.7264
              74     787.467E-09     5.87183E-03         4.26567        -1.39188        -1.77614        -1.39093         4.26472        -1.77614    -75.7214E-03     216.111E-03    -107.008E-03    -109.108E-03    -107.776E-03     215.971E-03    -108.200E-03     13.0181E-03    -65.6179E+06    -78.3301E+06    -250.749E+06    -72.3280E+06    -250.650E+06    -71.7197E+06    -2.73244E+06         39.9466
              75    -2.85713E-06     4.59164E-03         4.47760        -1.50050        -1.85807        -1.49950         4.47660        -1.85807    -139.653E-03     294.750E-03    -146.017E-03    -148.717E-03    -145.767E-03     294.500E-03    -148.717E-03     20.9828E-03    -75.3259E+06    -81.6364E+06    -260.171E+06    -75.6925E+06    -260.013E+06    -81.4276E+06    -683.194E+03         44.5188
              76     498.192E-09     3.18859E-03         4.68525        -1.69453        -1.89261        -1.69363         4.68435        -1.89261    -139.923E-03     388.030E-03    -192.495E-03    -195.523E-03    -193.805E-03     387.819E-03    -194.002E-03     21.6368E-03    -76.0175E+06    -76.9738E+06    -260.543E+06    -76.2894E+06    -260.480E+06    -76.7650E+06     1.72749E+06         49.7419
              77     2.01899E-06     1.63864E-03         4.79563        -1.78148        -1.92899        -1.92047         4.79463        -1.78900    -47.8211E-03     463.567E-03    -230.793E-03    -232.770E-03    -232.683E-03     463.480E-03    -230.793E-03     14.2402E-03    -73.8055E+06    -75.8109E+06    -257.998E+06    -75.1719E+06    -257.890E+06    -74.5530E+06     2.47127E+06         54.1767
              78     776.618E-06     305.474E-09         4.77427        -1.77946        -1.92294        -1.92272         4.77405        -1.77946     61.9193E-03     487.731E-03    -242.592E-03    -245.126E-03    -242.987E-03     487.671E-03    -244.670E-03     12.7238E-03    -72.6269E+06    -74.8004E+06    -255.205E+06     -74.923E+06    -255.083E+06    -72.6269E+06     1.80437E+06         55.9300
              79     1.55794E-03     305.474E-09         4.78559        -1.83931        -1.85299        -1.84280         4.78558        -1.84950     12.3326E-03     475.686E-03    -233.767E-03    -241.883E-03    -233.594E-03     475.512E-03    -241.883E-03     21.5234E-03    -69.9337E+06    -73.8697E+06    -253.002E+06    -74.0146E+06    -252.857E+06    -69.9337E+06     2.09173E+06         55.6374
              80     2.34952E-03     305.474E-09         4.75573        -1.80957        -1.84253        -1.80957         4.75572        -1.84253     9.33645E-03     456.708E-03    -219.536E-03    -236.982E-03    -219.208E-03     456.381E-03    -236.982E-03     29.5056E-03    -66.3673E+06    -73.2554E+06    -251.901E+06    -73.4680E+06    -251.688E+06    -66.3673E+06     602.841E+03         55.1233
              81     3.15608E-03     305.474E-09         4.71417        -1.78369        -1.83120        -1.78366         4.71414        -1.83120     25.1101E-03     432.725E-03    -201.996E-03    -230.503E-03    -201.499E-03     432.228E-03    -230.503E-03     35.3124E-03    -63.0792E+06    -71.0476E+06    -249.615E+06    -71.2407E+06    -249.422E+06    -63.0792E+06     333.909E+03         54.3280
              82     3.97886E-03     305.474E-09         4.67360        -1.75874        -1.81914        -1.75870         4.67356        -1.81914     29.7349E-03     406.766E-03    -183.591E-03    -222.940E-03    -182.925E-03     406.100E-03    -222.940E-03     39.5360E-03    -63.0503E+06    -69.1930E+06    -249.646E+06    -69.6399E+06    -249.199E+06    -63.0503E+06    -2.44894E+06         53.1657
              83     4.81730E-03     305.474E-09         4.61710        -1.71946        -1.80558        -1.71945         4.61708        -1.80558    -2.35510E-03     379.981E-03    -164.928E-03    -214.612E-03    -164.146E-03     379.200E-03    -214.612E-03     41.1973E-03    -60.5115E+06    -65.2117E+06    -243.589E+06    -62.9941E+06    -243.149E+06    -63.1696E+06    -8.56099E+06         51.6750
              84     5.67460E-03     305.474E-09         4.54088        -1.66704        -1.78892        -1.66697         4.54081        -1.78892    -39.0718E-03     353.148E-03    -146.727E-03    -205.924E-03    -145.869E-03     352.290E-03    -205.924E-03     41.3523E-03    -53.6900E+06    -68.8145E+06    -208.014E+06    -54.5083E+06    -207.196E+06    -68.8145E+06    -9.76530E+06         50.2270
              85     6.54503E-03     305.474E-09         4.45273        -1.59109        -1.76792        -1.59102         4.45266        -1.76792    -34.5977E-03     328.084E-03    -130.779E-03    -197.173E-03    -129.832E-03     327.137E-03    -197.173E-03     41.5983E-03    -39.2143E+06    -79.2501E+06    -146.621E+06    -42.3076E+06    -143.528E+06    -79.2501E+06    -16.5941E+06         49.2673
              86     7.43082E-03     305.474E-09         4.35638        -1.50424        -1.74197        -1.50423         4.35637        -1.74197    -14.7827E-03     305.209E-03    -116.820E-03    -188.539E-03    -115.868E-03     304.258E-03    -188.539E-03     40.0302E-03    -22.2632E+06    -62.2812E+06    -99.4522E+06    -27.2153E+06    -72.9142E+06    -83.8670E+06    -14.8864E+06         48.9548
              87     8.32778E-03     305.474E-09         4.25052        -1.42447        -1.71232        -1.42445         4.25050        -1.71232    -21.8696E-03     284.761E-03    -104.657E-03    -180.363E-03    -103.761E-03     283.865E-03    -180.363E-03     37.3056E-03     13.3109E+06    -28.8827E+06    -76.9009E+06    -18.4290E+06     2.85715E+06    -76.9009E+06    -9.16075E+06         49.2640
              88     9.23729E-03     305.474E-09         4.13181        -1.32915        -1.67961        -1.32904         4.13170        -1.67961    -46.0402E-03     268.605E-03    -95.9908E-03    -172.865E-03    -94.9717E-03     267.586E-03    -172.865E-03     38.3796E-03     60.7716E+06    -14.9173E+06    -41.5753E+06    -14.5164E+06     60.1450E+06    -41.3496E+06    -2.67463E+06         50.1464
              89     10.1436E-03     305.474E-09         4.01108        -1.23419        -1.64398        -1.23405         4.01093        -1.64398    -54.3108E-03     256.058E-03    -90.2567E-03    -165.803E-03    -89.0209E-03     254.822E-03    -165.803E-03     41.2548E-03     93.5660E+06     14.2019E+06    -10.7359E+06    -9.94886E+06     92.7789E+06     14.2019E+06    -5.08222E+06         51.5466
              90     11.0648E-03     305.474E-09         3.90547        -1.14278        -1.60636        -1.14273         3.90541        -1.60636    -27.4549E-03     246.104E-03    -86.3294E-03    -159.535E-03    -84.9852E-03     244.760E-03    -159.535E-03     42.1875E-03     105.148E+06     63.3879E+06    -4.22923E+06    -2.67803E+06     103.597E+06     63.3879E+06    -136.531E+03         53.4064
              91     11.9814E-03     305.474E-09         3.80380        -1.03280        -1.56679        -1.03279         3.80379        -1.56679    -15.2090E-03     243.507E-03    -88.8312E-03    -154.609E-03    -87.3451E-03     242.021E-03    -154.609E-03     44.3255E-03     104.158E+06     89.2755E+06     2.55767E+06     4.87518E+06     95.2977E+06     95.8178E+06    -1.59903E+06         55.6424
              92     12.9011E-03     305.474E-09         3.72353    -942.674E-03        -1.52598    -942.612E-03         3.72346        -1.52598     11.5541E-03     253.280E-03    -102.848E-03    -150.773E-03    -100.343E-03     250.776E-03    -150.773E-03     58.7668E-03     111.372E+06     98.2034E+06     8.21774E+06     11.8372E+06     94.5839E+06     111.372E+06     1.65706E+06         58.1336
              93     13.7726E-03     305.474E-09         3.69965    -864.133E-03        -1.48582    -863.932E-03         3.69945        -1.48582    -15.1880E-03     281.173E-03    -130.364E-03    -151.152E-03    -129.448E-03     277.532E-03    -148.428E-03     77.3216E-03     134.858E+06     114.256E+06    -3.43002E+06     28.7846E+06     96.0169E+06     120.883E+06    -31.1875E+06         60.7070
              94     14.6667E-03     305.474E-09         3.84234    -925.169E-03        -1.45159    -915.812E-03         3.83298        -1.45159     266.426E-03     419.883E-03    -150.089E-03    -269.559E-03    -245.867E-03     396.191E-03    -150.089E-03     237.598E-03     117.753E+06     99.4425E+06    -51.1023E+06    -10.2376E+06     72.5534E+06     103.778E+06    -13.7276E+06         63.0323
              95     15.5599E-03     1.94106E-03         3.65158    -940.636E-03        -1.43579    -916.693E-03         3.62763        -1.43579     652.640E-03     449.894E-03    -148.144E-03    -301.325E-03    -242.803E-03     391.373E-03    -148.144E-03     388.340E-03     98.6139E+06     92.9701E+06    -8.62120E+06     14.9075E+06     69.4414E+06     98.6139E+06     38.2862E+06         64.4086
              96     15.6520E-03     3.11601E-03         3.23503    -794.148E-03        -1.42036    -772.799E-03         3.21368        -1.42036     575.716E-03     336.943E-03    -140.553E-03    -196.320E-03    -137.252E-03     277.874E-03    -140.553E-03     333.300E-03     116.100E+06     97.8777E+06    -1.80968E+06     10.9971E+06     101.985E+06     99.1865E+06     9.25922E+06         65.3966
              97     15.7611E-03     4.39067E-03         3.05633    -698.288E-03        -1.37920    -688.229E-03         3.04627        -1.37920     384.210E-03     311.237E-03    -133.759E-03    -177.401E-03    -147.101E-03     280.937E-03    -133.759E-03     227.710E-03     110.902E+06     93.9076E+06    -7.37402E+06    -4.89624E+06     108.424E+06     93.9076E+06     5.36831E+06         66.3953
              98     15.8288E-03     5.73105E-03         2.92196    -685.090E-03        -1.31604    -679.299E-03         2.91616        -1.31604     287.552E-03     309.867E-03    -128.246E-03    -181.425E-03    -168.729E-03     297.171E-03    -128.246E-03     154.411E-03     107.557E+06     90.3241E+06     3.31824E+06     5.88545E+06     104.990E+06     90.3241E+06     10.4970E+06         66.6497
              99     15.8758E-03     7.08610E-03         2.84057    -700.976E-03        -1.23301    -697.879E-03         2.83747        -1.23301     202.122E-03     307.812E-03    -125.187E-03    -182.599E-03    -174.956E-03     300.170E-03    -125.187E-03     120.705E-03     108.469E+06     87.5706E+06    -7.96072E+06    -7.82784E+06     108.336E+06     87.5706E+06     2.81752E+06         66.3595
             100     15.8996E-03     8.44634E-03         2.76251    -684.798E-03        -1.13350    -683.900E-03         2.76161        -1.13350     103.997E-03     300.229E-03    -123.628E-03    -176.884E-03    -171.224E-03     294.569E-03    -123.628E-03     103.307E-03     107.863E+06     91.8853E+06     1.50401E+06     1.56312E+06     107.804E+06     91.8853E+06     1.57064E+06         66.1023
             101     15.9143E-03     9.78822E-03         2.68939    -682.713E-03        -1.02451    -682.503E-03         2.68918        -1.02451     52.2439E-03     292.483E-03    -122.937E-03    -169.891E-03    -164.608E-03     287.200E-03    -122.937E-03     98.2803E-03     108.696E+06     94.6093E+06    -4.42267E+06    -4.35580E+06     108.629E+06     94.6093E+06     1.24268E+06         66.0407
             102     15.9150E-03     11.1280E-03         2.61056    -692.288E-03    -909.127E-03    -692.144E-03         2.61041    -909.127E-03     43.5986E-03     284.679E-03    -122.809E-03    -162.080E-03    -157.135E-03     279.735E-03    -122.809E-03     93.4761E-03     105.662E+06     95.2156E+06    -1.46496E+06    -1.38632E+06     105.583E+06     95.2156E+06     1.34754E+06         66.0012
             103     15.9203E-03     12.4334E-03         2.52810    -711.684E-03    -789.391E-03    -711.602E-03         2.52801    -789.391E-03     26.4924E-03     273.711E-03    -122.830E-03    -151.272E-03    -147.103E-03     269.542E-03    -122.830E-03     83.6366E-03     104.738E+06     92.3512E+06    -5.44811E+06    -5.37477E+06     104.664E+06     92.3512E+06     1.51188E+06         65.9281
             104     15.9235E-03     13.7281E-03         2.46528    -665.901E-03    -740.298E-03    -738.191E-03         2.46527    -667.998E-03    -3.41147E-03     263.865E-03    -122.862E-03    -141.558E-03    -138.592E-03     260.898E-03    -122.862E-03     68.7857E-03     107.094E+06     94.4784E+06    -1.26357E+06    -1.24345E+06     107.074E+06     94.4784E+06     363.325E+03         65.8776
             105     15.9244E-03     15.0223E-03         2.38125    -548.933E-03    -736.314E-03    -736.281E-03         2.38121    -548.933E-03     5.66322E-03     256.918E-03    -122.931E-03    -134.412E-03    -132.096E-03     254.602E-03    -122.931E-03     60.0329E-03     107.289E+06     94.0685E+06    -3.30949E+06    -3.16693E+06     107.147E+06     94.0685E+06    -1.58205E+06         65.8931
             106     15.9244E-03     16.3088E-03         2.28279    -436.769E-03    -733.031E-03    -732.994E-03         2.28275    -436.769E-03     4.34828E-03     251.978E-03    -123.024E-03    -129.214E-03    -127.062E-03     249.827E-03    -123.024E-03     57.0951E-03     106.980E+06     94.9834E+06    -1.89923E+06    -1.64447E+06     106.726E+06     94.9834E+06     254.484E+03         65.9676
             107     15.9274E-03     17.5918E-03         2.20778    -334.396E-03    -747.812E-03    -747.799E-03         2.20777    -334.396E-03    -11.7299E-03     248.659E-03    -123.080E-03    -125.798E-03    -123.899E-03     246.759E-03    -123.080E-03     53.1895E-03     107.550E+06     94.4310E+06    -3.86618E+06    -3.62743E+06     107.311E+06     94.4310E+06     353.689E+03         66.0666
             108     15.9251E-03     18.8715E-03         2.14111    -242.425E-03    -752.214E-03    -752.205E-03         2.14110    -242.425E-03     2.69851E-03     246.589E-03    -123.033E-03    -123.844E-03    -121.992E-03     244.823E-03    -123.118E-03     51.0253E-03     109.215E+06     94.6990E+06    -1.58830E+06    -1.36375E+06     108.991E+06     94.6990E+06     180.736E+03         66.1560
             109     15.9271E-03     20.1495E-03         2.08596    -162.099E-03    -755.599E-03    -755.574E-03         2.08594    -162.099E-03     16.4697E-03     245.475E-03    -122.508E-03    -123.118E-03    -120.757E-03     243.725E-03    -123.118E-03     50.6380E-03     109.195E+06     93.6152E+06    -3.99052E+06    -3.77270E+06     108.978E+06     93.6152E+06     199.401E+03         66.2193
             110     15.9271E-03     21.4281E-03         2.03154    -96.6206E-03    -758.951E-03    -758.872E-03         2.03146    -96.6206E-03    -7.87798E-03     244.947E-03    -121.984E-03    -123.077E-03    -120.269E-03     243.232E-03    -123.077E-03     50.0556E-03     109.318E+06     94.9219E+06    -2.20824E+06    -2.04565E+06     109.156E+06     94.9219E+06    -572.157E+03         66.2641
             111     15.9292E-03     22.7065E-03         1.99488    -47.9530E-03    -772.496E-03    -772.430E-03         1.99481    -47.9530E-03    -24.3133E-03     245.406E-03    -122.472E-03    -123.058E-03    -120.681E-03     243.597E-03    -123.040E-03     51.4432E-03     109.603E+06     95.1141E+06    -2.58025E+06    -2.45809E+06     109.481E+06     95.1141E+06    -77.7664E+03         66.3034
             112     15.9266E-03     23.9890E-03         1.97334    -16.3735E-03    -770.582E-03    -770.500E-03         1.97326    -16.3735E-03    -26.4205E-03     246.449E-03    -123.038E-03    -123.578E-03    -121.713E-03     244.583E-03    -123.038E-03     52.3953E-03     107.631E+06     94.8087E+06    -3.34596E+06    -3.23357E+06     107.519E+06     94.8087E+06    -259.040E+03         66.3319
             113     15.9274E-03     25.2647E-03         1.95964    -2.71734E-03    -765.072E-03    -764.977E-03         1.95955    -2.71734E-03    -10.0180E-03     246.332E-03    -122.867E-03    -123.588E-03    -121.667E-03     244.610E-03    -123.067E-03     50.3295E-03     107.612E+06     96.0346E+06    -2.73007E+06    -2.64261E+06     107.524E+06     96.0346E+06     148.679E+03         66.3385
             114     15.9275E-03     26.5460E-03         1.96499    -7.70670E-03    -768.568E-03    -768.535E-03         1.96496    -7.70670E-03     1.48255E-03     245.039E-03    -121.997E-03    -123.064E-03    -120.277E-03     243.319E-03    -123.064E-03     50.1183E-03     107.108E+06     95.0854E+06    -3.03787E+06    -2.94003E+06     107.011E+06     95.0854E+06     317.745E+03         66.3368
             115     15.9287E-03     27.8266E-03         1.97962    -32.2473E-03    -762.312E-03    -762.273E-03         1.97958    -32.2473E-03    -20.5872E-03     245.106E-03    -122.172E-03    -123.061E-03    -120.370E-03     243.303E-03    -123.061E-03     51.3296E-03     106.587E+06     94.7355E+06    -3.27981E+06    -3.17546E+06     106.483E+06     94.7355E+06     208.762E+03         66.3477
             116     15.9258E-03     29.1028E-03         2.00494    -74.5004E-03    -759.537E-03    -759.451E-03         2.00485    -74.5004E-03     6.46067E-03     245.496E-03    -122.619E-03    -123.071E-03    -120.924E-03     243.801E-03    -123.071E-03     49.8107E-03     107.130E+06     95.0967E+06    -2.82621E+06    -2.75736E+06     107.061E+06     95.0967E+06    -484.333E+03         66.3652
             117     15.9289E-03     30.3800E-03         2.05107    -132.525E-03    -754.049E-03    -753.988E-03         2.05101    -132.525E-03     16.3807E-03     244.803E-03    -121.881E-03    -123.059E-03    -120.251E-03     243.172E-03    -123.059E-03     48.7816E-03     106.338E+06     95.9559E+06    -2.36048E+06    -2.26102E+06     106.238E+06     95.9559E+06    -908.168E+03         66.3732
             118     15.9275E-03     31.6588E-03         2.10941    -206.625E-03    -760.680E-03    -760.678E-03         2.10940    -206.625E-03     1.18047E-03     245.575E-03    -122.271E-03    -123.400E-03    -120.901E-03     243.823E-03    -123.019E-03     50.6664E-03     106.920E+06     97.3332E+06    -3.26961E+06    -3.07719E+06     106.727E+06     97.3332E+06     568.867E+03         66.3736
             119     15.9291E-03     32.9428E-03         2.18126    -293.475E-03    -763.145E-03    -763.142E-03         2.18126    -293.475E-03     140.786E-06     245.969E-03    -122.563E-03    -123.373E-03    -121.184E-03     244.208E-03    -122.991E-03     50.8554E-03     108.269E+06     95.9073E+06    -2.78380E+06    -2.61270E+06     108.098E+06     95.9073E+06     850.821E+03         66.3777
             120     15.9264E-03     34.2202E-03         2.24746    -390.000E-03    -738.615E-03    -738.614E-03         2.24746    -390.000E-03    -4.25905E-03     244.906E-03    -121.809E-03    -123.051E-03    -120.086E-03     243.182E-03    -123.051E-03     50.1584E-03     108.488E+06     94.4731E+06    -2.35425E+06    -2.23204E+06     108.366E+06     94.4731E+06     220.342E+03         66.3829
             121     15.9278E-03     35.4934E-03         2.30379    -496.304E-03    -716.322E-03    -716.281E-03         2.30374    -496.304E-03     14.3567E-03     244.487E-03    -121.483E-03    -123.077E-03    -119.810E-03     242.813E-03    -123.077E-03     49.3731E-03     107.662E+06     94.2451E+06    -3.21131E+06    -3.09423E+06     107.545E+06     94.2451E+06     299.837E+03         66.3804
             122     15.9279E-03     36.7734E-03         2.38775    -609.178E-03    -720.257E-03    -720.050E-03         2.38754    -609.178E-03     48.1793E-03     244.722E-03    -121.747E-03    -123.032E-03    -120.051E-03     243.026E-03    -123.032E-03     49.7299E-03     108.593E+06     94.1422E+06    -2.99241E+06    -2.86816E+06     108.469E+06     94.1422E+06     416.225E+03         66.3743
             123     15.9290E-03     38.0525E-03         2.48635    -695.384E-03    -755.737E-03    -727.278E-03         2.48618    -723.672E-03     37.6065E-03     244.796E-03    -121.812E-03    -122.927E-03    -119.962E-03     242.946E-03    -122.927E-03     51.9420E-03     108.992E+06     94.1540E+06    -2.67947E+06    -2.52083E+06     108.834E+06     94.1540E+06     -64.793E+03         66.3764
             124     15.9312E-03     39.3297E-03         2.57442    -715.616E-03    -838.253E-03    -715.578E-03         2.57439    -838.253E-03     20.0367E-03     244.692E-03    -121.888E-03    -122.810E-03    -120.049E-03     242.853E-03    -122.810E-03     51.7837E-03     107.162E+06     93.9442E+06    -2.46755E+06    -2.35974E+06     107.054E+06     93.9442E+06    -1.01775E+06         66.3954
             125     15.9307E-03     40.6085E-03         2.65117    -701.999E-03    -950.455E-03    -701.832E-03         2.65101    -950.455E-03     45.0670E-03     246.691E-03    -122.526E-03    -124.264E-03    -122.220E-03     244.961E-03    -122.839E-03     50.5294E-03     103.930E+06     91.0055E+06    -5.88537E+06    -5.79071E+06     103.835E+06     91.0055E+06    -851.667E+03         66.4310
             126     15.9253E-03     41.8941E-03         2.72037    -689.928E-03        -1.05665    -689.747E-03         2.72019        -1.05665     48.0080E-03     248.046E-03    -123.018E-03    -124.969E-03    -123.394E-03     246.472E-03    -123.018E-03     48.3340E-03     104.921E+06     91.5710E+06    -6.31211E+06    -6.14945E+06     104.758E+06     91.5710E+06     320.003E+03         66.4485
             127     15.9255E-03     43.1673E-03         2.79025    -689.256E-03        -1.15456    -689.193E-03         2.79019        -1.15456     28.4329E-03     245.133E-03    -121.378E-03    -123.663E-03    -120.373E-03     243.601E-03    -123.135E-03     47.3009E-03     107.623E+06     94.6123E+06    -1.88813E+06    -1.79219E+06     107.527E+06     94.6123E+06     1.72417E+06         66.4211
             128     15.9291E-03     44.4465E-03         2.86426    -692.562E-03        -1.24014    -692.392E-03         2.86409        -1.24014     43.8657E-03     242.766E-03    -119.566E-03    -123.126E-03    -117.866E-03     241.067E-03    -123.126E-03     49.4983E-03     106.152E+06     92.3309E+06    -4.30581E+06    -4.25528E+06     106.102E+06     92.3309E+06     1.05980E+06         66.3879
             129     15.9254E-03     45.7286E-03         2.90812    -673.143E-03        -1.31168    -672.924E-03         2.90790        -1.31168     54.7631E-03     244.005E-03    -120.745E-03    -123.126E-03    -118.919E-03     242.178E-03    -123.126E-03     51.4892E-03     106.689E+06     93.7292E+06    -1.70788E+06    -1.65496E+06     106.636E+06     93.7292E+06     973.009E+03         66.3846
             130     15.9274E-03     46.9932E-03         2.92716    -661.127E-03        -1.36960    -661.010E-03         2.92704        -1.36960     40.8752E-03     244.427E-03    -121.297E-03    -123.067E-03    -119.827E-03     242.957E-03    -123.067E-03     45.8446E-03     107.115E+06     92.8112E+06    -3.94825E+06    -3.92735E+06     107.094E+06     92.8112E+06     228.279E+03         66.3977
             131     15.9295E-03     48.2713E-03         2.95313    -660.196E-03        -1.41109    -660.109E-03         2.95305        -1.41109     35.2486E-03     243.964E-03    -121.033E-03    -122.989E-03    -119.853E-03     242.783E-03    -122.989E-03     41.4023E-03     106.727E+06     93.8799E+06    -550.764E+03    -530.919E+03     106.707E+06     93.8799E+06     293.514E+03         66.4300
             132     15.9282E-03     49.5530E-03         2.97429    -661.748E-03        -1.43409    -661.681E-03         2.97422        -1.43409     31.1648E-03     245.043E-03    -122.112E-03    -122.988E-03    -120.780E-03     243.711E-03    -122.988E-03     44.1466E-03     106.365E+06     93.6930E+06    -6.16133E+06    -6.15152E+06     106.355E+06     93.6930E+06    -183.783E+03         66.4991
             133     15.9284E-03     50.8329E-03         2.96709    -661.563E-03        -1.43769    -661.522E-03         2.96705        -1.43769     23.5548E-03     245.476E-03    -122.528E-03    -123.000E-03    -121.179E-03     244.127E-03    -123.000E-03     44.4768E-03     107.821E+06     95.2187E+06    -2.67023E+06    -2.63440E+06     107.786E+06     95.2187E+06     1.60340E+06         66.5796
             134     15.9284E-03     52.1091E-03         2.93015    -642.662E-03        -1.42214    -642.622E-03         2.93011        -1.42214    -6.64667E-03     244.698E-03    -121.752E-03    -122.990E-03    -120.526E-03     243.472E-03    -122.990E-03     42.2805E-03     108.305E+06     96.6524E+06     696.313E+03     747.929E+03     108.254E+06     96.6524E+06     126.369E+03         66.6410
             135     15.9293E-03     53.3859E-03         2.89764    -645.490E-03        -1.38898    -645.459E-03         2.89761        -1.38898    -15.5337E-03     243.933E-03    -121.068E-03    -122.960E-03    -119.980E-03     242.846E-03    -122.960E-03     39.7784E-03     106.731E+06     93.6393E+06    -5.82960E+06    -5.81125E+06     106.713E+06     93.6393E+06    -981.763E+03         66.6829
             136     15.9289E-03     54.6626E-03         2.85848    -652.501E-03        -1.33813    -652.494E-03         2.85848        -1.33813     6.05211E-03     244.597E-03    -121.757E-03    -122.958E-03    -120.661E-03     243.501E-03    -122.958E-03     40.0060E-03     106.949E+06     94.2253E+06    -847.034E+03    -844.305E+03     106.947E+06     94.2253E+06    -290.661E+03         66.7071
             137     15.9281E-03     55.9461E-03         2.78908    -640.465E-03        -1.27032    -640.459E-03         2.78907        -1.27032     7.06834E-03     245.346E-03    -122.508E-03    -122.984E-03    -121.267E-03     244.104E-03    -122.984E-03     42.6370E-03     108.261E+06     94.9093E+06    -3.07841E+06    -3.05660E+06     108.239E+06     94.9093E+06     612.603E+03         66.7119
             138     15.9287E-03     57.2281E-03         2.71295    -640.115E-03        -1.18723    -640.099E-03         2.71294        -1.18723    -9.82839E-03     244.648E-03    -121.603E-03    -123.014E-03    -120.264E-03     243.309E-03    -123.014E-03     44.2088E-03     107.292E+06     94.8951E+06    -1.36221E+06    -1.34080E+06     107.270E+06     94.8951E+06     652.690E+03         66.7057
             139     15.9287E-03     58.4995E-03         2.62798    -639.189E-03        -1.09112    -639.173E-03         2.62796        -1.09112    -11.3970E-03     243.819E-03    -120.700E-03    -123.000E-03    -119.588E-03     242.708E-03    -123.000E-03     39.9797E-03     106.041E+06     92.4266E+06    -4.23582E+06    -4.22206E+06     106.027E+06     92.4266E+06     441.170E+03         66.7036
             140     15.9290E-03     59.7728E-03         2.52560    -638.882E-03    -985.422E-03    -638.867E-03         2.52558    -985.422E-03    -10.8022E-03     243.847E-03    -120.908E-03    -122.969E-03    -120.029E-03     242.967E-03    -122.969E-03     35.7752E-03     106.323E+06     93.7506E+06    -2.61933E+06    -2.52613E+06     106.230E+06     93.7506E+06    -1.33487E+06         66.7086
             141     15.9286E-03     61.0552E-03         2.42585    -647.849E-03    -871.625E-03    -647.822E-03         2.42583    -871.625E-03    -18.3843E-03     244.813E-03    -121.873E-03    -122.942E-03    -120.807E-03     243.747E-03    -122.942E-03     39.3300E-03     107.276E+06     95.2948E+06    -1.86268E+06    -1.72056E+06     107.134E+06     95.2948E+06    -320.867E+03         66.7191
             142     15.9308E-03     62.3388E-03         2.32564    -646.604E-03    -751.183E-03    -646.572E-03         2.32561    -751.183E-03    -19.4034E-03     244.850E-03    -122.043E-03    -122.928E-03    -120.860E-03     243.667E-03    -122.928E-03     41.5818E-03     107.495E+06     95.2931E+06    -2.74649E+06    -2.67823E+06     107.427E+06     95.2931E+06     1.14234E+06         66.7376
             143     15.9285E-03     63.6147E-03         2.21338    -604.112E-03    -669.720E-03    -645.243E-03         2.21334    -628.554E-03    -19.5204E-03     243.890E-03    -121.103E-03    -122.962E-03    -119.935E-03     242.723E-03    -122.962E-03     41.2019E-03     107.303E+06     94.9000E+06    -3.28955E+06    -3.25261E+06     107.266E+06     94.9000E+06     596.027E+03         66.7573
             144     15.9294E-03     64.8922E-03         2.10551    -506.880E-03    -648.472E-03    -648.401E-03         2.10544    -506.880E-03    -26.3243E-03     243.494E-03    -120.751E-03    -122.966E-03    -119.565E-03     242.307E-03    -122.966E-03     41.5000E-03     107.196E+06     95.1384E+06    -2.76950E+06    -2.70795E+06     107.135E+06     95.1384E+06    -87.1059E+03         66.7667
             145     15.9290E-03     66.1686E-03         1.99795    -388.674E-03    -645.174E-03    -644.949E-03         1.99772    -388.674E-03    -46.8780E-03     243.788E-03    -121.195E-03    -122.925E-03    -120.000E-03     242.594E-03    -122.925E-03     41.6835E-03     107.637E+06     95.9385E+06    -2.74226E+06    -2.67733E+06     107.572E+06     95.9385E+06    -11.5719E+03         66.7649
             146     15.9300E-03     67.4487E-03         1.88393    -276.360E-03    -643.019E-03    -642.850E-03         1.88376    -276.360E-03    -27.2377E-03     244.558E-03    -121.862E-03    -122.893E-03    -120.637E-03     243.334E-03    -122.893E-03     42.2909E-03     107.415E+06     95.4885E+06    -3.31875E+06    -3.25525E+06     107.351E+06     95.4885E+06     14.0971E+03         66.7638
             147     15.9291E-03     68.7271E-03         1.78717    -171.544E-03    -639.434E-03    -639.317E-03         1.78706    -171.544E-03    -21.2588E-03     245.509E-03    -122.544E-03    -123.082E-03    -121.565E-03     244.345E-03    -122.898E-03     41.3299E-03     106.893E+06     97.0745E+06    -2.88113E+06    -2.84453E+06     106.857E+06     97.0745E+06    -767.170E+03         66.7692
             148     15.9291E-03     70.0055E-03         1.71620    -78.9335E-03    -646.159E-03    -645.890E-03         1.71593    -78.9335E-03    -50.2204E-03     245.372E-03    -122.424E-03    -123.097E-03    -121.559E-03     244.324E-03    -122.913E-03     39.2062E-03     106.155E+06     96.3067E+06    -2.44822E+06    -2.43751E+06     106.144E+06     96.3067E+06     24.7502E+03         66.7743
             149     15.9294E-03     72.5633E-03         1.55560     61.6873E-03    -631.066E-03    -631.001E-03         1.55554     61.6873E-03    -21.3174E-03     244.174E-03    -121.291E-03    -122.964E-03    -120.180E-03     243.064E-03    -122.964E-03     40.2249E-03     107.879E+06     96.3603E+06    -2.21138E+06    -2.16992E+06     107.837E+06     96.3603E+06     639.650E+03         66.7888
             150     15.9279E-03     73.8424E-03         1.49446     108.193E-03    -617.391E-03    -617.141E-03         1.49421     108.193E-03    -44.0398E-03     243.979E-03    -121.162E-03    -122.999E-03    -120.135E-03     242.952E-03    -122.999E-03     38.6645E-03     107.373E+06     95.7367E+06    -3.01506E+06    -2.97105E+06     107.329E+06     95.7367E+06     694.349E+03         66.7968
             151     15.9283E-03     75.1159E-03         1.47762     136.727E-03    -632.276E-03    -632.082E-03         1.47742     136.727E-03    -26.1507E-03     243.660E-03    -120.752E-03    -123.009E-03    -119.740E-03     242.647E-03    -123.009E-03     38.3584E-03     107.405E+06     94.9528E+06    -3.15224E+06    -3.09874E+06     107.352E+06     94.9528E+06     383.308E+03         66.7998
             152     15.9288E-03     76.3965E-03         1.45574     147.709E-03    -629.033E-03    -629.020E-03         1.45572     147.709E-03    -4.65975E-03     244.164E-03    -121.343E-03    -122.958E-03    -120.230E-03     243.051E-03    -122.958E-03     40.2663E-03     107.392E+06     95.5688E+06    -2.52695E+06    -2.50319E+06     107.368E+06     95.5688E+06    -459.063E+03         66.8060
             153     15.9303E-03     77.6769E-03         1.41809     140.268E-03    -603.012E-03    -602.854E-03         1.41793     140.268E-03    -31.1013E-03     244.924E-03    -122.241E-03    -122.904E-03    -121.098E-03     243.781E-03    -122.904E-03     40.9067E-03     107.138E+06     96.4329E+06    -2.58154E+06    -2.54432E+06     107.100E+06     96.4329E+06    -777.458E+03         66.8203
             154     15.9289E-03     78.9540E-03         1.42252     114.452E-03    -598.498E-03    -598.233E-03         1.42225     114.452E-03    -46.2410E-03     244.762E-03    -122.043E-03    -122.930E-03    -121.000E-03     243.719E-03    -122.930E-03     39.0367E-03     106.565E+06     97.1777E+06    -3.24858E+06    -3.19968E+06     106.516E+06     97.1777E+06    -358.765E+03         66.8309
             155     15.9290E-03     80.2352E-03         1.44475     70.6831E-03    -595.330E-03    -595.081E-03         1.44450     70.6831E-03    -45.0743E-03     243.707E-03    -120.891E-03    -122.975E-03    -119.806E-03     242.622E-03    -122.975E-03     39.6626E-03     106.355E+06     97.1835E+06    -2.62832E+06    -2.59990E+06     106.327E+06     97.1835E+06     184.611E+03         66.8287
             156     15.9294E-03     81.5082E-03         1.46202     10.6824E-03    -583.013E-03    -582.697E-03         1.46170     10.6824E-03    -50.6412E-03     243.579E-03    -120.810E-03    -122.944E-03    -119.682E-03     242.450E-03    -122.944E-03     40.4634E-03     106.682E+06     95.4236E+06    -3.30005E+06    -3.22582E+06     106.608E+06     95.4236E+06     1.08374E+06         66.8255
             157     15.9299E-03     82.7904E-03         1.50699    -62.1468E-03    -574.768E-03    -573.706E-03         1.50593    -62.1468E-03    -88.4030E-03     244.142E-03    -121.331E-03    -122.928E-03    -120.306E-03     243.116E-03    -122.928E-03     38.6567E-03     108.217E+06     95.6035E+06    -2.81470E+06    -2.70124E+06     108.104E+06     95.6035E+06     190.558E+03         66.8364
             158     15.9287E-03     84.0623E-03         1.54838    -147.019E-03    -550.619E-03    -549.693E-03         1.54746    -147.019E-03    -75.1073E-03     244.529E-03    -121.695E-03    -122.929E-03    -120.725E-03     243.560E-03    -122.929E-03     37.6229E-03     107.365E+06     95.8432E+06    -3.08261E+06    -3.02673E+06     107.309E+06     95.8432E+06    -1.12874E+06         66.8557
             159     15.9307E-03     85.3456E-03         1.58684    -242.478E-03    -536.651E-03    -536.599E-03         1.58679    -242.478E-03    -11.2362E-03     244.417E-03    -121.742E-03    -122.901E-03    -120.712E-03     243.387E-03    -122.901E-03     38.7496E-03     106.008E+06     96.1865E+06    -2.74472E+06    -2.71984E+06     105.983E+06     96.1865E+06    -477.157E+03         66.8719
             160     15.9300E-03     86.6266E-03         1.64297    -344.892E-03    -531.492E-03    -531.375E-03         1.64285    -344.892E-03    -19.2721E-03     243.908E-03    -121.248E-03    -122.892E-03    -120.075E-03     242.736E-03    -122.892E-03     41.3068E-03     106.690E+06     96.4728E+06    -2.04856E+06    -2.00320E+06     106.645E+06     96.4728E+06     167.308E+03         66.8872
             161     15.9303E-03     87.9038E-03         1.69899    -442.573E-03    -512.996E-03    -504.066E-03         1.69880    -451.307E-03    -41.4916E-03     244.450E-03    -121.735E-03    -122.903E-03    -120.492E-03     243.208E-03    -122.903E-03     42.5881E-03     106.098E+06     96.6836E+06    -3.50041E+06    -3.45680E+06     106.054E+06     96.6836E+06     206.915E+03         66.9025
             162     15.9291E-03     89.1818E-03         1.76511    -490.006E-03    -558.949E-03    -489.874E-03         1.76498    -558.949E-03    -3.91352E-03     245.125E-03    -122.441E-03    -122.899E-03    -121.282E-03     243.966E-03    -122.899E-03     41.1885E-03     106.642E+06     98.5578E+06    -2.40481E+06    -2.36549E+06     106.602E+06     98.5578E+06     98.7779E+03         66.9100
             163     15.9302E-03     90.4614E-03         1.82509    -482.664E-03    -665.744E-03    -482.610E-03         1.82504    -665.744E-03     11.3489E-03     244.378E-03    -121.591E-03    -122.894E-03    -120.471E-03     243.258E-03    -122.894E-03     40.4166E-03     106.523E+06     97.3897E+06    -2.25614E+06    -2.21429E+06     106.481E+06     97.3897E+06     33.3032E+03         66.9133
             164     15.9304E-03     91.7390E-03         1.87487    -472.533E-03    -768.538E-03    -472.487E-03         1.87483    -768.538E-03    -18.0440E-03     244.217E-03    -121.405E-03    -122.895E-03    -120.267E-03     243.080E-03    -122.895E-03     40.7210E-03     105.552E+06     96.0734E+06    -3.27985E+06    -3.24933E+06     105.521E+06     96.0734E+06    -301.357E+03         66.9241
             165     15.9296E-03     93.0168E-03         1.92114    -452.895E-03    -862.788E-03    -452.748E-03         1.92099    -862.788E-03    -36.4641E-03     244.689E-03    -122.030E-03    -122.917E-03    -120.912E-03     243.571E-03    -122.917E-03     40.4369E-03     106.369E+06     97.7756E+06    -2.93403E+06    -2.91667E+06     106.351E+06     97.7756E+06     126.440E+03         66.9351
             166     15.9292E-03     94.2982E-03         1.96633    -433.038E-03    -946.822E-03    -432.898E-03         1.96619    -946.822E-03    -35.3955E-03     244.610E-03    -121.946E-03    -122.919E-03    -120.718E-03     243.382E-03    -122.919E-03     42.3394E-03     106.879E+06     98.7865E+06    -3.06754E+06    -3.04377E+06     106.855E+06     98.7865E+06     336.492E+03         66.9376
             167     15.9305E-03     95.5760E-03         1.99495    -422.660E-03        -1.01885    -422.598E-03         1.99488        -1.01885    -1.89969E-03     244.872E-03    -122.147E-03    -122.918E-03    -120.935E-03     243.661E-03    -122.918E-03     42.0598E-03     106.669E+06     99.1125E+06    -2.69691E+06    -2.62968E+06     106.601E+06     99.1125E+06    -699.579E+03         66.9379
             168     15.9277E-03     96.8567E-03         1.99647    -397.770E-03        -1.07639    -397.679E-03         1.99638        -1.07639    -6.27968E-03     244.703E-03    -121.892E-03    -122.953E-03    -120.700E-03     243.511E-03    -122.953E-03     41.7096E-03     104.854E+06     98.9824E+06    -2.71946E+06    -2.57953E+06     104.714E+06     98.9824E+06     518.758E+03         66.9361
             169     15.9304E-03     98.1320E-03         2.00465    -388.633E-03        -1.11851    -388.552E-03         2.00457        -1.11851    -8.77488E-03     243.341E-03    -120.476E-03    -122.962E-03    -119.351E-03     242.216E-03    -122.962E-03     40.3173E-03     106.705E+06     98.8248E+06    -2.14366E+06    -2.05056E+06     106.612E+06     98.8248E+06     1.72595E+06         66.9290
             170     15.9293E-03     99.4053E-03         2.00725    -390.111E-03        -1.14289    -390.093E-03         2.00723        -1.14289     11.3256E-03     243.099E-03    -120.192E-03    -122.935E-03    -119.094E-03     242.001E-03    -122.935E-03     39.8352E-03     109.703E+06     98.9822E+06    -3.70420E+06    -3.69823E+06     109.697E+06     98.9822E+06    -85.2706E+03         66.9267
             171     15.9316E-03     100.687E-03         1.98924    -377.397E-03        -1.14807    -377.368E-03         1.98921        -1.14807    -8.77832E-03     244.871E-03    -121.845E-03    -123.084E-03    -120.834E-03     243.700E-03    -122.923E-03     41.3826E-03     110.872E+06     102.298E+06    -2.46387E+06    -2.44325E+06     110.851E+06     102.298E+06    -644.087E+03         66.9406
             172     15.9298E-03     101.962E-03         1.93544    -356.459E-03        -1.13452    -356.431E-03         1.93541        -1.13452    -12.5594E-03     245.281E-03    -122.378E-03    -123.089E-03    -121.443E-03     244.184E-03    -122.928E-03     40.1070E-03     113.170E+06     103.328E+06    -2.91038E+06    -2.81556E+06     113.075E+06     103.328E+06     1.13825E+06         66.9610
             173     15.9322E-03     103.244E-03         1.87072    -346.156E-03        -1.10216    -346.153E-03         1.87071        -1.10216     2.57273E-03     243.578E-03    -120.810E-03    -122.941E-03    -119.610E-03     242.378E-03    -122.941E-03     41.6862E-03     116.014E+06     102.802E+06    -3.00471E+06    -2.92815E+06     115.937E+06     102.802E+06     2.10933E+06         66.9718
             174     15.9303E-03     104.521E-03         1.81520    -342.579E-03        -1.05107    -342.539E-03         1.81517        -1.05107    -8.61129E-03     243.701E-03    -120.836E-03    -122.940E-03    -119.483E-03     242.348E-03    -122.940E-03     44.3295E-03     117.442E+06     103.730E+06    -3.56449E+06    -3.56392E+06     117.441E+06     103.730E+06     144.390E+03         66.9689
             175     15.9318E-03     105.797E-03         1.75281    -333.544E-03    -982.123E-03    -333.461E-03         1.75273    -982.123E-03     1.37556E-03     244.499E-03    -121.562E-03    -122.920E-03    -120.359E-03     243.296E-03    -122.920E-03     41.7971E-03     115.300E+06     106.931E+06    -2.10340E+06    -2.08469E+06     115.281E+06     106.931E+06    -817.114E+03         66.9517
             176     15.9328E-03     107.071E-03         1.66087    -331.884E-03    -897.491E-03    -331.814E-03         1.66080    -897.491E-03     23.2292E-03     243.644E-03    -120.732E-03    -122.884E-03    -119.665E-03     242.578E-03    -122.884E-03     39.3650E-03     114.087E+06     108.213E+06    -3.24281E+06    -3.18981E+06     114.034E+06     108.213E+06     472.121E+03         66.9276
             177     15.9343E-03     108.349E-03         1.53458    -322.396E-03    -799.142E-03    -322.239E-03         1.53442    -799.142E-03     31.3207E-03     242.802E-03    -119.985E-03    -122.817E-03    -118.852E-03     241.669E-03    -122.817E-03     40.4810E-03     116.645E+06     108.828E+06    -3.33186E+06    -3.29000E+06     116.603E+06     108.828E+06     834.715E+03         66.9025
             178     15.9354E-03     109.625E-03         1.42493    -316.037E-03    -687.947E-03    -315.899E-03         1.42479    -687.947E-03     25.1357E-03     242.338E-03    -119.608E-03    -122.698E-03    -118.414E-03     241.143E-03    -122.698E-03     41.5104E-03     118.960E+06     110.094E+06    -2.62803E+06    -2.58948E+06     118.921E+06     110.094E+06     781.120E+03         66.8568
             179     15.9394E-03     110.896E-03         1.31820    -320.652E-03    -567.661E-03    -320.612E-03         1.31816    -567.661E-03    -7.61849E-03     241.919E-03    -119.388E-03    -122.569E-03    -118.175E-03     240.706E-03    -122.569E-03     41.7999E-03     121.103E+06     112.581E+06    -3.11990E+06    -3.08448E+06     121.068E+06     112.581E+06     933.436E+03         66.7763
             180     15.9419E-03     112.177E-03         1.18921    -321.389E-03    -441.187E-03    -321.004E-03         1.18882    -441.187E-03     20.7923E-03     240.129E-03    -117.838E-03    -122.434E-03    -116.513E-03     238.803E-03    -122.434E-03     43.4280E-03     125.548E+06     116.178E+06    -2.50457E+06    -2.38694E+06     125.430E+06     116.178E+06     2.28765E+06         66.6668
             181     15.9495E-03     113.444E-03         1.06556    -282.264E-03    -341.958E-03    -314.182E-03         1.06500    -309.480E-03     55.3212E-03     237.571E-03    -115.594E-03    -122.069E-03    -114.116E-03     236.093E-03    -122.069E-03     45.5875E-03     132.786E+06     121.069E+06    -3.47528E+06    -3.36145E+06     132.672E+06     121.069E+06     2.85785E+06         66.5087
             182     15.9581E-03     114.711E-03     932.715E-03    -177.369E-03    -300.115E-03    -299.900E-03     932.500E-03    -177.369E-03     25.9430E-03     235.251E-03    -113.771E-03    -121.477E-03    -112.270E-03     233.750E-03    -121.477E-03     45.6780E-03     137.633E+06     126.568E+06    -2.23327E+06    -2.13010E+06     137.530E+06     126.568E+06     2.79427E+06         66.2634
             183     15.9706E-03     115.975E-03     821.525E-03    -48.5075E-03    -304.641E-03    -303.619E-03     820.503E-03    -48.5075E-03     49.6808E-03     231.927E-03    -111.101E-03    -120.733E-03    -109.463E-03     230.288E-03    -120.733E-03     47.2503E-03     137.509E+06     127.990E+06    -6.51172E+06    -6.37191E+06     137.370E+06     127.990E+06     1.07523E+06         65.9250
             184     15.9886E-03     117.228E-03     713.476E-03     75.5670E-03    -309.033E-03    -306.848E-03     711.291E-03     75.5670E-03     94.1797E-03     227.126E-03    -107.573E-03    -119.617E-03    -105.572E-03     225.125E-03    -119.617E-03     51.4970E-03     134.469E+06     129.748E+06    -2.85857E+06    -2.74624E+06     134.357E+06     129.748E+06     574.968E+03         65.5325
             185     16.0184E-03     118.483E-03     578.628E-03     190.886E-03    -290.271E-03    -288.600E-03     576.957E-03     190.886E-03     75.1533E-03     221.772E-03    -104.165E-03    -117.861E-03    -101.469E-03     219.076E-03    -117.861E-03     58.7792E-03     130.849E+06     128.635E+06    -3.64115E+06    -3.55023E+06     130.758E+06     128.635E+06     3.24368E+06         65.1302
             186     16.0573E-03     119.720E-03     485.046E-03     293.832E-03    -298.467E-03    -297.754E-03     484.333E-03     293.832E-03     46.2538E-03     216.960E-03    -101.926E-03    -115.308E-03    -98.6754E-03     213.709E-03    -115.308E-03     64.0541E-03     130.041E+06     128.576E+06    -2.74555E+06    -2.53201E+06     129.827E+06     128.576E+06     4.56088E+06         64.8378
             187     16.1127E-03     120.948E-03     438.862E-03     344.851E-03    -310.539E-03    -308.751E-03     398.966E-03     382.958E-03     63.1623E-03     216.723E-03    -104.879E-03    -111.996E-03    -101.649E-03     213.493E-03    -111.996E-03     64.1134E-03     128.732E+06     127.105E+06    -4.17624E+06    -3.97503E+06     128.531E+06     127.105E+06     3.06845E+06         64.8883
             188     16.1649E-03     122.194E-03     457.751E-03     296.606E-03    -287.482E-03    -283.742E-03     292.866E-03     457.751E-03     92.3181E-03     229.373E-03    -107.656E-03    -121.646E-03    -118.302E-03     226.829E-03    -108.455E-03     58.8238E-03     127.507E+06     125.024E+06    -5.15562E+06    -4.93789E+06     127.289E+06     125.024E+06     3.20475E+06         65.4684
             189     16.1968E-03     123.473E-03     516.981E-03     231.692E-03    -288.263E-03    -285.741E-03     229.170E-03     516.981E-03     66.5009E-03     256.413E-03    -105.654E-03    -150.966E-03    -149.471E-03     254.918E-03    -105.654E-03     48.2745E-03     126.487E+06     122.752E+06    -4.12080E+06    -3.55283E+06     123.194E+06     125.476E+06    -1.12357E+06         66.8030
             190     16.2031E-03     124.798E-03     558.826E-03     196.005E-03    -292.231E-03    -291.646E-03     195.419E-03     558.826E-03     33.6721E-03     288.852E-03    -104.035E-03    -185.157E-03    -184.127E-03     287.823E-03    -104.035E-03     44.1049E-03     120.222E+06     109.861E+06    -6.64074E+06    -6.28437E+06     109.505E+06     120.222E+06    -5.18741E+06         68.8029
             191     16.2044E-03     126.169E-03     580.974E-03     157.730E-03    -271.368E-03    -270.882E-03     157.244E-03     580.974E-03     28.8097E-03     316.109E-03    -103.239E-03    -213.021E-03    -211.872E-03     314.961E-03    -103.239E-03     49.2305E-03     117.904E+06     99.2637E+06    -1.34096E+06    -1.29625E+06     99.2190E+06     117.904E+06    -1.83239E+06         70.8049
             192     16.2039E-03     127.563E-03     579.064E-03     135.191E-03    -260.761E-03    -260.448E-03     134.877E-03     579.064E-03     20.8575E-03     337.502E-03    -102.738E-03    -234.916E-03    -233.416E-03     336.003E-03    -102.738E-03     58.4149E-03     118.812E+06     94.1472E+06    -1.39399E+06    -1.35118E+06     94.1044E+06     118.812E+06    -1.66962E+06         72.4109
             193     16.2048E-03     128.990E-03     549.618E-03     115.881E-03    -238.409E-03    -238.345E-03     115.818E-03     549.618E-03     9.13686E-03     358.922E-03    -102.219E-03    -256.769E-03    -254.752E-03     356.904E-03    -102.219E-03     70.2786E-03     116.471E+06     80.1279E+06    -4.48268E+06    -4.16870E+06     79.8140E+06     116.471E+06    -3.68872E+06         73.6438
             194     16.2043E-03     130.446E-03     493.358E-03     115.710E-03    -212.087E-03    -210.640E-03     114.264E-03     493.358E-03     33.6959E-03     384.712E-03    -101.635E-03    -282.946E-03    -280.104E-03     381.870E-03    -101.635E-03     86.6995E-03     120.856E+06     67.9897E+06    -141.923E+03     176.680E+03     67.6711E+06     120.856E+06    -3.86745E+06         74.4531
             195     16.2058E-03     131.952E-03     409.532E-03     154.400E-03    -203.878E-03    -202.189E-03     152.710E-03     409.532E-03     44.7933E-03     411.705E-03    -101.050E-03    -310.497E-03    -306.546E-03     407.753E-03    -101.050E-03     106.390E-03     124.675E+06     53.2794E+06    -5.34952E+06    -3.80515E+06     51.7350E+06     124.675E+06    -6.90198E+06         74.6624
             196     16.2060E-03     133.508E-03     296.302E-03     192.653E-03    -188.530E-03    -186.908E-03     191.032E-03     296.302E-03     46.0715E-03     429.387E-03    -100.707E-03    -328.682E-03    -323.197E-03     423.902E-03    -100.707E-03     128.066E-03     136.393E+06     39.5493E+06    -2.08121E+06     630.278E+03     36.8378E+06     136.393E+06    -2.79810E+06         74.0652
             197     16.2068E-03     135.066E-03     233.556E-03     142.647E-03    -138.777E-03    -136.591E-03     217.744E-03     156.273E-03     55.5707E-03     434.987E-03    -100.715E-03    -334.258E-03    -327.006E-03     427.734E-03    -100.715E-03     148.451E-03     158.241E+06     19.5706E+06    -18.4755E+06    -15.6986E+06     16.7938E+06     158.241E+06    -2.47659E+06            72.5
             198     16.2089E-03     136.597E-03     277.161E-03    -7.04619E-03    -99.0494E-03    -96.2351E-03     275.049E-03    -7.74861E-03     56.0552E-03     435.430E-03    -100.758E-03    -334.664E-03    -325.358E-03     426.124E-03    -100.758E-03     167.894E-03     184.155E+06     27.3572E+06    -24.0370E+06     473.204E+03     2.84699E+06     184.155E+06     2.40040E+06         69.8925
             199     16.2123E-03     138.158E-03     316.038E-03    -47.9585E-03    -193.547E-03    -46.6579E-03     314.737E-03    -193.547E-03     34.9044E-03     432.659E-03    -101.024E-03    -331.642E-03    -315.381E-03     416.398E-03    -101.024E-03     216.730E-03     213.259E+06     47.9919E+06    -22.5543E+06     1.22628E+06     24.2113E+06     213.259E+06     2.39207E+06         66.2847
             200     16.2130E-03     139.748E-03     316.092E-03     27.4310E-03    -389.757E-03     27.6966E-03     315.826E-03    -389.757E-03    -9.32062E-03     384.287E-03    -102.496E-03    -281.852E-03    -248.792E-03     351.227E-03    -102.496E-03     280.135E-03     179.601E+06     37.4674E+06    -24.9836E+06    -24.0294E+06     36.5131E+06     179.601E+06    -4.97426E+06         62.3929
             201     16.2201E-03     141.036E-03     315.586E-03     81.1594E-03    -577.497E-03     86.9922E-03     309.753E-03    -577.497E-03    -58.1982E-03     245.053E-03    -69.1132E-03    -176.025E-03    -92.6259E-03     202.779E-03    -110.238E-03     229.614E-03     89.1704E+06     1.18589E+06    -25.2829E+06    -21.6635E+06    -2.43349E+06     89.1704E+06    -2.97440E+06         59.2192
             202     15.8957E-03     142.024E-03     325.965E-03     125.809E-03    -754.290E-03     131.921E-03     319.853E-03    -754.290E-03    -60.9896E-03     114.970E-03     17.1475E-03    -132.126E-03     42.0476E-03     90.0703E-03    -132.126E-03     78.4898E-03     52.4112E+06    -14.3046E+06    -45.8275E+06     3.51018E+06    -34.2832E+06     23.0521E+06     13.2506E+06         57.0202
             203     14.3914E-03     142.304E-03     334.495E-03     104.426E-03    -818.736E-03     137.376E-03     301.545E-03    -818.736E-03    -128.471E-03     88.2804E-03     60.5708E-03    -148.850E-03     71.1279E-03     77.7233E-03    -148.850E-03     21.7653E-03     113.732E+06     57.8444E+06    -26.7189E+06     22.8534E+06     37.6313E+06     84.3733E+06     2.66267E+06         55.1843
             204     13.4371E-03     141.710E-03     328.069E-03     8.99754E-03    -763.298E-03     100.969E-03     236.097E-03    -763.298E-03    -287.836E-03     125.322E-03     23.7122E-03    -149.259E-03     37.9733E-03     111.061E-03    -149.259E-03    -28.7042E-03     138.744E+06     34.1657E+06    -42.7629E+06    -23.6635E+06     15.0662E+06     138.744E+06    -13.4814E+06         53.2246
             205     12.6724E-03     141.088E-03     335.095E-03    -115.303E-03    -692.006E-03     27.2326E-03     192.560E-03    -692.006E-03    -418.949E-03     149.452E-03    -4.12630E-03    -145.564E-03     10.2248E-03     135.101E-03    -145.564E-03    -89.1087E-03     114.049E+06     9.24389E+06    -63.3461E+06    -25.5806E+06    -28.5216E+06     114.049E+06    -26.6337E+06         51.0360
             206     11.8896E-03     140.491E-03     340.543E-03    -240.098E-03    -612.325E-03    -61.4704E-03     161.915E-03    -612.325E-03    -535.898E-03     155.310E-03    -14.9786E-03    -140.379E-03     110.376E-06     140.221E-03    -140.379E-03    -96.6619E-03     97.2714E+06     14.5757E+06    -59.1850E+06    -20.3198E+06    -24.2896E+06     97.2714E+06    -26.2040E+06         48.7272
             207     11.0678E-03     139.950E-03     323.423E-03    -317.570E-03    -529.544E-03    -112.138E-03     117.990E-03    -529.544E-03    -597.740E-03     183.378E-03    -49.2373E-03    -134.140E-03    -22.6676E-03     156.808E-03    -134.140E-03    -147.540E-03     94.6937E+06     8.08788E+06    -46.3346E+06    -20.3661E+06    -17.8806E+06     94.6937E+06    -14.7193E+06         46.5436
             208     10.3055E-03     139.443E-03     305.096E-03    -373.685E-03    -448.771E-03    -150.615E-03     80.5123E-03    -447.258E-03    -639.727E-03     212.052E-03    -86.5422E-03    -125.549E-03    -48.9280E-03     174.438E-03    -125.549E-03    -198.155E-03     99.5730E+06     21.9616E+06    -33.7368E+06    -6.32311E+06    -5.45214E+06     99.5730E+06    -16.8120E+06         44.2689
             209     9.55251E-03     139.008E-03     288.080E-03    -370.741E-03    -434.731E-03    -204.283E-03     57.6318E-03    -370.741E-03    -673.664E-03     226.138E-03    -105.884E-03    -120.305E-03    -72.0170E-03     187.616E-03    -115.650E-03    -214.070E-03     96.2040E+06     11.2137E+06    -28.7164E+06    -2.85297E+06    -14.6498E+06     96.2040E+06    -10.9854E+06         41.7247
             210     8.78836E-03     138.641E-03     236.067E-03    -304.317E-03    -435.399E-03    -246.661E-03     47.3292E-03    -304.317E-03    -601.070E-03     231.855E-03    -105.699E-03    -126.284E-03    -92.9703E-03     198.541E-03    -105.699E-03    -207.575E-03     99.0154E+06     23.2000E+06    -23.5826E+06     8.74156E+06    -9.12415E+06     99.0154E+06    -13.7206E+06         39.0740
             211     8.00318E-03     138.348E-03     196.857E-03    -247.589E-03    -414.725E-03    -283.098E-03     65.2300E-03    -247.589E-03    -501.345E-03     229.700E-03    -96.0021E-03    -133.886E-03    -108.273E-03     204.087E-03    -96.0021E-03    -185.357E-03     97.3940E+06     17.8373E+06    -14.7182E+06     16.6841E+06    -13.5651E+06     97.3940E+06    -5.42771E+06         36.6045
             212     7.20321E-03     138.107E-03     168.086E-03    -197.290E-03    -396.181E-03    -302.580E-03     74.4849E-03    -197.290E-03    -417.742E-03     216.164E-03    -86.6748E-03    -129.559E-03    -112.268E-03     198.874E-03    -86.6748E-03    -149.987E-03     97.0925E+06     20.2572E+06    -2.08225E+06     19.3671E+06    -1.19209E+06     97.0925E+06    -3.71182E+06         34.4781
             213     6.37363E-03     137.916E-03     117.947E-03    -153.428E-03    -337.745E-03    -269.885E-03     50.0866E-03    -153.428E-03    -323.945E-03     195.201E-03    -78.3104E-03    -117.074E-03    -106.472E-03     184.599E-03    -78.3104E-03    -112.495E-03     92.0199E+06     23.2057E+06    -3.33065E+06     20.8436E+06    -968.518E+03     92.0199E+06    -6.07293E+06         32.6609
             214     5.51507E-03     137.773E-03     73.7269E-03    -119.005E-03    -248.798E-03    -199.617E-03     24.5456E-03    -119.005E-03    -231.430E-03     173.710E-03    -70.8751E-03    -102.805E-03    -96.6592E-03     167.564E-03    -70.8751E-03    -80.9964E-03     80.4542E+06     24.1303E+06    -3.30958E+06     21.0864E+06    -265.638E+03     80.4542E+06    -8.12649E+06         31.0900
             215     4.63420E-03     137.657E-03     36.3431E-03    -95.3492E-03    -164.064E-03    -133.329E-03     5.60792E-03    -95.3492E-03    -143.664E-03     152.785E-03    -64.5154E-03    -88.2319E-03    -84.8448E-03     149.398E-03    -64.5154E-03    -56.3523E-03     65.1980E+06     28.2902E+06    -5.16571E+06     26.0094E+06    -2.88493E+06     65.1980E+06    -8.38026E+06         29.7349
             216     3.73133E-03     137.576E-03     16.7708E-03    -79.9244E-03    -117.444E-03    -98.4898E-03    -2.18370E-03    -79.9244E-03    -90.9819E-03     134.170E-03    -59.5013E-03    -74.7229E-03    -72.9128E-03     132.360E-03    -59.5013E-03    -38.4221E-03     63.7934E+06     37.7239E+06    -3.20586E+06     35.5649E+06    -1.04683E+06     63.7934E+06    -8.85622E+06         28.6178
             217     2.81056E-03     137.514E-03     14.6315E-03    -65.1267E-03    -105.758E-03    -98.9938E-03     7.86687E-03    -65.1267E-03    -54.1526E-03     119.330E-03    -55.6851E-03    -63.5503E-03    -62.5899E-03     118.370E-03    -55.6851E-03    -26.2436E-03     59.3059E+06     46.1041E+06    -3.86718E+06     44.8711E+06    -2.63423E+06     59.3059E+06    -7.70474E+06         27.7582
             218     1.87765E-03     137.470E-03     22.5405E-03    -47.5387E-03    -115.396E-03    -76.1804E-03    -16.6748E-03    -47.5387E-03    -98.2148E-03     109.110E-03    -53.3847E-03    -55.7249E-03    -55.2351E-03     108.621E-03    -53.3847E-03    -17.6758E-03     56.4331E+06     51.0581E+06    -3.48660E+06     53.3991E+06    -1.93331E+06     52.5389E+06    -9.32750E+06         27.1305
             219     939.620E-06     137.448E-03     30.1695E-03    -20.9947E-03    -104.985E-03    -11.3932E-03    -21.2994E-03    -63.1172E-03    -61.7457E-03     105.331E-03    -52.0279E-03    -53.3113E-03    -53.1138E-03     105.133E-03    -52.0279E-03    -10.7154E-03     70.6004E+06     64.0217E+06    -2.85845E+06     66.5645E+06    -1.50698E+06     66.7061E+06    -9.16899E+06         26.7369
             220     105.134E-09     136.331E-03     69.6206E-03     31.9449E-03    -184.278E-03     45.3739E-03    -137.947E-03     9.86029E-03    -12.4515E-03     85.6051E-03    -41.9337E-03    -43.6708E-03    -43.0677E-03     85.5320E-03    -42.4637E-03    -6.13377E-03     37.7019E+06     32.9274E+06    -26.9245E+06     32.9744E+06    -24.8815E+06     35.6119E+06    -9.57748E+06         26.2763
             221    -1.12807E-06     135.263E-03     200.698E-03     112.445E-03    -391.460E-03     179.530E-03    -390.329E-03     132.483E-03    -41.4296E-03     51.8145E-03    -25.5971E-03    -26.2159E-03    -25.5621E-03     51.7795E-03    -26.2159E-03    -3.22266E-03    -32.2897E+06    -37.8913E+06    -63.1486E+06    -36.9484E+06    -53.6705E+06    -42.7106E+06    -7.25248E+06         25.6710
             222     871.615E-09     134.228E-03     387.955E-03     301.864E-03    -731.549E-03     384.217E-03    -727.811E-03     301.864E-03    -116.887E-03     29.1481E-03    -14.4580E-03    -14.6891E-03    -14.5791E-03     29.1269E-03    -14.5468E-03    -1.81096E-03    -71.8727E+06    -97.5529E+06    -108.821E+06    -102.179E+06    -73.6953E+06    -102.372E+06    -7.16003E+06         25.1797
             223    -551.289E-09     133.207E-03     544.946E-03     507.687E-03        -1.06983     538.736E-03        -1.06362     507.687E-03    -4.93200E-03     15.2930E-03    -7.55362E-03    -7.73822E-03    -7.67443E-03     15.2715E-03    -7.59592E-03    -1.40481E-03    -99.4770E+06    -168.240E+06    -174.981E+06    -172.414E+06    -101.751E+06    -168.533E+06    -12.6691E+06         24.8395
             224     435.087E-09     132.199E-03     648.645E-03     620.003E-03        -1.27877     644.694E-03        -1.27482     620.003E-03     22.4626E-03     7.57030E-03    -3.73819E-03    -3.83178E-03    -3.73039E-03     7.56249E-03    -3.83178E-03    -320.158E-06    -137.885E+06    -239.986E+06    -241.532E+06    -239.724E+06    -139.400E+06    -240.278E+06    -12.1112E+06         24.6867
             225    -530.186E-09     131.193E-03     750.391E-03     697.567E-03        -1.42253     705.457E-03        -1.42116     741.134E-03    -61.6466E-03     5.20498E-03    -2.56613E-03    -2.63903E-03    -2.57374E-03     5.19098E-03    -2.61742E-03     575.825E-06    -159.892E+06    -279.361E+06    -287.838E+06    -279.731E+06    -160.775E+06    -286.584E+06    -389.264E+03         24.7727
             226     444.068E-09     130.189E-03     861.986E-03     788.328E-03        -1.55002     815.829E-03        -1.54743     831.895E-03    -101.452E-03     8.98825E-03    -4.41899E-03    -4.56954E-03    -4.49826E-03     8.91698E-03    -4.41899E-03     1.94536E-03    -120.893E+06    -216.799E+06    -232.231E+06    -217.487E+06    -128.414E+06    -224.022E+06     20.2774E+06         25.1435
             227    -286.931E-09     129.176E-03     963.525E-03     928.781E-03        -1.75741     955.874E-03        -1.75441     933.434E-03    -63.3674E-03     20.5110E-03    -10.1300E-03    -10.3810E-03    -10.2589E-03     20.3890E-03    -10.1300E-03     3.82029E-03    -60.6786E+06    -121.904E+06    -135.909E+06    -127.913E+06    -68.6748E+06    -121.904E+06     20.7681E+06         25.7926
             228     476.477E-09     128.148E-03         1.03005         1.01012        -1.84180         1.02334        -1.83974         1.01477     146.393E-03     40.0079E-03    -19.6341E-03    -20.3731E-03    -20.2186E-03     39.8534E-03    -19.6341E-03     6.08890E-03    -32.1829E+06    -71.8796E+06    -81.1119E+06    -79.7429E+06    -33.5519E+06    -71.8796E+06     2.80340E+06         26.6669
             229     608.514E-09     127.095E-03         1.10776     983.008E-03        -1.84824     996.606E-03        -1.84656         1.09248     76.7677E-03     65.8976E-03    -32.4726E-03    -33.4202E-03    -33.2405E-03     65.7179E-03    -32.4726E-03     8.38888E-03    -13.0926E+06    -26.1171E+06    -46.5807E+06    -26.4550E+06    -33.2183E+06    -26.1171E+06    -3.28974E+06         27.7494
             230    -156.745E-09     126.011E-03         1.14680     996.887E-03        -1.88633         1.03724        -1.88624         1.10636    -32.4889E-03     96.2172E-03    -47.9233E-03    -48.2882E-03    -48.1028E-03     96.0662E-03    -47.9577E-03     9.19753E-03     12.1197E+06     7.33344E+06    -53.4749E+06     9.67535E+06    -53.2069E+06     9.50972E+06    -3.94093E+06         29.0826
             231     57.3916E-09     124.895E-03         1.08583         1.01292        -1.77671         1.08576        -1.77664         1.01292     1.63985E-03     129.304E-03    -64.5757E-03    -64.7292E-03    -64.5746E-03     129.184E-03    -64.6100E-03     9.62376E-03     21.1700E+06     14.6557E+06    -80.7323E+06     18.5798E+06    -80.3184E+06     16.8320E+06    -6.33609E+06         30.7532
             232     40.7314E-09     123.732E-03         1.02597     967.983E-03        -1.64952     999.033E-03        -1.64810     993.505E-03     99.3144E-03     160.395E-03    -79.7227E-03    -80.6763E-03    -80.5734E-03     160.292E-03    -79.7227E-03     9.89833E-03     19.2340E+06     10.1890E+06    -99.5939E+06     14.3318E+06    -99.3988E+06     14.8960E+06    -4.30084E+06         32.7585
             233     1.47613E-06     122.544E-03     999.801E-03     862.996E-03        -1.49956     970.844E-03        -1.49613     888.518E-03     182.902E-03     186.364E-03    -92.2255E-03    -94.1419E-03    -94.0716E-03     186.294E-03    -92.2255E-03     8.75075E-03     14.8934E+06     8.20432E+06    -119.693E+06     9.96177E+06    -119.468E+06     12.9113E+06    -4.99736E+06         34.8053
             234     436.346E-09     121.326E-03     892.207E-03     716.756E-03        -1.23199     883.609E-03        -1.22339     716.756E-03     254.880E-03     207.092E-03    -102.480E-03    -104.613E-03    -103.524E-03     207.054E-03    -103.531E-03     6.78845E-03     9.03720E+06     5.75301E+06    -139.083E+06     8.77592E+06    -138.822E+06     5.75301E+06    -5.95582E+06         36.5355
             235    -2.34712E-06     120.086E-03     795.937E-03     556.541E-03    -962.746E-03     769.896E-03    -936.705E-03     556.541E-03     406.019E-03     223.296E-03    -110.738E-03    -112.558E-03    -111.493E-03     223.281E-03    -111.789E-03     4.10614E-03    -2.07119E+06    -6.62712E+06    -153.237E+06    -2.33804E+06    -152.970E+06    -6.62712E+06     1.71427E+06         37.8372
             236     3.68136E-06     118.828E-03     697.048E-03     426.621E-03    -705.621E-03     672.446E-03    -681.020E-03     426.621E-03     358.419E-03     234.942E-03    -116.282E-03    -118.666E-03    -118.661E-03     234.937E-03    -116.282E-03     2.70220E-03    -21.6861E+06    -31.0638E+06    -165.541E+06    -28.1781E+06    -165.172E+06    -24.9398E+06     692.906E+03         38.7148
             237    -729.514E-09     117.557E-03     543.696E-03     247.069E-03    -365.831E-03     531.817E-03    -353.952E-03     247.069E-03     201.695E-03     239.759E-03    -118.952E-03    -120.812E-03    -120.563E-03     239.755E-03    -119.198E-03     1.45589E-03    -44.8851E+06    -56.3279E+06    -182.222E+06    -51.4462E+06    -181.785E+06    -50.2040E+06    -7.51827E+06         39.2061
             238     245.825E-09     116.287E-03     436.050E-03     192.259E-03    -202.392E-03     400.192E-03     103.057E-03    -77.3334E-03     132.403E-03     242.059E-03    -120.774E-03    -121.295E-03    -121.043E-03     242.052E-03    -121.019E-03     2.14273E-03    -67.9010E+06    -75.9145E+06    -211.391E+06    -70.9770E+06    -211.010E+06    -73.2199E+06    -7.10760E+06         39.4597
             239     260.630E-09     115.009E-03     566.066E-03     191.890E-03    -330.390E-03     205.181E-03     552.775E-03    -330.390E-03     42.7123E-03     245.107E-03    -121.634E-03    -123.491E-03    -123.484E-03     245.101E-03    -121.634E-03     2.00814E-03    -79.9875E+06    -84.9222E+06    -235.062E+06    -82.8388E+06    -234.906E+06    -82.2276E+06    -4.76758E+06         39.6091
             240     2.51129E-06     113.733E-03     967.393E-03     49.2108E-03    -599.799E-03     54.2340E-03     962.370E-03    -599.799E-03    -104.580E-03     245.436E-03    -121.602E-03    -123.844E-03    -123.842E-03     245.435E-03    -121.602E-03     952.469E-06    -101.002E+06    -103.886E+06    -250.768E+06    -101.752E+06    -250.662E+06    -103.242E+06    -3.96180E+06         39.6744
             241    -1.32737E-06     112.457E-03         1.37488    -63.7493E-03    -898.697E-03    -58.6597E-03         1.36979    -898.697E-03    -91.9827E-03     244.860E-03    -121.917E-03    -122.952E-03    -122.950E-03     244.858E-03    -121.917E-03     806.002E-06    -116.127E+06    -118.338E+06    -264.991E+06    -116.855E+06    -264.908E+06    -117.693E+06    -3.42733E+06         39.6753
             242     1.96738E-06     111.180E-03         1.71996    -180.588E-03        -1.09078    -180.499E-03         1.71987        -1.09078     8.43929E-03     245.087E-03    -122.272E-03    -122.828E-03    -122.827E-03     245.086E-03    -122.272E-03     498.219E-06    -122.213E+06    -127.377E+06    -276.747E+06    -125.862E+06    -276.696E+06    -123.779E+06    -2.77151E+06         39.6726
             243    -1.58884E-06     109.904E-03         2.10595    -277.452E-03        -1.34616    -276.982E-03         2.10548        -1.34616    -56.9375E-03     246.003E-03    -122.406E-03    -123.613E-03    -123.612E-03     246.002E-03    -122.406E-03     334.206E-06    -129.569E+06    -136.313E+06    -289.260E+06    -133.212E+06    -289.215E+06    -132.715E+06    -2.63988E+06         39.6910
             244     3.36423E-06     108.624E-03         2.52123    -357.490E-03        -1.68787    -356.490E-03         2.52023        -1.68787    -107.272E-03     246.382E-03    -122.228E-03    -124.166E-03    -124.166E-03     246.382E-03    -122.228E-03    -373.980E-06    -132.562E+06    -135.865E+06    -304.184E+06    -132.773E+06    -304.130E+06    -135.709E+06    -3.01726E+06         39.7102
             245    -1.75862E-06     107.347E-03         2.84195    -464.809E-03        -1.91030    -463.741E-03         2.84088        -1.91030    -118.736E-03     245.830E-03    -122.199E-03    -123.637E-03    -123.113E-03     245.830E-03    -122.722E-03    -324.676E-06    -133.418E+06    -134.535E+06    -310.646E+06    -134.573E+06    -310.608E+06    -133.418E+06    -1.08854E+06         39.7226
             246     836.790E-09     106.071E-03         3.12163    -568.316E-03        -2.08398    -565.515E-03         3.11883        -2.08398    -193.190E-03     246.877E-03    -122.383E-03    -124.497E-03    -123.973E-03     246.876E-03    -122.906E-03    -955.650E-06    -127.942E+06    -131.094E+06    -309.188E+06    -128.913E+06    -309.179E+06    -130.133E+06     -61.318E+03         39.7384
             247     1.93313E-06     104.787E-03         3.38532    -638.797E-03        -2.24743    -634.945E-03         3.38147        -2.24743    -247.291E-03     247.351E-03    -122.876E-03    -124.471E-03    -124.465E-03     247.349E-03    -122.880E-03     638.938E-06    -122.714E+06    -126.676E+06    -307.111E+06    -124.490E+06    -307.106E+06    -124.905E+06    -711.059E+03         39.7467
             248    -1.91823E-06     103.510E-03         3.50798    -744.268E-03        -2.26293    -742.684E-03         3.50639        -2.26293    -106.555E-03     245.772E-03    -122.554E-03    -123.228E-03    -123.218E-03     245.766E-03    -122.558E-03    -585.502E-06    -121.347E+06    -124.538E+06    -310.236E+06    -123.150E+06    -310.203E+06    -122.767E+06    -1.79747E+06         39.7425
             249     3.10796E-06     102.236E-03         3.61325    -882.973E-03        -2.23813    -882.388E-03         3.61266        -2.23813    -65.0842E-03     245.795E-03    -122.105E-03    -123.698E-03    -123.689E-03     245.785E-03    -122.105E-03     209.101E-06    -118.347E+06    -120.980E+06    -312.580E+06    -119.594E+06    -312.546E+06    -119.768E+06    -2.19082E+06         39.7457
             250    -1.46920E-06     100.953E-03         3.76917        -1.06024        -2.18121        -1.05964         3.76858        -2.18121    -87.2464E-03     246.769E-03    -122.830E-03    -123.950E-03    -123.745E-03     246.761E-03    -123.027E-03     438.168E-06    -111.633E+06    -114.306E+06    -307.719E+06    -112.864E+06    -307.700E+06    -113.094E+06     852.810E+03         39.7553
             251     1.07265E-06     99.6790E-03         3.69065        -1.19495        -1.96860        -1.19467         3.69037        -1.96860     36.2299E-03     246.185E-03    -122.788E-03    -123.416E-03    -123.215E-03     246.181E-03    -122.985E-03    -679.226E-06    -116.395E+06    -118.195E+06    -311.504E+06    -116.820E+06    -311.418E+06    -117.855E+06     3.86167E+06         39.7558
             252    -278.105E-09     98.3975E-03         3.56418        -1.35254        -1.66847        -1.35192         3.56356        -1.66847    -10.2075E-03     246.298E-03    -122.711E-03    -123.587E-03    -123.585E-03     246.297E-03    -122.711E-03     1.05226E-03    -112.346E+06    -112.770E+06    -306.472E+06    -112.843E+06    -306.400E+06    -112.346E+06     2.03976E+06         39.7531
             253     1.06613E-06     97.1191E-03         3.54204        -1.42350        -1.54038        -1.51659         3.53979        -1.44503    -198.755E-03     246.553E-03    -122.624E-03    -123.930E-03    -123.929E-03     246.553E-03    -122.624E-03     935.303E-06    -107.393E+06    -107.896E+06    -301.526E+06    -107.482E+06    -301.523E+06    -107.811E+06    -717.112E+03         39.7548
             254     434.523E-09     95.8418E-03         3.39659        -1.23585        -1.57938        -1.57740         3.39461        -1.23585    -168.608E-03     246.280E-03    -122.429E-03    -123.858E-03    -123.857E-03     246.279E-03    -122.429E-03     821.811E-06    -110.494E+06    -112.643E+06    -306.120E+06    -112.225E+06    -306.120E+06    -110.912E+06    -61.7079E+03         39.7528
             255     585.284E-09     94.5638E-03         3.16516    -922.517E-03        -1.65418        -1.65192         3.16290    -922.517E-03    -173.742E-03     246.139E-03    -122.445E-03    -123.696E-03    -123.695E-03     246.138E-03    -122.445E-03    -384.622E-06    -102.898E+06    -108.110E+06    -301.564E+06    -104.629E+06    -301.563E+06    -106.380E+06    -223.971E+03         39.7425
             256     576.104E-09     93.2889E-03         2.89227    -670.073E-03        -1.59287        -1.58727         2.88667    -670.073E-03    -313.335E-03     245.760E-03    -122.219E-03    -123.547E-03    -123.547E-03     245.760E-03    -122.219E-03    -858.495E-06    -101.567E+06    -108.419E+06    -301.268E+06    -104.939E+06    -301.265E+06    -105.049E+06    -754.878E+03         39.7351
             257     603.191E-09     92.0076E-03         2.56627    -429.361E-03        -1.47598        -1.47195         2.56224    -429.361E-03    -237.649E-03     246.037E-03    -122.452E-03    -123.596E-03    -123.595E-03     246.036E-03    -122.452E-03     370.842E-06    -108.851E+06    -114.925E+06    -306.320E+06    -112.256E+06    -306.285E+06    -111.556E+06    -2.22936E+06         39.7431
             258     240.150E-09     90.7316E-03         2.28936    -152.517E-03        -1.45534        -1.45347         2.28749    -152.517E-03    -163.852E-03     247.128E-03    -123.131E-03    -124.012E-03    -124.010E-03     247.126E-03    -123.131E-03     1.49276E-03    -111.486E+06    -115.218E+06    -307.423E+06    -112.589E+06    -307.347E+06    -114.191E+06     246.512E+03         39.7574
             259     431.663E-09     89.4488E-03         2.05461    -33.2686E-03        -1.30741        -1.30274         2.04994    -33.2686E-03    -241.250E-03     246.936E-03    -122.837E-03    -124.116E-03    -124.115E-03     246.935E-03    -122.837E-03     1.02685E-03    -111.186E+06    -112.544E+06    -306.121E+06    -112.616E+06    -306.049E+06    -111.186E+06     386.375E+03         39.7568
             260     1.14924E-06     88.1722E-03         1.70666     96.1657E-03        -1.07030        -1.06680         1.70317     96.1657E-03    -167.332E-03     245.857E-03    -122.115E-03    -123.753E-03    -123.753E-03     245.857E-03    -122.115E-03     630.855E-06    -108.591E+06    -109.015E+06    -299.263E+06    -109.050E+06    -299.228E+06    -108.591E+06    -896.933E+03         39.7469
             261     160.286E-09     86.8978E-03         1.27740     299.661E-03    -828.205E-03    -822.808E-03         1.27200     299.661E-03    -158.731E-03     246.276E-03    -122.297E-03    -123.988E-03    -123.987E-03     246.275E-03    -122.297E-03    -470.608E-06    -108.317E+06    -110.624E+06    -300.714E+06    -108.434E+06    -300.690E+06    -110.532E+06     2.09612E+06         39.7432
             262     1.50495E-06     85.6161E-03     972.825E-03     405.528E-03    -598.225E-03    -581.040E-03     955.640E-03     405.528E-03    -315.410E-03     246.390E-03    -122.658E-03    -123.742E-03    -123.740E-03     246.388E-03    -122.658E-03    -164.628E-06    -107.592E+06    -111.783E+06    -304.425E+06    -109.591E+06    -304.403E+06    -109.807E+06     1.97027E+06         39.7438
             263    -1.24330E-06     84.3386E-03     720.729E-03     501.445E-03    -419.193E-03    -396.784E-03     698.319E-03     501.445E-03    -315.707E-03     246.240E-03    -122.838E-03    -123.410E-03    -123.409E-03     246.239E-03    -122.838E-03     859.302E-06    -109.331E+06    -112.742E+06    -304.628E+06    -112.771E+06    -304.598E+06    -109.331E+06    -901.639E+03         39.7508
             264     2.01088E-06     83.0600E-03     623.782E-03     480.660E-03    -275.395E-03    -261.944E-03     467.268E-03     623.723E-03    -195.984E-03     246.463E-03    -122.657E-03    -123.808E-03    -123.808E-03     246.463E-03    -122.657E-03     190.753E-06    -105.168E+06    -110.569E+06    -301.499E+06    -106.628E+06    -301.474E+06    -109.134E+06    -1.66248E+06         39.7605
             265    -792.004E-09     81.7833E-03     734.420E-03     279.600E-03    -152.139E-03    -136.004E-03     263.464E-03     734.420E-03    -138.320E-03     246.021E-03    -122.597E-03    -123.426E-03    -123.425E-03     246.020E-03    -122.597E-03    -566.808E-06    -104.798E+06    -112.351E+06    -301.807E+06    -108.386E+06    -301.806E+06    -108.764E+06    -346.610E+03         39.7645
             266     1.02334E-06     80.5068E-03     878.179E-03     153.391E-03    -143.898E-03     27.1743E-03    -17.6811E-03     878.179E-03    -145.083E-03     246.704E-03    -122.659E-03    -124.038E-03    -124.038E-03     246.703E-03    -122.659E-03    -876.088E-06    -109.405E+06    -116.328E+06    -306.080E+06    -112.995E+06    -306.077E+06    -112.741E+06     292.418E+03         39.7702
             267     1.19998E-06     79.2267E-03     937.737E-03     192.727E-03    -228.418E-03     180.151E-03    -215.842E-03     937.737E-03    -141.583E-03     247.528E-03    -123.103E-03    -124.410E-03    -124.410E-03     247.528E-03    -123.103E-03    -248.707E-06    -106.253E+06    -111.994E+06    -303.471E+06    -108.667E+06    -303.461E+06    -109.590E+06    -329.068E+03         39.7747
             268    -1.08201E-06     77.9451E-03     843.345E-03     254.891E-03    -192.921E-03     249.068E-03    -187.098E-03     843.345E-03    -83.5233E-03     247.187E-03    -123.186E-03    -123.991E-03    -123.991E-03     247.186E-03    -123.186E-03    -588.984E-06    -105.942E+06    -110.911E+06    -303.869E+06    -108.355E+06    -303.861E+06    -108.507E+06    -1.11356E+06         39.7687
             269     2.37944E-06     76.6698E-03     739.921E-03     352.028E-03    -165.303E-03     351.846E-03    -165.121E-03     739.921E-03    -19.3896E-03     246.858E-03    -122.500E-03    -124.364E-03    -124.363E-03     246.857E-03    -122.500E-03    -1.22058E-03    -110.814E+06    -115.673E+06    -306.530E+06    -113.110E+06    -306.528E+06    -113.378E+06     10.6929E+03         39.7597
             270    -362.587E-09     75.3883E-03     690.162E-03     507.920E-03    -263.833E-03     507.806E-03    -263.720E-03     690.162E-03    -15.2539E-03     246.392E-03    -122.486E-03    -123.926E-03    -123.589E-03     246.391E-03    -122.822E-03     230.349E-06    -114.723E+06    -118.056E+06    -306.957E+06    -117.020E+06    -306.955E+06    -115.761E+06     678.235E+03         39.7559
             271    -251.444E-09     74.1092E-03     637.787E-03     525.761E-03    -226.781E-03     586.853E-03    -226.671E-03     576.585E-03     8.88586E-03     246.745E-03    -122.925E-03    -123.832E-03    -123.495E-03     246.743E-03    -123.261E-03     1.42812E-03    -108.005E+06    -109.317E+06    -302.447E+06    -108.020E+06    -302.432E+06    -109.317E+06     1.55274E+06         39.7546
             272     1.27635E-06     72.8300E-03     586.457E-03     403.830E-03    -49.6422E-03     585.775E-03    -48.9599E-03     403.830E-03    -12.5275E-03     246.738E-03    -122.859E-03    -123.880E-03    -123.880E-03     246.737E-03    -122.859E-03     390.228E-06    -108.424E+06    -109.265E+06    -300.533E+06    -109.005E+06    -300.519E+06    -108.697E+06     1.26742E+06         39.7477
             273    -467.964E-09     71.5556E-03     570.187E-03     295.321E-03     77.6145E-03     534.184E-03     184.612E-03     224.326E-03    -154.198E-03     246.150E-03    -122.392E-03    -123.761E-03    -123.761E-03     246.149E-03    -122.392E-03    -644.014E-06    -110.079E+06    -110.651E+06    -301.088E+06    -110.685E+06    -301.050E+06    -110.083E+06    -1.79500E+06         39.7418
             274     15.0452E-03     69.9605E-03         1.65654    -69.0845E-03    -602.034E-03    -601.869E-03         1.65638    -69.0845E-03    -13.5339E-03     261.914E-03    -122.653E-03    -139.338E-03    -122.082E-03     244.902E-03    -122.898E-03     134.603E-03     104.898E+06     97.0456E+06    -5.23991E+06    -5.19522E+06     104.853E+06     97.0456E+06    -46.4735E+03         65.6484
             275     14.1584E-03     69.6719E-03         1.55442    -53.2450E-03    -523.505E-03    -523.467E-03         1.55438    -53.2450E-03     11.9390E-03     266.503E-03    -122.942E-03    -143.606E-03    -119.880E-03     242.777E-03    -122.942E-03     188.355E-03     100.552E+06     96.7928E+06    -11.7654E+06    -11.6984E+06     99.6542E+06     97.6237E+06    -672.136E+03         63.3752
             276     13.2709E-03     69.4965E-03         1.47576    -40.7993E-03    -460.765E-03    -460.571E-03         1.47557    -40.7993E-03     23.4264E-03     256.943E-03    -123.091E-03    -134.006E-03    -117.971E-03     240.907E-03    -123.091E-03     154.911E-03     96.5976E+06     93.9343E+06    -19.4475E+06    -19.3928E+06     93.8796E+06     96.5976E+06    -852.187E+03         61.0105
             277     12.3881E-03     69.3031E-03         1.40059    -28.3148E-03    -400.224E-03    -399.977E-03         1.40035    -28.3148E-03     37.2336E-03     255.309E-03    -123.039E-03    -132.377E-03    -118.712E-03     241.644E-03    -123.039E-03     141.569E-03     92.0316E+06     85.1037E+06    -27.1154E+06    -27.0815E+06     90.1654E+06     86.9360E+06     190.376E+03         58.3883
             278     11.5014E-03     69.1624E-03         1.32463    -14.7538E-03    -340.002E-03    -339.618E-03         1.32425    -14.7538E-03     45.2918E-03     247.527E-03    -121.856E-03    -125.705E-03    -118.012E-03     240.944E-03    -122.967E-03     95.1982E-03     85.3407E+06     63.6485E+06    -34.4893E+06    -34.4583E+06     85.3097E+06     63.6485E+06     1.28288E+06         55.4319
             279     10.6157E-03     69.0890E-03         1.24609     1.32359E-03    -280.591E-03    -280.253E-03         1.24576     1.32359E-03     37.0416E-03     243.897E-03    -120.801E-03    -123.027E-03    -118.082E-03     241.177E-03    -123.027E-03     62.1906E-03     78.4882E+06     34.5933E+06    -41.1263E+06    -41.0930E+06     78.4549E+06     34.5933E+06     1.38319E+06         52.4058
             280     9.72983E-03     69.0306E-03         1.16503     18.3057E-03    -218.700E-03    -218.253E-03         1.16459     18.3057E-03     39.6137E-03     243.945E-03    -120.822E-03    -123.052E-03    -119.353E-03     242.476E-03    -123.052E-03     45.3665E-03     43.8076E+06     14.9886E+06    -47.0841E+06    -47.0695E+06     42.2723E+06     16.5093E+06     695.154E+03         49.6854
             281     8.84424E-03     68.9947E-03         1.08894     35.1417E-03    -164.050E-03    -163.555E-03         1.08844     35.1417E-03     45.3117E-03     244.126E-03    -121.175E-03    -123.166E-03    -120.506E-03     243.457E-03    -123.166E-03     30.5905E-03     6.90213E+06    -22.7075E+06    -53.9182E+06    -52.8206E+06    -23.8051E+06     6.90213E+06     391.321E+03         47.4372
             282     7.96070E-03     68.9701E-03         1.01292     51.3226E-03    -105.793E-03    -105.665E-03         1.01279     51.3226E-03     21.9626E-03     244.572E-03    -121.498E-03    -123.278E-03    -121.214E-03     244.288E-03    -123.278E-03     19.8405E-03    -3.75046E+06    -58.5529E+06    -86.7606E+06    -58.6685E+06    -86.6450E+06    -3.75046E+06     236.225E+03         45.6297
             283     7.07568E-03     68.9585E-03     942.809E-03     65.7501E-03    -47.8616E-03    -47.7064E-03     942.653E-03     65.7501E-03     23.1347E-03     245.002E-03    -121.775E-03    -123.338E-03    -121.672E-03     244.898E-03    -123.338E-03     11.8089E-03    -13.8092E+06    -65.6504E+06    -137.246E+06    -65.6512E+06    -137.245E+06    -13.8092E+06    -75.0535E+03         44.1687
             284     6.19115E-03     68.9550E-03     891.806E-03     78.7245E-03    -10.8260E-03    -10.6012E-03     891.582E-03     78.7245E-03     3.47137E-03     245.466E-03    -122.199E-03    -123.357E-03    -122.173E-03     245.440E-03    -123.357E-03     5.28389E-03    -24.6150E+06    -72.0730E+06    -174.870E+06    -72.0766E+06    -174.866E+06    -24.6150E+06    -50.2282E+03         42.9780
             285     5.30618E-03     68.9572E-03     851.717E-03     91.6101E-03     14.6281E-03     15.5218E-03     850.823E-03     91.6101E-03     25.5111E-03     245.644E-03    -122.342E-03    -123.351E-03    -122.340E-03     245.642E-03    -123.351E-03     592.571E-06    -36.6024E+06    -78.0701E+06    -210.519E+06    -78.0736E+06    -210.515E+06    -36.6024E+06     64.5027E+03         42.0107
             286     4.42134E-03     68.9622E-03     808.979E-03     104.814E-03     41.5748E-03     42.4299E-03     808.124E-03     104.814E-03     23.4206E-03     245.650E-03    -122.329E-03    -123.432E-03    -122.324E-03     245.645E-03    -123.432E-03    -2.36598E-03    -51.5365E+06    -85.5934E+06    -241.882E+06    -85.5953E+06     -241.88E+06    -51.5365E+06     137.267E+03         41.2570
             287     3.53609E-03     68.9721E-03     758.255E-03     116.767E-03     78.6603E-03     78.8449E-03     758.071E-03     116.767E-03    -20.9023E-03     246.242E-03    -122.769E-03    -123.542E-03    -122.756E-03     246.229E-03    -123.542E-03    -4.29436E-03    -66.8608E+06    -91.6281E+06    -267.567E+06    -91.6381E+06    -267.557E+06    -66.8608E+06     611.276E+03         40.7053
             288     2.65242E-03     68.9817E-03     717.581E-03     124.790E-03     110.121E-03     112.062E-03     715.640E-03     124.790E-03     36.9580E-03     247.037E-03    -123.330E-03    -123.737E-03    -123.541E-03     247.021E-03    -123.510E-03    -4.84138E-03    -81.1398E+06    -96.1833E+06    -283.828E+06    -96.1923E+06    -283.819E+06    -81.1398E+06     538.393E+03         40.3039
             289     1.76872E-03     68.9912E-03     700.766E-03     136.514E-03     116.525E-03     134.253E-03     693.634E-03     125.918E-03     113.409E-03     246.963E-03    -123.227E-03    -123.778E-03    -123.616E-03     246.950E-03    -123.375E-03    -4.41146E-03    -91.8674E+06    -100.856E+06    -289.732E+06    -100.860E+06    -289.728E+06    -91.8674E+06    -402.515E+03         40.0107
             290     884.294E-06     68.9966E-03     730.897E-03     284.050E-03    -62.5604E-03     306.754E-03     702.955E-03    -57.3226E-03    -14.5718E-03     246.456E-03    -122.743E-03    -123.723E-03    -123.569E-03     246.450E-03    -122.892E-03    -2.11497E-03    -100.083E+06    -104.464E+06    -293.730E+06    -104.028E+06    -293.716E+06    -100.533E+06     496.210E+03         39.8185
             291     15.0444E-03     68.6782E-03         1.74874    -165.162E-03    -608.584E-03    -608.506E-03         1.74866    -165.162E-03    -2.00406E-03     261.413E-03    -122.723E-03    -138.671E-03    -121.597E-03     244.516E-03    -122.899E-03     134.759E-03     105.435E+06     97.2696E+06    -5.65465E+06    -5.60949E+06     105.390E+06     97.2696E+06    -757.487E+03         65.6434
             292     14.1603E-03     68.3980E-03         1.67801    -156.241E-03    -550.921E-03    -550.897E-03         1.67798    -156.241E-03     12.6938E-03     265.960E-03    -122.960E-03    -143.055E-03    -119.437E-03     242.343E-03    -122.960E-03     187.785E-03     101.182E+06     96.7961E+06    -11.3183E+06    -11.2848E+06     100.018E+06     97.9260E+06    -509.255E+03         63.3682
             293     13.2717E-03     68.2206E-03         1.61364    -150.707E-03    -495.146E-03    -495.119E-03         1.61361    -150.707E-03     13.2007E-03     257.310E-03    -123.120E-03    -134.430E-03    -118.003E-03     240.883E-03    -123.120E-03     156.830E-03     96.4830E+06     93.0662E+06    -19.0607E+06    -19.0007E+06     93.0062E+06     96.4830E+06     113.867E+03         61.0017
             294     12.3850E-03     68.0190E-03         1.54887    -145.259E-03    -437.769E-03    -437.724E-03         1.54882    -145.259E-03     13.5752E-03     255.299E-03    -123.085E-03    -132.315E-03    -118.593E-03     241.577E-03    -123.085E-03     141.377E-03     91.0163E+06     83.2250E+06    -28.0087E+06    -27.9468E+06     88.6676E+06     85.5118E+06     470.196E+03         58.3857
             295     11.5016E-03     67.8882E-03         1.49197    -138.400E-03    -391.597E-03    -391.282E-03         1.49165    -138.400E-03     33.8486E-03     247.287E-03    -121.938E-03    -125.363E-03    -118.034E-03     241.048E-03    -123.027E-03     92.6994E-03     84.8495E+06     62.9951E+06    -35.4962E+06    -35.4842E+06     84.8376E+06     62.9951E+06    -89.3724E+03         55.4372
             296     10.6146E-03     67.8085E-03         1.44536    -128.028E-03    -356.569E-03    -356.267E-03         1.44506    -128.028E-03     35.2725E-03     244.145E-03    -120.943E-03    -123.083E-03    -118.295E-03     241.498E-03    -123.083E-03     61.4769E-03     78.7060E+06     35.4978E+06    -41.4958E+06    -41.4813E+06     78.6915E+06     35.4978E+06    -37.7519E+03         52.4136
             297     9.73039E-03     67.7535E-03         1.38651    -115.876E-03    -310.931E-03    -310.501E-03         1.38608    -115.876E-03     42.7403E-03     244.412E-03    -121.261E-03    -123.078E-03    -119.788E-03     242.939E-03    -123.078E-03     45.5011E-03     44.3365E+06     16.1829E+06    -46.9012E+06    -46.8755E+06     43.1562E+06     17.3375E+06     635.184E+03         49.6937
             298     8.84618E-03     67.7145E-03         1.31671    -103.840E-03    -256.537E-03    -255.832E-03         1.31601    -103.840E-03     65.0015E-03     244.289E-03    -121.389E-03    -123.154E-03    -120.712E-03     243.612E-03    -123.154E-03     30.8314E-03     7.13728E+06    -22.1680E+06    -53.4293E+06    -52.6255E+06    -22.8310E+06     6.99648E+06     722.458E+03         47.4439
             299     7.96046E-03     67.6924E-03         1.26383    -92.1888E-03    -215.761E-03    -215.430E-03         1.26349    -92.1888E-03     39.0536E-03     244.295E-03    -121.270E-03    -123.265E-03    -120.977E-03     244.002E-03    -123.265E-03     20.1724E-03    -3.61918E+06    -58.6210E+06    -86.4504E+06    -58.7868E+06    -86.2846E+06    -3.61918E+06     499.420E+03         45.6326
             300     7.07485E-03     67.6807E-03         1.22032    -80.4315E-03    -184.019E-03    -183.871E-03         1.22017    -80.4315E-03     27.6487E-03     244.868E-03    -121.636E-03    -123.345E-03    -121.525E-03     244.758E-03    -123.345E-03     12.2100E-03    -13.2728E+06    -65.0695E+06    -136.528E+06    -65.0704E+06    -136.528E+06    -13.2728E+06     63.8998E+03         44.1685
             301     6.19043E-03     67.6751E-03         1.17727    -68.4556E-03    -153.773E-03    -153.589E-03         1.17709    -68.4556E-03     27.6675E-03     245.469E-03    -122.153E-03    -123.368E-03    -122.124E-03     245.439E-03    -123.368E-03     5.78446E-03    -24.9584E+06    -71.7464E+06    -174.796E+06    -71.7482E+06    -174.794E+06    -24.9584E+06    -350.314E+03         42.9771
             302     5.30687E-03     67.6791E-03         1.13141    -56.9697E-03    -119.779E-03    -119.197E-03         1.13083    -56.9697E-03     41.8609E-03     245.690E-03    -122.360E-03    -123.378E-03    -122.357E-03     245.687E-03    -123.378E-03     993.740E-06    -37.1833E+06    -78.5757E+06    -210.781E+06    -78.5803E+06    -210.777E+06    -37.1833E+06     53.0118E+03         42.0123
             303     4.42152E-03     67.6852E-03         1.08195    -47.7909E-03    -80.7071E-03    -80.1400E-03         1.08138    -47.7909E-03     32.3973E-03     245.790E-03    -122.451E-03    -123.457E-03    -122.445E-03     245.784E-03    -123.457E-03    -2.46769E-03    -50.9640E+06    -85.6018E+06    -241.716E+06    -85.6062E+06    -241.711E+06    -50.9640E+06     572.105E+03         41.2616
             304     3.53650E-03     67.6942E-03         1.05477    -41.4125E-03    -58.7257E-03    -58.2411E-03         1.05428    -41.4125E-03    -28.3865E-03     246.359E-03    -122.876E-03    -123.530E-03    -122.861E-03     246.343E-03    -123.530E-03    -4.64128E-03    -66.9890E+06    -92.9317E+06    -268.070E+06    -92.9348E+06    -268.067E+06    -66.9890E+06     399.368E+03         40.7084
             305     2.65167E-03     67.7018E-03         1.04361    -35.2854E-03    -54.4280E-03    -52.6289E-03         1.04181    -35.2854E-03     12.5622E-03     246.845E-03    -123.204E-03    -123.649E-03    -123.329E-03     246.824E-03    -123.503E-03    -5.50020E-03    -82.2772E+06    -98.8731E+06    -282.435E+06    -98.8780E+06    -282.430E+06    -82.2772E+06    -331.965E+03         40.3018
             306     1.76834E-03     67.7116E-03         1.02854    -24.9931E-03    -53.2074E-03    -50.3322E-03         1.02566    -24.9931E-03     78.3010E-03     246.986E-03    -123.275E-03    -123.754E-03    -123.602E-03     246.970E-03    -123.411E-03    -4.65768E-03    -93.8243E+06    -103.158E+06    -288.128E+06    -103.167E+06    -288.119E+06    -93.8243E+06    -1.24266E+06         40.0079
             307     885.304E-06     67.7186E-03     989.885E-03     217.452E-03    -256.443E-03     203.706E-03     986.394E-03    -239.206E-03    -8.89212E-03     246.502E-03    -123.016E-03    -123.515E-03    -123.510E-03     246.498E-03    -123.016E-03    -1.88498E-03    -103.183E+06    -107.819E+06    -296.048E+06    -107.862E+06    -296.005E+06    -103.183E+06    -1.23075E+06         39.8200
             308     15.0444E-03     67.3987E-03         1.86286    -273.237E-03    -624.828E-03    -624.696E-03         1.86273    -273.237E-03    -532.418E-06     260.269E-03    -122.402E-03    -137.911E-03    -120.714E-03     243.587E-03    -122.917E-03     134.066E-03     106.217E+06     95.3596E+06    -6.59161E+06    -6.48007E+06     106.106E+06     95.3596E+06    -1.06259E+06         65.6402
             309     14.1557E-03     67.1209E-03         1.81963    -271.025E-03    -586.028E-03    -585.969E-03         1.81957    -271.025E-03     19.5780E-03     266.213E-03    -122.988E-03    -143.268E-03    -119.835E-03     242.781E-03    -122.988E-03     187.261E-03     100.538E+06     94.4174E+06    -13.0983E+06    -13.0104E+06     99.2241E+06     95.6438E+06    -1.13043E+06         63.3701
             310     13.2714E-03     66.9419E-03         1.77287    -272.459E-03    -540.890E-03    -540.784E-03         1.77276    -272.459E-03     24.5702E-03     258.093E-03    -123.113E-03    -135.187E-03    -118.766E-03     241.672E-03    -123.113E-03     157.129E-03     95.7240E+06     92.1307E+06    -19.5402E+06    -19.4859E+06     92.0763E+06     95.7240E+06     347.375E+03         61.0005
             311     12.3865E-03     66.7418E-03         1.73235    -273.661E-03    -500.692E-03    -500.567E-03         1.73223    -273.661E-03     24.6191E-03     254.630E-03    -123.076E-03    -131.663E-03    -118.108E-03     241.074E-03    -123.076E-03     140.255E-03     91.7423E+06     84.1144E+06    -26.2843E+06    -26.2361E+06     89.3272E+06     86.4813E+06     238.505E+03         58.3757
             312     11.5010E-03     66.6058E-03         1.69148    -272.633E-03    -465.841E-03    -465.640E-03         1.69128    -272.633E-03     32.3731E-03     247.025E-03    -122.192E-03    -124.840E-03    -117.850E-03     240.883E-03    -123.040E-03     91.9872E-03     85.5011E+06     62.9339E+06    -34.1066E+06    -34.1013E+06     85.4958E+06     62.9339E+06    -478.851E+03         55.4309
             313     10.6165E-03     66.5351E-03         1.64089    -268.371E-03    -420.999E-03    -420.827E-03         1.64071    -268.371E-03     28.4589E-03     244.418E-03    -121.191E-03    -123.087E-03    -118.505E-03     241.733E-03    -123.087E-03     62.0322E-03     78.2661E+06     33.5129E+06    -41.7267E+06    -41.7169E+06     78.2564E+06     33.5129E+06    -195.699E+03         52.4160
             314     9.72902E-03     66.4718E-03         1.60142    -263.139E-03    -385.724E-03    -385.489E-03         1.60119    -263.139E-03     29.3744E-03     244.270E-03    -121.085E-03    -123.091E-03    -119.548E-03     242.733E-03    -123.091E-03     46.5056E-03     42.9830E+06     15.2978E+06    -48.0062E+06    -47.9812E+06     42.8608E+06     15.3951E+06     309.339E+03         49.6948
             315     8.84484E-03     66.4367E-03         1.57343    -256.914E-03    -365.406E-03    -364.895E-03         1.57292    -256.914E-03     56.0000E-03     244.299E-03    -121.365E-03    -123.192E-03    -120.669E-03     243.603E-03    -123.192E-03     31.0935E-03     6.22464E+06    -22.0859E+06    -54.1077E+06    -53.5348E+06    -22.5179E+06     6.08385E+06     272.852E+03         47.4414
             316     7.95961E-03     66.4146E-03         1.54305    -249.174E-03    -344.666E-03    -344.329E-03         1.54271    -249.174E-03     43.8994E-03     244.596E-03    -121.563E-03    -123.283E-03    -121.277E-03     244.311E-03    -123.283E-03     19.9604E-03    -4.23575E+06    -58.7578E+06    -86.1147E+06    -58.8193E+06    -86.0532E+06    -4.23575E+06    -41.2420E+03         45.6309
             317     7.07591E-03     66.4011E-03         1.51184    -240.282E-03    -324.389E-03    -324.233E-03         1.51168    -240.282E-03     33.3507E-03     244.906E-03    -121.632E-03    -123.343E-03    -121.525E-03     244.800E-03    -123.343E-03     11.8757E-03    -13.3145E+06    -64.4380E+06    -135.697E+06    -64.4411E+06    -135.694E+06    -13.3145E+06    -184.441E+03         44.1670
             318     6.19052E-03     66.3982E-03         1.47379    -231.136E-03    -294.434E-03    -294.245E-03         1.47360    -231.136E-03     34.7276E-03     245.156E-03    -121.768E-03    -123.405E-03    -121.743E-03     245.130E-03    -123.405E-03     5.52755E-03    -24.9078E+06    -71.1449E+06    -175.169E+06    -71.1462E+06    -175.168E+06    -24.9078E+06     44.1226E+03         42.9760
             319     5.30461E-03     66.3994E-03         1.43340    -223.261E-03    -261.186E-03    -260.914E-03         1.43313    -223.261E-03     40.4923E-03     245.799E-03    -122.402E-03    -123.450E-03    -122.398E-03     245.795E-03    -123.450E-03     805.151E-06    -37.3294E+06    -78.5362E+06    -211.974E+06    -78.5406E+06    -211.969E+06    -37.3294E+06     526.871E+03         42.0172
             320     4.42120E-03     66.4076E-03         1.41095    -216.724E-03    -243.009E-03    -242.738E-03         1.41068    -216.724E-03     41.7315E-03     246.500E-03    -123.047E-03    -123.547E-03    -123.129E-03     246.495E-03    -123.459E-03    -2.53945E-03    -49.0594E+06    -85.7692E+06    -241.677E+06    -85.7836E+06    -241.663E+06    -49.0594E+06     1.09523E+06         41.2723
             321     3.53748E-03     66.4144E-03         1.40256    -209.531E-03    -238.044E-03    -237.539E-03         1.40205    -209.531E-03    -16.3421E-03     246.592E-03    -123.130E-03    -123.490E-03    -123.202E-03     246.577E-03    -123.402E-03    -4.65348E-03    -64.6706E+06    -93.7688E+06    -266.373E+06    -93.7818E+06    -266.360E+06    -64.6706E+06     1.05375E+06         40.7137
             322     2.65383E-03     66.4245E-03         1.38697    -198.816E-03    -235.714E-03    -234.917E-03         1.38617    -198.816E-03     218.507E-06     246.198E-03    -122.886E-03    -123.343E-03    -122.864E-03     246.176E-03    -123.343E-03    -5.64486E-03    -82.9778E+06     -100.94E+06    -280.790E+06    -100.950E+06    -280.780E+06    -82.9778E+06    -484.611E+03         40.2941
             323     1.76802E-03     66.4326E-03         1.34284    -176.877E-03    -218.609E-03    -209.076E-03         1.34228    -185.850E-03     51.4988E-03     246.292E-03    -122.855E-03    -123.497E-03    -122.861E-03     246.276E-03    -123.476E-03    -4.57855E-03    -98.5657E+06    -105.198E+06    -288.694E+06    -105.210E+06    -288.682E+06    -98.5657E+06    -1.43046E+06         39.9959
             324     883.053E-06     66.4396E-03         1.30670     143.085E-03    -502.618E-03     132.559E-03         1.30522    -490.619E-03    -17.2488E-03     247.112E-03    -123.213E-03    -123.929E-03    -123.629E-03     247.106E-03    -123.507E-03    -2.08546E-03    -105.425E+06    -109.107E+06    -298.344E+06    -107.207E+06    -298.310E+06    -107.359E+06    -2.03714E+06         39.8174
             325     15.0432E-03     66.1224E-03         1.97801    -389.266E-03    -628.371E-03    -628.181E-03         1.97782    -389.266E-03    -3.48946E-03     259.945E-03    -122.080E-03    -138.011E-03    -120.585E-03     243.384E-03    -122.945E-03     133.465E-03     107.055E+06     95.2946E+06    -6.58167E+06    -6.40084E+06     106.875E+06     95.2946E+06     4.83931E+03         65.6433
             326     14.1584E-03     65.8435E-03         1.94873    -394.991E-03    -597.850E-03    -597.755E-03         1.94863    -394.991E-03     21.0033E-03     267.054E-03    -122.999E-03    -144.015E-03    -120.615E-03     243.653E-03    -122.999E-03     187.604E-03     101.101E+06     94.5545E+06    -13.7926E+06    -13.6232E+06     100.297E+06     95.1897E+06    -391.324E+03         63.3774
             327     13.2726E-03     65.6614E-03         1.93628    -404.315E-03    -579.795E-03    -579.614E-03         1.93610    -404.315E-03     29.6382E-03     258.622E-03    -123.086E-03    -135.677E-03    -119.377E-03     242.322E-03    -123.086E-03     156.832E-03     95.5407E+06     92.3449E+06    -20.5400E+06    -20.5053E+06     92.3102E+06     95.5407E+06    -1.22421E+06         61.0033
             328     12.3880E-03     65.4635E-03         1.92636    -412.377E-03    -563.583E-03    -563.380E-03         1.92616    -412.377E-03     41.9340E-03     253.726E-03    -123.055E-03    -130.802E-03    -117.330E-03     240.254E-03    -123.055E-03     139.789E-03     91.2197E+06     83.2841E+06    -27.9568E+06    -27.9407E+06     88.6430E+06     85.8447E+06    -1.02873E+06         58.3646
             329     11.5000E-03     65.3308E-03         1.90774    -417.680E-03    -543.418E-03    -543.016E-03         1.90734    -417.680E-03     55.1116E-03     246.639E-03    -122.439E-03    -124.183E-03    -117.184E-03     240.277E-03    -123.077E-03     93.6318E-03     84.9537E+06     61.9406E+06    -35.3048E+06    -35.3018E+06     84.9507E+06     61.9406E+06     -77.241E+03         55.4193
             330     10.6136E-03     65.2521E-03         1.88131    -419.133E-03    -517.889E-03    -517.510E-03         1.88093    -419.133E-03     48.9593E-03     245.184E-03    -121.912E-03    -123.127E-03    -119.190E-03     242.462E-03    -123.127E-03     62.2716E-03     78.0866E+06     32.9709E+06    -42.1737E+06    -42.1688E+06     78.0817E+06     32.9709E+06     524.470E+03         52.4166
             331     9.73067E-03     65.1978E-03         1.85714    -418.798E-03    -492.945E-03    -492.686E-03         1.85688    -418.798E-03     38.0865E-03     244.444E-03    -121.225E-03    -123.085E-03    -119.771E-03     242.990E-03    -123.085E-03     45.3488E-03     43.3771E+06     13.9254E+06    -48.3991E+06    -48.3891E+06     43.2699E+06     14.0227E+06     8.77316E+03         49.6969
             332     8.84355E-03     65.1554E-03         1.84254    -417.187E-03    -481.627E-03    -481.295E-03         1.84221    -417.187E-03     51.3301E-03     244.044E-03    -121.050E-03    -123.186E-03    -120.377E-03     243.370E-03    -123.186E-03     30.5177E-03     6.58138E+06    -23.0333E+06    -54.4412E+06    -53.6727E+06    -21.9251E+06     4.70471E+06    -870.357E+03         47.4377
             333     7.96098E-03     65.1360E-03         1.82597    -413.923E-03    -470.161E-03    -470.033E-03         1.82584    -413.923E-03     33.3148E-03     244.743E-03    -121.680E-03    -123.284E-03    -121.410E-03     244.473E-03    -123.284E-03     19.4592E-03    -5.43579E+06    -59.3206E+06    -86.5743E+06    -59.7102E+06    -86.1847E+06    -5.43579E+06    -715.961E+03         45.6279
             334     7.07501E-03     65.1232E-03         1.80519    -409.522E-03    -456.552E-03    -456.419E-03         1.80506    -409.522E-03     33.4641E-03     244.989E-03    -121.736E-03    -123.329E-03    -121.633E-03     244.886E-03    -123.329E-03     11.6764E-03    -14.8351E+06    -65.9017E+06    -136.475E+06    -65.9049E+06    -136.472E+06    -14.8351E+06    -338.053E+03         44.1672
             335     6.19042E-03     65.1201E-03         1.78184    -404.818E-03    -438.214E-03    -438.085E-03         1.78171    -404.818E-03     18.6591E-03     245.190E-03    -121.817E-03    -123.391E-03    -121.794E-03     245.167E-03    -123.391E-03     5.05776E-03    -25.2014E+06    -72.4156E+06    -176.156E+06    -72.4205E+06    -176.151E+06    -25.2014E+06     393.991E+03         42.9770
             336     5.30619E-03     65.1219E-03         1.76151    -400.621E-03    -420.517E-03    -420.082E-03         1.76107    -400.621E-03     39.0028E-03     245.693E-03    -122.322E-03    -123.427E-03    -122.319E-03     245.690E-03    -123.427E-03     579.281E-06    -37.8467E+06    -80.0933E+06    -212.228E+06    -80.1067E+06    -212.215E+06    -37.8467E+06     1.14006E+06         42.0170
             337     4.42142E-03     65.1268E-03         1.75537    -396.402E-03    -415.287E-03    -414.734E-03         1.75481    -396.402E-03     66.5976E-03     246.377E-03    -122.963E-03    -123.528E-03    -123.045E-03     246.371E-03    -123.440E-03    -2.32810E-03    -50.2771E+06    -87.1881E+06    -242.314E+06    -87.2082E+06    -242.294E+06    -50.2771E+06     1.32244E+06         41.2719
             338     3.53792E-03     65.1363E-03         1.74426    -386.365E-03    -411.655E-03    -406.261E-03         1.74402    -391.519E-03     18.6952E-03     246.575E-03    -123.166E-03    -123.475E-03    -123.241E-03     246.562E-03    -123.387E-03    -4.29312E-03    -65.2524E+06    -93.2987E+06    -263.816E+06    -93.3102E+06    -263.804E+06    -65.2524E+06     801.920E+03         40.7140
             339     2.65263E-03     65.1463E-03         1.72813    -376.594E-03    -407.272E-03    -396.179E-03         1.72702    -386.580E-03     58.1352E-03     246.282E-03    -122.987E-03    -123.349E-03    -123.022E-03     246.263E-03    -123.295E-03    -5.21801E-03    -82.6289E+06    -99.1685E+06    -278.608E+06    -99.1751E+06    -278.601E+06    -82.6289E+06    -561.583E+03         40.2933
             340     1.76864E-03     65.1561E-03         1.71100    -369.090E-03    -400.707E-03    -385.391E-03         1.70949    -382.897E-03     54.5626E-03     246.293E-03    -122.847E-03    -123.506E-03    -123.005E-03     246.277E-03    -123.332E-03    -4.75009E-03    -96.9526E+06    -105.054E+06    -290.932E+06    -105.064E+06    -290.922E+06    -96.9526E+06    -510.369E+03         39.9915
             341     883.730E-06     65.1599E-03         1.70063    -1.90650E-03    -761.453E-03    -7.22020E-03         1.69924    -754.750E-03     18.3454E-03     246.659E-03    -122.725E-03    -123.953E-03    -123.652E-03     246.653E-03    -123.019E-03    -2.63696E-03    -105.968E+06    -111.551E+06    -299.498E+06    -109.665E+06    -299.450E+06    -107.902E+06     1.23553E+06         39.8084
             342     15.0425E-03     64.8437E-03         2.09998    -511.148E-03    -637.164E-03    -637.096E-03         2.09991    -511.148E-03    -4.23220E-03     260.457E-03    -121.874E-03    -138.657E-03    -120.964E-03     243.872E-03    -122.982E-03     133.828E-03     107.273E+06     96.7864E+06    -5.52700E+06    -5.39079E+06     107.136E+06     96.7864E+06     490.246E+03         65.6458
             343     14.1560E-03     64.5641E-03         2.09293    -524.359E-03    -618.060E-03    -618.019E-03         2.09289    -524.359E-03     7.01198E-03     267.711E-03    -123.009E-03    -144.683E-03    -121.178E-03     244.207E-03    -123.009E-03     188.438E-03     102.084E+06     96.9773E+06    -11.9429E+06    -11.8022E+06     101.773E+06     97.1472E+06     533.833E+03         63.3788
             344     13.2730E-03     64.3794E-03         2.09610    -539.568E-03    -610.190E-03    -608.479E-03         2.09599    -541.167E-03     20.9346E-03     257.753E-03    -123.095E-03    -134.842E-03    -118.485E-03     241.396E-03    -123.095E-03     156.746E-03      95.337E+06     92.0360E+06    -20.0152E+06    -19.9727E+06     92.4727E+06     94.8578E+06    -624.918E+03         61.0023
             345     12.3863E-03     64.1886E-03         2.10444    -553.164E-03    -607.975E-03    -604.329E-03         2.10433    -556.697E-03     28.0783E-03     253.560E-03    -123.101E-03    -130.605E-03    -117.009E-03     239.964E-03    -123.101E-03     140.414E-03     90.8061E+06     82.3909E+06    -28.3480E+06    -28.3384E+06     88.1446E+06     85.0428E+06    -913.173E+03         58.3643
             346     11.4994E-03     64.0539E-03         2.11622    -566.121E-03    -609.614E-03    -606.002E-03         2.11593    -569.434E-03     42.7719E-03     247.693E-03    -122.815E-03    -124.860E-03    -118.069E-03     241.189E-03    -123.101E-03     94.7817E-03     85.0484E+06     61.7322E+06    -36.2102E+06    -36.2072E+06     85.0454E+06     61.7322E+06    -212.421E+03         55.4197
             347     10.6149E-03     63.9713E-03         2.13179    -575.694E-03    -616.921E-03    -615.183E-03         2.13149    -577.127E-03     43.4980E-03     245.334E-03    -122.071E-03    -123.120E-03    -119.433E-03     242.695E-03    -123.119E-03     61.1775E-03     77.8235E+06     33.3090E+06    -43.1940E+06    -43.1885E+06     77.8181E+06     33.3090E+06    -265.841E+03         52.4171
             348     9.73041E-03     63.9172E-03         2.13652    -581.091E-03    -617.473E-03    -617.049E-03         2.13615    -581.145E-03     49.6191E-03     244.531E-03    -121.371E-03    -123.059E-03    -119.988E-03     243.147E-03    -123.059E-03     44.4561E-03     44.9528E+06     14.7720E+06    -48.4948E+06    -48.4891E+06     44.9470E+06     14.7720E+06    -435.461E+03         49.6967
             349     8.84657E-03     63.8801E-03         2.12745    -582.286E-03    -607.922E-03    -606.177E-03         2.12688    -583.463E-03     76.8423E-03     243.873E-03    -120.990E-03    -123.138E-03    -120.295E-03     243.178E-03    -123.138E-03     31.0166E-03     7.11137E+06    -23.2976E+06    -55.6225E+06    -54.1484E+06    -21.5526E+06     3.89225E+06    -411.173E+03         47.4333
             350     7.95887E-03     63.8550E-03         2.12062    -582.463E-03    -601.425E-03    -598.833E-03         2.12033    -584.767E-03     52.4019E-03     244.202E-03    -121.198E-03    -123.269E-03    -120.927E-03     243.930E-03    -123.269E-03     19.3579E-03    -6.22249E+06    -60.2592E+06    -87.6486E+06    -60.6551E+06    -87.2527E+06    -6.22249E+06    -515.892E+03         45.6227
             351     7.07605E-03     63.8463E-03         2.11226    -580.723E-03    -598.299E-03    -593.721E-03         2.11211    -585.156E-03     38.4911E-03     245.055E-03    -121.806E-03    -123.342E-03    -121.706E-03     244.956E-03    -123.342E-03     11.6437E-03    -15.4353E+06    -67.4732E+06    -137.044E+06    -67.4774E+06    -137.040E+06    -15.4353E+06    -80.2657E+03         44.1679
             352     6.19102E-03     63.8406E-03         2.10468    -578.632E-03    -593.482E-03    -586.872E-03         2.10454    -585.101E-03     24.2689E-03     245.491E-03    -122.158E-03    -123.368E-03    -122.130E-03     245.463E-03    -123.368E-03     5.59511E-03    -26.7896E+06    -74.6224E+06    -177.450E+06    -74.6298E+06    -177.443E+06    -26.7896E+06     659.025E+03         42.9801
             353     5.30615E-03     63.8445E-03         2.10936    -580.994E-03    -595.292E-03    -591.534E-03         2.10877    -584.158E-03     57.9672E-03     245.715E-03    -122.391E-03    -123.366E-03    -122.388E-03     245.712E-03    -123.366E-03     1.09286E-03    -39.0460E+06    -80.4509E+06    -211.622E+06    -80.4656E+06    -211.608E+06    -39.0460E+06     907.837E+03         42.0147
             354     4.42127E-03     63.8483E-03         2.09968    -577.453E-03    -590.550E-03    -584.826E-03         2.09906    -582.552E-03     64.4968E-03     245.888E-03    -122.603E-03    -123.414E-03    -122.598E-03     245.883E-03    -123.414E-03    -2.12887E-03    -52.3951E+06    -86.1398E+06    -241.403E+06    -86.1495E+06    -241.393E+06    -52.3951E+06     289.639E+03         41.2642
             355     3.53623E-03     63.8577E-03         2.07962    -564.855E-03    -583.717E-03    -564.904E-03         2.07939    -583.439E-03    -1.90183E-03     246.426E-03    -123.037E-03    -123.485E-03    -123.067E-03     246.410E-03    -123.438E-03    -4.73544E-03    -67.0293E+06    -91.8701E+06    -262.819E+06    -91.8757E+06    -262.814E+06    -67.0293E+06    -567.972E+03         40.7103
             356     2.65313E-03     63.8680E-03         2.08077    -561.400E-03    -589.041E-03    -560.496E-03         2.07987    -589.041E-03     41.7826E-03     246.823E-03    -123.287E-03    -123.566E-03    -123.501E-03     246.801E-03    -123.330E-03    -5.61033E-03    -81.4265E+06    -97.7464E+06    -278.953E+06    -97.7568E+06    -278.942E+06    -81.4265E+06    -233.824E+03         40.2987
             357     1.76898E-03     63.8770E-03         2.10536    -575.236E-03    -602.970E-03    -580.729E-03         2.10415    -596.268E-03     46.3613E-03     246.590E-03    -123.138E-03    -123.486E-03    -123.471E-03     246.574E-03    -123.138E-03    -4.69363E-03    -93.7294E+06    -104.212E+06    -292.476E+06    -104.230E+06    -292.459E+06    -93.7294E+06     1.30612E+06         39.9972
             358     885.852E-06     63.8825E-03         2.12619    -164.297E-03        -1.03488    -169.669E-03         2.12486        -1.02818     38.0696E-03     245.881E-03    -122.573E-03    -123.330E-03    -123.324E-03     245.876E-03    -122.573E-03    -1.52198E-03    -103.598E+06    -108.909E+06    -297.146E+06    -108.781E+06    -297.083E+06    -103.789E+06     1.81727E+06         39.8033
             359     15.0421E-03     63.5668E-03         2.22245    -609.481E-03    -672.755E-03    -645.745E-03         2.22242    -636.460E-03    -3.69996E-03     260.623E-03    -122.038E-03    -138.727E-03    -121.113E-03     243.938E-03    -122.967E-03     134.043E-03     106.391E+06     96.1483E+06    -6.50114E+06    -6.42814E+06     106.318E+06     96.1483E+06     179.383E+03         65.6347
             360     14.1594E-03     63.2817E-03         2.24611    -625.594E-03    -680.741E-03    -649.656E-03         2.24609    -656.653E-03     14.0899E-03     266.726E-03    -123.025E-03    -143.823E-03    -120.167E-03     243.069E-03    -123.025E-03     188.621E-03     101.409E+06     96.8607E+06    -12.6701E+06    -12.5877E+06     101.299E+06     96.8890E+06     44.8211E+03         63.3668
             361     13.2718E-03     63.1043E-03         2.26852    -644.281E-03    -688.422E-03    -652.603E-03         2.26847    -680.046E-03     23.1641E-03     257.126E-03    -123.175E-03    -134.142E-03    -117.785E-03     240.768E-03    -123.175E-03     156.500E-03     95.9004E+06     93.5556E+06    -19.3550E+06    -19.3076E+06     93.9874E+06     95.4211E+06     430.170E+03         61.0000
             362     12.3829E-03     62.9122E-03         2.29492    -658.647E-03    -702.157E-03    -658.586E-03         2.29486    -702.157E-03     23.2865E-03     254.724E-03    -123.153E-03    -131.695E-03    -118.233E-03     241.262E-03    -123.153E-03     140.049E-03     91.0967E+06     83.5712E+06    -27.6573E+06    -27.6330E+06     89.2352E+06     85.4084E+06    -133.953E+03         58.3728
             363     11.5002E-03     62.7707E-03         2.33192    -678.748E-03    -721.217E-03    -678.610E-03         2.33178    -721.217E-03     34.9985E-03     248.267E-03    -122.569E-03    -125.687E-03    -118.817E-03     241.900E-03    -123.073E-03     93.9733E-03     84.8770E+06     62.1212E+06    -36.1046E+06    -36.0994E+06     84.8719E+06     62.1212E+06    -541.510E+03         55.4216
             364     10.6165E-03     62.6940E-03         2.36031    -695.406E-03    -735.036E-03    -695.286E-03         2.36019    -735.036E-03     27.8400E-03     244.704E-03    -121.489E-03    -123.074E-03    -118.842E-03     242.057E-03    -123.073E-03     61.3820E-03     77.7922E+06     33.3815E+06    -42.9398E+06    -42.9326E+06     77.7850E+06     33.3815E+06    -762.890E+03         52.4061
             365     9.72999E-03     62.6387E-03         2.38638    -708.114E-03    -748.554E-03    -711.111E-03         2.38616    -745.340E-03     37.1947E-03     244.315E-03    -121.218E-03    -123.049E-03    -119.787E-03     242.884E-03    -123.049E-03     45.0457E-03     44.6327E+06     14.5924E+06    -48.7505E+06    -48.7433E+06     44.6255E+06     14.5924E+06    -671.905E+03         49.6862
             366     8.84476E-03     62.6000E-03         2.41038    -724.507E-03    -756.374E-03    -727.327E-03         2.40999    -753.160E-03     65.3371E-03     244.056E-03    -121.176E-03    -123.136E-03    -120.493E-03     243.372E-03    -123.136E-03     30.7752E-03     6.36906E+06    -23.1043E+06    -56.1727E+06    -55.1249E+06    -21.4549E+06     3.67189E+06     364.051E+03         47.4285
             367     7.96160E-03     62.5797E-03         2.42156    -732.181E-03    -759.139E-03    -731.901E-03         2.42128    -759.139E-03     54.2707E-03     243.958E-03    -120.904E-03    -123.266E-03    -120.619E-03     243.674E-03    -123.266E-03     19.9765E-03    -7.01354E+06    -60.4730E+06    -88.2804E+06    -61.5432E+06    -87.2101E+06    -7.01354E+06     356.516E+03         45.6196
             368     7.07413E-03     62.5651E-03         2.43058    -737.695E-03    -764.080E-03    -737.565E-03         2.43045    -764.080E-03     36.5431E-03     244.928E-03    -121.648E-03    -123.374E-03    -121.535E-03     244.814E-03    -123.374E-03     12.1366E-03    -15.8454E+06    -67.7189E+06    -137.550E+06    -67.7238E+06    -137.546E+06    -15.8454E+06     59.1096E+03         44.1681
             369     6.19020E-03     62.5640E-03         2.44238    -746.127E-03    -767.956E-03    -746.021E-03         2.44227    -767.956E-03     33.2247E-03     245.837E-03    -122.490E-03    -123.391E-03    -122.464E-03     245.811E-03    -123.391E-03     5.62830E-03    -26.8741E+06    -73.8272E+06    -176.707E+06    -73.8332E+06    -176.701E+06    -26.8741E+06     86.0483E+03         42.9842
             370     5.30613E-03     62.5640E-03         2.45668    -756.126E-03    -774.027E-03    -759.440E-03         2.45616    -770.200E-03     74.7749E-03     246.093E-03    -122.793E-03    -123.323E-03    -122.788E-03     246.088E-03    -123.323E-03     605.200E-06    -39.9696E+06    -80.2678E+06    -211.464E+06    -80.2727E+06    -211.459E+06    -39.9696E+06    -290.300E+03         42.0178
             371     4.42204E-03     62.5720E-03         2.46286    -761.292E-03    -776.360E-03    -766.510E-03         2.46241    -770.696E-03     44.3982E-03     245.841E-03    -122.630E-03    -123.326E-03    -122.623E-03     245.834E-03    -123.326E-03    -2.99941E-03    -53.2686E+06    -86.8340E+06    -240.243E+06    -86.8424E+06    -240.235E+06    -53.2686E+06    -870.490E+03         41.2609
             372     3.53742E-03     62.5780E-03         2.45832    -757.356E-03    -777.597E-03    -764.036E-03         2.45819    -770.786E-03    -29.1341E-03     245.975E-03    -122.617E-03    -123.434E-03    -122.647E-03     245.959E-03    -123.387E-03    -4.82122E-03    -68.2211E+06    -93.1901E+06    -263.551E+06    -93.2065E+06    -263.534E+06    -68.2211E+06    -689.536E+03         40.7020
             373     2.65266E-03     62.5893E-03         2.45287    -751.274E-03    -778.165E-03    -756.034E-03         2.45266    -773.192E-03     2.69768E-03     246.559E-03    -123.006E-03    -123.572E-03    -123.169E-03     246.541E-03    -123.390E-03    -5.16620E-03    -83.4898E+06    -99.3117E+06    -281.605E+06    -99.3292E+06    -281.588E+06    -83.4898E+06     792.643E+03         40.2945
             374     1.76922E-03     62.5977E-03         2.45782    -750.269E-03    -783.096E-03    -750.048E-03         2.45760    -783.096E-03     36.9986E-03     246.645E-03    -123.156E-03    -123.529E-03    -123.318E-03     246.634E-03    -123.355E-03    -4.08636E-03    -94.7876E+06    -103.559E+06    -290.556E+06    -103.594E+06    -290.520E+06    -94.7876E+06     655.922E+03         40.0023
             375     883.538E-06     62.6069E-03         2.50586    -308.786E-03        -1.27188    -308.366E-03         2.50544        -1.27188     49.4796E-03     246.522E-03    -122.864E-03    -123.682E-03    -123.585E-03     246.517E-03    -122.955E-03    -1.04370E-03    -102.422E+06    -105.970E+06    -294.383E+06    -105.345E+06    -294.347E+06    -103.082E+06    -782.709E+03         39.8162
             376     15.0450E-03     62.2863E-03         2.34287    -654.184E-03    -762.491E-03    -654.109E-03         2.34279    -762.491E-03     8.58662E-03     260.312E-03    -122.497E-03    -137.980E-03    -120.669E-03     243.444E-03    -122.940E-03     134.367E-03     106.684E+06     96.4888E+06    -5.67252E+06    -5.59956E+06     106.611E+06     96.4888E+06     733.278E+03         65.6158
             377     14.1557E-03     62.0060E-03         2.38728    -672.826E-03    -789.389E-03    -672.755E-03         2.38721    -789.389E-03     23.5035E-03     265.806E-03    -123.037E-03    -142.899E-03    -119.172E-03     242.079E-03    -123.037E-03     188.178E-03     100.734E+06     96.4109E+06    -12.2218E+06    -12.1586E+06     100.642E+06     96.4392E+06     243.074E+03         63.3533
             378     13.2680E-03     61.8273E-03         2.44404    -702.145E-03    -819.025E-03    -702.092E-03         2.44399    -819.025E-03     21.3170E-03     257.905E-03    -123.192E-03    -134.907E-03    -118.839E-03     241.837E-03    -123.192E-03     155.507E-03     95.5447E+06     94.4498E+06    -19.8815E+06    -19.8393E+06     94.6085E+06     95.3438E+06     405.594E+03         60.9955
             379     12.3875E-03     61.6289E-03         2.50000    -730.769E-03    -846.552E-03    -730.697E-03         2.49993    -846.552E-03     29.9473E-03     255.198E-03    -123.091E-03    -132.259E-03    -119.119E-03     242.058E-03    -123.091E-03     138.661E-03     91.9451E+06     85.2406E+06    -28.0087E+06    -27.9750E+06     91.0457E+06     86.1063E+06     519.103E+03         58.3701
             380     11.5023E-03     61.4937E-03         2.54774    -754.654E-03    -870.741E-03    -754.476E-03         2.54756    -870.741E-03     45.1194E-03     247.106E-03    -121.857E-03    -125.271E-03    -117.926E-03     240.900E-03    -122.996E-03     92.6275E-03     84.8678E+06     61.0549E+06    -36.5336E+06    -36.5149E+06     84.8491E+06     61.0549E+06    -186.542E+03         55.4109
             381     10.6140E-03     61.4157E-03         2.59259    -782.226E-03    -889.997E-03    -782.074E-03         2.59244    -889.997E-03     36.3516E-03     244.088E-03    -120.929E-03    -123.055E-03    -118.277E-03     241.436E-03    -123.055E-03     61.4131E-03     77.0581E+06     31.7124E+06    -43.7947E+06    -43.7894E+06     77.0529E+06     31.7124E+06    -731.925E+03         52.3893
             382     9.73023E-03     61.3593E-03         2.63714    -811.118E-03    -905.785E-03    -810.950E-03         2.63697    -905.785E-03     38.8837E-03     244.162E-03    -121.066E-03    -123.065E-03    -119.622E-03     242.718E-03    -123.065E-03     45.1231E-03     43.5379E+06     13.3033E+06    -50.2855E+06    -50.2783E+06     43.5307E+06     13.3033E+06    -136.404E+03         49.6738
             383     8.84598E-03     61.3216E-03         2.67688    -838.967E-03    -918.889E-03    -838.785E-03         2.67670    -918.889E-03     44.1334E-03     243.869E-03    -120.979E-03    -123.174E-03    -120.313E-03     243.203E-03    -123.174E-03     30.4090E-03     5.71751E+06    -23.7244E+06    -57.0120E+06    -56.3859E+06    -21.4875E+06     2.85449E+06     71.0692E+03         47.4271
             384     7.95869E-03     61.3019E-03         2.71294    -861.772E-03    -929.664E-03    -861.704E-03         2.71287    -929.664E-03     27.6117E-03     244.270E-03    -121.224E-03    -123.294E-03    -120.936E-03     243.982E-03    -123.294E-03     20.1859E-03    -7.28359E+06    -60.1528E+06    -87.6072E+06    -61.5589E+06    -86.2011E+06    -7.28359E+06    -24.4209E+03         45.6241
             385     7.07531E-03     61.2879E-03         2.74842    -887.617E-03    -938.354E-03    -887.554E-03         2.74836    -938.354E-03     13.0789E-03     245.132E-03    -121.885E-03    -123.368E-03    -121.770E-03     245.016E-03    -123.368E-03     12.1470E-03    -16.2154E+06    -67.5189E+06    -137.508E+06    -67.5259E+06    -137.501E+06    -16.2154E+06    -328.533E+03         44.1712
             386     6.19042E-03     61.2831E-03         2.77493    -909.629E-03    -944.723E-03    -909.562E-03         2.77486    -944.723E-03    -4.60285E-03     245.825E-03    -122.493E-03    -123.374E-03    -122.470E-03     245.802E-03    -123.374E-03     5.13050E-03    -27.0958E+06    -74.0564E+06    -176.569E+06    -74.0688E+06    -176.557E+06    -27.0958E+06    -358.194E+03         42.9858
             387     5.30674E-03     61.2856E-03         2.78565    -915.240E-03    -949.936E-03    -914.939E-03         2.78534    -949.936E-03     38.9650E-03     246.081E-03    -122.798E-03    -123.298E-03    -122.794E-03     246.077E-03    -123.298E-03     535.558E-06    -40.3261E+06    -80.9855E+06    -211.063E+06    -80.9928E+06    -211.056E+06    -40.3261E+06    -168.113E+03         42.0199
             388     4.42267E-03     61.2921E-03         2.80257    -926.725E-03    -956.464E-03    -928.308E-03         2.80231    -954.625E-03     36.1683E-03     245.910E-03    -122.713E-03    -123.273E-03    -122.706E-03     245.904E-03    -123.273E-03    -2.72328E-03    -53.6988E+06    -88.0951E+06    -239.275E+06    -88.1058E+06    -239.264E+06    -53.6988E+06    -467.122E+03         41.2610
             389     3.53755E-03     61.3027E-03         2.83104    -947.201E-03    -963.490E-03    -954.411E-03         2.83102    -956.265E-03    -126.652E-06     245.758E-03    -122.462E-03    -123.342E-03    -122.449E-03     245.746E-03    -123.342E-03    -4.25725E-03    -68.8437E+06    -95.5006E+06    -264.728E+06    -95.5158E+06    -264.713E+06    -68.8437E+06    -86.4199E+03         40.6956
             390     2.65223E-03     61.3097E-03         2.84398    -948.685E-03    -970.680E-03    -966.284E-03         2.84385    -952.948E-03     32.5925E-03     246.006E-03    -122.579E-03    -123.455E-03    -122.561E-03     245.989E-03    -123.455E-03    -5.04816E-03    -85.1291E+06    -100.961E+06    -282.358E+06    -100.979E+06    -282.340E+06    -85.1291E+06    -56.0844E+03         40.2842
             391     1.76692E-03     61.3206E-03         2.83990    -926.889E-03    -984.415E-03    -967.507E-03         2.83962    -943.517E-03     49.0606E-03     246.816E-03    -123.176E-03    -123.686E-03    -123.238E-03     246.800E-03    -123.610E-03    -4.59390E-03    -96.7188E+06    -103.665E+06    -288.786E+06    -103.695E+06    -288.756E+06    -96.7188E+06    -1.21008E+06         39.9997
             392     884.122E-06     61.3258E-03         2.80095    -418.962E-03        -1.45499    -446.206E-03         2.79964        -1.42644    -4.95126E-03     247.241E-03    -123.212E-03    -124.050E-03    -123.953E-03     247.235E-03    -123.304E-03    -1.87362E-03    -104.815E+06    -107.380E+06    -296.012E+06    -106.932E+06    -295.990E+06    -105.285E+06    -527.045E+03         39.8271
             393     15.0437E-03     61.0111E-03         2.46010    -664.277E-03    -885.844E-03    -664.213E-03         2.46003    -885.844E-03    -1.42163E-03     260.621E-03    -122.414E-03    -138.243E-03    -120.881E-03     243.793E-03    -122.949E-03     133.463E-03     107.135E+06     97.2834E+06    -4.00197E+06    -3.86451E+06     106.997E+06     97.2834E+06     381.826E+03         65.6024
             394     14.1568E-03     60.7307E-03         2.52652    -697.412E-03    -918.465E-03    -697.361E-03         2.52647    -918.465E-03     7.41184E-03     267.013E-03    -122.995E-03    -144.062E-03    -120.524E-03     243.476E-03    -122.995E-03     187.765E-03     101.649E+06     97.1779E+06    -10.8797E+06    -10.7984E+06     101.158E+06     97.5876E+06     1.31793E+06         63.3473
             395     13.2742E-03     60.5457E-03         2.60171    -737.820E-03    -953.766E-03    -737.745E-03         2.60164    -953.766E-03     22.2102E-03     258.183E-03    -123.085E-03    -135.293E-03    -119.358E-03     242.248E-03    -123.085E-03     154.957E-03     96.0664E+06     94.4176E+06    -19.1418E+06    -19.0708E+06     94.5476E+06     95.8654E+06     1.67034E+06         60.9882
             396     12.3874E-03     60.3494E-03         2.68371    -785.942E-03    -986.737E-03    -785.856E-03         2.68363    -986.737E-03     29.5217E-03     254.125E-03    -123.009E-03    -131.292E-03    -117.976E-03     240.809E-03    -123.009E-03     139.234E-03     92.3636E+06     84.6649E+06    -27.5351E+06    -27.4679E+06     91.2584E+06     85.7029E+06     1.42435E+06         58.3608
             397     11.5015E-03     60.2163E-03         2.75423    -828.668E-03        -1.01595    -828.490E-03         2.75406        -1.01595     41.6556E-03     246.894E-03    -122.166E-03    -124.794E-03    -117.707E-03     240.586E-03    -122.945E-03     93.1761E-03     85.7561E+06     60.3480E+06    -35.9508E+06    -35.9274E+06     85.7326E+06     60.3480E+06     781.424E+03         55.4065
             398     10.6171E-03     60.1391E-03         2.82127    -871.187E-03        -1.04002    -870.999E-03         2.82109        -1.04002     46.6879E-03     244.030E-03    -120.975E-03    -123.013E-03    -118.312E-03     241.368E-03    -123.013E-03     61.5564E-03     77.4999E+06     31.2386E+06    -43.1711E+06    -43.1538E+06     77.4825E+06     31.2386E+06     518.602E+03         52.3865
             399     9.72998E-03     60.0799E-03         2.88613    -915.997E-03        -1.06033    -915.807E-03         2.88594        -1.06033     47.8842E-03     243.519E-03    -120.408E-03    -123.080E-03    -118.958E-03     242.070E-03    -123.080E-03     45.1090E-03     43.2461E+06     14.1861E+06    -49.5905E+06    -49.5620E+06     43.2176E+06     14.1861E+06     13.5373E+03         49.6712
             400     8.84365E-03     60.0450E-03         2.94353    -955.037E-03        -1.07769    -954.769E-03         2.94326        -1.07769     59.0578E-03     243.975E-03    -121.002E-03    -123.221E-03    -120.324E-03     243.297E-03    -123.221E-03     30.7873E-03     5.50759E+06    -22.4602E+06    -56.1014E+06    -55.4967E+06    -21.5189E+06     3.96156E+06    -482.851E+03         47.4323
             401     7.96045E-03     60.0219E-03         3.00119    -995.556E-03        -1.09213    -995.417E-03         3.00105        -1.09213     40.1311E-03     245.063E-03    -121.990E-03    -123.300E-03    -121.704E-03     244.776E-03    -123.300E-03     19.9565E-03    -7.43824E+06    -60.2542E+06    -87.2632E+06    -61.6486E+06    -85.8688E+06    -7.43824E+06    -540.778E+03         45.6342
             402     7.07530E-03     60.0092E-03         3.04972        -1.03131        -1.10368        -1.03124         3.04965        -1.10368     19.3512E-03     245.378E-03    -122.169E-03    -123.310E-03    -122.067E-03     245.275E-03    -123.310E-03     11.7776E-03    -16.8191E+06    -67.6423E+06    -137.091E+06    -67.6578E+06    -137.075E+06    -16.8191E+06    -536.908E+03         44.1760
             403     6.19124E-03     60.0045E-03         3.08214        -1.05442        -1.11303        -1.05434         3.08206        -1.11303     2.18548E-03     245.374E-03    -122.087E-03    -123.323E-03    -122.063E-03     245.349E-03    -123.323E-03     5.21223E-03    -26.9861E+06    -73.4316E+06    -177.287E+06    -73.4518E+06    -177.266E+06    -26.9861E+06    -424.959E+03         42.9843
             404     5.30619E-03     60.0070E-03         3.10330        -1.06775        -1.12150        -1.06749         3.10305        -1.12150     39.5935E-03     245.530E-03    -122.234E-03    -123.328E-03    -122.232E-03     245.528E-03    -123.328E-03     585.641E-06    -39.2431E+06    -79.2340E+06    -210.601E+06    -79.2486E+06    -210.586E+06    -39.2431E+06    -308.357E+03         42.0183
             405     4.42109E-03     60.0145E-03         3.12761        -1.08194        -1.12998        -1.08167         3.12735        -1.12998     57.0037E-03     246.004E-03    -122.702E-03    -123.362E-03    -122.696E-03     245.999E-03    -123.362E-03    -2.42911E-03    -53.2041E+06    -86.3909E+06    -239.232E+06    -86.3964E+06    -239.227E+06    -53.2041E+06    -66.6490E+03         41.2642
             406     3.53749E-03     60.0238E-03         3.16499        -1.11103        -1.13724        -1.11136         3.16491        -1.13682     12.2849E-03     246.392E-03    -122.954E-03    -123.467E-03    -123.031E-03     246.379E-03    -123.377E-03    -4.40323E-03    -66.5072E+06    -92.7401E+06    -264.737E+06    -92.7469E+06    -264.731E+06    -66.5072E+06    -96.1609E+03         40.7012
             407     2.65286E-03     60.0335E-03         3.19827        -1.12795        -1.15116        -1.14048         3.19804        -1.13840     37.0603E-03     246.310E-03    -122.835E-03    -123.518E-03    -123.006E-03     246.290E-03    -123.326E-03    -5.43885E-03    -82.1034E+06    -98.8514E+06    -280.313E+06    -98.8621E+06    -280.302E+06    -82.1034E+06    -761.383E+03         40.2842
             408     1.76854E-03     60.0404E-03         3.21298        -1.11964        -1.17007        -1.15978         3.21222        -1.12917     110.312E-03     246.458E-03    -123.011E-03    -123.503E-03    -123.169E-03     246.439E-03    -123.325E-03    -5.35797E-03    -97.7039E+06    -105.166E+06    -290.031E+06    -105.176E+06    -290.021E+06    -97.7039E+06    -522.927E+03         39.9901
             409     884.060E-06     60.0465E-03         3.16734    -588.058E-03        -1.65653    -612.825E-03         3.16355        -1.62798    -73.1760E-03     246.589E-03    -123.144E-03    -123.465E-03    -123.376E-03     246.581E-03    -123.224E-03    -2.80293E-03    -106.588E+06    -108.876E+06    -297.997E+06    -108.882E+06    -297.991E+06    -106.588E+06     540.004E+03         39.8123
             410     15.0427E-03     59.7365E-03         2.56830    -664.482E-03        -1.00254    -664.469E-03         2.56829        -1.00254    -9.57081E-03     261.523E-03    -121.929E-03    -139.654E-03    -121.654E-03     244.553E-03    -122.959E-03     133.240E-03     106.331E+06     95.3791E+06    -6.54442E+06    -6.38249E+06     106.169E+06     95.3791E+06    -849.907E+03         65.5933
             411     14.1588E-03     59.4471E-03         2.65985    -719.414E-03        -1.04046    -719.408E-03         2.65984        -1.04046    -2.97055E-03     268.684E-03    -122.967E-03    -145.729E-03    -121.733E-03     244.689E-03    -122.967E-03     190.507E-03     102.266E+06     96.5676E+06    -12.2729E+06    -12.1361E+06     101.096E+06     97.6012E+06     720.074E+03         63.3399
             412     13.2741E-03     59.2678E-03         2.75441    -773.193E-03        -1.08044    -773.132E-03         2.75435        -1.08044     21.0643E-03     257.923E-03    -123.059E-03    -134.925E-03    -118.574E-03     241.572E-03    -123.059E-03     156.754E-03     96.5408E+06     94.2629E+06    -18.5552E+06    -18.4788E+06     94.1865E+06     96.5408E+06     1.86110E+06         60.9852
             413     12.3870E-03     59.0746E-03         2.85016    -830.091E-03        -1.11810    -830.029E-03         2.85009        -1.11810     18.8905E-03     254.049E-03    -123.056E-03    -131.042E-03    -117.272E-03     240.279E-03    -123.056E-03     141.543E-03     92.0514E+06     84.5547E+06    -26.3667E+06    -26.2645E+06     90.7048E+06     85.7991E+06     2.07638E+06         58.3691
             414     11.5008E-03     58.9359E-03         2.95009    -896.743E-03        -1.15186    -896.652E-03         2.95000        -1.15186     23.4137E-03     247.818E-03    -122.632E-03    -125.202E-03    -118.291E-03     241.291E-03    -123.016E-03     94.5354E-03     86.5611E+06     62.8445E+06    -33.6908E+06    -33.6323E+06     86.5026E+06     62.8445E+06     1.87444E+06         55.4254
             415     10.6159E-03     58.8604E-03         3.03615    -955.597E-03        -1.17994    -955.469E-03         3.03602        -1.17994     23.7341E-03     244.442E-03    -121.378E-03    -123.029E-03    -118.753E-03     241.817E-03    -123.029E-03     61.2532E-03     79.7687E+06     34.5397E+06    -40.7017E+06    -40.6851E+06     79.7521E+06     34.5397E+06     1.27673E+06         52.4052
             416     9.72997E-03     58.8048E-03         3.10954        -1.00554        -1.20436        -1.00542         3.10942        -1.20436     21.9789E-03     243.713E-03    -120.617E-03    -123.048E-03    -119.174E-03     242.269E-03    -123.048E-03     44.9917E-03     43.8745E+06     15.6826E+06    -46.8778E+06    -46.8461E+06     43.8428E+06     15.6826E+06     321.230E+03         49.6826
             417     8.84422E-03     58.7653E-03         3.18872        -1.06048        -1.22598        -1.06028         3.18852        -1.22598     50.9560E-03     244.171E-03    -121.196E-03    -123.172E-03    -120.545E-03     243.520E-03    -123.172E-03     30.0624E-03     5.56304E+06    -21.3802E+06    -53.8266E+06    -53.2827E+06    -21.4970E+06     5.13586E+06    -335.032E+03         47.4384
             418     7.95962E-03     58.7414E-03         3.26140        -1.10974        -1.24447        -1.10959         3.26125        -1.24447     44.8515E-03     244.746E-03    -121.688E-03    -123.256E-03    -121.420E-03     244.477E-03    -123.256E-03     19.3652E-03    -5.64577E+06    -58.1547E+06    -86.1869E+06    -59.4448E+06    -84.8969E+06    -5.64577E+06    -326.446E+03         45.6365
             419     7.07642E-03     58.7309E-03         3.31470        -1.14497        -1.26069        -1.14491         3.31464        -1.26069     27.8500E-03     245.018E-03    -121.821E-03    -123.296E-03    -121.714E-03     244.910E-03    -123.296E-03     12.1462E-03    -15.9646E+06    -65.6940E+06    -137.109E+06    -65.7132E+06    -137.090E+06    -15.9646E+06    -486.474E+03         44.1762
             420     6.19126E-03     58.7263E-03         3.36632        -1.18173        -1.27515        -1.18168         3.36627        -1.27515     27.3491E-03     245.241E-03    -121.944E-03    -123.338E-03    -121.914E-03     245.211E-03    -123.338E-03     5.77967E-03    -26.9789E+06    -72.2969E+06    -177.856E+06    -72.3155E+06    -177.837E+06    -26.9789E+06    -762.509E+03         42.9859
             421     5.30612E-03     58.7300E-03         3.42012        -1.22347        -1.28690        -1.22325         3.41990        -1.28690     52.2095E-03     245.591E-03    -122.260E-03    -123.352E-03    -122.257E-03     245.587E-03    -123.352E-03     446.521E-06    -38.6693E+06    -78.8539E+06    -210.726E+06    -78.8644E+06    -210.716E+06    -38.6693E+06    -530.312E+03         42.0227
             422     4.42137E-03     58.7356E-03         3.46076        -1.25694        -1.29531        -1.25663         3.46045        -1.29531     70.6381E-03     246.158E-03    -122.826E-03    -123.383E-03    -122.818E-03     246.150E-03    -123.383E-03    -3.09100E-03    -52.2752E+06    -85.4740E+06    -239.211E+06    -85.4772E+06    -239.207E+06    -52.2752E+06    -186.130E+03         41.2708
             423     3.53671E-03     58.7449E-03         3.48699        -1.27396        -1.30160        -1.27379         3.48682        -1.30160     14.1450E-03     246.694E-03    -123.193E-03    -123.528E-03    -123.370E-03     246.676E-03    -123.333E-03    -5.17378E-03    -66.9420E+06    -91.8769E+06    -264.316E+06    -91.8856E+06    -264.307E+06    -66.9420E+06    -477.075E+03         40.7082
             424     2.65373E-03     58.7543E-03         3.50107        -1.27853        -1.30905        -1.27836         3.50090        -1.30905     13.3478E-03     246.549E-03    -123.150E-03    -123.448E-03    -123.428E-03     246.529E-03    -123.150E-03    -5.42787E-03    -80.9874E+06    -97.8501E+06    -280.112E+06    -97.8675E+06    -280.095E+06    -80.9874E+06     348.352E+03         40.2869
             425     1.76991E-03     58.7627E-03         3.52358        -1.28835        -1.32152        -1.28780         3.52303        -1.32152     83.3571E-03     245.981E-03    -122.898E-03    -123.143E-03    -122.987E-03     245.966E-03    -123.039E-03    -4.51506E-03    -93.7500E+06    -103.829E+06    -290.546E+06    -103.844E+06    -290.531E+06    -93.7500E+06     1.26003E+06         39.9808
             426     884.820E-06     58.7698E-03         3.58180    -779.946E-03        -1.88458    -773.174E-03         3.57503        -1.88458    -170.812E-03     245.904E-03    -122.688E-03    -123.234E-03    -123.087E-03     245.898E-03    -122.829E-03    -1.99512E-03    -105.944E+06    -110.105E+06    -297.260E+06    -110.121E+06    -297.244E+06    -105.944E+06     1.30873E+06         39.7911
             427     15.0426E-03     58.4544E-03         2.67608    -671.627E-03        -1.11071    -671.615E-03         2.67606        -1.11071    -1.66291E-03     261.624E-03    -121.836E-03    -139.783E-03    -121.632E-03     244.624E-03    -122.987E-03     135.128E-03     106.480E+06     94.7861E+06    -6.69781E+06    -6.56106E+06     106.343E+06     94.7861E+06     190.596E+03         65.5863
             428     14.1571E-03     58.1681E-03         2.78466    -740.063E-03        -1.15298    -740.057E-03         2.78466        -1.15298     5.69502E-03     267.720E-03    -123.015E-03    -144.757E-03    -120.829E-03     243.792E-03    -123.015E-03     189.956E-03     100.971E+06     95.1727E+06    -13.2018E+06    -13.0221E+06     99.8795E+06     96.0848E+06    -187.711E+03         63.3336
             429     13.2707E-03     57.9886E-03         2.90380    -811.728E-03        -1.19652    -811.695E-03         2.90376        -1.19652     17.3535E-03     257.630E-03    -123.149E-03    -134.486E-03    -118.119E-03     241.262E-03    -123.149E-03     156.713E-03     94.2412E+06     92.1177E+06    -20.4710E+06    -20.4173E+06     92.0640E+06     94.2412E+06    -200.431E+03         60.9923
             430     12.3847E-03     57.7983E-03         3.01810    -883.994E-03        -1.23740    -883.960E-03         3.01807        -1.23740     14.2666E-03     255.237E-03    -123.131E-03    -132.023E-03    -118.342E-03     241.555E-03    -123.131E-03     141.427E-03     91.3920E+06     84.6810E+06    -26.9243E+06    -26.8674E+06     90.1238E+06     85.8923E+06     696.448E+03         58.3900
             431     11.4999E-03     57.6540E-03         3.12673    -954.726E-03        -1.27460    -954.622E-03         3.12662        -1.27460     25.5505E-03     247.877E-03    -122.238E-03    -125.573E-03    -118.348E-03     241.485E-03    -123.071E-03     93.5347E-03     87.7896E+06     65.8755E+06    -32.8516E+06    -32.7958E+06     87.7339E+06     65.8755E+06     1.14619E+06         55.4454
             432     10.6158E-03     57.5830E-03         3.23027        -1.02708        -1.30650        -1.02696         3.23014        -1.30650     22.5573E-03     244.735E-03    -121.606E-03    -123.064E-03    -119.086E-03     242.214E-03    -123.064E-03     60.0099E-03     81.3252E+06     37.3948E+06    -39.4033E+06    -39.3874E+06     81.3093E+06     37.3948E+06     1.16844E+06         52.4198
             433     9.73054E-03     57.5260E-03         3.32564        -1.09605        -1.33436        -1.09590         3.32549        -1.33436     24.4330E-03     244.510E-03    -121.457E-03    -123.003E-03    -120.034E-03     243.086E-03    -123.003E-03     45.0153E-03     45.5427E+06     16.5774E+06    -46.1443E+06    -46.1237E+06     45.5221E+06     16.5774E+06     1.11139E+06         49.6908
             434     8.84724E-03     57.4859E-03         3.40893        -1.15183        -1.35944        -1.15162         3.40871        -1.35944     55.7786E-03     243.791E-03    -120.964E-03    -123.090E-03    -120.266E-03     243.093E-03    -123.090E-03     31.0590E-03     7.32339E+06    -20.7575E+06    -52.9458E+06    -51.5221E+06    -20.7318E+06     5.87409E+06     332.189E+03         47.4371
             435     7.96165E-03     57.4649E-03         3.48141        -1.19755        -1.38254        -1.19745         3.48132        -1.38254     34.1394E-03     243.919E-03    -120.940E-03    -123.224E-03    -120.650E-03     243.628E-03    -123.224E-03     20.1028E-03    -4.60837E+06    -57.1862E+06    -85.5593E+06    -57.5474E+06    -85.1980E+06    -4.60837E+06     86.1082E+03         45.6328
             436     7.07432E-03     57.4517E-03         3.55513        -1.24842        -1.40388        -1.24841         3.55512        -1.40388     12.5357E-03     244.762E-03    -121.500E-03    -123.334E-03    -121.386E-03     244.648E-03    -123.334E-03     12.2546E-03    -14.5850E+06    -64.5585E+06    -136.846E+06    -64.5784E+06    -136.826E+06    -14.5850E+06     150.947E+03         44.1770
             437     6.18997E-03     57.4489E-03         3.63678        -1.31174        -1.42197        -1.31172         3.63676        -1.42197     18.8655E-03     245.563E-03    -122.224E-03    -123.377E-03    -122.197E-03     245.536E-03    -123.377E-03     5.43105E-03    -26.5597E+06    -71.7503E+06    -177.417E+06    -71.7706E+06    -177.397E+06    -26.5597E+06    -121.671E+03         42.9906
             438     5.30605E-03     57.4501E-03         3.71063        -1.37114        -1.43499        -1.37110         3.71059        -1.43499     26.0169E-03     246.109E-03    -122.792E-03    -123.322E-03    -122.788E-03     246.106E-03    -123.322E-03     247.968E-06    -38.8089E+06    -79.1586E+06    -211.420E+06    -79.1616E+06    -211.417E+06    -38.8089E+06    -198.947E+03         42.0281
             439     4.42239E-03     57.4577E-03         3.75732        -1.40904        -1.44308        -1.40895         3.75723        -1.44308     32.5856E-03     246.265E-03    -123.014E-03    -123.280E-03    -123.006E-03     246.257E-03    -123.280E-03    -3.17308E-03    -51.8522E+06    -86.2040E+06    -238.650E+06    -86.2056E+06    -238.649E+06    -51.8522E+06     181.258E+03         41.2726
             440     3.53835E-03     57.4657E-03         3.77869        -1.42181        -1.44899        -1.42165         3.77853        -1.44899    -9.01778E-03     246.262E-03    -122.960E-03    -123.320E-03    -123.047E-03     246.245E-03    -123.215E-03    -5.05672E-03    -68.1808E+06    -93.2502E+06    -263.652E+06    -93.2617E+06    -263.641E+06    -68.1808E+06     182.936E+03         40.7047
             441     2.65357E-03     57.4761E-03         3.79707        -1.42930        -1.45744        -1.43120         3.79693        -1.45540    -5.44601E-03     246.066E-03    -122.881E-03    -123.241E-03    -122.968E-03     246.045E-03    -123.134E-03    -5.52304E-03    -83.2986E+06    -99.5617E+06    -281.924E+06    -99.5866E+06    -281.899E+06    -83.2986E+06     318.036E+03         40.2824
             442     1.76840E-03     57.4861E-03         3.81746        -1.43937        -1.46890        -1.44503         3.81722        -1.46301     60.6808E-03     245.999E-03    -122.886E-03    -123.179E-03    -122.876E-03     245.986E-03    -123.177E-03    -4.07920E-03    -93.6556E+06    -104.401E+06    -290.409E+06    -104.426E+06    -290.384E+06    -93.6556E+06     1.32711E+06         39.9794
             443     884.148E-06     57.4913E-03         3.84566    -902.438E-03        -2.03628    -900.895E-03         3.84026        -2.03243    -163.089E-03     246.291E-03    -122.835E-03    -123.474E-03    -123.311E-03     246.288E-03    -122.995E-03    -958.928E-06    -103.362E+06    -108.048E+06    -294.231E+06    -107.845E+06    -294.194E+06    -103.602E+06     975.252E+03         39.7906
             444     15.0415E-03     57.1711E-03         2.77802    -685.219E-03        -1.20862    -685.202E-03         2.77801        -1.20862     3.39283E-03     261.019E-03    -122.300E-03    -138.754E-03    -121.167E-03     244.137E-03    -123.006E-03     135.912E-03     106.707E+06     95.6086E+06    -5.18438E+06    -5.09178E+06     106.615E+06     95.6086E+06     984.917E+03         65.5897
             445     14.1580E-03     56.8905E-03         2.90545    -766.656E-03        -1.25380    -766.644E-03         2.90544        -1.25380     11.8566E-03     266.546E-03    -123.051E-03    -143.555E-03    -120.067E-03     243.058E-03    -123.051E-03     187.549E-03     100.141E+06     94.4841E+06    -12.3542E+06    -12.2201E+06     99.2506E+06     95.2406E+06     527.538E+03         63.3390
             446     13.2689E-03     56.7144E-03         3.03230    -845.113E-03        -1.29985    -845.044E-03         3.03223        -1.29985     26.1983E-03     258.178E-03    -123.174E-03    -134.988E-03    -118.833E-03     242.022E-03    -123.174E-03     155.920E-03     93.7380E+06     92.1456E+06    -20.1395E+06    -20.0801E+06     92.2141E+06     93.6100E+06    -331.033E+03         60.9983
             447     12.3865E-03     56.5114E-03         3.16183    -928.350E-03        -1.34343    -928.270E-03         3.16175        -1.34343     30.4190E-03     255.598E-03    -123.073E-03    -132.419E-03    -119.123E-03     242.302E-03    -123.073E-03     139.281E-03     91.3754E+06     84.2657E+06    -28.3697E+06    -28.3498E+06     90.6476E+06     84.9736E+06    -1.07795E+06         58.3932
             448     11.5024E-03     56.3813E-03         3.28089        -1.00648        -1.38349        -1.00635         3.28076        -1.38349     37.8415E-03     247.186E-03    -121.849E-03    -125.261E-03    -118.112E-03     241.161E-03    -122.974E-03     91.1967E-03     86.2778E+06     63.0577E+06    -36.0765E+06    -36.0591E+06     86.2604E+06     63.0577E+06    -1.02283E+06         55.4395
             449     10.6147E-03     56.3003E-03         3.39617        -1.08578        -1.41886        -1.08561         3.39600        -1.41886     49.8515E-03     243.980E-03    -120.853E-03    -123.027E-03    -118.313E-03     241.439E-03    -123.027E-03     60.1144E-03     80.1348E+06     35.9730E+06    -41.5817E+06    -41.5621E+06     80.1152E+06     35.9730E+06     200.916E+03         52.4076
             450     9.73224E-03     56.2478E-03         3.51669        -1.17254        -1.45012        -1.17235         3.51650        -1.45012     50.8274E-03     243.926E-03    -120.868E-03    -123.043E-03    -119.381E-03     242.439E-03    -123.043E-03     46.1015E-03     46.9946E+06     17.0283E+06    -46.0390E+06    -45.9988E+06     46.9544E+06     17.0283E+06     1.00532E+06         49.6838
             451     8.84438E-03     56.2085E-03         3.61465        -1.24176        -1.47794        -1.24154         3.61443        -1.47794     57.1049E-03     243.870E-03    -121.031E-03    -123.158E-03    -120.248E-03     243.087E-03    -123.158E-03     32.9552E-03     7.60123E+06    -21.5103E+06    -53.2108E+06    -52.1907E+06    -19.7797E+06     4.85046E+06     1.14532E+06         47.4387
             452     7.95914E-03     56.1870E-03         3.69839        -1.29909        -1.50324        -1.29901         3.69830        -1.50324     29.6484E-03     244.623E-03    -121.590E-03    -123.265E-03    -121.276E-03     244.309E-03    -123.265E-03     20.8117E-03    -6.15522E+06    -58.6415E+06    -86.3784E+06    -59.2538E+06    -85.7661E+06    -6.15522E+06     1.06219E+06         45.6396
             453     7.07584E-03     56.1740E-03         3.78788        -1.36484        -1.52579        -1.36483         3.78787        -1.52579     1.75099E-03     245.238E-03    -121.987E-03    -123.314E-03    -121.882E-03     245.134E-03    -123.314E-03     11.5794E-03    -15.2091E+06    -65.9198E+06    -136.535E+06    -65.9619E+06    -136.493E+06    -15.2091E+06     1.31108E+06         44.1834
             454     6.19099E-03     56.1690E-03         3.87158        -1.42819        -1.54459        -1.42816         3.87155        -1.54459     13.1531E-03     245.463E-03    -122.198E-03    -123.318E-03    -122.179E-03     245.444E-03    -123.318E-03     4.73349E-03    -26.5390E+06    -72.5256E+06    -175.912E+06    -72.5523E+06    -175.885E+06    -26.5390E+06     1.07205E+06         42.9914
             455     5.30674E-03     56.1717E-03         3.94277        -1.48275        -1.55913        -1.48272         3.94273        -1.55913     27.7614E-03     245.899E-03    -122.625E-03    -123.276E-03    -122.623E-03     245.896E-03    -123.276E-03     340.889E-06    -40.6959E+06    -79.9014E+06    -211.702E+06    -79.9153E+06    -211.688E+06    -40.6959E+06     456.214E+03         42.0236
             456     4.42228E-03     56.1786E-03         3.99447        -1.51884        -1.57006        -1.51881         3.99444        -1.57006     22.5918E-03     246.074E-03    -122.885E-03    -123.253E-03    -122.879E-03     246.068E-03    -123.253E-03    -2.72297E-03    -53.9588E+06    -87.0341E+06    -239.898E+06    -87.0368E+06    -239.896E+06    -53.9588E+06     478.684E+03         41.2666
             457     3.53778E-03     56.1883E-03         4.03163        -1.54574        -1.57844        -1.54564         4.03153        -1.57844    -20.8274E-03     245.937E-03    -122.748E-03    -123.242E-03    -122.734E-03     245.923E-03    -123.242E-03    -4.51849E-03    -68.3857E+06    -94.1062E+06    -262.747E+06    -94.1146E+06    -262.738E+06    -68.3857E+06     1.05122E+06         40.7009
             458     2.65308E-03     56.1987E-03         4.06289        -1.56774        -1.58604        -1.56955         4.06267        -1.58400     6.02150E-03     245.969E-03    -122.746E-03    -123.257E-03    -122.727E-03     245.950E-03    -123.257E-03    -5.25375E-03    -83.8391E+06    -100.170E+06    -281.254E+06    -100.181E+06    -281.243E+06    -83.8391E+06     615.654E+03         40.2836
             459     1.76869E-03     56.2084E-03         4.07543        -1.57410        -1.59339        -1.57961         4.07505        -1.58751     87.4910E-03     246.401E-03    -123.029E-03    -123.424E-03    -123.113E-03     246.388E-03    -123.327E-03    -4.08815E-03    -96.8646E+06    -105.019E+06    -289.911E+06    -105.044E+06    -289.885E+06    -96.8646E+06    -159.155E+03         39.9878
             460     883.984E-06     56.2129E-03         4.08358        -1.05366        -2.12560        -1.05557         4.08165        -2.12175    -71.0676E-03     246.618E-03    -123.050E-03    -123.586E-03    -123.483E-03     246.614E-03    -123.149E-03    -1.63776E-03    -104.087E+06    -107.481E+06    -293.356E+06    -106.394E+06    -293.321E+06    -105.208E+06    -1.03733E+06         39.8033
             461     15.0447E-03     55.8948E-03         2.86085    -688.009E-03        -1.29310    -688.001E-03         2.86084        -1.29310     7.08820E-03     260.788E-03    -122.745E-03    -138.104E-03    -121.105E-03     244.028E-03    -122.983E-03     134.545E-03     105.888E+06     95.8775E+06    -5.56891E+06    -5.50773E+06     105.827E+06     95.8775E+06     552.105E+03         65.5967
             462     14.1544E-03     55.6128E-03         3.00333    -782.932E-03        -1.34049    -782.924E-03         3.00332        -1.34049     7.70804E-03     266.650E-03    -123.025E-03    -143.562E-03    -120.254E-03     243.342E-03    -123.025E-03     186.708E-03     100.023E+06     95.7796E+06    -11.9641E+06    -11.8893E+06     99.0398E+06     96.6877E+06     811.164E+03         63.3402
             463     13.2737E-03     55.4331E-03         3.14192    -873.304E-03        -1.38820    -873.242E-03         3.14186        -1.38820     24.8937E-03     258.766E-03    -123.116E-03    -135.577E-03    -119.384E-03     242.573E-03    -123.116E-03     156.262E-03     95.6417E+06     93.9390E+06    -19.4708E+06    -19.4194E+06     94.0156E+06     95.5136E+06     918.350E+03         60.9849
             464     12.3875E-03     55.2334E-03         3.27869    -960.679E-03        -1.43349    -960.606E-03         3.27862        -1.43349     26.1558E-03     255.299E-03    -122.992E-03    -132.178E-03    -118.696E-03     241.816E-03    -122.992E-03     140.077E-03     92.3303E+06     84.5696E+06    -27.4382E+06    -27.4042E+06     91.6297E+06     85.2362E+06    -14.5911E+03         58.3709
             465     11.5024E-03     55.1004E-03         3.41518        -1.05391        -1.47523        -1.05388         3.41514        -1.47523     13.4025E-03     246.801E-03    -121.651E-03    -125.058E-03    -117.733E-03     240.742E-03    -122.917E-03     91.2874E-03     86.6622E+06     61.5956E+06    -36.0459E+06    -36.0240E+06     86.6403E+06     61.5956E+06    -1.28150E+06         55.4204
             466     10.6184E-03     55.0270E-03         3.54294        -1.14285        -1.51234        -1.14278         3.54287        -1.51234     25.1370E-03     243.104E-03    -119.959E-03    -123.030E-03    -117.312E-03     240.457E-03    -123.030E-03     61.4045E-03     78.0195E+06     32.4372E+06    -43.7175E+06    -43.7003E+06     78.0023E+06     32.4372E+06    -1.21425E+06         52.3966
             467     9.72681E-03     54.9688E-03         3.66182        -1.22357        -1.54618        -1.22351         3.66176        -1.54618     26.4187E-03     243.586E-03    -120.472E-03    -123.111E-03    -118.919E-03     242.033E-03    -123.111E-03     46.6048E-03     45.2456E+06     13.2172E+06    -49.8746E+06    -49.8468E+06     45.2178E+06     13.2172E+06     370.104E+03         49.6841
             468     8.84376E-03     54.9309E-03         3.77941        -1.30930        -1.57690        -1.30927         3.77938        -1.57690     24.6282E-03     244.594E-03    -121.682E-03    -123.228E-03    -120.972E-03     243.885E-03    -123.228E-03     31.3582E-03     7.05947E+06    -23.2454E+06    -56.2860E+06    -55.7293E+06    -19.2556E+06     2.51289E+06     1.63287E+06         47.4477
             469     7.96005E-03     54.9061E-03         3.89353        -1.39578        -1.60351        -1.39571         3.89347        -1.60351     31.8183E-03     245.001E-03    -122.002E-03    -123.288E-03    -121.718E-03     244.717E-03    -123.288E-03     19.8985E-03    -7.55226E+06    -59.3435E+06    -87.1980E+06    -61.1931E+06    -85.3485E+06    -7.55226E+06     1.47798E+06         45.6473
             470     7.07613E-03     54.8949E-03         3.98810        -1.46712        -1.62588        -1.46707         3.98805        -1.62588     9.14720E-03     245.291E-03    -122.154E-03    -123.294E-03    -122.048E-03     245.185E-03    -123.294E-03     11.9209E-03    -16.2266E+06    -67.0098E+06    -136.280E+06    -67.0553E+06    -136.234E+06    -16.2266E+06     1.30249E+06         44.1859
             471     6.19176E-03     54.8918E-03         4.05721        -1.51612        -1.64536        -1.51601         4.05709        -1.64536     23.6475E-03     245.364E-03    -122.106E-03    -123.290E-03    -122.079E-03     245.337E-03    -123.290E-03     5.72086E-03    -27.6522E+06    -73.8183E+06    -175.494E+06    -73.8464E+06    -175.466E+06    -27.6522E+06     1.50123E+06         42.9881
             472     5.30621E-03     54.8934E-03         4.11667        -1.55574        -1.66347        -1.55562         4.11655        -1.66347     42.7474E-03     245.529E-03    -122.209E-03    -123.302E-03    -122.205E-03     245.525E-03    -123.302E-03     900.803E-06    -40.0613E+06    -79.7114E+06    -210.632E+06    -79.7328E+06    -210.610E+06    -40.0613E+06     1.29693E+06         42.0161
             473     4.42180E-03     54.8999E-03         4.18166        -1.60314        -1.67964        -1.60301         4.18154        -1.67964     44.6750E-03     245.780E-03    -122.519E-03    -123.352E-03    -122.514E-03     245.774E-03    -123.352E-03    -2.54448E-03    -54.9314E+06    -86.2845E+06    -240.315E+06    -86.2982E+06    -240.301E+06    -54.9314E+06     1.20041E+06         41.2621
             474     3.53721E-03     54.9104E-03         4.24377        -1.65021        -1.69178        -1.65002         4.24359        -1.69178     3.68410E-03     246.163E-03    -122.838E-03    -123.407E-03    -122.824E-03     246.149E-03    -123.407E-03    -4.48718E-03    -69.3513E+06    -92.2775E+06    -262.569E+06    -92.2834E+06    -262.564E+06    -69.3513E+06     755.389E+03         40.7072
             475     2.65237E-03     54.9206E-03         4.28022        -1.67668        -1.70011        -1.67643         4.27997        -1.70011     16.0727E-03     246.614E-03    -123.097E-03    -123.531E-03    -123.229E-03     246.596E-03    -123.380E-03    -5.26170E-03    -81.7636E+06    -97.6190E+06    -279.674E+06    -97.6221E+06    -279.671E+06    -81.7636E+06     376.032E+03         40.2990
             476     1.76798E-03     54.9293E-03         4.30289        -1.68778        -1.71399        -1.69565         4.30265        -1.70588     67.7529E-03     246.767E-03    -123.185E-03    -123.607E-03    -123.523E-03     246.752E-03    -123.254E-03    -4.51274E-03    -95.1251E+06    -102.564E+06    -288.768E+06    -102.578E+06    -288.754E+06    -95.1251E+06    -321.037E+03         40.0037
             477     884.930E-06     54.9340E-03         4.31953        -1.22731        -2.18981        -1.23389         4.31800        -2.18170    -98.7093E-03     246.263E-03    -122.864E-03    -123.415E-03    -123.409E-03     246.257E-03    -122.864E-03    -2.31119E-03    -103.829E+06    -106.479E+06    -293.958E+06    -105.611E+06    -293.945E+06    -104.710E+06    -644.273E+03         39.8160
             478     15.0432E-03     54.6190E-03         2.92757    -693.975E-03        -1.36159    -693.969E-03         2.92757        -1.36159    -705.525E-06     261.435E-03    -122.358E-03    -139.106E-03    -121.517E-03     244.447E-03    -122.958E-03     134.773E-03     105.653E+06     95.7505E+06    -4.58390E+06    -4.53524E+06     105.605E+06     95.7505E+06     160.348E+03         65.5896
             479     14.1606E-03     54.3345E-03         3.07401    -789.749E-03        -1.40993    -789.740E-03         3.07401        -1.40993    -7.27019E-03     267.858E-03    -122.980E-03    -144.854E-03    -121.130E-03     244.134E-03    -122.980E-03     188.911E-03     101.543E+06     95.9139E+06    -10.5735E+06    -10.5113E+06     99.3926E+06     98.0016E+06      668.13E+03         63.3268
             480     13.2718E-03     54.1527E-03         3.22763    -892.476E-03        -1.45807    -892.457E-03         3.22761        -1.45807     718.176E-06     258.551E-03    -123.053E-03    -135.408E-03    -119.161E-03     242.304E-03    -123.053E-03     156.462E-03     97.5597E+06     94.2701E+06    -17.3042E+06    -17.2647E+06     94.2306E+06     97.5597E+06     1.44865E+06         60.9652
             481     12.3871E-03     53.9558E-03         3.37475    -989.741E-03        -1.50358    -989.727E-03         3.37473        -1.50358     956.744E-06     254.073E-03    -123.011E-03    -130.846E-03    -117.275E-03     240.503E-03    -123.011E-03     140.285E-03     93.3307E+06     85.5048E+06    -25.8742E+06    -25.8494E+06     92.1040E+06     86.7067E+06     1.17810E+06         58.3524
             482     11.5020E-03     53.8199E-03         3.52312        -1.09414        -1.54565        -1.09407         3.52306        -1.54565     11.2950E-03     246.192E-03    -121.814E-03    -124.241E-03    -116.738E-03     239.909E-03    -123.034E-03     92.7508E-03     87.3397E+06     62.1267E+06    -33.8657E+06    -33.8303E+06     87.3044E+06     62.1267E+06     369.848E+03         55.4191
             483     10.6129E-03     53.7531E-03         3.66350        -1.19159        -1.58336        -1.19151         3.66343        -1.58336     8.37420E-03     244.611E-03    -121.047E-03    -123.432E-03    -118.643E-03     241.892E-03    -123.117E-03     62.3652E-03     78.3242E+06     31.6005E+06    -42.7578E+06    -42.7139E+06     78.2803E+06     31.6005E+06     758.927E+03         52.4160
             484     9.73062E-03     53.6901E-03         3.78101        -1.26975        -1.61828        -1.26972         3.78098        -1.61828     6.42363E-03     244.756E-03    -121.297E-03    -123.405E-03    -120.101E-03     243.244E-03    -123.089E-03     46.0477E-03     44.4746E+06     12.0067E+06    -51.0867E+06    -51.0524E+06     44.4402E+06     12.0067E+06     1.16036E+06         49.7030
             485     8.84517E-03     53.6497E-03         3.90228        -1.35660        -1.65078        -1.35657         3.90225        -1.65078     23.0931E-03     244.247E-03    -121.352E-03    -123.172E-03    -120.678E-03     243.573E-03    -123.172E-03     30.6887E-03     6.63880E+06    -23.1692E+06    -57.2371E+06    -56.6525E+06    -19.4205E+06     2.30556E+06     1.20485E+06         47.4516
             486     7.96060E-03     53.6287E-03         4.02136        -1.44712        -1.67960        -1.44706         4.02130        -1.67960     21.9449E-03     244.435E-03    -121.494E-03    -123.274E-03    -121.206E-03     244.147E-03    -123.274E-03     20.0257E-03    -7.80183E+06    -59.4111E+06    -87.2401E+06    -61.6938E+06    -84.9575E+06    -7.80183E+06     711.546E+03         45.6416
             487     7.07468E-03     53.6157E-03         4.11829        -1.51999        -1.70471        -1.51994         4.11824        -1.70471     3.18879E-03     244.928E-03    -121.736E-03    -123.338E-03    -121.631E-03     244.823E-03    -123.338E-03     11.8095E-03    -16.4489E+06    -66.9969E+06    -136.230E+06    -67.0264E+06    -136.200E+06    -16.4489E+06     262.073E+03         44.1802
             488     6.19012E-03     53.6132E-03         4.20431        -1.58250        -1.72680        -1.58237         4.20417        -1.72680     28.0994E-03     245.499E-03    -122.126E-03    -123.375E-03    -122.100E-03     245.473E-03    -123.375E-03     5.63127E-03    -26.3944E+06    -72.3335E+06    -174.777E+06    -72.3573E+06    -174.753E+06    -26.3944E+06     384.526E+03         42.9866
             489     5.30645E-03     53.6153E-03         4.27689        -1.63408        -1.74639        -1.63394         4.27675        -1.74639     29.9570E-03     245.641E-03    -122.268E-03    -123.388E-03    -122.263E-03     245.636E-03    -123.388E-03     849.502E-06    -38.9020E+06    -78.7259E+06    -210.765E+06    -78.7375E+06    -210.754E+06    -38.9020E+06     703.779E+03         42.0179
             490     4.42095E-03     53.6231E-03         4.33729        -1.67371        -1.76453        -1.67357         4.33715        -1.76453     29.8177E-03     245.835E-03    -122.435E-03    -123.462E-03    -122.429E-03     245.829E-03    -123.462E-03    -2.69045E-03    -52.7350E+06    -84.5605E+06    -238.775E+06    -84.5729E+06    -238.763E+06    -52.7350E+06     745.901E+03         41.2679
             491     3.53608E-03     53.6313E-03         4.39804        -1.71579        -1.78137        -1.71553         4.39777        -1.78137    -4.87110E-03     246.498E-03    -122.993E-03    -123.529E-03    -122.978E-03     246.483E-03    -123.529E-03    -4.62899E-03    -67.8000E+06    -90.3449E+06    -262.353E+06    -90.3532E+06    -262.345E+06    -67.8000E+06     781.429E+03         40.7188
             492     2.65275E-03     53.6419E-03         4.45716        -1.76138        -1.79464        -1.76104         4.45681        -1.79464     8.57299E-03     246.996E-03    -123.373E-03    -123.644E-03    -123.545E-03     246.978E-03    -123.454E-03    -4.91903E-03    -81.9676E+06    -96.3906E+06    -279.702E+06    -96.4005E+06    -279.692E+06    -81.9676E+06     807.293E+03         40.3158
             493     1.76977E-03     53.6495E-03         4.49588        -1.79116        -1.80805        -1.79905         4.49561        -1.79988     73.4083E-03     246.849E-03    -123.282E-03    -123.590E-03    -123.563E-03     246.836E-03    -123.295E-03    -4.25923E-03    -92.4304E+06    -100.561E+06    -287.103E+06    -100.566E+06    -287.098E+06    -92.4304E+06     608.713E+03         40.0222
             494     884.562E-06     53.6580E-03         4.49562        -1.39532        -2.20557        -1.40148         4.49361        -2.19739    -121.972E-03     246.325E-03    -122.825E-03    -123.513E-03    -123.493E-03     246.319E-03    -122.839E-03    -2.24755E-03    -101.189E+06    -104.347E+06    -293.540E+06    -104.299E+06    -293.532E+06    -101.245E+06     908.992E+03         39.8345
             495     15.0427E-03     53.3401E-03         2.97833    -698.805E-03        -1.41269    -698.781E-03         2.97831        -1.41269    -6.34474E-03     261.487E-03    -122.026E-03    -139.490E-03    -121.382E-03     244.324E-03    -122.973E-03     135.454E-03     105.449E+06     94.3675E+06    -7.27554E+06    -7.23647E+06     105.410E+06     94.3675E+06    -470.838E+03         65.5660
             496     14.1555E-03     53.0520E-03         3.13853    -806.060E-03        -1.46070    -806.045E-03         3.13852        -1.46070    -1.16366E-03     268.416E-03    -123.002E-03    -145.430E-03    -121.358E-03     244.344E-03    -123.002E-03     190.599E-03     100.395E+06     93.4810E+06    -12.6910E+06    -12.6459E+06     97.9712E+06     95.8601E+06     359.069E+03         63.3095
             497     13.2747E-03     52.8756E-03         3.29434    -908.406E-03        -1.50793    -908.375E-03         3.29431        -1.50793     4.96681E-03     258.515E-03    -123.092E-03    -135.297E-03    -118.774E-03     241.992E-03    -123.092E-03     157.706E-03     97.2826E+06     93.6305E+06    -19.0573E+06    -19.0303E+06     93.6036E+06     97.2826E+06     173.836E+03         60.9596
             498     12.3883E-03     52.6769E-03         3.45102        -1.01310        -1.55271        -1.01308         3.45099        -1.55271     8.09740E-03     253.449E-03    -123.111E-03    -130.076E-03    -116.433E-03     239.806E-03    -123.111E-03     140.279E-03     93.6784E+06     85.9356E+06    -25.8414E+06    -25.8130E+06     92.3771E+06     87.2086E+06     554.695E+03         58.3599
             499     11.4964E-03     52.5501E-03         3.60214        -1.12094        -1.59438        -1.12087         3.60207        -1.59438     24.3984E-03     246.706E-03    -122.680E-03    -123.897E-03    -117.073E-03     240.368E-03    -123.165E-03     93.4927E-03     86.4322E+06     61.6385E+06    -34.5029E+06    -34.4534E+06     86.3827E+06     61.6385E+06     2.10145E+06         55.4412
             500     10.6141E-03     52.4662E-03         3.73848        -1.21703        -1.63253        -1.21694         3.73839        -1.63253     9.31363E-03     246.153E-03    -122.445E-03    -123.562E-03    -120.111E-03     243.441E-03    -123.185E-03     62.2701E-03     79.3503E+06     33.4944E+06    -41.8511E+06    -41.7713E+06     79.2704E+06     33.4944E+06     2.96698E+06         52.4462
             501     9.73135E-03     52.4125E-03         3.87185        -1.31138        -1.66779        -1.31129         3.87176        -1.66779     12.1442E-03     245.362E-03    -121.929E-03    -123.375E-03    -120.786E-03     243.905E-03    -123.060E-03     45.6902E-03     46.5383E+06     15.4475E+06    -48.1498E+06    -48.0768E+06     46.4654E+06     15.4475E+06     2.33914E+06         49.7250
             502     8.84515E-03     52.3730E-03         3.99544        -1.40112        -1.70015        -1.40103         3.99536        -1.70015     37.2371E-03     243.864E-03    -121.049E-03    -123.122E-03    -120.342E-03     243.158E-03    -123.122E-03     31.2150E-03     7.88429E+06    -21.6822E+06    -54.5728E+06    -54.1003E+06    -18.5959E+06     4.32555E+06     894.149E+03         47.4576
             503     7.95949E-03     52.3496E-03         4.10157        -1.47552        -1.72999        -1.47550         4.10155        -1.72999     11.6284E-03     243.923E-03    -120.983E-03    -123.260E-03    -120.706E-03     243.647E-03    -123.260E-03     19.6001E-03    -6.40086E+06    -58.3044E+06    -85.3826E+06    -59.7241E+06    -83.9629E+06    -6.40086E+06     75.4215E+03         45.6383
             504     7.07568E-03     52.3382E-03         4.20387        -1.54970        -1.75752        -1.54965         4.20381        -1.75752    -20.1598E-03     244.731E-03    -121.474E-03    -123.368E-03    -121.369E-03     244.626E-03    -123.368E-03     11.8365E-03    -15.9905E+06    -66.2684E+06    -135.772E+06    -66.2955E+06    -135.745E+06    -15.9905E+06    -330.651E+03         44.1764
             505     6.19059E-03     52.3341E-03         4.30421        -1.62453        -1.78191        -1.62444         4.30412        -1.78191     911.914E-06     245.326E-03    -121.922E-03    -123.447E-03    -121.895E-03     245.300E-03    -123.447E-03     5.43140E-03    -26.9384E+06    -73.0532E+06    -175.645E+06    -73.0682E+06    -175.630E+06    -26.9384E+06    -390.640E+03         42.9890
             506     5.30518E-03     52.3371E-03         4.39206        -1.68989        -1.80248        -1.68984         4.39200        -1.80248     10.7146E-03     245.713E-03    -122.288E-03    -123.480E-03    -122.285E-03     245.710E-03    -123.480E-03     749.083E-06    -39.1172E+06    -79.0656E+06    -210.830E+06    -79.0713E+06    -210.824E+06    -39.1172E+06    -139.497E+03         42.0281
             507     4.42123E-03     52.3443E-03         4.45504        -1.73415        -1.82029        -1.73407         4.45496        -1.82029     16.9878E-03     246.260E-03    -122.765E-03    -123.532E-03    -122.759E-03     246.255E-03    -123.532E-03    -2.42959E-03    -52.9132E+06    -85.6114E+06    -238.756E+06    -85.6131E+06    -238.754E+06    -52.9132E+06    -26.5413E+03         41.2810
             508     3.53694E-03     52.3532E-03         4.50842        -1.77054        -1.83696        -1.77037         4.50824        -1.83696    -6.72826E-03     246.607E-03    -123.028E-03    -123.561E-03    -123.013E-03     246.592E-03    -123.561E-03    -4.58022E-03    -67.2220E+06    -92.0583E+06    -262.684E+06    -92.0650E+06    -262.678E+06    -67.2220E+06     709.152E+03         40.7298
             509     2.65202E-03     52.3624E-03         4.56384        -1.81138        -1.85180        -1.81113         4.56359        -1.85180    -6.98612E-03     246.648E-03    -123.041E-03    -123.618E-03    -123.063E-03     246.632E-03    -123.579E-03    -4.72999E-03    -81.7246E+06    -96.6716E+06    -279.103E+06    -96.6825E+06    -279.092E+06    -81.7246E+06     1.22526E+06         40.3255
             510     1.76714E-03     52.3712E-03         4.60648        -1.84199        -1.86388        -1.84184         4.60627        -1.86382     53.8256E-03     247.002E-03    -123.308E-03    -123.719E-03    -123.336E-03     246.992E-03    -123.680E-03    -3.85666E-03    -91.8359E+06    -100.514E+06    -285.861E+06    -100.519E+06    -285.856E+06    -91.8359E+06     712.154E+03         40.0375
             511     883.932E-06     52.3794E-03         4.64440        -1.54772        -2.19274        -1.54475         4.64137        -2.19268    -158.940E-03     247.364E-03    -123.132E-03    -124.238E-03    -124.154E-03     247.359E-03    -123.212E-03    -1.99923E-03    -100.026E+06    -104.852E+06    -291.986E+06    -104.841E+06    -291.942E+06    -100.082E+06    -515.253E+03         39.8595
             512     15.0430E-03     52.0607E-03         3.01151    -698.246E-03        -1.44563    -698.215E-03         3.01148        -1.44563     5.87599E-03     261.372E-03    -122.380E-03    -138.920E-03    -121.388E-03     244.460E-03    -122.999E-03     135.373E-03     105.020E+06     95.5115E+06    -4.84111E+06    -4.79708E+06     104.976E+06     95.5115E+06     482.677E+03         65.5305
             513     14.1581E-03     51.7758E-03         3.17601    -809.690E-03        -1.49253    -809.676E-03         3.17600        -1.49253     8.99656E-03     267.264E-03    -123.047E-03    -144.146E-03    -120.244E-03     243.362E-03    -123.047E-03     189.708E-03     99.5315E+06      94.165E+06    -12.7451E+06    -12.7195E+06     97.8211E+06     95.8499E+06    -181.656E+03         63.2909
             514     13.2693E-03     51.5922E-03         3.34170    -921.987E-03        -1.53797    -921.954E-03         3.34167        -1.53797     15.1996E-03     257.253E-03    -123.201E-03    -133.959E-03    -117.546E-03     240.840E-03    -123.201E-03     156.717E-03     95.5573E+06     93.1088E+06    -19.5693E+06    -19.5526E+06     93.0921E+06     95.5573E+06    -907.905E+03         60.9653
             515     12.3818E-03     51.4046E-03         3.49988        -1.03101        -1.58078        -1.03098         3.49984        -1.58078     12.1857E-03     254.186E-03    -123.236E-03    -130.775E-03    -117.404E-03     240.815E-03    -123.236E-03     139.200E-03     90.9478E+06     83.5663E+06    -28.7305E+06    -28.6984E+06     90.1521E+06     84.3299E+06    -18.0865E+03         58.3882
             516     11.5001E-03     51.2685E-03         3.64316        -1.13134        -1.62106        -1.13130         3.64312        -1.62106     13.5970E-03     248.294E-03    -123.024E-03    -125.226E-03    -118.726E-03     241.973E-03    -123.203E-03     93.8482E-03     85.8931E+06     62.7423E+06    -36.3245E+06    -36.2633E+06     85.8319E+06     62.7423E+06     1.77079E+06         55.4708
             517     10.6147E-03     51.1864E-03         3.78109        -1.23020        -1.65880        -1.23015         3.78104        -1.65880     2.97662E-03     245.537E-03    -122.171E-03    -123.239E-03    -119.544E-03     242.848E-03    -123.177E-03     61.8951E-03     79.7716E+06     35.9113E+06    -41.9229E+06    -41.8437E+06     79.6924E+06     35.9113E+06     2.83066E+06         52.4619
             518     9.72864E-03     51.1319E-03         3.91871        -1.33315        -1.69369        -1.33306         3.91863        -1.69369     12.1702E-03     244.867E-03    -121.742E-03    -123.079E-03    -120.321E-03     243.446E-03    -123.079E-03     45.0020E-03     48.2398E+06     16.5449E+06    -47.2012E+06    -47.1412E+06     48.1798E+06     16.5449E+06     2.01902E+06         49.7372
             519     8.84644E-03     51.0940E-03         4.04174        -1.42119        -1.72571        -1.42110         4.04165        -1.72571     25.8039E-03     244.296E-03    -121.474E-03    -123.136E-03    -120.781E-03     243.603E-03    -123.136E-03     31.0242E-03     9.73509E+06    -20.3613E+06    -53.2268E+06    -52.8243E+06    -16.3962E+06     5.36751E+06     936.857E+03         47.4723
             520     7.96124E-03     51.0733E-03         4.15386        -1.49796        -1.75553        -1.49792         4.15382        -1.75553     13.4993E-03     243.848E-03    -120.852E-03    -123.257E-03    -120.565E-03     243.562E-03    -123.257E-03     20.0033E-03    -6.15074E+06    -57.5610E+06    -85.4058E+06    -59.2496E+06    -83.7172E+06    -6.15074E+06     441.786E+03         45.6492
             521     7.07404E-03     51.0597E-03         4.26255        -1.57845        -1.78277        -1.57837         4.26247        -1.78277    -12.3037E-03     244.414E-03    -121.150E-03    -123.394E-03    -121.036E-03     244.300E-03    -123.394E-03     12.3824E-03    -16.0578E+06    -65.8036E+06    -135.688E+06    -65.8367E+06    -135.655E+06    -16.0578E+06     241.645E+03         44.1826
             522     6.18972E-03     51.0560E-03         4.35094        -1.64006        -1.80759        -1.63996         4.35085        -1.80759    -5.02955E-03     245.225E-03    -121.813E-03    -123.509E-03    -121.784E-03     245.196E-03    -123.509E-03     5.70930E-03     -27.051E+06    -73.0480E+06    -175.840E+06    -73.0543E+06    -175.833E+06     -27.051E+06    -64.1633E+03         42.9969
             523     5.30521E-03     51.0597E-03         4.43283        -1.69674        -1.83072        -1.69670         4.43279        -1.83072     22.9045E-03     245.879E-03    -122.393E-03    -123.553E-03    -122.390E-03     245.876E-03    -123.553E-03     779.464E-06    -38.8569E+06    -80.4915E+06    -210.598E+06    -80.4963E+06    -210.593E+06    -38.8569E+06     68.6119E+03         42.0415
             524     4.42019E-03     51.0647E-03         4.52216        -1.76801        -1.85002        -1.76796         4.52211        -1.85002     23.0689E-03     246.343E-03    -122.801E-03    -123.607E-03    -122.796E-03     246.338E-03    -123.607E-03    -2.28872E-03    -52.2608E+06    -87.3848E+06    -239.004E+06    -87.3868E+06    -239.002E+06    -52.2608E+06     371.436E+03         41.2964
             525     3.53649E-03     51.0752E-03         4.58715        -1.82241        -1.86324        -1.82234         4.58708        -1.86324     2.07923E-03     246.739E-03    -123.087E-03    -123.652E-03    -123.101E-03     246.727E-03    -123.627E-03    -4.07960E-03    -68.7173E+06    -94.4481E+06    -263.000E+06    -94.4506E+06    -262.998E+06    -68.7173E+06     491.148E+03         40.7426
             526     2.65227E-03     51.0847E-03         4.61983        -1.84590        -1.87275        -1.84586         4.61979        -1.87275    -10.9069E-03     246.838E-03    -123.147E-03    -123.694E-03    -123.192E-03     246.820E-03    -123.630E-03    -5.15094E-03    -83.1874E+06    -100.609E+06    -278.046E+06    -100.611E+06    -278.045E+06    -83.1874E+06     405.084E+03         40.3340
             527     1.76749E-03     51.0926E-03         4.65279        -1.86074        -1.88590        -1.86512         4.65253        -1.88125     52.9521E-03     246.968E-03    -123.189E-03    -123.801E-03    -123.211E-03     246.952E-03    -123.762E-03    -4.87408E-03    -95.9675E+06    -105.374E+06    -285.300E+06    -105.269E+06    -285.297E+06    -96.0754E+06    -108.718E+03         40.0452
             528     883.098E-06     51.0974E-03         4.69324        -1.64562        -2.12914        -1.64589         4.68886        -2.12449    -180.123E-03     247.639E-03    -123.368E-03    -124.284E-03    -123.997E-03     247.633E-03    -123.649E-03    -2.39712E-03    -104.670E+06    -108.348E+06    -291.669E+06    -107.602E+06    -291.607E+06    -105.478E+06    -2.51969E+06         39.8719
             529     15.0426E-03     50.7787E-03         3.04367    -712.283E-03        -1.45994    -712.236E-03         3.04362        -1.45994     7.48747E-03     261.145E-03    -122.752E-03    -138.415E-03    -121.525E-03     244.491E-03    -122.988E-03     135.115E-03     105.625E+06     95.7567E+06    -5.37683E+06    -5.35528E+06     105.604E+06     95.7567E+06     351.139E+03         65.4815
             530     14.1569E-03     50.4992E-03         3.19755    -811.873E-03        -1.50399    -811.835E-03         3.19751        -1.50399    -438.402E-06     265.936E-03    -123.042E-03    -142.885E-03    -119.291E-03     242.341E-03    -123.042E-03     188.123E-03     99.1392E+06     94.4431E+06    -11.6962E+06    -11.6814E+06     98.1707E+06     95.3967E+06    -411.020E+03         63.2740
             531     13.2703E-03     50.3179E-03         3.35908    -926.507E-03        -1.54627    -926.488E-03         3.35906        -1.54627     10.7488E-03     256.564E-03    -123.237E-03    -133.376E-03    -117.128E-03     240.317E-03    -123.237E-03     155.761E-03     93.4121E+06     91.9799E+06    -20.1436E+06    -20.1300E+06     92.1415E+06     93.2370E+06     412.189E+03         60.9829
             532     12.3849E-03     50.1252E-03         3.51007        -1.03441        -1.58602        -1.03434         3.50999        -1.58602    -14.6689E-03     254.952E-03    -123.248E-03    -131.750E-03    -118.514E-03     241.716E-03    -123.248E-03     138.987E-03     90.1814E+06     83.3278E+06    -29.2766E+06    -29.2479E+06     89.8492E+06     83.6313E+06     739.331E+03         58.4195
             533     11.4992E-03     49.9854E-03         3.64739        -1.12991        -1.62394        -1.12983         3.64731        -1.62394    -8.38897E-03     248.494E-03    -122.560E-03    -125.939E-03    -119.054E-03     242.208E-03    -123.159E-03     93.4497E-03     85.5704E+06     62.4758E+06    -37.4534E+06    -37.3824E+06     85.4993E+06     62.4758E+06     641.226E+03         55.4892
             534     10.6153E-03     49.9103E-03         3.78959        -1.23457        -1.66000        -1.23450         3.78952        -1.66000    -7.89476E-03     244.762E-03    -121.491E-03    -123.147E-03    -118.813E-03     242.085E-03    -123.147E-03     61.8595E-03     79.0332E+06     35.6389E+06    -43.4198E+06    -43.3702E+06     78.9836E+06     35.6389E+06     813.343E+03         52.4623
             535     9.73048E-03     49.8510E-03         3.92449        -1.33323        -1.69359        -1.33314         3.92441        -1.69359    -1.75069E-03     244.318E-03    -121.111E-03    -123.118E-03    -119.635E-03     242.842E-03    -123.118E-03     45.6037E-03     48.3408E+06     16.6101E+06    -47.8478E+06    -47.8237E+06     48.3167E+06     16.6101E+06     1.20654E+06         49.7360
             536     8.84391E-03     49.8155E-03         4.04896        -1.42187        -1.72472        -1.42179         4.04888        -1.72472    -2.53649E-03     244.235E-03    -121.213E-03    -123.225E-03    -120.528E-03     243.550E-03    -123.225E-03     30.9008E-03     10.3948E+06    -20.3494E+06    -53.5873E+06    -53.2463E+06    -15.8095E+06     5.51395E+06     1.02090E+06         47.4826
             537     7.95911E-03     49.7949E-03         4.15976        -1.49756        -1.75385        -1.49749         4.15969        -1.75385    -20.9020E-03     244.466E-03    -121.268E-03    -123.343E-03    -120.968E-03     244.166E-03    -123.343E-03     20.5869E-03    -5.73549E+06    -57.6229E+06     -85.164E+06    -59.6631E+06    -83.1238E+06    -5.73549E+06     827.713E+03         45.6683
             538     7.07553E-03     49.7826E-03         4.25745        -1.56681        -1.78137        -1.56674         4.25738        -1.78137    -22.1866E-03     244.776E-03    -121.403E-03    -123.441E-03    -121.281E-03     244.655E-03    -123.441E-03     12.6356E-03    -15.8720E+06    -65.8979E+06    -135.039E+06    -65.9314E+06    -135.005E+06    -15.8720E+06     855.091E+03         44.2009
             539     6.18901E-03     49.7774E-03         4.35542        -1.63719        -1.80686        -1.63712         4.35535        -1.80686    -8.20994E-03     245.268E-03    -121.813E-03    -123.545E-03    -121.786E-03     245.241E-03    -123.545E-03     5.65480E-03    -26.3646E+06    -72.3726E+06    -175.362E+06    -72.3873E+06    -175.347E+06    -26.3646E+06     759.086E+03         43.0117
             540     5.30481E-03     49.7798E-03         4.44883        -1.70644        -1.82926        -1.70641         4.44880        -1.82926     20.1687E-03     245.988E-03    -122.477E-03    -123.600E-03    -122.474E-03     245.985E-03    -123.600E-03     751.058E-06    -37.6482E+06    -79.7917E+06    -210.149E+06    -79.7958E+06    -210.145E+06    -37.6482E+06     653.608E+03         42.0569
             541     4.42089E-03     49.7871E-03         4.52839        -1.76914        -1.84743        -1.76913         4.52838        -1.84743     3.52668E-03     246.393E-03    -122.817E-03    -123.656E-03    -122.811E-03     246.387E-03    -123.656E-03    -2.72863E-03    -49.8259E+06    -87.6556E+06    -239.542E+06    -87.6631E+06    -239.534E+06    -49.8259E+06     927.456E+03         41.3119
             542     3.53515E-03     49.7954E-03         4.58753        -1.81719        -1.86086        -1.81711         4.58745        -1.86086    -29.3840E-03     246.827E-03    -123.142E-03    -123.700E-03    -123.153E-03     246.812E-03    -123.675E-03    -4.58470E-03    -67.7701E+06    -95.8432E+06    -262.266E+06    -95.8581E+06    -262.251E+06    -67.7701E+06     1.37113E+06         40.7545
             543     2.65196E-03     49.8039E-03         4.62944        -1.85151        -1.87013        -1.85226         4.62935        -1.86929    -13.5596E-03     247.144E-03    -123.479E-03    -123.678E-03    -123.548E-03     247.124E-03    -123.589E-03    -5.38070E-03    -86.6715E+06     -103.15E+06    -275.994E+06    -103.165E+06    -275.979E+06    -86.6715E+06     242.823E+03         40.3411
             544     1.76906E-03     49.8148E-03         4.65546        -1.86653        -1.87791        -1.87160         4.65505        -1.87243     85.4879E-03     246.976E-03    -123.327E-03    -123.659E-03    -123.430E-03     246.961E-03    -123.542E-03    -4.47006E-03    -99.6480E+06    -107.766E+06    -284.795E+06    -107.666E+06    -284.787E+06    -99.7559E+06    -864.112E+03         40.0463
             545     884.061E-06     49.8195E-03         4.66339        -1.71219        -2.03766        -1.71237         4.65892        -2.03302    -153.621E-03     247.004E-03    -123.241E-03    -123.784E-03    -123.564E-03     247.000E-03    -123.456E-03    -1.71974E-03    -109.793E+06    -112.525E+06    -295.561E+06    -111.777E+06    -295.502E+06    -110.600E+06    -145.541E+03         39.8666
             546     15.0444E-03     49.4994E-03         3.05474    -718.820E-03        -1.45473    -718.719E-03         3.05464        -1.45473    -6.94731E-03     260.509E-03    -122.557E-03    -138.082E-03    -120.746E-03     243.611E-03    -122.995E-03     135.542E-03     105.623E+06     95.0577E+06    -7.72584E+06    -7.70636E+06     105.604E+06     95.0577E+06     325.228E+03         65.4194
             547     14.1577E-03     49.2226E-03         3.20887    -825.807E-03        -1.49461    -825.726E-03         3.20879        -1.49461    -12.2109E-03     266.174E-03    -123.071E-03    -143.193E-03    -119.471E-03     242.452E-03    -123.071E-03     188.377E-03     98.9426E+06     94.3912E+06    -13.2614E+06    -13.2372E+06     98.7715E+06     94.5380E+06     1.14558E+06         63.2615
             548     13.2694E-03     49.0426E-03         3.34908    -922.603E-03        -1.53239    -922.589E-03         3.34906        -1.53239     11.1054E-03     258.042E-03    -123.235E-03    -134.923E-03    -118.424E-03     241.544E-03    -123.235E-03     157.472E-03     93.3400E+06     92.2242E+06    -20.7478E+06    -20.7342E+06     92.3858E+06     93.1648E+06     1.20061E+06         61.0057
             549     12.3839E-03     48.8416E-03         3.48805        -1.02255        -1.56862        -1.02249         3.48799        -1.56862    -16.5714E-03     255.199E-03    -123.201E-03    -132.103E-03    -118.509E-03     241.604E-03    -123.201E-03     140.744E-03     91.8616E+06     84.4870E+06    -27.8732E+06    -27.8487E+06     91.0433E+06     85.2807E+06     1.16194E+06         58.4350
             550     11.5012E-03     48.7076E-03         3.63191        -1.12924        -1.60324        -1.12916         3.63183        -1.60324    -2.64388E-03     247.925E-03    -122.545E-03    -125.381E-03    -118.494E-03     241.624E-03    -123.130E-03     93.4919E-03     86.6455E+06     62.1677E+06    -35.7235E+06    -35.6560E+06     86.5779E+06     62.1677E+06     991.733E+03         55.4901
             551     10.6144E-03     48.6307E-03         3.76494        -1.22558        -1.63639        -1.22549         3.76485        -1.63639    -10.5822E-03     244.744E-03    -121.498E-03    -123.151E-03    -118.807E-03     242.054E-03    -123.151E-03     61.9016E-03     78.2320E+06     33.3681E+06    -43.8938E+06    -43.8253E+06     78.1634E+06     33.3681E+06    -196.858E+03         52.4599
             552     9.72829E-03     48.5734E-03         3.88806        -1.31345        -1.66806        -1.31335         3.88796        -1.66806    -4.36618E-03     243.765E-03    -120.536E-03    -123.157E-03    -119.065E-03     242.294E-03    -123.157E-03     45.5422E-03     47.0972E+06     15.2410E+06    -49.7951E+06    -49.7722E+06     47.0743E+06     15.2410E+06    -529.191E+03         49.7344
             553     8.84362E-03     48.5359E-03         4.01066        -1.40138        -1.69790        -1.40130         4.01057        -1.69790     14.7939E-03     243.993E-03    -120.858E-03    -123.327E-03    -120.159E-03     243.294E-03    -123.327E-03     31.1407E-03     9.72232E+06    -21.4002E+06    -55.1111E+06    -54.8069E+06    -16.8151E+06     4.83310E+06     453.780E+03         47.4906
             554     7.95866E-03     48.5159E-03         4.12011        -1.47568        -1.72595        -1.47563         4.12005        -1.72595    -17.9596E-03     245.103E-03    -121.800E-03    -123.442E-03    -121.514E-03     244.818E-03    -123.442E-03     19.9023E-03    -5.08115E+06    -58.4090E+06    -84.7226E+06    -60.3477E+06    -82.7839E+06    -5.08115E+06     807.100E+03         45.6902
             555     7.07331E-03     48.5033E-03         4.22005        -1.54749        -1.75229        -1.54745         4.22000        -1.75229    -27.7055E-03     245.329E-03    -121.922E-03    -123.479E-03    -121.814E-03     245.221E-03    -123.479E-03     12.0785E-03    -14.5079E+06    -66.2657E+06    -133.504E+06    -66.2894E+06    -133.480E+06    -14.5079E+06     901.204E+03         44.2257
             556     6.19028E-03     48.5002E-03         4.32234        -1.62823        -1.77546        -1.62814         4.32225        -1.77546    -31.7756E-03     245.440E-03    -121.986E-03    -123.547E-03    -121.957E-03     245.411E-03    -123.547E-03     5.87835E-03    -26.4973E+06    -72.6421E+06    -174.695E+06    -72.6556E+06    -174.682E+06    -26.4973E+06     840.888E+03         43.0323
             557     5.30458E-03     48.5009E-03         4.40597        -1.69207        -1.79460        -1.69200         4.40591        -1.79460    -11.5264E-03     246.022E-03    -122.505E-03    -123.587E-03    -122.501E-03     246.018E-03    -123.587E-03     820.542E-06    -37.9497E+06    -78.9655E+06    -210.704E+06    -78.9720E+06    -210.697E+06    -37.9497E+06     853.398E+03         42.0740
             558     4.42004E-03     48.5072E-03         4.46210        -1.73316        -1.81117        -1.73313         4.46208        -1.81117    -11.9296E-03     246.793E-03    -123.116E-03    -123.700E-03    -123.210E-03     246.784E-03    -123.598E-03    -3.10073E-03    -49.7937E+06    -86.4758E+06    -240.174E+06    -86.4896E+06    -240.160E+06    -49.7937E+06     1.43647E+06         41.3239
             559     3.53749E-03     48.5165E-03         4.51081        -1.76596        -1.82694        -1.76588         4.51072        -1.82694    -40.4294E-03     246.807E-03    -123.112E-03    -123.678E-03    -123.195E-03     246.788E-03    -123.576E-03    -5.20396E-03    -64.0144E+06    -92.8886E+06    -261.420E+06    -92.9062E+06    -261.402E+06    -64.0144E+06     1.43714E+06         40.7586
             560     2.65222E-03     48.5248E-03         4.56469        -1.80410        -1.84176        -1.80485         4.56460        -1.84093    -8.65730E-03     246.544E-03    -122.972E-03    -123.591E-03    -122.977E-03     246.523E-03    -123.567E-03    -5.50830E-03    -81.9998E+06    -98.3745E+06    -272.854E+06    -98.3988E+06    -272.830E+06    -81.9998E+06     755.001E+03         40.3403
             561     1.76724E-03     48.5352E-03         4.60369        -1.82974        -1.85371        -1.83024         4.60336        -1.85287     78.7553E-03     247.079E-03    -123.350E-03    -123.750E-03    -123.476E-03     247.066E-03    -123.611E-03    -4.05495E-03    -97.2992E+06    -105.426E+06    -286.247E+06    -105.443E+06    -286.230E+06    -97.2992E+06     444.658E+03         40.0443
             562     884.489E-06     48.5407E-03         4.64008        -1.76450        -1.95566        -1.76154         4.63711        -1.95566    -115.431E-03     247.154E-03    -123.191E-03    -123.990E-03    -123.987E-03     247.151E-03    -123.191E-03    -1.01219E-03    -106.452E+06    -110.357E+06    -294.961E+06    -110.394E+06    -294.923E+06    -106.452E+06     1.68520E+06         39.8606
             563     15.0412E-03     48.2256E-03         3.03320    -714.552E-03        -1.42992    -714.462E-03         3.03311        -1.42992     4.04564E-03     259.941E-03    -122.049E-03    -137.979E-03    -120.021E-03     242.960E-03    -123.026E-03     134.646E-03     104.196E+06     94.5756E+06    -4.56012E+06    -4.52655E+06     104.163E+06     94.5756E+06     264.690E+03         65.3665
             564     14.1527E-03     47.9416E-03         3.18276    -822.174E-03        -1.46541    -822.122E-03         3.18271        -1.46541    -11.9301E-03     266.833E-03    -123.131E-03    -143.732E-03    -119.875E-03     242.976E-03    -123.131E-03     189.010E-03     98.4574E+06     94.8238E+06    -10.9612E+06    -10.8868E+06     97.9468E+06     95.2600E+06     1.58752E+06         63.2495
             565     13.2709E-03     47.7635E-03         3.31425    -915.884E-03        -1.49822    -915.878E-03         3.31424        -1.49822     2.49176E-03     259.134E-03    -123.273E-03    -135.891E-03    -119.275E-03     242.518E-03    -123.273E-03     158.397E-03     95.6375E+06     94.0279E+06    -17.5450E+06    -17.4688E+06     93.9517E+06     95.6375E+06     2.54366E+06         61.0178
             566     12.3862E-03     47.5629E-03         3.44677        -1.01160        -1.52968        -1.01158         3.44674        -1.52968    -11.2805E-03     255.416E-03    -123.235E-03    -132.217E-03    -118.459E-03     241.659E-03    -123.235E-03     141.586E-03     92.6872E+06     85.5818E+06    -26.4455E+06    -26.3880E+06     91.4563E+06     86.7551E+06     1.95516E+06         58.4402
             567     11.4975E-03     47.4290E-03         3.58094        -1.11216        -1.55993        -1.11210         3.58088        -1.55993    -7.05026E-03     247.915E-03    -122.705E-03    -125.190E-03    -118.399E-03     241.597E-03    -123.179E-03     93.5403E-03     87.0712E+06     63.8258E+06    -34.7208E+06    -34.6543E+06     87.0046E+06     63.8258E+06     1.57565E+06         55.4912
             568     10.6146E-03     47.3505E-03         3.70294        -1.19836        -1.58974        -1.19827         3.70285        -1.58974    -18.4781E-03     244.814E-03    -121.496E-03    -123.191E-03    -118.873E-03     242.191E-03    -123.191E-03     61.0359E-03     80.2142E+06     34.7773E+06    -41.4625E+06    -41.3973E+06     80.1489E+06     34.7773E+06     518.959E+03         52.4682
             569     9.72972E-03     47.2979E-03         3.81546        -1.27917        -1.61894        -1.27909         3.81538        -1.61894    -7.82946E-03     243.883E-03    -120.666E-03    -123.177E-03    -119.257E-03     242.473E-03    -123.177E-03     44.7293E-03     46.5050E+06     15.4590E+06    -48.2607E+06    -48.2238E+06     46.4681E+06     15.4590E+06    -589.917E+03         49.7499
             570     8.84179E-03     47.2584E-03         3.92253        -1.35442        -1.64719        -1.35436         3.92247        -1.64719     12.5864E-03     244.066E-03    -121.010E-03    -123.333E-03    -120.320E-03     243.375E-03    -123.333E-03     30.8843E-03     8.31058E+06    -20.9643E+06    -54.8147E+06    -54.8075E+06    -18.0490E+06     5.38816E+06    -405.586E+03         47.5069
             571     7.95826E-03     47.2343E-03         4.03571        -1.43585        -1.67388        -1.43578         4.03564        -1.67388    -20.5466E-03     244.897E-03    -121.616E-03    -123.445E-03    -121.353E-03     244.634E-03    -123.445E-03     18.9713E-03    -4.60291E+06    -58.2956E+06    -85.1061E+06    -60.4532E+06    -82.9486E+06    -4.60291E+06     157.638E+03         45.7061
             572     7.07518E-03     47.2259E-03         4.14811        -1.52494        -1.69726        -1.52489         4.14806        -1.69726    -12.0803E-03     245.413E-03    -122.029E-03    -123.487E-03    -121.933E-03     245.317E-03    -123.487E-03     11.5841E-03    -13.2745E+06    -65.7612E+06    -133.216E+06    -65.7829E+06    -133.195E+06    -13.2745E+06     574.207E+03         44.2461
             573     6.18872E-03     47.2197E-03         4.23009        -1.58954        -1.71690        -1.58947         4.23002        -1.71690    -11.2798E-03     245.883E-03    -122.494E-03    -123.521E-03    -122.464E-03     245.853E-03    -123.521E-03     5.62191E-03    -25.5394E+06    -72.1708E+06    -173.407E+06    -72.1771E+06    -173.401E+06    -25.5394E+06     557.613E+03         43.0540
             574     5.30534E-03     47.2232E-03         4.28731        -1.62914        -1.73488        -1.62900         4.28717        -1.73488     8.16680E-03     246.244E-03    -122.824E-03    -123.474E-03    -122.821E-03     246.241E-03    -123.474E-03     208.816E-06    -39.4893E+06    -79.1806E+06    -211.239E+06    -79.1848E+06    -211.235E+06    -39.4893E+06     339.818E+03         42.0887
             575     4.42138E-03     47.2269E-03         4.34615        -1.67087        -1.75213        -1.67076         4.34604        -1.75213     7.32878E-03     246.389E-03    -122.855E-03    -123.577E-03    -122.949E-03     246.381E-03    -123.475E-03    -3.13511E-03    -51.4178E+06    -85.0725E+06    -240.297E+06    -85.0827E+06    -240.287E+06    -51.4178E+06     323.466E+03         41.3287
             576     3.53692E-03     47.2378E-03         4.40761        -1.71455        -1.76734        -1.71452         4.40759        -1.76734    -18.1379E-03     246.577E-03    -122.937E-03    -123.654E-03    -123.079E-03     246.560E-03    -123.494E-03    -5.02392E-03    -63.7049E+06    -90.5878E+06    -260.856E+06    -90.5941E+06    -260.850E+06    -63.7049E+06     123.245E+03         40.7575
             577     2.65262E-03     47.2484E-03         4.45648        -1.74951        -1.78025        -1.75029         4.45634        -1.77934    -16.1985E-03     246.545E-03    -123.001E-03    -123.583E-03    -123.078E-03     246.525E-03    -123.486E-03    -5.41558E-03    -77.9450E+06    -96.1535E+06    -273.106E+06    -96.1651E+06    -273.094E+06    -77.9450E+06     931.035E+03         40.3383
             578     1.76797E-03     47.2552E-03         4.48557        -1.76759        -1.79115        -1.76820         4.48527        -1.79024     21.4543E-03     246.822E-03    -123.249E-03    -123.613E-03    -123.337E-03     246.807E-03    -123.510E-03    -4.69920E-03    -90.9255E+06    -101.097E+06    -285.434E+06    -101.121E+06    -285.411E+06    -90.9255E+06     1.92800E+06         40.0398
             579     883.488E-06     47.2605E-03         4.52249        -1.76217        -1.83165        -1.76070         4.52103        -1.83165    -90.6857E-03     246.958E-03    -123.172E-03    -123.814E-03    -123.808E-03     246.952E-03    -123.172E-03    -2.37648E-03    -100.472E+06    -105.349E+06    -291.669E+06    -104.329E+06    -291.624E+06    -101.538E+06    -98.9585E+03         39.8527
             580     15.0425E-03     46.9485E-03         2.99540    -705.436E-03        -1.38620    -705.322E-03         2.99529        -1.38620     5.93764E-03     260.520E-03    -122.195E-03    -138.294E-03    -121.015E-03     244.126E-03    -123.080E-03     134.666E-03     103.869E+06     94.0898E+06    -6.17901E+06    -6.14208E+06     103.832E+06     94.0898E+06     291.166E+03         65.3452
             581     14.1564E-03     46.6669E-03         3.12673    -801.142E-03        -1.41683    -801.078E-03         3.12667        -1.41683    -22.2530E-03     266.548E-03    -123.143E-03    -143.406E-03    -120.001E-03     243.142E-03    -123.143E-03     187.875E-03     97.3035E+06     93.7590E+06    -12.6217E+06    -12.5274E+06     96.2918E+06     94.6764E+06     582.480E+03         63.2508
             582     13.2680E-03     46.4802E-03         3.25934    -903.468E-03        -1.44407    -903.458E-03         3.25933        -1.44407    -7.89841E-03     258.585E-03    -123.305E-03    -135.348E-03    -118.550E-03     241.787E-03    -123.305E-03     159.065E-03      95.302E+06     93.3586E+06    -19.2176E+06    -19.1213E+06     93.2624E+06      95.302E+06     1.61226E+06         61.0333
             583     12.3824E-03     46.2855E-03         3.38730    -998.969E-03        -1.46951    -998.937E-03         3.38727        -1.46951    -15.1943E-03     256.124E-03    -123.263E-03    -132.879E-03    -119.275E-03     242.521E-03    -123.263E-03     141.027E-03     93.6643E+06     87.1752E+06    -25.7869E+06    -25.7259E+06     92.5773E+06     88.2012E+06     2.35269E+06         58.4575
             584     11.5005E-03     46.1474E-03         3.49730        -1.08099        -1.49452        -1.08095         3.49726        -1.49452    -22.7491E-03     247.894E-03    -122.039E-03    -125.788E-03    -118.541E-03     241.775E-03    -123.167E-03     91.7848E-03     88.0959E+06     65.6069E+06    -33.8622E+06    -33.8195E+06     88.0532E+06     65.6069E+06     1.32752E+06         55.5073
             585     10.6139E-03     46.0728E-03         3.60422        -1.15687        -1.52041        -1.15676         3.60411        -1.52041    -37.6602E-03     244.336E-03    -120.971E-03    -123.215E-03    -118.440E-03     241.805E-03    -123.215E-03     60.1506E-03     81.2040E+06     36.6271E+06    -40.7421E+06    -40.7171E+06     81.1790E+06     36.6271E+06     444.952E+03         52.4882
             586     9.72720E-03     46.0187E-03         3.71415        -1.23645        -1.54603        -1.23634         3.71404        -1.54603    -32.1901E-03     244.762E-03    -121.516E-03    -123.178E-03    -120.087E-03     243.333E-03    -123.178E-03     44.9162E-03     47.0275E+06     17.2146E+06    -46.8578E+06    -46.8332E+06     47.0030E+06     17.2146E+06     246.137E+03         49.7758
             587     8.84594E-03     45.9791E-03         3.81554        -1.31032        -1.57049        -1.31024         3.81546        -1.57049    -27.6875E-03     244.246E-03    -121.233E-03    -123.257E-03    -120.578E-03     243.591E-03    -123.257E-03     30.1719E-03     9.16365E+06    -19.9611E+06    -52.9099E+06    -52.3393E+06    -18.2699E+06     6.90181E+06    -137.825E+03         47.5276
             588     7.95909E-03     45.9572E-03         3.90884        -1.37726        -1.59384        -1.37714         3.90872        -1.59384    -50.3207E-03     244.303E-03    -121.060E-03    -123.388E-03    -120.794E-03     244.037E-03    -123.388E-03     19.2158E-03    -3.72539E+06    -57.4358E+06    -84.2714E+06    -58.5421E+06    -83.1651E+06    -3.72539E+06    -4.30151E+03         45.7172
             589     7.07265E-03     45.9452E-03         3.99415        -1.44055        -1.61589        -1.44038         3.99399        -1.61589    -38.1348E-03     245.722E-03    -122.343E-03    -123.508E-03    -122.305E-03     245.626E-03    -123.449E-03     11.1974E-03    -12.8398E+06    -65.0605E+06    -133.790E+06    -65.0801E+06    -133.770E+06    -12.8398E+06     360.409E+03         44.2572
             590     6.19076E-03     45.9416E-03         4.06764        -1.49629        -1.63654        -1.49608         4.06743        -1.63654    -35.4899E-03     246.047E-03    -122.742E-03    -123.487E-03    -122.780E-03     246.026E-03    -123.428E-03     4.58244E-03    -24.4391E+06    -71.7004E+06    -173.214E+06    -71.7097E+06    -173.205E+06    -24.4391E+06     612.301E+03         43.0662
             591     5.30652E-03     45.9418E-03         4.14293        -1.55370        -1.65515        -1.55350         4.14273        -1.65515     7.76303E-03     245.848E-03    -122.562E-03    -123.359E-03    -122.560E-03     245.846E-03    -123.359E-03     126.901E-06    -38.8931E+06    -78.9110E+06    -210.441E+06    -78.9147E+06    -210.438E+06    -38.8931E+06     167.153E+03         42.0946
             592     4.42189E-03     45.9512E-03         4.21778        -1.61055        -1.67003        -1.61037         4.21760        -1.67003     1.83610E-03     245.919E-03    -122.628E-03    -123.391E-03    -122.621E-03     245.911E-03    -123.391E-03    -2.91090E-03    -52.2291E+06    -85.0769E+06    -239.708E+06    -85.0824E+06    -239.702E+06    -52.2291E+06    -830.190E+03         41.3289
             593     3.53618E-03     45.9581E-03         4.27290        -1.65161        -1.68026        -1.65149         4.27279        -1.68026    -38.7302E-03     246.394E-03    -122.970E-03    -123.487E-03    -123.008E-03     246.374E-03    -123.429E-03    -5.30650E-03    -66.0148E+06    -91.0479E+06    -260.691E+06    -91.0568E+06    -260.682E+06    -66.0148E+06    -1.02081E+06         40.7588
             594     2.65292E-03     45.9691E-03         4.30203        -1.67331        -1.68764        -1.67407         4.30188        -1.68673    -35.6173E-03     246.857E-03    -123.246E-03    -123.664E-03    -123.579E-03     246.835E-03    -123.310E-03    -5.65246E-03    -80.7375E+06    -96.7893E+06    -275.102E+06    -96.7951E+06    -275.096E+06    -80.7375E+06    -214.565E+03         40.3416
             595     1.76946E-03     45.9774E-03         4.31398        -1.68327        -1.69419        -1.68640         4.31347        -1.69056     27.6886E-03     246.463E-03    -123.103E-03    -123.420E-03    -123.389E-03     246.448E-03    -123.119E-03    -4.70794E-03    -90.8838E+06    -99.9612E+06    -284.227E+06    -99.9797E+06    -284.208E+06    -90.8838E+06     286.553E+03         40.0368
             596     885.325E-06     45.9829E-03         4.32226        -1.66605        -1.71922        -1.71536         4.32119        -1.66884    -32.5781E-03     245.960E-03    -122.700E-03    -123.290E-03    -123.268E-03     245.953E-03    -122.716E-03    -2.59196E-03    -99.0592E+06    -103.783E+06    -290.586E+06    -102.837E+06    -290.467E+06    -100.125E+06     659.864E+03         39.8406
             597     15.0379E-03     45.6560E-03         2.95845    -708.303E-03        -1.32530    -708.114E-03         2.95826        -1.32530     3.56260E-03     260.473E-03    -121.963E-03    -138.498E-03    -120.737E-03     243.902E-03    -123.154E-03     137.581E-03     103.527E+06     94.0838E+06    -5.59341E+06    -5.53109E+06     103.465E+06     94.0838E+06     469.889E+03         65.3425
             598     14.1573E-03     45.3936E-03         3.06795    -792.022E-03        -1.34955    -791.934E-03         3.06786        -1.34955    -27.0900E-03     267.910E-03    -123.191E-03    -144.821E-03    -121.260E-03     244.348E-03    -123.191E-03     189.211E-03     97.6536E+06     93.7034E+06    -12.1858E+06    -12.0886E+06     96.5698E+06     94.6900E+06     295.333E+03         63.2775
             599     13.2684E-03     45.2042E-03         3.18097    -882.607E-03        -1.37015    -882.592E-03         3.18095        -1.37015    -9.49158E-03     259.564E-03    -123.274E-03    -136.430E-03    -119.705E-03     242.838E-03    -123.274E-03     159.222E-03     94.8962E+06     92.0712E+06    -18.8267E+06    -18.7597E+06     92.0042E+06     94.8962E+06     693.689E+03         61.0807
             600     12.3852E-03     45.0019E-03         3.28561    -963.314E-03        -1.38953    -963.279E-03         3.28558        -1.38953    -20.6458E-03     255.233E-03    -123.198E-03    -132.067E-03    -118.789E-03     241.955E-03    -123.198E-03     139.147E-03     93.5995E+06     85.3657E+06    -26.1528E+06    -26.1432E+06     91.7515E+06     87.2041E+06     852.038E+03         58.4938
             601     11.5004E-03     44.8686E-03         3.38863        -1.04277        -1.40919        -1.04272         3.38858        -1.40919    -26.1396E-03     247.347E-03    -122.161E-03    -125.126E-03    -118.139E-03     241.326E-03    -123.127E-03     90.9815E-03     89.0394E+06     65.5888E+06    -33.1900E+06    -33.1767E+06     89.0260E+06     65.5888E+06     689.758E+03         55.5277
             602     10.6138E-03     44.7988E-03         3.48486        -1.11479        -1.43003        -1.11465         3.48472        -1.43003    -44.0014E-03     244.819E-03    -121.511E-03    -123.176E-03    -118.984E-03     242.292E-03    -123.176E-03     60.1829E-03     82.2032E+06     37.6082E+06    -39.5537E+06    -39.5343E+06     82.1838E+06     37.6082E+06     339.424E+03         52.5059
             603     9.73019E-03     44.7356E-03         3.57590        -1.17994        -1.45100        -1.17978         3.57574        -1.45100    -26.4733E-03     244.498E-03    -121.268E-03    -123.131E-03    -119.870E-03     243.101E-03    -123.131E-03     44.2889E-03     48.5804E+06     18.8358E+06    -45.1966E+06    -45.1658E+06     48.5497E+06     18.8358E+06    -118.633E+03         49.7938
             604     8.84394E-03     44.7016E-03         3.67038        -1.25008        -1.47120        -1.24999         3.67029        -1.47120    -11.5389E-03     244.120E-03    -121.105E-03    -123.199E-03    -120.470E-03     243.486E-03    -123.199E-03     29.8590E-03     9.72036E+06    -19.6494E+06    -52.5695E+06    -51.7752E+06    -18.2387E+06     7.51545E+06     76.4175E+03         47.5451
             605     7.95881E-03     44.6805E-03         3.74760        -1.30674        -1.49042        -1.30664         3.74750        -1.49042    -40.8757E-03     244.936E-03    -121.784E-03    -123.300E-03    -121.507E-03     244.660E-03    -123.300E-03     19.5725E-03    -3.26452E+06    -57.1282E+06    -84.4562E+06    -58.1860E+06    -83.3984E+06    -3.26452E+06     693.382E+03         45.7282
             606     7.07615E-03     44.6639E-03         3.80871        -1.34828        -1.50953        -1.34812         3.80855        -1.50953    -52.1612E-03     245.493E-03    -122.233E-03    -123.389E-03    -122.198E-03     245.399E-03    -123.330E-03     10.9278E-03    -12.7634E+06    -64.6854E+06    -134.402E+06    -64.6976E+06    -134.389E+06    -12.7634E+06     491.936E+03         44.2569
             607     6.19158E-03     44.6621E-03         3.88091        -1.40281        -1.52820        -1.40249         3.88058        -1.52820    -77.6917E-03     245.541E-03    -122.302E-03    -123.378E-03    -122.343E-03     245.523E-03    -123.319E-03     4.35671E-03    -23.8306E+06    -71.4246E+06    -173.975E+06    -71.4302E+06    -173.969E+06    -23.8306E+06     396.937E+03         43.0620
             608     5.30599E-03     44.6660E-03         3.95600        -1.46091        -1.54438        -1.46067         3.95576        -1.54438    -43.8390E-03     245.592E-03    -122.361E-03    -123.300E-03    -122.359E-03     245.590E-03    -123.300E-03     90.0760E-06    -36.2132E+06    -77.6255E+06    -208.759E+06    -77.6285E+06    -208.756E+06    -36.2132E+06     282.124E+03         42.0943
             609     4.42129E-03     44.6704E-03         4.01673        -1.50634        -1.55703        -1.50622         4.01661        -1.55703    -28.6085E-03     245.973E-03    -122.740E-03    -123.320E-03    -122.732E-03     245.965E-03    -123.320E-03    -3.15523E-03    -50.7350E+06    -84.7628E+06    -238.540E+06    -84.7657E+06    -238.537E+06    -50.7350E+06    -328.415E+03         41.3326
             610     3.53855E-03     44.6808E-03         4.05409        -1.52941        -1.56774        -1.52927         4.05395        -1.56774    -48.6728E-03     246.390E-03    -123.080E-03    -123.340E-03    -123.111E-03     246.372E-03    -123.290E-03    -5.14745E-03    -67.8408E+06    -91.9101E+06    -261.529E+06    -91.9168E+06    -261.522E+06    -67.8408E+06    -766.391E+03         40.7628
             611     2.65302E-03     44.6888E-03         4.08615        -1.54809        -1.57848        -1.54806         4.08612        -1.57848    -8.52013E-03     246.355E-03    -122.930E-03    -123.474E-03    -123.217E-03     246.335E-03    -123.167E-03    -5.41910E-03    -83.5332E+06    -97.6592E+06    -275.343E+06    -97.6642E+06    -275.338E+06    -83.5332E+06    -728.000E+03         40.3441
             612     1.76945E-03     44.6986E-03         4.12252        -1.57589        -1.59055        -1.58038         4.12210        -1.58563     42.3220E-03     246.178E-03    -122.873E-03    -123.375E-03    -123.171E-03     246.164E-03    -123.062E-03    -4.48228E-03    -94.7531E+06    -103.021E+06    -284.816E+06    -103.032E+06    -284.805E+06    -94.7531E+06    -467.662E+03         40.0383
             613     884.116E-06     44.7071E-03         4.12987        -1.52506        -1.65089        -1.65014         4.12912        -1.52506    -26.0293E-03     245.936E-03    -122.598E-03    -123.364E-03    -123.343E-03     245.931E-03    -122.614E-03    -1.67144E-03    -103.334E+06    -106.961E+06    -290.749E+06    -107.043E+06    -290.667E+06    -103.334E+06     1.34845E+06         39.8381
             614     15.0402E-03     44.3893E-03         2.91466    -728.732E-03        -1.24999    -728.583E-03         2.91451        -1.24999     223.249E-06     259.844E-03    -121.406E-03    -138.380E-03    -119.635E-03     242.879E-03    -123.186E-03     138.056E-03     103.960E+06     93.0094E+06    -6.46495E+06    -6.37129E+06     103.866E+06     93.0094E+06     1.03674E+06         65.3523
             615     14.1474E-03     44.1039E-03         3.00567    -798.171E-03        -1.26631    -798.105E-03         3.00560        -1.26631    -20.8493E-03     269.004E-03    -123.232E-03    -145.701E-03    -122.180E-03     245.482E-03    -123.232E-03     188.708E-03     97.6184E+06     92.7869E+06    -13.1572E+06    -12.9415E+06     96.6112E+06     93.5783E+06    -136.358E+03         63.3100
             616     13.2731E-03     43.9236E-03         3.08628    -862.563E-03        -1.27934    -862.556E-03         3.08627        -1.27934    -3.92190E-03     260.870E-03    -123.231E-03    -137.690E-03    -121.297E-03     244.477E-03    -123.231E-03     158.075E-03     95.0949E+06     91.8861E+06    -19.1839E+06    -19.0338E+06      91.736E+06     95.0949E+06    -955.989E+03         61.1277
             617     12.3873E-03     43.7244E-03         3.16745    -925.115E-03        -1.29225    -925.082E-03         3.16742        -1.29225    -18.6457E-03     254.668E-03    -123.130E-03    -131.584E-03    -118.248E-03     241.333E-03    -123.130E-03     139.051E-03     93.1999E+06     84.7698E+06    -25.6437E+06    -25.6343E+06     90.7731E+06     87.1872E+06    -323.923E+03         58.5248
             618     11.4981E-03     43.5930E-03         3.24983    -991.404E-03        -1.30612    -991.346E-03         3.24978        -1.30612    -28.5930E-03     247.139E-03    -122.765E-03    -124.337E-03    -118.093E-03     241.197E-03    -123.067E-03     90.4889E-03     88.8188E+06     65.6288E+06    -32.9359E+06    -32.9264E+06     88.8092E+06     65.6288E+06    -103.653E+03         55.5380
             619     10.6159E-03     43.5134E-03         3.32978        -1.05312        -1.32188        -1.05295         3.32961        -1.32188    -49.3759E-03     244.992E-03    -121.789E-03    -123.071E-03    -119.319E-03     242.522E-03    -123.071E-03     59.3337E-03     83.5778E+06     38.5188E+06    -38.2498E+06    -38.2326E+06     83.5607E+06     38.5188E+06    -127.314E+03         52.5096
             620     9.73089E-03     43.4612E-03         3.40488        -1.10729        -1.33843        -1.10711         3.40469        -1.33843    -15.5302E-03     243.851E-03    -120.718E-03    -123.051E-03    -119.375E-03     242.507E-03    -123.051E-03     43.6313E-03     48.2825E+06     19.0553E+06    -44.7887E+06    -44.7257E+06     48.2194E+06     19.0553E+06     188.563E+03         49.7999
             621     8.84378E-03     43.4234E-03         3.47798        -1.16129        -1.35495        -1.16122         3.47791        -1.35495     5.61267E-03     244.270E-03    -121.314E-03    -123.118E-03    -120.674E-03     243.630E-03    -123.118E-03     29.6471E-03     9.86645E+06    -19.0587E+06    -52.1187E+06    -51.5796E+06    -18.2525E+06     8.52113E+06     566.867E+03         47.5530
             622     7.96191E-03     43.3978E-03         3.55067        -1.21592        -1.37087        -1.21582         3.55057        -1.37087    -39.3164E-03     244.966E-03    -121.929E-03    -123.186E-03    -121.675E-03     244.712E-03    -123.186E-03     18.9639E-03    -2.64777E+06    -56.6112E+06    -83.9535E+06    -57.6789E+06    -82.8858E+06    -2.64777E+06     666.641E+03         45.7288
             623     7.07635E-03     43.3877E-03         3.62090        -1.26883        -1.38547        -1.26876         3.62082        -1.38547    -33.1293E-03     244.661E-03    -121.563E-03    -123.237E-03    -121.460E-03     244.558E-03    -123.237E-03     11.6904E-03    -13.0943E+06    -64.2397E+06    -134.490E+06    -64.2491E+06    -134.481E+06    -13.0943E+06     421.352E+03         44.2474
             624     6.19032E-03     43.3833E-03         3.67840        -1.31266        -1.39847        -1.31252         3.67826        -1.39847    -40.6231E-03     245.205E-03    -122.012E-03    -123.278E-03    -121.989E-03     245.182E-03    -123.278E-03     4.89346E-03    -23.2405E+06    -70.4531E+06    -173.946E+06    -70.4570E+06    -173.942E+06    -23.2405E+06     269.551E+03         43.0503
             625     5.30747E-03     43.3871E-03         3.71709        -1.33994        -1.41077        -1.33959         3.71674        -1.41077    -4.33481E-03     245.807E-03    -122.628E-03    -123.270E-03    -122.625E-03     245.805E-03    -123.270E-03     117.964E-06    -35.2146E+06    -76.9448E+06    -207.669E+06    -76.9462E+06    -207.668E+06    -35.2146E+06     332.277E+03         42.0915
             626     4.42301E-03     43.3930E-03         3.74911        -1.35578        -1.42421        -1.35551         3.74885        -1.42421     7.48861E-03     245.886E-03    -122.719E-03    -123.251E-03    -122.713E-03     245.879E-03    -123.251E-03    -2.77612E-03    -49.6494E+06    -84.0783E+06    -238.147E+06    -84.0787E+06    -238.147E+06    -49.6494E+06     170.285E+03         41.3401
             627     3.53693E-03     43.4018E-03         3.79333        -1.38442        -1.43880        -1.38434         3.79325        -1.43880    -34.8423E-03     246.136E-03    -122.840E-03    -123.288E-03    -122.875E-03     246.122E-03    -123.238E-03    -4.52572E-03    -66.0944E+06    -90.5806E+06    -261.680E+06    -90.5811E+06    -261.679E+06    -66.0944E+06     138.861E+03         40.7685
             628     2.65416E-03     43.4129E-03         3.84692        -1.42496        -1.45365        -1.42821         3.84688        -1.45036    -6.00763E-03     246.066E-03    -122.869E-03    -123.244E-03    -122.900E-03     246.048E-03    -123.194E-03    -5.17209E-03    -82.0528E+06    -96.6587E+06    -276.111E+06    -96.6616E+06    -276.108E+06    -82.0528E+06     203.868E+03         40.3438
             629     1.76777E-03     43.4212E-03         3.87299        -1.44330        -1.46267        -1.44874         3.87296        -1.45719    -5.45986E-03     246.233E-03    -122.994E-03    -123.312E-03    -123.084E-03     246.219E-03    -123.209E-03    -4.48893E-03    -93.0489E+06    -101.784E+06    -284.805E+06    -101.790E+06    -284.798E+06    -93.0489E+06     260.621E+03         40.0387
             630     884.878E-06     43.4272E-03         3.88444        -1.35000        -1.57070        -1.56171         3.88419        -1.35873    -41.5324E-03     246.388E-03    -123.019E-03    -123.387E-03    -123.349E-03     246.379E-03    -123.048E-03    -2.81932E-03    -102.582E+06    -106.623E+06    -290.221E+06    -106.151E+06    -290.202E+06    -103.073E+06     717.593E+03         39.8425
             631     15.0387E-03     43.1171E-03         2.83555    -726.495E-03        -1.16087    -726.358E-03         2.83541        -1.16087    -13.2805E-03     262.035E-03    -122.239E-03    -139.689E-03    -122.089E-03     245.314E-03    -123.117E-03     137.009E-03     104.779E+06     94.1537E+06    -6.37658E+06    -6.27910E+06     104.681E+06     94.1537E+06     1.89270E+06         65.3836
             632     14.1590E-03     42.8226E-03         2.91333    -788.292E-03        -1.16962    -788.181E-03         2.91322        -1.16962    -32.9934E-03     268.130E-03    -123.087E-03    -144.983E-03    -121.768E-03     244.915E-03    -123.087E-03     187.331E-03     98.7906E+06     93.9084E+06    -13.2430E+06    -13.0803E+06     97.8656E+06     94.6707E+06    -254.988E+03         63.3228
             633     13.2688E-03     42.6394E-03         2.97740    -838.589E-03        -1.17515    -838.582E-03         2.97739        -1.17515    -3.22539E-03     258.279E-03    -123.133E-03    -135.282E-03    -119.422E-03     242.419E-03    -123.133E-03     154.608E-03     93.9525E+06     90.8918E+06    -20.4981E+06    -20.3136E+06     90.7072E+06     93.9525E+06    -2.92647E+06         61.1225
             634     12.3857E-03     42.4470E-03         3.03876    -889.509E-03        -1.18116    -889.493E-03         3.03874        -1.18116    -7.61315E-03     254.641E-03    -123.054E-03    -131.602E-03    -118.643E-03     241.682E-03    -123.054E-03     137.286E-03     91.7565E+06     83.7823E+06    -27.0216E+06    -26.9328E+06     89.3692E+06     86.0807E+06    -2.61720E+06         58.5209
             635     11.5042E-03     42.3134E-03         3.09664    -937.016E-03        -1.18867    -936.997E-03         3.09662        -1.18867    -16.1515E-03     247.111E-03    -122.093E-03    -124.948E-03    -118.048E-03     241.079E-03    -122.961E-03     91.4487E-03     88.8332E+06     65.7023E+06    -32.7045E+06    -32.6826E+06     88.8113E+06     65.7023E+06    -1.14310E+06         55.5285
             636     10.6169E-03     42.2339E-03         3.15690    -981.793E-03        -1.19903    -981.625E-03         3.15674        -1.19903    -43.0967E-03     244.000E-03    -120.930E-03    -122.977E-03    -118.374E-03     241.444E-03    -122.977E-03     60.0678E-03     81.7861E+06     36.7444E+06    -40.3238E+06    -40.3061E+06     81.7684E+06     36.7444E+06    -229.236E+03         52.4937
             637     9.73009E-03     42.1861E-03         3.21921        -1.03065        -1.21053        -1.03047         3.21903        -1.21053    -24.2018E-03     244.261E-03    -121.231E-03    -122.986E-03    -119.836E-03     242.866E-03    -122.986E-03     44.6283E-03     47.6155E+06     16.4825E+06    -47.0519E+06    -47.0056E+06     47.5692E+06     16.4825E+06     585.344E+03         49.7943
             638     8.84808E-03     42.1405E-03         3.26928        -1.07043        -1.22211        -1.07023         3.26908        -1.22211    -23.6292E-03     244.333E-03    -121.499E-03    -123.033E-03    -120.789E-03     243.623E-03    -123.033E-03     31.3070E-03     10.1508E+06    -20.8019E+06    -52.7574E+06    -52.0159E+06    -17.9970E+06     6.60438E+06     1.03930E+06         47.5533
             639     7.96128E-03     42.1234E-03         3.32037        -1.10674        -1.23410        -1.10651         3.32015        -1.23410    -55.0032E-03     244.232E-03    -121.316E-03    -123.108E-03    -121.038E-03     243.954E-03    -123.108E-03     19.6206E-03    -3.40363E+06    -57.1119E+06    -83.4497E+06    -57.7784E+06    -82.7831E+06    -3.40363E+06     574.879E+03         45.7231
             640     7.07569E-03     42.1086E-03         3.37939        -1.15061        -1.24570        -1.15047         3.37925        -1.24570    -39.9159E-03     244.587E-03    -121.555E-03    -123.192E-03    -121.455E-03     244.487E-03    -123.192E-03     11.4179E-03    -13.4475E+06    -63.9354E+06    -133.413E+06    -63.9452E+06    -133.403E+06    -13.4475E+06     261.524E+03         44.2385
             641     6.19209E-03     42.1062E-03         3.42125        -1.17988        -1.25664        -1.17966         3.42104        -1.25664    -51.6678E-03     244.938E-03    -121.770E-03    -123.250E-03    -121.749E-03     244.917E-03    -123.250E-03     5.06956E-03    -24.7252E+06    -70.4194E+06    -173.107E+06    -70.4250E+06    -173.102E+06    -24.7252E+06     11.1502E+03         43.0402
             642     5.30581E-03     42.1073E-03         3.45608        -1.20311        -1.26777        -1.20277         3.45574        -1.26777    -870.794E-06     245.570E-03    -122.362E-03    -123.298E-03    -122.359E-03     245.567E-03    -123.298E-03     679.891E-06    -37.1818E+06    -77.4548E+06    -208.349E+06    -77.4588E+06    -208.345E+06    -37.1818E+06    -103.127E+03         42.0873
             643     4.42195E-03     42.1158E-03         3.49674        -1.23070        -1.28229        -1.23428         3.49637        -1.27834    -4.19037E-03     246.055E-03    -122.829E-03    -123.303E-03    -122.824E-03     246.050E-03    -123.303E-03    -2.41041E-03    -49.2047E+06    -83.5782E+06    -238.106E+06    -83.5832E+06    -238.101E+06    -49.2047E+06     374.684E+03         41.3484
             644     3.53836E-03     42.1241E-03         3.53482        -1.26094        -1.29056        -1.26469         3.53462        -1.28660    -54.8828E-03     246.108E-03    -122.799E-03    -123.301E-03    -122.784E-03     246.094E-03    -123.301E-03    -4.54176E-03    -64.2951E+06    -90.4538E+06    -261.286E+06    -90.4584E+06    -261.282E+06    -64.2951E+06     541.459E+03         40.7787
             645     2.65198E-03     42.1342E-03         3.55261        -1.27504        -1.29639        -1.27825         3.55252        -1.29310    -32.2582E-03     246.248E-03    -122.933E-03    -123.340E-03    -122.991E-03     246.227E-03    -123.261E-03    -5.54289E-03    -80.7905E+06    -96.6718E+06    -276.220E+06    -96.6739E+06    -276.218E+06    -80.7905E+06     400.775E+03         40.3473
             646     1.76948E-03     42.1435E-03         3.56655        -1.27688        -1.30557        -1.28010         3.56647        -1.30228     1.17643E-03     246.332E-03    -123.011E-03    -123.381E-03    -123.123E-03     246.317E-03    -123.253E-03    -4.53177E-03    -93.0754E+06    -101.130E+06    -284.323E+06    -101.135E+06    -284.318E+06    -93.0754E+06     414.611E+03         40.0396
             647     884.008E-06     42.1482E-03         3.60796        -1.12864        -1.48903        -1.47587         3.60790        -1.14172     8.57115E-03     246.482E-03    -122.779E-03    -123.722E-03    -123.483E-03     246.473E-03    -123.010E-03    -2.98132E-03    -100.260E+06    -104.395E+06    -289.917E+06    -103.932E+06    -289.889E+06    -100.751E+06     222.501E+03         39.8485
             648     15.0453E-03     41.8272E-03         2.74837    -717.998E-03        -1.05956    -717.802E-03         2.74818        -1.05956    -3.09488E-03     262.967E-03    -122.959E-03    -140.024E-03    -123.555E-03     246.499E-03    -122.959E-03     136.395E-03     105.383E+06     94.2140E+06    -7.19528E+06    -7.10283E+06     105.290E+06     94.2140E+06     531.576E+03         65.4010
             649     14.1595E-03     41.5491E-03         2.80475    -767.689E-03        -1.06126    -767.576E-03         2.80464        -1.06126    -34.5450E-03     267.411E-03    -122.915E-03    -144.546E-03    -121.023E-03     243.889E-03    -122.915E-03     188.929E-03     101.642E+06     95.1985E+06    -9.77167E+06    -9.73707E+06     99.6576E+06     97.1479E+06     130.770E+03         63.3058
             650     13.2759E-03     41.3613E-03         2.85390    -810.349E-03        -1.05936    -810.285E-03         2.85383        -1.05936    -18.9337E-03     257.560E-03    -123.015E-03    -134.664E-03    -118.324E-03     241.220E-03    -123.015E-03     156.675E-03     96.6053E+06     92.3279E+06    -16.0899E+06    -15.9622E+06     92.2001E+06     96.6053E+06    -581.448E+03         61.0828
             651     12.3893E-03     41.1685E-03         2.89109    -843.039E-03        -1.05811    -842.922E-03         2.89097        -1.05811    -31.4996E-03     253.988E-03    -122.981E-03    -131.047E-03    -117.987E-03     240.927E-03    -122.981E-03     137.869E-03     92.5441E+06     83.5501E+06    -25.2008E+06    -25.0798E+06     90.0950E+06     85.8782E+06    -1.27862E+06         58.4915
             652     11.5016E-03     41.0329E-03         2.92851    -872.940E-03        -1.05916    -872.806E-03         2.92838        -1.05916    -38.3493E-03     246.568E-03    -121.658E-03    -124.874E-03    -117.423E-03     240.375E-03    -122.916E-03     92.1598E-03     87.2046E+06     62.0148E+06    -34.1852E+06    -34.1630E+06     87.1824E+06     62.0148E+06    -1.51581E+06         55.5052
             653     10.6147E-03     40.9622E-03         2.97089    -909.921E-03        -1.06354    -909.667E-03         2.97064        -1.06354    -55.5772E-03     243.874E-03    -120.854E-03    -122.937E-03    -118.206E-03     241.227E-03    -122.937E-03     61.4373E-03     79.9344E+06     33.6649E+06    -42.1772E+06    -42.1654E+06     79.9226E+06     33.6649E+06    -293.691E+03         52.4715
             654     9.73154E-03     40.8999E-03         3.01039    -945.419E-03        -1.06919    -945.228E-03         3.01020        -1.06919    -32.3984E-03     244.404E-03    -121.388E-03    -122.974E-03    -119.887E-03     242.903E-03    -122.974E-03     45.9803E-03     47.1696E+06     15.0551E+06    -48.3998E+06    -48.3683E+06     47.1380E+06     15.0551E+06     862.527E+03         49.7847
             655     8.84485E-03     40.8667E-03         3.04338    -972.669E-03        -1.07543    -972.413E-03         3.04312        -1.07543    -39.6413E-03     244.217E-03    -121.364E-03    -123.055E-03    -120.657E-03     243.509E-03    -123.055E-03     31.5467E-03     9.06717E+06    -21.1988E+06    -54.6707E+06    -53.9423E+06    -17.5582E+06     4.69815E+06     523.084E+03         47.5544
             656     7.96052E-03     40.8410E-03         3.07360    -993.282E-03        -1.08272    -993.026E-03         3.07334        -1.08272    -46.0884E-03     244.412E-03    -121.510E-03    -123.110E-03    -121.212E-03     244.114E-03    -123.110E-03     20.1623E-03    -4.98712E+06    -57.3616E+06    -84.1061E+06    -59.1607E+06    -82.3070E+06    -4.98712E+06     122.923E+03         45.7235
             657     7.07765E-03     40.8321E-03         3.10103        -1.01036        -1.09127        -1.01011         3.10077        -1.09127    -46.0057E-03     244.745E-03    -121.702E-03    -123.190E-03    -121.601E-03     244.644E-03    -123.190E-03     11.7374E-03    -14.4993E+06    -64.9697E+06    -133.142E+06    -64.9797E+06    -133.132E+06    -14.4993E+06     251.954E+03         44.2350
             658     6.19082E-03     40.8272E-03         3.13487        -1.03362        -1.10063        -1.03326         3.13452        -1.10063    -71.6234E-03     244.946E-03    -121.769E-03    -123.269E-03    -121.741E-03     244.918E-03    -123.269E-03     5.75639E-03    -26.7554E+06    -71.1853E+06    -172.845E+06    -71.1901E+06    -172.840E+06    -26.7554E+06    -80.8316E+03         43.0373
             659     5.30671E-03     40.8305E-03         3.17847        -1.06709        -1.10918        -1.06697         3.17834        -1.10918    -22.5288E-03     245.507E-03    -122.237E-03    -123.334E-03    -122.233E-03     245.503E-03    -123.334E-03     677.827E-06    -38.1415E+06    -77.0586E+06    -208.351E+06    -77.0618E+06    -208.348E+06    -38.1415E+06    -402.681E+03         42.0900
             660     4.42155E-03     40.8351E-03         3.21252        -1.09229        -1.11940        -1.09608         3.21235        -1.11544    -15.3350E-03     246.064E-03    -122.738E-03    -123.362E-03    -122.731E-03     246.057E-03    -123.362E-03    -2.91854E-03    -49.9304E+06    -84.3680E+06    -239.281E+06    -84.3739E+06    -239.275E+06    -49.9304E+06     363.154E+03         41.3570
             661     3.53715E-03     40.8468E-03         3.22577        -1.10379        -1.12406        -1.10758         3.22560        -1.12011    -28.8053E-03     246.381E-03    -122.972E-03    -123.424E-03    -123.023E-03     246.365E-03    -123.357E-03    -4.74372E-03    -65.1722E+06    -91.6258E+06    -260.963E+06    -91.6326E+06    -260.957E+06    -65.1722E+06     868.437E+03         40.7873
             662     2.65397E-03     40.8556E-03         3.23516        -1.10582        -1.12924        -1.10931         3.23506        -1.12565    -8.95955E-03     246.339E-03    -122.921E-03    -123.445E-03    -123.047E-03     246.320E-03    -123.300E-03    -5.29459E-03    -80.9916E+06    -97.4479E+06    -275.666E+06    -97.4496E+06    -275.664E+06    -80.9916E+06     239.214E+03         40.3525
             663     1.76840E-03     40.8647E-03         3.26721        -1.11381        -1.14375        -1.12688         3.26700        -1.13047     32.5138E-03     246.236E-03    -122.839E-03    -123.421E-03    -122.904E-03     246.221E-03    -123.342E-03    -4.50623E-03    -92.8473E+06    -101.343E+06    -283.249E+06    -101.358E+06    -283.233E+06    -92.8473E+06    -422.968E+03         40.0456
             664     883.906E-06     40.8728E-03         3.28301    -896.389E-03        -1.36881        -1.36406         3.28262    -900.743E-03    -11.1252E-03     246.769E-03    -122.885E-03    -123.888E-03    -123.543E-03     246.764E-03    -123.224E-03    -1.17756E-03    -100.202E+06    -104.969E+06    -289.641E+06    -103.684E+06    -289.615E+06    -101.513E+06    -1.11005E+06         39.8621
             665     15.0456E-03     40.5474E-03         2.66811    -720.334E-03    -949.669E-03    -720.105E-03         2.66788    -949.669E-03    -8.16619E-03     261.376E-03    -122.694E-03    -138.734E-03    -121.934E-03     244.732E-03    -122.850E-03     137.291E-03     104.753E+06     93.5741E+06    -7.06968E+06    -6.91343E+06     104.596E+06     93.5741E+06    -1.46982E+06         65.3746
             666     14.1598E-03     40.2713E-03         2.69764    -754.220E-03    -943.802E-03    -754.072E-03         2.69750    -943.802E-03    -33.4232E-03     267.026E-03    -122.917E-03    -144.118E-03    -120.244E-03     243.152E-03    -122.917E-03     190.140E-03     100.524E+06     94.1639E+06    -11.3772E+06    -11.2445E+06     98.7476E+06     95.8078E+06    -1.27065E+06         63.2663
             667     13.2718E-03     40.0824E-03         2.72162    -781.163E-03    -934.233E-03    -781.093E-03         2.72155    -934.233E-03    -23.2779E-03     258.184E-03    -123.047E-03    -135.227E-03    -118.229E-03     241.186E-03    -123.047E-03     159.930E-03     96.3595E+06     92.7812E+06    -16.8945E+06    -16.8038E+06     92.6905E+06     96.3595E+06    -135.545E+03         61.0437
             668     12.3870E-03     39.8900E-03         2.73762    -797.877E-03    -925.640E-03    -797.751E-03         2.73749    -925.640E-03    -39.8194E-03     253.870E-03    -123.055E-03    -130.850E-03    -117.302E-03     240.323E-03    -123.055E-03     140.161E-03     93.5842E+06     85.3824E+06    -24.3655E+06    -24.2587E+06     91.5431E+06     87.3168E+06     882.237E+03         58.4644
             669     11.5015E-03     39.7575E-03         2.74622    -810.110E-03    -919.929E-03    -809.957E-03         2.74607    -919.929E-03    -44.3247E-03     247.054E-03    -122.342E-03    -124.646E-03    -117.654E-03     240.722E-03    -123.002E-03     93.2802E-03      87.782E+06     62.4196E+06    -33.6431E+06    -33.5971E+06     87.7360E+06     62.4196E+06     899.581E+03         55.4916
             670     10.6170E-03     39.6816E-03         2.75753    -822.764E-03    -918.434E-03    -822.530E-03         2.75730    -918.434E-03    -54.9261E-03     244.754E-03    -121.689E-03    -122.956E-03    -118.975E-03     242.039E-03    -122.956E-03     62.3133E-03     79.4685E+06     32.4739E+06    -42.5418E+06    -42.5277E+06     79.4543E+06     32.4739E+06     450.486E+03         52.4672
             671     9.72910E-03     39.6240E-03         2.77468    -839.692E-03    -919.306E-03    -839.519E-03         2.77450    -919.306E-03    -20.3688E-03     244.458E-03    -121.418E-03    -122.982E-03    -119.937E-03     242.976E-03    -122.982E-03     45.5315E-03     46.5223E+06     15.2721E+06    -49.0212E+06    -48.9295E+06     46.4307E+06     15.2721E+06     1.37970E+03         49.7824
             672     8.84588E-03     39.5860E-03         2.79842    -862.016E-03    -921.227E-03    -861.845E-03         2.79825    -921.227E-03    -21.7274E-03     244.143E-03    -121.122E-03    -123.085E-03    -120.471E-03     243.492E-03    -123.085E-03     30.1888E-03     9.30623E+06    -19.1356E+06    -53.7293E+06    -53.1772E+06    -16.3371E+06     5.95567E+06    -460.630E+03         47.5515
             673     7.96134E-03     39.5639E-03         2.81776    -877.577E-03    -923.900E-03    -877.392E-03         2.81758    -923.900E-03    -40.0926E-03     244.119E-03    -121.057E-03    -123.173E-03    -120.765E-03     243.827E-03    -123.173E-03     20.2634E-03    -5.78489E+06    -57.0126E+06    -84.8670E+06    -59.2456E+06    -82.6340E+06    -5.78489E+06    -427.099E+03         45.7219
             674     7.07410E-03     39.5528E-03         2.82837    -883.153E-03    -927.712E-03    -882.830E-03         2.82805    -927.712E-03    -54.0392E-03     244.891E-03    -121.735E-03    -123.302E-03    -121.617E-03     244.773E-03    -123.302E-03     12.4931E-03    -14.5602E+06    -65.2738E+06    -133.662E+06    -65.3091E+06    -133.626E+06    -14.5602E+06    -259.393E+03         44.2372
             675     6.19125E-03     39.5504E-03         2.84772    -896.119E-03    -932.595E-03    -895.811E-03         2.84741    -932.595E-03    -60.2845E-03     245.650E-03    -122.403E-03    -123.362E-03    -122.374E-03     245.622E-03    -123.362E-03     5.80877E-03    -25.6227E+06    -71.5075E+06    -171.791E+06    -71.5099E+06    -171.789E+06    -25.6227E+06     128.785E+03         43.0465
             676     5.30631E-03     39.5512E-03         2.87138    -913.351E-03    -937.499E-03    -913.304E-03         2.87133    -937.499E-03    -7.17512E-03     245.667E-03    -122.397E-03    -123.353E-03    -122.393E-03     245.663E-03    -123.353E-03     847.673E-06    -39.1049E+06    -78.6883E+06    -209.050E+06    -78.6921E+06    -209.046E+06    -39.1049E+06     318.503E+03         42.1023
             677     4.42223E-03     39.5594E-03         2.88289    -918.002E-03    -942.857E-03    -917.776E-03         2.88266    -942.857E-03    -13.3294E-03     245.913E-03    -122.571E-03    -123.362E-03    -122.564E-03     245.906E-03    -123.362E-03    -2.75214E-03    -51.7683E+06    -84.9221E+06    -240.025E+06    -84.9278E+06    -240.020E+06    -51.7683E+06     231.058E+03         41.3642
             678     3.53725E-03     39.5666E-03         2.89818    -928.562E-03    -951.405E-03    -930.833E-03         2.89785    -948.805E-03    -42.0904E-03     246.270E-03    -122.822E-03    -123.470E-03    -122.873E-03     246.254E-03    -123.404E-03    -4.68864E-03    -65.9086E+06    -90.3891E+06    -260.318E+06    -90.3929E+06    -260.315E+06    -65.9086E+06     231.282E+03         40.7905
             679     2.65264E-03     39.5774E-03         2.93331    -944.330E-03    -969.465E-03    -963.393E-03         2.93315    -950.240E-03    -9.86351E-03     246.366E-03    -122.946E-03    -123.485E-03    -122.996E-03     246.349E-03    -123.418E-03    -5.04068E-03    -80.3610E+06    -95.3662E+06    -275.544E+06    -95.3723E+06    -275.538E+06    -80.3610E+06    -226.643E+03         40.3569
             680     1.76830E-03     39.5880E-03         2.94184    -942.369E-03    -969.315E-03    -968.534E-03         2.94168    -942.996E-03     22.3623E-03     246.615E-03    -123.121E-03    -123.531E-03    -123.192E-03     246.602E-03    -123.448E-03    -4.22197E-03    -92.0932E+06    -100.175E+06    -283.212E+06    -100.196E+06    -283.192E+06    -92.0932E+06    -816.657E+03         40.0529
             681     883.997E-06     39.5923E-03         2.91219    -656.677E-03        -1.21900        -1.21795         2.91176    -657.303E-03    -39.4063E-03     246.888E-03    -123.180E-03    -123.709E-03    -123.566E-03     246.883E-03    -123.318E-03    -1.34937E-03    -100.465E+06    -105.268E+06    -288.938E+06    -103.973E+06    -288.921E+06    -101.776E+06    -340.398E+03         39.8722
             682     15.0449E-03     39.2703E-03         2.57723    -722.048E-03    -833.716E-03    -721.882E-03         2.57707    -833.716E-03    -20.4886E-03     260.635E-03    -122.405E-03    -138.156E-03    -120.813E-03     243.752E-03    -122.866E-03     138.636E-03     105.391E+06     94.5238E+06    -5.32291E+06    -5.13558E+06     105.204E+06     94.5238E+06    -1.09042E+06         65.3390
             683     14.1580E-03     38.9921E-03         2.57843    -736.431E-03    -820.425E-03    -736.281E-03         2.57828    -820.425E-03    -33.3449E-03     266.893E-03    -122.995E-03    -143.897E-03    -119.919E-03     242.915E-03    -122.995E-03     190.323E-03     99.2680E+06     93.9180E+06    -11.8047E+06    -11.6342E+06     98.0060E+06     95.0095E+06    -1.03753E+06         63.2358
             684     13.2732E-03     38.8060E-03         2.57195    -740.821E-03    -803.980E-03    -740.805E-03         2.57193    -803.980E-03    -10.6454E-03     257.778E-03    -123.143E-03    -134.810E-03    -117.763E-03     240.731E-03    -123.143E-03     159.951E-03     93.7983E+06     91.2725E+06    -19.9805E+06    -19.8975E+06     91.6668E+06     93.3209E+06    -716.828E+03         61.0244
             685     12.3845E-03     38.6115E-03         2.56814    -742.761E-03    -791.414E-03    -745.103E-03         2.56812    -789.050E-03    -14.2642E-03     254.186E-03    -123.169E-03    -131.079E-03    -117.566E-03     240.673E-03    -123.169E-03     139.775E-03     91.2110E+06     83.4660E+06    -28.4530E+06    -28.3134E+06     90.1145E+06     84.4230E+06    -488.707E+03         58.4575
             686     11.4983E-03     38.4795E-03         2.56106    -744.109E-03    -782.521E-03    -749.557E-03         2.56094    -776.954E-03    -31.8797E-03     247.853E-03    -122.820E-03    -124.956E-03    -118.487E-03     241.664E-03    -123.101E-03     92.6678E-03     87.0491E+06     63.7041E+06    -35.6919E+06    -35.5843E+06     86.9415E+06     63.7041E+06     682.884E+03         55.4931
             687     10.6131E-03     38.4006E-03         2.54592    -735.307E-03    -774.297E-03    -740.026E-03         2.54575    -769.411E-03    -44.7240E-03     245.216E-03    -122.125E-03    -122.991E-03    -119.481E-03     242.573E-03    -122.991E-03     61.3664E-03     80.7910E+06     35.7917E+06    -41.0962E+06    -41.0642E+06     80.7590E+06     35.7917E+06     822.323E+03         52.4683
             688     9.73186E-03     38.3454E-03         2.54270    -734.692E-03    -770.456E-03    -740.063E-03         2.54260    -764.984E-03    -13.9451E-03     244.241E-03    -121.191E-03    -123.012E-03    -119.738E-03     242.788E-03    -123.012E-03     45.4669E-03     47.5091E+06     16.9043E+06    -46.3018E+06    -46.2230E+06     47.4303E+06     16.9043E+06    -917.386E+03         49.7759
             689     8.84596E-03     38.3059E-03         2.54789    -743.373E-03    -769.224E-03    -750.366E-03         2.54762    -761.963E-03    -30.5210E-03     244.007E-03    -120.841E-03    -123.157E-03    -120.123E-03     243.289E-03    -123.157E-03     31.4419E-03     9.51155E+06    -19.5767E+06    -52.6763E+06    -52.0225E+06    -17.5906E+06     6.87172E+06    -837.906E+03         47.5407
             690     7.95892E-03     38.2897E-03         2.54531    -748.015E-03    -763.766E-03    -751.314E-03         2.54492    -760.085E-03    -66.8325E-03     244.467E-03    -121.250E-03    -123.254E-03    -120.963E-03     244.180E-03    -123.254E-03     20.0066E-03    -4.12540E+06    -56.6046E+06    -84.1580E+06    -58.2016E+06    -82.5610E+06    -4.12540E+06     10.8972E+03         45.7164
             691     7.07475E-03     38.2728E-03         2.54632    -749.353E-03    -761.973E-03    -751.661E-03         2.54604    -759.382E-03    -54.0234E-03     245.062E-03    -121.797E-03    -123.366E-03    -121.688E-03     244.953E-03    -123.366E-03     11.9326E-03    -14.1004E+06    -65.3941E+06    -133.452E+06    -65.4547E+06    -133.392E+06    -14.1004E+06    -39.2224E+03         44.2387
             692     6.19030E-03     38.2697E-03         2.55202    -750.184E-03    -764.237E-03    -754.620E-03         2.55182    -759.599E-03    -44.7458E-03     245.676E-03    -122.355E-03    -123.415E-03    -122.330E-03     245.651E-03    -123.415E-03     5.43710E-03    -25.0041E+06    -72.2755E+06    -172.104E+06    -72.2851E+06    -172.094E+06    -25.0041E+06     336.572E+03         43.0527
             693     5.30646E-03     38.2739E-03         2.55234    -749.021E-03    -764.786E-03    -752.710E-03         2.55220    -760.960E-03    -7.10872E-03     245.831E-03    -122.505E-03    -123.419E-03    -122.502E-03     245.828E-03    -123.419E-03     869.945E-06    -38.4744E+06    -78.7968E+06    -208.645E+06    -78.8058E+06    -208.636E+06    -38.4744E+06     644.683E+03         42.1114
             694     4.42118E-03     38.2801E-03         2.56117    -750.285E-03    -774.721E-03    -761.915E-03         2.56071    -762.634E-03    -36.6502E-03     245.943E-03    -122.526E-03    -123.443E-03    -122.522E-03     245.939E-03    -123.443E-03    -2.27493E-03    -53.0934E+06    -85.6065E+06    -238.998E+06    -85.6131E+06    -238.991E+06    -53.0934E+06    -237.981E+03         41.3719
             695     3.53733E-03     38.2898E-03         2.57542    -756.403E-03    -784.473E-03    -778.423E-03         2.57490    -761.938E-03    -67.8520E-03     246.258E-03    -122.783E-03    -123.486E-03    -122.770E-03     246.245E-03    -123.486E-03    -4.31181E-03    -68.1323E+06    -91.0762E+06    -260.632E+06    -91.0842E+06    -260.624E+06    -68.1323E+06    -994.410E+03         40.7986
             696     2.65200E-03     38.3000E-03         2.57276    -748.270E-03    -784.047E-03    -773.198E-03         2.57263    -758.987E-03    -23.7943E-03     246.709E-03    -123.181E-03    -123.592E-03    -123.264E-03     246.690E-03    -123.490E-03    -5.28648E-03    -82.0374E+06    -95.9033E+06    -275.594E+06    -95.9152E+06    -275.583E+06    -82.0374E+06    -618.578E+03         40.3672
             697     1.76810E-03     38.3079E-03         2.56497    -741.107E-03    -772.323E-03    -753.822E-03         2.56464    -759.285E-03     14.7721E-03     247.035E-03    -123.358E-03    -123.737E-03    -123.696E-03     247.020E-03    -123.383E-03    -4.69416E-03    -92.6137E+06    -100.706E+06    -283.725E+06    -100.719E+06    -283.713E+06    -92.6137E+06    -3.40847E+03         40.0605
             698     884.726E-06     38.3135E-03         2.57038    -444.007E-03        -1.08031        -1.07211         2.56964    -451.468E-03    -31.5646E-03     246.454E-03    -122.721E-03    -123.743E-03    -123.737E-03     246.448E-03    -122.721E-03    -2.35915E-03    -100.787E+06    -104.913E+06    -289.673E+06    -104.576E+06    -289.668E+06    -101.130E+06    -8.72644E+03         39.8719
             699     15.0429E-03     37.9923E-03         2.48038    -689.962E-03    -751.964E-03    -726.228E-03         2.48023    -715.554E-03    -57.7867E-06     260.874E-03    -122.408E-03    -138.366E-03    -120.774E-03     243.839E-03    -122.965E-03     139.288E-03     106.299E+06     94.2039E+06    -5.73102E+06    -5.53720E+06     106.105E+06     94.2039E+06    -462.082E+03         65.3267
             700     14.1575E-03     37.7134E-03         2.45803    -678.409E-03    -737.408E-03    -720.388E-03         2.45797    -695.364E-03    -19.3985E-03     267.054E-03    -123.071E-03    -143.949E-03    -120.038E-03     243.143E-03    -123.071E-03     189.866E-03     99.3326E+06     93.5625E+06    -12.1785E+06    -12.0101E+06     98.0966E+06     94.6300E+06    -494.785E+03         63.2381
             701     13.2691E-03     37.5303E-03         2.42468    -661.171E-03    -717.175E-03    -705.956E-03         2.42465    -672.364E-03    -9.62782E-03     258.266E-03    -123.195E-03    -135.266E-03    -118.426E-03     241.426E-03    -123.195E-03     159.182E-03     93.7447E+06     91.3864E+06    -19.8717E+06    -19.7922E+06     91.8113E+06     93.2405E+06     53.9514E+03         61.0370
             702     12.3842E-03     37.3326E-03         2.39008    -645.425E-03    -694.785E-03    -689.062E-03         2.39004    -651.111E-03    -16.6595E-03     254.877E-03    -123.181E-03    -131.866E-03    -118.522E-03     241.533E-03    -123.181E-03     139.001E-03     90.8929E+06     83.0763E+06    -29.0035E+06    -28.9000E+06     90.0030E+06     83.8628E+06    -360.280E+03         58.4677
             703     11.5007E-03     37.1989E-03         2.36050    -633.192E-03    -675.856E-03    -675.554E-03         2.36020    -633.192E-03    -48.0404E-03     247.783E-03    -122.596E-03    -125.167E-03    -118.728E-03     241.823E-03    -123.076E-03     91.0600E-03     86.5719E+06     63.0790E+06    -37.0935E+06    -36.9120E+06     86.3904E+06     63.0790E+06    -1.61680E+06         55.4914
             704     10.6174E-03     37.1208E-03         2.34148    -619.766E-03    -666.868E-03    -666.547E-03         2.34116    -619.766E-03    -52.7806E-03     244.405E-03    -121.346E-03    -122.979E-03    -118.769E-03     241.828E-03    -122.979E-03     60.5370E-03     80.1158E+06     35.4035E+06    -42.2111E+06    -42.0897E+06     79.9944E+06     35.4035E+06    -2.16946E+06         52.4561
             705     9.72872E-03     37.0666E-03         2.31885    -608.961E-03    -655.918E-03    -655.872E-03         2.31880    -608.961E-03    -19.9549E-03     243.707E-03    -120.621E-03    -123.070E-03    -119.199E-03     242.284E-03    -123.070E-03     44.8601E-03     47.5247E+06     16.9115E+06    -45.9761E+06    -45.9440E+06     47.4926E+06     16.9115E+06    -1.30864E+06         49.7619
             706     8.84229E-03     37.0304E-03         2.28555    -600.556E-03    -631.661E-03    -631.454E-03         2.28534    -600.556E-03    -37.0522E-03     244.281E-03    -121.042E-03    -123.233E-03    -120.348E-03     243.587E-03    -123.233E-03     30.9092E-03     9.43097E+06    -21.0598E+06    -53.3899E+06    -52.4767E+06    -19.1319E+06     6.58993E+06    -228.900E+03         47.5303
             707     7.96027E-03     37.0056E-03         2.26560    -594.917E-03    -615.562E-03    -615.245E-03         2.26528    -594.917E-03    -52.9554E-03     244.976E-03    -121.721E-03    -123.281E-03    -121.446E-03     244.701E-03    -123.281E-03     19.6094E-03    -3.86029E+06    -58.2223E+06    -84.0872E+06    -59.2825E+06    -83.0270E+06    -3.86029E+06     615.081E+03         45.7110
             708     7.07595E-03     36.9976E-03         2.26271    -590.623E-03    -615.529E-03    -615.394E-03         2.26257    -590.623E-03    -31.4129E-03     245.104E-03    -121.823E-03    -123.364E-03    -121.716E-03     244.996E-03    -123.364E-03     12.0560E-03    -14.0393E+06    -64.9728E+06    -132.331E+06    -65.0120E+06    -132.292E+06    -14.0393E+06     714.893E+03         44.2352
             709     6.18967E-03     36.9904E-03         2.25618    -586.772E-03    -611.028E-03    -610.694E-03         2.25584    -586.772E-03    -46.7460E-03     245.235E-03    -121.866E-03    -123.444E-03    -121.838E-03     245.208E-03    -123.444E-03     5.45084E-03    -25.4442E+06    -71.8008E+06    -173.538E+06    -71.8170E+06    -173.522E+06    -25.4442E+06     340.849E+03         43.0485
             710     5.30531E-03     36.9951E-03         2.24735    -583.629E-03    -604.794E-03    -604.271E-03         2.24683    -583.629E-03    -5.70397E-03     245.837E-03    -122.379E-03    -123.509E-03    -122.377E-03     245.835E-03    -123.509E-03     625.972E-06    -37.1729E+06    -78.4108E+06    -207.981E+06    -78.4269E+06    -207.965E+06    -37.1729E+06     654.554E+03         42.1123
             711     4.42141E-03     37.0017E-03         2.24680    -580.030E-03    -608.180E-03    -607.720E-03         2.24634    -580.030E-03    -4.41817E-03     246.284E-03    -122.744E-03    -123.550E-03    -122.739E-03     246.278E-03    -123.550E-03    -2.45507E-03    -51.7620E+06    -86.0621E+06    -236.717E+06    -86.0734E+06    -236.706E+06    -51.7620E+06     66.5092E+03         41.3814
             712     3.53573E-03     37.0107E-03         2.23293    -574.910E-03    -603.649E-03    -603.373E-03         2.23265    -574.910E-03    -39.5499E-03     246.641E-03    -123.106E-03    -123.543E-03    -123.108E-03     246.625E-03    -123.525E-03    -4.66799E-03    -68.9862E+06    -93.5881E+06    -261.063E+06    -93.5954E+06    -261.056E+06    -68.9862E+06    -855.023E+03         40.8118
             713     2.65282E-03     37.0201E-03         2.19706    -559.226E-03    -584.039E-03    -570.008E-03         2.19697    -573.163E-03    -19.4572E-03     246.896E-03    -123.378E-03    -123.557E-03    -123.478E-03     246.876E-03    -123.437E-03    -5.32049E-03    -84.3957E+06    -99.0354E+06    -275.505E+06    -99.0484E+06    -275.492E+06    -84.3957E+06    -610.777E+03         40.3778
             714     1.76919E-03     37.0286E-03         2.18982    -558.531E-03    -580.515E-03    -557.903E-03         2.18920    -580.515E-03     37.9136E-03     246.832E-03    -123.295E-03    -123.593E-03    -123.561E-03     246.818E-03    -123.313E-03    -4.45641E-03    -94.6076E+06    -103.836E+06    -284.628E+06    -103.850E+06    -284.615E+06    -94.6076E+06    -849.955E+03         40.0659
             715     884.859E-06     37.0355E-03         2.22311    -248.571E-03    -927.966E-03    -918.137E-03         2.22133    -256.617E-03    -34.2836E-03     246.340E-03    -122.755E-03    -123.594E-03    -123.392E-03     246.334E-03    -122.952E-03    -2.67759E-03    -102.402E+06    -106.836E+06    -290.654E+06    -106.505E+06    -290.643E+06    -102.745E+06    -1.32977E+06         39.8751
             716     15.0420E-03     36.7158E-03         2.37437    -598.024E-03    -714.635E-03    -714.436E-03         2.37417    -598.024E-03     1.62426E-03     260.865E-03    -122.403E-03    -138.457E-03    -120.730E-03     243.780E-03    -123.046E-03     138.611E-03     106.741E+06     94.2152E+06    -6.11179E+06    -5.88041E+06     106.509E+06     94.2152E+06     420.427E+03         65.3314
             717     14.1547E-03     36.4345E-03         2.33902    -571.573E-03    -703.442E-03    -703.340E-03         2.33892    -571.573E-03    -23.2145E-03     267.720E-03    -123.124E-03    -144.520E-03    -120.655E-03     243.855E-03    -123.124E-03     189.718E-03     99.6496E+06     93.6179E+06    -12.9250E+06    -12.6653E+06     98.6850E+06     94.3229E+06    -288.514E+03         63.2579
             718     13.2714E-03     36.2527E-03         2.28816    -542.097E-03    -679.535E-03    -679.483E-03         2.28810    -542.097E-03    -16.9226E-03     259.219E-03    -123.212E-03    -136.127E-03    -119.614E-03     242.706E-03    -123.212E-03     158.072E-03     93.1636E+06     91.4993E+06    -20.9470E+06    -20.8384E+06     91.4176E+06     93.1367E+06    -576.130E+03         61.0599
             719     12.3865E-03     36.0516E-03         2.22536    -514.610E-03    -642.658E-03    -642.595E-03         2.22529    -514.610E-03    -20.9386E-03     255.078E-03    -123.131E-03    -132.086E-03    -118.753E-03     241.746E-03    -123.131E-03     139.332E-03     92.1371E+06     84.9327E+06    -27.3903E+06    -27.3152E+06     91.1297E+06     85.8651E+06    -272.747E+03         58.4736
             720     11.5011E-03     35.9193E-03         2.17013    -490.987E-03    -610.256E-03    -610.011E-03         2.16988    -490.987E-03    -37.2425E-03     247.331E-03    -122.214E-03    -125.054E-03    -118.142E-03     241.235E-03    -123.030E-03     91.7911E-03     88.9425E+06     64.3192E+06    -34.2423E+06    -34.0795E+06     88.7796E+06     64.3192E+06    -1.26566E+06         55.4824
             721     10.6138E-03     35.8444E-03         2.13000    -472.214E-03    -585.614E-03    -585.382E-03         2.12977    -472.214E-03    -37.6056E-03     244.097E-03    -121.018E-03    -122.983E-03    -118.439E-03     241.518E-03    -122.983E-03     60.5244E-03     79.6250E+06     32.8462E+06    -42.6450E+06    -42.4893E+06     79.4693E+06     32.8462E+06    -2.65571E+06         52.4457
             722     9.72951E-03     35.7897E-03         2.08544    -456.401E-03    -557.666E-03    -557.626E-03         2.08540    -456.401E-03    -16.2045E-03     244.076E-03    -120.980E-03    -123.066E-03    -119.587E-03     242.683E-03    -123.066E-03     44.3130E-03     45.2860E+06     13.4008E+06    -49.3188E+06    -49.2569E+06     45.2241E+06     13.4008E+06    -2.04162E+06         49.7551
             723     8.84659E-03     35.7495E-03         2.03907    -443.139E-03    -525.050E-03    -524.823E-03         2.03885    -443.139E-03    -37.3316E-03     244.352E-03    -121.137E-03    -123.184E-03    -120.485E-03     243.700E-03    -123.184E-03     30.1031E-03     8.30102E+06    -22.1856E+06    -55.2250E+06    -54.3428E+06    -19.6100E+06     4.84330E+06    -393.261E+03         47.5250
             724     7.95896E-03     35.7295E-03         2.00569    -432.354E-03    -501.091E-03    -500.673E-03         2.00527    -432.354E-03    -53.5905E-03     244.474E-03    -121.240E-03    -123.242E-03    -120.971E-03     244.204E-03    -123.242E-03     19.3612E-03    -4.74324E+06    -58.4408E+06    -84.9590E+06    -59.4807E+06    -83.9190E+06    -4.74324E+06     85.6051E+03         45.7067
             725     7.07373E-03     35.7156E-03         1.97700    -423.260E-03    -483.182E-03    -482.812E-03         1.97663    -423.260E-03    -50.2240E-03     245.049E-03    -121.729E-03    -123.378E-03    -121.628E-03     244.948E-03    -123.378E-03     11.5378E-03    -14.0083E+06    -65.1264E+06    -132.854E+06    -65.1334E+06    -132.847E+06    -14.0083E+06     391.187E+03         44.2344
             726     6.19104E-03     35.7156E-03         1.94999    -415.534E-03    -464.451E-03    -463.952E-03         1.94949    -415.534E-03    -63.1295E-03     245.342E-03    -121.907E-03    -123.468E-03    -121.883E-03     245.318E-03    -123.468E-03     5.27443E-03    -25.0056E+06    -71.5410E+06    -173.413E+06    -71.5563E+06    -173.398E+06    -25.0056E+06     619.806E+03         43.0489
             727     5.30483E-03     35.7153E-03         1.93140    -409.042E-03    -448.911E-03    -448.319E-03         1.93081    -409.042E-03    -6.85804E-03     245.796E-03    -122.318E-03    -123.530E-03    -122.314E-03     245.792E-03    -123.530E-03     352.008E-06    -37.3014E+06    -78.6992E+06    -208.286E+06    -78.7255E+06    -208.260E+06    -37.3014E+06     254.663E+03         42.1127
             728     4.42024E-03     35.7230E-03         1.91078    -403.661E-03    -433.515E-03    -432.979E-03         1.91024    -403.661E-03    -1.68888E-03     246.526E-03    -123.003E-03    -123.569E-03    -122.995E-03     246.518E-03    -123.569E-03    -3.07089E-03    -49.6416E+06    -85.2411E+06    -235.861E+06    -85.2694E+06    -235.832E+06    -49.6416E+06     530.626E+03         41.3847
             729     3.53772E-03     35.7316E-03         1.88545    -400.190E-03    -414.581E-03    -413.907E-03         1.88478    -400.190E-03    -68.0938E-03     246.712E-03    -123.207E-03    -123.538E-03    -123.209E-03     246.696E-03    -123.520E-03    -4.74741E-03    -66.1102E+06    -93.0686E+06    -259.950E+06    -93.0809E+06    -259.938E+06    -66.1102E+06     805.788E+03         40.8150
             730     2.65266E-03     35.7415E-03         1.86825    -395.166E-03    -410.245E-03    -406.550E-03         1.86777    -398.386E-03    -54.2534E-03     246.600E-03    -123.176E-03    -123.473E-03    -123.177E-03     246.583E-03    -123.455E-03    -4.95774E-03    -84.0928E+06    -100.325E+06    -275.062E+06    -100.333E+06    -275.055E+06    -84.0928E+06    -59.4685E+03         40.3772
             731     1.76789E-03     35.7499E-03         1.85808    -390.090E-03    -414.539E-03    -409.303E-03         1.85727    -394.522E-03     34.1819E-03     246.653E-03    -123.216E-03    -123.497E-03    -123.215E-03     246.641E-03    -123.486E-03    -4.14479E-03    -97.5217E+06    -105.638E+06    -284.730E+06    -105.233E+06    -284.720E+06    -97.9367E+06    -570.957E+03         40.0670
             732     883.867E-06     35.7567E-03         1.83964    -26.2106E-03    -760.164E-03    -756.467E-03         1.83715    -27.4227E-03    -46.5656E-03     246.975E-03    -123.174E-03    -123.810E-03    -123.461E-03     246.968E-03    -123.516E-03    -2.92168E-03    -107.199E+06    -110.296E+06    -293.338E+06    -109.449E+06    -293.324E+06    -108.059E+06    -1.12846E+06         39.8866
             733     15.0409E-03     35.4397E-03         2.27068    -482.383E-03    -698.742E-03    -698.642E-03         2.27058    -482.383E-03    -6.78152E-03     261.212E-03    -122.267E-03    -138.869E-03    -121.223E-03     244.363E-03    -123.064E-03     137.943E-03     106.616E+06     95.2501E+06    -6.18838E+06    -5.96049E+06     106.389E+06     95.2501E+06     352.797E+03         65.3385
             734     14.1548E-03     35.1556E-03         2.20932    -450.580E-03    -673.832E-03    -673.747E-03         2.20923    -450.580E-03    -19.2038E-03     268.232E-03    -123.111E-03    -144.867E-03    -121.255E-03     244.620E-03    -123.111E-03     189.092E-03     100.228E+06     94.0979E+06    -12.7575E+06    -12.4614E+06     99.2267E+06     94.8029E+06      195.12E+03         63.2665
             735     13.2708E-03     34.9686E-03         2.14041    -416.164E-03    -637.741E-03    -637.662E-03         2.14033    -416.164E-03    -24.9067E-03     259.181E-03    -123.212E-03    -135.931E-03    -119.415E-03     242.665E-03    -123.212E-03     158.027E-03     94.8056E+06     91.7242E+06    -19.0846E+06    -18.8924E+06     92.2991E+06     94.0385E+06    -771.696E+03         61.0668
             736     12.3863E-03     34.7758E-03         2.06582    -383.972E-03    -592.477E-03    -592.400E-03         2.06574    -383.972E-03    -15.4500E-03     254.939E-03    -123.119E-03    -131.875E-03    -118.417E-03     241.480E-03    -123.119E-03     139.998E-03     93.2746E+06     85.1012E+06    -26.0275E+06    -25.9111E+06     91.5489E+06     86.7104E+06    -1.08336E+06         58.4752
             737     11.4999E-03     34.6404E-03         2.00090    -355.200E-03    -556.811E-03    -556.724E-03         2.00081    -355.200E-03    -15.8478E-03     247.186E-03    -122.080E-03    -125.003E-03    -117.985E-03     241.103E-03    -123.014E-03     91.2333E-03     89.0942E+06     64.2532E+06    -33.7446E+06    -33.6430E+06     88.9926E+06     64.2532E+06    -772.098E+03         55.4816
             738     10.6161E-03     34.5684E-03         1.92832    -331.329E-03    -505.223E-03    -505.068E-03         1.92817    -331.329E-03    -35.4537E-03     244.258E-03    -121.180E-03    -122.986E-03    -118.668E-03     241.746E-03    -122.986E-03     59.9668E-03     81.2492E+06     34.0280E+06    -40.4630E+06    -40.3409E+06     81.1271E+06     34.0280E+06    -632.718E+03         52.4474
             739     9.73035E-03     34.5078E-03         1.86114    -311.321E-03    -457.137E-03    -456.994E-03         1.86099    -311.321E-03    -15.1983E-03     244.235E-03    -121.215E-03    -123.051E-03    -119.751E-03     242.770E-03    -123.051E-03     45.5161E-03     44.9612E+06     13.4011E+06    -47.7878E+06    -47.6944E+06     44.8678E+06     13.4011E+06    -757.017E+03         49.7581
             740     8.84378E-03     34.4738E-03         1.81819    -293.352E-03    -433.991E-03    -433.725E-03         1.81792    -293.352E-03    -25.8931E-03     244.508E-03    -121.368E-03    -123.150E-03    -120.680E-03     243.819E-03    -123.150E-03     30.8985E-03     6.38658E+06    -23.6363E+06    -55.1345E+06    -54.6751E+06    -21.4798E+06     3.77077E+06    -1.16410E+06         47.5276
             741     7.96074E-03     34.4491E-03         1.76642    -276.704E-03    -401.992E-03    -401.581E-03         1.76601    -276.704E-03    -47.7345E-03     244.447E-03    -121.280E-03    -123.192E-03    -121.015E-03     244.181E-03    -123.192E-03     19.1276E-03    -5.13106E+06    -58.9985E+06    -85.5331E+06    -59.8386E+06    -84.6930E+06    -5.13106E+06    -864.683E+03         45.7095
             742     7.07601E-03     34.4389E-03         1.70322    -262.524E-03    -355.142E-03    -354.788E-03         1.70287    -262.524E-03    -42.1429E-03     244.645E-03    -121.356E-03    -123.351E-03    -121.263E-03     244.551E-03    -123.351E-03     11.2102E-03    -14.2892E+06    -65.9576E+06    -134.111E+06    -65.9709E+06    -134.098E+06    -14.2892E+06    -21.9466E+03         44.2397
             743     6.18890E-03     34.4336E-03         1.65516    -251.427E-03    -318.599E-03    -318.293E-03         1.65485    -251.427E-03    -46.0366E-03     245.545E-03    -122.116E-03    -123.451E-03    -122.092E-03     245.521E-03    -123.451E-03     4.98528E-03    -25.1286E+06    -72.1273E+06    -172.888E+06    -72.1390E+06    -172.876E+06    -25.1286E+06     540.315E+03         43.0554
             744     5.30623E-03     34.4374E-03         1.61694    -242.829E-03    -291.710E-03    -291.245E-03         1.61648    -242.829E-03     6.84123E-03     245.951E-03    -122.578E-03    -123.469E-03    -122.575E-03     245.948E-03    -123.469E-03     167.351E-06    -38.1886E+06    -78.6202E+06    -207.326E+06    -78.6437E+06    -207.303E+06    -38.1886E+06     199.978E+03         42.1136
             745     4.42156E-03     34.4436E-03         1.58118    -237.068E-03    -262.774E-03    -262.137E-03         1.58054    -237.068E-03    -2.52086E-03     246.123E-03    -122.708E-03    -123.513E-03    -122.700E-03     246.115E-03    -123.513E-03    -2.99255E-03    -51.5253E+06    -85.8678E+06    -237.180E+06    -85.8940E+06    -237.154E+06    -51.5253E+06     388.973E+03         41.3774
             746     3.53619E-03     34.4529E-03         1.56195    -234.799E-03    -242.014E-03    -241.218E-03         1.56123    -234.875E-03    -56.6920E-03     246.455E-03    -122.980E-03    -123.528E-03    -122.964E-03     246.439E-03    -123.528E-03    -4.83487E-03    -65.5323E+06    -91.8458E+06    -259.413E+06     -91.861E+06    -259.398E+06    -65.5323E+06     1.06807E+06         40.8055
             747     2.65221E-03     34.4645E-03         1.56258    -233.419E-03    -244.628E-03    -244.094E-03         1.56212    -233.495E-03    -21.7204E-03     246.611E-03    -123.165E-03    -123.516E-03    -123.147E-03     246.593E-03    -123.516E-03    -5.17497E-03    -81.4071E+06    -98.0772E+06    -274.450E+06    -98.0838E+06    -274.443E+06    -81.4071E+06     1.04656E+06         40.3725
             748     1.76823E-03     34.4704E-03         1.55266    -227.315E-03    -250.000E-03    -249.011E-03         1.55167    -227.315E-03     56.9069E-03     246.698E-03    -123.157E-03    -123.609E-03    -123.141E-03     246.681E-03    -123.609E-03    -4.91987E-03    -95.4730E+06    -104.585E+06    -284.878E+06    -104.191E+06    -284.857E+06    -95.8880E+06     1.52285E+06         40.0691
             749     883.446E-06     34.4793E-03         1.52539     148.221E-03    -595.985E-03    -593.814E-03         1.52322     148.221E-03    -20.3852E-03     247.273E-03    -123.191E-03    -124.095E-03    -123.788E-03     247.264E-03    -123.489E-03    -2.35188E-03    -105.331E+06    -109.000E+06    -291.683E+06    -108.168E+06    -291.656E+06    -106.192E+06     1.21448E+06         39.8952
             750     15.0405E-03     34.1574E-03         2.19890    -373.060E-03    -710.683E-03    -710.673E-03         2.19889    -373.060E-03     4.28814E-03     261.540E-03    -122.415E-03    -138.930E-03    -121.481E-03     244.712E-03    -123.037E-03     138.242E-03     106.391E+06     94.9355E+06    -5.87125E+06    -5.66788E+06     106.188E+06     94.9355E+06     27.1681E+03         65.3371
             751     14.1587E-03     33.8755E-03         2.10020    -336.137E-03    -654.062E-03    -654.031E-03         2.10017    -336.137E-03    -2.56282E-03     268.198E-03    -123.088E-03    -144.776E-03    -120.997E-03     244.419E-03    -123.088E-03     189.939E-03     100.162E+06     94.4629E+06    -12.3585E+06    -12.0800E+06     99.3993E+06     94.9474E+06    -188.640E+03         63.2566
             752     13.2712E-03     33.6925E-03         2.00831    -297.546E-03    -600.223E-03    -600.141E-03         2.00822    -297.546E-03    -25.6699E-03     259.005E-03    -123.210E-03    -135.738E-03    -119.045E-03     242.311E-03    -123.210E-03     158.797E-03     95.3760E+06     91.9770E+06    -19.0882E+06    -18.8722E+06     93.2122E+06     93.9248E+06    -522.701E+03         61.0590
             753     12.3847E-03     33.4934E-03         1.92422    -260.922E-03    -550.189E-03    -550.071E-03         1.92411    -260.922E-03    -25.9035E-03     254.675E-03    -123.138E-03    -131.639E-03    -118.362E-03     241.398E-03    -123.138E-03     138.847E-03     92.9448E+06     84.7230E+06    -26.6199E+06    -26.4356E+06     91.2973E+06     86.1863E+06    -1.32323E+06         58.4782
             754     11.5017E-03     33.3616E-03         1.83171    -227.677E-03    -492.667E-03    -492.308E-03         1.83135    -227.677E-03    -43.3577E-03     247.029E-03    -122.161E-03    -124.804E-03    -117.894E-03     240.993E-03    -123.036E-03     91.2903E-03     88.1508E+06     64.1269E+06    -34.0742E+06    -33.9146E+06     87.9911E+06     64.1269E+06    -1.25858E+06         55.4892
             755     10.6145E-03     33.2860E-03         1.74003    -199.676E-03    -427.846E-03    -427.357E-03         1.73954    -199.676E-03    -61.7464E-03     244.386E-03    -121.297E-03    -123.005E-03    -118.698E-03     241.787E-03    -123.005E-03     60.8588E-03     80.4678E+06     34.5052E+06    -41.2869E+06    -41.1789E+06     80.3598E+06     34.5052E+06    -259.999E+03         52.4564
             756     9.72889E-03     33.2309E-03         1.66002    -175.584E-03    -371.600E-03    -371.372E-03         1.65979    -175.584E-03    -16.3228E-03     244.280E-03    -121.250E-03    -123.064E-03    -119.795E-03     242.825E-03    -123.064E-03     45.4066E-03     46.5412E+06     14.9908E+06    -47.2601E+06    -47.1612E+06     46.4423E+06     14.9908E+06     175.445E+03         49.7667
             757     8.84530E-03     33.1916E-03         1.58577    -154.257E-03    -323.622E-03    -323.440E-03         1.58559    -154.257E-03    -8.43742E-03     244.374E-03    -121.240E-03    -123.171E-03    -120.553E-03     243.687E-03    -123.171E-03     30.8501E-03     8.21556E+06    -22.4278E+06    -55.1718E+06    -52.8341E+06    -21.2284E+06     4.67843E+06    -732.572E+03         47.5349
             758     7.96057E-03     33.1718E-03         1.52343    -135.158E-03    -283.776E-03    -283.596E-03         1.52325    -135.158E-03    -27.0854E-03     244.549E-03    -121.416E-03    -123.213E-03    -121.137E-03     244.270E-03    -123.213E-03     19.8143E-03    -5.35589E+06    -58.9134E+06    -86.6299E+06    -59.4258E+06    -86.1175E+06    -5.35589E+06     -925.08E+03         45.7177
             759     7.07431E-03     33.1626E-03         1.46508    -117.752E-03    -243.753E-03    -243.639E-03         1.46496    -117.752E-03    -20.9856E-03     245.108E-03    -121.880E-03    -123.334E-03    -121.770E-03     244.998E-03    -123.334E-03     12.0785E-03    -14.6138E+06    -65.5303E+06    -134.197E+06    -65.5510E+06    -134.176E+06    -14.6138E+06    -111.565E+03         44.2474
             760     6.19141E-03     33.1546E-03         1.39885    -102.935E-03    -193.024E-03    -192.827E-03         1.39865    -102.935E-03    -32.8267E-03     245.619E-03    -122.258E-03    -123.386E-03    -122.234E-03     245.595E-03    -123.386E-03     4.84720E-03    -25.5265E+06    -71.6307E+06    -173.215E+06    -71.6403E+06    -173.206E+06    -25.5265E+06     44.8780E+03         43.0600
             761     5.30582E-03     33.1583E-03         1.33722    -92.2494E-03    -146.095E-03    -145.603E-03         1.33673    -92.2494E-03     13.3448E-03     245.775E-03    -122.464E-03    -123.386E-03    -122.461E-03     245.772E-03    -123.386E-03    -197.426E-06    -37.8643E+06    -78.2364E+06    -207.244E+06    -78.2463E+06    -207.234E+06    -37.8643E+06     684.112E+03         42.1119
             762     4.42132E-03     33.1653E-03         1.29497    -86.0050E-03    -111.731E-03    -111.206E-03         1.29445    -86.0050E-03     12.0998E-03     245.887E-03    -122.535E-03    -123.442E-03    -122.526E-03     245.878E-03    -123.442E-03    -3.14517E-03    -51.4484E+06    -85.2491E+06    -236.923E+06    -85.2575E+06    -236.914E+06    -51.4484E+06     615.181E+03         41.3678
             763     3.53701E-03     33.1753E-03         1.27619    -83.2094E-03    -93.1285E-03    -92.7722E-03         1.27591    -83.2855E-03    -26.3191E-03     246.310E-03    -122.878E-03    -123.468E-03    -122.860E-03     246.292E-03    -123.468E-03    -5.07608E-03    -66.3164E+06    -91.9231E+06    -259.868E+06    -91.9276E+06    -259.863E+06    -66.3164E+06     137.677E+03         40.7938
             764     2.65271E-03     33.1834E-03         1.26267    -78.1114E-03    -87.2234E-03    -81.4310E-03         1.26228    -83.5138E-03    -12.8605E-03     246.601E-03    -123.202E-03    -123.451E-03    -123.180E-03     246.579E-03    -123.451E-03    -5.75036E-03    -80.4216E+06    -97.8533E+06    -275.145E+06    -97.8767E+06    -275.122E+06    -80.4216E+06     1.36032E+06         40.3662
             765     1.76831E-03     33.1942E-03         1.25762    -74.5196E-03    -90.6215E-03    -75.5182E-03         1.25595    -87.9520E-03     52.4470E-03     246.611E-03    -123.166E-03    -123.507E-03    -123.149E-03     246.594E-03    -123.507E-03    -4.93164E-03    -91.9138E+06    -102.877E+06    -283.528E+06    -102.917E+06    -283.488E+06    -91.9138E+06     1.77951E+06         40.0657
             766     884.139E-06     33.1990E-03         1.28242     283.421E-03    -470.279E-03    -459.437E-03         1.27968     275.315E-03    -13.2752E-03     246.982E-03    -122.979E-03    -124.018E-03    -123.838E-03     246.975E-03    -123.153E-03    -1.54752E-03    -102.094E+06    -107.154E+06    -288.120E+06    -107.181E+06    -288.093E+06    -102.094E+06     1.29701E+06         39.8882
             767     15.0438E-03     32.8784E-03         2.12737    -273.862E-03    -727.155E-03    -727.101E-03         2.12732    -273.862E-03    -5.76481E-03     260.927E-03    -122.779E-03    -137.997E-03    -121.015E-03     244.158E-03    -122.993E-03     137.703E-03     106.863E+06     95.1982E+06    -6.75610E+06    -6.55166E+06     106.659E+06     95.1982E+06     543.287E+03         65.3280
             768     14.1537E-03     32.5976E-03         2.01210    -232.032E-03    -653.673E-03    -653.598E-03         2.01203    -232.032E-03    -15.6771E-03     267.396E-03    -123.071E-03    -144.074E-03    -120.269E-03     243.591E-03    -123.071E-03     189.699E-03     101.358E+06     94.3866E+06    -13.7097E+06    -13.4770E+06     100.641E+06     94.8711E+06    -240.075E+03         63.2411
             769     13.2702E-03     32.4112E-03         1.89969    -189.015E-03    -582.339E-03    -582.302E-03         1.89965    -189.015E-03    -17.3476E-03     259.066E-03    -123.192E-03    -135.916E-03    -119.271E-03     242.421E-03    -123.192E-03     158.659E-03     95.9021E+06     93.0021E+06    -21.0031E+06    -20.7371E+06     94.4224E+06     94.2158E+06    -1.45264E+06         61.0456
             770     12.3877E-03     32.2148E-03         1.78940    -148.417E-03    -512.305E-03    -512.237E-03         1.78933    -148.417E-03    -19.1114E-03     253.982E-03    -123.146E-03    -130.953E-03    -117.791E-03     240.820E-03    -123.146E-03     138.164E-03     91.7881E+06     84.0593E+06    -28.6078E+06    -28.3643E+06     90.8156E+06     84.7884E+06    -2.44659E+06         58.4764
             771     11.4989E-03     32.0848E-03         1.67183    -111.818E-03    -433.381E-03    -433.026E-03         1.67148    -111.818E-03    -44.3067E-03     246.870E-03    -122.389E-03    -124.376E-03    -117.524E-03     240.732E-03    -123.103E-03     92.1081E-03     85.5901E+06     63.0150E+06    -35.7355E+06    -35.5687E+06     85.4233E+06     63.0150E+06    -1.94661E+06         55.4973
             772     10.6143E-03     32.0078E-03         1.56692    -80.5129E-03    -359.608E-03    -359.189E-03         1.56650    -80.5129E-03    -48.3958E-03     244.938E-03    -121.771E-03    -123.064E-03    -119.137E-03     242.304E-03    -123.064E-03     61.2266E-03     79.0309E+06     35.0286E+06    -42.3538E+06    -42.2327E+06     78.9097E+06     35.0286E+06    -626.104E+03         52.4670
             773     9.73078E-03     31.9524E-03         1.47190    -52.9524E-03    -294.051E-03    -293.928E-03         1.47178    -52.9524E-03    -13.7493E-03     244.529E-03    -121.441E-03    -123.081E-03    -120.005E-03     243.092E-03    -123.081E-03     45.2514E-03     47.0816E+06     15.2432E+06    -47.5775E+06    -47.4534E+06     46.9575E+06     15.2432E+06    -298.658E+03         49.7749
             774     8.84450E-03     31.9142E-03         1.37505    -28.6868E-03    -225.633E-03    -225.405E-03         1.37483    -28.6868E-03    -24.2106E-03     244.056E-03    -120.888E-03    -123.193E-03    -120.202E-03     243.370E-03    -123.193E-03     30.6270E-03     9.11963E+06    -21.5768E+06    -54.9195E+06    -52.3293E+06    -20.0715E+06     5.02418E+06    -525.317E+03         47.5400
             775     7.95766E-03     31.8950E-03         1.29466    -7.63798E-03    -170.334E-03    -170.064E-03         1.29439    -7.63798E-03    -36.5578E-03     244.692E-03    -121.515E-03    -123.254E-03    -121.246E-03     244.423E-03    -123.254E-03     19.5084E-03    -5.26816E+06    -58.0950E+06    -86.5286E+06    -58.8934E+06    -85.7302E+06    -5.26816E+06    -197.188E+03         45.7213
             776     7.07581E-03     31.8794E-03         1.23076     11.2458E-03    -127.761E-03    -127.130E-03         1.23013     11.2458E-03    -44.5107E-03     245.594E-03    -122.368E-03    -123.334E-03    -122.261E-03     245.488E-03    -123.334E-03     11.6767E-03    -15.4515E+06    -65.9602E+06    -135.109E+06    -65.9704E+06    -135.099E+06    -15.4515E+06    -152.231E+03         44.2496
             777     6.19089E-03     31.8793E-03         1.16533     27.8700E-03    -78.4268E-03    -77.7382E-03         1.16464     27.8700E-03    -49.3767E-03     245.552E-03    -122.248E-03    -123.343E-03    -122.227E-03     245.531E-03    -123.343E-03     5.12101E-03    -26.3740E+06    -72.3774E+06    -173.859E+06    -72.3830E+06    -173.853E+06    -26.3740E+06    -90.6513E+03         43.0588
             778     5.30675E-03     31.8791E-03         1.10426     41.2392E-03    -31.1305E-03    -30.8589E-03         1.10399     41.2392E-03    -626.475E-06     245.696E-03    -122.420E-03    -123.343E-03    -122.415E-03     245.691E-03    -123.343E-03     392.355E-06    -37.9552E+06    -78.6975E+06    -207.508E+06    -78.7007E+06    -207.504E+06    -37.9552E+06     409.586E+03         42.1087
             779     4.42223E-03     31.8878E-03         1.05527     51.4780E-03     2.05156E-03     2.54364E-03         1.05478     51.4780E-03    -8.03979E-03     246.049E-03    -122.762E-03    -123.373E-03    -122.754E-03     246.041E-03    -123.373E-03    -3.26089E-03    -49.9228E+06    -85.0087E+06    -236.661E+06    -85.0192E+06    -236.650E+06    -49.9228E+06     1.02820E+06         41.3634
             780     3.53725E-03     31.8959E-03         1.01934     59.4041E-03     26.9079E-03     27.5324E-03         1.01871     59.4041E-03    -46.1031E-03     246.051E-03    -122.698E-03    -123.376E-03    -122.682E-03     246.035E-03    -123.376E-03    -4.83633E-03    -65.9304E+06    -92.7807E+06    -259.948E+06    -92.8052E+06    -259.923E+06    -65.9304E+06     1.36293E+06         40.7863
             781     2.65306E-03     31.9057E-03     990.170E-03     69.9289E-03     44.3638E-03     51.0223E-03     988.837E-03     64.6025E-03    -63.3407E-03     246.233E-03    -122.875E-03    -123.393E-03    -122.856E-03     246.214E-03    -123.393E-03    -5.18262E-03    -82.1990E+06    -99.2862E+06    -274.760E+06    -99.3350E+06    -274.711E+06    -82.1990E+06     700.149E+03         40.3563
             782     1.76836E-03     31.9154E-03     979.301E-03     80.2732E-03     46.1707E-03     62.6636E-03     976.241E-03     66.8408E-03     20.5491E-03     246.774E-03    -123.208E-03    -123.625E-03    -123.439E-03     246.761E-03    -123.380E-03    -4.37437E-03    -93.0617E+06    -102.782E+06    -281.221E+06    -102.818E+06    -281.185E+06    -93.0617E+06    -209.831E+03         40.0530
             783     884.147E-06     31.9204E-03         1.01930     417.835E-03    -331.116E-03    -315.841E-03     972.617E-03     449.240E-03    -58.4181E-03     246.571E-03    -122.872E-03    -123.713E-03    -123.687E-03     246.566E-03    -122.893E-03    -2.02056E-03    -102.711E+06    -108.409E+06    -289.099E+06    -106.953E+06    -289.095E+06    -104.170E+06    -19.9711E+03         39.8697
             784     15.0439E-03     31.6014E-03         2.05094    -185.403E-03    -721.514E-03    -721.391E-03         2.05082    -185.403E-03    -24.5467E-03     261.502E-03    -122.635E-03    -138.758E-03    -121.520E-03     244.637E-03    -123.009E-03     138.368E-03     107.060E+06      97.771E+06    -5.55488E+06    -5.24092E+06     106.746E+06      97.771E+06     1.21520E+06         65.3250
             785     14.1593E-03     31.3239E-03         1.93187    -140.457E-03    -648.921E-03    -648.765E-03         1.93172    -140.457E-03    -18.7226E-03     267.975E-03    -123.051E-03    -144.708E-03    -120.725E-03     243.991E-03    -123.051E-03     190.750E-03     103.439E+06     97.7983E+06    -11.3220E+06    -11.0544E+06     103.171E+06     97.7983E+06     1.40474E+06         63.2360
             786     13.2727E-03     31.1274E-03         1.79667    -94.6354E-03    -563.852E-03    -563.786E-03         1.79661    -94.6354E-03    -3.57358E-03     258.112E-03    -123.190E-03    -135.091E-03    -118.256E-03     241.276E-03    -123.190E-03     159.124E-03     97.7991E+06     95.5136E+06    -19.1085E+06    -18.9057E+06     96.4551E+06     96.6548E+06    -616.548E+03         61.0362
             787     12.3843E-03     30.9399E-03         1.65539    -52.1923E-03    -465.704E-03    -465.491E-03         1.65518    -52.1923E-03     8.43515E-03     254.109E-03    -123.197E-03    -131.040E-03    -117.721E-03     240.790E-03    -123.197E-03     138.872E-03     92.1153E+06     83.9155E+06    -28.3593E+06    -28.1381E+06     90.7529E+06     85.0566E+06    -2.23021E+06         58.4717
             788     11.4995E-03     30.8048E-03         1.53778    -13.8478E-03    -388.253E-03    -387.949E-03         1.53747    -13.8478E-03    -2.64166E-03     247.707E-03    -122.380E-03    -125.152E-03    -118.373E-03     241.659E-03    -123.111E-03     91.2204E-03     85.2070E+06     61.4539E+06    -36.9241E+06    -36.7962E+06     85.0791E+06     61.4539E+06    -2.30774E+06         55.4979
             789     10.6141E-03     30.7289E-03         1.42900     20.5192E-03    -316.180E-03    -316.032E-03         1.42885     20.5192E-03    -14.9271E-03     244.487E-03    -121.303E-03    -123.040E-03    -118.779E-03     241.963E-03    -123.040E-03     60.0880E-03     78.5065E+06     33.6566E+06    -43.3594E+06    -43.1718E+06     78.3189E+06     33.6566E+06    -2.13380E+06         52.4637
             790     9.72870E-03     30.6727E-03         1.31704     51.7397E-03    -237.166E-03    -237.118E-03         1.31699     51.7397E-03     589.788E-06     244.193E-03    -121.052E-03    -123.097E-03    -119.628E-03     242.769E-03    -123.097E-03     44.8146E-03     45.1253E+06     14.4129E+06    -48.4986E+06    -48.2880E+06     44.9147E+06     14.4129E+06    -1.19999E+06         49.7718
             791     8.84416E-03     30.6389E-03         1.21134     79.8209E-03    -161.991E-03    -161.817E-03         1.21117     79.8209E-03    -25.2908E-03     244.676E-03    -121.482E-03    -123.193E-03    -120.824E-03     244.018E-03    -123.193E-03     30.2237E-03     6.42036E+06    -23.4052E+06    -55.2939E+06    -54.9102E+06    -21.2320E+06     3.86340E+06     107.458E+03         47.5394
             792     7.96119E-03     30.6133E-03         1.11416     104.453E-03    -88.1707E-03    -88.0124E-03         1.11400     104.453E-03    -21.8160E-03     244.854E-03    -121.702E-03    -123.209E-03    -121.438E-03     244.590E-03    -123.209E-03     19.1462E-03    -6.53695E+06    -60.2581E+06    -86.5106E+06    -61.3254E+06    -85.4433E+06    -6.53695E+06     333.560E+03         45.7160
             793     7.07483E-03     30.6018E-03         1.03172     125.381E-03    -22.8503E-03    -21.7613E-03         1.03063     125.381E-03    -48.1521E-03     244.815E-03    -121.616E-03    -123.321E-03    -121.518E-03     244.717E-03    -123.321E-03     11.4598E-03    -15.8563E+06    -66.5375E+06    -135.117E+06    -66.5428E+06    -135.112E+06    -15.8563E+06    -55.8847E+03         44.2399
             794     6.19074E-03     30.5986E-03     966.306E-03     143.217E-03     25.8344E-03     27.2075E-03     964.933E-03     143.217E-03    -67.2216E-03     245.476E-03    -122.163E-03    -123.381E-03    -122.137E-03     245.450E-03    -123.381E-03     5.47192E-03    -27.1932E+06    -73.1488E+06    -173.508E+06    -73.1499E+06    -173.507E+06    -27.1932E+06    -134.961E+03         43.0507
             795     5.30575E-03     30.6019E-03     908.248E-03     159.266E-03     63.5510E-03     63.8433E-03     907.955E-03     159.266E-03    -22.3495E-03     245.944E-03    -122.660E-03    -123.377E-03    -122.656E-03     245.940E-03    -123.377E-03     706.799E-06    -39.5878E+06    -80.2003E+06    -207.910E+06    -80.2015E+06    -207.909E+06    -39.5878E+06    -87.2399E+03         42.1048
             796     4.42178E-03     30.6084E-03     851.308E-03     173.995E-03     100.008E-03     100.352E-03     850.964E-03     173.995E-03    -10.6593E-03     246.030E-03    -122.731E-03    -123.394E-03    -122.726E-03     246.024E-03    -123.394E-03    -2.54534E-03    -51.5771E+06    -86.7104E+06    -238.178E+06    -86.7220E+06    -238.166E+06    -51.5771E+06     871.300E+03         41.3630
             797     3.53823E-03     30.6197E-03     802.056E-03     187.291E-03     132.801E-03     133.433E-03     801.424E-03     187.291E-03    -28.6300E-03     246.175E-03    -122.760E-03    -123.452E-03    -122.816E-03     246.161E-03    -123.382E-03    -4.44521E-03    -66.1327E+06    -92.3478E+06    -259.203E+06    -92.3731E+06    -259.178E+06    -66.1327E+06     1.61042E+06         40.7880
             798     2.65190E-03     30.6282E-03     763.568E-03     200.400E-03     155.952E-03     157.102E-03     762.418E-03     200.400E-03    -48.1547E-03     246.339E-03    -122.977E-03    -123.416E-03    -123.029E-03     246.321E-03    -123.346E-03    -5.08956E-03    -82.1521E+06    -97.6692E+06    -272.159E+06    -97.7035E+06    -272.124E+06    -82.1521E+06     358.428E+03         40.3555
             799     1.76824E-03     30.6352E-03     723.755E-03     214.188E-03     178.256E-03     190.188E-03     713.614E-03     212.397E-03     45.1994E-03     246.585E-03    -123.100E-03    -123.546E-03    -123.330E-03     246.571E-03    -123.301E-03    -4.44217E-03    -95.7134E+06    -103.584E+06    -282.064E+06    -103.606E+06    -282.042E+06    -95.7134E+06    -664.929E+03         40.0457
             800     885.587E-06     30.6426E-03     804.496E-03     455.569E-03    -144.637E-03    -128.249E-03     680.702E-03     562.974E-03     32.7081E-03     246.451E-03    -122.975E-03    -123.487E-03    -123.248E-03     246.446E-03    -123.209E-03    -2.28250E-03    -102.711E+06    -108.341E+06    -289.088E+06    -106.885E+06    -289.086E+06    -104.170E+06    -343.381E+03         39.8572
             801     15.0398E-03     30.3223E-03         1.98655    -110.366E-03    -713.596E-03    -713.480E-03         1.98644    -110.366E-03    -1.41388E-03     261.967E-03    -122.460E-03    -139.420E-03    -121.736E-03     244.872E-03    -123.049E-03     138.848E-03     106.027E+06     97.0116E+06    -4.79375E+06    -4.46022E+06     105.693E+06     97.0116E+06    -75.2236E+03         65.3268
             802     14.1563E-03     30.0370E-03         1.85315    -64.1993E-03    -632.587E-03    -632.462E-03         1.85302    -64.1993E-03     3.12337E-03     268.275E-03    -123.095E-03    -144.977E-03    -120.816E-03     244.115E-03    -123.095E-03     191.403E-03     103.519E+06     98.8570E+06    -9.78450E+06    -9.44499E+06     103.180E+06     98.8570E+06     925.701E+03         63.2374
             803     13.2700E-03     29.8576E-03         1.70980    -17.6792E-03    -539.943E-03    -539.733E-03         1.70959    -17.6792E-03    -12.4256E-03     258.432E-03    -123.235E-03    -135.347E-03    -118.404E-03     241.489E-03    -123.235E-03     159.700E-03     100.197E+06      97.494E+06    -16.2255E+06    -16.1440E+06     98.2500E+06     99.3595E+06     1.05300E+06         61.0298
             804     12.3835E-03     29.6566E-03         1.56668     25.9257E-03    -438.803E-03    -438.447E-03         1.56632     25.9257E-03    -4.33120E-03     255.106E-03    -123.197E-03    -132.073E-03    -118.800E-03     241.832E-03    -123.197E-03     138.564E-03     94.6856E+06     86.1614E+06    -25.6205E+06    -25.4617E+06     92.6614E+06     88.0269E+06     557.505E+03         58.4584
             805     11.5017E-03     29.5227E-03         1.43508     65.8010E-03    -347.744E-03    -347.254E-03         1.43459     65.8010E-03    -9.60647E-03     247.453E-03    -122.036E-03    -125.321E-03    -118.517E-03     241.660E-03    -123.047E-03     89.6307E-03     87.1391E+06     62.0828E+06    -35.3284E+06    -35.1759E+06     86.9866E+06     62.0828E+06    -550.127E+03         55.4819
             806     10.6167E-03     29.4521E-03         1.31423     101.810E-03    -267.228E-03    -266.886E-03         1.31389     101.810E-03    -20.0010E-03     243.984E-03    -120.842E-03    -122.979E-03    -118.272E-03     241.415E-03    -122.979E-03     60.5639E-03     78.0681E+06     30.5393E+06    -43.9617E+06    -43.8107E+06     77.9170E+06     30.5393E+06    -1.50769E+06         52.4490
             807     9.72917E-03     29.3941E-03         1.19438     134.907E-03    -184.845E-03    -184.750E-03         1.19428     134.907E-03     11.6254E-03     244.144E-03    -121.027E-03    -123.073E-03    -119.579E-03     242.695E-03    -123.073E-03     45.0813E-03     42.0319E+06     10.4453E+06    -51.6033E+06    -51.3776E+06     41.8062E+06     10.4453E+06    -1.24295E+06         49.7598
             808     8.84479E-03     29.3569E-03         1.08257     165.178E-03    -106.175E-03    -105.636E-03         1.08203     165.178E-03     14.1868E-03     244.755E-03    -121.614E-03    -123.173E-03    -120.946E-03     244.087E-03    -123.173E-03     30.6413E-03     5.06806E+06    -24.1257E+06    -56.4397E+06    -56.2600E+06    -21.8502E+06     2.61275E+06    -156.079E+03         47.5281
             809     7.96018E-03     29.3336E-03     982.670E-03     192.463E-03    -31.2684E-03    -30.7300E-03     982.132E-03     192.463E-03     20.1378E-03     244.724E-03    -121.611E-03    -123.187E-03    -121.335E-03     244.448E-03    -123.187E-03     19.4312E-03    -6.29834E+06    -59.7317E+06    -86.3488E+06    -61.0747E+06    -85.0058E+06    -6.29834E+06    -84.9048E+03         45.7051
             810     7.07566E-03     29.3260E-03     884.239E-03     216.349E-03     43.4625E-03     44.1022E-03     883.599E-03     216.349E-03    -11.3591E-03     244.753E-03    -121.548E-03    -123.308E-03    -121.453E-03     244.657E-03    -123.308E-03     11.4618E-03    -16.1169E+06    -67.1574E+06    -135.183E+06    -67.1774E+06    -135.163E+06    -16.1169E+06    -132.406E+03         44.2288
             811     6.18931E-03     29.3179E-03     799.594E-03     236.790E-03     104.051E-03     105.223E-03     798.423E-03     236.790E-03    -18.0047E-03     245.407E-03    -122.076E-03    -123.381E-03    -122.049E-03     245.381E-03    -123.381E-03     5.02778E-03    -27.6125E+06    -73.3838E+06    -173.204E+06    -73.3931E+06    -173.195E+06    -27.6125E+06    -265.650E+03         43.0393
             812     5.30659E-03     29.3227E-03     730.482E-03     254.273E-03     154.433E-03     155.653E-03     729.262E-03     254.273E-03     14.7234E-03     245.815E-03    -122.500E-03    -123.405E-03    -122.498E-03     245.814E-03    -123.405E-03    -179.239E-06    -39.3583E+06    -79.4993E+06    -208.443E+06    -79.5070E+06    -208.435E+06    -39.3583E+06    -314.602E+03         42.0963
             813     4.42119E-03     29.3309E-03     671.605E-03     269.270E-03     196.351E-03     197.219E-03     670.737E-03     269.270E-03     27.3849E-03     246.011E-03    -122.640E-03    -123.450E-03    -122.632E-03     246.004E-03    -123.450E-03    -3.00383E-03    -51.7204E+06    -85.9690E+06    -238.687E+06    -85.9818E+06    -238.674E+06    -51.7204E+06    -239.326E+03         41.3602
             814     3.53572E-03     29.3390E-03     626.086E-03     283.033E-03     225.731E-03     226.290E-03     625.527E-03     283.033E-03     13.7550E-03     246.512E-03    -123.033E-03    -123.521E-03    -123.118E-03     246.497E-03    -123.420E-03    -4.63704E-03    -66.3382E+06    -92.5048E+06    -258.878E+06    -92.5197E+06    -258.863E+06    -66.3382E+06     21.3008E+03         40.7908
             815     2.65435E-03     29.3494E-03     580.971E-03     296.453E-03     253.690E-03     255.219E-03     579.442E-03     296.453E-03    -16.8813E-03     246.668E-03    -123.284E-03    -123.430E-03    -123.403E-03     246.651E-03    -123.295E-03    -4.87326E-03    -82.2518E+06    -98.0661E+06    -271.409E+06    -98.0744E+06    -271.401E+06    -82.2518E+06     813.362E+03         40.3601
             816     1.76938E-03     29.3577E-03     531.768E-03     310.119E-03     286.188E-03     302.962E-03     522.280E-03     302.832E-03     26.0711E-03     246.249E-03    -123.030E-03    -123.271E-03    -123.050E-03     246.234E-03    -123.236E-03    -4.58396E-03    -94.9541E+06    -102.881E+06    -281.976E+06    -102.889E+06    -281.967E+06    -94.9541E+06     418.754E+03         40.0473
             817     882.424E-06     29.3643E-03     719.913E-03     433.820E-03    -32.4233E-03    -12.4206E-03     516.599E-03     617.132E-03     129.621E-03     246.413E-03    -122.787E-03    -123.638E-03    -123.360E-03     246.405E-03    -123.058E-03    -2.93997E-03    -100.969E+06    -108.059E+06    -288.853E+06    -105.575E+06    -288.843E+06    -103.463E+06    -712.545E+03         39.8557
             818     15.0438E-03     29.0449E-03         1.93282    -51.7341E-03    -712.569E-03    -712.517E-03         1.93277    -51.7341E-03     9.14928E-03     261.597E-03    -122.824E-03    -138.750E-03    -121.602E-03     244.675E-03    -123.050E-03     138.299E-03     106.473E+06     94.9726E+06    -7.02718E+06    -6.84101E+06     106.286E+06     94.9726E+06    -1.08939E+06         65.3192
             819     14.1557E-03     28.7605E-03         1.78836    -5.19357E-03    -617.578E-03    -617.561E-03         1.78834    -5.19357E-03     8.25816E-03     267.306E-03    -123.095E-03    -143.991E-03    -120.494E-03     243.809E-03    -123.095E-03     188.070E-03     101.643E+06     95.3868E+06    -14.0511E+06    -13.6675E+06     101.260E+06     95.3868E+06    -1.98024E+06         63.2294
             820     13.2692E-03     28.5788E-03         1.64834     41.2758E-03    -526.590E-03    -526.434E-03         1.64818     41.2758E-03    -18.6469E-03     258.978E-03    -123.206E-03    -135.862E-03    -119.282E-03     242.398E-03    -123.206E-03     158.194E-03     98.3648E+06     95.3711E+06    -19.9561E+06    -19.6895E+06     96.6448E+06     96.8245E+06    -443.637E+03         61.0158
             821     12.3885E-03     28.3723E-03         1.50807     85.7476E-03    -432.365E-03    -432.179E-03         1.50788     85.7476E-03    -11.1136E-03     254.569E-03    -123.150E-03    -131.587E-03    -118.244E-03     241.225E-03    -123.150E-03     138.769E-03     94.9115E+06     86.2060E+06    -27.0847E+06    -26.9526E+06     93.3259E+06     87.6594E+06     1.18415E+06         58.4354
             822     11.5006E-03     28.2480E-03         1.35708     126.884E-03    -323.443E-03    -323.123E-03         1.35676     126.884E-03    -17.9386E-03     246.534E-03    -122.422E-03    -124.046E-03    -117.434E-03     240.569E-03    -123.069E-03     91.1832E-03     87.1562E+06     62.1804E+06    -35.1274E+06    -34.9257E+06     86.9545E+06     62.1804E+06     1.38207E+06         55.4631
             823     10.6131E-03     28.1723E-03         1.21096     163.456E-03    -218.188E-03    -217.885E-03         1.21066     163.456E-03    -20.6999E-03     245.155E-03    -122.011E-03    -123.028E-03    -119.307E-03     242.441E-03    -123.018E-03     62.0546E-03     79.2046E+06     31.3828E+06    -42.2409E+06    -42.1014E+06     79.0651E+06     31.3828E+06     1.21632E+06         52.4438
             824     9.73015E-03     28.1171E-03         1.08683     196.585E-03    -132.807E-03    -132.579E-03         1.08660     196.585E-03     30.2121E-06     244.641E-03    -121.595E-03    -123.053E-03    -120.185E-03     243.221E-03    -123.042E-03     44.8889E-03     43.4595E+06     11.6585E+06    -48.8852E+06    -48.7686E+06     43.3429E+06     11.6585E+06    -204.250E+03         49.7538
             825     8.84463E-03     28.0774E-03     976.893E-03     227.210E-03    -54.9220E-03    -54.2195E-03     976.191E-03     227.210E-03     6.49281E-03     244.020E-03    -120.942E-03    -123.135E-03    -120.278E-03     243.356E-03    -123.135E-03     30.2274E-03     5.03226E+06    -23.4122E+06    -56.3097E+06    -54.7125E+06    -22.5392E+06     2.56210E+06    -1.25971E+06         47.5133
             826     7.95935E-03     28.0561E-03     870.615E-03     255.177E-03     21.9812E-03     22.6617E-03     869.934E-03     255.177E-03     10.8835E-03     244.649E-03    -121.533E-03    -123.184E-03    -121.281E-03     244.396E-03    -123.184E-03     18.7522E-03    -6.10089E+06    -58.9258E+06    -86.9520E+06    -60.4612E+06    -85.4166E+06    -6.10089E+06    -940.638E+03         45.6930
             827     7.07491E-03     28.0458E-03     770.852E-03     280.221E-03     93.6361E-03     94.0520E-03     770.436E-03     280.221E-03    -9.78137E-03     245.455E-03    -122.283E-03    -123.265E-03    -122.193E-03     245.365E-03    -123.265E-03     10.8605E-03    -15.3152E+06    -66.9028E+06    -134.873E+06    -66.9315E+06    -134.844E+06    -15.3152E+06    -377.854E+03         44.2208
             828     6.19251E-03     28.0409E-03     681.089E-03     302.164E-03     159.457E-03     160.222E-03     680.325E-03     302.164E-03    -1.70368E-03     245.244E-03    -122.007E-03    -123.287E-03    -121.988E-03     245.226E-03    -123.287E-03     4.21470E-03    -27.2899E+06    -72.9127E+06    -172.932E+06    -72.9304E+06    -172.914E+06    -27.2899E+06    -377.129E+03         43.0270
             829     5.30515E-03     28.0443E-03     608.332E-03     321.413E-03     209.738E-03     211.016E-03     607.054E-03     321.413E-03     26.9338E-03     245.418E-03    -122.158E-03    -123.334E-03    -122.155E-03     245.415E-03    -123.334E-03    -580.733E-06    -39.4699E+06    -79.0864E+06    -208.765E+06    -79.1024E+06    -208.749E+06    -39.4699E+06    -521.778E+03         42.0804
             830     4.42188E-03     28.0514E-03     549.414E-03     338.760E-03     250.762E-03     254.329E-03     545.848E-03     338.760E-03     7.00479E-03     246.154E-03    -122.855E-03    -123.383E-03    -122.851E-03     246.143E-03    -123.376E-03    -3.82547E-03    -51.7439E+06    -86.2184E+06    -238.779E+06    -86.2518E+06    -238.746E+06    -51.7439E+06    -125.828E+03         41.3463
             831     3.53820E-03     28.0609E-03     497.317E-03     352.367E-03     288.728E-03     307.734E-03     478.310E-03     352.367E-03    -27.9200E-03     246.220E-03    -122.902E-03    -123.363E-03    -122.920E-03     246.201E-03    -123.325E-03    -5.32364E-03    -67.8335E+06    -93.8428E+06    -259.483E+06    -93.8780E+06    -259.448E+06    -67.8335E+06     44.3178E+03         40.7792
             832     2.65167E-03     28.0689E-03     454.070E-03     360.028E-03     323.594E-03     344.938E-03     432.726E-03     360.028E-03    -34.6603E-03     246.212E-03    -122.884E-03    -123.357E-03    -122.929E-03     246.192E-03    -123.292E-03    -5.25873E-03    -83.7436E+06    -99.5883E+06    -271.728E+06    -99.5990E+06    -271.717E+06    -83.7436E+06    -213.302E+03         40.3517
             833     1.76845E-03     28.0809E-03     436.716E-03     374.598E-03     328.356E-03     341.254E-03     429.313E-03     369.102E-03    -7.21250E-03     246.424E-03    -123.097E-03    -123.380E-03    -123.155E-03     246.409E-03    -123.308E-03    -4.10581E-03    -94.9320E+06    -103.043E+06    -280.821E+06    -102.926E+06    -280.819E+06    -95.0503E+06     157.141E+03         40.0442
             834     886.383E-06     28.0853E-03     733.291E-03     366.151E-03     38.1795E-03     49.2875E-03     386.825E-03     701.509E-03     71.8288E-03     246.536E-03    -122.778E-03    -123.770E-03    -123.727E-03     246.530E-03    -122.814E-03    -1.87853E-03    -101.353E+06    -109.136E+06    -289.229E+06    -106.551E+06    -289.202E+06    -103.965E+06     644.110E+03         39.8566
             835     15.0407E-03     27.7614E-03         1.89734    -9.37251E-03    -709.549E-03    -709.475E-03         1.89726    -9.37251E-03    -20.5011E-03     261.388E-03    -122.617E-03    -138.743E-03    -121.290E-03     244.380E-03    -123.061E-03     139.162E-03     107.943E+06     96.1363E+06    -5.37045E+06    -5.24262E+06     107.815E+06     96.1363E+06     -50.233E+03         65.3024
             836     14.1579E-03     27.4843E-03         1.73913     36.5177E-03    -601.635E-03    -601.544E-03         1.73904     36.5177E-03    -2.77869E-03     268.461E-03    -123.087E-03    -145.289E-03    -121.392E-03     244.563E-03    -123.087E-03     190.399E-03     103.302E+06     96.5654E+06    -13.0392E+06    -12.6301E+06     102.893E+06     96.5654E+06    -321.081E+03         63.2163
             837     13.2742E-03     27.2967E-03         1.59336     81.3663E-03    -505.302E-03    -505.247E-03         1.59331     81.3663E-03    -892.933E-06     259.179E-03    -123.168E-03    -136.161E-03    -119.220E-03     242.238E-03    -123.168E-03     159.965E-03     96.1982E+06     93.8051E+06    -22.5630E+06    -22.1278E+06     94.9932E+06     94.5750E+06    -556.571E+03         61.0056
             838     12.3847E-03     27.0981E-03         1.45188     124.091E-03    -411.417E-03    -411.159E-03         1.45162     124.091E-03     18.1358E-03     253.760E-03    -123.153E-03    -130.681E-03    -117.322E-03     240.402E-03    -123.153E-03     138.484E-03     91.9068E+06     83.2032E+06    -30.0769E+06    -29.9274E+06     90.9875E+06     83.9730E+06    -604.202E+03         58.4263
             839     11.4971E-03     26.9723E-03         1.30855     164.277E-03    -311.589E-03    -311.245E-03         1.30821     164.277E-03     8.71101E-03     247.011E-03    -122.753E-03    -124.138E-03    -117.961E-03     241.165E-03    -123.084E-03     89.9206E-03     86.2741E+06     61.0959E+06    -36.9206E+06    -36.7464E+06     86.0998E+06     61.0959E+06     306.390E+03         55.4561
             840     10.6150E-03     26.8892E-03         1.16713     201.416E-03    -212.032E-03    -211.615E-03         1.16671     201.416E-03     5.14298E-03     245.219E-03    -122.109E-03    -123.007E-03    -119.587E-03     242.687E-03    -122.997E-03     60.0196E-03     80.2616E+06     33.4603E+06    -42.0446E+06    -41.8884E+06     80.1054E+06     33.4603E+06     752.654E+03         52.4364
             841     9.73102E-03     26.8396E-03         1.03689     235.755E-03    -117.196E-03    -116.538E-03         1.03623     235.755E-03     22.6685E-03     244.632E-03    -121.586E-03    -123.007E-03    -120.247E-03     243.284E-03    -122.996E-03     43.7244E-03     45.9876E+06     14.0705E+06    -47.0380E+06    -46.9826E+06     45.9322E+06     14.0705E+06     316.985E+03         49.7450
             842     8.84581E-03     26.8011E-03     912.490E-03     267.148E-03    -24.6236E-03    -24.0244E-03     911.891E-03     267.148E-03     4.59257E-03     244.277E-03    -121.198E-03    -123.052E-03    -120.570E-03     243.649E-03    -123.052E-03     29.4520E-03      5.9708E+06    -22.7811E+06    -55.7669E+06    -53.5334E+06    -21.8872E+06     2.84346E+06    -268.218E+03         47.5012
             843     7.96014E-03     26.7788E-03     794.104E-03     295.220E-03     61.1308E-03     61.6137E-03     793.622E-03     295.220E-03     3.03462E-03     244.592E-03    -121.585E-03    -123.072E-03    -121.345E-03     244.352E-03    -123.072E-03     18.2323E-03    -6.94093E+06    -58.7843E+06    -87.6459E+06    -59.9980E+06    -86.4321E+06    -6.94093E+06    -811.449E+03         45.6752
             844     7.07683E-03     26.7651E-03     697.657E-03     320.449E-03     128.404E-03     128.869E-03     697.192E-03     320.449E-03    -15.7733E-03     245.147E-03    -122.094E-03    -123.153E-03    -122.015E-03     245.069E-03    -123.153E-03     9.91148E-03    -15.1949E+06    -66.1736E+06    -135.019E+06    -66.2200E+06    -134.973E+06    -15.1949E+06    -756.464E+03         44.2014
             845     6.19115E-03     26.7651E-03     616.313E-03     343.604E-03     187.700E-03     188.131E-03     615.882E-03     343.604E-03    -19.3834E-03     245.230E-03    -122.103E-03    -123.165E-03    -122.091E-03     245.218E-03    -123.165E-03     3.59431E-03    -26.8465E+06    -72.6453E+06    -172.887E+06    -72.6558E+06    -172.876E+06    -26.8465E+06    -269.410E+03         43.0070
             846     5.30785E-03     26.7679E-03     541.353E-03     364.542E-03     242.333E-03     245.793E-03     537.893E-03     364.542E-03     22.4390E-03     245.320E-03    -122.228E-03    -123.176E-03    -122.225E-03     245.317E-03    -123.176E-03    -619.522E-06    -40.5711E+06    -79.9444E+06    -208.969E+06    -79.9579E+06    -208.956E+06    -40.5711E+06    -124.481E+03         42.0565
             847     4.42231E-03     26.7733E-03     479.418E-03     382.242E-03     289.506E-03     302.854E-03     466.070E-03     382.242E-03     28.5004E-03     245.606E-03    -122.458E-03    -123.233E-03    -122.455E-03     245.596E-03    -123.226E-03    -3.70769E-03    -53.7485E+06    -86.8776E+06    -239.459E+06    -86.9209E+06    -239.416E+06    -53.7485E+06    -187.627E+03         41.3195
             848     3.53787E-03     26.7830E-03     435.083E-03     385.394E-03     330.099E-03     356.591E-03     399.194E-03     394.792E-03    -21.2770E-03     245.937E-03    -122.657E-03    -123.318E-03    -122.758E-03     245.920E-03    -123.200E-03    -4.97202E-03    -68.4596E+06    -92.1670E+06    -258.909E+06    -92.2105E+06    -258.865E+06    -68.4596E+06    -128.239E+03         40.7546
             849     2.65420E-03     26.7929E-03     420.269E-03     391.914E-03     335.679E-03     389.749E-03     356.801E-03     401.312E-03     5.24610E-03     245.942E-03    -122.701E-03    -123.288E-03    -122.788E-03     245.919E-03    -123.178E-03    -5.80345E-03    -83.0723E+06    -96.9815E+06    -271.868E+06    -96.9933E+06    -271.856E+06    -83.0723E+06    -323.672E+03         40.3306
             850     1.76796E-03     26.8000E-03     437.732E-03     407.699E-03     301.474E-03     389.172E-03     350.034E-03     407.699E-03     63.0329E-03     246.041E-03    -122.735E-03    -123.358E-03    -122.754E-03     246.022E-03    -123.320E-03    -4.83346E-03    -94.1568E+06    -102.011E+06    -281.457E+06    -101.896E+06    -281.454E+06    -94.2751E+06     58.0347E+03         40.0257
             851     882.079E-06     26.8067E-03     710.120E-03     352.567E-03     83.3238E-03     133.760E-03     322.012E-03     690.239E-03     28.3009E-03     246.784E-03    -122.591E-03    -124.165E-03    -123.818E-03     246.778E-03    -122.932E-03    -1.85766E-03    -100.084E+06    -108.528E+06    -287.526E+06    -105.604E+06    -287.504E+06    -103.031E+06     1.17769E+06         39.8416
             852     15.0425E-03     26.4878E-03         1.88586     14.7166E-03    -717.165E-03    -717.091E-03         1.88579     14.7166E-03    -7.55172E-03     261.339E-03    -122.536E-03    -138.675E-03    -121.149E-03     244.347E-03    -123.070E-03     138.614E-03     107.159E+06     95.1967E+06    -6.70392E+06    -6.55531E+06     107.010E+06     95.1967E+06     351.325E+03         65.2908
             853     14.1532E-03     26.1999E-03         1.72054     58.9121E-03    -602.083E-03    -601.979E-03         1.72043     58.9121E-03     5.36074E-03     268.116E-03    -123.115E-03    -144.932E-03    -120.918E-03     244.102E-03    -123.115E-03     190.777E-03     103.804E+06     96.6618E+06    -12.9514E+06    -12.5542E+06     102.994E+06     97.0749E+06     266.600E+03         63.2044
             854     13.2697E-03     26.0146E-03         1.55822     100.927E-03    -486.357E-03    -486.266E-03         1.55813     100.927E-03     16.8986E-03     258.970E-03    -123.209E-03    -135.914E-03    -119.258E-03     242.314E-03    -123.209E-03     158.655E-03     97.4410E+06     95.1766E+06    -20.0891E+06    -19.6676E+06     95.8365E+06     96.3595E+06    -29.8854E+03         60.9987
             855     12.3853E-03     25.8244E-03         1.41583     140.458E-03    -388.159E-03    -387.909E-03         1.41558     140.458E-03     23.4325E-03     254.965E-03    -123.135E-03    -131.867E-03    -118.866E-03     241.964E-03    -123.135E-03     137.321E-03     91.8569E+06     84.3038E+06    -28.2735E+06    -28.1131E+06     90.9267E+06     85.0736E+06    -113.974E+03         58.4243
             856     11.5041E-03     25.6853E-03         1.28756     178.215E-03    -297.898E-03    -297.574E-03         1.28723     178.215E-03     1.57280E-03     247.590E-03    -122.291E-03    -125.197E-03    -118.773E-03     241.835E-03    -122.960E-03     89.1886E-03     87.6097E+06     62.2919E+06    -35.4254E+06    -35.3231E+06     87.5074E+06     62.2919E+06    -235.600E+03         55.4463
             857     10.6173E-03     25.6166E-03         1.16181     214.263E-03    -206.844E-03    -206.402E-03         1.16136     214.263E-03     6.23446E-03     244.194E-03    -121.219E-03    -122.844E-03    -118.731E-03     241.706E-03    -122.844E-03     59.6796E-03     79.4474E+06     31.2353E+06    -43.1576E+06    -43.0562E+06     79.3460E+06     31.2353E+06    -131.081E+03         52.4115
             858     9.72962E-03     25.5546E-03         1.02927     248.050E-03    -109.952E-03    -109.178E-03         1.02849     248.050E-03     54.8724E-03     244.185E-03    -121.237E-03    -122.888E-03    -119.873E-03     242.822E-03    -122.888E-03     43.5621E-03     44.8085E+06     10.8030E+06    -49.2959E+06    -49.2332E+06     44.7458E+06     10.8030E+06     224.093E+03         49.7163
             859     8.84677E-03     25.5238E-03     901.628E-03     279.096E-03    -19.3148E-03    -18.6210E-03     900.934E-03     279.096E-03     49.2710E-03     244.757E-03    -121.799E-03    -122.936E-03    -121.207E-03     244.165E-03    -122.936E-03     28.9069E-03     6.88649E+06    -24.0515E+06    -55.3397E+06    -54.4363E+06    -20.3240E+06     2.25555E+06     506.901E+03         47.4761
             860     7.96306E-03     25.4975E-03     785.939E-03     307.761E-03     57.7312E-03     58.3669E-03     785.303E-03     307.761E-03     40.8967E-03     244.558E-03    -121.732E-03    -122.906E-03    -121.486E-03     244.312E-03    -122.906E-03     18.2533E-03    -7.48004E+06    -59.1786E+06    -87.1013E+06    -60.2991E+06    -85.9808E+06    -7.48004E+06     84.6317E+03         45.6452
             861     7.07718E-03     25.4876E-03     682.840E-03     334.417E-03     128.633E-03     129.181E-03     682.292E-03     334.417E-03     26.3436E-03     244.474E-03    -121.580E-03    -122.989E-03    -121.510E-03     244.405E-03    -122.989E-03     9.38379E-03    -15.8998E+06    -66.1101E+06    -135.565E+06    -66.1620E+06    -135.513E+06    -15.8998E+06    -530.704E+03         44.1653
             862     6.19281E-03     25.4842E-03     588.963E-03     358.582E-03     199.631E-03     199.829E-03     588.765E-03     358.582E-03     9.63536E-03     244.996E-03    -122.001E-03    -123.022E-03    -121.989E-03     244.984E-03    -123.022E-03     3.18475E-03    -26.8258E+06    -73.5573E+06    -173.684E+06    -73.5767E+06    -173.664E+06    -26.8258E+06     184.720E+03         42.9731
             863     5.30809E-03     25.4897E-03     499.608E-03     378.413E-03     271.039E-03     276.655E-03     493.992E-03     378.413E-03     44.5482E-03     245.125E-03    -122.190E-03    -123.021E-03    -122.188E-03     245.123E-03    -123.021E-03    -855.291E-06    -40.6358E+06    -80.2193E+06    -208.831E+06    -80.2427E+06    -208.807E+06    -40.6358E+06     308.235E+03         42.0248
             864     4.42334E-03     25.4970E-03     434.491E-03     390.749E-03     324.150E-03     339.488E-03     417.704E-03     392.198E-03     54.4265E-03     245.200E-03    -122.216E-03    -123.064E-03    -122.206E-03     245.190E-03    -123.064E-03    -3.65419E-03    -54.7540E+06    -86.5139E+06    -238.184E+06    -86.5422E+06    -238.155E+06    -54.7540E+06    -677.615E+03         41.2868
             865     3.53743E-03     25.5052E-03     410.001E-03     390.428E-03     347.071E-03     357.745E-03     386.556E-03     403.199E-03     8.36972E-03     245.743E-03    -122.655E-03    -123.135E-03    -122.742E-03     245.720E-03    -123.025E-03    -5.63429E-03    -70.3842E+06    -92.4014E+06    -258.138E+06    -92.4549E+06    -258.084E+06    -70.3842E+06    -1.26794E+06         40.7213
             866     2.65321E-03     25.5146E-03     423.301E-03     402.592E-03     324.230E-03     380.642E-03     354.919E-03     414.561E-03     8.07436E-03     245.943E-03    -122.828E-03    -123.165E-03    -123.057E-03     245.912E-03    -122.905E-03    -6.56659E-03    -84.2258E+06    -96.7869E+06    -273.153E+06    -96.8229E+06    -273.117E+06    -84.2258E+06    -674.651E+03         40.2959
             867     1.77002E-03     25.5263E-03     452.862E-03     414.601E-03     282.174E-03     435.061E-03     299.326E-03     415.249E-03     46.7306E-03     245.659E-03    -122.417E-03    -123.287E-03    -122.854E-03     245.636E-03    -122.827E-03    -5.63740E-03    -92.3437E+06    -100.384E+06    -282.376E+06    -100.388E+06    -282.372E+06    -92.3437E+06     561.704E+03         39.9866
             868     885.198E-06     25.5284E-03     674.819E-03     395.541E-03     76.4329E-03     174.231E-03     326.616E-03     645.947E-03     26.2936E-03     245.499E-03    -121.974E-03    -123.498E-03    -123.149E-03     245.492E-03    -122.316E-03    -2.56066E-03    -97.6070E+06    -106.114E+06    -286.636E+06    -103.293E+06    -286.628E+06    -100.436E+06     953.251E+03         39.7938
             869     15.0417E-03     25.2079E-03         1.88665     18.3714E-03    -715.251E-03    -715.169E-03         1.88656     18.3714E-03     6.83636E-03     262.015E-03    -122.933E-03    -139.003E-03    -122.180E-03     245.291E-03    -123.033E-03     137.869E-03     107.337E+06     96.1986E+06    -5.24615E+06    -5.10969E+06     107.200E+06     96.1986E+06     379.899E+03         65.2897
             870     14.1597E-03     24.9243E-03         1.73944     59.6346E-03    -613.821E-03    -613.751E-03         1.73937     59.6346E-03     9.15826E-03     267.401E-03    -123.048E-03    -144.250E-03    -120.642E-03     243.794E-03    -123.048E-03     188.981E-03     102.929E+06     96.5546E+06    -11.5214E+06    -11.1317E+06     102.126E+06     96.9677E+06     343.491E+03         63.1915
             871     13.2701E-03     24.7376E-03         1.58366     98.9226E-03    -503.226E-03    -503.151E-03         1.58359     98.9226E-03     9.14407E-03     258.446E-03    -123.152E-03    -135.447E-03    -119.077E-03     242.076E-03    -123.152E-03     157.169E-03     97.5086E+06     95.1670E+06    -18.5848E+06    -18.2031E+06     95.7004E+06     96.5935E+06     411.551E+03         60.9754
             872     12.3884E-03     24.5380E-03         1.43019     135.992E-03    -393.556E-03    -393.423E-03         1.43005     135.992E-03     25.8278E-03     255.008E-03    -123.084E-03    -131.964E-03    -118.930E-03     241.973E-03    -123.084E-03     137.897E-03     93.4214E+06     85.3479E+06    -26.5779E+06    -26.4238E+06     92.2538E+06     86.3613E+06     894.306E+03         58.4001
             873     11.5015E-03     24.4114E-03         1.28954     171.072E-03    -292.873E-03    -292.707E-03         1.28938     171.072E-03     8.92928E-03     247.843E-03    -122.467E-03    -125.239E-03    -118.761E-03     241.801E-03    -122.903E-03     91.5158E-03     87.5196E+06     62.0062E+06    -35.4349E+06    -35.3284E+06     87.4131E+06     62.0062E+06     806.728E+03         55.4243
             874     10.6167E-03     24.3346E-03         1.15693     204.312E-03    -195.355E-03    -195.243E-03         1.15682     204.312E-03     4.65901E-03     245.004E-03    -121.881E-03    -123.002E-03    -119.611E-03     242.476E-03    -122.744E-03     60.0416E-03     79.4984E+06     31.1030E+06    -42.6878E+06    -42.5795E+06     79.3900E+06     31.1030E+06     906.908E+03         52.3871
             875     9.73372E-03     24.2814E-03         1.03507     235.668E-03    -108.948E-03    -108.634E-03         1.03475     235.668E-03     26.9635E-03     244.177E-03    -121.471E-03    -122.730E-03    -120.157E-03     242.862E-03    -122.730E-03     42.9805E-03     45.3880E+06     10.4128E+06    -49.2828E+06    -49.1808E+06     45.2861E+06     10.4128E+06     676.456E+03         49.6794
             876     8.84733E-03     24.2403E-03     922.079E-03     265.377E-03    -29.8781E-03    -29.4954E-03     921.696E-03     265.377E-03     17.6592E-03     244.246E-03    -121.553E-03    -122.770E-03    -120.975E-03     243.668E-03    -122.770E-03     28.1815E-03     7.09661E+06    -25.3219E+06    -55.9617E+06    -55.2442E+06    -20.7033E+06     1.76045E+06     172.312E+03         47.4306
             877     7.96335E-03     24.2224E-03     819.004E-03     293.667E-03     41.6866E-03     42.1498E-03     818.541E-03     293.667E-03     21.1954E-03     244.345E-03    -121.668E-03    -122.740E-03    -121.455E-03     244.133E-03    -122.740E-03     16.9879E-03    -6.82612E+06    -59.6446E+06    -86.2045E+06    -60.4622E+06    -85.3869E+06    -6.82612E+06     123.646E+03         45.5990
             878     7.07881E-03     24.2105E-03     717.312E-03     320.181E-03     115.473E-03     115.990E-03     716.796E-03     320.181E-03     25.0695E-03     244.291E-03    -121.567E-03    -122.798E-03    -121.502E-03     244.226E-03    -122.798E-03     9.09719E-03    -16.3510E+06    -66.7200E+06    -135.919E+06    -66.7583E+06    -135.881E+06    -16.3510E+06     137.770E+03         44.1176
             879     6.19394E-03     24.2091E-03     611.302E-03     343.296E-03     197.357E-03     197.562E-03     611.097E-03     343.296E-03     3.23039E-03     244.591E-03    -121.811E-03    -122.824E-03    -121.800E-03     244.580E-03    -122.824E-03     2.69001E-03    -25.9980E+06    -72.9093E+06    -174.445E+06     -72.955E+06    -174.400E+06    -25.9980E+06     8.43747E+03         42.9262
             880     5.30858E-03     24.2126E-03     529.524E-03     362.502E-03     254.501E-03     257.821E-03     526.204E-03     362.502E-03     32.9464E-03     244.909E-03    -122.158E-03    -122.818E-03    -122.154E-03     244.903E-03    -122.816E-03    -2.03463E-03    -38.1459E+06    -79.4071E+06    -207.594E+06    -79.4599E+06    -207.541E+06    -38.1459E+06     154.936E+03         41.9816
             881     4.42357E-03     24.2209E-03     471.248E-03     378.030E-03     292.116E-03     298.132E-03     463.783E-03     379.479E-03     16.8953E-03     245.312E-03    -122.535E-03    -122.868E-03    -122.612E-03     245.296E-03    -122.775E-03    -4.66861E-03    -53.1114E+06    -86.3799E+06    -236.010E+06    -86.4187E+06    -235.971E+06    -53.1114E+06    -222.281E+03         41.2425
             882     3.54052E-03     24.2278E-03     422.470E-03     385.506E-03     330.429E-03     335.732E-03     407.541E-03     395.131E-03    -20.4221E-03     245.208E-03    -122.532E-03    -122.728E-03    -122.592E-03     245.176E-03    -122.637E-03    -6.72365E-03    -69.8476E+06    -92.9019E+06    -258.450E+06    -92.9501E+06    -258.402E+06    -69.8476E+06    -1.40144E+06         40.6681
             883     2.65528E-03     24.2388E-03     413.870E-03     399.549E-03     327.059E-03     373.925E-03     358.180E-03     408.373E-03    -54.1397E-03     245.008E-03    -122.386E-03    -122.662E-03    -122.500E-03     244.972E-03    -122.512E-03    -7.18510E-03    -84.5286E+06    -98.9020E+06    -274.905E+06    -98.9449E+06    -274.862E+06    -84.5286E+06    -1.42865E+06         40.2352
             884     1.77000E-03     24.2471E-03     442.772E-03     419.011E-03     279.544E-03     397.747E-03     323.920E-03     419.660E-03     15.1616E-03     245.089E-03    -122.272E-03    -122.881E-03    -122.788E-03     245.070E-03    -122.346E-03    -5.05387E-03    -93.5010E+06    -102.857E+06    -283.476E+06    -102.869E+06    -283.464E+06    -93.5010E+06    -235.551E+03         39.9257
             885     886.545E-06     24.2551E-03     692.438E-03     348.697E-03     98.9752E-03     175.501E-03     289.787E-03     674.822E-03     52.5360E-03     244.297E-03    -121.901E-03    -122.411E-03    -122.296E-03     244.292E-03    -122.011E-03    -1.86442E-03    -100.321E+06    -107.971E+06    -286.048E+06    -106.363E+06    -286.028E+06    -101.949E+06    -9.41690E+03         39.7321
             886     15.0440E-03     23.9214E-03         1.89424     3.02895E-03    -712.933E-03    -712.860E-03         1.89417     3.02895E-03    -2.63808E-03     262.003E-03    -123.003E-03    -138.992E-03    -122.422E-03     245.432E-03    -123.003E-03     138.143E-03     107.218E+06     95.1280E+06    -5.93269E+06    -5.83563E+06     107.121E+06     95.1280E+06    -947.822E+03         65.2827
             887     14.1565E-03     23.6487E-03         1.75208     40.2787E-03    -612.532E-03    -612.440E-03         1.75199     40.2787E-03     11.9488E-03     268.109E-03    -122.989E-03    -145.020E-03    -121.405E-03     244.493E-03    -122.989E-03     189.641E-03     102.534E+06     95.2538E+06    -11.6531E+06    -11.4032E+06     101.294E+06     96.2431E+06    -51.0143E+03         63.1778
             888     13.2752E-03     23.4565E-03         1.62104     75.3996E-03    -519.156E-03    -519.088E-03         1.62097     75.3996E-03     5.04295E-03     258.570E-03    -123.079E-03    -135.626E-03    -118.753E-03     241.697E-03    -123.079E-03     159.514E-03     97.2358E+06     94.1369E+06    -18.3268E+06    -17.9367E+06     94.8430E+06     96.1396E+06     2.00586E+06         60.9473
             889     12.3859E-03     23.2625E-03         1.47794     108.815E-03    -413.608E-03    -413.239E-03         1.47757     108.815E-03     38.2576E-03     254.450E-03    -123.042E-03    -131.453E-03    -118.232E-03     241.230E-03    -123.042E-03     138.314E-03     93.7343E+06     84.2913E+06    -26.4914E+06    -26.2500E+06     92.4794E+06     85.3047E+06     1.95586E+06         58.3628
             890     11.5005E-03     23.1288E-03         1.33457     140.422E-03    -307.903E-03    -307.496E-03         1.33417     140.422E-03     31.7392E-03     248.229E-03    -122.785E-03    -125.299E-03    -119.356E-03     242.367E-03    -122.866E-03     90.0325E-03     87.7344E+06     61.4415E+06    -35.4918E+06    -35.3861E+06     87.6287E+06     61.4415E+06     1.13778E+06         55.3895
             891     10.6188E-03     23.0525E-03         1.20693     170.955E-03    -219.289E-03    -218.750E-03         1.20639     170.955E-03     27.6460E-03     245.563E-03    -122.557E-03    -122.956E-03    -120.452E-03     243.168E-03    -122.666E-03     58.5871E-03     79.6574E+06     33.0337E+06    -43.1571E+06    -43.0418E+06     79.5421E+06     33.0337E+06     1.05907E+06         52.3535
             892     9.73424E-03     23.0012E-03         1.09723     200.797E-03    -144.082E-03    -143.180E-03         1.09633     200.797E-03     53.4090E-03     244.801E-03    -122.152E-03    -122.732E-03    -121.034E-03     243.516E-03    -122.564E-03     42.7270E-03     47.9287E+06     13.2429E+06    -48.3129E+06    -48.1725E+06     47.7883E+06     13.2429E+06     1.16864E+06         49.6333
             893     8.85076E-03     22.9621E-03     988.243E-03     229.580E-03    -62.1542E-03    -61.6452E-03     987.734E-03     229.580E-03     23.5742E-03     244.073E-03    -121.493E-03    -122.664E-03    -121.078E-03     243.522E-03    -122.528E-03     27.1667E-03     9.13827E+06    -23.9783E+06    -55.8395E+06    -53.4549E+06    -19.9536E+06     2.72899E+06     222.959E+03         47.3669
             894     7.96523E-03     22.9420E-03     876.021E-03     256.234E-03     22.6429E-03     23.4000E-03     875.264E-03     256.234E-03     29.1141E-03     243.777E-03    -121.367E-03    -122.483E-03    -121.201E-03     243.611E-03    -122.483E-03     15.0654E-03    -6.09982E+06    -58.9850E+06    -87.0068E+06    -59.5425E+06    -86.4493E+06    -6.09982E+06     158.694E+03         45.5289
             895     7.08039E-03     22.9331E-03     772.807E-03     279.937E-03     100.268E-03     100.978E-03     772.097E-03     279.937E-03     20.5792E-03     244.025E-03    -121.586E-03    -122.525E-03    -121.537E-03     243.976E-03    -122.525E-03     7.60542E-03    -14.7915E+06    -65.6730E+06    -135.369E+06    -65.7644E+06    -135.278E+06    -14.7915E+06     367.176E+03         44.0481
             896     6.19536E-03     22.9302E-03     690.933E-03     301.183E-03     158.257E-03     158.770E-03     690.420E-03     301.183E-03     4.82999E-03     244.290E-03    -121.831E-03    -122.508E-03    -121.824E-03     244.283E-03    -122.508E-03     1.42561E-03    -25.5006E+06    -72.8743E+06    -174.325E+06    -72.9318E+06    -174.267E+06    -25.5006E+06    -171.912E+03         42.8553
             897     5.31104E-03     22.9357E-03     633.618E-03     321.788E-03     195.600E-03     198.036E-03     631.181E-03     321.788E-03     52.0559E-03     244.773E-03    -122.225E-03    -122.625E-03    -122.414E-03     244.765E-03    -122.428E-03    -2.99361E-03    -37.2095E+06    -80.2058E+06    -207.518E+06    -80.2663E+06    -207.457E+06    -37.2095E+06     39.8734E+03         41.9082
             898     4.42703E-03     22.9414E-03     567.523E-03     342.716E-03     236.866E-03     239.397E-03     564.992E-03     342.716E-03     36.5128E-03     244.634E-03    -122.113E-03    -122.611E-03    -122.379E-03     244.610E-03    -122.322E-03    -5.75649E-03    -51.2408E+06    -86.7687E+06    -235.481E+06    -86.8225E+06    -235.427E+06    -51.2408E+06     18.2829E+03         41.1643
             899     3.54124E-03     22.9518E-03     490.581E-03     355.193E-03     294.453E-03     297.589E-03     481.193E-03     361.445E-03     9.41627E-03     244.048E-03    -121.807E-03    -122.282E-03    -121.864E-03     244.014E-03    -122.191E-03    -7.03658E-03    -69.1674E+06    -93.9234E+06    -258.176E+06    -93.9540E+06    -258.145E+06    -69.1674E+06    -225.923E+03         40.5833
             900     2.65595E-03     22.9638E-03     457.703E-03     369.859E-03     313.222E-03     338.695E-03     425.978E-03     376.111E-03    -8.53466E-03     243.968E-03    -121.876E-03    -122.130E-03    -121.847E-03     243.939E-03    -122.130E-03    -6.52343E-03    -84.6461E+06    -100.538E+06    -274.857E+06    -100.558E+06    -274.837E+06    -84.6461E+06    -359.690E+03         40.1483
             901     1.77060E-03     22.9712E-03     440.132E-03     395.933E-03     302.038E-03     352.959E-03     392.496E-03     392.648E-03     31.0543E-03     244.061E-03    -121.880E-03    -122.242E-03    -121.936E-03     244.043E-03    -122.167E-03    -5.10766E-03    -96.4858E+06    -106.379E+06    -284.596E+06    -106.416E+06    -284.560E+06    -96.4858E+06    -1.11445E+06         39.8466
             902     884.275E-06     22.9783E-03     647.321E-03     359.549E-03     135.024E-03     166.920E-03     336.020E-03     638.954E-03     57.8250E-03     244.294E-03    -121.953E-03    -122.360E-03    -122.035E-03     244.286E-03    -122.271E-03    -2.64233E-03    -105.075E+06    -112.241E+06    -286.341E+06    -110.658E+06    -286.296E+06    -106.703E+06    -2.30503E+06         39.6703
             903     15.0410E-03     22.6458E-03         1.92659    -30.5490E-03    -721.755E-03    -721.711E-03         1.92655    -30.5490E-03    -5.26086E-03     262.054E-03    -122.736E-03    -139.195E-03    -121.911E-03     245.055E-03    -123.020E-03     139.442E-03     107.565E+06     94.3985E+06    -5.90079E+06    -5.81732E+06     107.482E+06     94.3985E+06    -585.641E+03         65.2570
             904     14.1596E-03     22.3628E-03         1.78586     1.79071E-03    -615.551E-03    -615.454E-03         1.78576     1.79071E-03     26.6234E-03     268.523E-03    -123.016E-03    -145.334E-03    -121.542E-03     244.732E-03    -123.016E-03     190.021E-03     100.242E+06     92.9107E+06    -13.6021E+06    -13.4640E+06     99.1142E+06     93.8999E+06    -616.765E+03         63.1587
             905     13.2710E-03     22.1828E-03         1.65532     30.9234E-03    -517.606E-03    -517.464E-03         1.65517     30.9234E-03     30.1526E-03     259.109E-03    -123.084E-03    -136.135E-03    -119.396E-03     242.370E-03    -123.084E-03     159.054E-03     95.0558E+06     91.9764E+06    -20.5037E+06    -20.1775E+06     92.5537E+06     94.1524E+06     813.198E+03         60.9234
             906     12.3872E-03     21.9826E-03         1.53931     58.6876E-03    -432.934E-03    -432.548E-03         1.53892     58.6876E-03     43.3530E-03     255.773E-03    -122.988E-03    -132.873E-03    -119.571E-03     242.472E-03    -122.988E-03     139.052E-03     94.2225E+06     84.9125E+06    -26.1786E+06    -25.8323E+06     92.6895E+06     86.0993E+06     2.34085E+06         58.3155
             907     11.5058E-03     21.8465E-03         1.41891     86.0702E-03    -343.250E-03    -342.860E-03         1.41852     86.0702E-03     32.5266E-03     248.672E-03    -122.644E-03    -125.986E-03    -120.193E-03     242.960E-03    -122.725E-03     88.8842E-03     88.9921E+06     62.8428E+06    -34.2033E+06    -34.0332E+06     88.8220E+06     62.8428E+06     2.29345E+06         55.3161
             908     10.6192E-03     21.7752E-03         1.30178     113.655E-03    -259.511E-03    -258.724E-03         1.30099     113.655E-03     45.0984E-03     245.429E-03    -122.386E-03    -122.988E-03    -120.663E-03     243.186E-03    -122.467E-03     56.6370E-03     80.8646E+06     34.0428E+06    -41.8644E+06    -41.7971E+06     80.7973E+06     34.0428E+06     924.779E+03         52.2667
             909     9.73603E-03     21.7181E-03         1.19477     140.784E-03    -183.431E-03    -181.769E-03         1.19310     140.784E-03     94.4525E-03     244.762E-03    -122.082E-03    -122.706E-03    -121.311E-03     243.608E-03    -122.324E-03     40.2929E-03     48.4031E+06     14.2700E+06    -47.7865E+06    -47.6576E+06     48.2743E+06     14.2700E+06     291.084E+03         49.5414
             910     8.85306E-03     21.6840E-03         1.08851     166.911E-03    -106.230E-03    -105.238E-03         1.08752     166.911E-03     59.0065E-03     244.038E-03    -121.659E-03    -122.397E-03    -121.346E-03     243.558E-03    -122.231E-03     25.5359E-03     9.20753E+06    -22.2044E+06    -56.4036E+06    -53.2834E+06    -19.5033E+06     3.38618E+06     868.243E+03         47.2668
             911     7.96851E-03     21.6655E-03     983.008E-03     191.283E-03    -27.3676E-03    -25.9587E-03     981.599E-03     191.283E-03     59.7624E-03     243.703E-03    -121.578E-03    -122.194E-03    -121.498E-03     243.551E-03    -122.122E-03     14.2601E-03    -5.39724E+06    -57.5758E+06    -87.8231E+06    -59.3041E+06    -86.0949E+06    -5.39724E+06     978.363E+03         45.4192
             912     7.08368E-03     21.6548E-03     893.864E-03     213.338E-03     41.8266E-03     43.2038E-03     892.487E-03     213.338E-03     46.3230E-03     243.772E-03    -121.681E-03    -122.187E-03    -121.748E-03     243.737E-03    -122.085E-03     5.65537E-03    -14.0925E+06    -65.6377E+06    -134.611E+06    -65.7698E+06    -134.479E+06    -14.0925E+06     664.115E+03         43.9317
             913     6.19881E-03     21.6550E-03     821.641E-03     233.841E-03     92.6181E-03     93.4312E-03     820.828E-03     233.841E-03     28.8782E-03     243.742E-03    -121.738E-03    -122.051E-03    -121.794E-03     243.738E-03    -121.992E-03    -466.847E-06    -25.5481E+06    -72.7536E+06    -173.055E+06    -72.8343E+06    -172.975E+06    -25.5481E+06     433.364E+03         42.7327
             914     5.31362E-03     21.6564E-03     752.745E-03     253.085E-03     141.276E-03     144.882E-03     749.139E-03     253.085E-03     87.7205E-03     243.643E-03    -121.654E-03    -122.081E-03    -121.836E-03     243.629E-03    -121.885E-03    -4.01735E-03    -37.6806E+06    -79.8483E+06    -207.773E+06    -79.8894E+06    -207.732E+06    -37.6806E+06    -191.984E+03         41.7807
             915     4.42895E-03     21.6650E-03     680.645E-03     269.903E-03     194.008E-03     197.027E-03     677.626E-03     269.903E-03     56.5557E-03     243.353E-03    -121.436E-03    -122.018E-03    -121.608E-03     243.320E-03    -121.813E-03    -6.81379E-03    -50.2585E+06    -86.9358E+06    -236.537E+06    -86.9671E+06    -236.505E+06    -50.2585E+06    -31.8308E+03         41.0388
             916     3.54287E-03     21.6769E-03     625.941E-03     284.197E-03     232.675E-03     234.219E-03     624.397E-03     284.197E-03     32.2418E-03     243.012E-03    -121.342E-03    -121.734E-03    -121.307E-03     242.966E-03    -121.725E-03    -8.08497E-03    -67.3434E+06    -94.0277E+06    -257.605E+06    -94.0609E+06    -257.572E+06    -67.3434E+06     635.071E+03         40.4653
             917     2.65651E-03     21.6858E-03     590.263E-03     298.804E-03     251.473E-03     253.522E-03     588.214E-03     298.804E-03     51.1472E-03     243.016E-03    -121.377E-03    -121.678E-03    -121.338E-03     242.977E-03    -121.678E-03    -7.51335E-03    -83.2387E+06    -100.312E+06    -273.730E+06    -100.335E+06    -273.707E+06    -83.2387E+06     607.860E+03         40.0361
             918     1.77121E-03     21.6961E-03     542.682E-03     317.965E-03     279.901E-03     284.242E-03     541.626E-03     314.680E-03     19.5180E-03     243.206E-03    -121.372E-03    -121.881E-03    -121.519E-03     243.180E-03    -121.708E-03    -6.10372E-03    -96.9361E+06    -105.539E+06    -283.563E+06    -105.568E+06    -283.534E+06    -96.9361E+06    -430.325E+03         39.7410
             919     885.502E-06     21.7032E-03     643.115E-03     416.781E-03     92.8555E-03     97.8563E-03     507.448E-03     547.447E-03     20.9046E-03     243.417E-03    -121.243E-03    -122.194E-03    -121.974E-03     243.405E-03    -121.451E-03    -3.73482E-03    -106.403E+06    -112.731E+06    -290.013E+06    -109.876E+06    -289.979E+06    -109.292E+06    -1.27666E+06         39.5738
             920     15.0430E-03     21.3699E-03         1.96841    -82.1509E-03    -714.455E-03    -714.404E-03         1.96836    -82.1509E-03     2.58127E-03     262.251E-03    -122.530E-03    -139.581E-03    -121.451E-03     244.667E-03    -123.076E-03     141.018E-03     107.648E+06     94.8710E+06    -5.48909E+06    -5.32516E+06     107.484E+06     94.8710E+06     395.847E+03         65.2178
             921     14.1543E-03     21.0805E-03         1.84579    -56.0644E-03    -623.218E-03    -623.108E-03         1.84568    -56.0644E-03     28.2199E-03     269.554E-03    -123.091E-03    -146.275E-03    -122.091E-03     245.370E-03    -123.091E-03     191.385E-03     100.870E+06     94.0999E+06    -11.8272E+06    -11.6360E+06     99.9064E+06     94.8722E+06     707.215E+03         63.1197
             922     13.2736E-03     20.9056E-03         1.73115    -33.1978E-03    -535.736E-03    -535.547E-03         1.73096    -33.1978E-03     41.2406E-03     261.104E-03    -123.063E-03    -138.124E-03    -121.831E-03     244.811E-03    -123.063E-03     157.841E-03     94.2730E+06     91.7870E+06    -20.0234E+06    -19.8258E+06     92.1164E+06     93.7460E+06    -310.072E+03         60.8728
             923     12.3894E-03     20.6980E-03         1.62387    -11.1693E-03    -457.548E-03    -457.372E-03         1.62369    -11.1693E-03     37.6423E-03     256.787E-03    -122.823E-03    -134.028E-03    -121.155E-03     243.914E-03    -122.823E-03     137.160E-03     91.6772E+06     84.1830E+06    -28.1362E+06    -27.8654E+06     90.2196E+06     85.3698E+06     402.117E+03         58.2247
             924     11.5046E-03     20.5684E-03         1.52546     11.4499E-03    -385.384E-03    -385.264E-03         1.52534     11.4499E-03     28.3603E-03     248.505E-03    -122.474E-03    -125.983E-03    -120.555E-03     243.076E-03    -122.474E-03     86.6622E-03     88.9815E+06     64.7623E+06    -33.9946E+06    -33.7465E+06     88.7334E+06     64.7623E+06     1.99170E+06         55.1758
             925     10.6249E-03     20.4926E-03         1.42265     35.3509E-03    -307.702E-03    -307.418E-03         1.42236     35.3509E-03     30.1372E-03     245.638E-03    -122.134E-03    -123.421E-03    -121.299E-03     243.516E-03    -122.134E-03     55.0938E-03     83.1334E+06     35.4402E+06    -39.2350E+06    -39.1473E+06     83.0457E+06     35.4402E+06     1.70987E+06         52.1006
             926     9.74167E-03     20.4409E-03         1.30943     58.4087E-03    -220.000E-03    -218.704E-03         1.30814     58.4087E-03     74.4160E-03     244.601E-03    -121.673E-03    -122.928E-03    -121.663E-03     243.579E-03    -121.915E-03     37.7296E-03     48.3067E+06     13.6193E+06    -46.4480E+06    -46.2333E+06     48.0921E+06     13.6193E+06     1.27775E+06         49.3701
             927     8.85521E-03     20.4061E-03         1.21447     79.8862E-03    -151.198E-03    -150.131E-03         1.21341     79.8862E-03     62.0606E-03     243.917E-03    -121.509E-03    -122.390E-03    -121.781E-03     243.550E-03    -121.751E-03     21.6712E-03     8.27047E+06    -22.0747E+06    -55.6297E+06    -53.5502E+06    -19.1407E+06     3.25691E+06     1.48156E+06         47.0921
             928     7.97176E-03     20.3872E-03         1.14242     101.056E-03    -102.678E-03    -101.489E-03         1.14123     101.056E-03     58.9139E-03     243.422E-03    -121.544E-03    -121.898E-03    -121.805E-03     243.329E-03    -121.544E-03     10.3362E-03    -5.86584E+06    -57.2068E+06    -86.6259E+06    -59.4937E+06    -84.3390E+06    -5.86584E+06     1.27565E+06         45.2347
             929     7.08805E-03     20.3791E-03         1.06787     122.129E-03    -48.6749E-03    -47.4392E-03         1.06663     122.129E-03     61.0151E-03     243.040E-03    -121.414E-03    -121.701E-03    -121.683E-03     243.022E-03    -121.414E-03     3.02227E-03    -15.2824E+06    -66.0601E+06    -134.228E+06    -66.2317E+06    -134.056E+06    -15.2824E+06     1.20062E+06         43.7367
             930     6.20358E-03     20.3778E-03     987.215E-03     141.943E-03     10.2262E-03     10.7453E-03     986.696E-03     141.943E-03     36.0369E-03     242.736E-03    -121.227E-03    -121.548E-03    -121.512E-03     242.728E-03    -121.256E-03    -2.51524E-03    -25.6626E+06    -72.5995E+06    -171.808E+06    -72.6805E+06    -171.727E+06    -25.6626E+06     845.456E+03         42.5342
             931     5.31814E-03     20.3824E-03     912.014E-03     158.992E-03     68.4829E-03     70.7583E-03     909.738E-03     158.992E-03     69.9520E-03     242.039E-03    -120.870E-03    -121.269E-03    -120.972E-03     242.007E-03    -121.135E-03    -6.44605E-03    -38.0841E+06    -80.1243E+06    -206.925E+06    -80.1668E+06    -206.882E+06    -38.0841E+06     293.242E+03         41.5838
             932     4.43059E-03     20.3911E-03     853.614E-03     172.255E-03     117.806E-03     119.887E-03     851.533E-03     172.255E-03     25.0039E-03     241.809E-03    -120.824E-03    -121.094E-03    -120.774E-03     241.749E-03    -121.085E-03    -9.15533E-03    -50.8530E+06    -87.9152E+06    -237.185E+06    -87.9309E+06    -237.169E+06    -50.8530E+06     15.6122E+03         40.8513
             933     3.54548E-03     20.4025E-03     816.748E-03     182.304E-03     149.493E-03     150.844E-03     815.398E-03     182.304E-03     15.7386E-03     241.983E-03    -120.911E-03    -121.150E-03    -121.014E-03     241.914E-03    -120.977E-03    -9.93709E-03    -65.7235E+06    -94.3649E+06    -257.752E+06    -94.4005E+06    -257.716E+06    -65.7235E+06     16.6174E+03         40.2933
             934     2.65973E-03     20.4145E-03     778.506E-03     195.714E-03     167.364E-03     176.011E-03     776.167E-03     189.405E-03     19.1895E-03     241.746E-03    -120.644E-03    -121.135E-03    -120.910E-03     241.687E-03    -120.809E-03    -9.19856E-03    -82.0401E+06    -100.641E+06    -273.684E+06    -100.677E+06    -273.648E+06    -82.0401E+06     354.871E+03         39.8732
             935     1.77228E-03     20.4223E-03     764.256E-03     200.799E-03     174.242E-03     186.686E-03     758.121E-03     194.491E-03     46.7723E-03     241.432E-03    -120.412E-03    -121.040E-03    -120.709E-03     241.393E-03    -120.705E-03    -7.36174E-03    -95.4529E+06    -106.554E+06    -283.186E+06    -106.565E+06    -283.174E+06    -95.4529E+06     807.337E+03         39.5795
             936     887.211E-06     20.4279E-03     812.445E-03     349.735E-03    -5.23265E-03    -293.277E-06     762.792E-03     394.448E-03     61.4905E-03     241.287E-03    -120.192E-03    -121.105E-03    -120.905E-03     241.271E-03    -120.377E-03    -3.51926E-03    -104.697E+06    -114.571E+06    -289.533E+06    -111.695E+06    -289.520E+06    -107.586E+06     1.15978E+06         39.4102
             937     15.0400E-03     20.0892E-03         2.02547    -150.719E-03    -715.029E-03    -715.005E-03         2.02544    -150.719E-03     4.41097E-03     262.418E-03    -122.792E-03    -139.573E-03    -122.179E-03     245.329E-03    -123.097E-03     139.602E-03     106.765E+06     93.7488E+06    -6.66624E+06    -6.44869E+06     106.548E+06     93.7488E+06     437.754E+03         65.1637
             938     14.1552E-03     19.8043E-03         1.92053    -131.246E-03    -635.680E-03    -635.390E-03         1.92024    -131.246E-03     31.1153E-03     270.173E-03    -123.045E-03    -146.869E-03    -123.219E-03     246.523E-03    -123.045E-03     189.839E-03     100.943E+06     93.4524E+06    -12.3289E+06    -12.1163E+06     99.9581E+06     94.2247E+06     328.213E+03         63.0350
             939     13.2722E-03     19.6133E-03         1.82893    -114.958E-03    -564.453E-03    -564.138E-03         1.82861    -114.958E-03     41.4605E-03     262.019E-03    -122.913E-03    -139.160E-03    -123.352E-03     246.211E-03    -122.913E-03     156.033E-03     95.5566E+06     91.9675E+06    -19.4238E+06    -19.2365E+06     93.3798E+06     93.9570E+06    -274.450E+03         60.7467
             940     12.3952E-03     19.4219E-03         1.73620    -98.8621E-03    -495.450E-03    -494.905E-03         1.73565    -98.8621E-03     46.7612E-03     257.533E-03    -122.529E-03    -135.141E-03    -122.881E-03     245.273E-03    -122.529E-03     134.406E-03     91.2151E+06     83.9113E+06    -27.8602E+06    -27.6593E+06     89.7970E+06     85.1285E+06    -137.808E+03         58.0552
             941     11.5132E-03     19.2867E-03         1.65216    -81.7448E-03    -430.467E-03    -429.833E-03         1.65152    -81.7448E-03     59.5145E-03     249.076E-03    -122.041E-03    -126.956E-03    -121.830E-03     243.950E-03    -122.041E-03     84.0681E-03     88.1964E+06     63.3601E+06    -34.2039E+06    -33.9707E+06     87.9632E+06     63.3601E+06     347.254E+03         54.9580
             942     10.6274E-03     19.2138E-03         1.56559    -62.8096E-03    -361.720E-03    -361.402E-03         1.56528    -62.8096E-03     38.8936E-03     245.642E-03    -121.588E-03    -124.004E-03    -122.185E-03     243.823E-03    -121.588E-03     50.5843E-03     81.8306E+06     33.5878E+06    -40.6013E+06    -40.3670E+06     81.5963E+06     33.5878E+06     1.81672E+06         51.8419
             943     9.74431E-03     19.1610E-03         1.47252    -43.9785E-03    -288.122E-03    -286.964E-03         1.47137    -43.9785E-03     76.3455E-03     244.822E-03    -121.209E-03    -123.617E-03    -122.846E-03     244.050E-03    -121.209E-03     32.0381E-03     48.8438E+06     12.6919E+06    -47.2097E+06    -46.9359E+06     48.5700E+06     12.6919E+06     3.08928E+06         49.0892
             944     8.86523E-03     19.1284E-03         1.39068    -25.9845E-03    -227.694E-03    -226.579E-03         1.38956    -25.9845E-03     76.4802E-03     243.658E-03    -120.894E-03    -122.744E-03    -122.530E-03     243.443E-03    -120.894E-03     15.8260E-03     9.58539E+06    -21.5393E+06    -54.6897E+06    -52.2916E+06    -17.1711E+06     2.81904E+06     2.33711E+06         46.8011
             945     7.98089E-03     19.1112E-03         1.32389    -8.07705E-03    -181.872E-03    -180.916E-03         1.32294    -8.07705E-03     68.1178E-03     242.157E-03    -120.576E-03    -121.614E-03    -121.587E-03     242.130E-03    -120.576E-03     4.84147E-03    -6.68572E+06    -56.9515E+06    -85.6702E+06    -59.2360E+06    -83.3857E+06    -6.68572E+06     2.02720E+06         44.9354
             946     7.09468E-03     19.1029E-03         1.25869     9.99611E-03    -139.135E-03    -138.248E-03         1.25780     9.99611E-03     61.7508E-03     241.447E-03    -120.358E-03    -121.165E-03    -121.150E-03     241.431E-03    -120.358E-03    -1.86145E-03    -15.6511E+06    -66.0394E+06    -132.989E+06    -66.2177E+06    -132.811E+06    -15.6511E+06     2.04827E+06         43.4303
             947     6.20870E-03     19.1024E-03         1.18810     27.3527E-03    -87.3152E-03    -87.0780E-03         1.18787     27.3527E-03     32.5252E-03     241.024E-03    -120.143E-03    -120.903E-03    -120.849E-03     240.970E-03    -120.143E-03    -7.47255E-03    -26.4694E+06    -73.5173E+06    -171.250E+06    -73.6159E+06    -171.151E+06    -26.4694E+06     1.74698E+06         42.2289
             948     5.32299E-03     19.1096E-03         1.12540     42.8156E-03    -40.1133E-03    -38.0271E-03         1.12331     42.8156E-03     78.5811E-03     240.262E-03    -119.888E-03    -120.471E-03    -120.309E-03     240.168E-03    -119.957E-03    -11.0464E-03    -38.3245E+06     -81.038E+06    -205.639E+06    -81.0901E+06    -205.587E+06    -38.3245E+06     1.46414E+06         41.2865
             949     4.43723E-03     19.1194E-03         1.07769     55.7728E-03     700.452E-06     2.94343E-03         1.07545     55.7728E-03     58.2727E-03     239.711E-03    -119.746E-03    -120.073E-03    -119.869E-03     239.600E-03    -119.839E-03    -12.4603E-03    -52.0323E+06    -89.2012E+06    -235.644E+06    -89.2391E+06    -235.606E+06    -52.0323E+06     504.796E+03         40.5639
             950     3.54914E-03     19.1301E-03         1.03281     64.8487E-03     43.1435E-03     43.9108E-03         1.03214     64.7438E-03     23.7039E-03     239.672E-03    -119.689E-03    -120.020E-03    -119.883E-03     239.558E-03    -119.713E-03    -12.6646E-03    -68.5699E+06    -97.2130E+06    -258.058E+06    -97.2427E+06    -258.029E+06    -68.5699E+06    -301.365E+03         40.0195
             951     2.66241E-03     19.1414E-03         1.00405     75.0853E-03     59.7155E-03     67.4599E-03         1.00271     68.6722E-03     3.00688E-03     239.387E-03    -119.475E-03    -119.927E-03    -119.802E-03     239.299E-03    -119.512E-03    -11.0459E-03    -83.3464E+06    -103.844E+06    -273.859E+06    -103.877E+06    -273.825E+06    -83.3464E+06    -197.691E+03         39.6123
             952     1.77680E-03     19.1521E-03     995.817E-03     85.1439E-03     57.7063E-03     83.8307E-03     989.630E-03     65.2060E-03     21.6866E-03     238.724E-03    -119.180E-03    -119.561E-03    -119.308E-03     238.679E-03    -119.387E-03    -7.87428E-03    -97.8195E+06    -110.008E+06    -283.898E+06    -110.023E+06    -283.883E+06    -97.8195E+06     375.582E+03         39.3272
             953     886.503E-06     19.1599E-03         1.01434     206.055E-03    -89.3530E-03    -69.9094E-03         1.00853     192.425E-03     76.5388E-03     238.698E-03    -119.179E-03    -119.532E-03    -119.330E-03     238.680E-03    -119.364E-03    -3.82139E-03    -107.122E+06    -116.158E+06    -288.316E+06    -113.550E+06    -288.234E+06    -109.813E+06    -787.108E+03         39.1651
             954     15.0428E-03     18.8094E-03         2.10007    -234.207E-03    -725.294E-03    -725.279E-03         2.10006    -234.207E-03    -3.96903E-03     264.093E-03    -122.980E-03    -141.175E-03    -124.284E-03     247.245E-03    -123.023E-03     139.671E-03     108.044E+06     95.0278E+06    -4.69208E+06    -4.45829E+06     107.810E+06     95.0278E+06     581.019E+03         65.0812
             955     14.1611E-03     18.5208E-03         2.01468    -221.377E-03    -658.459E-03    -658.172E-03         2.01440    -221.377E-03     29.8963E-03     271.599E-03    -122.832E-03    -148.566E-03    -125.155E-03     248.189E-03    -122.832E-03     189.909E-03     100.560E+06     92.5504E+06    -12.6097E+06    -12.3927E+06     99.5832E+06     93.3106E+06     585.697E+03         62.8902
             956     13.2794E-03     18.3322E-03         1.92766    -212.252E-03    -585.116E-03    -584.825E-03         1.92737    -212.252E-03     38.5118E-03     262.382E-03    -122.603E-03    -139.811E-03    -124.205E-03     246.776E-03    -122.603E-03     155.309E-03     94.6810E+06     90.9043E+06    -20.2410E+06    -20.0355E+06     92.4982E+06     92.8816E+06     210.805E+03         60.5239
             957     12.3959E-03     18.1338E-03         1.85754    -203.419E-03    -527.617E-03    -526.759E-03         1.85668    -203.419E-03     65.7572E-03     258.900E-03    -122.065E-03    -136.883E-03    -125.274E-03     247.292E-03    -122.065E-03     130.605E-03     92.4484E+06     84.1366E+06    -26.8988E+06    -26.6121E+06     90.9446E+06     85.3538E+06    -293.561E+03         57.7791
             958     11.5175E-03     18.0071E-03         1.78927    -193.113E-03    -474.056E-03    -473.079E-03         1.78830    -193.113E-03     83.9248E-03     251.106E-03    -121.307E-03    -129.656E-03    -125.277E-03     246.727E-03    -121.307E-03     77.1549E-03     86.4871E+06     60.8756E+06    -35.2604E+06    -34.9114E+06     86.1381E+06     60.8756E+06     330.616E+03         54.6414
             959     10.6399E-03     17.9320E-03         1.72254    -180.298E-03    -419.366E-03    -418.740E-03         1.72191    -180.298E-03     66.7004E-03     246.346E-03    -120.567E-03    -125.715E-03    -124.442E-03     245.074E-03    -120.567E-03     41.9439E-03     79.1899E+06     30.9644E+06    -42.8925E+06    -42.5932E+06     78.8906E+06     30.9644E+06     2.05857E+06         51.4760
             960     9.75989E-03     17.8807E-03         1.67514    -165.757E-03    -383.813E-03    -382.484E-03         1.67381    -165.757E-03     103.306E-03     243.928E-03    -119.942E-03    -123.996E-03    -123.580E-03     243.513E-03    -119.942E-03     22.6754E-03     49.5559E+06     12.1947E+06    -47.8733E+06    -47.5722E+06     49.2549E+06     12.1947E+06     2.97488E+06         48.6808
             961     8.87457E-03     17.8490E-03         1.61105    -149.923E-03    -337.322E-03    -336.267E-03         1.60999    -149.923E-03     86.2203E-03     242.036E-03    -119.478E-03    -122.580E-03    -122.491E-03     241.948E-03    -119.478E-03     6.90467E-03     10.1321E+06    -21.2789E+06    -54.7570E+06    -52.9148E+06    -15.1612E+06     2.17215E+06     3.36961E+06         46.3736
             962     7.99088E-03     17.8379E-03         1.53343    -134.692E-03    -273.585E-03    -272.517E-03         1.53236    -134.692E-03     82.5859E-03     240.789E-03    -119.018E-03    -121.838E-03    -121.789E-03     240.741E-03    -119.018E-03    -3.56871E-03    -7.65992E+06    -56.6521E+06    -84.9408E+06    -59.8255E+06    -81.7674E+06    -7.65992E+06     3.42395E+06         44.5019
             963     7.10645E-03     17.8316E-03         1.47516    -120.970E-03    -230.109E-03    -228.922E-03         1.47398    -120.970E-03     83.1915E-03     239.411E-03    -118.596E-03    -120.883E-03    -120.770E-03     239.298E-03    -118.596E-03    -10.7270E-03    -16.8888E+06    -66.6132E+06    -131.516E+06    -66.9236E+06    -131.205E+06    -16.8888E+06     3.24539E+06         42.9870
             964     6.22083E-03     17.8323E-03         1.42572    -108.208E-03    -190.918E-03    -190.466E-03         1.42527    -108.208E-03     47.6939E-03     237.861E-03    -118.261E-03    -119.579E-03    -119.391E-03     237.673E-03    -118.261E-03    -15.6789E-03    -28.2462E+06    -73.7611E+06    -169.826E+06    -73.8916E+06    -169.695E+06    -28.2462E+06     2.83575E+06         41.7768
             965     5.33298E-03     17.8405E-03         1.38391    -96.1627E-03    -162.918E-03    -160.173E-03         1.38116    -96.1627E-03     105.362E-03     236.919E-03    -118.040E-03    -118.942E-03    -118.719E-03     236.696E-03    -118.040E-03    -17.4800E-03    -40.1275E+06    -80.7428E+06    -204.019E+06    -80.8272E+06    -203.935E+06    -40.1275E+06     2.57481E+06         40.8391
             966     4.44444E-03     17.8522E-03         1.34232    -84.6530E-03    -137.064E-03    -134.203E-03         1.33946    -84.6530E-03     84.3621E-03     236.336E-03    -117.888E-03    -118.546E-03    -118.322E-03     236.112E-03    -117.888E-03    -17.4886E-03    -53.8336E+06    -88.6023E+06    -233.392E+06    -88.6632E+06    -233.331E+06    -53.8336E+06     1.80261E+06         40.1293
             967     3.55678E-03     17.8622E-03         1.30018    -75.2517E-03    -100.243E-03    -99.3330E-03         1.29937    -75.3566E-03     36.6154E-03     235.730E-03    -117.681E-03    -118.067E-03    -117.786E-03     235.539E-03    -117.772E-03    -16.1998E-03    -70.1433E+06    -96.4697E+06    -256.824E+06    -96.5153E+06    -256.778E+06    -70.1433E+06     524.510E+03         39.6001
             968     2.66769E-03     17.8745E-03         1.28348    -67.9984E-03    -86.1197E-03    -85.3443E-03         1.28281    -68.1033E-03     54.1914E-03     235.398E-03    -117.547E-03    -117.854E-03    -117.584E-03     235.256E-03    -117.675E-03    -13.9394E-03    -85.3004E+06    -102.734E+06    -273.568E+06    -102.753E+06    -273.549E+06    -85.3004E+06    -529.903E+03         39.2112
             969     1.77635E-03     17.8871E-03         1.26219    -45.9231E-03    -91.4771E-03    -77.4128E-03         1.26176    -59.5528E-03     3.81560E-03     235.342E-03    -117.535E-03    -117.824E-03    -117.706E-03     235.261E-03    -117.572E-03    -10.0484E-03    -99.2302E+06    -108.149E+06    -283.467E+06    -108.158E+06    -283.458E+06    -99.2302E+06    -639.463E+03         38.9474
             970     890.144E-06     17.8910E-03         1.22215     83.0661E-03    -196.749E-03    -178.258E-03         1.21728     69.4364E-03     96.3321E-03     234.983E-03    -117.190E-03    -117.800E-03    -117.775E-03     234.958E-03    -117.190E-03    -5.36686E-03    -108.620E+06    -115.274E+06    -290.103E+06    -112.719E+06    -289.967E+06    -111.310E+06    -273.187E+03         38.8009
             971     15.0424E-03     17.5265E-03         2.17492    -330.054E-03    -720.485E-03    -720.454E-03         2.17489    -330.054E-03     2.45437E-03     266.326E-03    -122.910E-03    -143.452E-03    -126.476E-03     249.351E-03    -122.910E-03     141.648E-03     107.410E+06     94.8759E+06    -6.27748E+06    -6.04491E+06     107.177E+06     94.8759E+06     753.189E+03         64.9669
             972     14.1618E-03     17.2336E-03         2.11359    -325.272E-03    -668.443E-03    -668.198E-03         2.11334    -325.272E-03     41.4919E-03     273.738E-03    -122.552E-03    -151.158E-03    -128.163E-03     250.743E-03    -122.552E-03     188.784E-03     102.331E+06     93.9977E+06    -11.8342E+06    -11.6146E+06     101.352E+06     94.7579E+06     812.245E+03         62.7000
             973     13.2823E-03     17.0509E-03         2.06168    -324.038E-03    -620.817E-03    -620.408E-03         2.06127    -324.038E-03     60.8465E-03     264.824E-03    -122.056E-03    -142.889E-03    -128.256E-03     250.191E-03    -122.056E-03     151.509E-03     95.4988E+06     91.5787E+06    -19.0595E+06    -18.8210E+06     93.2464E+06     93.5926E+06     152.392E+03         60.2341
             974     12.4075E-03     16.8442E-03         2.00864    -322.579E-03    -571.029E-03    -570.336E-03         2.00795    -322.579E-03     76.6229E-03     260.878E-03    -121.149E-03    -139.829E-03    -129.590E-03     250.640E-03    -121.149E-03     122.244E-03     91.1253E+06     82.3223E+06    -27.8290E+06    -27.4434E+06     89.4860E+06     83.5761E+06     216.338E+03         57.4097
             975     11.5343E-03     16.7169E-03         1.95564    -319.019E-03    -526.246E-03    -525.557E-03         1.95495    -319.019E-03     75.6385E-03     252.042E-03    -119.981E-03    -131.992E-03    -128.882E-03     248.932E-03    -119.981E-03     64.2452E-03     85.2132E+06     59.6505E+06    -36.3660E+06    -35.9550E+06     84.8021E+06     59.6505E+06     1.24395E+06         54.2249
             976     10.6571E-03     16.6504E-03         1.91683    -311.679E-03    -494.035E-03    -493.367E-03         1.91616    -311.679E-03     74.1129E-03     246.501E-03    -118.884E-03    -127.464E-03    -126.754E-03     245.791E-03    -118.884E-03     30.5867E-03     78.5398E+06     30.3835E+06    -42.6157E+06    -42.3162E+06     78.2403E+06     30.3835E+06     2.36770E+06         51.0233
             977     9.77662E-03     16.6024E-03         1.87955    -301.970E-03    -465.547E-03    -464.062E-03         1.87807    -301.970E-03     115.146E-03     242.975E-03    -117.923E-03    -124.982E-03    -124.785E-03     242.778E-03    -117.923E-03     11.0673E-03     49.9616E+06     9.86186E+06    -48.2568E+06    -47.9418E+06     49.6466E+06     9.86186E+06     3.23101E+06         48.1860
             978     8.89568E-03     16.5776E-03         1.83791    -290.707E-03    -434.917E-03    -433.626E-03         1.83662    -290.707E-03     103.141E-03     240.433E-03    -117.149E-03    -123.270E-03    -123.174E-03     240.337E-03    -117.149E-03    -6.31565E-03     9.27932E+06    -22.2855E+06    -56.1629E+06    -54.5496E+06    -13.6346E+06    -984.822E+03     4.09839E+06         45.8397
             979     8.01122E-03     16.5635E-03         1.78669    -278.803E-03    -394.310E-03    -393.239E-03         1.78562    -278.803E-03     92.5327E-03     238.274E-03    -116.446E-03    -121.840E-03    -121.595E-03     238.029E-03    -116.446E-03    -17.0028E-03    -10.6966E+06    -55.8187E+06    -84.5369E+06    -60.7480E+06    -79.6076E+06    -10.6966E+06     4.70033E+06         43.9385
             980     7.12700E-03     16.5610E-03         1.72870    -267.976E-03    -346.492E-03    -345.290E-03         1.72750    -267.976E-03     96.0962E-03     235.603E-03    -115.806E-03    -119.775E-03    -119.367E-03     235.195E-03    -115.806E-03    -23.0093E-03    -19.9507E+06    -66.7460E+06    -129.759E+06    -67.2051E+06    -129.300E+06    -19.9507E+06     4.57065E+06         42.4001
             981     6.23776E-03     16.5672E-03         1.69232    -258.443E-03    -317.439E-03    -316.964E-03         1.69185    -258.443E-03     48.1288E-03     233.186E-03    -115.338E-03    -117.790E-03    -117.294E-03     232.690E-03    -115.338E-03    -25.6536E-03    -31.0024E+06    -73.7051E+06    -167.281E+06    -73.9609E+06    -167.025E+06    -31.0024E+06     4.25774E+06         41.1690
             982     5.34767E-03     16.5771E-03         1.66854    -248.819E-03    -302.675E-03    -301.061E-03         1.66693    -248.819E-03     86.7274E-03     231.769E-03    -115.049E-03    -116.694E-03    -116.179E-03     231.254E-03    -115.049E-03    -26.1371E-03    -45.4120E+06    -81.1928E+06    -202.412E+06    -81.3186E+06    -202.286E+06    -45.4120E+06     3.58510E+06         40.2195
             983     4.45788E-03     16.5883E-03         1.63852    -239.535E-03    -276.200E-03    -274.513E-03         1.63683    -239.535E-03     58.8245E-03     230.682E-03    -114.875E-03    -115.831E-03    -115.359E-03     230.209E-03    -114.875E-03    -25.1000E-03    -58.5184E+06    -87.3629E+06    -230.772E+06    -87.4320E+06    -230.702E+06    -58.5184E+06     2.28876E+06         39.5146
             984     3.56597E-03     16.6019E-03         1.61555    -231.134E-03    -258.673E-03    -257.860E-03         1.61474    -231.134E-03     30.4492E-03     229.903E-03    -114.702E-03    -115.266E-03    -114.806E-03     229.535E-03    -114.793E-03    -22.0450E-03    -71.1439E+06    -92.7165E+06    -254.083E+06    -92.7647E+06    -254.035E+06    -71.1439E+06     1.06159E+06         39.0016
             985     2.67381E-03     16.6134E-03         1.58559    -222.876E-03    -244.036E-03    -243.214E-03         1.58477    -222.876E-03     50.1134E-03     229.766E-03    -114.648E-03    -115.140E-03    -114.794E-03     229.512E-03    -114.739E-03    -18.3626E-03    -85.1695E+06    -99.0850E+06    -273.659E+06    -99.1069E+06    -273.637E+06    -85.1695E+06     546.044E+03         38.6342
             986     1.78496E-03     16.6236E-03         1.55649    -205.912E-03    -239.556E-03    -231.592E-03         1.55626    -213.653E-03     18.2301E-03     229.549E-03    -114.548E-03    -114.997E-03    -114.776E-03     229.413E-03    -114.632E-03    -13.2261E-03    -96.5418E+06    -104.991E+06    -283.505E+06    -105.011E+06    -283.485E+06    -96.5418E+06     846.339E+03         38.3920
             987     891.346E-06     16.6304E-03         1.52254    -84.2622E-03    -336.122E-03    -324.231E-03         1.51839    -92.0024E-03     79.6180E-03     229.101E-03    -114.178E-03    -114.920E-03    -114.579E-03     229.060E-03    -114.478E-03    -6.70401E-03    -104.330E+06    -110.585E+06    -288.794E+06    -109.414E+06    -288.660E+06    -105.634E+06     632.505E+03         38.2581
             988     15.0460E-03     16.2394E-03         2.25841    -436.690E-03    -710.189E-03    -710.133E-03         2.25836    -436.690E-03     16.6051E-03     269.787E-03    -122.734E-03    -147.101E-03    -130.590E-03     253.276E-03    -122.734E-03     142.629E-03     106.316E+06     94.8895E+06    -4.98144E+06    -4.75604E+06     106.090E+06     94.8895E+06     510.863E+03         64.8430
             989     14.1688E-03     15.9468E-03         2.22068    -440.663E-03    -670.723E-03    -670.440E-03         2.22040    -440.663E-03     51.0053E-03     277.521E-03    -122.047E-03    -155.565E-03    -133.972E-03     255.928E-03    -122.047E-03     184.347E-03     102.607E+06     94.1562E+06    -10.4729E+06    -10.2882E+06     100.998E+06     95.5803E+06     876.985E+03         62.5023
             990     13.2969E-03     15.7586E-03         2.20205    -447.921E-03    -647.648E-03    -647.061E-03         2.20146    -447.921E-03     80.5625E-03     268.543E-03    -121.086E-03    -147.691E-03    -134.746E-03     255.598E-03    -121.086E-03     144.410E-03     97.5736E+06     92.4760E+06    -17.8825E+06    -17.5454E+06     94.5586E+06     95.1538E+06     1.45881E+06         59.9428
             991     12.4282E-03     15.5528E-03         2.18363    -453.668E-03    -629.473E-03    -628.911E-03         2.18307    -453.668E-03     78.4973E-03     262.954E-03    -119.671E-03    -143.652E-03    -134.780E-03     254.082E-03    -119.671E-03     114.425E-03     91.1493E+06     82.5715E+06    -27.4288E+06    -26.9888E+06     89.4556E+06     83.8253E+06     1.89211E+06         57.0396
             992     11.5573E-03     15.4277E-03         2.15953    -455.621E-03    -605.911E-03    -605.048E-03         2.15867    -455.621E-03     92.5007E-03     252.675E-03    -118.063E-03    -134.822E-03    -132.485E-03     250.338E-03    -118.063E-03     53.8210E-03     84.6198E+06     59.6028E+06    -35.4332E+06    -35.0623E+06     84.2488E+06     59.6028E+06     2.04513E+06         53.8076
             993     10.6826E-03     15.3694E-03         2.13172    -452.799E-03    -579.267E-03    -578.369E-03         2.13082    -452.799E-03     93.7057E-03     246.894E-03    -116.536E-03    -130.238E-03    -129.949E-03     246.605E-03    -116.536E-03     17.5958E-03     78.1025E+06     29.2670E+06    -42.2039E+06    -41.8868E+06     77.7854E+06     29.2670E+06     2.74316E+06         50.5798
             994     9.80582E-03     15.3249E-03         2.09261    -448.100E-03    -546.409E-03    -545.126E-03         2.09133    -448.100E-03     108.174E-03     242.908E-03    -115.037E-03    -127.736E-03    -127.603E-03     242.775E-03    -115.037E-03    -3.49054E-03     49.9760E+06     5.57033E+06    -49.0659E+06    -48.6558E+06     49.5659E+06     5.57033E+06     3.97562E+06         47.6956
             995     8.92536E-03     15.3043E-03         2.06477    -442.670E-03    -520.820E-03    -519.370E-03         2.06332    -442.670E-03     119.037E-03     238.775E-03    -113.765E-03    -124.862E-03    -124.477E-03     238.390E-03    -113.765E-03    -21.3479E-03     8.85528E+06    -23.4672E+06    -56.1587E+06    -54.2076E+06    -11.3342E+06    -5.22882E+06     5.26429E+06         45.2742
             996     8.04297E-03     15.2956E-03         2.05140    -435.556E-03    -513.094E-03    -512.256E-03         2.05057    -435.556E-03     89.8673E-03     234.054E-03    -112.706E-03    -121.210E-03    -120.456E-03     233.300E-03    -112.706E-03    -31.4476E-03    -13.4402E+06    -53.6465E+06    -83.6533E+06    -59.8487E+06    -77.4512E+06    -13.4402E+06     6.04996E+06         43.2996
             997     7.15322E-03     15.3016E-03         2.02580    -426.778E-03    -495.588E-03    -494.523E-03         2.02474    -426.778E-03     96.9494E-03     230.182E-03    -111.842E-03    -118.159E-03    -117.134E-03     229.157E-03    -111.842E-03    -36.8611E-03    -22.7905E+06    -65.5761E+06    -127.813E+06    -66.3774E+06    -127.012E+06    -22.7905E+06     6.26507E+06         41.7122
             998     6.26339E-03     15.3096E-03         1.99340    -418.021E-03    -467.445E-03    -466.631E-03         1.99258    -418.021E-03     73.7400E-03     227.296E-03    -111.200E-03    -115.962E-03    -114.833E-03     226.167E-03    -111.200E-03    -38.5538E-03    -33.0352E+06    -72.9923E+06    -164.625E+06    -73.4231E+06    -164.194E+06    -33.0352E+06     5.95530E+06         40.4440
             999     5.37180E-03     15.3199E-03         1.96208    -410.024E-03    -447.241E-03    -445.911E-03         1.96074    -410.024E-03     93.5020E-03     224.529E-03    -110.729E-03    -113.680E-03    -112.597E-03     223.446E-03    -110.729E-03    -37.5903E-03    -46.2953E+06    -79.6316E+06    -198.482E+06    -79.8780E+06    -198.235E+06    -46.2953E+06     4.98010E+06         39.4550
            1000     4.47658E-03     15.3348E-03         1.93801    -403.082E-03    -425.492E-03    -424.193E-03         1.93671    -403.082E-03     86.1549E-03     222.514E-03    -110.457E-03    -111.982E-03    -111.076E-03     221.608E-03    -110.457E-03    -34.2524E-03    -61.6428E+06    -86.1342E+06    -227.086E+06    -86.2431E+06    -226.977E+06    -61.6428E+06     3.12955E+06         38.7230
            1001     3.58169E-03     15.3485E-03         1.92536    -396.772E-03    -415.772E-03    -415.305E-03         1.92489    -396.772E-03     51.1326E-03     221.633E-03    -110.352E-03    -111.290E-03    -110.622E-03     220.964E-03    -110.352E-03    -29.4090E-03    -73.3081E+06    -92.8915E+06    -253.249E+06    -92.9530E+06    -253.187E+06    -73.3081E+06     2.34771E+06         38.2058
            1002     2.68748E-03     15.3613E-03         1.90137    -390.359E-03    -404.778E-03    -404.383E-03         1.90098    -390.359E-03     31.8411E-03     221.089E-03    -110.276E-03    -110.808E-03    -110.347E-03     220.659E-03    -110.308E-03    -23.4348E-03    -84.7794E+06    -99.6246E+06    -273.094E+06    -99.6850E+06    -273.034E+06    -84.7794E+06     2.89762E+06         37.8497
            1003     1.78975E-03     15.3724E-03         1.87732    -376.423E-03    -391.295E-03    -378.202E-03         1.87712    -389.322E-03     17.8500E-03     220.695E-03    -110.164E-03    -110.507E-03    -110.168E-03     220.472E-03    -110.280E-03    -16.5446E-03    -97.0004E+06    -104.362E+06    -281.212E+06    -104.425E+06    -281.149E+06    -97.0004E+06     1.81005E+06         37.6181
            1004     895.464E-06     15.3800E-03         1.89882    -327.789E-03    -455.072E-03    -441.295E-03         1.89794    -340.689E-03     47.6935E-03     220.647E-03    -109.947E-03    -110.693E-03    -110.317E-03     220.571E-03    -110.247E-03    -8.74329E-03    -103.716E+06    -107.042E+06    -286.528E+06    -105.840E+06    -286.425E+06    -105.020E+06    -217.490E+03         37.4889
            1005     15.0474E-03     14.9460E-03         2.36444    -552.716E-03    -719.521E-03    -719.409E-03         2.36433    -552.716E-03     24.9849E-03     275.253E-03    -122.452E-03    -153.021E-03    -136.829E-03     259.062E-03    -122.452E-03     144.393E-03     106.444E+06     93.8322E+06    -6.17447E+06    -5.99349E+06     106.263E+06     93.8322E+06    -555.391E+03         64.7496
            1006     14.1807E-03     14.6505E-03         2.34436    -564.403E-03    -694.866E-03    -694.479E-03         2.34397    -564.403E-03     62.9428E-03     283.583E-03    -121.323E-03    -162.498E-03    -141.494E-03     262.579E-03    -121.323E-03     184.771E-03     100.947E+06     91.6540E+06    -13.2299E+06    -13.0272E+06     99.3204E+06     93.0780E+06     814.771E+03         62.3516
            1007     13.3158E-03     14.4602E-03         2.33510    -579.416E-03    -672.340E-03    -671.699E-03         2.33446    -579.416E-03     86.4308E-03     273.737E-03    -119.852E-03    -154.164E-03    -141.739E-03     261.312E-03    -119.852E-03     143.672E-03     96.5998E+06     90.4075E+06    -19.2357E+06    -18.9300E+06     92.7905E+06     93.9112E+06     1.96620E+06         59.7283
            1008     12.4509E-03     14.2573E-03         2.34239    -592.508E-03    -673.367E-03    -672.536E-03         2.34156    -592.508E-03     96.3990E-03     266.546E-03    -117.911E-03    -149.067E-03    -140.891E-03     258.370E-03    -117.911E-03     110.261E-03     92.3066E+06     83.6874E+06    -24.9449E+06    -24.3581E+06     89.6403E+06     85.7670E+06     3.36330E+06         56.7848
            1009     11.5843E-03     14.1377E-03         2.35902    -600.487E-03    -680.061E-03    -678.845E-03         2.35780    -600.487E-03     116.501E-03     255.370E-03    -115.707E-03    -140.113E-03    -138.294E-03     253.551E-03    -115.707E-03     45.4155E-03     84.7053E+06     59.5871E+06    -32.9060E+06    -32.3688E+06     84.1681E+06     59.5871E+06     3.42175E+06         53.5259
            1010     10.7154E-03     14.0846E-03         2.35390    -602.552E-03    -667.320E-03    -666.213E-03         2.35279    -602.552E-03     110.968E-03     249.182E-03    -113.507E-03    -135.785E-03    -135.663E-03     249.060E-03    -113.507E-03     5.89275E-03     76.6471E+06     25.8393E+06    -41.5463E+06    -41.0311E+06     76.1319E+06     25.8393E+06     4.27696E+06         50.2619
            1011     9.84290E-03     14.0474E-03         2.34295    -601.730E-03    -655.772E-03    -654.660E-03         2.34183    -601.730E-03     111.352E-03     243.204E-03    -111.333E-03    -131.762E-03    -131.410E-03     242.853E-03    -111.333E-03    -17.6149E-03     51.6183E+06     2.26474E+06    -48.5911E+06    -47.9454E+06     50.9727E+06     2.26474E+06     5.80984E+06         47.3066
            1012     8.96585E-03     14.0332E-03         2.32626    -599.553E-03    -632.617E-03    -631.399E-03         2.32504    -599.553E-03     119.031E-03     236.010E-03    -109.481E-03    -126.316E-03    -125.346E-03     235.040E-03    -109.481E-03    -36.1502E-03     9.14593E+06    -23.5405E+06    -56.2550E+06    -53.6171E+06    -8.23301E+06    -8.79946E+06     6.82711E+06         44.7819
            1013     8.08005E-03     14.0383E-03         2.30985    -594.949E-03    -622.132E-03    -619.826E-03         2.30916    -596.560E-03     88.4792E-03     229.680E-03    -107.979E-03    -121.555E-03    -119.986E-03     228.111E-03    -107.979E-03    -46.0666E-03    -16.5174E+06    -51.8441E+06    -82.8839E+06    -59.5533E+06    -75.1747E+06    -16.5174E+06     7.78330E+06         42.6987
            1014     7.19179E-03     14.0473E-03         2.30918    -590.580E-03    -624.813E-03    -622.238E-03         2.30822    -592.191E-03     99.0841E-03     224.330E-03    -106.728E-03    -117.447E-03    -115.481E-03     222.364E-03    -106.728E-03    -51.1300E-03    -24.5519E+06    -64.7092E+06    -124.713E+06    -65.9981E+06    -123.424E+06    -24.5519E+06     8.14074E+06         41.0183
            1015     6.29909E-03     14.0592E-03         2.29833    -586.659E-03    -613.356E-03    -612.422E-03         2.29740    -586.659E-03     93.0667E-03     219.327E-03    -105.755E-03    -113.432E-03    -111.366E-03     217.261E-03    -105.755E-03    -51.7820E-03    -34.7184E+06    -72.1765E+06    -161.415E+06    -72.9816E+06    -160.610E+06    -34.7184E+06     7.85629E+06         39.6756
            1016     5.40244E-03     14.0767E-03         2.27987    -580.898E-03    -602.217E-03    -601.039E-03         2.27869    -580.898E-03     104.971E-03     215.134E-03    -105.048E-03    -109.973E-03    -108.077E-03     213.238E-03    -105.048E-03    -49.0346E-03    -46.7372E+06    -79.9502E+06    -194.617E+06    -80.4731E+06    -194.094E+06    -46.7372E+06     7.32859E+06         38.6145
            1017     4.50353E-03     14.0948E-03         2.26309    -575.117E-03    -593.544E-03    -592.420E-03         2.26197    -575.117E-03     99.3004E-03     212.162E-03    -104.564E-03    -107.492E-03    -105.971E-03     210.640E-03    -104.564E-03    -43.5372E-03    -63.5941E+06    -88.1082E+06    -222.863E+06    -88.5176E+06    -222.453E+06    -63.5941E+06     6.81231E+06         37.8124
            1018     3.60360E-03     14.1080E-03         2.24216    -567.031E-03    -580.853E-03    -577.293E-03         2.24188    -570.318E-03     50.6699E-03     210.280E-03    -104.333E-03    -105.878E-03    -104.776E-03     209.178E-03    -104.333E-03    -36.7560E-03    -79.3374E+06    -95.2964E+06    -250.523E+06    -95.4840E+06    -250.335E+06    -79.3374E+06     4.83955E+06         37.2470
            1019     2.70166E-03     14.1243E-03         2.23531    -564.074E-03    -571.607E-03    -568.174E-03         2.23517    -567.360E-03     32.0335E-03     209.305E-03    -104.283E-03    -104.996E-03    -104.271E-03     208.612E-03    -104.315E-03    -28.8910E-03    -88.4064E+06    -99.7031E+06    -271.031E+06    -99.7778E+06    -270.957E+06    -88.4064E+06     2.84704E+06         36.8715
            1020     1.80230E-03     14.1327E-03         2.23673    -561.250E-03    -568.620E-03    -563.384E-03         2.23665    -566.409E-03     17.9386E-03     209.015E-03    -104.265E-03    -104.718E-03    -104.334E-03     208.663E-03    -104.298E-03    -20.4576E-03    -96.6565E+06    -103.366E+06    -277.530E+06    -103.439E+06    -277.458E+06    -96.6565E+06     1.64765E+06         36.6341
            1021     900.828E-06     14.1411E-03         2.24614    -554.535E-03    -579.895E-03    -572.208E-03         2.24389    -559.974E-03     121.845E-03     208.676E-03    -103.977E-03    -104.680E-03    -104.558E-03     208.554E-03    -103.977E-03    -11.0652E-03    -104.843E+06    -107.291E+06    -284.721E+06    -107.307E+06    -284.658E+06    -104.890E+06     1.90869E+06         36.4995
            1022     15.0553E-03     13.6465E-03         2.46978    -673.466E-03    -735.553E-03    -733.208E-03         2.46959    -675.622E-03     32.5455E-03     282.400E-03    -122.158E-03    -160.640E-03    -144.316E-03     266.076E-03    -122.158E-03     150.080E-03     105.552E+06     93.2869E+06    -6.51473E+06    -6.39347E+06     105.431E+06     93.2869E+06     446.834E+03         64.7260
            1023     14.1901E-03     13.3436E-03         2.48110    -684.112E-03    -738.278E-03    -727.117E-03         2.48051    -694.678E-03     85.5953E-03     289.504E-03    -120.546E-03    -169.490E-03    -149.097E-03     269.110E-03    -120.546E-03     184.401E-03     100.637E+06     91.7676E+06    -13.0895E+06    -12.8240E+06     99.3266E+06     92.8128E+06     235.804E+03         62.2956
            1024     13.3289E-03     13.1549E-03         2.49831    -700.639E-03    -740.587E-03    -724.188E-03         2.49751    -716.233E-03     101.801E-03     278.498E-03    -118.551E-03    -160.430E-03    -148.877E-03     266.945E-03    -118.551E-03     140.349E-03     95.1305E+06     89.7798E+06    -19.3421E+06    -19.0922E+06     91.7559E+06     92.9046E+06     334.586E+03         59.6405
            1025     12.4724E-03     12.9532E-03         2.52123    -714.386E-03    -749.913E-03    -727.805E-03         2.52001    -735.269E-03     124.101E-03     271.098E-03    -116.010E-03    -155.558E-03    -148.296E-03     263.836E-03    -116.010E-03     103.603E-03     89.9669E+06     81.6565E+06    -27.0236E+06    -26.4609E+06     87.3246E+06     83.7361E+06     1.54200E+06         56.6915
            1026     11.6151E-03     12.8416E-03         2.54620    -717.811E-03    -766.296E-03    -733.421E-03         2.54484    -749.325E-03     132.775E-03     258.996E-03    -113.107E-03    -146.500E-03    -145.201E-03     257.697E-03    -113.107E-03     37.2791E-03     82.7293E+06     57.5430E+06    -34.0241E+06    -33.1121E+06     81.8173E+06     57.5430E+06     4.07502E+06         53.4224
            1027     10.7525E-03     12.7941E-03         2.57284    -733.250E-03    -773.655E-03    -748.786E-03         2.57167    -756.950E-03     124.519E-03     251.619E-03    -110.179E-03    -141.676E-03    -141.558E-03     251.501E-03    -110.179E-03    -2.45693E-03     74.4858E+06     24.2879E+06    -41.3966E+06    -40.5377E+06     73.6269E+06     24.2879E+06     7.45810E+06         50.1185
            1028     9.88674E-03     12.7691E-03         2.59503    -744.525E-03    -778.505E-03    -761.557E-03         2.59359    -760.039E-03     138.368E-03     243.543E-03    -107.300E-03    -136.146E-03    -135.496E-03     242.893E-03    -107.300E-03    -28.2152E-03     54.4049E+06     266.829E+03    -48.0651E+06    -46.9417E+06     53.2815E+06     266.829E+03     9.19983E+06         47.0938
            1029     9.00834E-03     12.7731E-03         2.60158    -748.819E-03    -770.253E-03    -757.335E-03         2.60016    -760.317E-03     137.645E-03     234.151E-03    -104.761E-03    -129.227E-03    -127.648E-03     232.571E-03    -104.761E-03    -47.0999E-03     10.6876E+06    -23.8563E+06    -57.5074E+06    -53.9101E+06    -4.19966E+06    -12.5663E+06     9.59985E+06         44.4713
            1030     8.12568E-03     12.7827E-03         2.59358    -751.189E-03    -760.669E-03    -751.558E-03         2.59264    -759.356E-03     110.716E-03     225.832E-03    -102.619E-03    -123.139E-03    -120.734E-03     223.427E-03    -102.619E-03    -57.3279E-03    -21.1684E+06    -49.9627E+06    -82.8159E+06    -60.8828E+06    -71.8958E+06    -21.1684E+06     10.4737E+06         42.2642
            1031     7.23665E-03     12.8019E-03         2.59028    -747.294E-03    -758.437E-03    -746.864E-03         2.58943    -758.024E-03     104.937E-03     217.875E-03    -100.798E-03    -117.016E-03    -114.084E-03     214.943E-03    -100.798E-03    -62.1533E-03    -28.4456E+06    -64.5903E+06    -121.891E+06    -67.3090E+06    -119.172E+06    -28.4456E+06     10.9482E+06         40.4489
            1032     6.34073E-03     12.8235E-03         2.59666    -750.391E-03    -760.813E-03    -754.783E-03         2.59611    -755.871E-03     65.6483E-03     210.447E-03    -99.3707E-03    -111.058E-03    -108.008E-03     207.396E-03    -99.3707E-03    -62.1132E-03    -38.0357E+06    -73.3241E+06    -158.848E+06    -74.7513E+06    -157.420E+06    -38.0357E+06     10.5138E+06         38.9806
            1033     5.43962E-03     12.8464E-03         2.59940    -751.922E-03    -764.484E-03    -763.763E-03         2.59868    -751.922E-03     71.1772E-03     204.727E-03    -98.3132E-03    -106.392E-03    -103.607E-03     201.942E-03    -98.3132E-03    -58.3245E-03    -49.3755E+06    -81.2927E+06    -192.191E+06    -82.2982E+06    -191.185E+06    -49.3755E+06     10.0872E+06         37.8071
            1034     4.53673E-03     12.8662E-03         2.58874    -743.736E-03    -759.441E-03    -755.215E-03         2.58803    -747.254E-03     71.2037E-03     200.285E-03    -97.5227E-03    -102.692E-03    -100.441E-03     198.033E-03    -97.5227E-03    -51.6903E-03    -61.7616E+06    -87.8237E+06    -217.846E+06    -88.5477E+06    -217.122E+06    -61.7616E+06     9.57967E+06         36.8982
            1035     3.63012E-03     12.8859E-03         2.57272    -736.249E-03    -748.571E-03    -740.282E-03         2.57260    -744.418E-03     33.1987E-03     196.960E-03    -97.0547E-03    -99.8364E-03    -98.2043E-03     195.328E-03    -97.0547E-03    -43.4776E-03    -77.8377E+06    -94.3046E+06    -243.074E+06    -94.7364E+06    -242.643E+06    -77.8377E+06     7.52433E+06         36.2337
            1036     2.72361E-03     12.8982E-03         2.57187    -733.059E-03    -744.851E-03    -732.919E-03         2.57165    -744.768E-03     47.9464E-03     195.121E-03    -96.8584E-03    -98.2133E-03    -97.1977E-03     194.105E-03    -96.8584E-03    -33.9455E-03    -91.2587E+06    -100.878E+06    -266.160E+06    -101.029E+06    -266.009E+06    -91.2587E+06     3.98893E+06         35.7813
            1037     1.81488E-03     12.9113E-03         2.58903    -738.878E-03    -749.729E-03    -742.489E-03         2.58885    -745.935E-03     36.6021E-03     194.153E-03    -96.7505E-03    -97.3735E-03    -96.8705E-03     193.650E-03    -96.7505E-03    -23.4147E-03    -98.4249E+06    -105.705E+06    -275.771E+06    -105.767E+06    -275.709E+06    -98.4249E+06     1.84932E+06         35.4981
            1038     908.145E-06     12.9168E-03         2.58176    -740.916E-03    -752.113E-03    -750.075E-03         2.58000    -741.196E-03     104.941E-03     193.604E-03    -96.5560E-03    -97.0324E-03    -96.8628E-03     193.435E-03    -96.5560E-03    -13.1199E-03    -104.689E+06    -108.290E+06    -281.026E+06    -108.281E+06    -280.988E+06    -104.737E+06     1.66259E+06         35.3400
            1039     15.0543E-03     12.3295E-03         2.55518    -728.006E-03    -801.054E-03    -727.810E-03         2.55498    -801.054E-03     44.9205E-03     290.701E-03    -121.873E-03    -169.008E-03    -152.976E-03     274.669E-03    -121.873E-03     155.826E-03     105.265E+06     94.2018E+06    -5.24137E+06    -5.05311E+06     105.076E+06     94.2018E+06     712.453E+03         64.7781
            1040     14.2043E-03     12.0285E-03         2.60674    -746.614E-03    -827.306E-03    -746.148E-03         2.60628    -827.306E-03     77.2181E-03     295.683E-03    -119.722E-03    -176.291E-03    -157.104E-03     276.497E-03    -119.722E-03     181.828E-03     102.333E+06     94.6816E+06    -9.62754E+06    -9.23914E+06     100.900E+06     95.7268E+06     680.563E+03         62.3335
            1041     13.3521E-03     11.8446E-03         2.66285    -774.103E-03    -854.618E-03    -773.301E-03         2.66205    -854.618E-03     103.982E-03     283.799E-03    -117.179E-03    -167.026E-03    -156.026E-03     272.798E-03    -117.179E-03     139.071E-03     96.4543E+06     91.2050E+06    -17.3116E+06    -16.9871E+06     92.9758E+06     94.3588E+06     1.21614E+06         59.6600
            1042     12.5015E-03     11.6395E-03         2.71244    -795.824E-03    -878.355E-03    -794.852E-03         2.71147    -878.355E-03     110.823E-03     275.224E-03    -114.060E-03    -161.727E-03    -154.927E-03     268.424E-03    -114.060E-03     100.764E-03     87.1378E+06     79.7615E+06    -26.9761E+06    -26.2827E+06     84.3356E+06     81.8701E+06     2.18749E+06         56.7120
            1043     11.6470E-03     11.5439E-03         2.74608    -801.257E-03    -896.844E-03    -800.065E-03         2.74488    -896.844E-03     123.258E-03     261.650E-03    -110.537E-03    -151.908E-03    -150.841E-03     260.583E-03    -110.537E-03     34.3403E-03     77.3430E+06     53.9116E+06    -37.2737E+06    -36.2347E+06     76.3040E+06     53.9116E+06     5.68255E+06         53.4449
            1044     10.7890E-03     11.4990E-03         2.78738    -828.737E-03    -908.995E-03    -827.566E-03         2.78620    -908.995E-03     127.046E-03     252.670E-03    -107.039E-03    -145.865E-03    -145.701E-03     252.507E-03    -107.039E-03    -5.40892E-03     70.2873E+06     21.6330E+06    -44.4542E+06    -43.2058E+06     69.0389E+06     21.6330E+06     9.97907E+06         50.1294
            1045     9.92235E-03     11.4938E-03         2.82812    -852.106E-03    -916.316E-03    -851.052E-03         2.82706    -916.316E-03     118.528E-03     243.815E-03    -103.598E-03    -140.164E-03    -139.370E-03     243.022E-03    -103.598E-03    -32.4711E-03     55.9870E+06    -2.87848E+06    -51.8369E+06    -50.0168E+06     54.1670E+06    -2.87848E+06     12.8881E+06         47.0768
            1046     9.05164E-03     11.5080E-03         2.86134    -875.776E-03    -919.857E-03    -874.722E-03         2.86028    -919.857E-03     118.049E-03     233.685E-03    -100.355E-03    -133.330E-03    -131.489E-03     231.843E-03    -100.355E-03    -51.2252E-03     13.6484E+06    -22.9486E+06     -60.604E+06    -56.2969E+06     1.47770E+06    -15.0850E+06     13.1995E+06         44.4034
            1047     8.17073E-03     11.5350E-03         2.88537    -895.932E-03    -920.278E-03    -895.280E-03         2.88472    -920.278E-03     78.7418E-03     222.613E-03    -97.4660E-03    -125.106E-03    -122.342E-03     219.848E-03    -97.4660E-03    -61.5271E-03    -24.1056E+06    -46.6481E+06    -83.3945E+06    -61.5670E+06    -68.4756E+06    -24.1056E+06     13.2560E+06         42.1070
            1048     7.28030E-03     11.5658E-03         2.89099    -894.203E-03    -919.289E-03    -893.513E-03         2.89030    -919.289E-03     83.2323E-03     212.174E-03    -94.9910E-03    -117.160E-03    -113.737E-03     208.751E-03    -94.9910E-03    -66.7060E-03    -31.7572E+06    -63.7156E+06    -119.833E+06    -67.9313E+06    -115.617E+06    -31.7572E+06     13.9332E+06         40.1631
            1049     6.38330E-03     11.6002E-03         2.89653    -898.624E-03    -918.532E-03    -898.625E-03         2.89602    -918.020E-03     65.0202E-03     203.096E-03    -92.9357E-03    -110.189E-03    -106.533E-03     199.441E-03    -92.9357E-03    -67.2620E-03    -36.5849E+06    -71.7304E+06    -154.663E+06    -74.1225E+06    -152.271E+06    -36.5849E+06     13.1472E+06         38.5432
            1050     5.48058E-03     11.6296E-03         2.90135    -902.746E-03    -919.305E-03    -905.573E-03         2.90102    -916.148E-03     54.0249E-03     194.932E-03    -91.2686E-03    -103.667E-03    -100.252E-03     191.517E-03    -91.2686E-03    -63.4392E-03    -46.0461E+06    -79.1401E+06    -187.813E+06    -80.4696E+06    -186.484E+06    -46.0461E+06     11.6838E+06         37.2169
            1051     4.57173E-03     11.6577E-03         2.89725    -897.342E-03    -917.441E-03    -899.641E-03         2.89691    -914.796E-03     60.2932E-03     188.239E-03    -90.0127E-03    -98.1824E-03    -95.3382E-03     185.395E-03    -90.0127E-03    -56.6423E-03    -58.4083E+06    -86.4829E+06    -213.807E+06    -87.4085E+06    -212.881E+06    -58.4083E+06     10.7130E+06         36.1660
            1052     3.66096E-03     11.6781E-03         2.90841    -903.168E-03    -917.135E-03    -905.973E-03         2.90826    -914.186E-03     40.5535E-03     183.263E-03    -89.1558E-03    -94.0180E-03    -91.9497E-03     181.195E-03    -89.1558E-03    -47.4121E-03    -71.4874E+06    -93.4026E+06    -236.464E+06    -94.1783E+06    -235.689E+06    -71.4874E+06     10.2843E+06         35.3652
            1053     2.74639E-03     11.6965E-03         2.92092    -904.077E-03    -922.889E-03    -914.158E-03         2.92061    -912.500E-03     31.7605E-03     179.700E-03    -88.5732E-03    -91.0361E-03    -89.7514E-03     178.415E-03    -88.5732E-03    -36.7747E-03    -87.8943E+06    -100.720E+06    -257.349E+06    -101.168E+06    -256.901E+06    -87.8943E+06     7.61110E+06         34.7874
            1054     1.83191E-03     11.7077E-03         2.92338    -901.326E-03    -924.297E-03    -916.979E-03         2.92312    -908.383E-03     19.8298E-03     177.548E-03    -88.2398E-03    -89.2550E-03    -88.6074E-03     176.900E-03    -88.2398E-03    -25.5817E-03    -101.655E+06    -107.200E+06    -270.996E+06    -107.128E+06    -270.904E+06    -101.820E+06     2.91340E+06         34.4089
            1055     915.133E-06     11.7167E-03         2.91970    -876.889E-03    -933.924E-03    -892.113E-03         2.91924    -918.245E-03     6.50785E-03     176.556E-03    -87.8940E-03    -88.6446E-03    -88.4138E-03     176.325E-03    -87.8940E-03    -14.6901E-03    -108.594E+06    -110.859E+06    -278.773E+06    -110.728E+06    -278.739E+06    -108.759E+06     94.1951E+03         34.1970
            1056     15.0640E-03     10.9980E-03         2.64375    -719.487E-03    -924.400E-03    -719.166E-03         2.64343    -924.400E-03     61.2950E-03     298.338E-03    -121.628E-03    -176.684E-03    -160.450E-03     282.104E-03    -121.628E-03     161.148E-03     105.991E+06     95.1782E+06    -5.31589E+06    -5.17159E+06     105.847E+06     95.1782E+06    -75.9478E+03         64.8515
            1057     14.2144E-03     10.7099E-03         2.72538    -762.544E-03    -957.102E-03    -761.689E-03         2.72452    -957.102E-03     102.009E-03     301.782E-03    -119.049E-03    -182.823E-03    -163.477E-03     282.436E-03    -119.049E-03     185.674E-03     102.212E+06     92.9221E+06    -11.7229E+06    -11.2576E+06     99.7837E+06     94.8849E+06    -731.882E+03         62.3910
            1058     13.3665E-03     10.5194E-03         2.81541    -810.624E-03    -989.813E-03    -809.407E-03         2.81419    -989.813E-03     129.654E-03     289.841E-03    -116.047E-03    -173.979E-03    -162.460E-03     278.321E-03    -116.047E-03     144.336E-03     94.3876E+06     87.7623E+06    -19.0486E+06    -18.3029E+06     89.5705E+06     91.8337E+06     2.52026E+06         59.6977
            1059     12.5196E-03     10.3250E-03         2.89602    -851.131E-03        -1.01825    -849.994E-03         2.89488        -1.01825     124.610E-03     278.495E-03    -112.516E-03    -166.570E-03    -159.472E-03     271.397E-03    -112.516E-03     104.545E-03     84.1720E+06     77.4257E+06    -28.7724E+06    -27.9229E+06     81.2138E+06     79.5344E+06     6.44944E+06         56.7557
            1060     11.6712E-03     10.2345E-03         2.96676    -886.479E-03        -1.04023    -885.135E-03         2.96542        -1.04023     137.217E-03     263.336E-03    -108.605E-03    -155.672E-03    -154.458E-03     262.122E-03    -108.605E-03     37.8034E-03     74.0849E+06     53.7467E+06    -38.4628E+06    -37.0860E+06     72.7081E+06     53.7467E+06     9.45445E+06         53.5208
            1061     10.8148E-03     10.2098E-03         3.02010    -921.208E-03        -1.05502    -919.769E-03         3.01867        -1.05502     146.912E-03     253.135E-03    -104.704E-03    -148.675E-03    -148.520E-03     252.980E-03    -104.704E-03    -2.47089E-03     65.8965E+06     21.4969E+06    -47.7908E+06    -45.9005E+06     64.0062E+06     21.4969E+06     12.6390E+06         50.2514
            1062     9.95286E-03     10.2139E-03         3.06938    -949.689E-03        -1.06499    -948.646E-03         3.06833        -1.06499     124.517E-03     243.314E-03    -100.891E-03    -142.440E-03    -141.792E-03     242.667E-03    -100.891E-03    -28.9128E-03     56.6540E+06    -2.25648E+06    -55.4199E+06    -53.1269E+06      54.361E+06    -2.25648E+06     15.2551E+06         47.2417
            1063     9.08230E-03     10.2455E-03         3.11383    -988.006E-03        -1.07087    -987.232E-03         3.11306        -1.07087     110.151E-03     232.442E-03    -97.1749E-03    -135.351E-03    -133.820E-03     230.912E-03    -97.1749E-03    -46.4930E-03     17.5860E+06    -19.0962E+06    -64.0594E+06    -58.8448E+06     6.71748E+06    -13.4422E+06     16.0887E+06         44.5974
            1064     8.20345E-03     10.2893E-03         3.14329        -1.01184        -1.07334        -1.01144         3.14289        -1.07334     63.9879E-03     220.728E-03    -93.7302E-03    -126.930E-03    -124.615E-03     218.413E-03    -93.7302E-03    -56.0543E-03    -22.4049E+06    -44.1357E+06    -85.4817E+06    -64.7585E+06    -64.8589E+06    -22.4049E+06     15.6358E+06         42.2961
            1065     7.31574E-03     10.3373E-03         3.16814        -1.02596        -1.07401        -1.02545         3.16763        -1.07401     73.0833E-03     209.075E-03    -90.5910E-03    -118.406E-03    -115.469E-03     206.138E-03    -90.5910E-03    -61.3507E-03    -32.1174E+06    -64.1284E+06    -116.048E+06    -69.3166E+06    -110.860E+06    -32.1174E+06     13.8441E+06         40.2913
            1066     6.41968E-03     10.3820E-03         3.18245        -1.03453        -1.07403        -1.03406         3.18198        -1.07403     70.1688E-03     198.130E-03    -87.7973E-03    -110.296E-03    -107.005E-03     194.839E-03    -87.7973E-03    -63.1639E-03    -34.7849E+06    -69.4686E+06    -149.681E+06    -71.7417E+06    -147.408E+06    -34.7849E+06     12.5379E+06         38.5565
            1067     5.51573E-03     10.4260E-03         3.19507        -1.03956        -1.07426        -1.03931         3.19482        -1.07426     51.6986E-03     187.694E-03    -85.3921E-03    -102.251E-03    -99.0525E-03     184.495E-03    -85.3921E-03    -60.4572E-03    -40.1969E+06    -74.9061E+06    -183.160E+06    -76.5640E+06    -181.502E+06    -40.1969E+06     13.2089E+06         37.0862
            1068     4.60567E-03     10.4620E-03         3.21557        -1.05278        -1.07704        -1.05525         3.21529        -1.07429     44.8487E-03     178.556E-03    -83.4234E-03    -95.0650E-03    -92.3266E-03     175.818E-03    -83.4234E-03    -54.3561E-03    -54.6731E+06    -83.6909E+06    -209.373E+06    -84.9926E+06    -208.072E+06    -54.6731E+06     12.5338E+06         35.8909
            1069     3.68897E-03     10.4902E-03         3.22578        -1.06279        -1.07869        -1.06839         3.22568        -1.07299     21.3261E-03     171.406E-03    -81.9171E-03    -89.3922E-03    -87.3078E-03     169.321E-03    -81.9171E-03    -46.2912E-03    -67.9721E+06    -90.3976E+06    -231.671E+06    -91.2976E+06    -230.771E+06    -67.9721E+06     11.0919E+06         34.9608
            1070     2.77003E-03     10.5113E-03         3.23573        -1.06506        -1.08285        -1.07845         3.23539        -1.06912     32.6925E-03     165.854E-03    -80.7732E-03    -84.9928E-03    -83.6351E-03     164.496E-03    -80.7732E-03    -36.4996E-03    -81.3673E+06    -95.2660E+06    -248.171E+06    -95.9079E+06    -247.529E+06    -81.3673E+06     9.45880E+06         34.2688
            1071     1.84729E-03     10.5271E-03         3.23289        -1.05952        -1.08340        -1.08305         3.23255        -1.05952     30.7884E-03     161.946E-03    -79.9797E-03    -81.9094E-03    -81.2087E-03     161.245E-03    -79.9797E-03    -25.5374E-03    -95.5737E+06    -101.306E+06    -261.777E+06    -101.444E+06    -261.475E+06    -95.7383E+06     6.22955E+06         33.7946
            1072     924.933E-06     10.5344E-03         3.20045        -1.00684        -1.09781        -1.01960         3.20011        -1.08471    -23.9448E-03     159.599E-03    -79.1603E-03    -80.4227E-03    -80.1718E-03     159.348E-03    -79.1603E-03    -14.5959E-03    -106.294E+06    -108.710E+06    -275.868E+06    -107.722E+06    -275.735E+06    -107.416E+06     2.86451E+06         33.5169
            1073     15.0640E-03     9.67609E-03         2.73820    -716.012E-03        -1.04265    -715.416E-03         2.73761        -1.04265     84.7348E-03     305.106E-03    -121.621E-03    -183.635E-03    -166.344E-03     287.815E-03    -121.621E-03     168.446E-03     105.968E+06      93.841E+06    -5.24763E+06    -5.15863E+06     105.879E+06      93.841E+06     405.478E+03         64.8833
            1074     14.2154E-03     9.37131E-03         2.84125    -774.491E-03        -1.08080    -773.086E-03         2.83985        -1.08080     140.733E-03     306.766E-03    -118.808E-03    -188.180E-03    -167.660E-03     286.247E-03    -118.808E-03     193.031E-03     98.9089E+06     89.6557E+06    -12.2604E+06    -11.5401E+06     96.2258E+06     91.6184E+06     1.44548E+06         62.3934
            1075     13.3754E-03     9.18994E-03         2.95019    -835.745E-03        -1.11840    -834.082E-03         2.94852        -1.11840     158.192E-03     293.216E-03    -115.587E-03    -177.786E-03    -165.344E-03     280.774E-03    -115.587E-03     150.882E-03     90.1505E+06     82.2683E+06    -22.8560E+06    -21.8370E+06     84.2728E+06     87.1269E+06     4.91122E+06         59.6683
            1076     12.5315E-03     9.00448E-03         3.06565    -899.277E-03        -1.15097    -897.746E-03         3.06412        -1.15097     155.120E-03     280.371E-03    -111.954E-03    -168.812E-03    -160.649E-03     272.208E-03    -111.954E-03     113.823E-03     80.7889E+06     73.9864E+06    -31.6314E+06    -30.3859E+06     76.6475E+06     76.8822E+06     8.60318E+06         56.7345
            1077     11.6810E-03     8.92669E-03         3.17278    -967.449E-03        -1.17587    -966.165E-03         3.17150        -1.17587     141.735E-03     263.932E-03    -108.024E-03    -156.687E-03    -154.889E-03     262.134E-03    -108.024E-03     48.7892E-03     71.6901E+06     55.3616E+06    -40.3851E+06    -38.4264E+06     69.7315E+06     55.3616E+06     12.5182E+06         53.5657
            1078     10.8264E-03     8.91451E-03         3.25352        -1.01983        -1.19243        -1.01867         3.25236        -1.19243     134.715E-03     252.126E-03    -104.058E-03    -148.351E-03    -148.105E-03     251.880E-03    -104.058E-03     10.7727E-03     64.1048E+06     26.1892E+06    -48.9253E+06    -46.3434E+06     61.5229E+06     26.1892E+06     15.6836E+06         50.4130
            1079     9.96399E-03     8.93825E-03         3.31076        -1.05407        -1.20386        -1.05309         3.30978        -1.20386     116.714E-03     240.621E-03    -100.213E-03    -140.515E-03    -140.260E-03     240.366E-03    -100.213E-03    -11.5550E-03     57.6854E+06     4.00398E+06    -56.4480E+06    -53.3387E+06     54.5762E+06     4.00398E+06     17.8513E+06         47.5484
            1080     9.09283E-03     8.98556E-03         3.34682        -1.08703        -1.21185        -1.08641         3.34621        -1.21185     91.3459E-03     230.024E-03    -96.5026E-03    -133.665E-03    -133.009E-03     229.367E-03    -96.5026E-03    -26.0137E-03     22.3140E+06    -12.8545E+06    -65.9385E+06    -60.2928E+06     10.5043E+06    -6.69055E+06     18.4643E+06         45.0471
            1081     8.21468E-03     9.04660E-03         3.38313        -1.11144        -1.21737        -1.11108         3.38278        -1.21737     69.7700E-03     219.867E-03    -92.9029E-03    -126.917E-03    -125.845E-03     218.795E-03    -92.9029E-03    -34.8725E-03    -16.5105E+06    -42.0519E+06    -81.3751E+06    -66.2474E+06    -57.1796E+06    -16.5105E+06     15.2413E+06         42.8538
            1082     7.33005E-03     9.10872E-03         3.42927        -1.14676        -1.22067        -1.14633         3.42885        -1.22067     76.7071E-03     208.412E-03    -89.3331E-03    -118.953E-03    -117.546E-03     207.004E-03    -89.3331E-03    -39.5608E-03    -29.4291E+06    -65.0544E+06    -108.172E+06    -69.0908E+06    -104.136E+06    -29.4291E+06     10.2641E+06         40.8909
            1083     6.43651E-03     9.16980E-03         3.46201        -1.17191        -1.22174        -1.17153         3.46163        -1.22174     45.8799E-03     196.866E-03    -85.9513E-03    -110.843E-03    -109.167E-03     195.190E-03    -85.9513E-03    -42.2180E-03    -37.3138E+06    -70.2550E+06    -148.135E+06    -71.5172E+06    -146.873E+06    -37.3138E+06     9.41125E+06         39.1276
            1084     5.53463E-03     9.22679E-03         3.48035        -1.17858        -1.22229        -1.17842         3.48019        -1.22229     28.3275E-03     185.820E-03    -82.8527E-03    -102.883E-03    -101.115E-03     184.051E-03    -82.8527E-03    -42.8289E-03    -38.6117E+06    -73.1296E+06    -181.999E+06    -74.4970E+06    -180.631E+06    -38.6117E+06     11.7370E+06         37.5877
            1085     4.62436E-03     9.27519E-03         3.49865        -1.19218        -1.22560        -1.19472         3.49844        -1.22285     44.0084E-03     175.144E-03    -80.0278E-03    -95.0028E-03    -93.3636E-03     173.505E-03    -80.0278E-03    -40.6029E-03    -46.6071E+06    -76.6391E+06    -203.506E+06    -78.0816E+06    -202.064E+06    -46.6071E+06     13.3221E+06         36.3092
            1086     3.70898E-03     9.31288E-03         3.51072        -1.20774        -1.22501        -1.21038         3.51061        -1.22226     25.0047E-03     165.595E-03    -77.5800E-03    -87.9021E-03    -86.5318E-03     164.225E-03    -77.5800E-03    -36.3099E-03    -63.8819E+06    -83.8939E+06    -226.618E+06    -85.0016E+06    -225.510E+06    -63.8819E+06     12.2163E+06         35.2978
            1087     2.78664E-03     9.34024E-03         3.51008        -1.20166        -1.22625        -1.20475         3.50984        -1.22291     53.4525E-03     157.510E-03    -75.6049E-03    -81.8184E-03    -80.8413E-03     156.533E-03    -75.6049E-03    -29.9165E-03    -78.7965E+06    -91.4408E+06    -241.912E+06    -92.2542E+06    -241.098E+06    -78.7965E+06     10.9376E+06         34.5363
            1088     1.86097E-03     9.36088E-03         3.51989        -1.20423        -1.23629        -1.21439         3.51962        -1.22586     55.7177E-03     151.278E-03    -74.1889E-03    -77.0496E-03    -76.5137E-03     150.742E-03    -74.1889E-03    -21.4266E-03    -88.8251E+06    -97.2481E+06    -252.756E+06    -97.8244E+06    -252.180E+06    -88.8251E+06     9.09872E+06         34.0051
            1089     930.420E-06     9.37328E-03         3.53188        -1.17852        -1.27468        -1.18549         3.53175        -1.26758    -5.27352E-03     147.419E-03    -73.0204E-03    -74.3828E-03    -74.1906E-03     147.226E-03    -73.0204E-03    -12.2251E-03    -96.2973E+06    -102.409E+06    -263.810E+06    -101.666E+06    -263.595E+06    -97.2544E+06     5.34770E+06         33.6849
            1090     15.0576E-03     8.33869E-03         2.83507    -721.522E-03        -1.15371    -719.769E-03         2.83332        -1.15371     145.943E-03     312.159E-03    -122.223E-03    -189.972E-03    -170.975E-03     293.162E-03    -122.223E-03     178.056E-03     105.435E+06     90.5423E+06    -5.09771E+06    -4.90559E+06     105.243E+06     90.5423E+06     2.00109E+06         64.9248
            1091     14.2165E-03     8.03559E-03         2.97424    -805.428E-03        -1.19543    -803.252E-03         2.97206        -1.19543     176.307E-03     311.483E-03    -119.360E-03    -192.197E-03    -168.753E-03     288.039E-03    -119.360E-03     208.413E-03     95.4292E+06     84.4908E+06    -15.8092E+06    -15.1310E+06     92.9235E+06     86.3183E+06     3.90820E+06         62.3725
            1092     13.3685E-03     7.85864E-03         3.10595    -881.529E-03        -1.23542    -879.821E-03         3.10425        -1.23542     164.945E-03     295.163E-03    -116.266E-03    -179.120E-03    -164.050E-03     280.093E-03    -116.266E-03     165.961E-03     85.2175E+06     77.8644E+06    -23.5726E+06    -22.3503E+06     79.2718E+06     82.5877E+06     7.17993E+06         59.5534
            1093     12.5187E-03     7.68220E-03         3.23485    -953.673E-03        -1.26966    -952.312E-03         3.23349        -1.26966     149.326E-03     279.707E-03    -112.925E-03    -167.175E-03    -156.909E-03     269.442E-03    -112.925E-03     129.232E-03     77.3972E+06     71.6358E+06    -32.3396E+06    -30.6164E+06     72.0467E+06     75.2632E+06     11.3215E+06         56.5526
            1094     11.6675E-03     7.62057E-03         3.35453        -1.04029        -1.29608        -1.03952         3.35376        -1.29608     112.981E-03     260.467E-03    -109.479E-03    -151.337E-03    -148.066E-03     257.196E-03    -109.479E-03     69.2270E-03     69.5181E+06     55.1610E+06    -42.6648E+06    -40.1435E+06     66.2654E+06     55.8925E+06     15.1926E+06         53.4187
            1095     10.8081E-03     7.62494E-03         3.45139        -1.09954        -1.31443        -1.09911         3.45096        -1.31443     85.0127E-03     246.787E-03    -106.178E-03    -140.613E-03    -139.346E-03     245.520E-03    -106.178E-03     38.8610E-03     64.0795E+06     30.5487E+06    -51.2007E+06    -48.0568E+06     60.9355E+06     30.5487E+06     17.5343E+06         50.4345
            1096     9.93951E-03     7.66841E-03         3.51719        -1.13309        -1.32846        -1.13286         3.51696        -1.32846     58.5535E-03     236.100E-03    -103.101E-03    -133.068E-03    -132.207E-03     235.239E-03    -103.101E-03     25.3798E-03     58.2733E+06     12.7158E+06    -57.7809E+06    -54.2835E+06     54.7759E+06     12.7158E+06     19.2222E+06         47.8428
            1097     9.06506E-03     7.72902E-03         3.56984        -1.17477        -1.33972        -1.17466         3.56973        -1.33972     45.7975E-03     228.099E-03    -100.099E-03    -128.137E-03    -127.347E-03     227.309E-03    -100.099E-03     17.5670E-03     26.4160E+06    -4.23565E+06    -63.5494E+06    -58.8715E+06     15.0276E+06     2.47485E+06     16.9390E+06         45.6423
            1098     8.18809E-03     7.80191E-03         3.62415        -1.21833        -1.34807        -1.21825         3.62406        -1.34807     37.0798E-03     220.917E-03    -96.9844E-03    -124.012E-03    -123.238E-03     220.144E-03    -96.9844E-03     11.3266E-03    -8.15440E+06    -37.2312E+06    -72.4712E+06    -61.0745E+06    -48.6279E+06    -8.15440E+06     10.5126E+06         43.7188
            1099     7.30380E-03     7.88005E-03         3.66946        -1.25391        -1.35383        -1.25380         3.66935        -1.35383     40.9963E-03     212.701E-03    -93.5957E-03    -119.105E-03    -118.427E-03     212.023E-03    -93.5957E-03     5.85518E-03    -20.5163E+06    -61.8035E+06    -103.698E+06    -63.9264E+06    -101.575E+06    -20.5163E+06     7.80068E+06         41.9604
            1100     6.41385E-03     7.95470E-03         3.70848        -1.28559        -1.35740        -1.28547         3.70837        -1.35740     25.0094E-03     203.508E-03    -90.0449E-03    -113.481E-03    -112.914E-03     202.942E-03    -90.0449E-03     268.553E-06    -33.1528E+06    -69.0021E+06    -148.160E+06    -69.9406E+06    -147.222E+06    -33.1528E+06     8.16941E+06         40.3060
            1101     5.51863E-03     8.02452E-03         3.74051        -1.30294        -1.35964        -1.30279         3.74036        -1.35964     30.6497E-03     193.704E-03    -86.4287E-03    -107.299E-03    -106.788E-03     193.193E-03    -86.4287E-03    -5.75753E-03    -40.7857E+06    -74.7795E+06    -182.267E+06    -75.4482E+06    -181.599E+06    -40.7857E+06     8.12471E+06         38.7873
            1102     4.61727E-03     8.08701E-03         3.76155        -1.31132        -1.36247        -1.31113         3.76136        -1.36247     48.3423E-03     182.642E-03    -82.8354E-03    -99.7971E-03    -99.3250E-03     182.169E-03    -82.8354E-03    -10.3122E-03    -45.8556E+06     -77.609E+06    -203.515E+06    -78.5867E+06    -202.538E+06    -45.8556E+06     10.6191E+06         37.4887
            1103     3.70583E-03     8.13708E-03         3.78634        -1.33276        -1.36572        -1.33267         3.78625        -1.36572     27.6826E-03     171.159E-03    -79.4919E-03    -91.6357E-03    -91.2211E-03     170.744E-03    -79.4919E-03    -12.5200E-03    -56.2595E+06    -81.0418E+06    -221.397E+06    -82.3582E+06    -220.081E+06    -56.2595E+06     13.4196E+06         36.4511
            1104     2.78818E-03     8.17516E-03         3.79734        -1.34252        -1.37161        -1.34503         3.79731        -1.36906     15.9372E-03     160.860E-03    -76.6442E-03    -84.1812E-03    -83.8621E-03     160.541E-03    -76.6442E-03    -12.4750E-03    -69.9301E+06    -86.4748E+06    -234.417E+06    -87.4456E+06    -233.446E+06    -69.9301E+06     11.5771E+06         35.6645
            1105     1.86230E-03     8.20331E-03         3.79778        -1.34760        -1.37858        -1.35008         3.79771        -1.37603     21.6642E-03     152.629E-03    -74.4621E-03    -78.1554E-03    -77.9656E-03     152.439E-03    -74.4621E-03    -10.0853E-03    -80.9271E+06    -90.3118E+06    -243.365E+06     -90.761E+06    -242.916E+06    -80.9271E+06     7.81104E+06         35.1128
            1106     933.113E-06     8.21929E-03         3.84059        -1.31447        -1.44633        -1.31410         3.84022        -1.44633    -32.0215E-03     147.121E-03    -72.7236E-03    -74.3948E-03    -74.3190E-03     147.046E-03    -72.7236E-03    -6.37691E-03    -86.5922E+06    -92.6925E+06    -250.874E+06    -91.2499E+06    -250.722E+06    -88.1871E+06     4.21306E+06         34.7799
            1107     15.0390E-03     6.99135E-03         2.93293    -738.861E-03        -1.25426    -735.328E-03         2.92939        -1.25426     223.827E-03     318.866E-03    -123.869E-03    -194.924E-03    -172.845E-03     296.788E-03    -123.869E-03     195.537E-03     104.185E+06     86.1399E+06     -7.8372E+06    -7.56850E+06     102.706E+06     87.3498E+06     4.63974E+06         65.1628
            1108     14.1840E-03     6.69581E-03         3.11478    -846.277E-03        -1.29723    -843.330E-03         3.11183        -1.29723     211.742E-03     315.438E-03    -121.268E-03    -194.428E-03    -166.856E-03     287.866E-03    -121.268E-03     228.060E-03     92.9228E+06     81.0256E+06    -13.8513E+06    -12.4691E+06     88.5032E+06     84.0630E+06     7.96060E+06         62.4586
            1109     13.3388E-03     6.52081E-03         3.28246    -948.160E-03        -1.33714    -946.113E-03         3.28041        -1.33714     185.493E-03     294.968E-03    -118.658E-03    -176.743E-03    -157.630E-03     275.856E-03    -118.658E-03     185.522E-03     82.1563E+06     73.9626E+06    -24.7012E+06    -22.6725E+06     74.8312E+06     79.2590E+06     10.9979E+06         59.3314
            1110     12.4863E-03     6.36740E-03         3.42375        -1.02748        -1.37071        -1.02606         3.42232        -1.37071     151.427E-03     273.980E-03    -116.166E-03    -158.114E-03    -144.111E-03     259.978E-03    -116.166E-03     149.470E-03     74.9764E+06     68.1517E+06    -35.2313E+06    -32.6033E+06     68.1479E+06     72.3521E+06     15.0332E+06         56.0880
            1111     11.6190E-03     6.32203E-03         3.53453        -1.10649        -1.39738        -1.10595         3.53399        -1.39738     98.4273E-03     250.255E-03    -114.093E-03    -136.178E-03    -129.149E-03     243.225E-03    -114.093E-03     99.7803E-03     69.7774E+06     57.7054E+06    -45.5591E+06    -42.2400E+06     65.7268E+06     58.4370E+06     17.4060E+06         52.9514
            1112     10.7427E-03     6.35170E-03         3.62331        -1.15600        -1.41813        -1.15576         3.62308        -1.41813     54.5834E-03     238.570E-03    -112.525E-03    -125.914E-03    -120.317E-03     232.973E-03    -112.525E-03     84.0618E-03     64.9168E+06     39.0896E+06    -52.2469E+06    -49.4770E+06     62.1469E+06     39.0896E+06     16.8213E+06         50.1715
            1113     9.86143E-03     6.40316E-03         3.70160        -1.20578        -1.43565        -1.20569         3.70151        -1.43565     8.92037E-03     234.282E-03    -111.161E-03    -123.135E-03    -117.814E-03     228.961E-03    -111.161E-03     80.1675E-03     60.5610E+06     24.1701E+06    -55.6088E+06    -53.1064E+06     58.0586E+06     24.1701E+06     14.6127E+06         47.9163
            1114     8.98073E-03     6.47467E-03         3.77417        -1.26669        -1.44991        -1.26659         3.77406        -1.44991     2.19235E-03     231.646E-03    -109.634E-03    -122.005E-03    -117.173E-03     226.814E-03    -109.634E-03     76.0673E-03     34.6588E+06     1.90540E+06    -55.2621E+06    -53.6444E+06     19.9904E+06     14.9560E+06     8.95069E+06         46.1425
            1115     8.09678E-03     6.55309E-03         3.83816        -1.31054        -1.46106        -1.31048         3.83810        -1.46106    -2.64341E-03     229.500E-03    -107.784E-03    -121.738E-03    -117.422E-03     225.185E-03    -107.784E-03     71.6596E-03     5.96791E+06    -35.4188E+06    -68.1042E+06    -54.8081E+06    -48.7149E+06     5.96791E+06     4.77227E+06         44.6775
            1116     7.21764E-03     6.63786E-03         3.88540        -1.33933        -1.47053        -1.33929         3.88536        -1.47053     6.48531E-03     227.372E-03    -105.402E-03    -121.984E-03    -118.187E-03     223.574E-03    -105.402E-03     66.2499E-03    -4.29491E+06    -57.7406E+06    -106.793E+06    -58.8708E+06    -105.663E+06    -4.29491E+06     5.02361E+06         43.3431
            1117     6.33707E-03     6.72414E-03         3.92975        -1.37397        -1.47871        -1.37389         3.92968        -1.47871     3.13438E-03     222.971E-03    -102.398E-03    -120.609E-03    -117.504E-03     219.866E-03    -102.398E-03     58.1902E-03    -16.3191E+06    -61.9747E+06    -148.522E+06    -62.4559E+06    -148.040E+06    -16.3191E+06     5.56826E+06         42.0141
            1118     5.45275E-03     6.80348E-03         3.97763        -1.41298        -1.48465        -1.41288         3.97754        -1.48465     7.94250E-03     215.636E-03    -98.9445E-03    -116.758E-03    -114.465E-03     213.343E-03    -98.9445E-03     47.6600E-03    -25.5036E+06    -66.2970E+06    -182.862E+06    -66.6291E+06    -182.530E+06    -25.5036E+06     5.18844E+06         40.6844
            1119     4.56248E-03     6.87977E-03         4.00979        -1.44143        -1.48821        -1.44134         4.00971        -1.48821     1.00990E-03     206.239E-03    -95.2324E-03    -111.060E-03    -109.490E-03     204.669E-03    -95.2324E-03     36.8709E-03    -30.8157E+06    -71.9397E+06    -206.148E+06    -72.2800E+06    -205.807E+06    -30.8157E+06     5.82923E+06         39.4605
            1120     3.66579E-03     6.94512E-03         4.02510        -1.45292        -1.49151        -1.45287         4.02505        -1.49151    -19.5118E-03     195.129E-03    -91.4705E-03    -103.669E-03    -102.719E-03     194.178E-03    -91.4705E-03     26.2174E-03    -37.6377E+06    -74.7798E+06    -216.835E+06    -75.4310E+06    -216.184E+06    -37.6377E+06     6.41527E+06         38.4490
            1121     2.75832E-03     6.99775E-03         4.04708        -1.47005        -1.49762        -1.47249         4.04697        -1.49507    -29.5705E-03     183.929E-03    -88.0729E-03    -95.8514E-03    -95.3604E-03     183.438E-03    -88.0729E-03     16.7826E-03    -50.4592E+06    -74.9192E+06    -226.414E+06    -75.4062E+06    -225.927E+06    -50.4592E+06     4.66875E+06         37.6855
            1122     1.84495E-03     7.03498E-03         4.05819        -1.48374        -1.50477        -1.49255         4.05797        -1.49574     10.0795E-03     174.623E-03    -85.3987E-03    -89.2254E-03    -89.0082E-03     174.406E-03    -85.3987E-03     9.74124E-03    -63.9983E+06    -76.0041E+06    -236.605E+06    -76.1239E+06    -236.485E+06    -63.9983E+06     2.49373E+06         37.1558
            1123     924.132E-06     7.06130E-03         4.05181        -1.39652        -1.59094        -1.40257         4.05138        -1.58445     12.6705E-03     168.309E-03    -83.2071E-03    -85.1078E-03    -85.0335E-03     168.235E-03    -83.2071E-03     4.98760E-03    -71.5910E+06    -80.3024E+06    -245.304E+06    -78.7561E+06    -245.255E+06    -73.1859E+06     1.67392E+06         36.8364
            1124     14.9855E-03     5.63036E-03         3.03534    -746.989E-03        -1.33792    -741.831E-03         3.03018        -1.33792     277.320E-03     323.766E-03    -127.288E-03    -196.414E-03    -167.210E-03     294.561E-03    -127.288E-03     228.362E-03     101.869E+06     85.0122E+06    -6.30474E+06    -4.91707E+06     99.2710E+06     86.2221E+06     7.30238E+06         65.3981
            1125     14.1424E-03     5.35228E-03         3.24760    -882.973E-03        -1.38079    -879.569E-03         3.24419        -1.38079     232.540E-03     322.676E-03    -125.328E-03    -197.655E-03    -161.042E-03     286.063E-03    -125.328E-03     263.176E-03     89.7824E+06     73.6729E+06    -17.3847E+06    -16.1615E+06     81.9543E+06     80.2779E+06     7.65621E+06         62.4113
            1126     13.2819E-03     5.19363E-03         3.43417    -994.732E-03        -1.41933    -992.860E-03         3.43230        -1.41933     170.890E-03     294.942E-03    -123.583E-03    -171.617E-03    -144.988E-03     268.313E-03    -123.583E-03     215.133E-03     82.8708E+06     69.5029E+06    -25.1828E+06    -20.7085E+06     69.5326E+06     78.3668E+06     17.1604E+06         58.8501
            1127     12.4072E-03     5.06131E-03         3.58439        -1.08083        -1.45195        -1.07997         3.58354        -1.45195     94.1614E-03     264.164E-03    -118.914E-03    -145.271E-03    -121.009E-03     243.710E-03    -122.721E-03     175.292E-03     77.7886E+06     69.4309E+06    -36.6480E+06    -31.5295E+06     68.5434E+06     73.5576E+06     20.2523E+06         55.3809
            1128     11.5185E-03     5.06026E-03         3.68883        -1.15331        -1.47946        -1.15307         3.68860        -1.47946     32.4886E-03     240.985E-03    -113.818E-03    -127.203E-03    -104.001E-03     226.824E-03    -122.860E-03     137.545E-03     72.8026E+06     63.5666E+06    -42.6399E+06    -39.8424E+06     69.3474E+06     64.2243E+06     15.9624E+06         52.3311
            1129     10.6159E-03     5.09157E-03         3.77829        -1.20709        -1.50327        -1.20696         3.77816        -1.50327     1.61960E-03     236.430E-03    -112.561E-03    -123.889E-03    -99.9951E-03     223.632E-03    -123.657E-03     129.544E-03     72.1336E+06     52.9589E+06    -45.4942E+06    -43.4805E+06     70.1199E+06     52.9589E+06     10.5380E+06         49.7853
            1130     9.72237E-03     5.14486E-03         3.87499        -1.27700        -1.52422        -1.27695         3.87495        -1.52422    -26.2104E-03     239.331E-03    -113.928E-03    -125.429E-03    -102.554E-03     227.133E-03    -124.605E-03     127.904E-03     65.0501E+06     41.9421E+06    -46.6924E+06    -45.6945E+06     64.0522E+06     41.9421E+06     4.24299E+06         47.8093
            1131     8.83466E-03     5.21357E-03         3.95485        -1.34011        -1.54167        -1.34006         3.95480        -1.54167    -29.0480E-03     244.064E-03    -117.004E-03    -126.993E-03    -107.243E-03     232.476E-03    -125.167E-03     126.256E-03     44.1654E+06     7.43063E+06    -48.7986E+06     -48.043E+06     16.9854E+06     33.8550E+06     315.763E+03         46.4077
            1132     7.95426E-03     5.29461E-03         4.01650        -1.37996        -1.55673        -1.37991         4.01645        -1.55673    -31.7175E-03     248.625E-03    -119.959E-03    -128.521E-03    -112.305E-03     237.706E-03    -125.256E-03     124.072E-03     25.3863E+06    -37.9668E+06    -70.8514E+06    -51.8593E+06    -56.9589E+06     25.3863E+06    -1.88525E+06         45.4496
            1133     7.07361E-03     5.37644E-03         4.07962        -1.42140        -1.57035        -1.42137         4.07958        -1.57035    -18.9952E-03     252.300E-03    -121.985E-03    -130.243E-03    -117.481E-03     242.259E-03    -124.705E-03     120.379E-03     16.9571E+06    -53.6871E+06    -112.890E+06    -54.2341E+06    -112.343E+06     16.9571E+06    -2.93355E+06         44.7032
            1134     6.20066E-03     5.46143E-03         4.14150        -1.47187        -1.58152        -1.47178         4.14141        -1.58152    -30.0250E-03     253.596E-03    -122.587E-03    -131.047E-03    -121.537E-03     244.858E-03    -123.359E-03     113.000E-03     8.73930E+06    -55.0562E+06    -152.674E+06    -55.5901E+06    -152.141E+06     8.73930E+06    -3.17998E+06         43.9542
            1135     5.32838E-03     5.55089E-03         4.17975        -1.50684        -1.59009        -1.50673         4.17964        -1.59009    -41.3766E-03     251.774E-03    -121.341E-03    -130.430E-03    -123.242E-03     244.586E-03    -121.341E-03     102.140E-03     2.29574E+06    -56.6783E+06    -185.569E+06    -57.0375E+06    -185.210E+06     2.29574E+06    -3.04090E+06         43.1241
            1136     4.45367E-03     5.63314E-03         4.20646        -1.53806        -1.59665        -1.53800         4.20641        -1.59665    -23.4009E-03     247.231E-03    -118.763E-03    -128.396E-03    -122.959E-03     241.794E-03    -118.763E-03     87.9066E-03    -6.46360E+06    -57.9201E+06    -205.917E+06    -58.3700E+06    -205.467E+06    -6.46360E+06    -3.80075E+06         42.2550
            1137     3.57540E-03     5.71133E-03         4.23639        -1.56535        -1.60080        -1.56530         4.23634        -1.60080    -13.1550E-03     240.252E-03    -115.820E-03    -124.394E-03    -120.691E-03     236.549E-03    -115.820E-03     71.1661E-03    -22.3642E+06    -60.6523E+06    -215.564E+06    -61.0080E+06    -215.209E+06    -22.3642E+06    -5.13868E+06         41.4506
            1138     2.69217E-03     5.77661E-03         4.25897        -1.57962        -1.60375        -1.57951         4.25886        -1.60375    -15.5932E-03     231.866E-03    -112.863E-03    -118.972E-03    -116.767E-03     229.660E-03    -112.863E-03     53.3394E-03    -38.8073E+06    -64.2567E+06    -226.487E+06    -64.5196E+06    -226.225E+06    -38.8073E+06    -5.34013E+06         40.8096
            1139     1.79906E-03     5.82754E-03         4.28154        -1.59399        -1.61561        -1.60719         4.28136        -1.60223    -5.01937E-03     223.777E-03    -110.364E-03    -113.387E-03    -112.363E-03     222.753E-03    -110.364E-03     34.9837E-03    -52.3967E+06    -67.9008E+06    -238.193E+06    -68.0516E+06    -238.042E+06    -52.3967E+06    -3.51035E+06         40.3462
            1140     900.934E-06     5.86003E-03         4.27947        -1.49553        -1.70104        -1.50835         4.27891        -1.68766    -27.1097E-03     218.085E-03    -108.155E-03    -109.928E-03    -108.998E-03     217.751E-03    -108.751E-03     19.3880E-03    -62.1155E+06    -74.2519E+06    -247.507E+06    -71.2656E+06    -247.443E+06    -65.1664E+06    -2.44105E+06         40.0506
            1141     14.9011E-03     4.26604E-03         3.17570    -785.297E-03        -1.40094    -775.929E-03         3.16633        -1.40094     378.426E-03     332.598E-03    -133.297E-03    -199.233E-03    -155.843E-03     289.208E-03    -133.297E-03     284.977E-03     102.484E+06     80.9397E+06    -8.91341E+06    -4.64496E+06     92.1986E+06     86.9562E+06     6.87130E+06         64.9934
            1142     14.0258E-03     3.99723E-03         3.40898    -942.868E-03        -1.44151    -937.882E-03         3.40399        -1.44151     249.729E-03     332.194E-03    -132.173E-03    -200.100E-03    -156.863E-03     288.957E-03    -132.173E-03     288.217E-03     89.5897E+06     66.5791E+06    -20.3191E+06    -11.3099E+06     69.1690E+06     77.9906E+06     17.8497E+06         61.7342
            1143     13.1691E-03     3.85462E-03         3.57607        -1.02769        -1.47691        -1.02698         3.57536        -1.47691     83.0926E-03     289.115E-03    -127.758E-03    -161.433E-03    -129.364E-03     260.834E-03    -131.547E-03     217.211E-03     83.1375E+06     70.4869E+06    -33.9463E+06    -24.7454E+06     67.8847E+06     76.5388E+06     23.0767E+06         58.0847
            1144     12.2785E-03     3.79876E-03         3.68934        -1.08995        -1.50945        -1.08980         3.68918        -1.50945    -3.24881E-03     254.153E-03    -115.563E-03    -138.667E-03    -98.7546E-03     231.269E-03    -132.592E-03     179.525E-03     81.9056E+06     78.2327E+06    -33.9423E+06    -29.5968E+06     75.9169E+06     79.8760E+06     16.5153E+06         54.7510
            1145     11.3616E-03     3.80068E-03         3.80460        -1.17517        -1.53971        -1.17491         3.80434        -1.53971    -60.4412E-03     240.193E-03    -105.365E-03    -134.962E-03    -87.3059E-03     222.134E-03    -134.962E-03     153.730E-03     83.7444E+06     75.1236E+06    -32.6001E+06    -30.4446E+06     80.6025E+06     76.1100E+06     9.63206E+06         51.9229
            1146     10.4596E-03     3.83165E-03         3.90667        -1.24248        -1.56738        -1.24225         3.90645        -1.56738    -60.8975E-03     242.627E-03    -104.621E-03    -137.926E-03    -88.2614E-03     226.267E-03    -137.926E-03     147.101E-03     84.2176E+06     65.7840E+06    -35.6848E+06    -34.5494E+06     83.0822E+06     65.7840E+06     893.471E+03         49.6117
            1147     9.55394E-03     3.87844E-03         4.00190        -1.31058        -1.59296        -1.31036         4.00168        -1.59296    -57.2152E-03     249.868E-03    -108.594E-03    -141.153E-03    -93.1823E-03     234.456E-03    -141.153E-03     145.374E-03     67.2146E+06     54.2227E+06    -38.8141E+06    -38.0325E+06     65.0712E+06     55.5845E+06    -4.87374E+06         47.8444
            1148     8.65767E-03     3.93654E-03         4.09220        -1.37970        -1.61583        -1.37950         4.09199        -1.61583    -52.3390E-03     260.186E-03    -115.838E-03    -144.228E-03    -101.213E-03     245.561E-03    -144.228E-03     145.309E-03     48.1074E+06     9.77713E+06    -46.6050E+06    -42.0259E+06     6.02902E+06     47.2765E+06    -8.04831E+06         46.6565
            1149     7.77070E-03     4.00739E-03         4.17243        -1.44251        -1.63568        -1.44242         4.17234        -1.63568    -41.1641E-03     271.453E-03    -124.492E-03    -146.838E-03    -110.334E-03     257.294E-03    -146.838E-03     146.981E-03     40.0095E+06    -34.6125E+06    -76.0198E+06    -45.4448E+06    -65.1876E+06     40.0095E+06    -11.8171E+06         46.0347
            1150     6.89609E-03     4.08006E-03         4.23723        -1.49731        -1.65271        -1.49726         4.23718        -1.65271    -17.4110E-03     281.123E-03    -132.239E-03    -148.940E-03    -118.800E-03     267.684E-03    -148.940E-03     146.511E-03     31.7001E+06    -43.1056E+06    -122.500E+06    -47.1561E+06    -118.450E+06     31.7001E+06    -16.0503E+06         45.8415
            1151     6.02441E-03     4.16178E-03         4.29373        -1.54409        -1.66717        -1.54401         4.29365        -1.66717    -25.2685E-03     289.054E-03    -138.372E-03    -150.820E-03    -126.692E-03     276.996E-03    -150.443E-03     141.476E-03     23.3140E+06    -44.5243E+06    -163.741E+06    -47.7077E+06    -160.557E+06     23.3140E+06    -17.8294E+06         45.8330
            1152     5.16091E-03     4.24532E-03         4.34307        -1.57847        -1.67976        -1.57836         4.34296        -1.67976    -34.8537E-03     295.529E-03    -142.870E-03    -152.751E-03    -134.025E-03     285.128E-03    -151.194E-03     133.486E-03     8.37754E+06     -45.865E+06    -194.008E+06    -48.0158E+06    -191.857E+06     8.37754E+06    -16.5012E+06         45.8030
            1153     4.30273E-03     4.33034E-03         4.38729        -1.61206        -1.69110        -1.61203         4.38726        -1.69110    -4.77981E-03     299.390E-03    -145.628E-03    -153.745E-03    -139.799E-03     291.061E-03    -151.245E-03     120.637E-03    -10.7425E+06    -48.8166E+06    -211.380E+06    -50.1799E+06    -210.016E+06    -10.7425E+06    -14.4946E+06         45.6541
            1154     3.44494E-03     4.40995E-03         4.43429        -1.65454        -1.69960        -1.65451         4.43427        -1.69960    -3.16982E-03     300.620E-03    -147.204E-03    -153.421E-03    -143.825E-03     294.576E-03    -150.757E-03     103.166E-03    -27.1715E+06    -53.5580E+06    -222.579E+06    -54.3510E+06    -221.786E+06    -27.1715E+06    -11.2360E+06         45.3881
            1155     2.58641E-03     4.48217E-03         4.47323        -1.68578        -1.70456        -1.68717         4.47318        -1.70312     15.0024E-03     300.068E-03    -147.990E-03    -152.107E-03    -146.441E-03     296.244E-03    -149.832E-03     81.7945E-03    -44.1024E+06    -61.7086E+06    -234.351E+06    -62.0814E+06    -233.978E+06    -44.1024E+06    -7.29131E+06         45.0832
            1156     1.72849E-03     4.53892E-03         4.49456        -1.69582        -1.71317        -1.71009         4.49452        -1.69885     7.73237E-03     298.005E-03    -148.029E-03    -149.947E-03    -147.362E-03     296.090E-03    -148.699E-03     56.9375E-03    -59.1872E+06    -68.6398E+06    -246.073E+06    -68.2724E+06    -245.913E+06    -59.7146E+06    -4.15411E+06         44.8036
            1157     865.804E-06     4.58025E-03         4.48833        -1.59735        -1.78902        -1.60972         4.48781        -1.77614    -79.8326E-03     295.691E-03    -146.929E-03    -148.747E-03    -146.577E-03     295.024E-03    -148.431E-03     32.4192E-03    -69.7312E+06    -75.7706E+06    -255.719E+06    -72.2906E+06    -255.621E+06    -73.3095E+06    -1.66292E+06         44.5963
            1158     14.7493E-03     2.87896E-03         3.38000    -865.145E-03        -1.43925    -850.850E-03         3.36570        -1.43925     453.413E-03     348.339E-03    -140.433E-03    -207.971E-03    -158.615E-03     298.984E-03    -140.433E-03     307.629E-03     102.732E+06     81.5538E+06    -18.6937E+06    -1.06348E+06     78.4313E+06     88.2247E+06     26.3913E+06         63.9181
            1159     13.9160E-03     2.60875E-03         3.58030    -967.634E-03        -1.47498    -963.816E-03         3.57648        -1.47498     148.692E-03     322.155E-03    -134.123E-03    -188.240E-03    -153.404E-03     293.175E-03    -139.979E-03     226.927E-03     92.4473E+06     74.2130E+06    -36.0823E+06    -18.3093E+06     68.6579E+06     80.2294E+06     31.7370E+06         60.7538
            1160     13.0442E-03     2.55800E-03         3.67427        -1.01840        -1.50902        -1.01803         3.67390        -1.50902    -43.3890E-03     269.718E-03    -120.651E-03    -149.217E-03    -110.648E-03     251.108E-03    -140.611E-03     166.493E-03     93.2212E+06     84.1026E+06    -27.2703E+06    -19.6768E+06     82.6762E+06     87.0541E+06     14.6319E+06         57.5050
            1161     12.1304E-03     2.53510E-03         3.76008        -1.07578        -1.54389        -1.07540         3.75969        -1.54389    -71.8260E-03     249.021E-03    -105.820E-03    -143.297E-03    -89.0250E-03     232.226E-03    -143.297E-03     149.062E-03     92.5467E+06     87.6970E+06    -20.0089E+06    -17.5702E+06     86.8279E+06     90.9771E+06     6.84788E+06         54.5608
            1162     11.2211E-03     2.54039E-03         3.86814        -1.16131        -1.57844        -1.16093         3.86776        -1.57844    -84.7510E-03     243.849E-03    -96.6239E-03    -147.219E-03    -82.8872E-03     230.112E-03    -147.219E-03     132.491E-03     95.5445E+06     80.0959E+06    -22.5726E+06    -20.9435E+06     93.5868E+06     80.4245E+06     950.095E+03         52.0109
            1163     10.2994E-03     2.56193E-03         3.98215        -1.24837        -1.61104        -1.24809         3.98186        -1.61104    -74.1640E-03     249.127E-03    -97.0395E-03    -151.916E-03    -84.6012E-03     236.689E-03    -151.916E-03     127.260E-03     91.5897E+06     55.0818E+06    -26.3313E+06    -25.6316E+06     90.8901E+06     55.0818E+06    -4.67853E+06         49.9154
            1164     9.39292E-03     2.59665E-03         4.08147        -1.32738        -1.64139        -1.32705         4.08114        -1.64139    -81.6782E-03     260.137E-03    -102.987E-03    -157.041E-03    -91.2275E-03     248.378E-03    -157.041E-03     126.805E-03     65.4057E+06     29.2106E+06    -32.9388E+06    -31.6166E+06     62.7216E+06     30.5725E+06    -8.99409E+06         48.3239
            1165     8.49042E-03     2.64093E-03         4.17727        -1.40240        -1.66943        -1.40213         4.17700        -1.66943    -71.1793E-03     274.248E-03    -111.716E-03    -162.463E-03    -100.720E-03     263.252E-03    -162.463E-03     126.688E-03     31.1839E+06    -1.39658E+06    -47.9198E+06    -35.9115E+06    -1.32567E+06     19.1047E+06    -15.2310E+06         47.2774
            1166     7.60008E-03     2.69063E-03         4.27588        -1.47816        -1.69458        -1.47803         4.27576        -1.69458    -52.0613E-03     290.022E-03    -122.033E-03    -167.814E-03    -111.466E-03     279.455E-03    -167.814E-03     128.401E-03     13.1927E+06    -24.9946E+06    -83.5163E+06    -38.0166E+06    -70.2906E+06     12.9890E+06    -22.5434E+06         46.8159
            1167     6.71777E-03     2.74675E-03         4.35417        -1.54378        -1.71645        -1.54370         4.35409        -1.71645    -29.2303E-03     306.184E-03    -133.072E-03    -172.985E-03    -122.843E-03     295.955E-03    -172.985E-03     130.376E-03     5.73977E+06    -31.4442E+06    -133.149E+06    -39.0694E+06    -124.612E+06     4.82843E+06    -27.7398E+06         46.9556
            1168     5.85067E-03     2.81318E-03         4.41878        -1.59787        -1.73541        -1.59777         4.41869        -1.73541    -32.6931E-03     322.173E-03    -144.286E-03    -177.885E-03    -134.837E-03     312.724E-03    -177.885E-03     129.358E-03    -2.82810E+06    -36.2340E+06    -182.648E+06    -41.2485E+06    -176.722E+06    -3.73944E+06    -28.2832E+06         47.5779
            1169     4.99193E-03     2.88007E-03         4.48724        -1.65517        -1.75104        -1.65505         4.48712        -1.75104    -37.9659E-03     337.444E-03    -155.341E-03    -182.192E-03    -146.985E-03     329.088E-03    -182.192E-03     125.197E-03    -16.8830E+06    -42.2811E+06    -212.882E+06    -45.3293E+06    -209.834E+06    -16.8830E+06    -21.5940E+06         48.3791
            1170     4.14314E-03     2.95037E-03         4.54450        -1.69915        -1.76294        -1.69909         4.54444        -1.76294    -18.0738E-03     351.786E-03    -165.934E-03    -185.908E-03    -159.033E-03     344.885E-03    -185.908E-03     116.632E-03    -33.0656E+06    -50.4830E+06    -225.353E+06    -51.7189E+06    -224.117E+06    -33.0656E+06    -13.6725E+06         49.0538
            1171     3.30461E-03     3.02158E-03         4.58904        -1.73110        -1.77199        -1.73107         4.58900        -1.77199    -24.9886E-03     364.322E-03    -175.424E-03    -188.916E-03    -170.241E-03     359.139E-03    -188.916E-03     103.142E-03    -46.6381E+06    -59.5289E+06    -236.381E+06    -60.0532E+06    -235.857E+06    -46.6381E+06    -7.74065E+06         49.4766
            1172     2.47296E-03     3.08264E-03         4.61975        -1.75503        -1.77997        -1.75642         4.61970        -1.77854    -12.9627E-03     374.174E-03    -183.022E-03    -191.201E-03    -179.665E-03     370.818E-03    -191.201E-03     83.9885E-03    -57.3117E+06    -65.0814E+06    -244.031E+06    -65.2074E+06    -243.904E+06    -57.3117E+06    -2.93776E+06         49.6809
            1173     1.64472E-03     3.13805E-03         4.63929        -1.76049        -1.79153        -1.76788         4.63926        -1.78411    -3.70804E-03     381.625E-03    -188.810E-03    -192.823E-03    -187.065E-03     379.880E-03    -192.823E-03     60.4620E-03    -66.5588E+06    -71.4503E+06    -252.072E+06    -70.9563E+06    -252.039E+06    -67.0862E+06    -330.420E+03         49.7478
            1174     821.376E-06     3.17249E-03         4.66689        -1.72663        -1.84583        -1.73217         4.66643        -1.83984    -74.2781E-03     386.413E-03    -191.901E-03    -194.496E-03    -192.035E-03     385.787E-03    -193.736E-03     34.7849E-03    -73.4221E+06    -76.8274E+06    -258.981E+06    -75.9854E+06    -258.922E+06    -74.3233E+06     1.22149E+06         49.7493
            1175     14.6810E-03     1.37900E-03         3.67101    -914.592E-03        -1.45136    -901.976E-03         3.65840        -1.45136     359.252E-03     388.577E-03    -146.971E-03    -241.566E-03    -206.442E-03     353.452E-03    -146.971E-03     266.684E-03     109.778E+06     93.9175E+06    -36.5424E+06    -1.50644E+06     71.9201E+06     96.7394E+06     17.2494E+06         63.1590
            1176     13.8511E-03     1.30304E-03         3.68071    -910.477E-03        -1.48502    -909.637E-03         3.67987        -1.48502     15.7897E-03     294.866E-03    -131.147E-03    -164.040E-03    -139.549E-03     285.263E-03    -146.035E-03     123.060E-03     114.947E+06     96.9976E+06    -31.8530E+06    -6.95489E+06     86.7360E+06     100.311E+06    -1.00667E+06         60.5101
            1177     12.9313E-03     1.27801E-03         3.71272    -968.272E-03        -1.52245    -967.896E-03         3.71234        -1.52245    -51.1355E-03     255.368E-03    -107.727E-03    -147.861E-03    -100.182E-03     247.823E-03    -147.861E-03     96.3341E-03     106.671E+06     96.1943E+06    -1.20429E+06      2.2151E+06     94.3729E+06     105.073E+06     2.01610E+06         57.7441
            1178     12.0255E-03     1.26405E-03         3.79765        -1.04807        -1.56132        -1.04777         3.79735        -1.56132    -60.8178E-03     245.866E-03    -94.3506E-03    -151.495E-03    -87.5810E-03     239.096E-03    -151.495E-03     85.7105E-03     102.186E+06     90.8812E+06    -5.01226E+06    -2.43551E+06     94.0439E+06     96.4469E+06     1.09876E+06         55.1279
            1179     11.1034E-03     1.27177E-03         3.89445        -1.14294        -1.59962        -1.14276         3.89427        -1.59962    -50.4705E-03     245.973E-03    -89.5718E-03    -156.215E-03    -83.9635E-03     240.365E-03    -156.215E-03     78.0392E-03     102.269E+06     70.6742E+06    -10.1218E+06    -8.92188E+06     101.069E+06     70.6742E+06    -2.13374E+06         52.8057
            1180     10.1912E-03     1.28579E-03         4.00543        -1.23983        -1.63609        -1.23967         4.00526        -1.63609    -58.5486E-03     253.809E-03    -91.6412E-03    -162.082E-03    -86.6619E-03     248.830E-03    -162.082E-03     74.7076E-03     93.6662E+06     26.9171E+06    -16.2871E+06    -15.3871E+06     92.7663E+06     26.9171E+06    -4.93983E+06         50.8797
            1181     9.27337E-03     1.30095E-03         4.12220        -1.33368        -1.67006        -1.33350         4.12202        -1.67006    -59.6242E-03     266.435E-03    -97.9848E-03    -168.593E-03    -93.4040E-03     261.854E-03    -168.593E-03     73.0256E-03     62.0218E+06    -5.61968E+06    -34.6762E+06    -20.4923E+06     61.0541E+06    -18.8359E+06    -6.72974E+06         49.4241
            1182     8.37070E-03     1.32066E-03         4.23265        -1.41779        -1.70136        -1.41770         4.23256        -1.70136    -37.6079E-03     282.606E-03    -107.189E-03    -175.561E-03    -102.872E-03     278.289E-03    -175.561E-03     73.0090E-03     13.2219E+06    -19.9541E+06    -63.0500E+06    -25.8132E+06      -5.827E+03    -43.9632E+06    -13.1047E+06         48.4941
            1183     7.47527E-03     1.34977E-03         4.33262        -1.49422        -1.73010        -1.49415         4.33255        -1.73010    -32.7602E-03     301.462E-03    -118.395E-03    -182.987E-03    -114.272E-03     297.339E-03    -182.987E-03     74.7146E-03    -20.2177E+06    -41.1436E+06    -94.2821E+06    -31.9017E+06    -72.5184E+06    -51.2232E+06    -21.2733E+06         48.1370
            1184     6.59239E-03     1.37937E-03         4.42817        -1.57404        -1.75556        -1.57396         4.42808        -1.75556    -40.0774E-03     322.466E-03    -131.519E-03    -190.649E-03    -127.547E-03     318.494E-03    -190.649E-03     76.3843E-03    -31.4088E+06    -53.0514E+06    -142.333E+06    -38.6443E+06    -135.811E+06    -52.3381E+06    -23.9928E+06         48.4124
            1185     5.72045E-03     1.41566E-03         4.51574        -1.64865        -1.77654        -1.64855         4.51565        -1.77654    -43.4822E-03     345.113E-03    -146.436E-03    -198.335E-03    -142.700E-03     341.377E-03    -198.335E-03     76.7951E-03    -41.8812E+06    -52.8381E+06    -201.055E+06    -47.9851E+06    -197.435E+06    -50.3547E+06    -20.0088E+06         49.3250
            1186     4.86491E-03     1.45629E-03         4.58709        -1.70920        -1.79272        -1.70911         4.58700        -1.79272    -32.6699E-03     368.394E-03    -162.401E-03    -205.770E-03    -159.026E-03     365.019E-03    -205.770E-03     75.7302E-03    -48.9348E+06    -57.3399E+06    -234.511E+06    -57.4484E+06    -233.074E+06    -50.2638E+06    -13.9376E+06         50.6362
            1187     4.02295E-03     1.49823E-03         4.64131        -1.75017        -1.80498        -1.75010         4.64124        -1.80498    -10.5065E-03     391.629E-03    -178.745E-03    -212.777E-03    -175.928E-03     388.812E-03    -212.777E-03     71.6931E-03    -54.2633E+06    -63.1765E+06    -241.630E+06    -63.6783E+06    -241.129E+06    -54.2633E+06    -5.93781E+06         51.9104
            1188     3.19602E-03     1.53691E-03         4.68283        -1.77598        -1.81492        -1.77594         4.68279        -1.81492    -2.99097E-03     413.958E-03    -194.825E-03    -219.017E-03    -192.675E-03     411.808E-03    -219.017E-03     64.3563E-03    -60.8405E+06    -68.1918E+06    -246.690E+06    -68.3480E+06    -246.534E+06    -60.8405E+06    -1.41461E+06         52.8686
            1189     2.38299E-03     1.57747E-03         4.70927        -1.79330        -1.82440        -1.79328         4.70925        -1.82440    -9.76586E-03     433.598E-03    -209.220E-03    -224.281E-03    -207.808E-03     432.187E-03    -224.281E-03     53.2473E-03    -66.0090E+06    -71.2927E+06    -250.341E+06    -71.4001E+06    -250.234E+06    -66.0090E+06     119.963E+03         53.5040
            1190     1.58145E-03     1.60914E-03         4.72939        -1.80707        -1.83753        -1.80880         4.72937        -1.83578    -7.64511E-03     449.326E-03    -220.961E-03    -228.362E-03    -220.234E-03     448.600E-03    -228.362E-03     38.4157E-03    -68.7547E+06    -73.8652E+06    -253.176E+06    -73.9588E+06    -253.083E+06    -68.7547E+06     1.76551E+06         53.8970
            1191     788.178E-06     1.63154E-03         4.76821        -1.79771        -1.88738        -1.86895         4.76770        -1.81564    -23.6653E-03     459.867E-03    -228.453E-03    -231.408E-03    -229.190E-03     459.615E-03    -230.420E-03     22.1304E-03    -71.8819E+06    -75.7421E+06    -256.369E+06    -75.4517E+06    -256.286E+06    -72.2556E+06     1.54473E+06         54.1093
            1192     885.158E-06     71.5522E-03     475.355E-03     326.504E-03     143.483E-03     445.065E-03     202.563E-03     297.714E-03    -106.927E-03     246.374E-03    -122.824E-03    -123.572E-03    -123.569E-03     246.371E-03    -122.824E-03    -1.82785E-03    -105.038E+06    -108.726E+06    -297.733E+06    -108.752E+06    -297.706E+06    -105.040E+06    -86.0812E+03         39.8074
            1193     1.76848E-03     71.5480E-03     387.995E-03     363.885E-03     193.541E-03     369.804E-03     205.024E-03     370.592E-03     16.8431E-03     246.312E-03    -123.056E-03    -123.323E-03    -123.109E-03     246.301E-03    -123.259E-03    -3.95175E-03    -92.8260E+06    -103.451E+06    -292.615E+06    -103.471E+06    -292.594E+06    -92.8260E+06     1.60456E+06         39.9949
            1194     2.65353E-03     71.5387E-03     396.936E-03     370.104E-03     175.716E-03     372.478E-03     200.173E-03     370.104E-03     11.2139E-03     246.373E-03    -123.058E-03    -123.371E-03    -123.114E-03     246.354E-03    -123.296E-03    -5.19149E-03    -78.6978E+06    -97.0269E+06    -285.260E+06    -97.0398E+06    -285.247E+06    -78.6978E+06     905.793E+03         40.2983
            1195     3.53733E-03     71.5290E-03     399.972E-03     359.506E-03     187.278E-03     343.738E-03     236.162E-03     366.856E-03     2.39475E-03     246.846E-03    -123.360E-03    -123.521E-03    -123.468E-03     246.829E-03    -123.396E-03    -4.97308E-03    -64.8175E+06    -90.8354E+06    -266.289E+06    -90.8422E+06    -266.282E+06    -64.8175E+06     778.048E+03         40.7171
            1196     4.42091E-03     71.5197E-03     414.099E-03     335.341E-03     203.132E-03     303.033E-03     291.739E-03     357.800E-03     54.0838E-03     246.469E-03    -123.028E-03    -123.517E-03    -123.071E-03     246.462E-03    -123.466E-03    -3.03989E-03    -50.1456E+06    -84.1091E+06    -241.266E+06    -84.1177E+06    -241.257E+06    -50.1456E+06     1.12123E+06         41.2720
            1197     5.30568E-03     71.5139E-03     432.966E-03     314.855E-03     207.036E-03     245.440E-03     365.757E-03     343.661E-03     26.7069E-03     245.705E-03    -122.293E-03    -123.448E-03    -122.289E-03     245.701E-03    -123.448E-03     673.119E-06    -37.0157E+06    -77.5384E+06    -211.549E+06    -77.5492E+06    -211.538E+06    -37.0157E+06     971.414E+03         42.0148
            1198     6.19015E-03     71.5118E-03     469.516E-03     311.262E-03     178.065E-03     179.665E-03     454.220E-03     324.958E-03     17.6400E-03     245.334E-03    -121.976E-03    -123.417E-03    -121.951E-03     245.309E-03    -123.417E-03     5.43492E-03    -24.8244E+06    -71.0859E+06    -175.654E+06    -71.1095E+06    -175.631E+06    -24.8244E+06     1.29775E+06         42.9736
            1199     7.07502E-03     71.5146E-03     538.115E-03     303.477E-03     120.003E-03     120.440E-03     537.678E-03     303.477E-03     8.92393E-03     244.717E-03    -121.530E-03    -123.362E-03    -121.416E-03     244.603E-03    -123.362E-03     12.1594E-03    -13.6491E+06    -65.0668E+06    -137.486E+06    -65.0897E+06    -137.463E+06    -13.6491E+06     1.16941E+06         44.1603
            1200     7.96086E-03     71.5290E-03     618.805E-03     280.740E-03     60.4952E-03     60.7293E-03     618.571E-03     280.740E-03     18.7179E-03     243.723E-03    -120.838E-03    -123.246E-03    -120.550E-03     243.434E-03    -123.246E-03     20.1426E-03    -4.90932E+06    -59.1030E+06    -88.1339E+06    -59.2911E+06    -87.9458E+06    -4.90932E+06     906.358E+03         45.6165
            1201     8.84607E-03     71.5476E-03     707.192E-03     257.165E-03    -3.80159E-03    -3.51440E-03     706.905E-03     257.165E-03     25.8736E-03     243.537E-03    -120.742E-03    -123.080E-03    -120.050E-03     242.845E-03    -123.080E-03     30.9050E-03     5.76040E+06    -22.6655E+06    -55.0552E+06    -53.5047E+06    -23.9231E+06     5.46747E+06     544.720E+03         47.4280
            1202     9.73203E-03     71.5886E-03     806.152E-03     232.791E-03    -75.7320E-03    -75.6324E-03     806.052E-03     232.791E-03     15.7264E-03     244.167E-03    -121.107E-03    -122.970E-03    -119.731E-03     242.792E-03    -122.970E-03     44.2821E-03     42.9627E+06     15.1724E+06    -47.9979E+06    -47.9878E+06     42.3867E+06     15.7382E+06    -162.308E+03         49.6909
            1203     10.6166E-03     71.6416E-03     911.732E-03     207.566E-03    -153.136E-03    -153.044E-03     911.640E-03     207.566E-03     17.2057E-03     245.230E-03    -122.073E-03    -123.038E-03    -119.466E-03     242.622E-03    -123.038E-03     60.8091E-03     78.5863E+06     34.6566E+06    -41.5071E+06    -41.4857E+06     78.5648E+06     34.6566E+06    -241.665E+03         52.4138
            1204     11.4976E-03     71.7244E-03         1.01623     182.245E-03    -227.892E-03    -227.814E-03         1.01616     182.245E-03     1.55078E-03     247.226E-03    -122.890E-03    -124.298E-03    -117.885E-03     240.952E-03    -123.028E-03     93.1002E-03     85.3409E+06     62.9960E+06    -34.4506E+06    -34.4281E+06     85.3183E+06     62.9960E+06    -271.372E+03         55.4200
            1205     12.3880E-03     71.8561E-03         1.12581     157.698E-03    -310.305E-03    -310.270E-03         1.12578     157.698E-03    -7.36806E-03     253.010E-03    -123.012E-03    -130.075E-03    -116.668E-03     239.603E-03    -123.012E-03     139.064E-03     91.9874E+06      84.402E+06    -26.6035E+06    -26.5704E+06     89.7156E+06     86.6407E+06    -350.184E+03         58.3673
            1206     13.2750E-03     72.0528E-03         1.24657     132.780E-03    -402.444E-03    -402.297E-03         1.24643     132.780E-03    -19.8197E-03     257.782E-03    -123.019E-03    -134.873E-03    -118.731E-03     241.641E-03    -123.019E-03     155.707E-03     96.4047E+06     93.5095E+06    -18.8424E+06    -18.7776E+06     93.4447E+06     96.4047E+06     230.643E+03         61.0110
            1207     14.1572E-03     72.2331E-03         1.37161     106.658E-03    -497.643E-03    -497.432E-03         1.37140     106.658E-03    -4.80530E-03     268.033E-03    -122.952E-03    -145.116E-03    -121.596E-03     244.513E-03    -122.952E-03     188.324E-03     99.8641E+06     96.0431E+06    -12.4529E+06    -12.3770E+06     99.1317E+06     96.6995E+06     1.08129E+06         63.3937
            1208     15.0437E-03     72.5152E-03         1.49462     77.5491E-03    -588.577E-03    -588.475E-03         1.49452     77.5491E-03     5.83084E-03     261.105E-03    -122.120E-03    -139.062E-03    -121.431E-03     244.310E-03    -122.957E-03     134.193E-03     105.696E+06     96.7726E+06    -5.86861E+06    -5.81420E+06     105.642E+06     96.7726E+06     1.03790E+06         65.6654
            1209     883.795E-06     72.8317E-03     538.328E-03     438.708E-03    -37.3173E-03     529.049E-03    -34.7457E-03     445.415E-03    -44.7225E-03     246.622E-03    -122.987E-03    -123.651E-03    -123.521E-03     246.616E-03    -123.111E-03    -1.83585E-03    -104.037E+06    -107.597E+06    -299.107E+06    -107.468E+06    -299.099E+06    -104.174E+06     989.900E+03         39.8122
            1210     1.76878E-03     72.8256E-03     487.092E-03     464.967E-03    -11.3508E-03     463.339E-03    -4.62423E-03     481.993E-03     22.0384E-03     246.415E-03    -123.105E-03    -123.368E-03    -123.118E-03     246.399E-03    -123.338E-03    -4.80015E-03    -93.9819E+06    -103.742E+06    -293.789E+06    -103.747E+06    -293.785E+06    -93.9819E+06     802.449E+03         39.9973
            1211     2.65309E-03     72.8164E-03     474.988E-03     439.886E-03     27.2493E-03     438.867E-03     32.0019E-03     471.254E-03     47.0931E-03     246.530E-03    -123.144E-03    -123.436E-03    -123.200E-03     246.511E-03    -123.362E-03    -5.26803E-03    -79.9246E+06    -98.4822E+06    -285.273E+06    -98.4872E+06    -285.268E+06    -79.9246E+06     834.867E+03         40.2981
            1212     3.53712E-03     72.8090E-03     459.436E-03     412.198E-03     73.0118E-03     410.944E-03     74.4999E-03     459.201E-03     7.46544E-03     246.731E-03    -123.185E-03    -123.568E-03    -123.285E-03     246.716E-03    -123.454E-03    -4.52035E-03     -64.031E+06    -91.9105E+06    -267.215E+06    -91.9165E+06    -267.208E+06     -64.031E+06     989.520E+03         40.7153
            1213     4.42088E-03     72.7987E-03     445.667E-03     377.145E-03     126.611E-03     375.744E-03     128.012E-03     445.667E-03     13.9708E-03     246.435E-03    -122.958E-03    -123.521E-03    -122.991E-03     246.428E-03    -123.482E-03    -2.83611E-03    -50.7532E+06    -85.0074E+06    -241.916E+06    -85.0127E+06    -241.911E+06    -50.7532E+06     848.944E+03         41.2700
            1214     5.30543E-03     72.7917E-03     429.029E-03     342.556E-03     178.902E-03     317.365E-03     204.093E-03     429.029E-03    -17.1496E-03     245.647E-03    -122.205E-03    -123.444E-03    -122.202E-03     245.644E-03    -123.444E-03     522.867E-06    -37.6713E+06    -77.8226E+06    -212.415E+06    -77.8337E+06    -212.404E+06    -37.6713E+06     999.855E+03         42.0130
            1215     6.19107E-03     72.7896E-03     421.983E-03     331.095E-03     200.275E-03     258.612E-03     285.841E-03     408.901E-03    -26.3467E-03     245.009E-03    -121.707E-03    -123.390E-03    -121.676E-03     244.979E-03    -123.390E-03     5.86812E-03    -24.7816E+06    -71.2072E+06    -176.391E+06    -71.2334E+06    -176.365E+06    -24.7816E+06     1.54567E+06         42.9731
            1216     7.07512E-03     72.7945E-03     436.460E-03     334.442E-03     185.787E-03     202.513E-03     367.287E-03     386.890E-03    -12.4947E-03     244.718E-03    -121.566E-03    -123.320E-03    -121.461E-03     244.613E-03    -123.320E-03     12.0540E-03    -13.3557E+06    -64.2799E+06    -137.084E+06    -64.3072E+06    -137.057E+06    -13.3557E+06     1.27052E+06         44.1657
            1217     7.96060E-03     72.8037E-03     482.110E-03     344.552E-03     129.727E-03     129.971E-03     463.319E-03     363.099E-03     15.5603E-03     244.138E-03    -121.204E-03    -123.233E-03    -120.940E-03     243.874E-03    -123.233E-03     19.1810E-03    -3.72645E+06    -57.3781E+06    -88.0031E+06    -57.5648E+06    -87.8164E+06    -3.72645E+06     1.05500E+06         45.6281
            1218     8.84608E-03     72.8288E-03     565.650E-03     337.323E-03     54.8292E-03     55.0377E-03     565.442E-03     337.323E-03     17.7342E-03     243.960E-03    -121.199E-03    -123.109E-03    -120.535E-03     243.297E-03    -123.109E-03     30.3002E-03     6.23444E+06    -21.5491E+06    -55.1642E+06    -52.6910E+06    -23.7294E+06     5.94150E+06     1.08801E+06         47.4386
            1219     9.72957E-03     72.8651E-03     676.275E-03     310.018E-03    -25.9120E-03    -25.6664E-03     676.029E-03     310.018E-03     23.1263E-03     244.709E-03    -121.650E-03    -123.051E-03    -120.238E-03     243.297E-03    -123.051E-03     44.7573E-03     43.6431E+06     16.8874E+06    -47.5917E+06    -47.5598E+06     43.4338E+06     17.0648E+06     662.083E+03         49.6954
            1220     10.6139E-03     72.9237E-03     795.101E-03     281.213E-03    -113.767E-03    -113.518E-03     794.852E-03     281.213E-03     21.7095E-03     244.684E-03    -121.469E-03    -123.115E-03    -118.780E-03     241.994E-03    -123.115E-03     61.7207E-03     78.2695E+06     36.1390E+06    -41.9120E+06    -41.8660E+06     78.2235E+06     36.1390E+06    -248.750E+03         52.4119
            1221     11.5026E-03     73.0014E-03     911.964E-03     251.566E-03    -199.046E-03    -198.909E-03     911.826E-03     251.566E-03     10.7507E-03     246.698E-03    -121.969E-03    -124.738E-03    -117.321E-03     240.352E-03    -123.041E-03     93.6100E-03     85.0165E+06     64.4164E+06    -34.6899E+06    -34.6478E+06     84.9744E+06     64.4164E+06    -412.455E+03         55.4192
            1222     12.3865E-03     73.1315E-03         1.03502     222.082E-03    -287.636E-03    -287.472E-03         1.03485     222.082E-03     17.9824E-03     254.118E-03    -123.031E-03    -131.213E-03    -117.877E-03     240.782E-03    -123.031E-03     139.269E-03     91.3676E+06     85.2973E+06    -27.2236E+06    -27.1995E+06     90.0283E+06     86.6125E+06     474.736E+03         58.3726
            1223     13.2718E-03     73.3316E-03         1.16674     191.945E-03    -385.425E-03    -385.334E-03         1.16665     191.945E-03     4.94828E-03     257.989E-03    -123.076E-03    -135.053E-03    -118.853E-03     241.789E-03    -123.076E-03     156.141E-03     94.3376E+06     92.2502E+06    -20.7273E+06    -20.6742E+06     92.1972E+06     94.3376E+06     883.276E+03         61.0154
            1224     14.1588E-03     73.5145E-03         1.29881     160.318E-03    -483.615E-03    -483.542E-03         1.29874     160.318E-03     2.22454E-03     267.253E-03    -122.989E-03    -144.275E-03    -120.917E-03     243.894E-03    -122.989E-03     187.709E-03     99.9269E+06     95.2599E+06    -13.4696E+06    -13.3557E+06     99.0408E+06     96.0321E+06     338.526E+03         63.3958
            1225     15.0429E-03     73.7931E-03         1.42900     126.199E-03    -573.518E-03    -573.349E-03         1.42883     126.199E-03    -13.1537E-03     260.754E-03    -122.066E-03    -138.779E-03    -121.443E-03     244.336E-03    -122.984E-03     132.166E-03     106.459E+06     96.7456E+06    -6.34768E+06    -6.25642E+06     106.367E+06     96.7456E+06     288.466E+03         65.6709
            1226     884.054E-06     74.1111E-03     607.397E-03     541.345E-03    -211.902E-03     572.653E-03    -211.010E-03     575.197E-03    -31.0048E-03     246.760E-03    -123.057E-03    -123.717E-03    -123.418E-03     246.753E-03    -123.350E-03    -1.42133E-03    -105.359E+06    -108.614E+06    -301.269E+06    -107.976E+06    -301.251E+06    -106.015E+06     1.61624E+06         39.8204
            1227     1.76819E-03     74.1027E-03     565.536E-03     526.645E-03    -153.576E-03     525.020E-03    -150.351E-03     563.937E-03     17.8146E-03     246.809E-03    -123.319E-03    -123.536E-03    -123.387E-03     246.796E-03    -123.455E-03    -4.44547E-03    -94.9135E+06    -105.117E+06    -294.499E+06    -105.134E+06    -294.482E+06    -94.9135E+06     1.63606E+06         40.0053
            1228     2.65215E-03     74.0966E-03     542.646E-03     480.245E-03    -80.3884E-03     474.986E-03    -75.1293E-03     542.646E-03     4.09579E-03     246.684E-03    -123.229E-03    -123.494E-03    -123.211E-03     246.667E-03    -123.494E-03    -5.05354E-03    -79.6499E+06    -99.1398E+06    -285.114E+06    -99.1472E+06    -285.106E+06    -79.6499E+06     971.055E+03         40.2987
            1229     3.53692E-03     74.0861E-03     521.950E-03     452.039E-03    -28.8602E-03     449.003E-03    -25.8241E-03     521.950E-03    -37.1546E-03     246.206E-03    -122.776E-03    -123.494E-03    -122.761E-03     246.191E-03    -123.494E-03    -4.62230E-03    -65.0068E+06    -92.5076E+06    -268.721E+06    -92.5129E+06    -268.716E+06    -65.0068E+06     803.491E+03         40.7061
            1230     4.42204E-03     74.0787E-03     503.880E-03     418.187E-03     23.3811E-03     417.450E-03     24.1180E-03     503.880E-03     25.1874E-03     245.947E-03    -122.614E-03    -123.416E-03    -122.608E-03     245.941E-03    -123.416E-03    -2.67681E-03    -51.6336E+06    -86.0838E+06    -242.179E+06    -86.0911E+06    -242.171E+06    -51.6336E+06     1.00319E+06         41.2600
            1231     5.30570E-03     74.0699E-03     485.971E-03     378.805E-03     79.7066E-03     377.780E-03     80.7320E-03     485.971E-03     19.0210E-03     245.788E-03    -122.427E-03    -123.370E-03    -122.424E-03     245.785E-03    -123.370E-03     540.950E-06    -38.5138E+06    -79.2261E+06    -213.023E+06    -79.2311E+06    -213.018E+06    -38.5138E+06     658.974E+03         42.0114
            1232     6.19026E-03     74.0672E-03     466.951E-03     330.841E-03     147.288E-03     328.016E-03     150.113E-03     466.951E-03     3.87562E-03     245.141E-03    -121.859E-03    -123.361E-03    -121.830E-03     245.112E-03    -123.361E-03     5.73041E-03    -25.2430E+06    -71.6822E+06    -177.040E+06    -71.6963E+06    -177.026E+06    -25.2430E+06     973.253E+03         42.9795
            1233     7.07687E-03     74.0719E-03     445.351E-03     301.250E-03     201.144E-03     255.873E-03     246.521E-03     445.351E-03    -6.04502E-03     245.020E-03    -121.798E-03    -123.316E-03    -121.696E-03     244.917E-03    -123.316E-03     11.8602E-03    -13.6406E+06    -65.4262E+06    -136.258E+06    -65.4493E+06    -136.235E+06    -13.6406E+06     1.16595E+06         44.1784
            1234     7.95977E-03     74.0845E-03     437.112E-03     333.745E-03     179.416E-03     181.046E-03     348.588E-03     420.638E-03    -3.47067E-03     244.867E-03    -121.775E-03    -123.278E-03    -121.519E-03     244.611E-03    -123.278E-03     18.9464E-03    -4.28134E+06    -59.4651E+06    -88.4666E+06    -59.5160E+06    -88.4156E+06    -4.28134E+06     530.257E+03         45.6441
            1235     8.84429E-03     74.1045E-03     480.338E-03     372.453E-03     100.830E-03     101.143E-03     458.959E-03     393.519E-03     2.11346E-03     244.251E-03    -121.302E-03    -123.192E-03    -120.621E-03     243.570E-03    -123.192E-03     30.5775E-03     6.72714E+06    -22.0215E+06    -54.6967E+06    -52.4185E+06    -24.2997E+06     6.72714E+06     892.709E+03         47.4478
            1236     9.73058E-03     74.1466E-03     579.415E-03     364.275E-03     13.7654E-03     13.9801E-03     579.201E-03     364.275E-03     15.1761E-03     244.154E-03    -120.995E-03    -123.101E-03    -119.525E-03     242.684E-03    -123.101E-03     45.6161E-03     44.3540E+06     17.0191E+06    -46.3096E+06    -46.2737E+06     43.5286E+06     17.8085E+06     1.50420E+06         49.6953
            1237     10.6152E-03     74.2020E-03     699.292E-03     333.247E-03    -72.6251E-03    -72.4286E-03     699.095E-03     333.247E-03     8.92076E-03     244.135E-03    -120.905E-03    -123.113E-03    -118.307E-03     241.537E-03    -123.113E-03     60.8432E-03     79.0660E+06     37.4117E+06    -41.0909E+06    -41.0064E+06     78.9815E+06     37.4117E+06     1.10345E+06         52.4136
            1238     11.5017E-03     74.2744E-03     830.869E-03     300.808E-03    -170.396E-03    -170.286E-03     830.759E-03     300.808E-03     7.78579E-03     247.061E-03    -121.924E-03    -125.157E-03    -117.797E-03     240.811E-03    -123.034E-03     92.6421E-03     85.2064E+06     65.2213E+06    -35.6306E+06    -35.5480E+06     85.1238E+06     65.2213E+06     602.381E+03         55.4317
            1239     12.3874E-03     74.4169E-03     970.825E-03     267.184E-03    -272.696E-03    -272.515E-03     970.644E-03     267.184E-03     15.3529E-03     254.838E-03    -123.069E-03    -131.892E-03    -118.562E-03     241.507E-03    -123.069E-03     139.548E-03     90.8364E+06     84.1871E+06    -28.4520E+06    -28.4363E+06     89.0478E+06     85.9600E+06     525.796E+03         58.3934
            1240     13.2704E-03     74.6061E-03         1.10851     232.187E-03    -372.191E-03    -372.103E-03         1.10842     232.187E-03     1.20259E-03     258.547E-03    -123.158E-03    -135.561E-03    -119.416E-03     242.403E-03    -123.158E-03     156.113E-03     95.5020E+06     92.4776E+06    -19.6737E+06    -19.6330E+06     92.4369E+06     95.5020E+06     1.04858E+06         61.0319
            1241     14.1563E-03     74.7929E-03         1.24976     195.668E-03    -472.671E-03    -472.653E-03         1.24974     195.668E-03     3.47691E-03     267.070E-03    -123.071E-03    -144.060E-03    -120.602E-03     243.612E-03    -123.071E-03     187.834E-03     100.989E+06     95.9614E+06    -12.2595E+06    -12.1557E+06     99.6335E+06     97.2128E+06     599.672E+03         63.4011
            1242     15.0410E-03     75.0752E-03         1.39995     156.903E-03    -577.249E-03    -577.136E-03         1.39983     156.903E-03    -7.98023E-03     260.157E-03    -121.895E-03    -138.309E-03    -120.652E-03     243.628E-03    -123.023E-03     132.133E-03     106.348E+06     96.3460E+06    -6.11760E+06    -6.02296E+06     106.253E+06     96.3460E+06     104.965E+03         65.6727
            1243     884.766E-06     75.3884E-03     637.963E-03     534.673E-03    -238.582E-03     533.389E-03    -237.299E-03     637.963E-03    -50.9203E-03     246.658E-03    -122.919E-03    -123.755E-03    -123.549E-03     246.654E-03    -123.121E-03    -1.49830E-03    -108.367E+06    -113.907E+06    -304.469E+06    -113.399E+06    -304.457E+06    -108.886E+06     1.14193E+06         39.8224
            1244     1.76835E-03     75.3831E-03     584.039E-03     547.794E-03    -194.760E-03     549.297E-03    -190.720E-03     578.496E-03     19.8959E-03     246.878E-03    -123.394E-03    -123.533E-03    -123.483E-03     246.867E-03    -123.432E-03    -3.91579E-03    -98.3397E+06    -107.631E+06    -295.314E+06    -107.645E+06    -295.299E+06    -98.3397E+06     1.38565E+06         40.0080
            1245     2.65238E-03     75.3746E-03     571.536E-03     534.863E-03    -163.678E-03     534.087E-03    -157.261E-03     565.896E-03    -3.42786E-03     246.664E-03    -123.226E-03    -123.495E-03    -123.229E-03     246.648E-03    -123.476E-03    -4.85120E-03    -86.7416E+06    -102.536E+06    -284.130E+06    -102.540E+06    -284.126E+06    -86.7416E+06     697.942E+03         40.2992
            1246     3.53652E-03     75.3648E-03     555.093E-03     515.588E-03    -126.200E-03     511.197E-03    -121.712E-03     554.996E-03    -36.0975E-03     246.080E-03    -122.697E-03    -123.484E-03    -122.681E-03     246.065E-03    -123.484E-03    -4.71885E-03    -69.5685E+06    -95.8552E+06    -269.699E+06    -95.8618E+06    -269.692E+06    -69.5685E+06     11.2014E+03         40.7018
            1247     4.42156E-03     75.3548E-03     542.124E-03     471.625E-03    -71.6650E-03     470.068E-03    -70.1089E-03     542.124E-03     54.1123E-03     245.479E-03    -122.226E-03    -123.365E-03    -122.219E-03     245.473E-03    -123.365E-03    -2.75487E-03    -52.8916E+06    -87.8099E+06    -243.177E+06    -87.8195E+06    -243.168E+06    -52.8916E+06     369.051E+03         41.2556
            1248     5.30723E-03     75.3491E-03     525.560E-03     416.153E-03    -3.23083E-03     415.139E-03    -2.21692E-03     525.560E-03     31.3690E-03     245.732E-03    -122.445E-03    -123.297E-03    -122.442E-03     245.729E-03    -123.297E-03     604.686E-06    -38.7219E+06    -80.4019E+06    -212.390E+06    -80.4063E+06    -212.386E+06    -38.7219E+06     669.195E+03         42.0147
            1249     6.19129E-03     75.3452E-03     504.849E-03     346.017E-03     85.6106E-03     344.367E-03     87.2606E-03     504.849E-03     28.8037E-03     245.931E-03    -122.631E-03    -123.361E-03    -122.606E-03     245.906E-03    -123.361E-03     5.30534E-03    -25.4898E+06    -73.2472E+06    -177.525E+06    -73.2573E+06    -177.515E+06    -25.4898E+06     658.221E+03         42.9894
            1250     7.07418E-03     75.3504E-03     480.119E-03     279.572E-03     178.114E-03     266.453E-03     191.233E-03     480.119E-03     18.5961E-03     245.318E-03    -122.015E-03    -123.372E-03    -121.912E-03     245.215E-03    -123.372E-03     11.7610E-03    -13.9006E+06    -66.3115E+06    -136.162E+06    -66.3219E+06    -136.152E+06    -13.9006E+06     652.188E+03         44.1865
            1251     7.96032E-03     75.3638E-03     452.700E-03     297.022E-03     191.875E-03     195.864E-03     293.034E-03     452.700E-03    -11.2142E-03     244.685E-03    -121.506E-03    -123.329E-03    -121.246E-03     244.425E-03    -123.329E-03     19.1386E-03    -4.31595E+06    -60.0180E+06    -88.1200E+06    -60.0381E+06    -88.0998E+06    -4.31595E+06     104.648E+03         45.6497
            1252     8.84425E-03     75.3844E-03     444.949E-03     375.766E-03     126.635E-03     126.957E-03     396.481E-03     423.912E-03    -5.71498E-03     244.230E-03    -121.201E-03    -123.224E-03    -120.499E-03     243.528E-03    -123.224E-03     30.9686E-03     5.69144E+06    -23.4769E+06    -55.7330E+06    -53.6504E+06    -25.3799E+06     5.51187E+06     130.318E+03         47.4537
            1253     9.72838E-03     75.4239E-03     511.181E-03     393.800E-03     46.7030E-03     46.8308E-03     511.053E-03     393.800E-03     1.80210E-03     243.955E-03    -120.748E-03    -123.113E-03    -119.317E-03     242.524E-03    -123.113E-03     45.1722E-03     42.9406E+06     15.3422E+06    -47.4779E+06    -47.4432E+06     42.2938E+06     15.9543E+06     1.05596E+06         49.7008
            1254     10.6168E-03     75.4787E-03     642.511E-03     361.627E-03    -48.9884E-03    -48.8826E-03     642.405E-03     361.627E-03     2.37275E-03     244.473E-03    -121.228E-03    -123.116E-03    -118.700E-03     241.945E-03    -123.116E-03     59.9988E-03     78.4143E+06     35.1001E+06    -41.4672E+06    -41.3916E+06     78.3387E+06     35.1001E+06     2.42449E+06         52.4230
            1255     11.4995E-03     75.5570E-03     785.990E-03     326.883E-03    -156.523E-03    -156.425E-03     785.892E-03     326.883E-03     881.014E-06     247.539E-03    -122.462E-03    -125.088E-03    -118.219E-03     241.273E-03    -123.066E-03     92.7726E-03     85.7211E+06     63.7667E+06    -35.0677E+06    -34.9626E+06     85.6160E+06     63.7667E+06     2.46205E+06         55.4477
            1256     12.3852E-03     75.6900E-03     927.259E-03     289.925E-03    -259.381E-03    -259.293E-03     927.172E-03     289.925E-03    -2.68588E-03     255.011E-03    -123.130E-03    -131.954E-03    -118.472E-03     241.529E-03    -123.130E-03     140.323E-03     92.1350E+06     84.2941E+06    -27.7006E+06    -27.6410E+06     89.6814E+06     86.6881E+06     898.300E+03         58.4093
            1257     13.2720E-03     75.8924E-03         1.06713     251.391E-03    -355.724E-03    -355.609E-03         1.06701     251.391E-03    -11.0058E-03     258.540E-03    -123.207E-03    -135.471E-03    -119.324E-03     242.393E-03    -123.207E-03     156.061E-03     95.9135E+06     92.1377E+06    -20.3645E+06    -20.3402E+06     92.1135E+06     95.9135E+06     341.827E+03         61.0385
            1258     14.1534E-03     76.0703E-03         1.21298     211.301E-03    -457.354E-03    -457.260E-03         1.21289     211.301E-03     442.157E-06     266.606E-03    -123.086E-03    -143.568E-03    -119.758E-03     242.796E-03    -123.086E-03     188.541E-03     101.488E+06     95.6927E+06    -13.2344E+06    -13.1736E+06     100.046E+06     97.0745E+06     592.539E+03         63.3995
            1259     15.0442E-03     76.3504E-03         1.37199     169.267E-03    -569.615E-03    -569.572E-03         1.37195     169.267E-03     9.18964E-03     260.152E-03    -122.184E-03    -138.012E-03    -120.152E-03     243.099E-03    -122.992E-03     134.466E-03     106.764E+06     96.4386E+06    -6.10997E+06    -6.05246E+06     106.707E+06     96.4386E+06     41.8473E+03         65.6743
            1260     883.575E-06     76.6654E-03     663.499E-03     450.674E-03    -189.346E-03     464.976E-03    -188.499E-03     648.349E-03    -38.3924E-03     246.827E-03    -122.916E-03    -123.922E-03    -123.845E-03     246.824E-03    -122.990E-03    -1.91707E-03    -107.773E+06    -112.155E+06    -304.924E+06    -110.877E+06    -304.920E+06    -109.055E+06    -253.209E+03         39.8227
            1261     1.76852E-03     76.6628E-03     598.352E-03     559.703E-03    -228.566E-03     590.065E-03    -224.008E-03     563.432E-03     51.4879E-03     246.596E-03    -123.197E-03    -123.444E-03    -123.204E-03     246.583E-03    -123.426E-03    -3.99675E-03    -99.9819E+06    -106.890E+06    -296.577E+06    -106.895E+06    -296.572E+06    -99.9819E+06    -357.241E+03         40.0033
            1262     2.65269E-03     76.6525E-03     591.359E-03     565.184E-03    -222.237E-03     580.082E-03    -217.270E-03     571.493E-03     40.2662E-03     246.334E-03    -122.990E-03    -123.392E-03    -122.992E-03     246.316E-03    -123.373E-03    -5.01443E-03     -87.713E+06    -102.182E+06    -284.245E+06    -102.185E+06    -284.242E+06     -87.713E+06     95.7891E+03         40.2960
            1263     3.53724E-03     76.6437E-03     568.085E-03     530.757E-03    -163.643E-03     528.798E-03    -161.587E-03     567.988E-03    -8.77436E-03     246.243E-03    -122.908E-03    -123.396E-03    -122.894E-03     246.229E-03    -123.396E-03    -4.58176E-03    -70.5094E+06    -96.2132E+06    -268.590E+06    -96.2177E+06    -268.586E+06    -70.5094E+06    -246.682E+03         40.7068
            1264     4.42185E-03     76.6321E-03     554.662E-03     471.983E-03    -92.2506E-03     470.375E-03    -90.6428E-03     554.662E-03     22.6841E-03     246.010E-03    -122.718E-03    -123.376E-03    -122.709E-03     246.001E-03    -123.376E-03    -3.20254E-03    -54.2599E+06    -89.8519E+06    -243.680E+06    -89.8578E+06    -243.674E+06    -54.2599E+06    -440.502E+03         41.2667
            1265     5.30663E-03     76.6266E-03     535.491E-03     407.153E-03    -13.1782E-03     406.278E-03    -12.3032E-03     535.491E-03    -17.8616E-03     245.881E-03    -122.553E-03    -123.358E-03    -122.549E-03     245.878E-03    -123.358E-03     151.743E-06    -40.1406E+06    -82.4622E+06    -212.329E+06    -82.4665E+06    -212.325E+06    -40.1406E+06    -21.1523E+03         42.0239
            1266     6.19018E-03     76.6264E-03     512.619E-03     346.052E-03     68.9755E-03     343.035E-03     71.9925E-03     512.619E-03    -19.1798E-03     245.830E-03    -122.495E-03    -123.404E-03    -122.472E-03     245.807E-03    -123.404E-03     5.03093E-03    -26.7605E+06    -74.6939E+06    -177.566E+06    -74.7057E+06    -177.555E+06    -26.7605E+06    -452.545E+03         42.9926
            1267     7.07497E-03     76.6289E-03     487.630E-03     287.173E-03     153.023E-03     281.998E-03     158.198E-03     487.630E-03    -8.96517E-03     245.171E-03    -121.887E-03    -123.389E-03    -121.774E-03     245.058E-03    -123.389E-03     12.1128E-03    -15.3149E+06    -66.9178E+06    -137.319E+06    -66.9306E+06    -137.307E+06    -15.3149E+06    -145.189E+03         44.1846
            1268     7.95894E-03     76.6417E-03     460.567E-03     291.066E-03     180.947E-03     205.795E-03     266.218E-03     460.567E-03    -297.879E-06     244.438E-03    -121.284E-03    -123.325E-03    -120.993E-03     244.147E-03    -123.325E-03     20.2253E-03    -4.91218E+06    -60.2376E+06    -87.8865E+06    -60.3111E+06    -87.8131E+06    -4.91218E+06     418.223E+03         45.6473
            1269     8.84455E-03     76.6639E-03     441.564E-03     371.997E-03     124.891E-03     125.096E-03     382.326E-03     431.031E-03     7.19327E-03     244.247E-03    -121.264E-03    -123.222E-03    -120.579E-03     243.562E-03    -123.222E-03     30.8303E-03     5.29083E+06    -24.2178E+06    -56.7222E+06    -55.3434E+06    -25.4170E+06     5.11125E+06     572.148E+03         47.4569
            1270     9.73081E-03     76.7026E-03     497.932E-03     399.401E-03     43.8913E-03     44.0396E-03     497.783E-03     399.401E-03     1.84005E-03     244.432E-03    -121.292E-03    -123.131E-03    -119.866E-03     243.007E-03    -123.131E-03     44.9417E-03     40.9674E+06     13.2303E+06    -50.1669E+06    -50.1180E+06     40.3256E+06     13.8232E+06     1.18584E+06         49.7068
            1271     10.6125E-03     76.7596E-03     629.365E-03     365.552E-03    -50.4666E-03    -50.3660E-03     629.264E-03     365.552E-03     2.22569E-03     244.658E-03    -121.405E-03    -123.150E-03    -118.794E-03     242.047E-03    -123.150E-03     60.9826E-03     76.4920E+06     32.1272E+06    -43.2126E+06    -43.1875E+06     76.4669E+06     32.1272E+06     1.15793E+06         52.4290
            1272     11.5009E-03     76.8342E-03     768.202E-03     329.098E-03    -151.186E-03    -151.053E-03     768.070E-03     329.098E-03    -3.25847E-03     247.632E-03    -122.275E-03    -125.366E-03    -118.226E-03     241.315E-03    -123.098E-03     93.3629E-03     85.7648E+06     62.7329E+06    -34.5726E+06    -34.5211E+06     85.7133E+06     62.7329E+06     1.52632E+06         55.4541
            1273     12.3859E-03     76.9724E-03     905.123E-03     290.335E-03    -246.815E-03    -246.714E-03     905.022E-03     290.335E-03    -5.49595E-03     255.183E-03    -123.158E-03    -132.199E-03    -118.486E-03     241.471E-03    -123.158E-03     141.383E-03     92.8332E+06     85.3675E+06    -26.6096E+06    -26.4752E+06     90.8648E+06     87.2015E+06     2.31737E+06         58.4061
            1274     13.2677E-03     77.1711E-03         1.04906     249.666E-03    -347.280E-03    -347.189E-03         1.04897     249.666E-03    -5.84230E-03     257.151E-03    -123.196E-03    -134.250E-03    -117.863E-03     240.764E-03    -123.196E-03     156.594E-03     96.7607E+06     93.3701E+06    -19.2222E+06    -19.1196E+06     93.2675E+06     96.7607E+06     1.50467E+06         61.0219
            1275     14.1594E-03     77.3473E-03         1.20333     206.768E-03    -456.421E-03    -456.275E-03         1.20318     206.768E-03     4.62271E-03     265.909E-03    -123.007E-03    -143.010E-03    -119.085E-03     241.983E-03    -123.007E-03     188.786E-03     102.120E+06     95.9684E+06    -11.8517E+06    -11.7861E+06     100.498E+06     97.5250E+06     633.523E+03         63.3888
            1276     15.0439E-03     77.6266E-03         1.35004     162.464E-03    -556.848E-03    -556.684E-03         1.34988     162.464E-03     1.36756E-03     261.125E-03    -122.585E-03    -138.637E-03    -121.129E-03     243.949E-03    -122.916E-03     135.490E-03     106.877E+06     96.9292E+06    -5.50360E+06    -5.43493E+06     106.808E+06     96.9292E+06    -57.2646E+03         65.6811
            1277     884.518E-06     77.9461E-03     715.515E-03     402.761E-03    -207.382E-03     414.392E-03    -203.863E-03     700.365E-03    -68.1970E-03     247.020E-03    -123.250E-03    -123.779E-03    -123.648E-03     247.016E-03    -123.377E-03    -2.00144E-03    -104.232E+06    -108.823E+06    -303.091E+06    -107.549E+06    -303.083E+06    -105.514E+06    -1.19600E+06         39.8281
            1278     1.76793E-03     77.9395E-03     589.872E-03     546.490E-03    -221.470E-03     572.809E-03    -218.413E-03     560.496E-03     33.5024E-03     246.524E-03    -123.082E-03    -123.481E-03    -123.068E-03     246.510E-03    -123.481E-03    -4.43883E-03    -96.0288E+06    -104.269E+06    -296.908E+06    -104.278E+06    -296.900E+06    -96.0288E+06    -1.27705E+06         40.0027
            1279     2.65315E-03     77.9311E-03     574.535E-03     528.765E-03    -187.723E-03     539.831E-03    -184.563E-03     560.309E-03     30.0275E-03     246.235E-03    -122.882E-03    -123.377E-03    -122.861E-03     246.214E-03    -123.377E-03    -5.56081E-03    -81.9429E+06    -98.9731E+06    -285.955E+06    -98.9813E+06    -285.947E+06    -81.9429E+06    -143.486E+03         40.2951
            1280     3.53786E-03     77.9206E-03     548.654E-03     481.396E-03    -112.416E-03     480.555E-03    -111.575E-03     548.654E-03    -19.6653E-03     246.494E-03    -123.102E-03    -123.391E-03    -123.085E-03     246.477E-03    -123.391E-03    -4.98992E-03    -66.8602E+06    -93.5491E+06    -267.579E+06    -93.5541E+06    -267.574E+06    -66.8602E+06     686.433E+03         40.7138
            1281     4.42137E-03     77.9126E-03     530.270E-03     429.746E-03    -41.9057E-03     428.660E-03    -40.8195E-03     530.270E-03    -18.1043E-03     246.759E-03    -123.346E-03    -123.456E-03    -123.338E-03     246.751E-03    -123.456E-03    -3.11039E-03    -52.4783E+06    -87.5784E+06    -242.398E+06    -87.5810E+06    -242.395E+06    -52.4783E+06    -115.229E+03         41.2795
            1282     5.30430E-03     77.9049E-03     510.025E-03     387.746E-03     18.6829E-03     386.645E-03     19.7833E-03     510.025E-03    -33.4054E-03     246.122E-03    -122.695E-03    -123.487E-03    -122.691E-03     246.118E-03    -123.487E-03     414.618E-06    -40.1368E+06    -81.0646E+06    -212.430E+06    -81.0701E+06    -212.424E+06    -40.1368E+06    -796.605E+03         42.0302
            1283     6.19014E-03     77.9048E-03     488.988E-03     340.067E-03     86.1039E-03     337.787E-03     88.3836E-03     488.988E-03    -29.0751E-03     245.044E-03    -121.683E-03    -123.451E-03    -121.659E-03     245.020E-03    -123.451E-03     5.30277E-03    -27.8714E+06    -74.4090E+06    -177.335E+06    -74.4225E+06    -177.322E+06    -27.8714E+06    -916.363E+03         42.9891
            1284     7.07511E-03     77.9063E-03     466.509E-03     287.046E-03     163.823E-03     281.784E-03     169.085E-03     466.509E-03    -25.8978E-03     244.791E-03    -121.543E-03    -123.364E-03    -121.432E-03     244.680E-03    -123.364E-03     12.0310E-03    -16.3191E+06    -67.9799E+06    -138.794E+06    -67.9927E+06    -138.781E+06    -16.3191E+06    -329.347E+03         44.1775
            1285     7.96101E-03     77.9194E-03     441.757E-03     292.192E-03     187.065E-03     210.474E-03     268.783E-03     441.757E-03    -11.0784E-03     244.783E-03    -121.619E-03    -123.295E-03    -121.333E-03     244.496E-03    -123.295E-03     20.0649E-03    -6.60543E+06    -61.8006E+06    -89.4891E+06    -62.1738E+06    -89.1160E+06    -6.60543E+06     700.430E+03         45.6403
            1286     8.84461E-03     77.9430E-03     445.693E-03     362.535E-03     116.186E-03     117.103E-03     393.851E-03     413.460E-03    -11.3771E-03     244.388E-03    -121.336E-03    -123.225E-03    -120.665E-03     243.717E-03    -123.225E-03     30.5558E-03     4.89499E+06    -25.2009E+06    -56.6863E+06    -55.6731E+06    -26.2141E+06     4.89499E+06     1.29925E+06         47.4517
            1287     9.72761E-03     77.9821E-03     526.551E-03     381.191E-03     18.4464E-03     18.5602E-03     526.438E-03     381.191E-03    -5.91395E-03     244.118E-03    -120.974E-03    -123.117E-03    -119.518E-03     242.662E-03    -123.117E-03     45.2759E-03     41.4694E+06     12.0832E+06    -49.2301E+06    -49.2039E+06     39.7995E+06     13.7270E+06     748.908E+03         49.7037
            1288     10.6166E-03     78.0369E-03     650.157E-03     346.027E-03    -69.0219E-03    -68.9428E-03     650.078E-03     346.027E-03     5.31435E-03     244.728E-03    -121.490E-03    -123.117E-03    -118.776E-03     242.014E-03    -123.117E-03     62.2113E-03     77.0153E+06     32.2951E+06    -42.7707E+06    -42.7702E+06     77.0148E+06     32.2951E+06     93.6632E+03         52.4255
            1289     11.4991E-03     78.1132E-03     777.041E-03     308.746E-03    -155.319E-03    -155.177E-03     776.899E-03     308.746E-03    -3.55232E-03     248.001E-03    -122.585E-03    -125.415E-03    -118.429E-03     241.512E-03    -123.082E-03     94.7405E-03     85.0886E+06     62.4740E+06    -36.0703E+06    -36.0591E+06     85.0774E+06     62.4740E+06     540.105E+03         55.4458
            1290     12.3835E-03     78.2516E-03     913.019E-03     268.972E-03    -247.112E-03    -246.932E-03     912.840E-03     268.972E-03    -23.8893E-03     254.260E-03    -123.114E-03    -131.319E-03    -117.437E-03     240.378E-03    -123.114E-03     141.907E-03     91.8624E+06     84.6584E+06    -27.7071E+06    -27.6049E+06     90.1931E+06     86.2256E+06     1.56381E+06         58.3892
            1291     13.2741E-03     78.4483E-03         1.05601     226.778E-03    -346.247E-03    -346.115E-03         1.05587     226.778E-03    -20.4113E-03     256.488E-03    -123.109E-03    -133.671E-03    -117.231E-03     240.048E-03    -123.109E-03     156.537E-03     97.3412E+06     94.2276E+06    -18.7517E+06    -18.6268E+06     94.1026E+06     97.3412E+06     1.71162E+06         61.0070
            1292     14.1582E-03     78.6199E-03         1.20492     182.244E-03    -450.450E-03    -450.356E-03         1.20483     182.244E-03     2.75495E-03     266.738E-03    -122.945E-03    -143.876E-03    -120.227E-03     243.089E-03    -122.945E-03     188.319E-03     103.036E+06     97.0955E+06    -11.5774E+06    -11.4888E+06     101.401E+06     98.6419E+06     881.276E+03         63.3894
            1293     15.0461E-03     78.9086E-03         1.35112     136.881E-03    -550.527E-03    -550.330E-03         1.35092     136.881E-03    -11.2405E-03     261.572E-03    -122.473E-03    -139.158E-03    -121.859E-03     244.716E-03    -122.917E-03     133.985E-03     107.006E+06     97.9180E+06    -5.69066E+06    -5.61148E+06     106.927E+06     97.9180E+06     55.2797E+03         65.6911
            1294     883.297E-06     79.2246E-03     737.843E-03     344.921E-03    -183.270E-03     337.526E-03    -175.875E-03     737.843E-03    -108.086E-03     247.127E-03    -123.106E-03    -124.017E-03    -123.753E-03     247.120E-03    -123.363E-03    -2.34607E-03    -103.618E+06    -110.406E+06    -301.777E+06    -108.748E+06    -301.766E+06    -105.286E+06    -11.4288E+03         39.8342
            1295     1.76853E-03     79.2185E-03     525.804E-03     477.936E-03    -105.602E-03     476.244E-03    -103.910E-03     525.804E-03    -12.7750E-03     246.632E-03    -123.116E-03    -123.540E-03    -123.100E-03     246.615E-03    -123.540E-03    -4.85613E-03    -94.7113E+06    -106.254E+06    -295.945E+06    -106.262E+06    -295.936E+06    -94.7113E+06    -84.3107E+03         40.0094
            1296     2.65238E-03     79.2086E-03     504.971E-03     452.845E-03    -59.6860E-03     451.072E-03    -57.9133E-03     504.971E-03    -9.02972E-03     246.706E-03    -123.225E-03    -123.512E-03    -123.229E-03     246.685E-03    -123.487E-03    -5.55226E-03    -80.6253E+06    -100.250E+06    -287.289E+06    -100.258E+06    -287.280E+06    -80.6253E+06    -120.671E+03         40.3020
            1297     3.53653E-03     79.1998E-03     489.562E-03     435.013E-03    -27.8628E-03     433.658E-03    -26.5082E-03     489.562E-03    -23.6978E-03     246.697E-03    -123.172E-03    -123.554E-03    -123.179E-03     246.679E-03    -123.528E-03    -5.02981E-03    -65.4426E+06    -92.5887E+06    -268.194E+06    -92.5953E+06    -268.188E+06    -65.4426E+06     352.909E+03         40.7176
            1298     4.42107E-03     79.1913E-03     475.689E-03     402.856E-03     19.0504E-03     402.293E-03     19.6128E-03     475.689E-03    -5.18128E-03     246.310E-03    -122.869E-03    -123.515E-03    -122.862E-03     246.303E-03    -123.515E-03    -2.57227E-03    -51.9667E+06    -85.4573E+06    -241.694E+06    -85.4610E+06    -241.690E+06    -51.9667E+06     384.960E+03         41.2779
            1299     5.30546E-03     79.1857E-03     460.310E-03     361.057E-03     77.4201E-03     360.368E-03     78.1092E-03     460.310E-03    -20.2654E-03     245.911E-03    -122.497E-03    -123.472E-03    -122.494E-03     245.908E-03    -123.472E-03     964.635E-06    -39.7706E+06    -79.4059E+06    -211.525E+06    -79.4115E+06    -211.520E+06    -39.7706E+06    -47.1519E+03         42.0265
            1300     6.18962E-03     79.1807E-03     442.347E-03     309.150E-03     150.217E-03     306.265E-03     153.102E-03     442.347E-03    -11.1683E-03     245.402E-03    -122.046E-03    -123.447E-03    -122.023E-03     245.379E-03    -123.447E-03     5.29279E-03    -28.2784E+06    -73.9160E+06    -177.312E+06    -73.9194E+06    -177.308E+06    -28.2784E+06    -255.409E+03         42.9857
            1301     7.07582E-03     79.1855E-03     420.702E-03     291.865E-03     191.913E-03     233.367E-03     250.411E-03     420.702E-03    -17.8010E-03     244.961E-03    -121.674E-03    -123.395E-03    -121.573E-03     244.859E-03    -123.395E-03     11.5660E-03    -17.3524E+06    -68.1692E+06    -139.818E+06    -68.1783E+06    -139.809E+06    -17.3524E+06     180.962E+03         44.1702
            1302     7.95868E-03     79.1990E-03     421.092E-03     324.489E-03     159.953E-03     162.027E-03     348.114E-03     395.394E-03    -28.7508E-03     244.351E-03    -121.216E-03    -123.309E-03    -120.931E-03     244.066E-03    -123.309E-03     19.8565E-03    -7.55400E+06    -61.1373E+06    -90.7045E+06    -61.4619E+06    -90.3800E+06    -7.55400E+06     591.154E+03         45.6267
            1303     8.84384E-03     79.2220E-03     468.103E-03     348.491E-03     90.4488E-03     91.6043E-03     447.976E-03     367.462E-03    -32.6749E-03     243.861E-03    -120.897E-03    -123.187E-03    -120.185E-03     243.149E-03    -123.187E-03     31.3767E-03     3.63743E+06    -25.3508E+06    -57.4175E+06    -54.9272E+06    -27.0166E+06     2.81288E+06     429.139E+03         47.4389
            1304     9.73148E-03     79.2590E-03     564.811E-03     336.840E-03     5.70952E-03     6.52575E-03     563.995E-03     336.840E-03    -35.7184E-03     244.155E-03    -121.047E-03    -123.069E-03    -119.587E-03     242.695E-03    -123.069E-03     45.5336E-03     42.0109E+06     12.9677E+06    -48.1859E+06    -48.1852E+06     40.9593E+06     14.0186E+06     203.490E+03         49.6976
            1305     10.6145E-03     79.3142E-03     690.991E-03     303.160E-03    -85.0200E-03    -84.3415E-03     690.312E-03     303.160E-03    -21.9842E-03     244.681E-03    -121.510E-03    -123.073E-03    -118.797E-03     241.968E-03    -123.073E-03     62.0789E-03     76.7908E+06     32.4554E+06    -42.9300E+06    -42.9010E+06     76.7617E+06     32.4554E+06     1.03018E+06         52.4186
            1306     11.5014E-03     79.3933E-03     818.278E-03     266.372E-03    -173.784E-03    -173.444E-03     817.938E-03     266.372E-03    -21.0820E-03     247.210E-03    -122.371E-03    -124.849E-03    -117.643E-03     240.652E-03    -123.018E-03     95.0573E-03     84.0432E+06     61.2663E+06    -36.9465E+06    -36.9012E+06     83.9980E+06     61.2663E+06     1.06867E+06         55.4328
            1307     12.3876E-03     79.5287E-03     955.565E-03     226.123E-03    -265.780E-03    -265.480E-03     955.264E-03     226.123E-03    -26.7627E-03     253.766E-03    -123.026E-03    -130.903E-03    -117.226E-03     240.090E-03    -123.026E-03     140.948E-03     91.3695E+06     84.0762E+06    -28.7754E+06    -28.7454E+06     89.6556E+06     85.7602E+06     61.4200E+03         58.3826
            1308     13.2732E-03     79.7206E-03         1.09591     183.094E-03    -358.995E-03    -358.683E-03         1.09560     183.094E-03    -30.4213E-03     257.427E-03    -123.058E-03    -134.599E-03    -118.535E-03     241.363E-03    -123.058E-03     155.198E-03     96.8885E+06     94.1521E+06    -20.6630E+06    -20.5825E+06     94.0716E+06     96.8885E+06    -175.600E+03         61.0172
            1309     14.1598E-03     79.9035E-03         1.22437     137.972E-03    -445.125E-03    -444.921E-03         1.22417     137.972E-03    -18.6675E-03     267.411E-03    -122.977E-03    -144.429E-03    -121.151E-03     244.133E-03    -122.977E-03     187.108E-03     103.281E+06     97.3619E+06    -13.0652E+06    -12.9444E+06     102.108E+06     98.4144E+06     159.454E+03         63.4022
            1310     15.0408E-03     80.1840E-03         1.36570     92.7547E-03    -540.676E-03    -540.546E-03         1.36557     92.7547E-03    -18.5191E-03     260.851E-03    -121.927E-03    -138.927E-03    -121.249E-03     244.214E-03    -122.969E-03     133.396E-03     106.953E+06     97.5004E+06    -6.14917E+06    -6.08130E+06     106.885E+06     97.5004E+06     325.204E+03         65.6936
            1311     884.158E-06     80.5045E-03     659.792E-03     278.503E-03    -52.6943E-03     216.447E-03     11.2167E-03     657.936E-03    -80.9707E-03     246.744E-03    -122.870E-03    -123.872E-03    -123.696E-03     246.738E-03    -123.040E-03    -2.51837E-03    -105.965E+06    -111.940E+06    -302.921E+06    -110.279E+06    -302.913E+06    -107.634E+06     243.502E+03         39.8327
            1312     1.76798E-03     80.4959E-03     431.311E-03     394.589E-03     55.5599E-03     395.070E-03     56.9340E-03     429.455E-03     8.74594E-03     246.914E-03    -123.240E-03    -123.699E-03    -123.466E-03     246.901E-03    -123.459E-03    -4.35699E-03    -95.0817E+06    -104.872E+06    -294.907E+06    -104.878E+06    -294.900E+06    -95.0817E+06     105.304E+03         40.0130
            1313     2.65254E-03     80.4886E-03     415.929E-03     383.814E-03     77.2155E-03     382.212E-03     78.8181E-03     415.929E-03    -7.62111E-03     247.082E-03    -123.435E-03    -123.688E-03    -123.540E-03     247.065E-03    -123.566E-03    -4.95718E-03    -80.6122E+06    -98.9464E+06    -286.517E+06    -98.9500E+06    -286.513E+06    -80.6122E+06    -523.524E+03         40.3065
            1314     3.53608E-03     80.4789E-03     407.255E-03     379.176E-03     88.3590E-03     377.520E-03     90.0156E-03     407.255E-03    -25.0988E-03     246.671E-03    -123.087E-03    -123.644E-03    -123.097E-03     246.656E-03    -123.619E-03    -4.69546E-03    -67.0318E+06    -92.7086E+06    -270.156E+06    -92.7136E+06    -270.151E+06    -67.0318E+06    -236.804E+03         40.7164
            1315     4.42063E-03     80.4696E-03     399.387E-03     352.663E-03     122.222E-03     351.984E-03     122.902E-03     399.387E-03    -4.69034E-03     245.859E-03    -122.411E-03    -123.527E-03    -122.405E-03     245.853E-03    -123.527E-03    -2.69498E-03    -53.1982E+06    -86.1024E+06    -242.102E+06    -86.1065E+06    -242.098E+06    -53.1982E+06     630.246E+03         41.2697
            1316     5.30649E-03     80.4630E-03     388.128E-03     327.724E-03     160.264E-03     293.721E-03     195.151E-03     387.244E-03    -30.2874E-03     245.652E-03    -122.254E-03    -123.425E-03    -122.251E-03     245.649E-03    -123.425E-03     568.478E-06    -39.6648E+06    -79.4139E+06    -210.980E+06    -79.4170E+06    -210.976E+06    -39.6648E+06     564.398E+03         42.0178
            1317     6.19065E-03     80.4620E-03     392.498E-03     305.545E-03     184.168E-03     229.632E-03     283.021E-03     369.558E-03    -38.9082E-03     245.777E-03    -122.423E-03    -123.418E-03    -122.394E-03     245.748E-03    -123.418E-03     5.62359E-03    -27.8807E+06    -73.3405E+06    -177.623E+06    -73.3498E+06    -177.614E+06    -27.8807E+06     570.266E+03         42.9807
            1318     7.07272E-03     80.4639E-03     412.699E-03     307.223E-03     166.637E-03     170.510E-03     367.890E-03     348.159E-03    -47.5434E-03     245.054E-03    -121.761E-03    -123.391E-03    -121.640E-03     244.934E-03    -123.391E-03     12.6215E-03    -17.3137E+06    -67.1407E+06    -139.653E+06    -67.1593E+06    -139.634E+06    -17.3137E+06     504.864E+03         44.1664
            1319     7.96023E-03     80.4769E-03     464.717E-03     320.510E-03     102.488E-03     104.763E-03     458.932E-03     324.020E-03    -43.1077E-03     243.920E-03    -120.845E-03    -123.289E-03    -120.545E-03     243.620E-03    -123.289E-03     20.4620E-03    -7.54040E+06    -60.5548E+06    -90.8487E+06    -60.5801E+06    -90.8234E+06    -7.54040E+06     18.2353E+03         45.6218
            1320     8.84695E-03     80.4978E-03     555.522E-03     297.197E-03     35.3274E-03     35.7717E-03     555.077E-03     297.197E-03    -28.3649E-03     243.735E-03    -120.853E-03    -123.152E-03    -120.167E-03     243.048E-03    -123.152E-03     30.9206E-03     4.21059E+06    -25.1121E+06    -56.8951E+06    -54.2175E+06    -26.9651E+06     3.38604E+06    -210.127E+03         47.4341
            1321     9.72938E-03     80.5390E-03     652.363E-03     268.128E-03    -30.6446E-03    -29.7603E-03     651.479E-03     268.128E-03    -42.4368E-03     244.314E-03    -121.235E-03    -123.051E-03    -119.795E-03     242.873E-03    -123.051E-03     45.1395E-03     41.6227E+06     12.4688E+06    -48.7700E+06    -48.7585E+06     40.2955E+06     13.7845E+06     535.522E+03         49.6946
            1322     10.6155E-03     80.5925E-03     760.576E-03     236.907E-03    -104.623E-03    -103.989E-03     759.943E-03     236.907E-03    -32.1920E-03     244.486E-03    -121.344E-03    -123.059E-03    -118.663E-03     241.804E-03    -123.059E-03     61.7412E-03     76.5148E+06     32.4778E+06    -42.8513E+06    -42.8085E+06     76.4720E+06     32.4778E+06     1.22541E+06         52.4160
            1323     11.5011E-03     80.6689E-03     885.511E-03     202.376E-03    -192.681E-03    -192.356E-03     885.186E-03     202.376E-03    -32.5924E-03     246.469E-03    -122.091E-03    -124.404E-03    -117.203E-03     240.163E-03    -122.985E-03     93.1702E-03     84.0057E+06     61.3623E+06    -35.9253E+06    -35.8717E+06     83.9521E+06     61.3623E+06     908.604E+03         55.4315
            1324     12.3887E-03     80.8049E-03         1.01814     163.374E-03    -282.915E-03    -282.672E-03         1.01790     163.374E-03    -19.3056E-03     254.258E-03    -123.011E-03    -131.484E-03    -118.083E-03     240.857E-03    -123.011E-03     139.666E-03     91.5587E+06     84.3445E+06    -28.4277E+06    -28.3956E+06     89.9325E+06     85.9387E+06     282.984E+03         58.3886
            1325     13.2721E-03     81.0025E-03         1.14945     121.157E-03    -370.773E-03    -370.459E-03         1.14914     121.157E-03    -27.5654E-03     258.447E-03    -123.107E-03    -135.674E-03    -119.761E-03     242.535E-03    -123.107E-03     154.942E-03     96.9000E+06     94.5525E+06    -20.2615E+06    -20.2078E+06     94.4988E+06     96.9000E+06    -561.057E+03         61.0291
            1326     14.1544E-03     81.1796E-03         1.28326     76.5222E-03    -462.606E-03    -462.112E-03         1.28277     76.5222E-03    -9.43314E-03     266.847E-03    -123.042E-03    -143.877E-03    -120.437E-03     243.407E-03    -123.042E-03     187.149E-03     102.308E+06     96.7323E+06    -12.2132E+06    -12.0807E+06     101.422E+06     97.4856E+06    -804.693E+03         63.4077
            1327     15.0445E-03     81.4656E-03         1.40734     32.0524E-03    -546.753E-03    -546.405E-03         1.40699     32.0524E-03    -3.44874E-03     260.146E-03    -121.909E-03    -138.299E-03    -120.324E-03     243.238E-03    -122.975E-03     134.242E-03     106.807E+06     96.3554E+06    -5.80339E+06    -5.67736E+06     106.681E+06     96.3554E+06     297.619E+03         65.6914
            1328     885.102E-06     81.7819E-03     542.116E-03     298.997E-03     21.1507E-03     95.7993E-03     244.651E-03     521.813E-03    -49.8023E-03     246.488E-03    -122.939E-03    -123.560E-03    -123.553E-03     246.480E-03    -122.939E-03    -2.54656E-03    -103.904E+06    -109.282E+06    -301.508E+06    -107.313E+06    -301.494E+06    -105.887E+06    -1.23683E+06         39.8274
            1329     1.76901E-03     81.7754E-03     346.349E-03     318.876E-03     194.488E-03     324.738E-03     222.398E-03     312.577E-03     37.5489E-03     246.953E-03    -123.328E-03    -123.665E-03    -123.619E-03     246.940E-03    -123.361E-03    -4.35646E-03    -98.0135E+06    -104.691E+06    -294.678E+06    -104.705E+06    -294.664E+06    -98.0135E+06    -1.20722E+06         40.0078
            1330     2.65182E-03     81.7676E-03     348.766E-03     312.523E-03     193.860E-03     307.295E-03     232.816E-03     315.038E-03    -688.214E-06     246.743E-03    -123.195E-03    -123.586E-03    -123.277E-03     246.728E-03    -123.490E-03    -4.63728E-03    -84.6979E+06    -100.971E+06    -286.781E+06    -100.973E+06    -286.779E+06    -84.6979E+06    -400.053E+03         40.3012
            1331     3.53663E-03     81.7578E-03     368.683E-03     297.283E-03     186.128E-03     273.613E-03     268.492E-03     309.990E-03    -32.4007E-03     246.423E-03    -122.944E-03    -123.526E-03    -122.932E-03     246.410E-03    -123.526E-03    -4.25640E-03    -67.8429E+06    -94.9347E+06    -271.267E+06    -94.9380E+06    -271.264E+06    -67.8429E+06    -44.5622E+03         40.7126
            1332     4.42130E-03     81.7473E-03     394.760E-03     277.251E-03     179.288E-03     236.463E-03     314.981E-03     299.855E-03    -15.3408E-03     246.201E-03    -122.781E-03    -123.483E-03    -122.777E-03     246.196E-03    -123.483E-03    -2.37674E-03    -52.8482E+06     -87.118E+06    -242.138E+06    -87.1207E+06    -242.135E+06    -52.8482E+06     121.223E+03         41.2675
            1333     5.30499E-03     81.7412E-03     413.662E-03     271.996E-03     168.922E-03     191.025E-03     377.441E-03     286.113E-03    -23.4628E-03     245.687E-03    -122.265E-03    -123.434E-03    -122.262E-03     245.684E-03    -123.434E-03     663.137E-06    -39.3594E+06    -79.3889E+06    -211.884E+06    -79.3905E+06    -211.882E+06    -39.3594E+06     134.236E+03         42.0147
            1334     6.19030E-03     81.7396E-03     450.715E-03     269.353E-03     140.580E-03     143.825E-03     447.469E-03     269.353E-03    -41.6808E-03     245.065E-03    -121.744E-03    -123.380E-03    -121.713E-03     245.034E-03    -123.380E-03     5.84869E-03    -26.4317E+06    -72.3359E+06    -177.779E+06    -72.3460E+06    -177.768E+06    -26.4317E+06     493.511E+03         42.9774
            1335     7.07740E-03     81.7439E-03     512.170E-03     250.857E-03     102.352E-03     104.396E-03     510.126E-03     250.857E-03    -50.6987E-03     244.936E-03    -121.721E-03    -123.308E-03    -121.609E-03     244.824E-03    -123.308E-03     12.2726E-03    -15.7596E+06    -65.9735E+06    -138.962E+06    -65.9864E+06    -138.949E+06    -15.7596E+06     253.587E+03         44.1684
            1336     7.96040E-03     81.7530E-03     586.517E-03     230.696E-03     49.6500E-03     51.1193E-03     585.048E-03     230.696E-03    -35.4993E-03     244.580E-03    -121.532E-03    -123.252E-03    -121.247E-03     244.294E-03    -123.252E-03     19.8729E-03    -6.26989E+06    -59.9723E+06    -90.2811E+06    -59.9775E+06    -90.2758E+06    -6.26989E+06    -45.0597E+03         45.6306
            1337     8.84331E-03     81.7786E-03     678.875E-03     207.582E-03    -17.4435E-03    -17.2502E-03     678.682E-03     207.582E-03    -20.4474E-03     243.974E-03    -121.055E-03    -123.164E-03    -120.367E-03     243.287E-03    -123.164E-03     30.9089E-03     4.13054E+06    -25.8265E+06    -56.8463E+06    -54.5604E+06    -28.1123E+06     4.13054E+06     299.584E+03         47.4409
            1338     9.73095E-03     81.8146E-03     776.141E-03     181.239E-03    -86.4302E-03    -86.2169E-03     775.928E-03     181.239E-03    -24.6225E-03     244.157E-03    -121.050E-03    -123.056E-03    -119.591E-03     242.699E-03    -123.056E-03     45.3912E-03     41.1046E+06     11.5620E+06    -48.8053E+06    -48.7780E+06     38.8589E+06     13.7805E+06     542.151E+03         49.6939
            1339     10.6160E-03     81.8714E-03     876.473E-03     152.117E-03    -156.035E-03    -155.963E-03     876.401E-03     152.117E-03    -3.36766E-03     244.430E-03    -121.284E-03    -123.055E-03    -118.712E-03     241.857E-03    -123.055E-03     60.6472E-03     76.9870E+06     32.7148E+06    -41.9447E+06    -41.9227E+06     76.9650E+06     32.7148E+06     235.870E+03         52.4168
            1340     11.5012E-03     81.9459E-03     986.909E-03     119.597E-03    -230.860E-03    -230.655E-03     986.704E-03     119.597E-03    -15.8343E-03     247.395E-03    -122.143E-03    -125.302E-03    -118.246E-03     241.232E-03    -123.036E-03     92.0662E-03     84.7250E+06     62.5707E+06    -34.5068E+06    -34.4729E+06     84.6911E+06     62.5707E+06     148.195E+03         55.4381
            1341     12.3859E-03     82.0820E-03         1.09609     82.6080E-03    -303.646E-03    -303.453E-03         1.09590     82.6080E-03    -26.6557E-03     254.761E-03    -123.108E-03    -131.840E-03    -118.439E-03     241.361E-03    -123.108E-03     139.709E-03     92.4730E+06     85.4380E+06    -26.3978E+06    -26.3298E+06     90.5762E+06     87.2668E+06     750.284E+03         58.3900
            1342     13.2706E-03     82.2852E-03         1.20934     42.5592E-03    -377.773E-03    -377.581E-03         1.20915     42.5592E-03    -28.7400E-03     257.216E-03    -123.152E-03    -134.316E-03    -118.107E-03     241.007E-03    -123.152E-03     155.836E-03     97.2303E+06     94.3946E+06    -18.7239E+06    -18.6723E+06     94.3429E+06     97.2303E+06     758.394E+03         61.0210
            1343     14.1574E-03     82.4578E-03         1.33982    -7.31368E-06    -467.169E-03    -466.728E-03         1.33938    -7.31368E-06     7.71655E-03     266.736E-03    -123.008E-03    -143.802E-03    -119.873E-03     242.806E-03    -123.008E-03     189.258E-03     101.372E+06     96.3946E+06    -12.1913E+06    -12.1000E+06     100.274E+06     97.4016E+06    -251.665E+03         63.4039
            1344     15.0428E-03     82.7397E-03         1.45756    -42.1776E-03    -545.321E-03    -544.525E-03         1.45677    -42.1776E-03    -12.9207E-03     261.136E-03    -122.141E-03    -139.035E-03    -121.167E-03     244.067E-03    -122.940E-03     134.437E-03     106.789E+06     96.5116E+06    -5.95993E+06    -5.82272E+06     106.652E+06     96.5116E+06     -289.45E+03         65.6984
            1345     883.607E-06     83.0604E-03     533.449E-03     339.770E-03    -43.1243E-03    -28.0492E-03     451.436E-03     406.707E-03    -104.430E-03     246.673E-03    -123.022E-03    -123.664E-03    -123.656E-03     246.667E-03    -123.024E-03    -1.83803E-03    -104.096E+06    -109.217E+06    -300.255E+06    -107.260E+06    -300.229E+06    -106.079E+06    -1.30866E+06         39.8230
            1346     1.76767E-03     83.0543E-03     437.593E-03     202.875E-03     193.413E-03     208.075E-03     432.121E-03     193.686E-03     3.36096E-03     246.517E-03    -123.129E-03    -123.437E-03    -123.180E-03     246.504E-03    -123.373E-03    -4.29459E-03    -96.7835E+06    -105.734E+06    -294.753E+06    -105.747E+06    -294.740E+06    -96.7835E+06    -388.560E+03         40.0017
            1347     2.65330E-03     83.0463E-03     451.493E-03     201.454E-03     181.540E-03     189.041E-03     448.587E-03     196.859E-03    -6.12107E-03     246.241E-03    -122.932E-03    -123.358E-03    -122.920E-03     246.225E-03    -123.354E-03    -4.79803E-03    -82.8498E+06    -100.915E+06    -287.448E+06    -100.915E+06    -287.448E+06    -82.8498E+06     50.3407E+03         40.2945
            1348     3.53782E-03     83.0349E-03     504.574E-03     190.318E-03     139.244E-03     140.562E-03     503.256E-03     190.318E-03    -23.3795E-03     246.409E-03    -123.062E-03    -123.386E-03    -123.052E-03     246.395E-03    -123.382E-03    -4.34809E-03    -66.8698E+06    -94.4814E+06    -270.314E+06    -94.4884E+06    -270.308E+06    -66.8698E+06    -640.016E+03         40.7094
            1349     4.42167E-03     83.0273E-03     558.611E-03     177.240E-03     99.0971E-03     99.4894E-03     558.219E-03     177.240E-03    -21.3447E-03     246.165E-03    -122.834E-03    -123.388E-03    -122.828E-03     246.160E-03    -123.388E-03    -2.38887E-03    -52.5187E+06    -87.1222E+06    -242.344E+06    -87.1322E+06    -242.334E+06    -52.5187E+06    -1.05270E+06         41.2689
            1350     5.30603E-03     83.0200E-03     590.036E-03     163.473E-03     83.6456E-03     83.9294E-03     589.752E-03     163.473E-03    -15.1894E-03     245.773E-03    -122.436E-03    -123.372E-03    -122.433E-03     245.770E-03    -123.372E-03     1.08114E-03    -39.8497E+06    -80.0612E+06    -212.258E+06    -80.0688E+06    -212.250E+06    -39.8497E+06    -717.659E+03         42.0182
            1351     6.19098E-03     83.0165E-03     626.165E-03     150.777E-03     62.8314E-03     63.3173E-03     625.679E-03     150.777E-03    -24.8270E-03     245.399E-03    -122.105E-03    -123.370E-03    -122.083E-03     245.378E-03    -123.370E-03     5.20542E-03    -26.6689E+06    -72.7193E+06    -178.279E+06    -72.7265E+06    -178.271E+06    -26.6689E+06    -230.008E+03         42.9816
            1352     7.07498E-03     83.0206E-03     685.993E-03     136.713E-03     17.9938E-03     18.6568E-03     685.330E-03     136.713E-03    -38.3890E-03     244.894E-03    -121.684E-03    -123.326E-03    -121.591E-03     244.801E-03    -123.326E-03     11.0027E-03    -15.1166E+06    -65.7074E+06    -139.297E+06    -65.7124E+06    -139.292E+06    -15.1166E+06     100.970E+03         44.1728
            1353     7.95981E-03     83.0353E-03     758.273E-03     119.506E-03    -35.7539E-03    -35.5472E-03     758.066E-03     119.506E-03    -18.8728E-03     244.394E-03    -121.370E-03    -123.256E-03    -121.090E-03     244.114E-03    -123.256E-03     19.5950E-03    -5.98494E+06    -59.8075E+06    -90.4588E+06    -59.8784E+06    -90.3879E+06    -5.98494E+06     351.219E+03         45.6365
            1354     8.84626E-03     83.0544E-03     835.670E-03     99.1731E-03    -91.0273E-03    -90.6220E-03     835.265E-03     99.1731E-03    -30.1533E-03     244.223E-03    -121.304E-03    -123.172E-03    -120.610E-03     243.529E-03    -123.172E-03     31.0962E-03     4.56422E+06    -25.3047E+06    -57.1364E+06    -54.2917E+06    -28.1494E+06     4.56422E+06     458.362E+03         47.4467
            1355     9.72989E-03     83.0939E-03     920.538E-03     75.9306E-03    -149.838E-03    -148.620E-03     919.320E-03     75.9306E-03    -62.9026E-03     244.347E-03    -121.220E-03    -123.087E-03    -119.784E-03     242.911E-03    -123.087E-03     45.1096E-03     41.6016E+06     12.1859E+06    -48.6660E+06    -48.6400E+06     39.3055E+06     14.4559E+06     248.238E+03         49.6946
            1356     10.6143E-03     83.1494E-03         1.00985     49.7892E-03    -213.203E-03    -212.297E-03         1.00895     49.7892E-03    -39.5177E-03     244.444E-03    -121.300E-03    -123.074E-03    -118.730E-03     241.874E-03    -123.074E-03     60.5486E-03     76.7173E+06     32.4544E+06    -42.6770E+06    -42.6476E+06     76.6878E+06     32.4544E+06    -277.393E+03         52.4141
            1357     11.5005E-03     83.2229E-03         1.09765     20.1981E-03    -272.058E-03    -271.707E-03         1.09730     20.1981E-03    -30.2562E-03     248.162E-03    -122.278E-03    -125.940E-03    -118.681E-03     241.690E-03    -123.065E-03     94.2535E-03     84.4912E+06     62.1783E+06    -35.5927E+06    -35.5522E+06     84.4507E+06     62.1783E+06    -358.189E+03         55.4355
            1358     12.3829E-03     83.3665E-03         1.19523    -13.8906E-03    -336.723E-03    -336.441E-03         1.19495    -13.8906E-03    -32.8128E-03     254.470E-03    -123.138E-03    -131.458E-03    -117.832E-03     240.844E-03    -123.138E-03     140.952E-03     91.5237E+06     84.5862E+06    -27.6183E+06    -27.5343E+06     89.6977E+06     86.3281E+06     128.724E+03         58.3858
            1359     13.2713E-03     83.5550E-03         1.30391    -51.5352E-03    -409.738E-03    -409.458E-03         1.30363    -51.5352E-03    -34.4612E-03     256.154E-03    -123.121E-03    -133.214E-03    -116.885E-03     239.825E-03    -123.121E-03     155.987E-03     97.2496E+06     94.5098E+06    -18.9468E+06    -18.8444E+06     94.4074E+06     97.2496E+06     833.254E+03         61.0145
            1360     14.1619E-03     83.7369E-03         1.39667    -91.5485E-03    -463.346E-03    -463.005E-03         1.39633    -91.5485E-03    -16.5475E-03     266.785E-03    -122.948E-03    -143.893E-03    -120.092E-03     242.984E-03    -122.948E-03     189.205E-03     102.657E+06     97.9107E+06    -12.1240E+06    -12.0522E+06     101.587E+06     98.9086E+06     1.11485E+06         63.4049
            1361     15.0443E-03     84.0244E-03         1.49161    -129.616E-03    -515.967E-03    -515.425E-03         1.49107    -129.616E-03    -24.9580E-03     261.476E-03    -122.295E-03    -139.209E-03    -121.859E-03     244.743E-03    -122.912E-03     133.024E-03     106.717E+06     97.2073E+06    -6.48054E+06    -6.42081E+06     106.657E+06     97.2073E+06    -149.832E+03         65.7126
            1362     884.798E-06     84.3389E-03     704.848E-03     282.496E-03    -181.458E-03    -166.147E-03     692.901E-03     279.133E-03    -174.318E-03     246.376E-03    -123.052E-03    -123.342E-03    -123.335E-03     246.372E-03    -123.056E-03    -1.13114E-03    -104.242E+06    -109.683E+06    -301.331E+06    -109.701E+06    -301.313E+06    -104.242E+06     134.220E+03         39.8158
            1363     1.76900E-03     84.3333E-03     701.548E-03     61.6801E-03     46.8394E-03     52.8419E-03     700.795E-03     56.4299E-03    -14.6192E-03     246.460E-03    -123.071E-03    -123.436E-03    -123.208E-03     246.445E-03    -123.284E-03    -4.51435E-03    -92.8667E+06    -103.968E+06    -295.158E+06    -103.974E+06    -295.153E+06    -92.8667E+06     966.889E+03         39.9993
            1364     2.65328E-03     84.3221E-03     732.448E-03     54.2737E-03     25.1517E-03     27.1110E-03     732.375E-03     52.3868E-03    -6.84877E-03     246.415E-03    -122.983E-03    -123.481E-03    -123.119E-03     246.394E-03    -123.325E-03    -5.45601E-03    -80.0117E+06    -98.2540E+06    -286.313E+06    -98.2566E+06    -286.311E+06    -80.0117E+06     159.223E+03         40.2941
            1365     3.53707E-03     84.3160E-03     766.880E-03     44.2096E-03     3.30666E-03     3.39968E-03     766.787E-03     44.2096E-03    -15.5029E-03     246.314E-03    -122.987E-03    -123.369E-03    -122.976E-03     246.299E-03    -123.365E-03    -4.66250E-03    -66.4688E+06    -92.2750E+06    -268.825E+06    -92.2847E+06    -268.815E+06    -66.4688E+06    -1.04379E+06         40.7088
            1366     4.42163E-03     84.3039E-03     794.284E-03     35.4448E-03    -12.0357E-03    -11.6781E-03     793.926E-03     35.4448E-03    -28.0380E-03     246.071E-03    -122.785E-03    -123.355E-03    -122.780E-03     246.063E-03    -123.351E-03    -3.10946E-03    -52.6338E+06    -85.9906E+06    -242.654E+06    -86.0078E+06    -242.636E+06    -52.6338E+06    -1.58524E+06         41.2692
            1367     5.30731E-03     84.2981E-03     815.842E-03     27.1751E-03    -24.4098E-03    -23.9414E-03     815.374E-03     27.1751E-03    -32.0010E-03     245.962E-03    -122.657E-03    -123.358E-03    -122.656E-03     245.959E-03    -123.355E-03     295.178E-06    -39.4311E+06    -79.3547E+06    -212.632E+06    -79.3674E+06    -212.619E+06    -39.4311E+06    -1.08589E+06         42.0201
            1368     6.18997E-03     84.2971E-03     848.363E-03     18.2266E-03    -50.5154E-03    -50.1335E-03     847.981E-03     18.2266E-03    -28.5980E-03     245.736E-03    -122.414E-03    -123.394E-03    -122.389E-03     245.711E-03    -123.394E-03     5.31378E-03    -26.5712E+06    -72.7679E+06    -179.209E+06    -72.7743E+06    -179.203E+06    -26.5712E+06    -236.926E+03         42.9847
            1369     7.07416E-03     84.2993E-03     902.088E-03     6.56372E-03    -95.0310E-03    -94.4545E-03     901.511E-03     6.56372E-03    -42.2180E-03     244.934E-03    -121.689E-03    -123.367E-03    -121.583E-03     244.828E-03    -123.367E-03     11.8580E-03    -14.9983E+06    -66.1672E+06    -139.720E+06    -66.1764E+06    -139.711E+06    -14.9983E+06     294.237E+03         44.1756
            1370     7.96081E-03     84.3106E-03     964.722E-03    -8.59376E-03    -143.046E-03    -142.650E-03     964.326E-03    -8.59376E-03    -35.2267E-03     244.348E-03    -121.297E-03    -123.286E-03    -121.017E-03     244.068E-03    -123.286E-03     19.7846E-03    -5.61220E+06    -59.9778E+06    -90.3866E+06    -60.1079E+06    -90.2565E+06    -5.61220E+06     301.979E+03         45.6369
            1371     8.84438E-03     84.3349E-03         1.02937    -26.6315E-03    -187.669E-03    -187.193E-03         1.02890    -26.6315E-03    -40.3108E-03     244.319E-03    -121.353E-03    -123.200E-03    -120.674E-03     243.639E-03    -123.200E-03     30.7448E-03     5.04725E+06    -25.7176E+06    -56.5824E+06    -53.9913E+06    -28.3087E+06     5.04725E+06     30.9139E+03         47.4436
            1372     9.72872E-03     84.3726E-03         1.09160    -46.6980E-03    -226.408E-03    -225.186E-03         1.09038    -46.6980E-03    -65.0115E-03     244.106E-03    -120.940E-03    -123.109E-03    -119.493E-03     242.659E-03    -123.109E-03     45.1973E-03     42.0168E+06     12.1973E+06    -47.8808E+06    -47.8658E+06     39.1341E+06     15.0651E+06     103.913E+03         49.6885
            1373     10.6161E-03     84.4252E-03         1.15143    -68.4654E-03    -264.423E-03    -263.511E-03         1.15052    -68.4654E-03    -35.4194E-03     244.468E-03    -121.322E-03    -123.072E-03    -118.622E-03     241.768E-03    -123.072E-03     61.9789E-03     76.7517E+06     33.1732E+06    -42.3626E+06    -42.3183E+06     76.7073E+06     33.1732E+06     261.728E+03         52.4029
            1374     11.5001E-03     84.5038E-03         1.22557    -93.3912E-03    -315.057E-03    -314.690E-03         1.22520    -93.3912E-03    -28.4546E-03     247.346E-03    -122.495E-03    -124.884E-03    -117.709E-03     240.685E-03    -123.009E-03     95.6089E-03     83.7954E+06     61.9309E+06    -36.0874E+06    -36.0397E+06     83.7477E+06     61.9309E+06     447.004E+03         55.4211
            1375     12.3878E-03     84.6433E-03         1.31932    -123.723E-03    -381.574E-03    -381.294E-03         1.31904    -123.723E-03    -22.6495E-03     253.710E-03    -123.031E-03    -130.851E-03    -117.181E-03     240.040E-03    -123.031E-03     141.093E-03     91.1699E+06     84.0348E+06    -28.4638E+06    -28.4153E+06     89.2240E+06     85.9322E+06        -497.188         58.3814
            1376     13.2742E-03     84.8307E-03         1.40964    -158.043E-03    -441.444E-03    -441.151E-03         1.40935    -158.043E-03    -24.8309E-03     257.761E-03    -123.059E-03    -134.958E-03    -118.741E-03     241.544E-03    -123.059E-03     156.148E-03     96.4441E+06     94.0151E+06    -20.9236E+06    -20.8204E+06     93.9119E+06     96.4441E+06    -263.993E+03         61.0234
            1377     14.1552E-03     85.0158E-03         1.48047    -194.157E-03    -476.443E-03    -476.092E-03         1.48012    -194.157E-03    -17.7878E-03     267.110E-03    -122.957E-03    -144.216E-03    -120.472E-03     243.366E-03    -122.957E-03     188.857E-03     103.059E+06     97.7750E+06    -12.9375E+06    -12.8409E+06     102.431E+06     98.3067E+06     475.128E+03         63.4169
            1378     15.0445E-03     85.3000E-03         1.54926    -227.581E-03    -512.513E-03    -512.410E-03         1.54916    -227.581E-03     7.34627E-03     260.448E-03    -122.332E-03    -138.215E-03    -120.850E-03     243.662E-03    -122.911E-03     133.098E-03     107.415E+06     97.7524E+06    -5.58179E+06    -5.53961E+06     107.373E+06     97.7524E+06     149.141E+03         65.7263
            1379     884.226E-06     85.6169E-03     987.254E-03     158.457E-03    -358.530E-03    -346.550E-03     978.637E-03     155.094E-03    -150.755E-03     246.321E-03    -122.841E-03    -123.497E-03    -123.377E-03     246.316E-03    -122.955E-03    -1.92769E-03    -103.145E+06    -108.820E+06    -302.510E+06    -107.726E+06    -302.497E+06    -104.252E+06     1.26426E+06         39.8097
            1380     1.76886E-03     85.6109E-03         1.02487    -98.8749E-03    -135.434E-03    -132.007E-03         1.02481    -102.238E-03     14.4136E-03     246.540E-03    -123.148E-03    -123.442E-03    -123.312E-03     246.525E-03    -123.262E-03    -4.55050E-03    -93.5984E+06    -103.390E+06    -295.890E+06    -103.394E+06    -295.886E+06    -93.5984E+06     444.509E+03         39.9972
            1381     2.65209E-03     85.6021E-03         1.04648    -113.726E-03    -145.197E-03    -145.017E-03         1.04630    -113.726E-03    -9.53393E-03     246.677E-03    -123.200E-03    -123.529E-03    -123.359E-03     246.657E-03    -123.350E-03    -5.33455E-03    -81.0842E+06    -97.7232E+06    -284.361E+06    -97.7257E+06    -284.358E+06    -81.0842E+06    -10.8156E+03         40.2966
            1382     3.53737E-03     85.5922E-03         1.03845    -115.250E-03    -133.089E-03    -129.179E-03         1.03829    -118.997E-03    -22.3909E-03     246.402E-03    -123.022E-03    -123.435E-03    -123.006E-03     246.386E-03    -123.435E-03    -4.81737E-03    -65.8978E+06    -91.6633E+06    -267.539E+06    -91.6696E+06    -267.533E+06    -65.8978E+06    -844.869E+03         40.7111
            1383     4.42218E-03     85.5841E-03         1.04521    -116.505E-03    -135.010E-03    -130.921E-03         1.04487    -120.253E-03    -32.4089E-03     246.306E-03    -122.972E-03    -123.439E-03    -122.967E-03     246.297E-03    -123.436E-03    -3.29375E-03    -51.8297E+06    -85.6972E+06    -242.544E+06    -85.7087E+06    -242.533E+06    -51.8297E+06    -1.06987E+06         41.2681
            1384     5.30436E-03     85.5772E-03         1.07604    -123.230E-03    -156.202E-03    -155.476E-03         1.07531    -123.230E-03    -58.9600E-03     245.790E-03    -122.416E-03    -123.429E-03    -122.415E-03     245.785E-03    -123.426E-03     243.717E-06    -38.2799E+06    -79.0082E+06    -213.383E+06    -79.0150E+06    -213.376E+06    -38.2799E+06    -510.874E+03         42.0161
            1385     6.19099E-03     85.5744E-03         1.11134    -129.788E-03    -187.802E-03    -187.240E-03         1.11078    -129.788E-03    -51.3023E-03     245.129E-03    -121.795E-03    -123.383E-03    -121.767E-03     245.101E-03    -123.383E-03     5.62751E-03    -25.7459E+06    -72.4772E+06    -180.311E+06    -72.4814E+06    -180.307E+06    -25.7459E+06     44.0553E+03         42.9799
            1386     7.07655E-03     85.5779E-03         1.15063    -139.619E-03    -223.343E-03    -222.835E-03         1.15012    -139.619E-03    -47.2748E-03     245.238E-03    -122.028E-03    -123.331E-03    -121.924E-03     245.134E-03    -123.331E-03     11.9104E-03    -15.1040E+06    -66.3955E+06    -140.011E+06    -66.4062E+06    -140.000E+06    -15.1040E+06     350.871E+03         44.1728
            1387     7.95892E-03     85.5895E-03         1.18625    -151.640E-03    -247.704E-03    -247.236E-03         1.18578    -151.640E-03    -46.3129E-03     244.840E-03    -121.787E-03    -123.305E-03    -121.491E-03     244.543E-03    -123.305E-03     20.2168E-03    -5.39330E+06    -60.0534E+06    -90.6162E+06    -60.2500E+06    -90.4196E+06    -5.39330E+06     439.298E+03         45.6322
            1388     8.84418E-03     85.6139E-03         1.21799    -164.613E-03    -263.957E-03    -263.765E-03         1.21780    -164.613E-03    -32.1398E-03     243.802E-03    -120.815E-03    -123.214E-03    -120.116E-03     243.103E-03    -123.214E-03     31.2734E-03     5.03787E+06    -25.6037E+06    -57.4375E+06    -54.7374E+06    -28.3038E+06     5.03787E+06     169.988E+03         47.4334
            1389     9.73121E-03     85.6488E-03         1.26476    -178.906E-03    -294.644E-03    -294.322E-03         1.26444    -178.906E-03    -38.0353E-03     243.829E-03    -120.668E-03    -123.077E-03    -119.209E-03     242.370E-03    -123.077E-03     45.3360E-03     41.4487E+06     12.2269E+06    -49.2968E+06    -49.2856E+06     38.6969E+06     14.9675E+06    -65.5208E+03         49.6759
            1390     10.6152E-03     85.7044E-03         1.32515    -195.904E-03    -338.962E-03    -338.665E-03         1.32485    -195.904E-03    -14.1502E-03     244.167E-03    -121.035E-03    -123.021E-03    -118.305E-03     241.437E-03    -123.021E-03     62.2532E-03     76.1110E+06     32.7228E+06    -42.6635E+06    -42.6359E+06     76.0833E+06     32.7228E+06     513.908E+03         52.3890
            1391     11.5015E-03     85.7817E-03         1.39354    -217.238E-03    -388.455E-03    -388.246E-03         1.39333    -217.238E-03    -13.8170E-03     246.306E-03    -121.936E-03    -124.397E-03    -116.952E-03     239.842E-03    -122.918E-03     94.2386E-03     83.5236E+06     61.4526E+06     -35.428E+06    -35.3907E+06     83.4862E+06     61.4526E+06     916.808E+03         55.4098
            1392     12.3893E-03     85.9152E-03         1.45355    -243.917E-03    -426.329E-03    -426.140E-03         1.45336    -243.917E-03    -22.2292E-03     254.168E-03    -122.945E-03    -131.433E-03    -117.891E-03     240.626E-03    -122.945E-03     140.474E-03     91.6598E+06     84.2355E+06    -27.8780E+06    -27.8506E+06     89.3721E+06     86.4959E+06      632.82E+03         58.3797
            1393     13.2727E-03     86.1172E-03         1.50395    -273.254E-03    -451.783E-03    -451.612E-03         1.50378    -273.254E-03    -21.8953E-03     258.602E-03    -123.041E-03    -135.850E-03    -119.773E-03     242.525E-03    -123.041E-03     155.801E-03     96.9901E+06     94.3759E+06    -20.5796E+06    -20.5195E+06     94.3789E+06     96.9270E+06    -12.8182E+03         61.0324
            1394     14.1587E-03     86.2934E-03         1.56988    -303.869E-03    -487.811E-03    -487.578E-03         1.56965    -303.869E-03    -16.6901E-03     266.918E-03    -122.974E-03    -143.967E-03    -120.506E-03     243.457E-03    -122.974E-03     187.464E-03     102.432E+06     96.8630E+06    -13.0413E+06    -12.9057E+06     102.005E+06     97.1537E+06    -760.148E+03         63.4316
            1395     15.0446E-03     86.5757E-03         1.62567    -332.359E-03    -520.860E-03    -520.709E-03         1.62552    -332.359E-03    -2.70203E-03     260.164E-03    -122.096E-03    -138.111E-03    -120.487E-03     243.362E-03    -122.918E-03     134.158E-03     107.145E+06     96.8213E+06    -5.43414E+06    -5.32324E+06     107.034E+06     96.8213E+06    -440.404E+03         65.7417
            1396     883.930E-06     86.8939E-03         1.31290     12.7811E-03    -564.894E-03    -562.172E-03         1.31018     12.7811E-03    -72.2914E-03     246.456E-03    -122.691E-03    -123.784E-03    -123.667E-03     246.452E-03    -122.804E-03    -1.69300E-03    -105.907E+06     -108.85E+06    -301.854E+06    -107.764E+06    -301.833E+06    -107.014E+06     354.807E+03         39.8082
            1397     1.76852E-03     86.8894E-03         1.34628    -274.754E-03    -304.808E-03    -300.370E-03         1.34602    -278.936E-03     33.4628E-03     246.539E-03    -123.128E-03    -123.464E-03    -123.278E-03     246.527E-03    -123.303E-03    -3.93112E-03    -95.7435E+06    -104.209E+06    -296.956E+06    -104.218E+06    -296.947E+06    -95.7435E+06    -892.898E+03         39.9945
            1398     2.65361E-03     86.8807E-03         1.34123    -280.525E-03    -298.532E-03    -293.947E-03         1.34083    -284.707E-03     4.16556E-03     246.672E-03    -123.285E-03    -123.442E-03    -123.344E-03     246.653E-03    -123.364E-03    -5.29158E-03    -81.7999E+06    -98.8066E+06    -283.589E+06    -98.8071E+06    -283.589E+06    -81.7999E+06    -126.643E+03         40.2948
            1399     3.53656E-03     86.8707E-03         1.33701    -281.416E-03    -290.056E-03    -286.133E-03         1.33683    -285.164E-03    -26.4427E-03     246.701E-03    -123.225E-03    -123.534E-03    -123.260E-03     246.685E-03    -123.482E-03    -4.64878E-03    -66.2969E+06    -93.3471E+06    -266.444E+06     -93.352E+06    -266.440E+06    -66.2969E+06    -67.4886E+03         40.7091
            1400     4.41997E-03     86.8624E-03         1.34377    -280.888E-03    -293.327E-03    -289.319E-03         1.34351    -284.636E-03    -22.5203E-03     246.028E-03    -122.650E-03    -123.485E-03    -122.644E-03     246.022E-03    -123.485E-03    -2.60409E-03    -50.4929E+06    -86.6275E+06    -242.340E+06    -86.6393E+06    -242.328E+06    -50.4929E+06    -576.329E+03         41.2636
            1401     5.30681E-03     86.8553E-03         1.36632    -286.069E-03    -308.341E-03    -307.781E-03         1.36576    -286.069E-03    -46.5912E-03     245.538E-03    -122.173E-03    -123.414E-03    -122.170E-03     245.535E-03    -123.414E-03     470.798E-06    -37.7336E+06    -79.6272E+06    -214.283E+06    -79.6363E+06    -214.274E+06    -37.7336E+06    -361.969E+03         42.0116
            1402     6.19080E-03     86.8512E-03         1.38861    -290.308E-03    -328.412E-03    -327.893E-03         1.38809    -290.308E-03    -55.0307E-03     245.345E-03    -121.998E-03    -123.374E-03    -121.972E-03     245.319E-03    -123.374E-03     5.38756E-03    -25.5097E+06    -72.9915E+06    -180.826E+06    -72.9974E+06    -180.820E+06    -25.5097E+06     471.515E+03         42.9742
            1403     7.07482E-03     86.8572E-03         1.40035    -296.277E-03    -339.555E-03    -339.208E-03         1.40000    -296.277E-03    -48.2147E-03     245.046E-03    -121.837E-03    -123.331E-03    -121.725E-03     244.934E-03    -123.331E-03     12.2025E-03    -14.8517E+06    -66.7100E+06    -140.391E+06    -66.7237E+06    -140.377E+06    -14.8517E+06     657.093E+03         44.1621
            1404     7.96012E-03     86.8690E-03         1.41229    -302.924E-03    -346.651E-03    -346.325E-03         1.41196    -302.924E-03    -47.3527E-03     244.338E-03    -121.332E-03    -123.264E-03    -121.035E-03     244.041E-03    -123.264E-03     20.3582E-03    -5.20509E+06    -60.4702E+06    -91.2600E+06    -60.6166E+06    -91.1136E+06    -5.20509E+06     791.854E+03         45.6187
            1405     8.84538E-03     86.8899E-03         1.43504    -310.565E-03    -360.413E-03    -360.095E-03         1.43472    -310.565E-03    -45.3524E-03     243.758E-03    -120.819E-03    -123.151E-03    -120.114E-03     243.053E-03    -123.151E-03     31.2943E-03     6.35612E+06    -24.5386E+06    -57.2722E+06    -54.4699E+06    -27.3409E+06     6.35612E+06     1.03310E+06         47.4235
            1406     9.72986E-03     86.9271E-03         1.47362    -320.476E-03    -388.374E-03    -387.550E-03         1.47280    -320.476E-03    -70.6334E-03     243.927E-03    -120.818E-03    -123.029E-03    -119.337E-03     242.446E-03    -123.029E-03     45.7197E-03     41.8679E+06     13.1598E+06    -49.5584E+06    -49.5134E+06     39.3384E+06     15.6443E+06     763.437E+03         49.6718
            1407     10.6161E-03     86.9816E-03         1.52052    -333.577E-03    -423.499E-03    -422.716E-03         1.51974    -333.577E-03    -63.1014E-03     243.759E-03    -120.675E-03    -122.964E-03    -118.019E-03     241.102E-03    -122.964E-03     61.4424E-03     75.0165E+06     31.9209E+06    -44.0993E+06    -44.0943E+06     75.0114E+06     31.9209E+06     37.7876E+03         52.3910
            1408     11.5038E-03     87.0553E-03         1.55787    -350.525E-03    -446.986E-03    -446.526E-03         1.55741    -350.525E-03    -48.6057E-03     247.036E-03    -121.651E-03    -125.424E-03    -117.855E-03     240.709E-03    -122.892E-03     93.3486E-03     83.1607E+06     61.1937E+06    -36.4001E+06    -36.3772E+06     83.1379E+06     61.1937E+06    -64.7365E+03         55.4173
            1409     12.3876E-03     87.1968E-03         1.58343    -371.799E-03    -457.575E-03    -456.993E-03         1.58284    -371.799E-03    -61.5831E-03     254.917E-03    -122.994E-03    -132.134E-03    -118.743E-03     241.526E-03    -122.994E-03     139.903E-03     91.7954E+06     84.2740E+06    -27.6397E+06    -27.6116E+06     89.3410E+06     86.7004E+06     218.108E+03         58.3840
            1410     13.2724E-03     87.3957E-03         1.61839    -395.347E-03    -474.524E-03    -474.224E-03         1.61809    -395.347E-03    -43.1066E-03     257.292E-03    -123.083E-03    -134.452E-03    -118.472E-03     241.312E-03    -123.083E-03     154.815E-03     97.9868E+06     94.6851E+06    -18.5211E+06    -18.4733E+06     94.7004E+06     97.9237E+06    -41.4344E+03         61.0321
            1411     14.1573E-03     87.5721E-03         1.66271    -420.180E-03    -493.388E-03    -493.278E-03         1.66260    -420.180E-03    -23.9193E-03     266.416E-03    -122.970E-03    -143.426E-03    -120.000E-03     242.990E-03    -122.970E-03     187.229E-03     103.476E+06     97.7204E+06    -11.4385E+06    -11.2974E+06     102.523E+06     98.5327E+06    -414.259E+03         63.4371
            1412     15.0433E-03     87.8528E-03         1.69118    -437.882E-03    -506.535E-03    -502.054E-03         1.69106    -442.249E-03    -26.4782E-03     260.943E-03    -122.330E-03    -138.610E-03    -121.223E-03     244.140E-03    -122.913E-03     134.980E-03     106.807E+06     97.2204E+06    -6.28383E+06    -6.16089E+06     106.685E+06     97.2204E+06    -211.481E+03         65.7550
            1413     885.291E-06     88.1732E-03         1.67387    -167.430E-03    -770.975E-03    -750.768E-03         1.67198    -185.748E-03    -64.2620E-03     246.384E-03    -122.700E-03    -123.699E-03    -123.695E-03     246.380E-03    -122.700E-03    -1.23402E-03    -105.325E+06    -108.443E+06    -300.297E+06    -108.478E+06    -300.263E+06    -105.325E+06    -475.276E+03         39.8106
            1414     1.76840E-03     88.1675E-03         1.63984    -438.340E-03    -463.717E-03    -439.998E-03         1.63950    -461.722E-03     37.9021E-03     246.715E-03    -123.253E-03    -123.497E-03    -123.420E-03     246.703E-03    -123.317E-03    -4.07356E-03    -94.3698E+06    -104.903E+06    -296.610E+06    -104.925E+06    -296.588E+06    -94.3698E+06    -610.089E+03         39.9912
            1415     2.65214E-03     88.1594E-03         1.64439    -449.739E-03    -457.979E-03    -452.613E-03         1.64409    -454.803E-03    -2.84228E-03     246.531E-03    -123.128E-03    -123.440E-03    -123.163E-03     246.514E-03    -123.388E-03    -4.88049E-03    -79.5534E+06    -98.6780E+06    -284.930E+06    -98.6833E+06    -284.925E+06    -79.5534E+06    -480.886E+03         40.2851
            1416     3.53696E-03     88.1504E-03         1.65529    -454.210E-03    -462.862E-03    -462.660E-03         1.65509    -454.210E-03    -39.0763E-03     246.239E-03    -122.822E-03    -123.481E-03    -122.861E-03     246.227E-03    -123.429E-03    -4.11843E-03    -63.3806E+06    -91.8493E+06    -266.704E+06    -91.8508E+06    -266.702E+06    -63.3806E+06     314.001E+03         40.6984
            1417     4.42235E-03     88.1398E-03         1.65658    -454.743E-03    -462.027E-03    -461.825E-03         1.65638    -454.743E-03    -32.9538E-03     245.854E-03    -122.571E-03    -123.381E-03    -122.567E-03     245.850E-03    -123.381E-03    -2.24379E-03    -48.1641E+06    -85.1788E+06    -242.562E+06    -85.2088E+06    -242.532E+06    -48.1641E+06     617.578E+03         41.2577
            1418     5.30581E-03     88.1324E-03         1.65305    -447.517E-03    -464.452E-03    -456.977E-03         1.65283    -454.779E-03    -36.1074E-03     245.972E-03    -122.650E-03    -123.357E-03    -122.647E-03     245.969E-03    -123.357E-03     767.069E-06    -36.0602E+06    -79.2648E+06    -214.940E+06    -79.2970E+06    -214.908E+06    -36.0602E+06     881.441E+03         42.0107
            1419     6.19022E-03     88.1310E-03         1.65945    -447.948E-03    -469.663E-03    -462.215E-03         1.65926    -455.209E-03    -35.4765E-03     245.617E-03    -122.269E-03    -123.393E-03    -122.244E-03     245.592E-03    -123.393E-03     5.30811E-03    -24.3126E+06    -72.7369E+06    -180.919E+06    -72.7417E+06    -180.914E+06    -24.3126E+06     698.746E+03         42.9714
            1420     7.07559E-03     88.1341E-03         1.66312    -456.898E-03    -467.370E-03    -466.796E-03         1.66254    -456.898E-03    -58.3784E-03     244.433E-03    -121.253E-03    -123.335E-03    -121.138E-03     244.318E-03    -123.335E-03     12.2363E-03    -13.6061E+06    -65.6955E+06    -140.643E+06    -65.7068E+06    -140.632E+06    -13.6061E+06     697.727E+03         44.1518
            1421     7.96121E-03     88.1472E-03         1.66537    -457.926E-03    -469.579E-03    -467.265E-03         1.66466    -459.536E-03    -73.4487E-03     243.748E-03    -120.838E-03    -123.186E-03    -120.548E-03     243.458E-03    -123.186E-03     20.1911E-03    -4.86427E+06    -59.4940E+06    -92.2673E+06    -59.5972E+06    -92.1641E+06    -4.86427E+06     1.04889E+06         45.6060
            1422     8.84598E-03     88.1674E-03         1.68470    -462.189E-03    -485.029E-03    -482.995E-03         1.68428    -463.799E-03    -60.1503E-03     243.897E-03    -121.089E-03    -123.052E-03    -120.377E-03     243.184E-03    -123.052E-03     31.3760E-03     5.45496E+06    -23.8131E+06    -57.8715E+06    -53.7863E+06    -27.8982E+06     5.45496E+06     1.56054E+06         47.4186
            1423     9.73149E-03     88.2054E-03         1.70770    -470.441E-03    -500.559E-03    -499.683E-03         1.70699    -470.602E-03    -70.9800E-03     243.962E-03    -120.955E-03    -122.969E-03    -119.495E-03     242.502E-03    -122.969E-03     45.5344E-03     42.3289E+06     14.8108E+06    -48.1457E+06    -48.0904E+06       40.81E+06     16.2744E+06     1.60255E+06         49.6812
            1424     10.6173E-03     88.2571E-03         1.71406    -469.121E-03    -507.736E-03    -497.122E-03         1.71346    -479.135E-03    -59.4963E-03     244.636E-03    -121.326E-03    -123.202E-03    -118.979E-03     242.053E-03    -122.966E-03     60.7395E-03     76.6787E+06     34.5359E+06    -42.8201E+06    -42.8067E+06     76.6653E+06     34.5359E+06     618.564E+03         52.4125
            1425     11.5015E-03     88.3342E-03         1.71116    -467.479E-03    -510.712E-03    -488.138E-03         1.71065    -489.552E-03    -58.9338E-03     248.229E-03    -122.473E-03    -125.766E-03    -118.959E-03     241.931E-03    -122.981E-03     93.2708E-03     83.7546E+06     62.8557E+06    -36.3535E+06    -36.3461E+06     83.7471E+06     62.8557E+06    -433.066E+03         55.4356
            1426     12.3848E-03     88.4780E-03         1.72812    -480.914E-03    -520.242E-03    -496.600E-03         1.72752    -503.952E-03    -63.8442E-03     254.279E-03    -123.087E-03    -131.332E-03    -117.910E-03     240.857E-03    -123.087E-03     139.718E-03     91.5886E+06     84.1863E+06    -27.8444E+06    -27.8125E+06     88.9649E+06     86.7781E+06    -827.212E+03         58.3873
            1427     13.2710E-03     88.6697E-03         1.75257    -490.660E-03    -539.162E-03    -508.339E-03         1.75232    -521.234E-03    -38.2534E-03     256.357E-03    -123.103E-03    -133.472E-03    -117.304E-03     240.190E-03    -123.103E-03     155.310E-03     97.1339E+06     93.4772E+06    -19.5337E+06    -19.4776E+06     93.4211E+06     97.1339E+06    -696.346E+03         61.0272
            1428     14.1606E-03     88.8504E-03         1.75319    -484.419E-03    -548.416E-03    -493.473E-03         1.75314    -539.311E-03    -16.9062E-03     266.378E-03    -122.948E-03    -143.477E-03    -119.842E-03     242.743E-03    -122.948E-03     188.200E-03     102.723E+06     97.1919E+06    -12.2577E+06    -12.1625E+06     101.563E+06     98.2568E+06    -146.933E+03         63.4354
            1429     15.0462E-03     89.1330E-03         1.75617    -484.162E-03    -553.791E-03    -484.114E-03         1.75610    -553.769E-03    -4.52936E-03     261.359E-03    -122.668E-03    -138.754E-03    -121.717E-03     244.550E-03    -122.897E-03     134.499E-03     107.055E+06     98.5471E+06    -5.51597E+06    -5.43259E+06     106.972E+06     98.5471E+06     206.769E+03         65.7596
            1430     883.571E-06     89.4520E-03         2.02490    -324.265E-03    -983.184E-03    -962.102E-03         2.02214    -342.583E-03    -131.993E-03     246.780E-03    -122.953E-03    -123.839E-03    -123.632E-03     246.774E-03    -123.154E-03    -1.40460E-03    -106.349E+06    -110.087E+06    -301.119E+06    -110.133E+06    -301.073E+06    -106.349E+06     519.158E+03         39.8158
            1431     1.76863E-03     89.4468E-03         1.97950    -616.850E-03    -648.566E-03    -619.932E-03         1.97905    -645.036E-03    -4.64543E-03     246.413E-03    -122.991E-03    -123.448E-03    -123.024E-03     246.400E-03    -123.402E-03    -4.34709E-03    -94.0705E+06    -105.693E+06    -293.819E+06    -105.708E+06    -293.804E+06    -94.0705E+06    -98.7119E+03         39.9867
            1432     2.65319E-03     89.4378E-03         1.96262    -618.945E-03    -636.644E-03    -620.365E-03         1.96244    -635.043E-03    -22.2872E-03     246.013E-03    -122.715E-03    -123.314E-03    -122.700E-03     245.998E-03    -123.314E-03    -4.65155E-03    -78.5451E+06    -99.6336E+06    -286.476E+06    -99.6389E+06    -286.471E+06    -78.5451E+06    -461.394E+03         40.2736
            1433     3.53789E-03     89.4283E-03         1.96097    -620.219E-03    -634.280E-03    -623.846E-03         1.96072    -630.401E-03    -43.9214E-03     245.936E-03    -122.656E-03    -123.327E-03    -122.683E-03     245.924E-03    -123.287E-03    -4.18830E-03    -62.3516E+06    -92.1610E+06    -269.001E+06    -92.1763E+06    -268.986E+06    -62.3516E+06     726.658E+03         40.6880
            1434     4.42240E-03     89.4170E-03         1.95859    -620.692E-03    -631.549E-03    -624.056E-03         1.95837    -627.962E-03    -39.5645E-03     246.170E-03    -122.931E-03    -123.318E-03    -122.965E-03     246.164E-03    -123.278E-03    -2.58535E-03    -47.8808E+06    -85.6023E+06    -243.698E+06    -85.6404E+06    -243.660E+06    -47.8808E+06     1.88130E+06         41.2518
            1435     5.30679E-03     89.4124E-03         1.94222    -604.318E-03    -626.410E-03    -605.295E-03         1.94189    -625.102E-03    -55.8888E-03     246.027E-03    -122.741E-03    -123.321E-03    -122.737E-03     246.023E-03    -123.321E-03     970.593E-06    -34.6583E+06    -78.4593E+06    -214.659E+06    -78.4933E+06    -214.625E+06    -34.6583E+06     1.90499E+06         42.0065
            1436     6.19063E-03     89.4090E-03         1.92635    -591.132E-03    -621.913E-03    -591.771E-03         1.92614    -621.069E-03    -37.2966E-03     245.383E-03    -122.075E-03    -123.351E-03    -122.051E-03     245.358E-03    -123.351E-03     5.51293E-03    -22.7962E+06    -71.0501E+06    -180.426E+06    -71.0615E+06    -180.414E+06    -22.7962E+06     861.467E+03         42.9685
            1437     7.07535E-03     89.4109E-03         1.93130    -600.453E-03    -620.817E-03    -602.265E-03         1.93073    -618.440E-03    -57.4107E-03     244.512E-03    -121.354E-03    -123.287E-03    -121.247E-03     244.405E-03    -123.287E-03     11.8345E-03    -13.3984E+06    -64.5435E+06    -141.931E+06    -64.5662E+06    -141.909E+06    -13.3984E+06     764.167E+03         44.1507
            1438     7.96112E-03     89.4232E-03         1.93125    -602.606E-03    -619.710E-03    -603.501E-03         1.93062    -618.176E-03    -67.2427E-03     243.829E-03    -120.953E-03    -123.156E-03    -120.667E-03     243.543E-03    -123.156E-03     19.9907E-03    -4.59719E+06    -58.7901E+06    -93.1560E+06    -59.0036E+06    -92.9424E+06    -4.59719E+06     1.55547E+06         45.6056
            1439     8.84677E-03     89.4460E-03         1.91838    -591.645E-03    -620.469E-03    -593.013E-03         1.91820    -618.921E-03    -31.8603E-03     243.749E-03    -120.964E-03    -123.028E-03    -120.287E-03     243.071E-03    -123.028E-03     30.7108E-03     6.08754E+06    -24.3356E+06    -57.7539E+06    -53.5374E+06    -28.5520E+06     6.08754E+06     1.80449E+06         47.4223
            1440     9.73144E-03     89.4821E-03         1.90667    -578.501E-03    -621.749E-03    -579.891E-03         1.90652    -620.201E-03    -32.8710E-03     244.345E-03    -121.324E-03    -122.966E-03    -119.930E-03     242.951E-03    -122.966E-03     44.4881E-03     43.3854E+06     14.8541E+06    -47.4988E+06     -47.446E+06     40.8470E+06     17.3397E+06     1.56450E+06         49.6940
            1441     10.6165E-03     89.5367E-03         1.89208    -564.245E-03    -622.242E-03    -564.152E-03         1.89198    -622.242E-03    -29.5571E-03     245.583E-03    -122.203E-03    -123.259E-03    -119.775E-03     242.919E-03    -123.023E-03     61.6144E-03     78.3945E+06     36.2174E+06    -41.3119E+06    -41.2679E+06     78.3506E+06     36.2174E+06     1.54121E+06         52.4255
            1442     11.4988E-03     89.6182E-03         1.88358    -554.548E-03    -626.377E-03    -554.421E-03         1.88346    -626.377E-03    -30.2303E-03     247.765E-03    -122.866E-03    -124.880E-03    -118.287E-03     241.343E-03    -123.037E-03     94.2539E-03     85.5872E+06     64.3280E+06    -35.1974E+06    -35.1667E+06     85.5565E+06     64.3280E+06     939.663E+03         55.4361
            1443     12.3860E-03     89.7521E-03         1.88587    -550.361E-03    -634.632E-03    -550.263E-03         1.88577    -634.632E-03    -20.7393E-03     253.553E-03    -123.064E-03    -130.607E-03    -116.910E-03     239.855E-03    -123.064E-03     140.749E-03     92.3066E+06     84.5871E+06    -28.8208E+06    -28.7975E+06     89.6914E+06     87.1789E+06    -418.328E+03         58.3816
            1444     13.2742E-03     89.9500E-03         1.87503    -534.072E-03    -645.190E-03    -534.003E-03         1.87497    -645.190E-03    -20.5406E-03     257.096E-03    -123.065E-03    -134.256E-03    -117.958E-03     240.798E-03    -123.065E-03     156.137E-03     97.2803E+06     93.3516E+06    -20.6514E+06    -20.5637E+06     93.2640E+06     97.2803E+06    -1.18683E+06         61.0278
            1445     14.1573E-03     90.1261E-03         1.85323    -507.418E-03    -656.139E-03    -507.351E-03         1.85316    -656.139E-03    -20.8615E-03     267.007E-03    -122.951E-03    -144.093E-03    -120.522E-03     243.435E-03    -122.951E-03     188.038E-03     102.136E+06     96.7382E+06    -12.6225E+06    -12.5085E+06     100.685E+06     98.0752E+06    -823.442E+03         63.4400
            1446     15.0431E-03     90.4135E-03         1.83438    -488.714E-03    -663.818E-03    -488.684E-03         1.83435    -663.818E-03     2.19089E-03     261.057E-03    -122.255E-03    -138.795E-03    -121.287E-03     244.200E-03    -122.907E-03     134.362E-03     106.030E+06     97.4029E+06    -5.88679E+06    -5.81624E+06     105.959E+06     97.4029E+06    -62.4555E+03         65.7633
            1447     883.759E-06     90.7304E-03         2.31239    -482.673E-03        -1.14496        -1.14374         2.31117    -482.673E-03    -112.774E-03     246.823E-03    -123.092E-03    -123.744E-03    -123.527E-03     246.818E-03    -123.303E-03    -1.02349E-03    -108.550E+06    -112.932E+06    -301.754E+06    -111.625E+06    -301.708E+06    -109.903E+06     345.089E+03         39.8157
            1448     1.76803E-03     90.7241E-03         2.31680    -804.255E-03    -826.326E-03    -816.900E-03         2.31636    -813.242E-03    -2.60676E-03     246.121E-03    -122.798E-03    -123.365E-03    -122.784E-03     246.107E-03    -123.365E-03    -4.43244E-03    -98.2799E+06    -108.385E+06    -293.272E+06    -108.393E+06    -293.264E+06    -98.2799E+06     344.351E+03         39.9864
            1449     2.65334E-03     90.7146E-03         2.28590    -792.472E-03    -812.581E-03    -794.430E-03         2.28565    -810.372E-03     9.20964E-03     245.838E-03    -122.645E-03    -123.216E-03    -122.626E-03     245.819E-03    -123.216E-03    -5.37738E-03    -84.9374E+06    -104.058E+06    -286.824E+06    -104.060E+06    -286.822E+06    -84.9374E+06     266.788E+03         40.2733
            1450     3.53853E-03     90.7042E-03         2.26195    -780.152E-03    -803.552E-03    -780.037E-03         2.26183    -803.552E-03    -26.3520E-03     246.105E-03    -122.867E-03    -123.268E-03    -122.892E-03     246.090E-03    -123.228E-03    -4.54341E-03    -67.7148E+06    -97.2098E+06    -271.084E+06    -97.2271E+06    -271.067E+06    -67.7148E+06     754.038E+03         40.6848
            1451     4.42200E-03     90.6974E-03         2.24613    -769.964E-03    -796.837E-03    -769.920E-03         2.24608    -796.837E-03    -13.0662E-03     246.085E-03    -122.803E-03    -123.311E-03    -122.838E-03     246.080E-03    -123.272E-03    -2.55394E-03    -49.2962E+06    -88.0141E+06    -244.928E+06    -88.0333E+06    -244.909E+06    -49.2962E+06     1.10259E+06         41.2437
            1452     5.30624E-03     90.6894E-03         2.23418    -762.455E-03    -790.955E-03    -762.093E-03         2.23382    -790.955E-03    -50.1182E-03     245.547E-03    -122.263E-03    -123.275E-03    -122.259E-03     245.543E-03    -123.275E-03     735.013E-06    -35.5097E+06    -79.3406E+06    -214.701E+06    -79.3534E+06    -214.688E+06    -35.5097E+06     1.15548E+06         41.9969
            1453     6.19184E-03     90.6874E-03         2.20640    -738.889E-03    -784.928E-03    -738.538E-03         2.20605    -784.928E-03    -41.7924E-03     245.170E-03    -121.952E-03    -123.264E-03    -121.927E-03     245.146E-03    -123.264E-03     5.41827E-03    -23.1973E+06    -72.3489E+06    -180.682E+06    -72.3879E+06    -180.643E+06    -23.1973E+06     1.47655E+06         42.9656
            1454     7.07667E-03     90.6888E-03         2.17935    -721.410E-03    -778.486E-03    -721.042E-03         2.17899    -778.486E-03    -42.3086E-03     245.052E-03    -121.932E-03    -123.240E-03    -121.832E-03     244.952E-03    -123.240E-03     11.5140E-03    -13.0035E+06    -66.5179E+06    -142.680E+06    -66.5722E+06    -142.626E+06    -13.0035E+06     1.60505E+06         44.1575
            1455     7.96070E-03     90.7019E-03         2.16370    -715.066E-03    -773.154E-03    -714.679E-03         2.16332    -773.154E-03    -57.5902E-03     244.284E-03    -121.373E-03    -123.192E-03    -121.096E-03     244.007E-03    -123.192E-03     19.5833E-03    -3.25319E+06    -59.4893E+06    -93.3199E+06    -59.8069E+06    -93.0023E+06    -3.25319E+06     1.87054E+06         45.6161
            1456     8.84538E-03     90.7237E-03         2.13490    -691.698E-03    -768.793E-03    -691.587E-03         2.13479    -768.793E-03    -28.0406E-03     243.847E-03    -120.982E-03    -123.090E-03    -120.305E-03     243.170E-03    -123.090E-03     30.6744E-03     7.36528E+06    -24.4395E+06    -57.7461E+06    -53.7194E+06    -28.4662E+06     7.36528E+06     2.02846E+06         47.4298
            1457     9.73129E-03     90.7606E-03         2.09227    -654.807E-03    -764.281E-03    -654.596E-03         2.09206    -764.281E-03    -40.8611E-03     244.756E-03    -121.623E-03    -123.025E-03    -120.176E-03     243.309E-03    -123.025E-03     45.2612E-03     42.9503E+06     14.1426E+06    -48.1327E+06    -48.0636E+06     39.8722E+06     17.1517E+06     1.87354E+06         49.6924
            1458     10.6143E-03     90.8185E-03         2.06479    -632.628E-03    -760.149E-03    -632.468E-03         2.06463    -760.149E-03    -35.8969E-03     244.766E-03    -121.595E-03    -123.049E-03    -118.887E-03     242.058E-03    -123.049E-03     62.0738E-03     77.3728E+06     35.0794E+06    -42.0842E+06    -42.0239E+06     77.3126E+06     35.0794E+06     1.99973E+06         52.4112
            1459     11.5021E-03     90.8952E-03         2.05036    -618.799E-03    -758.382E-03    -618.688E-03         2.05025    -758.382E-03    -28.6594E-03     246.259E-03    -121.942E-03    -124.331E-03    -116.898E-03     239.854E-03    -122.971E-03     93.7975E-03     85.8187E+06     64.1654E+06    -35.0273E+06    -34.9916E+06     85.7831E+06     64.1654E+06     1.44220E+06         55.4174
            1460     12.3888E-03     91.0276E-03         2.01766    -588.596E-03    -760.275E-03    -588.499E-03         2.01756    -760.275E-03    -23.1780E-03     253.775E-03    -122.961E-03    -131.011E-03    -117.280E-03     240.044E-03    -122.961E-03     141.059E-03     95.2507E+06     87.4476E+06    -26.3980E+06    -26.3857E+06     92.5938E+06     90.0921E+06     319.572E+03         58.3723
            1461     13.2728E-03     91.2287E-03         1.98235    -558.556E-03    -763.880E-03    -558.503E-03         1.98229    -763.880E-03    -19.3882E-03     258.131E-03    -123.008E-03    -135.372E-03    -118.933E-03     241.692E-03    -123.008E-03     157.252E-03     99.3712E+06     94.6293E+06    -19.1084E+06    -19.0135E+06     94.5344E+06     99.3712E+06    -346.877E+03         61.0311
            1462     14.1589E-03     91.4075E-03         1.96002    -538.103E-03    -768.300E-03    -538.058E-03         1.95997    -768.300E-03    -17.4721E-03     267.789E-03    -122.934E-03    -144.861E-03    -121.052E-03     243.980E-03    -122.934E-03     189.335E-03     102.225E+06     96.4889E+06    -12.4596E+06    -12.3241E+06     99.9918E+06     98.5864E+06    -357.189E+03         63.4496
            1463     15.0444E-03     91.6915E-03         1.91226    -500.596E-03    -769.774E-03    -500.571E-03         1.91223    -769.774E-03    -11.9993E-03     261.327E-03    -122.161E-03    -139.159E-03    -121.410E-03     244.323E-03    -122.905E-03     135.165E-03     105.833E+06     97.4551E+06    -6.00043E+06    -5.93678E+06     105.769E+06     97.4551E+06    -208.347E+03         65.7741
            1464     884.763E-06     92.0093E-03         2.57005    -693.195E-03        -1.22388        -1.22172         2.56792    -693.221E-03    -99.6122E-03     246.130E-03    -122.776E-03    -123.362E-03    -123.344E-03     246.126E-03    -122.790E-03    -1.43869E-03    -106.147E+06    -111.091E+06    -302.173E+06    -109.770E+06    -302.141E+06    -107.499E+06    -1.21406E+06         39.8073
            1465     1.76900E-03     92.0021E-03         2.59330    -961.574E-03    -982.059E-03    -981.646E-03         2.59292    -961.600E-03     17.5157E-03     246.307E-03    -122.989E-03    -123.360E-03    -123.184E-03     246.293E-03    -123.150E-03    -4.41149E-03    -97.8014E+06    -105.152E+06    -294.870E+06    -105.167E+06    -294.855E+06    -97.8014E+06     192.728E+03         39.9902
            1466     2.65329E-03     91.9923E-03         2.59449    -961.171E-03    -979.861E-03    -974.011E-03         2.59422    -966.748E-03    -5.46100E-03     246.432E-03    -123.028E-03    -123.441E-03    -123.218E-03     246.412E-03    -123.231E-03    -5.32292E-03    -84.6668E+06    -100.478E+06    -286.236E+06    -100.481E+06    -286.234E+06    -84.6668E+06     473.891E+03         40.2819
            1467     3.53673E-03     91.9832E-03         2.56615    -945.622E-03    -964.464E-03    -945.582E-03         2.56611    -964.464E-03    -19.9547E-03     246.128E-03    -122.861E-03    -123.327E-03    -122.847E-03     246.114E-03    -123.327E-03    -4.54457E-03    -67.0421E+06    -94.5468E+06    -270.917E+06    -94.5491E+06    -270.915E+06    -67.0421E+06     116.511E+03         40.6861
            1468     4.42237E-03     91.9744E-03         2.53780    -923.715E-03    -957.675E-03    -923.650E-03         2.53773    -957.675E-03    -22.7640E-03     245.613E-03    -122.375E-03    -123.306E-03    -122.369E-03     245.607E-03    -123.306E-03    -2.69400E-03    -49.1820E+06    -87.2460E+06    -246.597E+06    -87.2494E+06    -246.594E+06    -49.1820E+06     291.040E+03         41.2379
            1469     5.30748E-03     91.9678E-03         2.50524    -900.510E-03    -949.394E-03    -900.128E-03         2.50486    -949.394E-03    -55.2240E-03     245.399E-03    -122.148E-03    -123.249E-03    -122.146E-03     245.397E-03    -123.249E-03     303.903E-06    -34.8288E+06    -80.1190E+06    -216.122E+06    -80.1318E+06    -216.109E+06    -34.8288E+06     1.05244E+06         41.9916
            1470     6.19177E-03     91.9634E-03         2.47274    -878.356E-03    -940.542E-03    -877.989E-03         2.47237    -940.542E-03    -42.1526E-03     245.273E-03    -122.085E-03    -123.244E-03    -122.061E-03     245.249E-03    -123.244E-03     5.03893E-03    -22.1730E+06    -73.2678E+06    -182.075E+06    -73.3153E+06    -182.028E+06    -22.1730E+06     1.94169E+06         42.9651
            1471     7.07611E-03     91.9682E-03         2.43110    -848.820E-03    -931.380E-03    -848.569E-03         2.43085    -931.380E-03    -30.0476E-03     245.193E-03    -122.095E-03    -123.247E-03    -121.996E-03     245.094E-03    -123.247E-03     11.5213E-03    -10.8365E+06    -66.0725E+06    -142.507E+06    -66.1745E+06    -142.405E+06    -10.8365E+06     2.42940E+06         44.1632
            1472     7.96009E-03     91.9793E-03         2.38301    -811.708E-03    -921.495E-03    -811.384E-03         2.38269    -921.495E-03    -59.7608E-03     244.594E-03    -121.646E-03    -123.212E-03    -121.379E-03     244.326E-03    -123.212E-03     19.2763E-03    -2.60633E+06    -59.7463E+06    -94.2899E+06    -60.0406E+06    -93.9956E+06    -2.60633E+06     2.20902E+06         45.6255
            1473     8.84603E-03     92.0010E-03         2.33514    -779.091E-03    -911.363E-03    -778.914E-03         2.33496    -911.363E-03    -45.3796E-03     244.103E-03    -121.182E-03    -123.124E-03    -120.462E-03     243.383E-03    -123.124E-03     31.4262E-03     6.44759E+06    -24.5976E+06    -59.1138E+06    -53.9344E+06    -29.7770E+06     6.44759E+06     2.36208E+06         47.4316
            1474     9.72977E-03     92.0409E-03         2.29198    -746.944E-03    -901.863E-03    -746.649E-03         2.29168    -901.863E-03    -57.0079E-03     244.187E-03    -121.040E-03    -123.032E-03    -119.492E-03     242.639E-03    -123.032E-03     46.8288E-03     42.5171E+06     14.5493E+06    -48.2159E+06    -48.0896E+06     39.9807E+06     16.9593E+06     2.73656E+06         49.6778
            1475     10.6160E-03     92.0982E-03         2.24634    -711.132E-03    -893.038E-03    -710.922E-03         2.24613    -893.038E-03    -40.2160E-03     243.742E-03    -120.652E-03    -122.976E-03    -117.949E-03     241.039E-03    -122.976E-03     62.0360E-03     77.6449E+06     35.6310E+06    -41.9474E+06    -41.9050E+06     77.6025E+06     35.6310E+06     1.91330E+06         52.3918
            1476     11.5025E-03     92.1691E-03         2.18834    -663.069E-03    -885.285E-03    -662.732E-03         2.18801    -885.285E-03    -47.0110E-03     246.467E-03    -121.601E-03    -124.877E-03    -117.282E-03     240.152E-03    -122.881E-03     93.1459E-03     86.9629E+06     65.7170E+06    -34.1853E+06    -34.1730E+06     86.9506E+06     65.7170E+06     636.733E+03         55.4081
            1477     12.3890E-03     92.3079E-03         2.13354    -617.661E-03    -880.076E-03    -617.317E-03         2.13320    -880.076E-03    -49.7281E-03     253.973E-03    -122.923E-03    -131.236E-03    -117.798E-03     240.535E-03    -122.923E-03     139.735E-03     95.5590E+06     88.2417E+06    -26.4673E+06    -26.4338E+06     92.9980E+06     90.7693E+06     581.950E+03         58.3696
            1478     13.2753E-03     92.5068E-03         2.09092    -588.112E-03    -876.885E-03    -587.988E-03         2.09080    -876.885E-03    -30.3781E-03     257.680E-03    -122.986E-03    -134.980E-03    -118.703E-03     241.402E-03    -122.986E-03     156.404E-03     99.9148E+06     95.3982E+06    -19.0582E+06    -18.9869E+06     95.3269E+06     99.9148E+06     784.964E+03         61.0287
            1479     14.1599E-03     92.6874E-03         2.03551    -543.159E-03    -874.354E-03    -543.046E-03         2.03540    -874.354E-03    -25.4211E-03     267.286E-03    -122.910E-03    -144.480E-03    -121.035E-03     243.841E-03    -122.910E-03     188.072E-03     102.152E+06     97.3469E+06    -12.0478E+06    -11.9644E+06     100.080E+06     99.3358E+06     60.6463E+03         63.4518
            1480     15.0447E-03     92.9707E-03         1.96071    -482.427E-03    -868.029E-03    -482.351E-03         1.96064    -868.029E-03    -21.3645E-03     261.120E-03    -122.463E-03    -138.800E-03    -121.823E-03     244.586E-03    -122.907E-03     133.304E-03     105.434E+06     98.3213E+06    -5.78895E+06    -5.74134E+06     105.386E+06     98.3213E+06    -202.237E+03         65.7829
            1481     884.561E-06     93.2852E-03         2.88347    -896.237E-03        -1.35936        -1.35471         2.88054    -897.959E-03    -128.333E-03     245.880E-03    -122.609E-03    -123.279E-03    -123.268E-03     245.876E-03    -122.616E-03    -2.21381E-03    -100.750E+06    -106.652E+06    -300.979E+06    -104.921E+06    -300.969E+06    -102.491E+06    -796.896E+03         39.8019
            1482     1.76956E-03     93.2814E-03         2.86871        -1.10971        -1.13522        -1.12035         2.86844        -1.12432     3.97148E-03     246.358E-03    -123.067E-03    -123.323E-03    -123.303E-03     246.345E-03    -123.074E-03    -4.31159E-03    -94.2932E+06    -102.545E+06    -296.830E+06    -102.556E+06    -296.819E+06    -94.2932E+06    -424.355E+03         39.9904
            1483     2.65255E-03     93.2713E-03         2.85771        -1.10286        -1.13184        -1.11351         2.85745        -1.12093    -47.8439E-03     246.669E-03    -123.205E-03    -123.495E-03    -123.437E-03     246.652E-03    -123.246E-03    -5.00717E-03    -80.5872E+06    -97.2118E+06    -287.021E+06    -97.2229E+06    -287.009E+06    -80.5872E+06     580.318E+03         40.2857
            1484     3.53753E-03     93.2608E-03         2.84228        -1.09816        -1.11622        -1.09802         2.84214        -1.11622    -29.7546E-03     246.140E-03    -122.852E-03    -123.368E-03    -122.838E-03     246.127E-03    -123.368E-03    -4.44889E-03    -64.5345E+06    -91.4261E+06    -271.071E+06    -91.4372E+06    -271.060E+06    -64.5345E+06     993.238E+03         40.6894
            1485     4.42171E-03     93.2512E-03         2.80931        -1.06854        -1.10888        -1.06842         2.80919        -1.10888    -32.4758E-03     245.564E-03    -122.363E-03    -123.317E-03    -122.357E-03     245.558E-03    -123.317E-03    -2.57171E-03    -48.8407E+06    -85.7106E+06    -247.443E+06    -85.7212E+06    -247.433E+06    -48.8407E+06     1.04459E+06         41.2403
            1486     5.30675E-03     93.2446E-03         2.75747        -1.02832        -1.09829        -1.02801         2.75716        -1.09829    -64.7122E-03     245.569E-03    -122.350E-03    -123.266E-03    -122.348E-03     245.567E-03    -123.266E-03     335.230E-06    -34.1980E+06    -79.0135E+06    -218.028E+06    -79.0353E+06    -218.006E+06    -34.1980E+06     1.52879E+06         41.9946
            1487     6.19124E-03     93.2431E-03         2.70879    -995.370E-03        -1.08575    -995.139E-03         2.70856        -1.08575    -47.1322E-03     245.378E-03    -122.154E-03    -123.273E-03    -122.129E-03     245.353E-03    -123.273E-03     5.04485E-03    -21.1852E+06    -71.8456E+06    -183.368E+06    -71.9218E+06    -183.292E+06    -21.1852E+06     2.46172E+06         42.9668
            1488     7.07611E-03     93.2459E-03         2.65936    -960.347E-03        -1.07269    -960.177E-03         2.65919        -1.07269    -40.7441E-03     244.796E-03    -121.680E-03    -123.255E-03    -121.572E-03     244.689E-03    -123.255E-03     11.9490E-03    -10.6648E+06    -65.6104E+06    -143.713E+06    -65.7887E+06    -143.535E+06    -10.6648E+06     3.42973E+06         44.1635
            1489     7.96125E-03     93.2585E-03         2.59449    -912.018E-03        -1.05876    -911.746E-03         2.59422        -1.05876    -60.9958E-03     244.612E-03    -121.654E-03    -123.188E-03    -121.371E-03     244.329E-03    -123.188E-03     19.8982E-03    -1.59268E+06    -59.3613E+06    -94.3788E+06    -60.1920E+06    -93.5481E+06    -1.59268E+06     3.29620E+06         45.6276
            1490     8.84460E-03     93.2781E-03         2.53168    -867.323E-03        -1.04413    -867.172E-03         2.53153        -1.04413    -42.9133E-03     244.332E-03    -121.383E-03    -123.112E-03    -120.667E-03     243.616E-03    -123.112E-03     31.4445E-03     7.99637E+06    -26.1360E+06    -58.6836E+06    -54.3754E+06    -30.4443E+06     7.99637E+06     2.68426E+06         47.4330
            1491     9.73167E-03     93.3200E-03         2.47742    -827.453E-03        -1.02985    -827.270E-03         2.47724        -1.02985    -45.5529E-03     243.422E-03    -120.302E-03    -123.009E-03    -118.834E-03     241.955E-03    -123.009E-03     45.5467E-03     43.9715E+06     13.1361E+06    -47.6771E+06    -47.5737E+06     39.2309E+06     17.7733E+06     2.22175E+06         49.6762
            1492     10.6184E-03     93.3727E-03         2.40877    -774.810E-03        -1.01580    -774.655E-03         2.40862        -1.01580    -34.5477E-03     243.707E-03    -120.631E-03    -122.927E-03    -118.041E-03     241.116E-03    -122.927E-03     60.6478E-03     79.7095E+06     37.5451E+06    -40.8485E+06    -40.8258E+06     79.6869E+06     37.5451E+06     1.57983E+06         52.3938
            1493     11.5036E-03     93.4499E-03         2.32904    -713.977E-03        -1.00219    -713.680E-03         2.32874        -1.00219    -41.6952E-03     247.576E-03    -122.207E-03    -125.327E-03    -118.438E-03     241.367E-03    -122.886E-03     92.5792E-03     87.6661E+06     67.0545E+06    -34.7232E+06    -34.6746E+06     87.6174E+06     67.0545E+06     1.46444E+06         55.4179
            1494     12.3865E-03     93.5859E-03         2.26315    -666.970E-03    -990.941E-03    -666.654E-03         2.26284    -990.941E-03    -34.2786E-03     254.234E-03    -122.994E-03    -131.384E-03    -118.297E-03     241.147E-03    -122.994E-03     138.103E-03     94.8109E+06     88.0093E+06    -27.9212E+06    -27.8558E+06     92.5894E+06     90.1654E+06     1.51017E+06         58.3794
            1495     13.2726E-03     93.7814E-03         2.19103    -611.415E-03    -981.199E-03    -611.260E-03         2.19088    -981.199E-03    -21.9586E-03     257.215E-03    -123.068E-03    -134.480E-03    -118.435E-03     241.169E-03    -123.068E-03     155.197E-03     99.7394E+06     96.2878E+06    -20.2380E+06    -20.1885E+06     96.2383E+06     99.7394E+06     660.512E+03         61.0300
            1496     14.1583E-03     93.9692E-03         2.09777    -533.883E-03    -970.674E-03    -533.744E-03         2.09763    -970.674E-03    -23.8987E-03     266.587E-03    -122.963E-03    -143.794E-03    -120.369E-03     243.162E-03    -122.963E-03     187.735E-03     101.748E+06     98.1612E+06    -12.8829E+06    -12.8262E+06     100.396E+06     99.4566E+06    -103.955E+03         63.4484
            1497     15.0435E-03     94.2476E-03         2.00724    -463.212E-03    -955.990E-03    -463.137E-03         2.00717    -955.990E-03    -15.2559E-03     260.593E-03    -122.439E-03    -138.295E-03    -121.297E-03     244.082E-03    -122.925E-03     133.722E-03     104.809E+06     98.4712E+06    -6.31898E+06    -6.27653E+06     104.766E+06     98.4712E+06      55.879E+03         65.7825
            1498     884.500E-06     94.5641E-03         3.16280        -1.09864        -1.46837        -1.46333         3.16166        -1.10254    -81.6886E-03     246.284E-03    -122.831E-03    -123.465E-03    -123.456E-03     246.279E-03    -122.834E-03    -2.15066E-03    -101.162E+06    -106.956E+06    -301.451E+06    -105.221E+06    -301.444E+06    -102.903E+06     598.441E+03         39.8069
            1499     1.76844E-03     94.5578E-03         3.13813        -1.25588        -1.27691        -1.25578         3.13803        -1.27691     23.6558E-03     246.325E-03    -123.095E-03    -123.264E-03    -123.128E-03     246.314E-03    -123.220E-03    -4.15210E-03    -92.6495E+06    -103.551E+06    -297.114E+06    -103.567E+06    -297.099E+06    -92.6495E+06     1.10109E+06         39.9897
            1500     2.65380E-03     94.5508E-03         3.10699        -1.23804        -1.26603        -1.23783         3.10677        -1.26603    -11.6830E-03     246.300E-03    -123.034E-03    -123.290E-03    -123.055E-03     246.282E-03    -123.250E-03    -5.15034E-03    -79.8048E+06    -98.3000E+06    -288.533E+06    -98.3203E+06    -288.513E+06    -79.8048E+06     704.921E+03         40.2834
            1501     3.53724E-03     94.5384E-03         3.07356        -1.21582        -1.25532        -1.21568         3.07342        -1.25532    -22.6054E-03     246.062E-03    -122.832E-03    -123.295E-03    -122.815E-03     246.045E-03    -123.295E-03    -4.89847E-03    -65.4971E+06    -91.8155E+06    -272.517E+06    -91.8318E+06    -272.500E+06    -65.4971E+06     992.430E+03         40.6927
            1502     4.42257E-03     94.5297E-03         3.02910        -1.18067        -1.24320        -1.18057         3.02901        -1.24320    -18.4007E-03     245.750E-03    -122.563E-03    -123.276E-03    -122.557E-03     245.744E-03    -123.276E-03    -2.12555E-03    -48.8377E+06    -84.6247E+06    -248.509E+06    -84.6583E+06    -248.475E+06    -48.8377E+06     2.12425E+06         41.2477
            1503     5.30670E-03     94.5227E-03         2.98663        -1.15405        -1.23003        -1.15387         2.98646        -1.23003    -50.8379E-03     245.791E-03    -122.538E-03    -123.278E-03    -122.535E-03     245.788E-03    -123.278E-03     1.14510E-03    -33.6844E+06    -78.1612E+06    -219.891E+06    -78.2664E+06    -219.785E+06    -33.6844E+06     3.31109E+06         42.0018
            1504     6.19123E-03     94.5206E-03         2.92624        -1.10994        -1.21594        -1.10984         2.92614        -1.21594    -32.7042E-03     245.431E-03    -122.198E-03    -123.301E-03    -122.177E-03     245.410E-03    -123.301E-03     5.05802E-03    -21.0571E+06    -72.3666E+06    -185.015E+06    -72.5235E+06    -184.858E+06    -21.0571E+06     3.79030E+06         42.9725
            1505     7.07603E-03     94.5237E-03         2.85019        -1.05118        -1.19946        -1.05094         2.84995        -1.19946    -49.1073E-03     244.682E-03    -121.561E-03    -123.272E-03    -121.464E-03     244.585E-03    -123.272E-03     11.2536E-03    -9.93201E+06    -65.7647E+06    -145.339E+06    -65.9748E+06    -145.129E+06    -9.93201E+06     3.92720E+06         44.1668
            1506     7.96157E-03     94.5356E-03         2.78051    -999.012E-03        -1.18118    -998.708E-03         2.78020        -1.18118    -63.5243E-03     244.283E-03    -121.338E-03    -123.184E-03    -121.050E-03     243.995E-03    -123.184E-03     19.9136E-03    -137.161E+03    -58.0154E+06    -95.1483E+06    -59.3570E+06    -93.8066E+06    -137.161E+03     4.40176E+06         45.6299
            1507     8.84625E-03     94.5600E-03         2.71114    -949.504E-03        -1.16248    -949.409E-03         2.71104        -1.16248    -27.7254E-03     244.203E-03    -121.305E-03    -123.095E-03    -120.624E-03     243.521E-03    -123.095E-03     30.9308E-03     10.2424E+06    -23.6902E+06    -59.1292E+06    -54.1213E+06    -28.6981E+06     10.2424E+06     3.91983E+06         47.4400
            1508     9.72976E-03     94.5945E-03         2.62739    -886.535E-03        -1.14336    -886.451E-03         2.62731        -1.14336    -25.0312E-03     244.173E-03    -121.050E-03    -123.024E-03    -119.664E-03     242.786E-03    -123.024E-03     44.3105E-03     45.5588E+06     14.4020E+06    -49.5299E+06    -49.4004E+06     40.6249E+06     19.2064E+06     2.09347E+06         49.6914
            1509     10.6160E-03     94.6522E-03         2.54145    -821.614E-03        -1.12358    -821.529E-03         2.54136        -1.12358    -27.3900E-03     244.419E-03    -121.259E-03    -123.013E-03    -118.731E-03     241.891E-03    -123.013E-03     59.9950E-03     79.4446E+06     37.0976E+06    -43.3400E+06    -43.3106E+06     79.4151E+06     37.0976E+06     1.55683E+06         52.4102
            1510     11.5007E-03     94.7291E-03         2.46326    -770.948E-03        -1.10469    -770.845E-03         2.46316        -1.10469    -31.6417E-03     247.326E-03    -122.262E-03    -125.062E-03    -118.142E-03     241.130E-03    -122.986E-03     92.2847E-03     86.4785E+06     65.9629E+06    -36.1080E+06    -36.0462E+06     86.4166E+06     65.9629E+06     2.26257E+06         55.4295
            1511     12.3869E-03     94.8652E-03         2.37263    -707.786E-03        -1.08797    -707.677E-03         2.37252        -1.08797    -14.4291E-03     254.319E-03    -123.064E-03    -131.421E-03    -118.193E-03     241.091E-03    -123.064E-03     138.811E-03     94.5779E+06     88.3773E+06    -27.7514E+06    -27.6800E+06     92.8269E+06     90.0569E+06     2.05940E+06         58.3902
            1512     13.2704E-03     95.0604E-03         2.26477    -621.749E-03        -1.07120    -621.685E-03         2.26471        -1.07120    -4.94663E-03     257.711E-03    -123.129E-03    -134.916E-03    -118.566E-03     241.361E-03    -123.129E-03     156.808E-03     100.619E+06     97.3829E+06    -19.9136E+06    -19.8701E+06     97.3394E+06     100.619E+06     1.49016E+06         61.0385
            1513     14.1575E-03     95.2444E-03         2.15907    -537.696E-03        -1.05289    -537.645E-03         2.15902        -1.05289    -12.6625E-03     266.602E-03    -123.006E-03    -143.760E-03    -119.944E-03     242.786E-03    -123.006E-03     189.256E-03     102.582E+06     98.4856E+06    -13.1841E+06    -13.1287E+06     100.970E+06     100.042E+06     842.208E+03         63.4508
            1514     15.0451E-03     95.5273E-03         2.05179    -460.575E-03        -1.03119    -460.538E-03         2.05175        -1.03119     697.806E-06     260.651E-03    -122.552E-03    -138.187E-03    -121.083E-03     243.934E-03    -122.938E-03     134.230E-03     105.312E+06     98.9935E+06     -6.1885E+06    -6.11268E+06     105.236E+06     98.9935E+06    -217.568E+03         65.7825
            1515     884.113E-06     95.8422E-03         3.37833        -1.30758        -1.48829        -1.47835         3.37734        -1.31653    -88.9732E-03     246.577E-03    -122.899E-03    -123.694E-03    -123.690E-03     246.572E-03    -122.899E-03    -1.39331E-03    -105.386E+06    -108.806E+06    -303.149E+06    -108.605E+06    -303.140E+06    -105.595E+06     70.5848E+03         39.8148
            1516     1.76859E-03     95.8359E-03         3.34661        -1.37119        -1.39174        -1.37110         3.34651        -1.39174     10.4137E-03     246.445E-03    -123.067E-03    -123.416E-03    -123.135E-03     246.432E-03    -123.335E-03    -4.28485E-03    -94.2963E+06    -102.629E+06    -297.227E+06    -102.646E+06    -297.210E+06    -94.2963E+06     724.191E+03         39.9917
            1517     2.65250E-03     95.8276E-03         3.30995        -1.34673        -1.38028        -1.34659         3.30982        -1.38028     18.2357E-03     245.951E-03    -122.701E-03    -123.274E-03    -122.682E-03     245.932E-03    -123.274E-03    -5.23707E-03    -80.4075E+06    -97.3764E+06    -289.139E+06    -97.3966E+06    -289.119E+06    -80.4075E+06     977.779E+03         40.2833
            1518     3.53825E-03     95.8165E-03         3.26946        -1.31895        -1.36779        -1.31890         3.26941        -1.36779     11.9131E-03     246.109E-03    -122.810E-03    -123.353E-03    -122.875E-03     246.092E-03    -123.271E-03    -4.95279E-03    -63.5097E+06    -91.2972E+06    -273.773E+06    -91.3209E+06    -273.750E+06    -63.5097E+06     1.34665E+06         40.6981
            1519     4.42220E-03     95.8063E-03         3.22680        -1.29115        -1.35465        -1.29112         3.22677        -1.35465     737.377E-06     246.050E-03    -122.760E-03    -123.376E-03    -122.834E-03     246.043E-03    -123.294E-03    -2.80355E-03    -46.7198E+06    -84.9869E+06    -251.908E+06    -85.0648E+06    -251.830E+06    -46.7198E+06     3.23382E+06         41.2569
            1520     5.30724E-03     95.8017E-03         3.17176        -1.25196        -1.34047        -1.25185         3.17165        -1.34047    -35.0881E-03     245.633E-03    -122.370E-03    -123.304E-03    -122.367E-03     245.629E-03    -123.304E-03     801.162E-06    -32.5307E+06    -78.5553E+06    -222.355E+06    -78.7234E+06    -222.187E+06    -32.5307E+06     4.73468E+06         42.0089
            1521     6.19104E-03     95.7996E-03         3.10415        -1.20407        -1.32435        -1.20398         3.10406        -1.32435    -27.1821E-03     245.471E-03    -122.245E-03    -123.315E-03    -122.223E-03     245.449E-03    -123.315E-03     5.17918E-03    -19.8092E+06    -71.2788E+06    -186.149E+06    -71.4772E+06    -185.951E+06    -19.8092E+06     4.62623E+06         42.9797
            1522     7.07559E-03     95.8015E-03         3.02408        -1.14564        -1.30601        -1.14547         3.02391        -1.30601    -36.5915E-03     245.242E-03    -122.050E-03    -123.313E-03    -121.954E-03     245.146E-03    -123.313E-03     11.2489E-03    -8.53018E+06    -63.7804E+06    -146.476E+06    -64.0514E+06    -146.205E+06    -8.53018E+06     4.50061E+06         44.1763
            1523     7.95984E-03     95.8135E-03         2.93700        -1.07555        -1.28524        -1.07537         2.93682        -1.28524    -45.1627E-03     244.362E-03    -121.326E-03    -123.252E-03    -121.057E-03     244.093E-03    -123.252E-03     19.3179E-03     184.546E+03    -56.5100E+06    -97.0618E+06    -57.8513E+06    -95.7206E+06     184.546E+03     5.21780E+06         45.6387
            1524     8.84600E-03     95.8370E-03         2.84725        -1.00900        -1.26263        -1.00898         2.84722        -1.26263    -15.3455E-03     243.915E-03    -120.983E-03    -123.141E-03    -120.340E-03     243.272E-03    -123.141E-03     29.9564E-03     10.7884E+06    -21.3577E+06    -59.7112E+06    -52.4595E+06    -28.6094E+06     10.7884E+06     5.72242E+06         47.4476
            1525     9.73152E-03     95.8753E-03         2.75363    -942.437E-03        -1.23912    -942.316E-03         2.75351        -1.23912    -30.4473E-03     244.740E-03    -121.578E-03    -123.080E-03    -120.171E-03     243.334E-03    -123.080E-03     44.5476E-03     47.4135E+06     18.4539E+06    -48.1665E+06    -47.7538E+06     43.2054E+06     22.2492E+06     4.96134E+06         49.7002
            1526     10.6138E-03     95.9309E-03         2.65847    -875.238E-03        -1.21521    -875.119E-03         2.65835        -1.21521    -28.3535E-03     244.966E-03    -121.752E-03    -123.111E-03    -119.125E-03     242.339E-03    -123.111E-03     61.2497E-03     79.6532E+06     39.0256E+06    -43.5034E+06    -43.3481E+06     79.4979E+06     39.0256E+06     3.03138E+06         52.4179
            1527     11.5005E-03     96.0058E-03         2.55668    -804.765E-03        -1.19154    -804.634E-03         2.55655        -1.19154    -31.9458E-03     246.811E-03    -122.219E-03    -124.635E-03    -117.428E-03     240.441E-03    -123.055E-03     93.4494E-03     85.8575E+06     65.4948E+06    -37.3006E+06    -37.2592E+06     85.8161E+06     65.4948E+06     1.90945E+06         55.4327
            1528     12.3861E-03     96.1434E-03         2.43969    -718.516E-03        -1.16848    -718.397E-03         2.43957        -1.16848    -27.0339E-03     253.964E-03    -123.065E-03    -131.076E-03    -117.503E-03     240.391E-03    -123.065E-03     140.447E-03     94.4224E+06     88.2681E+06    -28.9376E+06    -28.8764E+06     93.1064E+06     89.5230E+06     1.34886E+06         58.3941
            1529     13.2738E-03     96.3398E-03         2.32307    -632.506E-03        -1.14485    -632.462E-03         2.32303        -1.14485    -13.8264E-03     257.941E-03    -123.105E-03    -135.117E-03    -118.798E-03     241.621E-03    -123.105E-03     156.656E-03     100.856E+06     97.4080E+06    -19.6321E+06    -19.5737E+06     97.3496E+06     100.856E+06     1.19427E+06         61.0477
            1530     14.1583E-03     96.5218E-03         2.20333    -543.334E-03        -1.11999    -543.255E-03         2.20326        -1.11999    -25.7371E-03     267.094E-03    -123.011E-03    -144.162E-03    -120.570E-03     243.502E-03    -123.011E-03     188.354E-03     105.356E+06     99.7277E+06    -10.8449E+06    -10.8002E+06     103.119E+06     101.921E+06     1.39255E+06         63.4585
            1531     15.0435E-03     96.8052E-03         2.06758    -445.865E-03        -1.09187    -445.782E-03         2.06750        -1.09187    -14.7023E-03     260.955E-03    -122.438E-03    -138.538E-03    -121.265E-03     244.213E-03    -122.969E-03     134.369E-03     106.544E+06     100.173E+06    -4.74214E+06    -4.64585E+06     106.448E+06     100.173E+06     838.608E+03         65.7837
            1532     884.639E-06     97.1205E-03         3.53469        -1.44459        -1.51519        -1.49649         3.53351        -1.46211    -85.2880E-03     246.495E-03    -122.815E-03    -123.694E-03    -123.540E-03     246.490E-03    -122.965E-03    -1.23365E-03    -105.359E+06    -107.717E+06    -302.556E+06    -107.514E+06    -302.550E+06    -105.568E+06    -542.861E+03         39.8171
            1533     1.76802E-03     97.1153E-03         3.50384        -1.45347        -1.48035        -1.45882         3.50378        -1.47495     11.5790E-03     246.300E-03    -122.980E-03    -123.359E-03    -123.050E-03     246.287E-03    -123.277E-03    -4.19209E-03    -96.3974E+06    -105.364E+06    -299.530E+06    -105.372E+06    -299.522E+06    -96.3974E+06     208.493E+03         39.9963
            1534     2.65357E-03     97.1047E-03         3.46936        -1.43760        -1.46572        -1.43757         3.46933        -1.46572     12.1196E-03     246.246E-03    -122.905E-03    -123.362E-03    -122.979E-03     246.227E-03    -123.269E-03    -5.26681E-03    -81.4102E+06    -100.197E+06    -290.286E+06    -100.215E+06    -290.267E+06    -81.4102E+06     1.56465E+06         40.2916
            1535     3.53783E-03     97.0953E-03         3.43705        -1.41878        -1.45579        -1.41868         3.43696        -1.45579     1.74590E-03     246.357E-03    -122.901E-03    -123.513E-03    -123.053E-03     246.340E-03    -123.344E-03    -4.91521E-03    -63.2763E+06    -93.7029E+06    -276.005E+06    -93.7471E+06    -275.961E+06    -63.2763E+06     2.73651E+06         40.7078
            1536     4.42145E-03     97.0867E-03         3.38027        -1.37559        -1.44378        -1.37553         3.38020        -1.44378    -14.7116E-03     246.206E-03    -122.832E-03    -123.470E-03    -122.906E-03     246.198E-03    -123.388E-03    -2.97319E-03    -45.8387E+06    -86.0002E+06    -255.278E+06    -86.0922E+06    -255.186E+06    -45.8387E+06     3.74285E+06         41.2646
            1537     5.30566E-03     97.0787E-03         3.30826        -1.32304        -1.42785        -1.32295         3.30817        -1.42785    -27.8753E-03     245.602E-03    -122.285E-03    -123.371E-03    -122.281E-03     245.598E-03    -123.371E-03     520.862E-06    -32.5453E+06    -77.8708E+06    -224.212E+06    -78.0185E+06    -224.064E+06    -32.5453E+06     4.50143E+06         42.0126
            1538     6.19192E-03     97.0786E-03         3.23385        -1.27082        -1.40913        -1.27073         3.23376        -1.40913    -21.8592E-03     245.264E-03    -122.020E-03    -123.346E-03    -121.997E-03     245.241E-03    -123.346E-03     5.20107E-03    -20.0846E+06    -70.2654E+06    -187.166E+06    -70.4680E+06    -186.963E+06    -20.0846E+06     4.76462E+06         42.9816
            1539     7.07579E-03     97.0805E-03         3.15489        -1.21577        -1.38866        -1.21568         3.15479        -1.38866    -23.6124E-03     245.375E-03    -122.156E-03    -123.333E-03    -122.054E-03     245.273E-03    -123.333E-03     11.5649E-03    -8.49158E+06    -63.0504E+06    -147.965E+06    -63.4125E+06    -147.603E+06    -8.49158E+06     5.27949E+06         44.1815
            1540     7.95999E-03     97.0927E-03         3.06481        -1.14807        -1.36639        -1.14798         3.06471        -1.36639    -29.5974E-03     244.880E-03    -121.767E-03    -123.308E-03    -121.490E-03     244.602E-03    -123.308E-03     19.6901E-03     949.840E+03    -55.7999E+06    -98.1481E+06    -57.0000E+06    -96.9480E+06     949.840E+03     5.56051E+06         45.6464
            1541     8.84399E-03     97.1145E-03         2.96340        -1.06999        -1.34195        -1.06997         2.96338        -1.34195    -8.46219E-03     244.161E-03    -121.141E-03    -123.219E-03    -120.464E-03     243.484E-03    -123.219E-03     30.6557E-03     11.5016E+06    -22.7963E+06    -58.9863E+06    -50.4965E+06    -31.2861E+06     11.5016E+06     6.37591E+06         47.4503
            1542     9.72881E-03     97.1539E-03         2.85772    -996.584E-03        -1.31587    -996.456E-03         2.85759        -1.31587    -33.1870E-03     244.110E-03    -120.898E-03    -123.113E-03    -119.435E-03     242.647E-03    -123.113E-03     45.3906E-03     49.1463E+06     17.0011E+06    -44.9532E+06    -44.1709E+06     42.7735E+06     22.5916E+06     7.57269E+06         49.6937
            1543     10.6162E-03     97.2105E-03         2.74346    -915.051E-03        -1.28861    -914.932E-03         2.74334        -1.28861    -20.0226E-03     244.481E-03    -121.304E-03    -123.078E-03    -118.619E-03     241.797E-03    -123.078E-03     61.8584E-03     82.8915E+06     41.4303E+06    -39.7201E+06    -39.3197E+06     82.4911E+06     41.4303E+06     6.20393E+06         52.4109
            1544     11.5000E-03     97.2840E-03         2.61734    -821.909E-03        -1.26016    -821.690E-03         2.61712        -1.26016    -30.7129E-03     247.070E-03    -122.321E-03    -124.773E-03    -117.735E-03     240.735E-03    -123.024E-03     93.4282E-03     88.9184E+06     69.7085E+06    -33.5767E+06    -33.4059E+06     88.7476E+06     69.7085E+06     3.35681E+06         55.4347
            1545     12.3883E-03     97.4194E-03         2.49129    -731.375E-03        -1.23131    -731.157E-03         2.49107        -1.23131    -35.2818E-03     254.295E-03    -123.062E-03    -131.394E-03    -117.762E-03     240.663E-03    -123.062E-03     140.701E-03     96.1627E+06     89.8635E+06    -26.5837E+06    -26.4912E+06     94.0744E+06     91.8592E+06     1.82875E+06         58.4016
            1546     13.2717E-03     97.6219E-03         2.36464    -643.359E-03        -1.20189    -643.298E-03         2.36458        -1.20189    -15.9431E-03     257.999E-03    -123.098E-03    -135.159E-03    -118.894E-03     241.734E-03    -123.098E-03     156.375E-03     100.874E+06     97.8978E+06    -19.6787E+06    -19.5814E+06     97.8251E+06     100.849E+06     951.541E+03         61.0552
            1547     14.1570E-03     97.7992E-03         2.22273    -540.581E-03        -1.17091    -540.452E-03         2.22261        -1.17091    -37.4313E-03     267.675E-03    -123.019E-03    -144.680E-03    -121.124E-03     244.118E-03    -123.019E-03     188.292E-03     103.582E+06     99.4917E+06     -12.543E+06    -12.4970E+06     102.580E+06     100.447E+06     621.134E+03         63.4606
            1548     15.0426E-03     98.0859E-03         2.07559    -435.584E-03        -1.13674    -435.471E-03         2.07548        -1.13674    -23.9462E-03     260.924E-03    -121.740E-03    -139.166E-03    -121.071E-03     244.071E-03    -122.983E-03     134.500E-03     105.887E+06     98.8367E+06    -5.73834E+06    -5.67322E+06     105.822E+06     98.8367E+06     1.28925E+06         65.7786
            1549     883.594E-06     98.3997E-03         3.59152        -1.43811        -1.60989        -1.45142         3.59102        -1.59608    -15.8870E-03     246.212E-03    -122.798E-03    -123.425E-03    -123.269E-03     246.207E-03    -122.948E-03    -1.33285E-03    -106.840E+06    -111.471E+06    -305.970E+06    -111.511E+06    -305.930E+06    -106.840E+06     1.61175E+06         39.8187
            1550     1.76988E-03     98.3915E-03         3.61703        -1.52039        -1.55223        -1.54465         3.61682        -1.52776     463.316E-06     246.328E-03    -123.057E-03    -123.305E-03    -123.141E-03     246.314E-03    -123.207E-03    -4.47832E-03    -94.7660E+06    -107.245E+06    -300.710E+06    -107.262E+06    -300.693E+06    -94.7660E+06     1.68454E+06         40.0046
            1551     2.65289E-03     98.3844E-03         3.59936        -1.51677        -1.54168        -1.52741         3.59934        -1.53102     13.8103E-03     246.645E-03    -123.229E-03    -123.435E-03    -123.356E-03     246.626E-03    -123.289E-03    -5.25144E-03    -82.4873E+06    -102.111E+06    -292.549E+06    -102.141E+06    -292.520E+06    -82.4873E+06     2.32134E+06         40.3018
            1552     3.53637E-03     98.3730E-03         3.54033        -1.48114        -1.52455        -1.48106         3.54025        -1.52455    -23.3390E-03     246.432E-03    -122.990E-03    -123.489E-03    -123.063E-03     246.417E-03    -123.402E-03    -4.53323E-03    -67.0263E+06    -95.8486E+06    -278.411E+06    -95.8925E+06    -278.367E+06    -67.0263E+06     2.71516E+06         40.7135
            1553     4.42214E-03     98.3644E-03         3.46048        -1.41685        -1.50947        -1.41677         3.46040        -1.50947    -25.7076E-03     246.030E-03    -122.676E-03    -123.427E-03    -122.671E-03     246.024E-03    -123.427E-03    -2.56634E-03    -48.5173E+06    -87.2578E+06    -256.907E+06    -87.3128E+06    -256.852E+06    -48.5173E+06     2.98237E+06         41.2667
            1554     5.30647E-03     98.3574E-03         3.39425        -1.36864        -1.48985        -1.36862         3.39422        -1.48985    -14.4722E-03     245.860E-03    -122.472E-03    -123.406E-03    -122.468E-03     245.856E-03    -123.406E-03     791.666E-06    -32.9367E+06    -77.9851E+06    -226.381E+06    -78.0920E+06    -226.274E+06    -32.9367E+06     3.73339E+06         42.0130
            1555     6.18983E-03     98.3551E-03         3.32672        -1.32394        -1.46930        -1.32392         3.32669        -1.46930    -8.05765E-03     245.325E-03    -121.998E-03    -123.391E-03    -121.971E-03     245.299E-03    -123.391E-03     5.62377E-03    -20.6298E+06    -70.4123E+06    -189.187E+06    -70.5967E+06    -189.002E+06    -20.6298E+06     4.56998E+06         42.9787
            1556     7.07584E-03     98.3604E-03         3.24430        -1.26423        -1.44761        -1.26413         3.24421        -1.44761    -20.6905E-03     244.993E-03    -121.753E-03    -123.343E-03    -121.645E-03     244.885E-03    -123.343E-03     12.0436E-03    -9.16148E+06    -63.3651E+06    -149.890E+06    -63.6898E+06    -149.565E+06    -9.16148E+06     5.03453E+06         44.1768
            1557     7.96031E-03     98.3717E-03         3.15298        -1.19791        -1.42404        -1.19782         3.15290        -1.42404    -30.0899E-03     244.829E-03    -121.723E-03    -123.294E-03    -121.438E-03     244.544E-03    -123.294E-03     19.9686E-03     888.214E+03    -55.3609E+06    -100.258E+06    -56.8243E+06    -98.7947E+06     888.214E+03     6.03360E+06         45.6448
            1558     8.84517E-03     98.3945E-03         3.04590        -1.12127        -1.39844        -1.12125         3.04588        -1.39844    -9.92125E-03     244.288E-03    -121.249E-03    -123.208E-03    -120.547E-03     243.586E-03    -123.208E-03     31.2004E-03     11.1016E+06    -24.7296E+06    -60.6334E+06    -50.8331E+06    -34.5299E+06     11.1016E+06     7.10896E+06         47.4502
            1559     9.73074E-03     98.4310E-03         2.92215        -1.03066        -1.37041        -1.03062         2.92212        -1.37041    -18.2744E-03     243.845E-03    -120.669E-03    -123.078E-03    -119.185E-03     242.362E-03    -123.078E-03     45.7696E-03     49.5454E+06     12.9987E+06    -45.9332E+06    -45.1098E+06     41.1520E+06     20.5687E+06     7.62770E+06         49.6874
            1560     10.6161E-03     98.4866E-03         2.78921    -934.769E-03        -1.33983    -934.737E-03         2.78918        -1.33983    -12.1261E-03     243.991E-03    -120.907E-03    -123.008E-03    -118.232E-03     241.316E-03    -123.008E-03     61.6964E-03     86.1144E+06     40.3786E+06    -38.5565E+06    -38.1508E+06     85.7087E+06     40.3786E+06     6.76645E+06         52.4037
            1561     11.5032E-03     98.5633E-03         2.65539    -839.003E-03        -1.30739    -838.852E-03         2.65524        -1.30739    -21.0252E-03     247.626E-03    -122.170E-03    -125.426E-03    -118.367E-03     241.382E-03    -122.984E-03     93.0365E-03     91.5744E+06     71.3311E+06    -30.9577E+06    -30.6282E+06     91.2449E+06     71.3311E+06     5.40022E+06         55.4392
            1562     12.3849E-03     98.6980E-03         2.52415    -744.353E-03        -1.27397    -744.205E-03         2.52400        -1.27397    -12.0864E-03     254.836E-03    -123.085E-03    -131.774E-03    -118.347E-03     241.410E-03    -123.085E-03     139.775E-03     97.9743E+06     91.8182E+06    -24.1748E+06    -23.9265E+06     95.0540E+06     94.4901E+06     4.69926E+06         58.4113
            1563     13.2731E-03     98.8989E-03         2.37857    -642.189E-03        -1.23912    -642.157E-03         2.37854        -1.23912     2.65536E-03     257.924E-03    -123.125E-03    -134.973E-03    -118.614E-03     241.565E-03    -123.125E-03     156.823E-03     103.249E+06     99.9216E+06    -18.1555E+06    -17.9236E+06     100.345E+06     102.594E+06     3.71797E+06         61.0576
            1564     14.1584E-03     99.0794E-03         2.22999    -539.117E-03        -1.20223    -539.056E-03         2.22993        -1.20223    -13.3105E-03     267.324E-03    -123.016E-03    -144.350E-03    -120.705E-03     243.679E-03    -123.016E-03     188.710E-03     102.698E+06     100.311E+06    -13.5674E+06    -13.4055E+06     102.536E+06     100.311E+06     2.14410E+06         63.4567
            1565     15.0422E-03     99.3664E-03         2.08370    -439.804E-03        -1.16310    -439.757E-03         2.08365        -1.16310    -2.34746E-03     260.315E-03    -121.592E-03    -138.696E-03    -120.613E-03     243.604E-03    -122.963E-03     133.578E-03     105.895E+06     98.8024E+06    -7.49452E+06    -7.47531E+06     105.875E+06     98.8024E+06     598.706E+03         65.7748
            1566     885.557E-06     99.6755E-03         3.67505        -1.37039        -1.78023        -1.37851         3.67475        -1.77182    -16.5099E-03     246.391E-03    -123.014E-03    -123.391E-03    -123.261E-03     246.384E-03    -123.136E-03    -2.28366E-03    -109.476E+06    -114.124E+06    -308.398E+06    -113.440E+06    -308.352E+06    -110.207E+06     2.44056E+06         39.8224
            1567     1.76776E-03     99.6717E-03         3.66223        -1.55041        -1.59283        -1.56912         3.66188        -1.57376     5.14141E-03     246.466E-03    -123.118E-03    -123.378E-03    -123.196E-03     246.452E-03    -123.286E-03    -4.48876E-03    -99.2644E+06    -108.289E+06    -302.857E+06    -108.303E+06    -302.843E+06    -99.2644E+06     1.41877E+06         40.0087
            1568     2.65286E-03     99.6619E-03         3.63748        -1.54046        -1.58000        -1.55092         3.63728        -1.56934     36.8248E-03     246.364E-03    -123.013E-03    -123.356E-03    -123.050E-03     246.347E-03    -123.303E-03    -4.83547E-03    -87.5723E+06    -103.157E+06    -295.240E+06    -103.190E+06    -295.207E+06    -87.5723E+06     2.34657E+06         40.3025
            1569     3.53810E-03     99.6528E-03         3.57744        -1.50551        -1.55941        -1.50549         3.57742        -1.55941    -11.5483E-03     246.398E-03    -123.052E-03    -123.371E-03    -123.040E-03     246.386E-03    -123.371E-03    -4.18686E-03    -69.1811E+06    -96.3819E+06    -278.614E+06    -96.4172E+06    -278.579E+06    -69.1811E+06     2.52177E+06         40.7117
            1570     4.42106E-03     99.6424E-03         3.51656        -1.45925        -1.54408        -1.45922         3.51653        -1.54408     281.743E-06     246.097E-03    -122.766E-03    -123.410E-03    -122.760E-03     246.091E-03    -123.410E-03    -2.54833E-03    -50.5942E+06    -89.0160E+06    -257.581E+06    -89.0423E+06    -257.554E+06    -50.5942E+06     2.00922E+06         41.2669
            1571     5.30633E-03     99.6359E-03         3.44839        -1.40640        -1.52557        -1.40636         3.44836        -1.52557    -6.31297E-03     245.671E-03    -122.312E-03    -123.388E-03    -122.308E-03     245.666E-03    -123.388E-03     1.02403E-03    -35.8080E+06    -80.7418E+06    -229.244E+06    -80.7887E+06    -229.197E+06    -35.8080E+06     2.42107E+06         42.0150
            1572     6.19131E-03     99.6341E-03         3.37194        -1.35388        -1.50482        -1.35382         3.37188        -1.50482    -267.977E-06     245.487E-03    -122.148E-03    -123.365E-03    -122.118E-03     245.456E-03    -123.365E-03     6.11273E-03    -22.7005E+06    -71.7186E+06    -191.475E+06    -71.8433E+06    -191.350E+06    -22.7005E+06     3.64821E+06         42.9778
            1573     7.07559E-03     99.6360E-03         3.28837        -1.29283        -1.48226        -1.29271         3.28825        -1.48226    -11.7628E-03     245.053E-03    -121.804E-03    -123.335E-03    -121.691E-03     244.940E-03    -123.335E-03     12.3779E-03    -11.4978E+06    -64.7629E+06    -152.387E+06    -65.0786E+06    -152.071E+06    -11.4978E+06     4.90627E+06         44.1710
            1574     7.96062E-03     99.6514E-03         3.18567        -1.21933        -1.45738        -1.21919         3.18554        -1.45738    -15.5861E-03     244.390E-03    -121.326E-03    -123.265E-03    -121.046E-03     244.111E-03    -123.265E-03     19.8163E-03    -1.62788E+06    -57.3032E+06    -103.413E+06    -58.7963E+06    -101.920E+06    -1.62788E+06     6.22966E+06         45.6383
            1575     8.84549E-03     99.6706E-03         3.07099        -1.13606        -1.42978        -1.13599         3.07092        -1.42978     2.14361E-03     244.189E-03    -121.208E-03    -123.162E-03    -120.542E-03     243.523E-03    -123.162E-03     30.4435E-03     9.64563E+06    -26.2519E+06    -62.6744E+06    -52.1019E+06    -36.8244E+06     9.64563E+06     7.36201E+06         47.4472
            1576     9.73039E-03     99.7103E-03         2.94398        -1.04265        -1.39935        -1.04262         2.94395        -1.39935    -6.91343E-03     244.034E-03    -120.939E-03    -123.061E-03    -119.547E-03     242.642E-03    -123.061E-03     44.3797E-03     49.5819E+06     12.2972E+06    -47.0276E+06    -46.1942E+06     40.8741E+06     20.1716E+06     7.42467E+06         49.6863
            1577     10.6163E-03     99.7633E-03         2.80794    -947.938E-03        -1.36630    -947.913E-03         2.80792        -1.36630     782.838E-06     244.058E-03    -120.995E-03    -123.018E-03    -118.362E-03     241.425E-03    -123.018E-03     61.0481E-03     86.9302E+06     39.1500E+06    -40.8413E+06    -40.4697E+06     86.5587E+06     39.1500E+06     6.55409E+06         52.4007
            1578     11.5010E-03     99.8422E-03         2.66892    -846.937E-03        -1.33102    -846.920E-03         2.66891        -1.33102     3.90590E-03     247.527E-03    -122.148E-03    -125.387E-03    -118.158E-03     241.134E-03    -122.983E-03     94.0094E-03     91.1292E+06     67.8154E+06    -35.3051E+06    -34.9327E+06     90.7568E+06     67.8154E+06     6.36511E+06         55.4370
            1579     12.3870E-03     99.9815E-03         2.52400    -741.496E-03        -1.29359    -741.461E-03         2.52397        -1.29359     18.3075E-03     254.891E-03    -123.086E-03    -131.845E-03    -118.534E-03     241.580E-03    -123.086E-03     139.518E-03     97.8352E+06     90.3622E+06    -27.2093E+06    -26.9024E+06     94.9992E+06     92.8913E+06     5.79909E+06         58.4140
            1580     13.2710E-03     100.172E-03         2.37483    -639.255E-03        -1.25410    -639.218E-03         2.37480        -1.25410     11.8908E-03     257.801E-03    -123.148E-03    -134.775E-03    -118.441E-03     241.467E-03    -123.148E-03     156.724E-03     104.093E+06     100.917E+06    -18.7256E+06    -18.4325E+06     101.270E+06     103.446E+06     5.70293E+06         61.0605
            1581     14.1569E-03     100.361E-03         2.22496    -538.443E-03        -1.21276    -538.435E-03         2.22495        -1.21276     463.286E-06     266.298E-03    -122.997E-03    -143.361E-03    -119.435E-03     242.372E-03    -122.997E-03     189.426E-03     106.181E+06     103.897E+06    -11.7957E+06    -11.5167E+06     105.902E+06     103.897E+06     4.87946E+06         63.4609
            1582     15.0449E-03     100.640E-03         2.06984    -433.095E-03        -1.16987    -433.079E-03         2.06982        -1.16987    -2.68544E-03     260.460E-03    -122.387E-03    -138.098E-03    -120.751E-03     243.651E-03    -122.926E-03     134.139E-03     109.247E+06     103.322E+06    -5.44174E+06    -5.33950E+06     109.145E+06     103.322E+06     1.30438E+06         65.7857
            1583     882.727E-06     100.956E-03         3.72620        -1.31643        -1.89294        -1.31613         3.72590        -1.89294    -52.6433E-03     246.602E-03    -122.969E-03    -123.649E-03    -123.423E-03     246.594E-03    -123.187E-03    -1.46306E-03    -110.698E+06    -113.330E+06    -307.782E+06    -112.611E+06    -307.770E+06    -111.428E+06     841.288E+03         39.8212
            1584     1.76900E-03     100.948E-03         3.65002        -1.55056        -1.59383        -1.55033         3.64980        -1.59383     33.8020E-03     246.371E-03    -123.050E-03    -123.360E-03    -123.084E-03     246.359E-03    -123.314E-03    -4.15055E-03    -103.930E+06    -110.505E+06    -305.449E+06    -110.508E+06    -305.446E+06    -103.930E+06     719.777E+03         40.0050
            1585     2.65329E-03     100.940E-03         3.60606        -1.52933        -1.57531        -1.52912         3.60584        -1.57531     37.4685E-03     246.300E-03    -122.950E-03    -123.352E-03    -122.978E-03     246.282E-03    -123.306E-03    -5.07727E-03    -88.9428E+06    -105.036E+06    -296.562E+06    -105.048E+06    -296.551E+06    -88.9428E+06     968.379E+03         40.2970
            1586     3.53709E-03     100.930E-03         3.58037        -1.51908        -1.56226        -1.51899         3.58028        -1.56226    -26.5513E-03     246.135E-03    -122.813E-03    -123.346E-03    -122.799E-03     246.122E-03    -123.346E-03    -4.38781E-03    -70.5473E+06    -97.7832E+06    -279.504E+06    -97.8018E+06    -279.485E+06    -70.5473E+06     1.43080E+06         40.7077
            1587     4.42236E-03     100.922E-03         3.53410        -1.48258        -1.55012        -1.48248         3.53399        -1.55012    -8.01493E-03     246.058E-03    -122.802E-03    -123.354E-03    -122.797E-03     246.054E-03    -123.354E-03    -2.29195E-03    -53.5376E+06    -90.3180E+06    -258.029E+06    -90.3352E+06    -258.012E+06    -53.5376E+06     1.55997E+06         41.2678
            1588     5.30619E-03     100.913E-03         3.46193        -1.42725        -1.53444        -1.42719         3.46186        -1.53444    -7.99314E-03     245.934E-03    -122.612E-03    -123.362E-03    -122.609E-03     245.931E-03    -123.362E-03     761.054E-06    -39.3149E+06    -82.7732E+06    -229.546E+06    -82.7939E+06    -229.526E+06    -39.3149E+06     1.42992E+06         42.0195
            1589     6.19145E-03     100.912E-03         3.36858        -1.35617        -1.51421        -1.35603         3.36844        -1.51421     8.20473E-03     245.458E-03    -122.141E-03    -123.364E-03    -122.116E-03     245.433E-03    -123.364E-03     5.36940E-03    -26.5553E+06    -75.2710E+06    -194.419E+06    -75.3466E+06    -194.343E+06    -26.5553E+06     2.47081E+06         42.9792
            1590     7.07537E-03     100.917E-03         3.27118        -1.28439        -1.49002        -1.28426         3.27105        -1.49002     13.3870E-03     244.924E-03    -121.683E-03    -123.333E-03    -121.577E-03     244.818E-03    -123.333E-03     11.8952E-03    -14.4871E+06    -67.1324E+06    -155.614E+06    -67.3762E+06    -155.370E+06    -14.4871E+06     4.17617E+06         44.1662
            1591     7.96030E-03     100.927E-03         3.17071        -1.21546        -1.46329        -1.21537         3.17062        -1.46329     2.33538E-03     244.260E-03    -121.219E-03    -123.241E-03    -120.935E-03     243.976E-03    -123.241E-03     19.8922E-03    -4.42079E+06    -58.8362E+06    -106.522E+06    -59.8837E+06    -105.475E+06    -4.42079E+06     5.43529E+06         45.6290
            1592     8.84579E-03     100.952E-03         3.05095        -1.12964        -1.43410        -1.12959         3.05089        -1.43410     14.6412E-03     243.988E-03    -121.112E-03    -123.126E-03    -120.425E-03     243.301E-03    -123.126E-03     30.9155E-03     6.25971E+06    -27.8421E+06    -65.2289E+06    -53.6011E+06    -39.4699E+06     6.25971E+06     6.85288E+06         47.4381
            1593     9.72993E-03     100.987E-03         2.92597        -1.03920        -1.40206        -1.03919         2.92596        -1.40206     4.08799E-03     244.262E-03    -121.206E-03    -123.039E-03    -119.781E-03     242.837E-03    -123.039E-03     44.9410E-03     47.9220E+06     10.8231E+06    -48.7167E+06    -47.8043E+06     40.2941E+06     17.5386E+06      8.1074E+06         49.6840
            1594     10.6152E-03     101.042E-03         2.79900    -950.260E-03        -1.36768    -950.245E-03         2.79899        -1.36768     12.2555E-03     244.391E-03    -121.287E-03    -123.027E-03    -118.610E-03     241.714E-03    -123.027E-03     61.6112E-03     85.9521E+06     37.3188E+06    -43.3838E+06    -42.7756E+06     85.3440E+06     37.3188E+06     8.69674E+06         52.3994
            1595     11.5017E-03     101.120E-03         2.65530    -844.962E-03        -1.33077    -844.925E-03         2.65526        -1.33077    -1.60842E-03     247.086E-03    -122.154E-03    -124.997E-03    -117.585E-03     240.519E-03    -122.998E-03     95.0319E-03     91.8398E+06     67.8549E+06    -37.0703E+06     -36.544E+06     91.3134E+06     67.8549E+06     7.98365E+06         55.4281
            1596     12.3873E-03     101.260E-03         2.49993    -732.120E-03        -1.29068    -732.059E-03         2.49987        -1.29068     5.81881E-03     254.851E-03    -123.059E-03    -131.949E-03    -118.268E-03     241.170E-03    -123.059E-03     141.458E-03     99.0429E+06     90.8865E+06    -29.5681E+06    -29.2336E+06     96.2871E+06     93.3079E+06     6.02111E+06         58.4090
            1597     13.2710E-03     101.461E-03         2.34923    -636.516E-03        -1.24828    -636.476E-03         2.34919        -1.24828     3.37295E-03     257.793E-03    -123.117E-03    -134.837E-03    -118.574E-03     241.530E-03    -123.117E-03     156.292E-03     103.694E+06     100.629E+06    -20.7131E+06    -20.5162E+06     100.448E+06     103.678E+06     4.76689E+06         61.0716
            1598     14.1603E-03     101.637E-03         2.18966    -529.624E-03        -1.20393    -529.605E-03         2.18965        -1.20393    -12.4846E-03     265.976E-03    -122.989E-03    -143.084E-03    -119.232E-03     242.124E-03    -122.989E-03     188.609E-03     108.765E+06     104.371E+06    -11.4717E+06    -11.2760E+06     107.942E+06     104.998E+06     4.53807E+06         63.4814
            1599     15.0472E-03     101.917E-03         2.01920    -410.614E-03        -1.15781    -410.594E-03         2.01918        -1.15781    -10.2304E-03     260.777E-03    -122.651E-03    -138.273E-03    -121.007E-03     243.786E-03    -122.926E-03     134.290E-03     113.207E+06     104.535E+06     -5.2648E+06    -5.11760E+06     113.060E+06     104.535E+06     2.72732E+06         65.8068
            1600     885.591E-06     102.233E-03         3.62119        -1.22240        -1.90649        -1.22715         3.62085        -1.90139    -49.5982E-03     246.097E-03    -122.511E-03    -123.604E-03    -123.501E-03     246.089E-03    -122.607E-03    -1.27724E-03    -114.456E+06    -118.484E+06    -309.727E+06    -117.794E+06    -309.706E+06    -115.166E+06    -504.516E+03         39.8135
            1601     1.76848E-03     102.227E-03         3.60509        -1.54231        -1.57193        -1.55191         3.60500        -1.56223     5.89236E-03     246.535E-03    -123.090E-03    -123.496E-03    -123.389E-03     246.524E-03    -123.186E-03    -3.84040E-03    -103.778E+06    -113.059E+06    -304.689E+06    -113.063E+06    -304.685E+06    -103.778E+06     577.227E+03         40.0005
            1602     2.65231E-03     102.219E-03         3.56428        -1.51665        -1.55898        -1.52108         3.56411        -1.55437     44.3464E-03     246.501E-03    -123.091E-03    -123.433E-03    -123.183E-03     246.483E-03    -123.323E-03    -5.11581E-03    -87.9816E+06    -106.734E+06    -296.815E+06    -106.736E+06    -296.813E+06    -87.9816E+06    -332.177E+03         40.2946
            1603     3.53757E-03     102.208E-03         3.53062        -1.49999        -1.54358        -1.49978         3.53040        -1.54358    -3.70352E-03     246.154E-03    -122.809E-03    -123.384E-03    -122.793E-03     246.139E-03    -123.384E-03    -4.66277E-03    -71.9480E+06    -99.8479E+06    -281.223E+06    -99.8519E+06    -281.219E+06    -71.9480E+06     135.564E+03         40.7067
            1604     4.42230E-03     102.199E-03         3.47570        -1.45813        -1.53100        -1.45801         3.47559        -1.53100    -9.72194E-03     246.044E-03    -122.762E-03    -123.363E-03    -122.756E-03     246.037E-03    -123.363E-03    -2.75404E-03    -56.7050E+06    -91.8756E+06    -258.586E+06    -91.8885E+06    -258.573E+06    -56.7050E+06     644.588E+03         41.2674
            1605     5.30660E-03     102.195E-03         3.39898        -1.39959        -1.51429        -1.39953         3.39892        -1.51429     5.12194E-03     246.067E-03    -122.723E-03    -123.372E-03    -122.719E-03     246.063E-03    -123.372E-03     664.419E-06    -41.6846E+06    -83.8532E+06    -229.530E+06    -83.8673E+06    -229.516E+06    -41.6846E+06     547.851E+03         42.0189
            1606     6.18912E-03     102.190E-03         3.31394        -1.33637        -1.49354        -1.33625         3.31381        -1.49354     18.5897E-03     245.382E-03    -122.036E-03    -123.387E-03    -122.009E-03     245.355E-03    -123.387E-03     5.58993E-03    -29.0739E+06    -76.4066E+06    -196.824E+06    -76.4459E+06    -196.785E+06    -29.0739E+06     1.02164E+06         42.9768
            1607     7.07593E-03     102.194E-03         3.21645        -1.26228        -1.46922        -1.26217         3.21634        -1.46922     32.7183E-03     244.514E-03    -121.309E-03    -123.323E-03    -121.195E-03     244.400E-03    -123.323E-03     12.2831E-03    -17.8662E+06    -68.2417E+06    -158.706E+06    -68.3401E+06    -158.608E+06    -17.8662E+06     2.17247E+06         44.1600
            1608     7.96072E-03     102.207E-03         3.11357        -1.19084        -1.44196        -1.19082         3.11355        -1.44196     9.60350E-03     244.110E-03    -121.143E-03    -123.200E-03    -120.846E-03     243.813E-03    -123.200E-03     20.3927E-03    -7.50610E+06    -59.8410E+06    -109.852E+06    -60.5661E+06    -109.127E+06    -7.50610E+06     4.28711E+06         45.6195
            1609     8.84549E-03     102.228E-03         3.00014        -1.11317        -1.41239        -1.11316         3.00014        -1.41239     4.22969E-03     243.940E-03    -121.061E-03    -123.082E-03    -120.364E-03     243.243E-03    -123.082E-03     31.1733E-03     3.45006E+06    -29.9284E+06    -67.9882E+06    -54.1926E+06    -43.7240E+06     3.45006E+06     7.16076E+06         47.4304
            1610     9.73233E-03     102.267E-03         2.87541        -1.02237        -1.38014        -1.02236         2.87540        -1.38014     6.09398E-03     244.236E-03    -121.145E-03    -122.995E-03    -119.717E-03     242.808E-03    -122.995E-03     45.0040E-03     45.8470E+06     7.68587E+06    -50.4168E+06    -49.1289E+06     37.7582E+06     14.4868E+06     9.02227E+06         49.6836
            1611     10.6162E-03     102.322E-03         2.74530    -930.418E-03        -1.34512    -930.384E-03         2.74527        -1.34512     17.3527E-03     244.576E-03    -121.453E-03    -123.000E-03    -118.815E-03     241.938E-03    -123.000E-03     61.2423E-03     85.3943E+06     35.3301E+06    -44.5419E+06    -43.7887E+06     84.6410E+06     35.3301E+06     9.71292E+06         52.4035
            1612     11.5021E-03     102.393E-03         2.60993    -836.632E-03        -1.30736    -836.573E-03         2.60987        -1.30736     4.15463E-03     247.042E-03    -122.271E-03    -124.787E-03    -117.590E-03     240.562E-03    -122.987E-03     94.3053E-03     92.4630E+06     66.7017E+06    -37.7212E+06    -37.0083E+06     91.7501E+06     66.7017E+06      9.4833E+06         55.4246
            1613     12.3885E-03     102.537E-03         2.46211    -733.659E-03        -1.26633    -733.618E-03         2.46207        -1.26633     940.487E-06     254.178E-03    -123.015E-03    -131.217E-03    -117.331E-03     240.292E-03    -123.015E-03     141.999E-03     100.647E+06     92.0332E+06    -29.7787E+06    -29.2589E+06     98.5706E+06     93.5893E+06     7.72714E+06         58.3993
            1614     13.2749E-03     102.733E-03         2.29603    -621.593E-03        -1.22219    -621.570E-03         2.29601        -1.22219     6.48692E-03     257.888E-03    -123.047E-03    -134.952E-03    -118.762E-03     241.698E-03    -123.047E-03     155.868E-03     104.548E+06     101.696E+06    -22.6653E+06    -22.4043E+06     102.103E+06     103.880E+06     4.66421E+06         61.0746
            1615     14.1574E-03     102.903E-03         2.12473    -507.215E-03        -1.17494    -507.192E-03         2.12470        -1.17494    -2.86437E-03     267.013E-03    -122.995E-03    -144.122E-03    -120.778E-03     243.668E-03    -122.995E-03     186.948E-03     109.581E+06     102.828E+06    -14.8592E+06    -14.7923E+06     108.887E+06     103.456E+06     2.47593E+06         63.4972
            1616     15.0433E-03     103.192E-03         1.95533    -398.210E-03        -1.12628    -398.202E-03         1.95533        -1.12628    -1.52316E-03     260.365E-03    -121.905E-03    -138.597E-03    -120.669E-03     243.503E-03    -122.971E-03     134.741E-03     115.493E+06     103.430E+06    -6.50160E+06    -6.44277E+06     115.434E+06     103.430E+06     2.18270E+06         65.8206
            1617     884.342E-06     103.510E-03         3.50000        -1.11994        -1.88863        -1.12419         3.49916        -1.88354    -72.0195E-03     246.128E-03    -122.759E-03    -123.381E-03    -123.288E-03     246.122E-03    -122.846E-03    -1.86867E-03    -118.014E+06    -122.227E+06    -309.242E+06    -121.540E+06    -309.219E+06    -118.724E+06    -1.06394E+06         39.8082
            1618     1.76914E-03     103.506E-03         3.49870        -1.49812        -1.51473        -1.50773         3.49860        -1.50503     3.25658E-03     246.426E-03    -123.015E-03    -123.453E-03    -123.267E-03     246.413E-03    -123.189E-03    -4.09521E-03    -106.407E+06    -116.693E+06    -304.125E+06    -116.700E+06    -304.118E+06    -106.407E+06    -340.051E+03         39.9936
            1619     2.65333E-03     103.496E-03         3.47668        -1.48100        -1.50781        -1.48543         3.47651        -1.50320     53.4843E-03     246.494E-03    -123.110E-03    -123.413E-03    -123.200E-03     246.476E-03    -123.306E-03    -5.15794E-03    -90.9484E+06    -110.420E+06    -296.355E+06    -110.424E+06    -296.352E+06    -90.9484E+06    -743.707E+03         40.2911
            1620     3.53700E-03     103.486E-03         3.41995        -1.44340        -1.49436        -1.44326         3.41981        -1.49436     32.6281E-03     246.551E-03    -123.146E-03    -123.462E-03    -123.175E-03     246.537E-03    -123.419E-03    -4.40642E-03    -75.4597E+06    -103.227E+06    -281.635E+06    -103.240E+06    -281.622E+06    -75.4597E+06    -917.131E+03         40.7066
            1621     4.42062E-03     103.478E-03         3.35646        -1.39565        -1.47998        -1.39563         3.35643        -1.47998     7.75002E-03     246.119E-03    -122.775E-03    -123.437E-03    -122.770E-03     246.114E-03    -123.437E-03    -2.32096E-03    -60.3532E+06    -94.9077E+06    -258.419E+06    -94.9272E+06    -258.400E+06    -60.3532E+06    -1.20814E+06         41.2649
            1622     5.30555E-03     103.471E-03         3.28590        -1.34485        -1.46207        -1.34469         3.28574        -1.46207     34.2254E-03     245.383E-03    -122.031E-03    -123.379E-03    -122.027E-03     245.379E-03    -123.379E-03     980.093E-06    -46.5108E+06    -86.0828E+06    -229.978E+06    -86.1411E+06    -229.919E+06    -46.5108E+06    -1.73173E+06         42.0123
            1623     6.19234E-03     103.471E-03         3.21971        -1.30334        -1.44241        -1.30314         3.21952        -1.44241     48.8544E-03     245.068E-03    -121.786E-03    -123.325E-03    -121.756E-03     245.039E-03    -123.325E-03     5.92275E-03    -32.8580E+06    -76.8906E+06    -197.934E+06    -76.9500E+06    -197.874E+06    -32.8580E+06    -1.62000E+06         42.9720
            1624     7.07517E-03     103.473E-03         3.12991        -1.23597        -1.42067        -1.23589         3.12984        -1.42067     23.0036E-03     244.812E-03    -121.676E-03    -123.279E-03    -121.561E-03     244.697E-03    -123.279E-03     12.4309E-03    -21.3268E+06    -68.9431E+06    -161.338E+06    -68.9890E+06    -161.292E+06    -21.3268E+06     20.0974E+03         44.1591
            1625     7.96136E-03     103.488E-03         3.01510        -1.14943        -1.39485        -1.14937         3.01504        -1.39485     15.9450E-03     244.138E-03    -121.217E-03    -123.186E-03    -120.936E-03     243.857E-03    -123.186E-03     19.8647E-03    -11.3962E+06    -61.8472E+06    -114.316E+06    -62.1548E+06    -114.009E+06    -11.3962E+06     2.76587E+06         45.6195
            1626     8.84664E-03     103.508E-03         2.90686        -1.07500        -1.36558        -1.07496         2.90681        -1.36558     21.0416E-03     243.904E-03    -121.056E-03    -123.064E-03    -120.374E-03     243.222E-03    -123.064E-03     30.7143E-03    -560.601E+03    -34.9385E+06    -71.0431E+06    -55.2288E+06    -50.7528E+06    -560.601E+03     6.60916E+06         47.4314
            1627     9.72955E-03     103.547E-03         2.79131    -991.413E-03        -1.33376    -991.364E-03         2.79126        -1.33376     23.1959E-03     244.048E-03    -120.998E-03    -122.964E-03    -119.563E-03     242.613E-03    -122.964E-03     45.0825E-03     43.9032E+06     2.18407E+06    -51.1598E+06    -49.5257E+06     33.7773E+06     10.6759E+06     10.2457E+06         49.6876
            1628     10.6169E-03     103.594E-03         2.65944    -896.069E-03        -1.29896    -896.002E-03         2.65937        -1.29896     28.4558E-03     244.703E-03    -121.624E-03    -122.927E-03    -118.979E-03     242.057E-03    -122.927E-03     61.3788E-03     85.3635E+06     30.9735E+06    -45.7601E+06    -44.8269E+06     84.4303E+06     30.9735E+06     10.6021E+06         52.4106
            1629     11.5019E-03     103.669E-03         2.52423    -808.193E-03        -1.26090    -808.127E-03         2.52417        -1.26090     26.6020E-03     247.386E-03    -122.645E-03    -124.708E-03    -118.165E-03     241.136E-03    -122.939E-03     92.9574E-03     93.0279E+06     62.9305E+06    -38.8656E+06    -38.1923E+06     92.3546E+06     62.9305E+06     9.26037E+06         55.4315
            1630     12.3867E-03     103.802E-03         2.38069    -713.791E-03        -1.21901    -713.719E-03         2.38062        -1.21901     27.1678E-03     253.628E-03    -123.036E-03    -130.609E-03    -117.129E-03     240.148E-03    -123.036E-03     139.573E-03     100.362E+06     91.0022E+06    -31.3800E+06    -30.7654E+06     99.3222E+06     91.4271E+06     8.91874E+06         58.3965
            1631     13.2751E-03     104.003E-03         2.21658    -600.706E-03        -1.17326    -600.621E-03         2.21650        -1.17326     28.0974E-03     257.147E-03    -123.064E-03    -134.222E-03    -118.050E-03     240.976E-03    -123.064E-03     155.566E-03     107.535E+06     104.494E+06    -23.7757E+06    -23.3221E+06     106.657E+06     104.919E+06     6.83173E+06         61.0610
            1632     14.1603E-03     104.188E-03         2.05042    -494.343E-03        -1.12425    -494.288E-03         2.05036        -1.12425     19.1780E-03     266.942E-03    -122.982E-03    -144.013E-03    -120.777E-03     243.706E-03    -122.982E-03     186.842E-03     113.129E+06     105.852E+06    -15.9298E+06    -15.7797E+06     112.979E+06     105.852E+06     2.12983E+06         63.4861
            1633     15.0438E-03     104.466E-03         1.89337    -395.291E-03        -1.07500    -395.267E-03         1.89335        -1.07500    -536.144E-06     260.557E-03    -121.905E-03    -138.634E-03    -120.912E-03     243.887E-03    -122.957E-03     135.243E-03     115.741E+06     104.224E+06    -8.02107E+06    -7.99142E+06     115.711E+06     104.224E+06    -3.38382E+03         65.8162
            1634     883.841E-06     104.789E-03         3.36159        -1.03095        -1.84156        -1.02895         3.35959        -1.84156    -108.309E-03     246.839E-03    -122.861E-03    -123.981E-03    -123.651E-03     246.834E-03    -123.185E-03    -1.51024E-03    -120.341E+06    -125.398E+06    -307.780E+06    -124.312E+06    -307.771E+06    -121.436E+06    -523.292E+03         39.8061
            1635     1.76798E-03     104.783E-03         3.32719        -1.41690        -1.43213        -1.41679         3.32709        -1.43213     30.0614E-03     246.112E-03    -122.763E-03    -123.374E-03    -122.750E-03     246.099E-03    -123.374E-03    -4.32996E-03    -110.148E+06    -121.278E+06    -303.560E+06    -121.291E+06    -303.547E+06    -110.148E+06    -739.338E+03         39.9826
            1636     2.65292E-03     104.775E-03         3.29865        -1.39620        -1.42420        -1.39615         3.29860        -1.42420     29.5959E-03     246.187E-03    -122.883E-03    -123.320E-03    -122.910E-03     246.171E-03    -123.277E-03    -4.76600E-03    -94.7638E+06    -114.202E+06    -294.362E+06    -114.229E+06    -294.335E+06    -94.7638E+06    -1.79675E+06         40.2795
            1637     3.53713E-03     104.765E-03         3.24894        -1.35585        -1.41304        -1.35582         3.24891        -1.41304     19.0543E-03     246.335E-03    -123.003E-03    -123.385E-03    -123.037E-03     246.325E-03    -123.341E-03    -3.66285E-03    -79.7001E+06    -105.963E+06    -280.498E+06    -106.015E+06    -280.446E+06    -79.7001E+06    -2.77969E+06         40.6977
            1638     4.42189E-03     104.756E-03         3.19244        -1.31306        -1.39804        -1.31304         3.19242        -1.39804     9.54055E-03     245.927E-03    -122.652E-03    -123.352E-03    -122.649E-03     245.924E-03    -123.352E-03    -1.61959E-03    -65.5089E+06    -97.7055E+06    -256.501E+06    -97.8348E+06    -256.372E+06    -65.5089E+06    -3.89157E+06         41.2572
            1639     5.30638E-03     104.748E-03         3.14226        -1.28249        -1.38172        -1.28232         3.14208        -1.38172     39.8019E-03     245.450E-03    -122.155E-03    -123.308E-03    -122.153E-03     245.448E-03    -123.308E-03     957.998E-06    -51.8165E+06    -88.3830E+06    -228.086E+06    -88.6487E+06    -227.820E+06    -51.8165E+06    -5.53816E+06         42.0068
            1640     6.19071E-03     104.746E-03         3.07319        -1.23832        -1.36450        -1.23805         3.07292        -1.36450     61.6946E-03     245.134E-03    -121.904E-03    -123.285E-03    -121.879E-03     245.108E-03    -123.285E-03     5.37280E-03    -38.0550E+06    -79.1612E+06    -199.169E+06    -79.4521E+06    -198.879E+06    -38.0550E+06    -5.45500E+06         42.9707
            1641     7.07695E-03     104.752E-03         2.98209        -1.17319        -1.34437        -1.17305         2.98195        -1.34437     31.5952E-03     245.104E-03    -121.913E-03    -123.273E-03    -121.811E-03     245.001E-03    -123.273E-03     11.7609E-03    -26.0046E+06    -71.0474E+06    -164.895E+06    -71.1953E+06    -164.747E+06    -26.0046E+06    -2.98059E+06         44.1622
            1642     7.95949E-03     104.763E-03         2.88152        -1.09823        -1.32041        -1.09801         2.88129        -1.32041     40.4907E-03     244.428E-03    -121.425E-03    -123.217E-03    -121.152E-03     244.155E-03    -123.217E-03     19.4689E-03    -16.0383E+06    -63.1929E+06    -119.849E+06    -63.3489E+06    -119.693E+06    -16.0383E+06     234.565E+03         45.6236
            1643     8.84487E-03     104.784E-03         2.77322        -1.01998        -1.29288        -1.01976         2.77299        -1.29288     52.1288E-03     243.665E-03    -120.848E-03    -123.087E-03    -120.162E-03     242.979E-03    -123.087E-03     30.7971E-03    -5.89240E+06    -40.8698E+06    -75.2262E+06    -56.8305E+06    -59.2654E+06    -5.89240E+06     4.97193E+06         47.4348
            1644     9.73280E-03     104.818E-03         2.66369    -942.520E-03        -1.26234    -942.326E-03         2.66350        -1.26234     47.2658E-03     244.031E-03    -121.034E-03    -122.946E-03    -119.606E-03     242.602E-03    -122.946E-03     44.9869E-03     40.3627E+06    -6.88711E+06    -53.0182E+06    -51.3153E+06     27.6520E+06     4.12080E+06     10.0464E+06         49.6899
            1645     10.6170E-03     104.867E-03         2.54518    -861.633E-03        -1.22909    -861.464E-03         2.54502        -1.22909     40.0629E-03     244.716E-03    -121.686E-03    -122.901E-03    -119.021E-03     242.052E-03    -122.901E-03     61.5413E-03     85.7439E+06     26.3012E+06    -46.0984E+06    -45.0110E+06     84.6565E+06     26.3012E+06     11.5558E+06         52.4119
            1646     11.5020E-03     104.941E-03         2.40259    -764.544E-03        -1.19200    -764.462E-03         2.40251        -1.19200     29.2308E-03     247.337E-03    -122.522E-03    -124.804E-03    -118.151E-03     241.099E-03    -122.938E-03     93.0052E-03     93.3484E+06     61.4752E+06    -39.4299E+06    -38.5659E+06     92.4844E+06     61.4752E+06     10.4578E+06         55.4380
            1647     12.3855E-03     105.078E-03         2.24970    -658.337E-03        -1.14931    -658.235E-03         2.24960        -1.14931     32.1840E-03     254.636E-03    -123.091E-03    -131.588E-03    -117.965E-03     241.014E-03    -123.091E-03     140.537E-03     101.291E+06     91.7712E+06    -31.8801E+06    -31.2081E+06     100.489E+06     91.9006E+06     9.41030E+06         58.4040
            1648     13.2707E-03     105.279E-03         2.10986    -569.791E-03        -1.10257    -569.705E-03         2.10977        -1.10257     27.6277E-03     257.259E-03    -123.134E-03    -134.302E-03    -117.864E-03     240.821E-03    -123.134E-03     156.842E-03     111.808E+06     107.854E+06    -21.6850E+06    -21.2536E+06     111.247E+06     107.983E+06     7.06092E+06         61.0522
            1649     14.1600E-03     105.465E-03         1.97039    -486.633E-03        -1.05365    -486.576E-03         1.97033        -1.05365     19.5357E-03     265.716E-03    -122.978E-03    -142.764E-03    -119.423E-03     242.375E-03    -122.978E-03     186.752E-03     118.760E+06     110.244E+06    -12.6609E+06    -12.4675E+06     118.567E+06     110.244E+06     3.13442E+06         63.4638
            1650     15.0461E-03     105.750E-03         1.82450    -387.571E-03        -1.00535    -387.526E-03         1.82446        -1.00535     4.32932E-03     260.519E-03    -122.241E-03    -138.167E-03    -120.871E-03     243.901E-03    -122.920E-03     133.792E-03     117.714E+06     108.120E+06    -5.71561E+06    -5.64258E+06     117.641E+06     108.120E+06     137.525E+03         65.7957
            1651     883.296E-06     106.068E-03         3.13132    -946.873E-03        -1.71270    -951.364E-03         3.12984        -1.70673    -75.6647E-03     246.599E-03    -122.647E-03    -123.965E-03    -123.462E-03     246.595E-03    -123.146E-03    -2.06925E-03    -123.762E+06    -128.816E+06    -308.702E+06    -127.729E+06    -308.693E+06    -124.857E+06     587.747E+03         39.7977
            1652     1.76852E-03     106.062E-03         3.11244        -1.30835        -1.33270        -1.31424         3.11235        -1.32673     28.7772E-03     246.235E-03    -122.877E-03    -123.395E-03    -122.947E-03     246.225E-03    -123.314E-03    -3.79995E-03    -113.167E+06    -123.664E+06    -299.866E+06    -123.715E+06    -299.815E+06    -113.167E+06    -1.17088E+06         39.9734
            1653     2.65325E-03     106.053E-03         3.05971        -1.27066        -1.31669        -1.27048         3.05953        -1.31669     40.7098E-03     246.162E-03    -122.851E-03    -123.333E-03    -122.893E-03     246.147E-03    -123.276E-03    -4.69013E-03    -98.3142E+06    -116.735E+06    -290.762E+06    -116.857E+06    -290.640E+06    -98.3142E+06    -4.29537E+06         40.2675
            1654     3.53807E-03     106.045E-03         3.02373        -1.24615        -1.30278        -1.24597         3.02355        -1.30278     39.1578E-03     245.943E-03    -122.702E-03    -123.293E-03    -122.687E-03     245.928E-03    -123.293E-03    -4.49995E-03    -83.0897E+06    -108.265E+06    -277.259E+06    -108.543E+06    -276.981E+06    -83.0897E+06    -6.09630E+06         40.6814
            1655     4.42224E-03     106.034E-03         2.99537        -1.23018        -1.29050        -1.23006         2.99525        -1.29050     32.1145E-03     245.560E-03    -122.419E-03    -123.224E-03    -122.413E-03     245.554E-03    -123.224E-03    -2.45425E-03    -69.7854E+06    -98.6927E+06    -251.934E+06    -99.2412E+06    -251.385E+06    -69.7854E+06    -8.45634E+06         41.2412
            1656     5.30693E-03     106.027E-03         2.94025        -1.19464        -1.27810        -1.19449         2.94010        -1.27810     45.9334E-03     245.695E-03    -122.516E-03    -123.204E-03    -122.511E-03     245.691E-03    -123.204E-03     1.28486E-03    -56.1583E+06    -89.5137E+06    -226.485E+06    -90.2115E+06    -225.787E+06    -56.1583E+06    -9.53366E+06         41.9981
            1657     6.19077E-03     106.024E-03         2.85920        -1.13483        -1.26217        -1.13462         2.85900        -1.26217     54.9972E-03     245.649E-03    -122.441E-03    -123.263E-03    -122.411E-03     245.619E-03    -123.263E-03     6.05766E-03    -42.7016E+06    -81.0299E+06    -199.453E+06    -81.7292E+06    -198.754E+06    -42.7016E+06    -8.93713E+06         42.9703
            1658     7.07434E-03     106.029E-03         2.78247        -1.07835        -1.24234        -1.07816         2.78229        -1.24234     41.1719E-03     244.849E-03    -121.679E-03    -123.277E-03    -121.565E-03     244.735E-03    -123.277E-03     12.3588E-03    -31.5904E+06    -72.6409E+06    -168.509E+06    -73.2547E+06    -167.895E+06    -31.5904E+06    -7.22041E+06         44.1640
            1659     7.96089E-03     106.043E-03         2.70470        -1.02680        -1.22022        -1.02656         2.70446        -1.22022     44.3249E-03     244.415E-03    -121.388E-03    -123.212E-03    -121.100E-03     244.126E-03    -123.212E-03     20.0922E-03    -22.3640E+06    -65.2808E+06    -125.953E+06    -65.5655E+06    -125.669E+06    -22.3640E+06    -3.46080E+06         45.6221
            1660     8.84624E-03     106.059E-03         2.60939    -956.874E-03        -1.19566    -956.593E-03         2.60911        -1.19566     60.3801E-03     244.352E-03    -121.445E-03    -123.111E-03    -120.769E-03     243.676E-03    -123.111E-03     30.7184E-03    -11.5183E+06    -48.8698E+06    -78.2598E+06    -58.1183E+06    -69.0114E+06    -11.5183E+06     2.50423E+06         47.4297
            1661     9.72950E-03     106.095E-03         2.50095    -878.768E-03        -1.16768    -878.478E-03         2.50066        -1.16768     60.0527E-03     244.260E-03    -121.214E-03    -122.986E-03    -119.807E-03     242.853E-03    -122.986E-03     44.6428E-03     36.5614E+06    -16.8578E+06    -53.4111E+06    -51.9294E+06     19.7010E+06    -1.47909E+06     8.52210E+06         49.6794
            1662     10.6158E-03     106.143E-03         2.38541    -802.025E-03        -1.13631    -801.710E-03         2.38510        -1.13631     59.7332E-03     244.167E-03    -121.126E-03    -122.949E-03    -118.490E-03     241.531E-03    -122.949E-03     61.1274E-03     84.0065E+06     20.7908E+06    -47.8905E+06    -46.7489E+06     82.8649E+06     20.7908E+06     12.0902E+06         52.3986
            1663     11.5026E-03     106.218E-03         2.25819    -717.682E-03        -1.10075    -717.538E-03         2.25804        -1.10075     37.7042E-03     246.603E-03    -122.027E-03    -124.666E-03    -117.512E-03     240.370E-03    -122.947E-03     92.7321E-03     94.0298E+06     57.9306E+06     -41.393E+06    -40.3108E+06     92.9476E+06     57.9306E+06     11.9748E+06         55.4316
            1664     12.3884E-03     106.356E-03         2.11886    -624.513E-03        -1.05945    -624.360E-03         2.11871        -1.05945     34.5508E-03     254.510E-03    -123.063E-03    -131.546E-03    -117.842E-03     240.806E-03    -123.063E-03     140.916E-03     104.169E+06     91.6126E+06    -32.0921E+06    -31.4843E+06     103.561E+06     91.6126E+06     8.45175E+06         58.4063
            1665     13.2740E-03     106.563E-03         1.98557    -539.414E-03        -1.01413    -539.195E-03         1.98535        -1.01413     39.5248E-03     257.729E-03    -123.120E-03    -134.714E-03    -118.171E-03     241.186E-03    -123.120E-03     157.503E-03     113.794E+06     109.404E+06    -22.1997E+06    -21.9757E+06     113.570E+06     109.404E+06     4.77308E+06         61.0502
            1666     14.1587E-03     106.739E-03         1.85393    -456.692E-03    -966.353E-03    -456.552E-03         1.85378    -966.353E-03     13.8956E-03     266.383E-03    -122.969E-03    -143.399E-03    -119.543E-03     242.527E-03    -122.969E-03     188.795E-03     122.576E+06     112.783E+06    -12.6992E+06    -12.6046E+06     122.482E+06     112.783E+06     2.85064E+06         63.4466
            1667     15.0455E-03     107.029E-03         1.72273    -372.488E-03    -919.578E-03    -372.425E-03         1.72267    -919.578E-03     4.85602E-03     260.418E-03    -121.825E-03    -138.501E-03    -120.404E-03     243.396E-03    -122.901E-03     134.292E-03     120.842E+06     110.869E+06    -5.46705E+06    -5.39315E+06     120.768E+06     110.869E+06     1.37297E+06         65.7709
            1668     885.648E-06     107.345E-03         2.83381    -817.108E-03        -1.55398    -822.520E-03         2.83326        -1.54801    -48.6171E-03     246.246E-03    -122.698E-03    -123.562E-03    -123.293E-03     246.239E-03    -122.960E-03    -2.27691E-03    -128.171E+06    -131.049E+06    -309.147E+06    -131.100E+06    -309.095E+06    -128.171E+06    -1.40457E+06         39.7844
            1669     1.76897E-03     107.339E-03         2.80968        -1.15992        -1.18808        -1.16586         2.80965        -1.18211     18.1934E-03     246.501E-03    -123.135E-03    -123.417E-03    -123.322E-03     246.487E-03    -123.215E-03    -4.44506E-03    -118.381E+06    -125.227E+06    -294.335E+06    -125.323E+06    -294.239E+06    -118.381E+06    -3.08347E+06         39.9642
            1670     2.65228E-03     107.333E-03         2.78377        -1.14378        -1.17636        -1.14562         2.78352        -1.17426     51.6128E-03     246.162E-03    -122.872E-03    -123.340E-03    -122.913E-03     246.146E-03    -123.283E-03    -4.80488E-03    -103.686E+06    -119.194E+06    -284.032E+06    -119.493E+06    -283.734E+06    -103.686E+06    -6.52543E+06         40.2569
            1671     3.53643E-03     107.322E-03         2.76814        -1.13584        -1.16900        -1.13761         2.76782        -1.16691     65.7016E-03     245.731E-03    -122.546E-03    -123.282E-03    -122.533E-03     245.718E-03    -123.282E-03    -4.15666E-03    -87.3764E+06    -110.270E+06    -271.252E+06    -111.025E+06    -270.497E+06    -87.3764E+06    -10.4416E+06         40.6674
            1672     4.42199E-03     107.313E-03         2.73750        -1.11589        -1.15984        -1.11572         2.73733        -1.15984     47.0636E-03     245.481E-03    -122.424E-03    -123.181E-03    -122.419E-03     245.476E-03    -123.181E-03    -2.37161E-03    -75.0120E+06    -101.043E+06    -245.972E+06    -102.272E+06    -244.744E+06    -75.0120E+06    -13.0330E+06         41.2293
            1673     5.30713E-03     107.306E-03         2.68172        -1.07424        -1.14981        -1.07404         2.68153        -1.14981     51.1231E-03     245.469E-03    -122.326E-03    -123.136E-03    -122.320E-03     245.463E-03    -123.136E-03     1.22552E-03    -62.2360E+06    -92.4544E+06    -224.464E+06    -94.0280E+06    -222.891E+06    -62.2360E+06    -13.9466E+06         41.9893
            1674     6.19164E-03     107.305E-03         2.62156        -1.02802        -1.13597        -1.02773         2.62127        -1.13597     62.9220E-03     245.424E-03    -122.258E-03    -123.180E-03    -122.229E-03     245.395E-03    -123.180E-03     6.13007E-03    -49.3018E+06    -83.4847E+06    -199.453E+06    -85.2794E+06    -197.658E+06    -49.3018E+06    -13.8036E+06         42.9648
            1675     7.07622E-03     107.306E-03         2.55467    -976.867E-03        -1.11888    -976.566E-03         2.55437        -1.11888     51.0464E-03     245.047E-03    -121.953E-03    -123.213E-03    -121.845E-03     244.939E-03    -123.213E-03     11.9835E-03    -38.1436E+06    -74.3655E+06    -171.658E+06    -76.1249E+06    -169.898E+06    -38.1436E+06    -12.5813E+06         44.1614
            1676     7.96094E-03     107.319E-03         2.48129    -923.981E-03        -1.09896    -923.569E-03         2.48088        -1.09896     56.1827E-03     244.658E-03    -121.652E-03    -123.192E-03    -121.370E-03     244.375E-03    -123.192E-03     19.8344E-03    -29.4151E+06    -66.2851E+06    -133.483E+06    -67.5756E+06    -132.192E+06    -29.4151E+06    -8.66200E+06         45.6150
            1677     8.84447E-03     107.341E-03         2.40212    -872.231E-03        -1.07675    -871.784E-03         2.40167        -1.07675     71.2771E-03     244.544E-03    -121.619E-03    -123.118E-03    -120.943E-03     243.868E-03    -123.118E-03     30.7135E-03    -18.9023E+06    -56.5431E+06    -83.1787E+06    -59.7300E+06    -79.9919E+06    -18.9023E+06    -2.20290E+06         47.4137
            1678     9.73002E-03     107.372E-03         2.30310    -801.726E-03        -1.05169    -801.380E-03         2.30276        -1.05169     64.1983E-03     244.254E-03    -121.217E-03    -122.993E-03    -119.740E-03     242.777E-03    -122.993E-03     45.5974E-03     27.0628E+06    -26.7219E+06    -52.8586E+06    -51.9294E+06     7.22404E+06    -7.81228E+06     6.50689E+06         49.6578
            1679     10.6159E-03     107.423E-03         2.19145    -719.517E-03        -1.02258    -719.123E-03         2.19106        -1.02258     67.6265E-03     244.017E-03    -120.977E-03    -122.942E-03    -118.314E-03     241.354E-03    -122.942E-03     61.6344E-03     80.0215E+06     14.6923E+06    -47.6212E+06    -46.3092E+06     78.7096E+06     14.6923E+06     12.8447E+06         52.3794
            1680     11.5025E-03     107.495E-03         2.08789    -657.869E-03    -989.042E-03    -657.570E-03         2.08759    -989.042E-03     53.9736E-03     246.532E-03    -121.986E-03    -124.657E-03    -117.468E-03     240.290E-03    -122.933E-03     92.5996E-03     98.0308E+06     53.5210E+06    -41.0568E+06    -40.0504E+06     97.0244E+06     53.5210E+06     11.3171E+06         55.4225
            1681     12.3861E-03     107.638E-03         1.98477    -599.403E-03    -950.683E-03    -599.082E-03         1.98445    -950.683E-03     53.9186E-03     253.500E-03    -123.025E-03    -130.561E-03    -116.976E-03     239.914E-03    -123.025E-03     140.064E-03     108.040E+06     91.0952E+06    -32.0224E+06    -31.5716E+06     107.589E+06     91.0952E+06     7.31165E+06         58.4048
            1682     13.2740E-03     107.837E-03         1.86005    -519.833E-03    -908.648E-03    -519.442E-03         1.85966    -908.648E-03     60.9763E-03     257.146E-03    -123.058E-03    -134.103E-03    -117.591E-03     240.633E-03    -123.058E-03     157.160E-03     117.167E+06     111.756E+06    -22.7456E+06    -22.5539E+06     116.975E+06     111.756E+06     4.26127E+06         61.0431
            1683     14.1619E-03     108.021E-03         1.72524    -433.487E-03    -863.569E-03    -433.269E-03         1.72502    -863.569E-03     25.0802E-03     266.569E-03    -122.928E-03    -143.605E-03    -119.864E-03     242.828E-03    -122.928E-03     188.687E-03     123.889E+06     114.498E+06    -14.0806E+06    -14.0040E+06     123.812E+06     114.498E+06     2.33407E+06         63.4280
            1684     15.0469E-03     108.302E-03         1.59707    -356.900E-03    -819.590E-03    -356.786E-03         1.59696    -819.590E-03     11.9470E-03     259.789E-03    -121.435E-03    -138.294E-03    -120.078E-03     242.989E-03    -122.851E-03     133.916E-03     121.850E+06     111.073E+06    -6.85371E+06    -6.79395E+06     121.790E+06     111.073E+06       1.451E+06         65.7469
            1685     883.324E-06     108.624E-03         2.50367    -679.262E-03        -1.35454    -680.659E-03         2.50314        -1.35261    -51.9164E-03     246.520E-03    -122.666E-03    -123.867E-03    -123.749E-03     246.513E-03    -122.778E-03    -2.09137E-03    -130.273E+06    -133.585E+06    -302.841E+06    -132.149E+06    -302.705E+06    -131.846E+06    -4.46452E+06         39.7712
            1686     1.76769E-03     108.617E-03         2.48773        -1.00420        -1.02262        -1.01040         2.48766        -1.01634    -6.02413E-03     246.224E-03    -122.891E-03    -123.367E-03    -122.998E-03     246.210E-03    -123.247E-03    -4.27113E-03    -124.285E+06    -128.125E+06    -287.061E+06    -128.565E+06    -286.621E+06    -124.285E+06    -7.19764E+06         39.9512
            1687     2.65324E-03     108.609E-03         2.48912        -1.00905        -1.02222        -1.01518         2.48883        -1.01578     34.3487E-03     245.705E-03    -122.586E-03    -123.161E-03    -122.572E-03     245.690E-03    -123.161E-03    -4.57274E-03    -110.923E+06    -121.076E+06    -274.595E+06    -121.947E+06    -273.725E+06    -110.923E+06    -10.6476E+06         40.2464
            1688     3.53869E-03     108.600E-03         2.47062    -999.024E-03        -1.01710        -1.00078         2.47029        -1.01501     65.2558E-03     245.690E-03    -122.647E-03    -123.169E-03    -122.654E-03     245.680E-03    -123.152E-03    -3.67975E-03    -93.7862E+06    -113.054E+06    -262.930E+06    -114.464E+06    -261.520E+06    -93.7862E+06    -14.1029E+06         40.6627
            1689     4.42246E-03     108.590E-03         2.42911    -964.019E-03        -1.00969    -963.916E-03         2.42900        -1.00969     35.4846E-03     245.889E-03    -122.827E-03    -123.160E-03    -122.840E-03     245.885E-03    -123.143E-03    -2.07016E-03    -79.9896E+06    -104.512E+06    -239.497E+06    -106.708E+06    -237.300E+06    -79.9896E+06    -16.7290E+06         41.2326
            1690     5.30593E-03     108.584E-03         2.38875    -931.633E-03        -1.00017    -931.370E-03         2.38849        -1.00017     50.2494E-03     245.581E-03    -122.396E-03    -123.133E-03    -122.393E-03     245.577E-03    -123.133E-03     827.392E-06    -67.4761E+06    -95.1768E+06    -219.592E+06    -98.3525E+06    -216.417E+06    -67.4761E+06    -19.2041E+06         41.9908
            1691     6.19137E-03     108.580E-03         2.34545    -902.462E-03    -988.519E-03    -901.974E-03         2.34496    -988.519E-03     77.7369E-03     245.058E-03    -121.891E-03    -123.153E-03    -121.865E-03     245.032E-03    -123.153E-03     5.53375E-03    -55.1986E+06    -84.7877E+06    -198.900E+06    -88.7434E+06    -194.944E+06    -55.1986E+06    -20.5267E+06         42.9547
            1692     7.07599E-03     108.586E-03         2.28697    -859.634E-03    -974.543E-03    -859.223E-03         2.28656    -974.543E-03     71.4625E-03     245.173E-03    -122.060E-03    -123.170E-03    -121.956E-03     245.070E-03    -123.170E-03     11.7654E-03    -44.5024E+06    -75.0643E+06    -175.160E+06    -79.1178E+06    -171.107E+06    -44.5024E+06    -19.3897E+06         44.1462
            1693     7.95870E-03     108.597E-03         2.22125    -812.523E-03    -957.738E-03    -811.886E-03         2.22061    -957.738E-03     84.7850E-03     244.688E-03    -121.702E-03    -123.176E-03    -121.398E-03     244.384E-03    -123.176E-03     20.4091E-03    -35.6416E+06    -66.2637E+06    -141.214E+06    -69.8535E+06    -137.624E+06    -35.6416E+06    -15.6318E+06         45.5995
            1694     8.84555E-03     108.617E-03         2.15096    -763.934E-03    -938.323E-03    -763.196E-03         2.15022    -938.323E-03     91.2742E-03     243.938E-03    -121.065E-03    -123.079E-03    -120.346E-03     243.220E-03    -123.079E-03     31.7384E-03    -25.0877E+06    -57.3272E+06    -93.0202E+06    -60.2964E+06    -90.0509E+06    -25.0877E+06    -9.15462E+06         47.3961
            1695     9.73053E-03     108.651E-03         2.07434    -711.755E-03    -916.287E-03    -711.259E-03         2.07385    -916.287E-03     73.7001E-03     244.045E-03    -121.094E-03    -122.918E-03    -119.599E-03     242.550E-03    -122.918E-03     45.9393E-03     11.7659E+06    -32.3205E+06    -56.5657E+06    -51.1880E+06    -10.6738E+06    -15.2584E+06     1.29411E+06         49.6415
            1696     10.6163E-03     108.701E-03         1.98825    -651.585E-03    -891.187E-03    -651.194E-03         1.98786    -891.187E-03     63.8014E-03     244.298E-03    -121.321E-03    -122.880E-03    -118.612E-03     241.589E-03    -122.880E-03     62.1532E-03     71.5647E+06     7.87551E+06    -43.8471E+06    -42.8174E+06      70.535E+06     7.87551E+06     10.6882E+06         52.3680
            1697     11.5020E-03     108.775E-03         1.89642    -593.796E-03    -861.822E-03    -593.477E-03         1.89610    -861.822E-03     56.0434E-03     246.698E-03    -122.179E-03    -124.582E-03    -117.491E-03     240.324E-03    -122.897E-03     93.6238E-03     104.184E+06     49.5392E+06    -37.5648E+06    -36.5753E+06     103.194E+06     49.5392E+06     11.3398E+06         55.4224
            1698     12.3878E-03     108.915E-03         1.80256    -539.011E-03    -826.885E-03    -538.706E-03         1.80226    -826.885E-03     52.7131E-03     253.597E-03    -123.007E-03    -130.603E-03    -117.072E-03     240.066E-03    -123.007E-03     140.010E-03     112.762E+06     91.2977E+06    -29.6645E+06    -29.2047E+06     112.302E+06     91.2977E+06     7.37347E+06         58.4165
            1699     13.2759E-03     109.115E-03         1.69961    -474.025E-03    -787.944E-03    -473.722E-03         1.69931    -787.944E-03     50.6971E-03     256.907E-03    -123.051E-03    -133.833E-03    -117.420E-03     240.494E-03    -123.051E-03     156.640E-03     120.368E+06     114.161E+06    -20.5007E+06    -20.1676E+06     120.035E+06     114.161E+06     5.56479E+06         61.0425
            1700     14.1606E-03     109.299E-03         1.58807    -409.077E-03    -746.152E-03    -408.884E-03         1.58788    -746.152E-03     36.6179E-03     265.458E-03    -122.904E-03    -142.597E-03    -118.880E-03     241.741E-03    -122.904E-03     188.126E-03     124.994E+06     116.071E+06    -13.4017E+06    -13.1804E+06     124.772E+06     116.071E+06     3.85796E+06         63.4005
            1701     15.0473E-03     109.576E-03         1.47802    -347.968E-03    -706.136E-03    -347.865E-03         1.47792    -706.136E-03     23.4026E-03     258.811E-03    -121.214E-03    -137.580E-03    -119.268E-03     242.043E-03    -122.759E-03     133.826E-03     123.090E+06     112.457E+06    -6.40499E+06    -6.34736E+06     123.032E+06     112.457E+06     1.55346E+06         65.7047
            1702     884.670E-06     109.902E-03         2.14025    -556.902E-03        -1.11509    -580.330E-03         2.13985        -1.09126    -14.4448E-03     245.992E-03    -122.619E-03    -123.387E-03    -123.272E-03     245.988E-03    -122.730E-03    -1.24256E-03    -128.746E+06    -132.945E+06    -289.004E+06    -131.578E+06    -288.698E+06    -130.420E+06    -5.92728E+06         39.7535
            1703     1.76926E-03     109.896E-03         2.17015    -840.961E-03    -871.482E-03    -868.929E-03         2.16995    -843.311E-03     3.73570E-03     245.889E-03    -122.738E-03    -123.172E-03    -122.885E-03     245.877E-03    -123.013E-03    -3.98127E-03    -124.518E+06    -127.155E+06    -275.301E+06    -127.996E+06    -274.359E+06    -124.619E+06    -11.2791E+06         39.9389
            1704     2.65354E-03     109.886E-03         2.14740    -834.600E-03    -853.441E-03    -838.416E-03         2.14687    -849.098E-03     42.0342E-03     245.938E-03    -122.757E-03    -123.220E-03    -122.918E-03     245.921E-03    -123.041E-03    -5.01998E-03    -112.906E+06    -122.403E+06    -264.484E+06    -123.951E+06    -262.936E+06    -112.906E+06    -14.6621E+06         40.2436
            1705     3.53747E-03     109.877E-03         2.11733    -820.603E-03    -845.343E-03    -819.879E-03         2.11661    -845.343E-03     84.6473E-03     245.947E-03    -122.845E-03    -123.227E-03    -122.923E-03     245.935E-03    -123.136E-03    -4.22736E-03    -97.0477E+06    -114.574E+06    -253.442E+06    -117.216E+06    -250.799E+06    -97.0477E+06    -18.2843E+06         40.6662
            1706     4.42178E-03     109.871E-03         2.09228    -804.048E-03    -839.678E-03    -803.686E-03         2.09191    -839.678E-03     55.8682E-03     245.828E-03    -122.734E-03    -123.162E-03    -122.746E-03     245.823E-03    -123.145E-03    -2.04097E-03    -82.4463E+06    -103.437E+06    -231.220E+06    -107.676E+06    -226.982E+06    -82.4463E+06    -22.3387E+06         41.2358
            1707     5.30635E-03     109.864E-03         2.06315    -780.678E-03    -832.631E-03    -780.037E-03         2.06251    -832.631E-03     76.3204E-03     245.722E-03    -122.526E-03    -123.128E-03    -122.523E-03     245.719E-03    -123.128E-03     1.18183E-03    -69.4175E+06    -92.5946E+06    -213.620E+06    -98.1843E+06    -208.030E+06    -69.4175E+06    -25.0887E+06         41.9891
            1708     6.19040E-03     109.858E-03         2.02817    -755.607E-03    -823.678E-03    -754.875E-03         2.02744    -823.678E-03     87.5633E-03     245.187E-03    -122.022E-03    -123.163E-03    -121.990E-03     245.155E-03    -123.163E-03     6.06012E-03    -58.1629E+06    -82.9759E+06    -196.222E+06    -89.6109E+06    -189.587E+06    -58.1629E+06    -26.3873E+06         42.9411
            1709     7.07527E-03     109.866E-03         1.98452    -723.525E-03    -812.474E-03    -723.059E-03         1.98405    -812.474E-03     69.5694E-03     244.483E-03    -121.413E-03    -123.146E-03    -121.291E-03     244.361E-03    -123.146E-03     12.8269E-03    -48.4936E+06    -74.1310E+06    -177.082E+06    -81.4230E+06    -169.790E+06    -48.4936E+06    -26.1698E+06         44.1211
            1710     7.96167E-03     109.878E-03         1.93310    -687.727E-03    -798.962E-03    -686.733E-03         1.93211    -798.962E-03     94.8627E-03     244.088E-03    -121.190E-03    -123.071E-03    -120.872E-03     243.770E-03    -123.071E-03     21.0314E-03    -40.4526E+06    -64.1114E+06    -147.949E+06    -71.9600E+06    -140.101E+06    -40.4526E+06    -23.9847E+06         45.5784
            1711     8.84554E-03     109.897E-03         1.87780    -649.330E-03    -783.152E-03    -648.082E-03         1.87655    -783.152E-03     108.827E-03     243.985E-03    -121.173E-03    -122.962E-03    -120.425E-03     243.237E-03    -122.962E-03     32.3260E-03    -32.0041E+06    -53.4190E+06    -107.226E+06    -61.6892E+06    -98.9556E+06    -32.0041E+06    -18.8178E+06         47.3880
            1712     9.73139E-03     109.932E-03         1.82629    -615.736E-03    -765.171E-03    -614.735E-03         1.82529    -765.171E-03     95.3791E-03     244.084E-03    -121.238E-03    -122.829E-03    -119.725E-03     242.572E-03    -122.829E-03     46.3380E-03    -5.99129E+06    -34.8595E+06    -66.3439E+06    -52.0053E+06    -30.9353E+06    -24.2540E+06     -7.9629E+06         49.6384
            1713     10.6170E-03     109.981E-03         1.77558    -583.574E-03    -745.192E-03    -582.739E-03         1.77474    -745.192E-03     83.1131E-03     244.003E-03    -121.169E-03    -122.769E-03    -118.452E-03     241.286E-03    -122.769E-03     62.1577E-03     56.3607E+06    -4.76485E+06    -43.6650E+06    -43.0130E+06     55.7088E+06    -4.76485E+06     4.83692E+06         52.3611
            1714     11.5039E-03     110.057E-03         1.70212    -537.712E-03    -721.361E-03    -537.087E-03         1.70149    -721.361E-03     69.8895E-03     246.645E-03    -121.917E-03    -124.805E-03    -117.528E-03     240.237E-03    -122.787E-03     93.9373E-03     106.938E+06     40.1081E+06    -35.5556E+06    -34.7944E+06     106.177E+06     40.1081E+06     10.2620E+06         55.4200
            1715     12.3884E-03     110.196E-03         1.60652    -477.055E-03    -690.926E-03    -476.392E-03         1.60586    -690.926E-03     67.5888E-03     254.116E-03    -122.963E-03    -131.207E-03    -117.726E-03     240.636E-03    -122.963E-03     140.035E-03     117.686E+06     89.1715E+06    -28.4509E+06    -27.8506E+06     117.086E+06     89.1715E+06     8.62428E+06         58.4287
            1716     13.2717E-03     110.398E-03         1.51119    -417.298E-03    -655.765E-03    -416.832E-03         1.51072    -655.765E-03     51.9736E-03     256.682E-03    -123.049E-03    -133.655E-03    -117.249E-03     240.275E-03    -123.049E-03     156.563E-03     120.703E+06     113.855E+06    -21.2596E+06    -20.8152E+06     120.259E+06     113.855E+06     7.01780E+06         61.0434
            1717     14.1625E-03     110.572E-03         1.42383    -369.693E-03    -618.059E-03    -369.570E-03         1.42371    -618.059E-03     23.1242E-03     264.356E-03    -122.855E-03    -141.641E-03    -117.445E-03     240.160E-03    -122.855E-03     189.248E-03     127.506E+06     118.192E+06    -13.1095E+06    -12.7753E+06     127.172E+06     118.192E+06     5.66200E+06         63.3584
            1718     15.0515E-03     110.856E-03         1.35017    -334.839E-03    -583.029E-03    -334.791E-03         1.35012    -583.029E-03     1.52233E-03     258.018E-03    -121.054E-03    -137.050E-03    -118.264E-03     240.823E-03    -122.645E-03     135.008E-03     126.903E+06     115.629E+06    -6.04716E+06    -5.90563E+06     126.761E+06     115.629E+06     2.61363E+06         65.6311
            1719     884.876E-06     111.180E-03         1.74371    -401.691E-03    -890.273E-03    -422.699E-03         1.74282    -868.376E-03     62.4296E-03     245.305E-03    -122.484E-03    -122.825E-03    -122.811E-03     245.300E-03    -122.493E-03    -1.62041E-03    -119.205E+06    -124.521E+06    -272.007E+06    -124.027E+06    -271.616E+06    -120.089E+06    -6.52727E+06         39.7385
            1720     1.76927E-03     111.175E-03         1.77276    -637.281E-03    -684.516E-03    -669.731E-03         1.77191    -651.220E-03     57.8593E-03     245.887E-03    -122.799E-03    -123.105E-03    -123.084E-03     245.875E-03    -122.807E-03    -4.08611E-03    -112.703E+06    -120.000E+06    -261.114E+06    -120.899E+06    -260.115E+06    -112.804E+06    -11.6789E+06         39.9295
            1721     2.65325E-03     111.166E-03         1.76596    -645.237E-03    -668.443E-03    -656.029E-03         1.76530    -656.992E-03     55.6998E-03     246.349E-03    -123.022E-03    -123.393E-03    -123.380E-03     246.335E-03    -123.022E-03    -4.40162E-03    -102.561E+06    -115.046E+06    -252.980E+06    -116.758E+06    -251.268E+06    -102.561E+06    -15.1262E+06         40.2386
            1722     3.53700E-03     111.158E-03         1.74632    -638.863E-03    -655.990E-03    -637.927E-03         1.74533    -655.937E-03     95.5109E-03     245.998E-03    -122.845E-03    -123.285E-03    -122.964E-03     245.989E-03    -123.157E-03    -3.59247E-03    -92.4905E+06    -107.322E+06    -238.340E+06    -111.263E+06    -234.399E+06    -92.4905E+06    -21.4797E+06         40.6638
            1723     4.42186E-03     111.148E-03         1.73148    -633.703E-03    -652.960E-03    -633.238E-03         1.73102    -652.960E-03     63.2465E-03     245.391E-03    -122.356E-03    -123.117E-03    -122.354E-03     245.388E-03    -123.117E-03    -1.38835E-03    -82.9657E+06    -98.2552E+06    -221.141E+06    -105.080E+06    -214.316E+06    -82.9657E+06    -27.9076E+06         41.2279
            1724     5.30670E-03     111.142E-03         1.71259    -617.808E-03    -649.287E-03    -616.773E-03         1.71155    -649.287E-03     87.0132E-03     245.308E-03    -122.228E-03    -123.048E-03    -122.222E-03     245.302E-03    -123.048E-03     2.07206E-03    -70.7292E+06    -89.2329E+06    -207.727E+06    -97.6939E+06    -199.266E+06    -70.7292E+06    -30.2979E+06         41.9736
            1725     6.19111E-03     111.137E-03         1.69363    -601.691E-03    -643.825E-03    -599.875E-03         1.69181    -643.825E-03     120.181E-03     245.128E-03    -122.043E-03    -123.078E-03    -122.007E-03     245.092E-03    -123.078E-03     6.70540E-03    -59.1111E+06    -80.4694E+06    -191.967E+06    -90.2499E+06    -182.186E+06    -59.1111E+06    -31.3177E+06         42.9238
            1726     7.07600E-03     111.141E-03         1.66977    -580.551E-03    -636.436E-03    -579.330E-03         1.66855    -636.436E-03     93.6829E-03     244.301E-03    -121.302E-03    -123.074E-03    -121.180E-03     244.179E-03    -123.074E-03     12.8646E-03    -49.5227E+06    -69.9713E+06    -176.212E+06    -81.5211E+06    -164.662E+06    -49.5227E+06    -32.8121E+06         44.1036
            1727     7.96129E-03     111.154E-03         1.63710    -555.899E-03    -627.029E-03    -554.405E-03         1.63561    -627.029E-03     108.113E-03     243.779E-03    -120.950E-03    -122.948E-03    -120.633E-03     243.461E-03    -122.948E-03     21.0167E-03    -43.4627E+06    -59.2264E+06      -152.9E+06    -72.6489E+06    -139.477E+06    -43.4627E+06    -32.4960E+06         45.5675
            1728     8.84744E-03     111.176E-03         1.60226    -535.668E-03    -615.798E-03    -533.975E-03         1.60057    -615.798E-03     117.180E-03     244.154E-03    -121.354E-03    -122.844E-03    -120.610E-03     243.409E-03    -122.844E-03     32.2760E-03    -37.6035E+06    -48.5715E+06    -120.311E+06    -64.0699E+06    -104.813E+06    -37.6035E+06    -29.0701E+06         47.3893
            1729     9.73170E-03     111.210E-03         1.56226    -513.380E-03    -602.810E-03    -511.730E-03         1.56061    -602.810E-03     112.638E-03     244.360E-03    -121.535E-03    -122.780E-03    -120.044E-03     242.869E-03    -122.780E-03     46.0523E-03    -21.5887E+06    -36.1248E+06    -78.5712E+06    -54.4888E+06    -50.0886E+06    -31.7074E+06    -19.1768E+06         49.6420
            1730     10.6178E-03     111.263E-03         1.51977    -488.529E-03    -587.694E-03    -486.819E-03         1.51806    -587.694E-03     113.891E-03     243.674E-03    -120.946E-03    -122.676E-03    -118.363E-03     241.092E-03    -122.676E-03     60.6453E-03     38.8948E+06    -17.8096E+06    -48.0145E+06    -45.2448E+06     36.1251E+06    -17.8096E+06    -4.35613E+06         52.3592
            1731     11.5047E-03     111.334E-03         1.47134    -459.271E-03    -568.521E-03    -458.109E-03         1.47018    -568.521E-03     93.9922E-03     246.346E-03    -121.573E-03    -124.842E-03    -117.206E-03     239.796E-03    -122.658E-03     94.2430E-03     99.5009E+06     24.0445E+06    -37.2991E+06    -36.7765E+06     98.9783E+06     24.0445E+06     6.52786E+06         55.4141
            1732     12.3882E-03     111.480E-03         1.41101    -421.999E-03    -542.946E-03    -420.639E-03         1.40965    -542.946E-03     98.6917E-03     253.655E-03    -122.829E-03    -130.920E-03    -117.117E-03     239.853E-03    -122.829E-03     141.683E-03     117.493E+06     80.2575E+06    -29.7415E+06    -28.9939E+06     116.745E+06     80.2575E+06     10.3706E+06         58.4191
            1733     13.2775E-03     111.672E-03         1.34515    -386.840E-03    -513.544E-03    -385.752E-03         1.34406    -513.544E-03     79.6158E-03     256.049E-03    -122.899E-03    -133.233E-03    -116.664E-03     239.480E-03    -122.899E-03     157.085E-03     124.712E+06     113.778E+06    -21.7428E+06    -21.1635E+06     124.133E+06     113.778E+06     8.79989E+06         61.0159
            1734     14.1636E-03     111.847E-03         1.27832    -354.076E-03    -482.183E-03    -353.597E-03         1.27784    -482.183E-03     41.4217E-03     263.911E-03    -122.726E-03    -141.315E-03    -117.047E-03     239.643E-03    -122.726E-03     189.421E-03     130.715E+06     121.363E+06    -13.4864E+06    -13.1607E+06     130.389E+06     121.363E+06     6.07801E+06         63.2930
            1735     15.0535E-03     112.125E-03         1.21676    -328.050E-03    -453.428E-03    -327.706E-03         1.21642    -453.428E-03     23.9508E-03     256.788E-03    -120.221E-03    -136.681E-03    -117.158E-03     239.563E-03    -122.518E-03     135.555E-03     130.402E+06     118.934E+06    -5.96568E+06    -5.77732E+06     130.214E+06     118.934E+06     3.73562E+06         65.5325
            1736     884.665E-06     112.457E-03         1.34390    -238.396E-03    -677.420E-03    -234.070E-03         1.33958    -677.420E-03     30.8003E-03     245.238E-03    -122.287E-03    -122.955E-03    -122.942E-03     245.233E-03    -122.296E-03    -1.26123E-03    -111.692E+06    -115.859E+06    -255.818E+06    -115.417E+06    -255.478E+06    -112.475E+06    -6.16355E+06         39.7379
            1737     1.76976E-03     112.451E-03         1.33767    -430.144E-03    -464.680E-03    -439.758E-03         1.33589    -453.281E-03     77.6850E-03     245.807E-03    -122.759E-03    -123.063E-03    -123.029E-03     245.797E-03    -122.783E-03    -3.75204E-03    -101.688E+06    -110.093E+06    -246.095E+06    -111.182E+06    -245.006E+06    -101.688E+06    -11.7223E+06         39.9190
            1738     2.65378E-03     112.445E-03         1.36544    -451.453E-03    -466.774E-03    -464.855E-03         1.36511    -453.040E-03     26.3782E-03     245.813E-03    -122.755E-03    -123.130E-03    -122.935E-03     245.801E-03    -122.938E-03    -4.15532E-03    -91.8754E+06    -102.266E+06    -238.815E+06    -104.677E+06    -236.404E+06    -91.8754E+06    -17.4257E+06         40.2183
            1739     3.53804E-03     112.436E-03         1.35995    -453.174E-03    -458.443E-03    -453.957E-03         1.35840    -456.108E-03     81.9603E-03     245.542E-03    -122.611E-03    -123.032E-03    -122.658E-03     245.535E-03    -122.977E-03    -3.13158E-03    -82.6254E+06    -93.0407E+06    -219.787E+06    -98.0149E+06    -214.813E+06    -82.6254E+06    -23.8819E+06         40.6452
            1740     4.42242E-03     112.427E-03         1.35293    -448.824E-03    -458.652E-03    -449.488E-03         1.35141    -456.473E-03     83.2006E-03     245.276E-03    -122.371E-03    -122.957E-03    -122.370E-03     245.274E-03    -122.957E-03    -801.243E-06    -72.1745E+06    -86.5911E+06    -207.940E+06    -93.8507E+06    -200.680E+06    -72.1745E+06    -28.6698E+06         41.2119
            1741     5.30746E-03     112.420E-03         1.34847    -441.784E-03    -457.922E-03    -442.577E-03         1.34708    -455.743E-03     89.0000E-03     244.867E-03    -121.944E-03    -122.911E-03    -121.937E-03     244.860E-03    -122.911E-03     2.60945E-03    -63.3493E+06    -80.7701E+06    -198.755E+06    -90.3635E+06    -189.162E+06    -63.3493E+06    -31.8824E+06         41.9501
            1742     6.19285E-03     112.415E-03         1.33817    -433.144E-03    -453.405E-03    -430.521E-03         1.33555    -453.405E-03     135.562E-03     244.696E-03    -121.783E-03    -122.902E-03    -121.744E-03     244.657E-03    -122.902E-03     7.17253E-03    -55.1839E+06    -72.0867E+06    -184.565E+06    -84.8198E+06    -171.832E+06    -55.1839E+06    -35.5435E+06         42.9012
            1743     7.07692E-03     112.421E-03         1.33848    -428.621E-03    -455.878E-03    -432.276E-03         1.33626    -450.000E-03     118.893E-03     244.836E-03    -121.941E-03    -122.961E-03    -121.825E-03     244.705E-03    -122.946E-03     13.3277E-03    -47.4789E+06    -63.5273E+06    -171.997E+06    -79.0398E+06    -156.485E+06    -47.4789E+06    -37.8004E+06         44.0926
            1744     7.96232E-03     112.429E-03         1.33797    -424.495E-03    -458.045E-03    -433.988E-03         1.33580    -446.381E-03     117.322E-03     244.504E-03    -121.656E-03    -122.950E-03    -121.362E-03     244.196E-03    -122.936E-03     20.8660E-03    -41.9947E+06    -54.1469E+06    -153.235E+06    -72.8349E+06    -134.547E+06    -41.9947E+06    -38.5069E+06         45.5620
            1745     8.84709E-03     112.454E-03         1.31654    -415.343E-03    -447.819E-03    -419.851E-03         1.31454    -441.319E-03     112.656E-03     243.940E-03    -121.100E-03    -122.865E-03    -120.370E-03     243.211E-03    -122.865E-03     31.8058E-03    -38.2147E+06    -44.3150E+06    -128.996E+06    -66.1491E+06    -107.162E+06    -38.2147E+06    -36.7427E+06         47.3788
            1746     9.73219E-03     112.491E-03         1.28507    -401.583E-03    -434.409E-03    -400.532E-03         1.28331    -433.694E-03     105.285E-03     243.840E-03    -121.017E-03    -122.763E-03    -119.489E-03     242.312E-03    -122.763E-03     46.4816E-03    -27.2418E+06    -36.8335E+06    -94.0258E+06    -58.2032E+06    -64.5300E+06    -35.3679E+06    -30.3322E+06         49.6233
            1747     10.6174E-03     112.540E-03         1.24844    -380.180E-03    -423.318E-03    -378.383E-03         1.24664    -423.318E-03     106.060E-03     243.915E-03    -121.257E-03    -122.608E-03    -118.568E-03     241.226E-03    -122.608E-03     61.8981E-03     21.4366E+06    -25.6283E+06    -58.7405E+06    -48.9462E+06     11.6424E+06    -25.6283E+06    -15.3021E+06         52.3454
            1748     11.5039E-03     112.613E-03         1.21298    -359.004E-03    -408.609E-03    -357.628E-03         1.21160    -408.609E-03     92.0664E-03     245.900E-03    -121.961E-03    -123.972E-03    -116.822E-03     239.307E-03    -122.518E-03     94.5973E-03     82.4653E+06     6.35606E+06    -41.8854E+06    -41.4150E+06     81.9949E+06     6.35606E+06     2.24684E+06         55.4090
            1749     12.3930E-03     112.757E-03         1.18277    -345.941E-03    -389.422E-03    -345.843E-03         1.18126    -388.014E-03     95.3721E-03     252.066E-03    -122.587E-03    -129.505E-03    -115.565E-03     238.126E-03    -122.587E-03     141.665E-03     113.990E+06     62.4271E+06    -34.8874E+06    -34.2836E+06     113.386E+06     62.4271E+06     9.27347E+06         58.3936
            1750     13.2785E-03     112.950E-03         1.15030    -333.472E-03    -372.186E-03    -339.727E-03         1.14907    -364.701E-03     85.3941E-03     254.942E-03    -122.631E-03    -132.339E-03    -115.754E-03     238.357E-03    -122.631E-03     156.661E-03     128.068E+06     109.164E+06    -25.6952E+06    -25.2405E+06     127.613E+06     109.164E+06     7.62956E+06         60.9503
            1751     14.1688E-03     113.118E-03         1.11480    -312.369E-03    -357.729E-03    -329.278E-03         1.11409    -340.113E-03     57.5238E-03     263.319E-03    -122.503E-03    -140.859E-03    -116.407E-03     238.867E-03    -122.503E-03     189.503E-03     133.003E+06     123.919E+06    -15.7223E+06    -15.3924E+06     132.673E+06     123.919E+06     5.80415E+06         63.1881
            1752     15.0561E-03     113.402E-03         1.08056    -290.191E-03    -346.038E-03    -317.536E-03         1.08013    -318.259E-03     44.8105E-03     255.298E-03    -118.996E-03    -136.345E-03    -115.473E-03     237.664E-03    -122.233E-03     137.561E-03     133.032E+06     122.600E+06    -7.23384E+06    -7.02154E+06     132.819E+06     122.600E+06     4.22632E+06         65.3909
            1753     885.260E-06     113.732E-03     964.480E-03    -100.966E-03    -444.095E-03    -105.878E-03     960.728E-03    -435.431E-03    -397.302E-06     245.505E-03    -122.082E-03    -123.435E-03    -123.341E-03     245.501E-03    -122.172E-03    -1.00561E-03    -101.707E+06    -104.927E+06    -240.107E+06    -102.903E+06    -239.662E+06    -104.175E+06    -6.87417E+06         39.7305
            1754     1.76854E-03     113.729E-03     940.252E-03    -235.984E-03    -274.569E-03    -243.122E-03     938.725E-03    -265.905E-03     68.8731E-03     245.251E-03    -122.397E-03    -122.878E-03    -122.530E-03     245.242E-03    -122.736E-03    -3.48923E-03    -96.8297E+06    -101.558E+06    -227.753E+06    -101.792E+06    -226.170E+06    -98.1784E+06    -13.5290E+06         39.8977
            1755     2.65366E-03     113.719E-03     932.913E-03    -234.862E-03    -260.152E-03    -236.511E-03     932.279E-03    -257.869E-03     33.4353E-03     244.798E-03    -122.160E-03    -122.707E-03    -122.150E-03     244.788E-03    -122.707E-03    -3.72440E-03    -84.4012E+06    -92.4807E+06    -220.552E+06    -96.4715E+06    -216.561E+06    -84.4012E+06    -21.5431E+06         40.1861
            1756     3.53943E-03     113.711E-03     954.109E-03    -251.185E-03    -261.300E-03    -255.312E-03     952.602E-03    -255.665E-03     64.2967E-03     244.759E-03    -122.175E-03    -122.653E-03    -122.170E-03     244.754E-03    -122.653E-03    -2.61298E-03    -72.5306E+06    -84.3665E+06    -205.954E+06    -90.5426E+06    -199.778E+06    -72.5306E+06    -26.4840E+06         40.6123
            1757     4.42434E-03     113.702E-03     965.310E-03    -255.892E-03    -264.103E-03    -261.080E-03     963.721E-03    -257.326E-03     80.3764E-03     244.883E-03    -122.248E-03    -122.640E-03    -122.247E-03     244.882E-03    -122.640E-03    -316.160E-06    -59.8707E+06    -76.8693E+06    -195.440E+06    -84.2458E+06    -188.064E+06    -59.8707E+06    -28.4890E+06         41.1813
            1758     5.30871E-03     113.696E-03     981.639E-03    -257.970E-03    -274.249E-03    -270.993E-03     980.117E-03    -259.703E-03     84.9134E-03     244.676E-03    -121.979E-03    -122.653E-03    -121.971E-03     244.668E-03    -122.653E-03     2.95682E-03    -50.2960E+06    -67.7260E+06    -185.431E+06    -78.1146E+06    -175.042E+06    -50.2960E+06    -32.9064E+06         41.9162
            1759     6.19404E-03     113.690E-03     990.221E-03    -256.898E-03    -282.222E-03    -275.094E-03     988.135E-03    -261.940E-03     101.880E-03     244.464E-03    -121.767E-03    -122.682E-03    -121.723E-03     244.420E-03    -122.682E-03     7.53021E-03    -44.3540E+06     -59.299E+06    -174.197E+06    -73.1482E+06    -160.348E+06    -44.3540E+06    -37.3636E+06         42.8637
            1760     7.07964E-03     113.697E-03     990.618E-03    -259.722E-03    -283.133E-03    -277.597E-03     988.390E-03    -263.030E-03     105.047E-03     244.762E-03    -122.067E-03    -122.771E-03    -121.931E-03     244.612E-03    -122.757E-03     14.2828E-03    -37.5811E+06    -52.2047E+06    -163.494E+06    -68.8224E+06    -146.877E+06    -37.5811E+06    -39.5091E+06         44.0507
            1761     7.96185E-03     113.708E-03         1.00179    -263.359E-03    -289.600E-03    -286.816E-03     999.005E-03    -263.359E-03     118.818E-03     244.736E-03    -122.016E-03    -122.838E-03    -121.673E-03     244.378E-03    -122.824E-03     22.3870E-03    -33.2862E+06    -45.4230E+06    -147.817E+06    -65.2200E+06    -128.020E+06    -33.2862E+06    -40.2633E+06         45.5120
            1762     8.84621E-03     113.729E-03         1.00480    -262.523E-03    -290.494E-03    -287.395E-03         1.00170    -262.523E-03     121.848E-03     243.637E-03    -120.937E-03    -122.776E-03    -120.114E-03     242.814E-03    -122.776E-03     33.7218E-03    -32.0047E+06    -38.4043E+06    -129.862E+06    -61.5848E+06    -106.260E+06    -32.4260E+06    -39.8466E+06         47.3182
            1763     9.73353E-03     113.768E-03     999.463E-03    -257.500E-03    -289.218E-03    -282.746E-03     994.969E-03    -259.478E-03     137.080E-03     242.917E-03    -120.325E-03    -122.604E-03    -118.665E-03     241.258E-03    -122.604E-03     48.3964E-03    -25.5141E+06    -34.4040E+06    -102.611E+06    -57.6819E+06    -71.1016E+06    -33.7458E+06    -36.3169E+06         49.5510
            1764     10.6218E-03     113.822E-03     991.051E-03    -247.380E-03    -292.424E-03    -281.474E-03     986.961E-03    -254.240E-03     129.068E-03     243.728E-03    -121.321E-03    -122.408E-03    -118.411E-03     240.818E-03    -122.408E-03     64.3751E-03     1.60284E+06    -32.0214E+06    -69.8135E+06    -53.1319E+06    -15.0787E+06    -32.0214E+06    -23.1064E+06         52.2784
            1765     11.5064E-03     113.895E-03     976.454E-03    -236.873E-03    -291.921E-03    -280.261E-03     973.649E-03    -245.727E-03     112.391E-03     245.924E-03    -122.178E-03    -123.760E-03    -117.130E-03     239.369E-03    -122.254E-03     95.0244E-03     60.8412E+06    -16.1131E+06    -47.7525E+06    -45.8939E+06     58.9826E+06    -16.1131E+06    -4.52239E+06         55.3706
            1766     12.3909E-03     114.029E-03     961.162E-03    -227.903E-03    -284.532E-03    -278.030E-03     958.633E-03    -231.876E-03     106.379E-03     251.077E-03    -122.253E-03    -128.730E-03    -114.525E-03     236.873E-03    -122.253E-03     142.106E-03     110.273E+06     35.9056E+06    -37.3377E+06    -37.1036E+06     110.039E+06     35.9056E+06     5.20616E+06         58.3541
            1767     13.2844E-03     114.228E-03     945.096E-03    -215.020E-03    -280.774E-03    -279.417E-03     943.740E-03    -215.020E-03     78.9764E-03     253.463E-03    -122.275E-03    -131.112E-03    -113.720E-03     236.071E-03    -122.275E-03     159.624E-03     128.470E+06     98.6908E+06    -28.2465E+06    -28.0300E+06     128.254E+06     98.6908E+06     5.29735E+06         60.8604
            1768     14.1712E-03     114.392E-03     933.051E-03    -197.078E-03    -285.489E-03    -284.936E-03     932.498E-03    -197.078E-03     44.8704E-03     261.827E-03    -122.094E-03    -139.797E-03    -114.633E-03     236.663E-03    -122.094E-03     191.594E-03     134.015E+06     124.526E+06    -18.1609E+06    -17.9310E+06     133.785E+06     124.526E+06     3.76778E+06         63.0283
            1769     15.0665E-03     114.666E-03     931.011E-03    -182.453E-03    -294.063E-03    -293.889E-03     930.837E-03    -182.453E-03     23.4165E-03     253.370E-03    -117.859E-03    -135.548E-03    -113.693E-03     235.368E-03    -121.712E-03     138.334E-03     134.785E+06     126.317E+06    -7.58365E+06    -7.37001E+06     134.572E+06     126.317E+06     3.08369E+06         65.1693
            1770     883.480E-06     115.012E-03     572.608E-03     64.7150E-03    -208.108E-03     63.3084E-03     565.350E-03    -199.444E-03     45.3010E-03     244.799E-03    -121.877E-03    -122.941E-03    -122.800E-03     244.794E-03    -122.013E-03     127.369E-06    -79.3619E+06    -84.5979E+06    -222.237E+06    -82.6035E+06    -221.762E+06    -81.8306E+06    -7.33282E+06         39.6671
            1771     1.76989E-03     115.006E-03     550.233E-03    -43.0846E-03    -74.1673E-03    -50.8116E-03     549.296E-03    -65.5030E-03     35.3505E-03     244.299E-03    -121.975E-03    -122.353E-03    -121.978E-03     244.294E-03    -122.344E-03    -2.53503E-03    -74.6671E+06    -80.7173E+06     -206.37E+06    -81.1656E+06    -204.573E+06    -76.0158E+06    -14.2450E+06         39.8380
            1772     2.65582E-03     114.996E-03     538.767E-03    -36.5921E-03    -65.5817E-03    -33.5229E-03     529.154E-03    -59.0379E-03     82.7492E-03     244.081E-03    -121.842E-03    -122.293E-03    -121.845E-03     244.074E-03    -122.284E-03    -2.94154E-03    -64.7428E+06    -74.6231E+06    -199.940E+06    -78.7289E+06    -195.834E+06    -64.7428E+06    -21.8247E+06         40.1293
            1773     3.54048E-03     114.986E-03     565.446E-03    -53.6657E-03    -73.3893E-03    -59.8677E-03     554.971E-03    -56.7120E-03     98.6926E-03     244.075E-03    -121.862E-03    -122.256E-03    -121.859E-03     244.072E-03    -122.256E-03    -1.87173E-03    -54.5568E+06    -69.7499E+06    -192.598E+06    -75.6312E+06    -186.716E+06    -54.5568E+06    -26.0079E+06         40.5525
            1774     4.42594E-03     114.976E-03     580.291E-03    -59.8175E-03    -79.4874E-03    -73.0388E-03     573.843E-03    -59.8175E-03     83.0880E-03     243.994E-03    -121.770E-03    -122.234E-03    -121.768E-03     243.992E-03    -122.234E-03     425.818E-06    -46.9775E+06    -63.1409E+06    -182.526E+06    -71.5049E+06    -174.162E+06    -46.9775E+06    -30.1420E+06         41.1109
            1775     5.31124E-03     114.969E-03     608.796E-03    -64.4111E-03    -102.989E-03    -90.5969E-03     596.404E-03    -64.4111E-03     134.639E-03     243.916E-03    -121.667E-03    -122.232E-03    -121.651E-03     243.900E-03    -122.232E-03     4.16688E-03    -39.3368E+06    -54.9016E+06    -172.023E+06    -66.4058E+06    -160.518E+06    -39.3368E+06    -34.7741E+06         41.8364
            1776     6.19585E-03     114.965E-03     644.031E-03    -70.3889E-03    -130.957E-03    -119.357E-03     632.431E-03    -70.3889E-03     143.244E-03     243.900E-03    -121.645E-03    -122.284E-03    -121.564E-03     243.818E-03    -122.284E-03     9.95222E-03    -33.2252E+06    -48.9749E+06    -162.802E+06    -62.4768E+06    -149.300E+06    -33.2252E+06    -36.7290E+06         42.7732
            1777     7.07944E-03     114.973E-03     654.790E-03    -75.9934E-03    -134.191E-03    -124.000E-03     644.599E-03    -75.9934E-03     142.860E-03     243.427E-03    -121.198E-03    -122.316E-03    -120.973E-03     243.202E-03    -122.316E-03     17.4583E-03    -30.2799E+06    -43.7830E+06    -153.457E+06    -59.7181E+06    -137.522E+06    -30.2799E+06    -38.5590E+06         43.9399
            1778     7.96708E-03     114.987E-03     659.749E-03    -79.4763E-03    -137.206E-03    -124.919E-03     647.462E-03    -79.4763E-03     163.028E-03     243.081E-03    -120.877E-03    -122.296E-03    -120.385E-03     242.590E-03    -122.296E-03     26.2103E-03    -27.8529E+06    -38.1617E+06    -140.884E+06    -57.0385E+06    -122.007E+06    -27.8529E+06    -39.6386E+06         45.3823
            1779     8.85244E-03     115.009E-03     678.267E-03    -81.3255E-03    -148.444E-03    -138.466E-03     668.290E-03    -81.3255E-03     157.031E-03     243.350E-03    -121.043E-03    -122.365E-03    -120.172E-03     242.361E-03    -122.247E-03     37.3788E-03    -26.3671E+06    -31.6303E+06    -123.995E+06    -54.4951E+06    -100.709E+06    -26.7883E+06    -39.9273E+06         47.1816
            1780     9.73723E-03     115.047E-03     704.971E-03    -82.1678E-03    -168.858E-03    -159.937E-03     696.051E-03    -82.1678E-03     170.317E-03     243.370E-03    -121.076E-03    -122.305E-03    -119.338E-03     241.514E-03    -122.187E-03     51.2805E-03    -23.0669E+06    -28.7623E+06    -101.875E+06    -51.3418E+06    -73.8825E+06    -28.4801E+06    -36.9646E+06         49.4097
            1781     10.6227E-03     115.104E-03     732.221E-03    -82.5040E-03    -196.711E-03    -188.735E-03     724.244E-03    -82.5040E-03     164.484E-03     243.047E-03    -120.998E-03    -122.041E-03    -117.797E-03     239.846E-03    -122.041E-03     67.3557E-03    -11.1260E+06    -31.8357E+06    -73.6019E+06    -47.8770E+06    -36.8509E+06    -31.8357E+06    -27.5712E+06         52.1359
            1782     11.5109E-03     115.176E-03     754.039E-03    -81.3279E-03    -222.421E-03    -216.872E-03     748.491E-03    -81.3279E-03     143.662E-03     244.923E-03    -121.305E-03    -123.625E-03    -116.129E-03     237.912E-03    -121.790E-03     98.1357E-03     40.9935E+06    -30.8100E+06    -48.6015E+06    -42.0264E+06     34.4183E+06    -30.8100E+06    -13.2990E+06         55.2615
            1783     12.3982E-03     115.307E-03     762.840E-03    -75.7313E-03    -235.157E-03    -230.243E-03     757.926E-03    -75.7313E-03     135.878E-03     250.708E-03    -121.682E-03    -128.985E-03    -114.186E-03     235.910E-03    -121.682E-03     145.050E-03     102.051E+06     8.32307E+06    -34.0023E+06    -33.6758E+06     101.724E+06     8.32307E+06    -637.771E+03         58.2831
            1784     13.2882E-03     115.493E-03     767.020E-03    -66.7244E-03    -240.764E-03    -237.786E-03     764.041E-03    -66.7244E-03     104.086E-03     252.370E-03    -121.689E-03    -130.690E-03    -112.556E-03     234.236E-03    -121.689E-03     162.590E-03     128.544E+06     80.0967E+06    -25.3180E+06    -25.2029E+06     128.429E+06     80.0967E+06     3.96199E+06         60.7578
            1785     14.1852E-03     115.668E-03     777.615E-03    -56.2915E-03    -256.399E-03    -254.876E-03     776.091E-03    -56.2915E-03     71.1770E-03     259.481E-03    -121.469E-03    -138.081E-03    -112.441E-03     233.841E-03    -121.469E-03     192.639E-03     135.627E+06     121.823E+06    -18.0394E+06    -17.9061E+06     135.493E+06     121.823E+06     2.88994E+06         62.8216
            1786     15.0738E-03     115.930E-03     802.528E-03    -49.5364E-03    -285.582E-03    -284.692E-03     801.637E-03    -49.5364E-03     50.8336E-03     250.302E-03    -116.179E-03    -134.073E-03    -111.145E-03     232.189E-03    -120.996E-03     138.492E-03     135.794E+06     128.036E+06    -10.6899E+06    -10.5562E+06     135.660E+06     128.036E+06     1.29012E+06         64.8643
            1787     887.292E-06     116.286E-03     375.224E-03     181.009E-03    -127.673E-03     285.008E-03     100.359E-03     43.1939E-03     104.974E-03     242.258E-03    -120.919E-03    -121.356E-03    -121.183E-03     242.254E-03    -121.089E-03     769.351E-06    -64.6120E+06    -70.3313E+06    -202.639E+06    -68.4066E+06    -201.904E+06    -67.2715E+06    -9.24963E+06         39.5199
            1788     1.77195E-03     116.281E-03     311.664E-03     149.390E-03    -27.4884E-03     147.706E-03     125.884E-03     159.975E-03     56.2322E-03     242.777E-03    -121.217E-03    -121.585E-03    -121.536E-03     242.774E-03    -121.264E-03    -1.39856E-03    -57.5125E+06    -63.3834E+06    -188.218E+06    -65.0065E+06    -186.595E+06    -57.5125E+06    -13.6202E+06         39.6979
            1789     2.65667E-03     116.272E-03     311.974E-03     134.496E-03    -11.4094E-03     131.056E-03     152.054E-03     151.951E-03     105.275E-03     242.949E-03    -121.357E-03    -121.633E-03    -121.546E-03     242.946E-03    -121.440E-03    -1.61295E-03    -49.3661E+06    -60.0803E+06    -180.087E+06    -63.1282E+06    -177.039E+06    -49.3661E+06    -18.5819E+06         39.9946
            1790     3.54301E-03     116.262E-03     313.300E-03     141.154E-03    -21.1583E-03     129.810E-03     158.481E-03     145.005E-03     143.788E-03     242.594E-03    -121.115E-03    -121.508E-03    -121.112E-03     242.591E-03    -121.508E-03     175.119E-06    -40.6447E+06    -54.1801E+06    -176.288E+06    -59.6098E+06    -170.859E+06    -40.6447E+06    -24.8773E+06         40.4102
            1791     4.42826E-03     116.253E-03     312.970E-03     124.020E-03     197.405E-06     105.543E-03     193.250E-03     138.395E-03     124.752E-03     242.195E-03    -120.749E-03    -121.471E-03    -120.734E-03     242.180E-03    -121.471E-03     3.41645E-03    -34.0736E+06    -47.0477E+06    -167.135E+06    -55.1262E+06    -159.056E+06    -34.0736E+06    -29.8080E+06         40.9507
            1792     5.31463E-03     116.245E-03     322.626E-03     111.635E-03     5.72622E-03     81.2281E-03     228.816E-03     129.943E-03     161.766E-03     242.028E-03    -120.663E-03    -121.421E-03    -120.607E-03     241.972E-03    -121.421E-03     8.06921E-03    -29.3761E+06    -42.9025E+06    -158.395E+06    -53.0886E+06    -148.209E+06    -29.3761E+06    -32.6342E+06         41.6581
            1793     6.20094E-03     116.240E-03     340.471E-03     107.550E-03    -11.6177E-03     60.7285E-03     254.408E-03     121.267E-03     167.528E-03     241.742E-03    -120.430E-03    -121.408E-03    -120.273E-03     241.584E-03    -121.408E-03     14.4328E-03    -25.2176E+06    -39.3448E+06    -152.131E+06    -51.4873E+06    -139.988E+06    -25.2176E+06    -34.8330E+06         42.5779
            1794     7.08807E-03     116.248E-03     350.333E-03     100.078E-03    -13.2523E-03     33.1363E-03     291.189E-03     112.833E-03     161.208E-03     241.365E-03    -120.093E-03    -121.365E-03    -119.737E-03     241.009E-03    -121.365E-03     22.1854E-03    -23.1178E+06    -35.3861E+06    -142.523E+06    -49.9808E+06    -127.929E+06    -23.1178E+06    -36.5888E+06         43.7302
            1795     7.97361E-03     116.257E-03     361.425E-03     101.581E-03    -22.5322E-03     8.38424E-03     327.536E-03     104.553E-03     184.307E-03     241.449E-03    -120.178E-03    -121.316E-03    -119.508E-03     240.778E-03    -121.316E-03     30.6666E-03    -22.0937E+06    -30.1725E+06    -132.039E+06    -48.2406E+06    -113.971E+06    -22.0937E+06    -38.7273E+06         45.1571
            1796     8.86047E-03     116.285E-03     387.471E-03     97.0600E-03    -40.4101E-03    -17.6227E-03     364.684E-03     97.0600E-03     174.503E-03     242.180E-03    -120.768E-03    -121.421E-03    -119.617E-03     240.910E-03    -121.303E-03     42.1323E-03    -20.9954E+06    -24.7844E+06    -116.781E+06    -46.1495E+06    -95.4155E+06    -20.9954E+06    -38.5697E+06         46.9387
            1797     9.74467E-03     116.325E-03     429.828E-03     90.1425E-03    -72.2386E-03    -55.7232E-03     413.313E-03     90.1425E-03     166.638E-03     242.769E-03    -121.231E-03    -121.541E-03    -119.126E-03     240.441E-03    -121.318E-03     57.2853E-03    -19.8090E+06    -24.9860E+06    -100.100E+06    -45.4668E+06    -75.8248E+06    -23.6030E+06    -36.1669E+06         49.1568
            1798     10.6305E-03     116.384E-03     473.177E-03     83.2430E-03    -105.632E-03    -95.2579E-03     462.802E-03     83.2430E-03     141.567E-03     242.313E-03    -120.748E-03    -121.543E-03    -117.160E-03     238.390E-03    -121.209E-03     74.3906E-03    -11.3602E+06    -28.7682E+06    -77.7867E+06    -42.0856E+06    -47.0612E+06    -28.7682E+06    -32.1077E+06         51.8879
            1799     11.5202E-03     116.452E-03     509.380E-03     77.8355E-03    -132.773E-03    -127.029E-03     503.637E-03     77.8355E-03     119.999E-03     243.984E-03    -120.503E-03    -123.484E-03    -115.155E-03     236.067E-03    -120.915E-03     104.532E-03     26.9955E+06    -33.3706E+06    -50.8625E+06    -36.7428E+06     13.8427E+06    -34.3375E+06    -21.4196E+06         55.0512
            1800     12.4103E-03     116.578E-03     546.417E-03     76.7052E-03    -165.166E-03    -158.755E-03     540.005E-03     76.7052E-03     132.686E-03     250.591E-03    -120.729E-03    -129.925E-03    -114.303E-03     234.968E-03    -120.729E-03     149.387E-03     86.6050E+06    -10.8854E+06    -33.9711E+06    -31.8104E+06     85.4112E+06    -11.8524E+06    -7.05047E+06         58.1302
            1801     13.2997E-03     116.768E-03     582.823E-03     78.3876E-03    -196.040E-03    -190.700E-03     577.483E-03     78.3876E-03     125.993E-03     252.335E-03    -120.734E-03    -131.652E-03    -112.821E-03     233.504E-03    -120.734E-03     165.733E-03     125.333E+06     54.9242E+06    -25.6642E+06    -25.5685E+06     125.238E+06     54.9242E+06     1.64764E+06         60.6102
            1802     14.1890E-03     116.930E-03     625.028E-03     80.7001E-03    -233.849E-03    -230.784E-03     621.962E-03     80.7001E-03     95.2536E-03     257.252E-03    -120.540E-03    -136.676E-03    -109.596E-03     230.173E-03    -120.540E-03     196.193E-03     137.266E+06     112.574E+06    -17.3949E+06    -17.2787E+06     137.149E+06     112.574E+06     2.55530E+06         62.5823
            1803     15.0916E-03     117.195E-03     680.681E-03     78.8553E-03    -282.857E-03    -281.134E-03     678.957E-03     78.8553E-03     80.8285E-03     246.010E-03    -113.944E-03    -132.041E-03    -106.630E-03     226.621E-03    -119.966E-03     142.732E-03     136.991E+06     129.610E+06    -7.82598E+06    -7.70437E+06     136.869E+06     129.610E+06     979.374E+03         64.5131
            1804     886.860E-06     117.558E-03     462.795E-03     304.444E-03    -336.250E-03     445.957E-03    -328.139E-03     313.171E-03     108.438E-03     239.539E-03    -119.120E-03    -120.432E-03    -120.054E-03     239.537E-03    -119.496E-03     398.528E-06    -46.3298E+06    -52.9293E+06    -180.521E+06    -50.9667E+06    -179.824E+06    -48.9893E+06    -8.88200E+06         39.2564
            1805     1.77485E-03     117.554E-03     371.382E-03     339.104E-03    -280.023E-03     335.187E-03    -274.796E-03     370.072E-03     62.3043E-03     239.365E-03    -119.301E-03    -120.090E-03    -119.612E-03     239.364E-03    -119.778E-03    -170.213E-06    -44.7979E+06    -47.7704E+06    -172.006E+06    -49.3900E+06    -170.386E+06    -44.7979E+06    -13.1924E+06         39.4159
            1806     2.66159E-03     117.547E-03     352.099E-03     310.809E-03    -236.489E-03     303.282E-03    -228.961E-03     352.099E-03     72.3423E-03     239.450E-03    -119.511E-03    -119.983E-03    -119.688E-03     239.444E-03    -119.800E-03     1.64637E-03    -36.7257E+06    -42.7494E+06    -163.015E+06    -45.9122E+06    -159.852E+06    -36.7257E+06    -18.9526E+06         39.6978
            1807     3.54749E-03     117.538E-03     338.266E-03     308.821E-03    -216.544E-03     298.291E-03    -205.482E-03     337.734E-03     92.7944E-03     239.289E-03    -119.493E-03    -119.851E-03    -119.470E-03     239.267E-03    -119.851E-03     4.61837E-03    -27.3665E+06    -36.5220E+06    -159.070E+06    -41.8344E+06    -153.758E+06    -27.3665E+06    -24.6731E+06         40.1001
            1808     4.43605E-03     117.529E-03     327.082E-03     289.796E-03    -182.249E-03     276.544E-03    -168.466E-03     326.550E-03     132.901E-03     238.876E-03    -119.097E-03    -119.833E-03    -119.036E-03     238.816E-03    -119.833E-03     8.56925E-03    -20.2904E+06    -31.2635E+06    -153.441E+06    -38.4812E+06    -146.223E+06    -20.2904E+06    -28.6684E+06         40.6272
            1809     5.32350E-03     117.522E-03     314.727E-03     264.051E-03    -142.224E-03     244.849E-03    -123.022E-03     314.727E-03     128.922E-03     238.529E-03    -118.837E-03    -119.767E-03    -118.678E-03     238.371E-03    -119.767E-03     14.2511E-03    -14.9935E+06    -26.7631E+06    -146.129E+06    -35.2569E+06    -137.635E+06    -14.9935E+06    -30.5750E+06         41.3168
            1810     6.21080E-03     117.517E-03     302.959E-03     246.665E-03    -114.439E-03     223.624E-03    -91.3981E-03     302.959E-03     142.925E-03     238.451E-03    -118.782E-03    -119.746E-03    -118.483E-03     238.123E-03    -119.716E-03     20.9184E-03    -10.9905E+06    -23.0451E+06    -140.912E+06    -32.8510E+06    -131.106E+06    -10.9905E+06    -32.3874E+06         42.2141
            1811     7.09867E-03     117.524E-03     291.588E-03     226.961E-03    -81.0529E-03     187.688E-03    -41.7794E-03     291.588E-03     141.772E-03     238.776E-03    -119.115E-03    -119.711E-03    -118.515E-03     238.147E-03    -119.682E-03     29.1376E-03    -8.36203E+06    -18.6794E+06    -129.909E+06    -30.8855E+06    -117.703E+06    -8.36203E+06    -34.4530E+06         43.3483
            1812     7.98612E-03     117.538E-03     291.438E-03     210.656E-03    -61.8325E-03     136.789E-03     24.3864E-03     279.086E-03     164.636E-03     239.258E-03    -119.465E-03    -119.810E-03    -118.487E-03     238.158E-03    -119.688E-03     38.9314E-03    -8.10088E+06    -15.9424E+06    -120.322E+06    -30.4042E+06    -105.860E+06    -8.10088E+06    -35.8218E+06         44.7568
            1813     8.87175E-03     117.562E-03     302.010E-03     180.644E-03    -41.8546E-03     82.4724E-03     92.9282E-03     265.399E-03     174.797E-03     239.698E-03    -119.564E-03    -120.111E-03    -118.020E-03     237.745E-03    -119.702E-03     51.8255E-03    -9.99947E+06    -14.7540E+06    -109.555E+06    -30.8124E+06    -93.4970E+06    -9.99947E+06    -35.1000E+06         46.5127
            1814     9.76130E-03     117.604E-03     317.352E-03     163.939E-03    -42.2989E-03     33.5090E-03     154.022E-03     251.462E-03     178.620E-03     240.096E-03    -119.644E-03    -120.430E-03    -117.219E-03     236.922E-03    -119.681E-03     66.7359E-03    -10.2545E+06    -13.7692E+06    -93.2316E+06    -30.7353E+06    -73.9494E+06    -12.5706E+06    -34.1393E+06         48.7117
            1815     10.6489E-03     117.659E-03     328.816E-03     161.732E-03    -50.1340E-03    -4.02476E-03     206.270E-03     238.168E-03     153.379E-03     240.935E-03    -119.581E-03    -121.346E-03    -116.347E-03     235.936E-03    -119.581E-03     83.7450E-03    -4.27334E+06    -18.9415E+06    -74.3417E+06    -30.8977E+06    -47.7174E+06    -18.9415E+06    -32.4980E+06         51.4579
            1816     11.5371E-03     117.729E-03     336.978E-03     174.409E-03    -60.5504E-03    -34.8460E-03     258.410E-03     227.272E-03     138.218E-03     244.599E-03    -119.398E-03    -125.222E-03    -115.657E-03     235.034E-03    -119.398E-03     115.375E-03     17.2305E+06    -28.2268E+06    -50.7493E+06    -31.1461E+06    -1.40569E+06    -29.1938E+06    -25.2544E+06         54.6729
            1817     12.4251E-03     117.852E-03     358.753E-03     204.504E-03    -101.355E-03    -81.3850E-03     322.821E-03     220.467E-03     155.591E-03     251.555E-03    -119.209E-03    -132.432E-03    -114.608E-03     233.731E-03    -119.209E-03     159.931E-03     69.9422E+06    -22.0732E+06    -36.7118E+06    -29.1482E+06     66.4512E+06    -26.1458E+06    -12.2037E+06         57.8180
            1818     13.3153E-03     118.039E-03     407.167E-03     214.591E-03    -150.888E-03    -142.239E-03     398.062E-03     215.046E-03     127.992E-03     251.782E-03    -119.105E-03    -132.748E-03    -111.657E-03     230.692E-03    -119.105E-03     174.871E-03     118.978E+06     28.3001E+06    -26.2974E+06    -23.0151E+06     118.802E+06     25.1945E+06    -2.35163E+06         60.3454
            1819     14.2127E-03     118.195E-03     475.679E-03     208.721E-03    -209.988E-03    -206.793E-03     472.483E-03     208.721E-03     87.2401E-03     255.354E-03    -118.896E-03    -136.493E-03    -106.596E-03     225.456E-03    -118.896E-03     204.892E-03     136.639E+06     97.2281E+06    -13.9752E+06    -13.8308E+06     136.495E+06     97.2281E+06     501.584E+03         62.2897
            1820     15.1140E-03     118.448E-03     544.513E-03     198.209E-03    -266.230E-03    -264.727E-03     543.009E-03     198.209E-03     69.1516E-03     242.215E-03    -111.431E-03    -130.935E-03    -102.579E-03     220.708E-03    -118.278E-03     150.902E-03     136.253E+06     127.504E+06    -6.14169E+06    -6.04246E+06     136.154E+06     127.504E+06     2.12665E+06         64.1452
            1821     888.127E-06     118.828E-03     615.134E-03     464.604E-03    -663.134E-03     587.065E-03    -650.381E-03     479.921E-03     154.533E-03     234.400E-03    -116.464E-03    -117.948E-03    -117.649E-03     234.392E-03    -116.756E-03     2.49517E-03    -21.8691E+06    -27.9001E+06    -161.804E+06    -26.8326E+06    -161.245E+06    -23.4960E+06    -4.39444E+06         38.7569
            1822     1.77767E-03     118.823E-03     529.868E-03     504.341E-03    -617.380E-03     504.888E-03    -615.327E-03     527.268E-03     29.4021E-03     233.362E-03    -116.339E-03    -117.051E-03    -116.321E-03     233.344E-03    -117.051E-03     3.57489E-03    -21.4184E+06    -24.4246E+06    -151.907E+06    -24.7126E+06    -150.188E+06    -22.8494E+06    -13.7647E+06         38.8937
            1823     2.66895E-03     118.817E-03     519.107E-03     489.910E-03    -589.432E-03     490.459E-03    -587.381E-03     516.507E-03     49.2228E-03     232.931E-03    -116.169E-03    -116.807E-03    -116.130E-03     232.893E-03    -116.807E-03     6.46750E-03    -18.7981E+06    -21.5077E+06    -145.587E+06    -23.3483E+06    -142.069E+06    -20.4752E+06    -20.5604E+06         39.1484
            1824     3.55988E-03     118.809E-03     505.741E-03     465.274E-03    -549.999E-03     462.420E-03    -547.145E-03     505.741E-03     54.3149E-03     233.090E-03    -116.401E-03    -116.746E-03    -116.305E-03     232.994E-03    -116.746E-03     10.6990E-03    -13.9292E+06    -17.8676E+06    -144.411E+06    -22.4119E+06    -139.621E+06    -14.1753E+06    -24.1347E+06         39.5293
            1825     4.44783E-03     118.800E-03     494.184E-03     448.505E-03    -523.888E-03     443.458E-03    -518.840E-03     494.184E-03     128.377E-03     233.051E-03    -116.359E-03    -116.742E-03    -116.138E-03     232.830E-03    -116.742E-03     16.3986E-03    -9.04856E+06    -15.5593E+06    -140.151E+06    -21.9138E+06    -133.796E+06    -9.04856E+06    -27.2610E+06         40.0400
            1826     5.33832E-03     118.791E-03     482.327E-03     416.177E-03    -479.332E-03     411.351E-03    -474.505E-03     482.327E-03     121.954E-03     232.799E-03    -116.131E-03    -116.707E-03    -115.703E-03     232.372E-03    -116.707E-03     23.2962E-03    -6.11851E+06    -13.1438E+06    -136.024E+06    -20.9259E+06    -128.242E+06    -6.11851E+06    -29.9132E+06         40.7115
            1827     6.22956E-03     118.788E-03     468.709E-03     372.199E-03    -414.714E-03     363.480E-03    -405.995E-03     468.709E-03     146.853E-03     233.154E-03    -116.348E-03    -116.832E-03    -115.726E-03     232.369E-03    -116.669E-03     31.9287E-03    -4.19281E+06    -11.0568E+06    -131.410E+06    -19.5754E+06    -122.892E+06    -4.19281E+06    -30.8393E+06         41.5843
            1828     7.11794E-03     118.795E-03     453.408E-03     327.061E-03    -344.789E-03     316.289E-03    -334.017E-03     453.408E-03     159.713E-03     234.037E-03    -116.677E-03    -117.369E-03    -116.010E-03     232.690E-03    -116.688E-03     42.1870E-03    -3.25321E+06    -9.17466E+06    -119.440E+06    -18.8803E+06    -109.735E+06    -3.25321E+06    -31.0704E+06         42.6901
            1829     8.00749E-03     118.807E-03     436.846E-03     280.759E-03    -278.211E-03     261.505E-03    -258.957E-03     436.846E-03     178.322E-03     234.721E-03    -116.739E-03    -117.997E-03    -115.905E-03     232.640E-03    -116.750E-03     52.9757E-03    -1.78686E+06    -8.10970E+06    -110.776E+06    -18.9703E+06    -99.9154E+06    -1.78686E+06    -31.4956E+06         44.0729
            1830     8.89831E-03     118.832E-03     419.000E-03     224.917E-03    -207.101E-03     195.589E-03    -177.773E-03     419.000E-03     191.921E-03     235.584E-03    -116.788E-03    -118.780E-03    -115.503E-03     232.306E-03    -116.788E-03     66.6763E-03    -2.99007E+06    -8.39551E+06    -101.456E+06    -19.5923E+06    -88.8095E+06    -4.43988E+06    -31.9729E+06         45.8084
            1831     9.78610E-03     118.873E-03     400.771E-03     188.188E-03    -154.346E-03     140.586E-03    -106.744E-03     400.771E-03     189.924E-03     237.158E-03    -116.814E-03    -120.296E-03    -115.333E-03     232.195E-03    -116.814E-03     82.5840E-03    -4.37139E+06    -7.03270E+06    -85.4666E+06    -20.1164E+06    -69.8193E+06    -6.93495E+06    -31.7511E+06         47.9998
            1832     10.6762E-03     118.929E-03     383.073E-03     162.966E-03    -108.172E-03     89.8067E-03    -35.0123E-03     383.073E-03     187.999E-03     239.455E-03    -116.833E-03    -122.591E-03    -115.479E-03     232.342E-03    -116.833E-03     99.4768E-03    -1.07971E+06    -10.8921E+06    -67.0714E+06    -20.5587E+06    -47.5925E+06    -10.8921E+06    -29.4972E+06         50.7723
            1833     11.5668E-03     119.000E-03     366.479E-03     152.971E-03    -70.4556E-03     25.7901E-03     56.7250E-03     366.479E-03     174.857E-03     244.644E-03    -116.803E-03    -127.841E-03    -115.234E-03     232.037E-03    -116.803E-03     132.441E-03     10.3035E+06    -20.6706E+06    -43.3831E+06    -20.7000E+06    -12.0588E+06    -20.9915E+06    -23.5514E+06         54.0543
            1834     12.4560E-03     119.126E-03     352.072E-03     188.204E-03    -81.8346E-03    -41.4295E-03     147.799E-03     352.072E-03     171.451E-03     252.180E-03    -116.617E-03    -135.608E-03    -113.650E-03     230.222E-03    -116.617E-03     177.762E-03     58.7585E+06    -23.0317E+06    -33.8849E+06    -20.3780E+06     53.3347E+06    -31.1148E+06    -14.8037E+06         57.2960
            1835     13.3490E-03     119.305E-03     360.904E-03     224.821E-03    -119.233E-03    -105.195E-03     233.390E-03     338.297E-03     127.576E-03     251.172E-03    -116.409E-03    -134.848E-03    -109.859E-03     226.183E-03    -116.409E-03     189.669E-03     112.500E+06     8.59765E+06    -26.3183E+06    -17.9690E+06     111.913E+06     835.372E+03    -6.72425E+06         59.9303
            1836     14.2467E-03     119.454E-03     390.895E-03     265.752E-03    -183.785E-03    -177.481E-03     326.538E-03     323.805E-03     101.158E-03     254.612E-03    -116.205E-03    -138.533E-03    -104.923E-03     221.002E-03    -116.205E-03     217.102E-03     131.176E+06     75.2756E+06    -12.9250E+06    -12.8295E+06     131.080E+06     75.2756E+06    -800.454E+03         61.9557
            1837     15.1536E-03     119.700E-03     445.298E-03     292.960E-03    -261.023E-03    -258.369E-03     430.397E-03     305.207E-03     70.5844E-03     239.838E-03    -108.990E-03    -131.061E-03    -100.587E-03     216.055E-03    -115.681E-03     159.192E-03     132.586E+06     120.341E+06    -6.36682E+06    -6.21841E+06     132.437E+06     120.341E+06     3.24714E+06         63.8463
            1838     894.852E-06     120.087E-03     742.508E-03     605.126E-03    -952.568E-03     722.566E-03    -939.216E-03     611.715E-03     222.512E-03     223.392E-03    -111.167E-03    -112.230E-03    -111.644E-03     223.370E-03    -111.731E-03     5.10290E-03    -3.79781E+06    -9.57149E+06    -145.521E+06    -5.16498E+06    -144.911E+06    -8.81491E+06    -4.66951E+06         37.8841
            1839     1.78849E-03     120.082E-03     684.128E-03     661.749E-03    -939.294E-03     675.993E-03    -937.749E-03     668.338E-03     80.9830E-03     223.453E-03    -111.456E-03    -112.016E-03    -111.718E-03     223.390E-03    -111.691E-03     8.57286E-03    -6.16215E+06    -11.9641E+06    -131.973E+06    -8.50884E+06    -130.383E+06    -11.2075E+06    -13.5995E+06         38.0228
            1840     2.68191E-03     120.071E-03     672.553E-03     657.907E-03    -921.536E-03     659.627E-03    -918.561E-03     667.857E-03     127.264E-03     223.136E-03    -111.270E-03    -111.901E-03    -111.330E-03     222.985E-03    -111.690E-03     13.3121E-03    -7.01445E+06    -11.1119E+06    -128.176E+06    -10.1361E+06    -125.054E+06    -11.1119E+06    -18.9750E+06         38.2632
            1841     3.57562E-03     120.065E-03     660.147E-03     620.751E-03    -878.858E-03     618.062E-03    -876.169E-03     660.147E-03     117.346E-03     222.872E-03    -111.261E-03    -111.644E-03    -110.943E-03     222.554E-03    -111.644E-03     19.3598E-03    -6.21679E+06    -9.69176E+06    -130.498E+06    -11.3562E+06    -125.803E+06    -9.24757E+06    -23.5573E+06         38.6202
            1842     4.47168E-03     120.056E-03     646.934E-03     580.950E-03    -830.368E-03     577.056E-03    -826.474E-03     646.934E-03     141.567E-03     223.168E-03    -111.435E-03    -111.748E-03    -110.971E-03     222.568E-03    -111.612E-03     27.2675E-03    -3.35928E+06    -7.49682E+06    -128.980E+06    -10.6464E+06    -122.975E+06    -6.21457E+06    -26.6004E+06         39.1101
            1843     5.36500E-03     120.050E-03     631.473E-03     542.107E-03    -770.261E-03     537.904E-03    -766.058E-03     631.473E-03     144.972E-03     223.804E-03    -111.592E-03    -112.227E-03    -111.105E-03     222.737E-03    -111.647E-03     36.5134E-03    -837.099E+03    -4.40420E+06    -125.763E+06    -9.72054E+06    -118.831E+06    -2.45282E+06    -28.3043E+06         39.7645
            1844     6.25791E-03     120.047E-03     614.809E-03     496.555E-03    -696.995E-03     491.265E-03    -691.705E-03     614.809E-03     148.166E-03     224.562E-03    -111.664E-03    -112.907E-03    -111.087E-03     222.779E-03    -111.701E-03     47.5348E-03     224.187E+03    -1.59045E+06    -121.748E+06    -9.34343E+06    -113.995E+06     224.187E+03    -29.4335E+06         40.6139
            1845     7.15347E-03     120.057E-03     596.509E-03     439.482E-03    -615.206E-03     432.528E-03    -608.252E-03     596.509E-03     167.992E-03     225.847E-03    -111.770E-03    -114.073E-03    -111.304E-03     223.077E-03    -111.770E-03     59.8201E-03     663.306E+03    -1.96880E+06    -114.199E+06    -9.14269E+06    -106.093E+06    -268.318E+03    -29.1262E+06         41.6887
            1846     8.04580E-03     120.069E-03     576.326E-03     380.681E-03    -528.181E-03     368.747E-03    -516.246E-03     576.326E-03     195.245E-03     227.545E-03    -111.881E-03    -115.674E-03    -111.655E-03     223.526E-03    -111.881E-03     72.5035E-03     2.50287E+06    -1.08145E+06    -103.539E+06    -8.70155E+06    -94.9873E+06     1.57124E+06    -28.3039E+06         43.0472
            1847     8.93754E-03     120.093E-03     555.306E-03     323.233E-03    -444.168E-03     309.608E-03    -430.543E-03     555.306E-03     196.169E-03     229.759E-03    -112.011E-03    -117.742E-03    -111.894E-03     223.910E-03    -112.011E-03     87.8829E-03     2.76220E+06    -914.857E+03    -93.0098E+06    -9.34284E+06    -83.1320E+06     1.31240E+06    -28.3853E+06         44.7847
            1848     9.83252E-03     120.137E-03     534.189E-03     258.849E-03    -355.972E-03     242.998E-03    -340.121E-03     534.189E-03     179.534E-03     233.377E-03    -112.171E-03    -121.197E-03    -112.862E-03     225.043E-03    -112.171E-03     106.172E-03     41.5621E+03    -4.20358E+06    -78.2188E+06    -12.4465E+06    -66.3045E+06    -3.62986E+06    -27.2363E+06         47.0202
            1849     10.7223E-03     120.197E-03     512.164E-03     184.592E-03    -251.787E-03     162.685E-03    -229.880E-03     512.164E-03     181.390E-03     237.632E-03    -112.380E-03    -125.243E-03    -114.044E-03     226.433E-03    -112.380E-03     124.346E-03    -320.699E+03    -8.35729E+06    -61.3264E+06    -15.8074E+06    -45.8398E+06    -8.35729E+06    -25.9325E+06         49.8497
            1850     11.6121E-03     120.267E-03     489.217E-03     118.591E-03    -157.777E-03     71.8120E-03    -110.998E-03     489.217E-03     171.148E-03     243.902E-03    -112.517E-03    -131.360E-03    -113.536E-03     226.078E-03    -112.517E-03     157.289E-03     6.63969E+06    -20.5944E+06    -42.8909E+06    -16.7177E+06    -18.8831E+06    -21.2449E+06    -22.7254E+06         53.2103
            1851     12.5067E-03     120.395E-03     467.229E-03     91.9668E-03    -105.568E-03    -7.32311E-03    -6.27859E-03     467.229E-03     157.971E-03     252.172E-03    -112.439E-03    -139.724E-03    -111.483E-03     223.931E-03    -112.439E-03     201.335E-03     53.9021E+06    -23.9938E+06    -31.1367E+06    -16.4680E+06     46.3763E+06    -31.1367E+06    -15.3838E+06         56.6015
            1852     13.4030E-03     120.570E-03     445.938E-03     120.676E-03    -104.140E-03    -71.8016E-03     88.3370E-03     445.938E-03     129.635E-03     252.658E-03    -112.353E-03    -140.347E-03    -109.900E-03     222.211E-03    -112.353E-03     209.639E-03     106.018E+06     1.46932E+06    -23.7038E+06    -16.5083E+06     105.315E+06    -5.02306E+06    -7.68124E+06         59.4508
            1853     14.3014E-03     120.710E-03     424.141E-03     209.845E-03    -163.699E-03    -151.837E-03     197.983E-03     424.141E-03     117.651E-03     256.243E-03    -112.324E-03    -144.047E-03    -106.163E-03     218.359E-03    -112.324E-03     232.104E-03     122.990E+06     54.9384E+06    -14.4006E+06    -14.2185E+06     122.808E+06     54.9384E+06    -793.304E+03         61.7291
            1854     15.2062E-03     120.951E-03     426.022E-03     305.089E-03    -257.947E-03    -254.075E-03     329.169E-03     398.070E-03     83.9940E-03     240.051E-03    -108.586E-03    -131.630E-03    -102.239E-03     214.220E-03    -112.145E-03     165.221E-03     128.857E+06     108.063E+06    -8.23564E+06    -8.05650E+06     128.678E+06     108.063E+06     2.93443E+06         63.8242
            1855     901.165E-06     121.326E-03     867.424E-03     765.311E-03        -1.25380     862.807E-03        -1.24919     765.311E-03     154.408E-03     207.428E-03    -103.069E-03    -104.360E-03    -103.774E-03     207.368E-03    -103.595E-03     8.22198E-03     7.98325E+06     3.59443E+06    -127.053E+06     7.43706E+06    -126.515E+06     3.60202E+06    -7.92911E+06         36.5853
            1856     1.80245E-03     121.324E-03     831.505E-03     806.130E-03        -1.25479     821.152E-03        -1.25333     815.022E-03     90.7739E-03     207.941E-03    -103.754E-03    -104.194E-03    -104.023E-03     207.776E-03    -103.759E-03     13.3852E-03     7.51737E+06     2.53818E+06    -113.435E+06     5.84358E+06    -111.769E+06     2.54578E+06    -13.5344E+06         36.7290
            1857     2.70255E-03     121.317E-03     813.239E-03     784.548E-03        -1.21099     783.827E-03        -1.20817     811.144E-03     113.477E-03     208.123E-03    -103.834E-03    -104.299E-03    -103.833E-03     207.728E-03    -103.904E-03     21.2184E-03      9.8142E+06     4.28451E+06    -113.654E+06     6.53281E+06    -110.373E+06     4.28451E+06    -19.7153E+06         36.9678
            1858     3.60417E-03     121.305E-03     798.724E-03     745.669E-03        -1.15708     742.994E-03        -1.15441     798.724E-03     109.672E-03     208.261E-03    -103.823E-03    -104.446E-03    -103.505E-03     207.464E-03    -103.968E-03     30.3353E-03     12.5700E+06     5.27906E+06    -116.330E+06     7.82171E+06    -111.582E+06     5.27906E+06    -24.1891E+06         37.3153
            1859     4.50383E-03     121.300E-03     781.440E-03     689.216E-03        -1.08381     685.648E-03        -1.08024     781.440E-03     149.824E-03     208.895E-03    -103.933E-03    -104.959E-03    -103.462E-03     207.478E-03    -104.012E-03     40.6802E-03     13.4427E+06     6.16794E+06    -118.965E+06     7.70957E+06    -113.232E+06     6.16794E+06    -26.9056E+06         37.7935
            1860     5.40527E-03     121.293E-03     760.697E-03     636.142E-03        -1.00366     631.724E-03    -999.240E-03     760.697E-03     166.208E-03     210.274E-03    -104.106E-03    -106.162E-03    -103.837E-03     207.949E-03    -104.106E-03     52.5726E-03     13.5851E+06     7.02728E+06    -116.806E+06     7.06512E+06    -110.530E+06     7.27125E+06    -27.8371E+06         38.4317
            1861     6.30561E-03     121.295E-03     739.332E-03     593.293E-03    -929.939E-03     588.865E-03    -925.511E-03     739.332E-03     162.645E-03     212.161E-03    -104.271E-03    -107.889E-03    -104.271E-03     208.542E-03    -104.271E-03     66.2133E-03     13.1963E+06     9.24469E+06    -113.851E+06     6.38818E+06    -107.396E+06     9.59716E+06    -27.7299E+06         39.2580
            1862     7.20370E-03     121.301E-03     717.715E-03     537.759E-03    -848.408E-03     531.331E-03    -841.980E-03     717.715E-03     186.242E-03     214.272E-03    -104.448E-03    -109.820E-03    -104.468E-03     208.920E-03    -104.448E-03     80.9943E-03     11.8421E+06     8.56189E+06    -108.695E+06     5.02505E+06    -101.987E+06     8.67038E+06    -27.4440E+06         40.3188
            1863     8.10388E-03     121.318E-03     694.696E-03     472.061E-03    -751.963E-03     462.813E-03    -742.715E-03     694.696E-03     206.311E-03     217.247E-03    -104.644E-03    -112.602E-03    -105.192E-03     209.837E-03    -104.644E-03     96.2727E-03     10.5885E+06     6.85772E+06    -98.5904E+06     3.52842E+06    -91.8237E+06     7.15109E+06    -26.2196E+06         41.7094
            1864     9.00300E-03     121.342E-03     670.468E-03     399.543E-03    -643.586E-03     391.408E-03    -635.451E-03     670.468E-03     177.496E-03     222.274E-03    -104.963E-03    -117.306E-03    -107.088E-03     212.055E-03    -104.963E-03     114.497E-03     9.69975E+06     7.33870E+06    -86.7528E+06     1.69098E+06    -80.2729E+06     8.86764E+06    -23.8108E+06         43.5526
            1865     9.89690E-03     121.390E-03     645.273E-03     320.062E-03    -529.105E-03     310.847E-03    -519.889E-03     645.273E-03     168.165E-03     228.473E-03    -105.381E-03    -123.100E-03    -109.369E-03     214.741E-03    -105.381E-03     134.858E-03     8.23015E+06     3.83726E+06    -71.9496E+06    -768.324E+03    -65.6879E+06     6.57401E+06    -20.6436E+06         45.9387
            1866     10.7932E-03     121.453E-03     618.623E-03     234.963E-03    -408.517E-03     221.431E-03    -394.985E-03     618.623E-03     181.666E-03     234.583E-03    -105.877E-03    -128.726E-03    -111.413E-03     217.270E-03    -105.877E-03     153.715E-03     7.65912E+06     888.000E+03    -50.7447E+06    -4.95847E+06    -41.9250E+06     4.68592E+06    -18.4345E+06         48.8905
            1867     11.6871E-03     121.527E-03     591.010E-03     152.407E-03    -296.913E-03     127.700E-03    -272.206E-03     591.010E-03     187.016E-03     243.171E-03    -106.328E-03    -136.864E-03    -112.407E-03     218.714E-03    -106.328E-03     185.032E-03     8.61423E+06    -11.5832E+06    -33.8184E+06    -10.8860E+06    -16.2853E+06    -9.61610E+06    -18.7810E+06         52.3591
            1868     12.5818E-03     121.653E-03     563.914E-03     74.1846E-03    -188.680E-03     36.4154E-03    -150.911E-03     563.914E-03     166.799E-03     253.533E-03    -106.606E-03    -146.965E-03    -112.123E-03     218.691E-03    -106.606E-03     225.076E-03     49.2763E+06    -20.3209E+06    -27.4081E+06    -14.9231E+06     40.7375E+06    -24.2672E+06    -13.1485E+06         55.9442
            1869     13.4816E-03     121.831E-03     536.351E-03     53.4960E-03    -131.984E-03    -57.7992E-03    -20.6885E-03     536.351E-03     135.781E-03     255.561E-03    -106.962E-03    -148.663E-03    -113.040E-03     219.938E-03    -106.962E-03     228.738E-03     100.282E+06    -673.486E+03    -20.6898E+06    -16.7489E+06     99.9573E+06    -4.29007E+06    -5.34938E+06         59.1381
            1870     14.3721E-03     121.974E-03     507.366E-03     122.936E-03    -162.548E-03    -146.331E-03     106.720E-03     507.366E-03     108.923E-03     259.400E-03    -107.448E-03    -152.046E-03    -112.222E-03     219.576E-03    -107.448E-03     241.989E-03     116.001E+06     44.3352E+06    -14.1798E+06    -13.8604E+06     115.682E+06     44.3352E+06    -2.30095E+06         61.8804
            1871     15.2759E-03     122.196E-03     475.224E-03     233.613E-03    -238.508E-03    -234.651E-03     229.756E-03     475.224E-03     83.7517E-03     247.711E-03    -107.670E-03    -140.059E-03    -114.244E-03     222.296E-03    -108.070E-03     164.137E-03     124.272E+06     99.3059E+06    -7.89905E+06    -7.56933E+06     123.942E+06     99.3059E+06     1.19860E+06         64.3145
            1872     910.977E-06     122.545E-03     964.104E-03     881.473E-03        -1.48440     938.600E-03        -1.48260     905.170E-03     79.5968E-03     186.460E-03    -92.6943E-03    -93.7691E-03    -93.6301E-03     186.327E-03    -92.7002E-03     11.6145E-03     14.4504E+06     10.1692E+06    -107.183E+06     11.2785E+06    -106.373E+06     12.5304E+06    -8.48542E+06         34.8483
            1873     1.82077E-03     122.544E-03     921.305E-03     897.722E-03        -1.46134     901.110E-03        -1.46098     917.550E-03     21.3693E-03     186.512E-03    -93.1573E-03    -93.3612E-03    -92.9900E-03     186.152E-03    -93.1686E-03     19.0920E-03     15.1292E+06     10.2408E+06    -94.3648E+06     12.5422E+06    -91.7854E+06     10.2484E+06    -15.8207E+06         34.9838
            1874     2.73257E-03     122.535E-03     909.851E-03     887.391E-03        -1.43698     887.489E-03        -1.43662     909.388E-03     42.2817E-03     187.034E-03    -93.1900E-03    -93.8509E-03    -92.9965E-03     186.185E-03    -93.1953E-03     29.5964E-03     16.5375E+06     6.94738E+06    -98.6553E+06     11.8668E+06    -93.9846E+06     6.94738E+06    -22.3545E+06         35.2238
            1875     3.64161E-03     122.529E-03     899.030E-03     850.578E-03        -1.37929     849.329E-03        -1.37804     899.030E-03     79.2203E-03     188.224E-03    -93.3239E-03    -94.9098E-03    -93.2746E-03     186.589E-03    -93.3239E-03     41.6508E-03     17.2620E+06     4.62004E+06    -105.981E+06     11.4820E+06    -100.201E+06     4.62004E+06    -25.8597E+06         35.5766
            1876     4.55235E-03     122.519E-03     882.588E-03     786.647E-03        -1.29375     784.582E-03        -1.29168     882.588E-03     126.495E-03     189.781E-03    -93.5150E-03    -96.2659E-03    -93.4269E-03     186.942E-03    -93.5150E-03     55.2912E-03     17.0821E+06     3.21732E+06    -110.369E+06     11.0947E+06    -104.382E+06     3.21732E+06    -26.8428E+06         36.0556
            1877     5.46108E-03     122.518E-03     861.591E-03     731.246E-03        -1.21634     729.230E-03        -1.21432     861.591E-03     113.938E-03     192.132E-03    -93.7331E-03    -98.3955E-03    -93.8812E-03     187.618E-03    -93.7331E-03     70.3263E-03     14.6616E+06     1.10287E+06    -110.848E+06     8.74209E+06    -104.928E+06     1.10287E+06    -26.5412E+06         36.6898
            1878     6.36906E-03     122.519E-03     839.285E-03     681.017E-03        -1.13711     677.701E-03        -1.13380     839.285E-03     144.994E-03     195.351E-03    -94.0259E-03    -101.325E-03    -94.6274E-03     188.654E-03    -94.0259E-03     86.4888E-03     10.7874E+06     1.33273E+06    -110.816E+06     5.31508E+06    -105.343E+06     1.33273E+06    -25.1540E+06         37.5415
            1879     7.27800E-03     122.532E-03     815.589E-03     614.568E-03        -1.03800     608.102E-03        -1.03153     815.589E-03     202.494E-03     199.506E-03    -94.3813E-03    -105.117E-03    -95.7058E-03     190.095E-03    -94.3813E-03     103.943E-03     7.55262E+06     2.35639E+06    -103.088E+06     1.80484E+06    -98.1061E+06     3.12185E+06    -22.7391E+06         38.7040
            1880     8.18400E-03     122.546E-03     789.779E-03     539.125E-03    -927.908E-03     530.867E-03    -919.650E-03     789.779E-03     219.188E-03     205.229E-03    -94.8483E-03    -110.368E-03    -97.9208E-03     192.782E-03    -94.8483E-03     121.561E-03     5.81425E+06    -1.74792E+06    -94.3986E+06     -3.8793E+06    -89.7614E+06     3.30843E+06    -20.3993E+06         40.2869
            1881     9.08827E-03     122.582E-03     762.120E-03     452.659E-03    -804.683E-03     444.921E-03    -796.945E-03     762.120E-03     195.326E-03     213.020E-03    -95.5100E-03    -117.502E-03    -101.303E-03     196.821E-03    -95.5100E-03     141.498E-03     5.82706E+06    -7.17209E+06    -84.0679E+06    -10.5424E+06    -79.8654E+06     4.99495E+06    -17.5306E+06         42.3853
            1882     9.99094E-03     122.635E-03     732.904E-03     367.368E-03    -678.019E-03     357.140E-03    -667.790E-03     732.904E-03     201.285E-03     222.152E-03    -96.3562E-03    -125.813E-03    -105.360E-03     201.699E-03    -96.3562E-03     162.843E-03     7.86856E+06    -11.5976E+06    -70.5393E+06    -15.5087E+06    -66.6282E+06     7.86856E+06    -14.3935E+06         45.0226
            1883     10.8882E-03     122.697E-03     702.402E-03     280.298E-03    -551.337E-03     267.419E-03    -538.458E-03     702.402E-03     204.689E-03     231.068E-03    -97.3670E-03    -133.736E-03    -109.565E-03     206.897E-03    -97.3670E-03     180.938E-03     11.9211E+06    -7.76776E+06    -49.6550E+06    -18.9704E+06    -38.4523E+06     11.9211E+06    -11.6479E+06         48.1720
            1884     11.7832E-03     122.783E-03     671.143E-03     186.566E-03    -421.739E-03     171.995E-03    -407.168E-03     671.143E-03     179.874E-03     243.626E-03    -98.4711E-03    -145.191E-03    -114.258E-03     212.694E-03    -98.4711E-03     209.689E-03     12.9411E+06    -4.56818E+06    -33.0080E+06    -23.0862E+06     -9.8092E+06     8.26030E+06    -10.9417E+06         51.7928
            1885     12.6766E-03     122.915E-03     639.632E-03     88.0139E-03    -285.057E-03     69.1139E-03    -266.157E-03     639.632E-03     152.515E-03     257.756E-03    -99.5679E-03    -158.228E-03    -118.802E-03     218.331E-03    -99.5679E-03     243.490E-03     50.3168E+06    -1.97152E+06    -33.1799E+06    -27.0343E+06     41.2224E+06     977.280E+03    -9.38973E+06         55.6116
            1886     13.5662E-03     123.091E-03     606.737E-03     21.2180E-03    -179.304E-03    -41.8348E-03    -116.251E-03     606.737E-03     132.153E-03     260.283E-03    -100.860E-03    -159.468E-03    -122.248E-03     223.063E-03    -100.860E-03     237.938E-03     101.297E+06     17.9390E+06    -28.0606E+06    -25.5732E+06     100.590E+06     16.1581E+06    -7.78486E+06         59.2768
            1887     14.4569E-03     123.238E-03     572.432E-03     53.3750E-03    -164.317E-03    -137.054E-03     26.1118E-03     572.432E-03     97.8691E-03     266.833E-03    -102.392E-03    -164.373E-03    -127.046E-03     229.505E-03    -102.392E-03     241.696E-03     111.256E+06     45.8550E+06    -20.3658E+06    -19.7068E+06     110.597E+06     45.8550E+06    -7.05414E+06         62.6629
            1888     15.3358E-03     123.465E-03     536.102E-03     164.999E-03    -235.064E-03    -231.817E-03     161.752E-03     536.102E-03     66.2560E-03     266.524E-03    -104.412E-03    -162.125E-03    -139.871E-03     244.269E-03    -104.412E-03     156.127E-03     117.839E+06     91.0498E+06    -10.4274E+06    -9.98594E+06     116.035E+06     92.4120E+06    -3.28754E+06         65.5417
            1889     922.443E-06     123.736E-03         1.01370     968.140E-03        -1.63616     988.608E-03        -1.63476     991.836E-03     76.1372E-03     159.908E-03    -79.6573E-03    -80.2532E-03    -79.9123E-03     159.686E-03    -79.7764E-03     13.8526E-03     17.9187E+06     8.94209E+06    -86.7948E+06     14.3885E+06    -85.6181E+06     11.2956E+06    -8.99902E+06         32.8036
            1890     1.84658E-03     123.733E-03     992.620E-03     967.631E-03        -1.61508     972.610E-03        -1.61396     986.528E-03     68.9152E-03     159.869E-03    -79.6631E-03    -80.2094E-03    -79.4261E-03     159.205E-03    -79.7822E-03     24.0087E-03     15.9255E+06     4.43351E+06    -74.9151E+06     12.3869E+06    -71.3765E+06     4.43351E+06    -17.1219E+06         32.9495
            1891     2.76863E-03     123.728E-03     978.827E-03     952.654E-03        -1.58728     952.302E-03        -1.58646     978.365E-03     84.3305E-03     161.110E-03    -79.8030E-03    -81.3115E-03    -79.7724E-03     159.571E-03    -79.8030E-03     37.2896E-03     13.1291E+06    -2.20771E+06    -83.4063E+06     7.62465E+06    -77.9019E+06    -2.20771E+06    -22.3564E+06         33.2122
            1892     3.69213E-03     123.721E-03     967.308E-03     918.115E-03        -1.53845     916.316E-03        -1.53665     967.308E-03     124.077E-03     163.112E-03    -80.0117E-03    -83.1053E-03    -80.2339E-03     160.241E-03    -80.0117E-03     51.6649E-03     8.58452E+06    -9.47933E+06    -96.5777E+06     2.16131E+06    -90.1545E+06    -9.47933E+06    -25.1716E+06         33.5814
            1893     4.61237E-03     123.715E-03     952.604E-03     874.119E-03        -1.47592     871.569E-03        -1.47337     952.604E-03     150.224E-03     166.051E-03    -80.3218E-03    -85.7329E-03    -80.8592E-03     161.177E-03    -80.3218E-03     67.9552E-03     3.49425E+06    -16.0316E+06    -104.770E+06    -2.86990E+06    -98.4059E+06    -16.0316E+06    -25.4417E+06         34.0735
            1894     5.53368E-03     123.714E-03     934.226E-03     812.991E-03        -1.39409     810.677E-03        -1.39177     934.226E-03     132.207E-03     170.010E-03    -80.7241E-03    -89.2860E-03    -81.7244E-03     162.449E-03    -80.7241E-03     85.9214E-03    -2.87143E+06    -18.5632E+06    -108.702E+06    -8.02012E+06    -103.554E+06    -18.5632E+06    -22.7071E+06         34.7725
            1895     6.45317E-03     123.718E-03     911.985E-03     742.735E-03        -1.29423     739.366E-03        -1.29086     911.985E-03     156.607E-03     175.377E-03    -81.2499E-03    -94.1402E-03    -83.3513E-03     164.588E-03    -81.2499E-03     104.446E-03    -8.23282E+06    -18.9462E+06    -108.508E+06    -14.7279E+06    -104.605E+06    -16.3544E+06    -18.9955E+06         35.7825
            1896     7.37056E-03     123.730E-03     886.528E-03     668.139E-03        -1.18413     662.841E-03        -1.17884     886.528E-03     193.582E-03     182.849E-03    -81.9554E-03    -100.877E-03    -86.3849E-03     168.356E-03    -81.9554E-03     123.870E-03    -8.02078E+06    -21.2598E+06    -101.942E+06    -21.8268E+06    -99.1847E+06    -10.2115E+06    -14.5566E+06         37.2051
            1897     8.28475E-03     123.756E-03     858.508E-03     585.163E-03        -1.06622     578.911E-03        -1.05997     858.508E-03     194.960E-03     192.350E-03    -82.9415E-03    -109.382E-03    -90.9424E-03     173.911E-03    -82.9415E-03     143.675E-03    -1.56417E+06    -26.3937E+06    -92.0220E+06    -28.2211E+06    -90.1947E+06    -1.56417E+06    -9.89358E+06         39.1093
            1898     9.19447E-03     123.796E-03     828.530E-03     499.460E-03    -939.566E-03     492.466E-03    -932.572E-03     828.530E-03     192.531E-03     203.537E-03    -84.2228E-03    -119.349E-03    -96.6524E-03     180.841E-03    -84.2228E-03     164.440E-03     5.58497E+06    -32.4742E+06    -80.7175E+06    -34.0293E+06    -79.1623E+06     5.58497E+06    -7.29898E+06         41.5221
            1899     10.1000E-03     123.855E-03     796.759E-03     404.163E-03    -799.009E-03     394.947E-03    -789.793E-03     796.759E-03     203.420E-03     215.956E-03    -85.7641E-03    -130.210E-03    -103.492E-03     189.238E-03    -85.7641E-03     184.427E-03     12.4804E+06    -34.6597E+06    -66.3132E+06    -36.9072E+06    -64.0657E+06     12.4804E+06    -7.31215E+06         44.4376
            1900     11.0005E-03     123.933E-03     763.090E-03     303.096E-03    -653.837E-03     292.737E-03    -643.477E-03     763.090E-03     194.401E-03     228.561E-03    -87.5985E-03    -140.982E-03    -111.636E-03     199.216E-03    -87.5985E-03     199.719E-03     20.0190E+06    -24.5227E+06    -48.3488E+06    -37.1338E+06    -35.7377E+06     20.0190E+06    -6.55727E+06         47.8255
            1901     11.8939E-03     124.027E-03     728.139E-03     200.375E-03    -507.672E-03     188.449E-03    -495.746E-03     728.139E-03     177.300E-03     246.076E-03    -89.7387E-03    -156.351E-03    -121.392E-03     211.117E-03    -89.7387E-03     226.438E-03     27.2853E+06    -5.33176E+06    -37.4797E+06    -36.4229E+06    -6.38854E+06     27.2853E+06    -5.19511E+06         51.6411
            1902     12.7786E-03     124.180E-03     692.541E-03     98.7646E-03    -359.667E-03     82.3746E-03    -343.277E-03     692.541E-03     165.018E-03     264.343E-03    -92.0988E-03    -172.222E-03    -131.228E-03     223.350E-03    -92.0988E-03     254.624E-03     68.2867E+06     25.2764E+06    -33.1975E+06    -32.2619E+06     53.8216E+06     38.8058E+06    -8.02958E+06         55.7562
            1903     13.6564E-03     124.362E-03     655.948E-03     8.23000E-03    -222.406E-03    -19.1001E-03    -195.076E-03     655.948E-03     131.967E-03     270.667E-03    -94.8417E-03    -175.830E-03    -140.412E-03     235.248E-03    -94.8417E-03     239.819E-03     106.312E+06     58.3815E+06    -25.6053E+06    -24.4896E+06     105.197E+06     58.3815E+06    -11.5303E+06         59.9823
            1904     14.5212E-03     124.514E-03     618.412E-03     5.79368E-03    -170.408E-03    -122.826E-03    -41.7880E-03     618.412E-03     88.9376E-03     284.503E-03    -98.0293E-03    -186.394E-03    -153.075E-03     251.185E-03    -98.0293E-03     240.868E-03     107.844E+06     70.9130E+06    -16.8996E+06    -15.6372E+06     106.582E+06     70.9130E+06    -10.8280E+06         64.0492
            1905     15.3762E-03     124.772E-03     579.184E-03     120.406E-03    -237.201E-03    -234.163E-03     117.368E-03     579.184E-03     51.2147E-03     293.915E-03    -101.865E-03    -192.130E-03    -172.578E-03     274.363E-03    -101.865E-03     154.215E-03     114.258E+06     90.5957E+06    -9.51891E+06    -8.71182E+06     108.270E+06     95.7762E+06    -7.29142E+06         67.4000
            1906     937.266E-06     124.890E-03         1.07504         1.03192        -1.78761         1.07326        -1.78686         1.03296     59.7088E-03     129.186E-03    -64.3669E-03    -64.8177E-03    -64.3561E-03     128.855E-03    -64.4972E-03     14.8896E-03     19.8829E+06     9.05312E+06    -65.7441E+06     16.9534E+06    -63.9026E+06     10.1413E+06    -10.3558E+06         30.8183
            1907     1.87519E-03     124.890E-03         1.05288         1.02005        -1.75436         1.02457        -1.75326         1.04725     85.5047E-03     129.819E-03    -64.3002E-03    -65.5161E-03    -64.3728E-03     128.789E-03    -64.4134E-03     27.1231E-03     15.1065E+06    -1.33404E+06    -57.4068E+06     10.9774E+06    -53.2776E+06    -1.33404E+06    -16.5677E+06         31.0114
            1908     2.81308E-03     124.885E-03         1.03144     972.376E-03        -1.68465     971.600E-03        -1.68388         1.03144     68.6781E-03     131.728E-03    -64.5642E-03    -67.1625E-03    -64.8313E-03     129.396E-03    -64.5642E-03     41.7252E-03     7.79759E+06    -10.6057E+06    -71.8819E+06     2.79183E+06    -66.8761E+06    -10.6057E+06    -19.3179E+06         31.3331
            1909     3.74824E-03     124.880E-03         1.01378     954.761E-03        -1.64575     953.459E-03        -1.64445         1.01378     109.384E-03     134.800E-03    -64.8805E-03    -69.9199E-03    -65.5635E-03     130.443E-03    -64.8805E-03     57.9362E-03    -2.18516E+06    -21.3076E+06    -87.8823E+06    -6.94832E+06    -83.1191E+06    -21.3076E+06    -19.4210E+06         31.7653
            1910     4.68443E-03     124.877E-03     999.004E-03     929.213E-03        -1.60010     927.267E-03        -1.59815     999.004E-03     128.911E-03     139.402E-03    -65.3531E-03    -74.0503E-03    -66.8228E-03     132.174E-03    -65.3531E-03     76.0843E-03    -16.3021E+06    -31.6479E+06    -101.030E+06    -19.9913E+06    -97.3406E+06    -31.6479E+06    -16.1921E+06         32.3409
            1911     5.61715E-03     124.879E-03     981.218E-03     854.764E-03        -1.50435     852.464E-03        -1.50205     981.218E-03     132.288E-03     145.724E-03    -66.0114E-03    -79.7032E-03    -68.8259E-03     134.846E-03    -66.0114E-03     95.6240E-03    -28.2752E+06    -40.5062E+06    -108.947E+06    -34.8571E+06    -106.571E+06    -36.3001E+06    -11.0169E+06         33.1860
            1912     6.54862E-03     124.888E-03     956.729E-03     761.144E-03        -1.38083     758.351E-03        -1.37804     956.729E-03     146.946E-03     154.481E-03    -66.9569E-03    -87.5814E-03    -72.4988E-03     139.399E-03    -66.9569E-03     116.187E-03    -29.0017E+06    -48.6772E+06    -108.178E+06    -47.9236E+06    -106.665E+06    -31.2679E+06    -6.11928E+06         34.4152
            1913     7.47536E-03     124.909E-03     928.063E-03     686.557E-03        -1.27256     683.118E-03        -1.26912     928.063E-03     161.089E-03     165.878E-03    -68.2727E-03    -97.6248E-03    -78.0938E-03     146.347E-03    -68.2727E-03     137.448E-03    -19.0235E+06    -55.3332E+06    -101.739E+06    -56.1635E+06    -100.909E+06    -19.0235E+06    -3.34733E+06         36.1106
            1914     8.39633E-03     124.941E-03     898.096E-03     614.338E-03        -1.16152     610.864E-03        -1.15805     898.096E-03     156.867E-03     179.156E-03    -69.9886E-03    -109.173E-03    -85.4028E-03     155.386E-03    -69.9886E-03     158.235E-03    -5.26775E+06    -58.5288E+06    -91.6519E+06    -58.8001E+06    -91.3806E+06    -5.26775E+06    -1.91786E+06         38.3129
            1915     9.31182E-03     124.994E-03     866.781E-03     526.289E-03        -1.02898     521.594E-03        -1.02429     866.781E-03     166.541E-03     194.692E-03    -72.1150E-03    -122.684E-03    -94.8107E-03     166.818E-03    -72.1150E-03     179.463E-03     8.36436E+06    -54.7289E+06    -77.5219E+06    -55.8297E+06    -76.4211E+06     8.36436E+06    -2.03225E+06         41.0155
            1916     10.2173E-03     125.066E-03     833.518E-03     430.391E-03    -886.076E-03     424.260E-03    -879.944E-03     833.518E-03     178.413E-03     211.757E-03    -74.6299E-03    -137.157E-03    -106.066E-03     180.667E-03    -74.6299E-03     198.739E-03     19.0928E+06    -44.6370E+06    -62.9660E+06    -50.2024E+06    -57.4006E+06     19.0928E+06    -4.66900E+06         44.2021
            1917     11.1143E-03     125.159E-03     798.379E-03     327.875E-03    -736.531E-03     320.164E-03    -728.820E-03     798.379E-03     177.116E-03     229.454E-03    -77.6421E-03    -151.794E-03    -119.492E-03     197.152E-03    -77.6421E-03     212.275E-03     27.4102E+06    -30.1353E+06    -47.7577E+06    -43.2344E+06    -34.6587E+06     27.4102E+06    -5.19173E+06         47.8457
            1918     11.9981E-03     125.274E-03     761.493E-03     218.663E-03    -577.748E-03     206.521E-03    -565.607E-03     761.493E-03     189.478E-03     251.038E-03    -81.1315E-03    -169.883E-03    -133.841E-03     214.995E-03    -81.1315E-03     235.450E-03     42.2850E+06     4.09175E+06    -35.0838E+06    -33.6254E+06     2.63340E+06     42.2850E+06    -6.78276E+06         51.9144
            1919     12.8739E-03     125.447E-03     723.236E-03     111.774E-03    -417.590E-03     97.0989E-03    -402.915E-03     723.236E-03     167.952E-03     273.236E-03    -85.0079E-03    -188.191E-03    -148.102E-03     233.147E-03    -85.0079E-03     259.813E-03     83.4384E+06     52.6295E+06    -24.7972E+06    -23.0503E+06     70.2527E+06     64.0684E+06    -12.1458E+06         56.3934
            1920     13.7348E-03     125.653E-03     683.790E-03     9.33421E-03    -264.416E-03    -10.7824E-03    -244.299E-03     683.790E-03     127.438E-03     287.300E-03    -89.4472E-03    -197.918E-03    -164.889E-03     254.271E-03    -89.4472E-03     242.173E-03     108.417E+06     83.9498E+06    -15.7047E+06    -13.7286E+06     106.440E+06     83.9498E+06    -14.6500E+06         61.1464
            1921     14.5765E-03     125.827E-03     643.319E-03    -16.7657E-03    -183.490E-03    -118.484E-03    -81.7717E-03     643.319E-03     95.2251E-03     309.844E-03    -94.5522E-03    -215.393E-03    -184.675E-03     279.126E-03    -94.5522E-03     245.844E-03     103.326E+06     93.0556E+06    -7.99912E+06    -6.27081E+06     100.316E+06     94.3373E+06    -11.0860E+06         65.7074
            1922     15.3977E-03     126.123E-03     601.940E-03     83.2492E-03    -224.710E-03    -219.911E-03     78.4506E-03     601.940E-03     53.8861E-03     322.103E-03    -100.251E-03    -221.959E-03    -203.452E-03     303.595E-03    -100.251E-03     161.470E-03     110.795E+06     96.3015E+06    -2.84708E+06    -2.20878E+06     99.5551E+06     106.903E+06    -4.88837E+06         69.3311
            1923     954.026E-06     126.011E-03         1.10672         1.02681        -1.85572         1.04677        -1.85546         1.08649     19.2599E-03     96.9079E-03    -48.0682E-03    -48.8365E-03    -48.3843E-03     96.4729E-03    -48.0854E-03     14.7816E-03     6.66499E+06     90.1482E+03    -45.0007E+06     3.73416E+06    -43.1580E+06     1.17829E+06    -7.24230E+06         29.1680
            1924     1.90616E-03     126.009E-03         1.06119         1.03772        -1.80857         1.03769        -1.80821         1.06086     49.6705E-03     98.5370E-03    -48.3468E-03    -50.1880E-03    -48.7964E-03     97.1454E-03    -48.3468E-03     27.4800E-03    -4.94434E+06    -16.7458E+06    -45.0208E+06    -8.54761E+06    -41.4175E+06    -16.7458E+06    -11.2187E+06         29.4146
            1925     2.85770E-03     126.007E-03         1.04814         1.00398        -1.76603         1.00407        -1.76580         1.04780     36.1491E-03     101.141E-03    -48.6563E-03    -52.4854E-03    -49.3424E-03     97.9976E-03    -48.6563E-03     42.4423E-03    -19.7153E+06    -36.2220E+06    -65.9718E+06    -22.7120E+06    -62.9752E+06    -36.2220E+06    -10.1387E+06         29.8144
            1926     3.81002E-03     126.004E-03         1.03286     972.061E-03        -1.71136     971.608E-03        -1.71090         1.03286     63.5496E-03     105.616E-03    -49.1209E-03    -56.5036E-03    -50.6799E-03     99.7920E-03    -49.1209E-03     59.3532E-03    -37.9059E+06    -53.5417E+06    -89.2535E+06    -41.2248E+06    -85.9346E+06    -53.5417E+06    -4.17428E+06         30.3736
            1927     4.75809E-03     126.003E-03         1.01588     922.809E-03        -1.64353     922.185E-03        -1.64291         1.01588     76.9958E-03     112.399E-03    -49.8714E-03    -62.5112E-03    -53.1265E-03     103.015E-03    -49.8714E-03     78.0235E-03    -54.3545E+06    -64.9543E+06    -108.541E+06    -62.0146E+06    -103.538E+06    -62.2972E+06     2.89617E+06         31.1251
            1928     5.70524E-03     126.010E-03     995.355E-03     861.398E-03        -1.55764     860.258E-03        -1.55650     995.355E-03     97.5127E-03     121.966E-03    -51.0138E-03    -70.9462E-03    -57.2288E-03     108.249E-03    -51.0138E-03     98.5444E-03    -56.1279E+06    -72.2644E+06    -116.995E+06    -77.3530E+06    -110.713E+06    -57.3216E+06     7.03175E+06         32.1327
            1929     6.64613E-03     126.027E-03     971.197E-03     788.928E-03        -1.45092     787.165E-03        -1.44916     971.197E-03     123.713E-03     134.398E-03    -52.5955E-03    -81.8637E-03    -63.3447E-03     115.879E-03    -52.5955E-03     120.630E-03    -42.1892E+06    -79.3743E+06    -111.488E+06    -83.9367E+06    -106.926E+06    -42.1892E+06     6.82061E+06         33.5121
            1930     7.58116E-03     126.059E-03     943.657E-03     707.597E-03        -1.33405     704.433E-03        -1.33088     943.657E-03     155.498E-03     149.560E-03    -54.6411E-03    -94.9055E-03    -71.5997E-03     126.254E-03    -54.6411E-03     143.339E-03    -23.7750E+06    -81.5744E+06    -99.4240E+06    -82.7135E+06    -98.2849E+06    -23.7750E+06     3.27732E+06         35.4015
            1931     8.50815E-03     126.107E-03     913.386E-03     624.418E-03        -1.20855     619.593E-03        -1.20372     913.386E-03     185.943E-03     167.276E-03    -57.1978E-03    -110.013E-03    -82.4589E-03     139.722E-03    -57.1978E-03     165.766E-03    -6.72535E+06    -73.9891E+06    -88.5704E+06    -74.8838E+06    -87.6757E+06    -6.72535E+06    -1.52964E+06         37.8421
            1932     9.42387E-03     126.174E-03     880.684E-03     530.456E-03        -1.07221     523.566E-03        -1.06532     880.684E-03     205.045E-03     187.506E-03    -60.3145E-03    -127.237E-03    -95.9979E-03     156.267E-03    -60.3145E-03     188.154E-03     8.70864E+06    -59.4684E+06    -74.8156E+06    -63.4307E+06    -70.8534E+06     8.70864E+06    -5.70746E+06         40.8026
            1933     10.3304E-03     126.270E-03     845.652E-03     432.591E-03    -930.350E-03     425.691E-03    -923.450E-03     845.652E-03     192.504E-03     209.876E-03    -64.0037E-03    -145.926E-03    -112.394E-03     176.344E-03    -64.0037E-03     207.831E-03     20.4594E+06    -43.8014E+06    -60.7239E+06    -52.7648E+06    -51.7605E+06     20.4594E+06    -7.77146E+06         44.2544
            1934     11.2201E-03     126.386E-03     808.690E-03     333.835E-03    -779.131E-03     325.660E-03    -770.956E-03     808.690E-03     184.145E-03     233.254E-03    -68.3619E-03    -164.875E-03    -130.814E-03     199.192E-03    -68.3619E-03     222.624E-03     29.4823E+06    -24.6477E+06    -49.8174E+06    -43.7971E+06    -30.6681E+06     29.4823E+06    -9.43073E+06         48.1717
            1935     12.0939E-03     126.530E-03     769.930E-03     230.143E-03    -620.458E-03     220.573E-03    -610.887E-03     769.930E-03     177.936E-03     259.113E-03    -73.2999E-03    -185.775E-03    -149.046E-03     222.384E-03    -73.2999E-03     244.858E-03     48.9590E+06     20.6187E+06    -37.6977E+06    -33.5625E+06     18.5024E+06     46.9401E+06    -14.5283E+06         52.5488
            1936     12.9541E-03     126.723E-03     729.517E-03     124.266E-03    -458.947E-03     115.002E-03    -449.683E-03     729.517E-03     141.204E-03     288.240E-03    -78.7747E-03    -209.468E-03    -169.539E-03     248.311E-03    -78.7747E-03     270.289E-03     86.8388E+06     68.6418E+06    -26.3284E+06    -22.7620E+06     80.6333E+06     71.2808E+06    -19.0382E+06         57.4128
            1937     13.7977E-03     126.968E-03     687.710E-03     17.6529E-03    -296.068E-03     1.55318E-03    -279.969E-03     687.710E-03     124.689E-03     309.329E-03    -84.9921E-03    -224.433E-03    -192.238E-03     277.134E-03    -84.9921E-03     251.307E-03     104.943E+06     89.0483E+06    -17.8049E+06    -15.2131E+06     101.660E+06     89.7401E+06    -16.2367E+06         62.5534
            1938     14.6129E-03     127.178E-03     644.567E-03    -30.0550E-03    -188.662E-03    -107.276E-03    -111.442E-03     644.567E-03     89.2889E-03     334.579E-03    -91.8276E-03    -242.851E-03    -212.961E-03     304.688E-03    -91.8276E-03     255.089E-03     94.0058E+06     89.1044E+06    -14.0484E+06    -12.6201E+06     90.6040E+06     91.0779E+06    -9.44616E+06         67.3213
            1939     15.4139E-03     127.508E-03     600.857E-03     55.9797E-03    -212.466E-03    -208.268E-03     51.7823E-03     600.857E-03     42.9086E-03     345.677E-03    -99.0469E-03    -246.733E-03    -228.041E-03     326.985E-03    -99.0469E-03     173.038E-03     103.706E+06     88.8280E+06    -7.33895E+06    -6.93343E+06     89.6864E+06     102.442E+06    -3.78139E+06         70.9594
            1940     967.979E-06     127.095E-03         1.07643         1.00864        -1.83860         1.01683        -1.83763         1.06728     63.4188E-03     66.4701E-03    -32.7145E-03    -33.7540E-03    -33.2219E-03     65.9379E-03    -32.7145E-03     13.4666E-03    -19.8742E+06    -31.1571E+06    -47.2994E+06    -30.9969E+06    -34.1209E+06    -33.2129E+06    -1.33083E+06         27.8483
            1941     1.93594E-03     127.095E-03         1.04551         1.03800        -1.83000         1.04120        -1.82959         1.04191     65.4603E-03     68.4549E-03    -33.1065E-03    -35.3471E-03    -33.6874E-03     66.7952E-03    -33.1065E-03     25.0822E-03    -31.7016E+06    -49.4696E+06    -58.4264E+06    -45.7688E+06    -42.3034E+06    -51.5253E+06     3.45565E+06         28.1359
            1942     2.90318E-03     127.093E-03         1.04030         1.01529        -1.80039         1.01701        -1.80002         1.03821     61.7824E-03     72.3698E-03    -33.5647E-03    -38.8027E-03    -35.0635E-03     68.6306E-03    -33.5647E-03     39.2907E-03    -50.6688E+06    -73.9635E+06    -87.3319E+06    -68.6391E+06    -69.3616E+06    -73.9635E+06     10.0200E+06         28.6115
            1943     3.86706E-03     127.094E-03         1.02626     959.262E-03        -1.73420     958.820E-03        -1.73375         1.02626     62.6759E-03     78.6276E-03    -34.3429E-03    -44.2901E-03    -37.4371E-03     71.7746E-03    -34.3429E-03     55.7495E-03    -72.8803E+06    -88.8650E+06    -116.341E+06    -90.5859E+06    -98.6352E+06    -88.8650E+06     17.6192E+06         29.2975
            1944     4.82984E-03     127.099E-03         1.00719     901.878E-03        -1.65467     900.850E-03        -1.65364         1.00719     97.8682E-03     88.0016E-03    -35.5396E-03    -52.4436E-03    -41.5699E-03     77.1279E-03    -35.5396E-03     74.6080E-03    -79.5572E+06    -90.5209E+06    -128.900E+06    -103.517E+06    -110.216E+06    -85.2445E+06     21.0358E+06         30.2148
            1945     5.78554E-03     127.113E-03     985.197E-03     851.396E-03        -1.57346     849.567E-03        -1.57163     985.197E-03     130.280E-03     100.782E-03    -37.2704E-03    -63.4925E-03    -47.8646E-03     85.1538E-03    -37.2704E-03     96.0642E-03    -66.9319E+06    -90.0965E+06    -125.039E+06    -105.642E+06    -109.493E+06    -66.9319E+06     17.1207E+06         31.3704
            1946     6.73558E-03     127.144E-03     961.728E-03     795.679E-03        -1.48653     793.518E-03        -1.48437     961.728E-03     140.249E-03     116.428E-03    -39.5154E-03    -76.9171E-03    -56.2116E-03     95.7225E-03    -39.5154E-03     119.368E-03    -43.6939E+06    -90.0316E+06    -108.705E+06    -98.0886E+06    -100.648E+06    -43.6939E+06     8.86014E+06         32.8790
            1947     7.67709E-03     127.188E-03     935.589E-03     716.726E-03        -1.36820     714.169E-03        -1.36565     935.589E-03     140.154E-03     135.146E-03    -42.2846E-03    -92.7999E-03    -67.0796E-03     109.425E-03    -42.2846E-03     144.118E-03    -22.3851E+06    -82.8468E+06    -93.5821E+06    -85.6087E+06    -90.8202E+06    -22.3851E+06     584.601E+03         34.9375
            1948     8.60833E-03     127.254E-03     905.365E-03     621.014E-03        -1.23106     617.448E-03        -1.22750     905.365E-03     150.721E-03     157.067E-03    -45.6612E-03    -111.282E-03    -81.2016E-03     126.987E-03    -45.6612E-03     169.244E-03     -5.6202E+06    -67.2668E+06    -85.5583E+06    -73.6822E+06    -79.1429E+06     -5.6202E+06    -6.63065E+06         37.5931
            1949     9.52713E-03     127.347E-03     871.260E-03     523.134E-03        -1.09200     517.992E-03        -1.08686     871.260E-03     168.976E-03     182.434E-03    -49.7481E-03    -132.686E-03    -98.9880E-03     148.736E-03    -49.7481E-03     194.708E-03     7.27909E+06    -49.9576E+06    -76.7879E+06    -63.3648E+06    -63.3807E+06     7.27909E+06    -12.1864E+06         40.7909
            1950     10.4278E-03     127.468E-03     834.035E-03     419.019E-03    -935.541E-03     413.659E-03    -930.180E-03     834.035E-03     165.199E-03     210.499E-03    -54.6063E-03    -155.984E-03    -120.018E-03     174.533E-03    -54.6063E-03     217.927E-03     18.0810E+06    -35.1541E+06    -65.6481E+06    -52.0833E+06    -48.7188E+06     18.0810E+06    -14.7928E+06         44.4966
            1951     11.3116E-03     127.615E-03     794.435E-03     319.608E-03    -778.636E-03     312.347E-03    -771.375E-03     794.435E-03     172.096E-03     238.501E-03    -60.2192E-03    -178.310E-03    -142.232E-03     202.423E-03    -60.2192E-03     234.220E-03     31.3971E+06    -11.0836E+06    -50.4229E+06    -38.7499E+06    -22.7566E+06     31.3971E+06    -16.9276E+06         48.6889
            1952     12.1780E-03     127.790E-03     753.131E-03     224.927E-03    -629.087E-03     216.880E-03    -621.041E-03     753.131E-03     164.389E-03     270.078E-03    -66.5083E-03    -203.584E-03    -165.827E-03     232.321E-03    -66.5083E-03     256.548E-03     57.2522E+06     34.0521E+06    -35.1164E+06    -28.1719E+06     33.4597E+06     50.9000E+06    -20.1714E+06         53.3673
            1953     13.0266E-03     128.018E-03     709.957E-03     125.738E-03    -469.847E-03     115.798E-03    -459.906E-03     709.957E-03     144.785E-03     307.340E-03    -73.5170E-03    -233.881E-03    -192.847E-03     266.307E-03    -73.5170E-03     286.445E-03     87.9243E+06     71.0003E+06    -27.0727E+06    -23.2856E+06     84.1372E+06     71.0003E+06    -19.7070E+06         58.5483
            1954     13.8441E-03     128.318E-03     665.162E-03     22.1971E-03    -307.310E-03     9.40315E-03    -294.517E-03     665.162E-03     123.882E-03     332.051E-03    -81.3092E-03    -250.831E-03    -216.774E-03     297.994E-03    -81.3092E-03     270.906E-03     94.7582E+06     81.9782E+06    -23.0803E+06    -21.0708E+06     90.5406E+06     84.1863E+06    -13.8085E+06         63.9277
            1955     14.6413E-03     128.556E-03     618.691E-03    -37.4164E-03    -193.668E-03    -99.9237E-03    -131.161E-03     618.691E-03     72.8691E-03     357.903E-03    -89.5578E-03    -268.347E-03    -236.028E-03     325.585E-03    -89.5578E-03     276.269E-03     88.9206E+06     84.6877E+06    -15.6732E+06    -14.6062E+06     84.8846E+06     87.6567E+06    -8.89651E+06         68.7279
            1956     15.4304E-03     128.918E-03     572.245E-03     37.2499E-03    -200.131E-03    -196.497E-03     33.6156E-03     572.245E-03     32.7386E-03     368.634E-03    -97.9732E-03    -270.650E-03    -250.272E-03     348.256E-03    -97.9732E-03     190.632E-03     102.635E+06     82.4381E+06    -7.23774E+06    -6.67381E+06     83.1381E+06     101.371E+06    -5.60822E+06         72.2555
            1957     980.927E-06     128.147E-03         1.02773         1.01558        -1.83843         1.02421        -1.83724         1.01791     100.872E-03     40.5644E-03    -19.8179E-03    -20.7459E-03    -20.2171E-03     40.0355E-03    -19.8179E-03     10.4596E-03    -39.1999E+06    -80.3406E+06    -88.8790E+06    -84.3825E+06    -41.6406E+06    -82.3964E+06     7.15414E+06         26.7740
            1958     1.96203E-03     128.150E-03         1.02192         1.00221        -1.80962         1.00581        -1.80927         1.01798     57.1872E-03     42.9386E-03    -20.2171E-03    -22.7175E-03    -21.0191E-03     41.2402E-03    -20.2171E-03     20.2028E-03    -50.3997E+06    -96.7009E+06    -107.446E+06    -95.5650E+06    -60.2251E+06    -98.7567E+06     19.5722E+06         27.0880
            1959     2.94044E-03     128.151E-03         1.00922     961.765E-03        -1.75679     963.214E-03        -1.75648         1.00746     30.2280E-03     48.0774E-03    -20.9022E-03    -27.1725E-03    -23.2878E-03     44.1928E-03    -20.9022E-03     32.7399E-03    -64.3015E+06    -104.713E+06    -131.702E+06    -109.213E+06    -86.7897E+06    -104.713E+06     31.2799E+06         27.6145
            1960     3.91703E-03     128.157E-03     991.202E-03     923.335E-03        -1.69965     922.705E-03        -1.69902     991.202E-03     3.35411E-03     56.3471E-03    -22.0738E-03    -34.2675E-03    -27.0704E-03     49.1500E-03    -22.0738E-03     48.6261E-03    -79.7785E+06    -100.046E+06    -147.112E+06    -117.971E+06    -108.920E+06    -100.046E+06     33.2769E+06         28.3768
            1961     4.88758E-03     128.168E-03     973.150E-03     886.109E-03        -1.63600     885.105E-03        -1.63500     973.150E-03     30.1867E-03     68.0132E-03    -23.7469E-03    -44.2563E-03    -32.7050E-03     56.4619E-03    -23.7469E-03     67.9462E-03    -80.6396E+06    -91.0245E+06    -140.612E+06    -116.182E+06    -110.590E+06    -85.5046E+06     26.9769E+06         29.3981
            1962     5.85312E-03     128.196E-03     953.180E-03     833.605E-03        -1.55911     832.548E-03        -1.55806     953.180E-03     51.5098E-03     82.9444E-03    -25.9429E-03    -56.9908E-03    -40.3460E-03     66.2996E-03    -25.9429E-03     90.4182E-03    -64.5166E+06    -87.2734E+06    -121.055E+06    -107.389E+06    -100.940E+06    -64.5166E+06     16.0414E+06         30.6939
            1963     6.80999E-03     128.238E-03     929.631E-03     763.969E-03        -1.46251     762.618E-03        -1.46116     929.631E-03     81.4981E-03     101.188E-03    -28.6738E-03    -72.5240E-03    -50.3907E-03     79.0548E-03    -28.6738E-03     115.720E-03    -43.8121E+06    -85.3715E+06    -101.400E+06    -97.0684E+06     -89.703E+06    -43.8121E+06     4.36194E+06         32.3686
            1964     7.75715E-03     128.301E-03     901.872E-03     683.733E-03        -1.34526     682.350E-03        -1.34388     901.872E-03     105.127E-03     123.192E-03    -32.0258E-03    -91.1708E-03    -63.5045E-03     95.5254E-03    -32.0258E-03     143.641E-03    -26.2244E+06    -75.7231E+06    -92.0571E+06    -86.8118E+06    -80.9684E+06    -26.2244E+06    -5.15166E+06         34.6075
            1965     8.69171E-03     128.388E-03     870.200E-03     598.797E-03        -1.21928     597.479E-03        -1.21796     870.200E-03     97.2889E-03     149.128E-03    -36.0911E-03    -113.029E-03    -80.4434E-03     116.542E-03    -36.0911E-03     172.872E-03    -10.1636E+06    -59.0181E+06    -86.2989E+06    -76.1860E+06    -69.1310E+06    -10.1636E+06    -12.0982E+06         37.4642
            1966     9.61034E-03     128.505E-03     834.991E-03     508.391E-03        -1.08470     505.335E-03        -1.08165     834.991E-03     130.081E-03     179.428E-03    -40.9586E-03    -138.505E-03    -101.850E-03     142.773E-03    -40.9586E-03     202.953E-03     3.92332E+06    -41.0585E+06    -78.8382E+06    -65.1008E+06    -54.7959E+06     3.92332E+06    -18.1366E+06         40.8823
            1967     10.5118E-03     128.660E-03     796.561E-03     411.748E-03    -932.265E-03     407.171E-03    -927.689E-03     796.561E-03     154.006E-03     212.371E-03    -46.7107E-03    -165.704E-03    -126.631E-03     173.297E-03    -46.7107E-03     230.002E-03     15.8425E+06    -22.8062E+06    -72.2975E+06    -53.0726E+06    -42.0312E+06     15.8425E+06    -24.1087E+06         44.8201
            1968     11.3915E-03     128.846E-03     755.562E-03     315.714E-03    -778.057E-03     309.777E-03    -772.121E-03     755.562E-03     157.535E-03     245.213E-03    -53.3423E-03    -191.885E-03    -153.112E-03     206.441E-03    -53.3423E-03     248.251E-03     27.7265E+06     1.28263E+06    -59.6457E+06    -41.7547E+06    -16.6084E+06     27.7265E+06    -27.1296E+06         49.2524
            1969     12.2483E-03     129.059E-03     711.911E-03     213.491E-03    -615.944E-03     204.365E-03    -606.818E-03     711.911E-03     167.870E-03     284.053E-03    -60.8284E-03    -223.265E-03    -182.764E-03     243.552E-03    -60.8284E-03     274.971E-03     56.0270E+06     37.1501E+06    -43.3755E+06    -34.3219E+06     37.8748E+06     46.2487E+06    -23.6927E+06         54.1668
            1970     13.0768E-03     129.340E-03     664.847E-03     111.200E-03    -445.133E-03     100.851E-03    -434.784E-03     664.847E-03     146.770E-03     326.355E-03    -69.1163E-03    -257.295E-03    -212.648E-03     281.707E-03    -69.1163E-03     310.185E-03     84.0906E+06     64.6071E+06    -33.4709E+06    -30.5896E+06     81.2093E+06     64.6071E+06    -17.4810E+06         59.5609
            1971     13.8899E-03     129.683E-03     615.682E-03     15.4439E-03    -289.541E-03    -663.211E-06    -273.434E-03     615.682E-03     116.716E-03     350.674E-03    -78.0589E-03    -272.677E-03    -234.605E-03     312.602E-03    -78.0589E-03     296.418E-03     93.6312E+06     78.5122E+06    -26.3195E+06    -23.9485E+06     85.8463E+06     83.9261E+06    -15.9973E+06         65.0605
            1972     14.6806E-03     129.962E-03     565.135E-03    -26.6350E-03    -189.297E-03    -103.791E-03    -112.142E-03     565.135E-03     89.1201E-03     379.617E-03    -87.3539E-03    -292.285E-03    -255.926E-03     343.257E-03    -87.3539E-03     303.474E-03     94.2159E+06     79.8337E+06    -18.3772E+06    -15.2563E+06     76.7128E+06     94.2159E+06    -14.8168E+06         69.7952
            1973     15.4490E-03     130.362E-03     516.333E-03     47.5684E-03    -187.016E-03    -181.565E-03     42.1170E-03     516.333E-03     52.0639E-03     394.326E-03    -96.8352E-03    -297.402E-03    -274.594E-03     371.517E-03    -96.8352E-03     213.017E-03     105.990E+06     70.5881E+06    -7.74505E+06    -5.84598E+06     68.6890E+06     105.990E+06    -8.23309E+06         73.1503
            1974     990.681E-06     129.176E-03     966.865E-03     940.711E-03        -1.75559     962.667E-03        -1.75372     943.037E-03    -35.9652E-03     21.4825E-03    -10.3359E-03    -11.1467E-03    -10.7243E-03     21.0600E-03    -10.3359E-03     6.81414E-03    -60.4819E+06    -128.187E+06    -146.541E+06    -136.303E+06    -70.7198E+06    -128.187E+06     25.7952E+06         25.8979
            1975     1.97973E-03     129.180E-03     958.198E-03     929.437E-03        -1.72492     937.513E-03        -1.72422     949.417E-03    -23.5688E-03     24.4913E-03    -10.8871E-03    -13.6029E-03    -12.1167E-03     23.0050E-03    -10.8871E-03     14.3065E-03    -70.1984E+06    -137.571E+06    -165.821E+06    -149.692E+06    -86.3277E+06    -137.571E+06     34.3657E+06         26.2112
            1976     2.96803E-03     129.185E-03     938.726E-03     896.481E-03        -1.67395     896.037E-03        -1.67351     938.726E-03    -42.9776E-03     30.2593E-03    -11.8008E-03    -18.4564E-03    -14.8436E-03     26.6466E-03    -11.8008E-03     25.2285E-03    -82.0029E+06    -131.857E+06    -170.472E+06    -148.513E+06    -103.962E+06    -131.857E+06     36.7991E+06         26.7455
            1977     3.95165E-03     129.195E-03     924.582E-03     876.361E-03        -1.63093     876.016E-03        -1.63058     924.582E-03    -50.7533E-03     39.7417E-03    -13.2078E-03    -26.5218E-03    -19.4664E-03     32.6863E-03    -13.2078E-03     40.6468E-03    -88.1399E+06    -111.770E+06    -154.416E+06    -132.600E+06    -109.956E+06    -111.770E+06     29.9068E+06         27.5303
            1978     4.93030E-03     129.219E-03     910.422E-03     845.941E-03        -1.58038     845.627E-03        -1.58007     910.422E-03    -22.2899E-03     52.7194E-03    -15.1391E-03    -37.5810E-03    -25.8762E-03     41.0146E-03    -15.1391E-03     60.4977E-03    -85.1191E+06    -93.8038E+06    -130.463E+06    -114.506E+06    -105.705E+06    -89.1755E+06     19.7318E+06         28.6022
            1979     5.90166E-03     129.255E-03     893.081E-03     792.851E-03        -1.50571     792.722E-03        -1.50558     893.081E-03    -5.41455E-03     68.8932E-03    -17.5746E-03    -51.3363E-03    -34.1284E-03     51.6853E-03    -17.5746E-03     84.0894E-03    -67.2032E+06    -83.9728E+06    -109.510E+06    -101.261E+06    -92.2223E+06    -67.2032E+06     11.6174E+06         30.0177
            1980     6.86522E-03     129.311E-03     870.760E-03     726.328E-03        -1.40966     725.911E-03        -1.40924     870.760E-03     27.5704E-03     89.0037E-03    -20.5584E-03    -68.4603E-03    -45.0958E-03     65.6392E-03    -20.5584E-03     111.842E-03    -46.8819E+06    -75.3043E+06    -95.6623E+06    -93.3670E+06    -77.5995E+06    -46.8819E+06     2.54725E+06         31.8842
            1981     7.81787E-03     129.394E-03     843.522E-03     651.934E-03        -1.29879     651.205E-03        -1.29806     843.522E-03     71.9335E-03     113.862E-03    -24.2193E-03    -89.6737E-03    -59.8771E-03     84.0657E-03    -24.2193E-03     143.797E-03    -28.4669E+06    -62.5766E+06    -90.6667E+06    -84.9788E+06    -68.2644E+06    -28.4669E+06    -9.35070E+06         34.3288
            1982     8.75672E-03     129.506E-03     811.645E-03     566.952E-03        -1.17121     565.828E-03        -1.17009     811.645E-03     83.9395E-03     143.593E-03    -28.6874E-03    -114.951E-03    -79.2640E-03     107.906E-03    -28.6874E-03     178.235E-03    -10.9575E+06    -44.0183E+06    -85.8082E+06    -71.3308E+06    -58.4957E+06    -10.9575E+06    -19.6588E+06         37.3833
            1983     9.67832E-03     129.658E-03     775.430E-03     482.439E-03        -1.03744     479.479E-03        -1.03448     775.430E-03     125.723E-03     178.347E-03    -34.0583E-03    -144.297E-03    -103.609E-03     137.659E-03    -34.0583E-03     214.054E-03     5.22214E+06    -26.1024E+06    -76.6857E+06    -56.1775E+06    -46.6106E+06     5.22214E+06    -24.7173E+06         40.9966
            1984     10.5772E-03     129.848E-03     735.645E-03     398.663E-03    -902.657E-03     394.604E-03    -898.598E-03     735.645E-03     141.295E-03     215.646E-03    -40.4109E-03    -175.204E-03    -131.785E-03     172.227E-03    -40.4109E-03     245.334E-03     17.9859E+06    -9.42214E+06    -68.8700E+06    -46.8494E+06    -31.4427E+06     17.9859E+06    -28.1397E+06         45.1239
            1985     11.4541E-03     130.076E-03     692.674E-03     304.519E-03    -749.428E-03     298.422E-03    -743.330E-03     692.674E-03     151.631E-03     254.067E-03    -47.7937E-03    -206.247E-03    -162.973E-03     210.793E-03    -47.7937E-03     268.254E-03     27.4552E+06     6.54822E+06    -61.5799E+06    -42.2220E+06    -12.8096E+06     27.4552E+06    -30.2169E+06         49.7347
            1986     12.3036E-03     130.337E-03     645.673E-03     199.589E-03    -580.416E-03     189.019E-03    -569.847E-03     645.673E-03     175.335E-03     298.403E-03    -56.1594E-03    -242.265E-03    -196.608E-03     252.747E-03    -56.1594E-03     300.591E-03     51.9150E+06     34.2383E+06    -46.7053E+06    -36.1889E+06     31.8074E+06     43.8296E+06    -24.3863E+06         54.8033
            1987     13.1316E-03     130.672E-03     593.895E-03     95.4724E-03    -411.898E-03     85.1012E-03    -401.527E-03     593.895E-03     142.409E-03     342.934E-03    -65.3263E-03    -277.645E-03    -227.835E-03     293.124E-03    -65.3263E-03     337.153E-03     81.4582E+06     64.6427E+06    -29.7583E+06    -26.4608E+06     78.1606E+06     64.6427E+06    -18.6461E+06         60.3206
            1988     13.9323E-03     131.058E-03     539.957E-03     15.7772E-03    -259.567E-03    -7.92477E-03    -235.865E-03     539.957E-03     127.017E-03     367.581E-03    -75.1137E-03    -292.484E-03    -250.229E-03     325.326E-03    -75.1137E-03     320.991E-03     99.0873E+06     81.3446E+06    -19.3963E+06    -16.6011E+06     87.2795E+06     90.3572E+06    -17.1918E+06         65.8276
            1989     14.7113E-03     131.381E-03     485.227E-03    -3.46279E-03    -164.282E-03    -92.8320E-03    -74.9128E-03     485.227E-03     96.4353E-03     399.603E-03    -85.2487E-03    -314.371E-03    -274.278E-03     359.510E-03    -85.2487E-03     328.303E-03     102.738E+06     72.6109E+06    -15.4571E+06    -12.5018E+06     69.6555E+06     102.738E+06    -14.0047E+06         70.3684
            1990     15.4737E-03     131.839E-03     433.445E-03     80.6979E-03    -170.600E-03    -167.299E-03     77.3969E-03     433.445E-03     45.1851E-03     419.359E-03    -95.7005E-03    -323.586E-03    -298.261E-03     394.034E-03    -95.7005E-03     236.176E-03     111.318E+06     54.5061E+06    -10.6061E+06    -8.09401E+06     51.9940E+06     111.318E+06    -9.60944E+06         73.4678
            1991     995.995E-06     130.189E-03     853.347E-03     805.811E-03        -1.56472     827.328E-03        -1.56308     830.191E-03    -59.2084E-03     9.96812E-03    -4.66671E-03    -5.30165E-03    -4.99855E-03     9.66503E-03    -4.66671E-03     3.92384E-03    -105.720E+06    -199.591E+06    -220.236E+06    -206.239E+06    -116.105E+06    -203.203E+06     27.5244E+06         25.2364
            1992     1.99085E-03     130.196E-03     858.711E-03     825.845E-03        -1.58639     851.205E-03        -1.58569     832.654E-03    -46.8294E-03     13.3329E-03    -5.32473E-03    -8.01035E-03    -6.71666E-03     12.0393E-03    -5.32473E-03     9.86662E-03    -93.7532E+06    -170.408E+06    -195.172E+06    -181.713E+06    -107.212E+06    -170.408E+06     33.0131E+06         25.5237
            1993     2.98244E-03     130.203E-03     863.346E-03     827.853E-03        -1.58042     852.296E-03        -1.57993     838.413E-03    -63.8506E-03     19.7903E-03    -6.35443E-03    -13.4344E-03    -9.94196E-03     16.2979E-03    -6.35443E-03     20.1575E-03    -97.6900E+06    -148.139E+06    -170.611E+06    -158.416E+06    -108.044E+06    -149.980E+06     24.6718E+06         26.0348
            1994     3.97146E-03     130.223E-03     843.999E-03     815.957E-03        -1.54413     822.167E-03        -1.54335     837.011E-03    -66.0019E-03     29.3834E-03    -7.84008E-03    -21.5376E-03    -14.5969E-03     22.4426E-03    -7.84008E-03     34.8212E-03    -99.6000E+06    -129.637E+06    -147.474E+06    -139.597E+06    -105.636E+06    -131.478E+06     13.4953E+06         26.8063
            1995     4.95528E-03     130.252E-03     827.784E-03     783.700E-03        -1.49212     782.899E-03        -1.49132     827.784E-03    -43.5306E-03     42.2128E-03    -9.79520E-03    -32.4256E-03    -20.7588E-03     30.5460E-03    -9.79520E-03     54.1238E-03    -95.2186E+06    -111.452E+06    -129.623E+06    -124.617E+06    -101.951E+06    -109.724E+06     7.43351E+06         27.8827
            1996     5.93276E-03     130.301E-03     812.227E-03     730.558E-03        -1.41811     730.359E-03        -1.41791     812.227E-03    -11.2705E-03     58.8460E-03    -12.2240E-03    -46.6267E-03    -28.9759E-03     41.1952E-03    -12.2240E-03     78.6663E-03    -74.4299E+06    -89.4125E+06    -114.136E+06    -109.741E+06    -85.2656E+06    -82.9716E+06     1.79672E+06         29.3672
            1997     6.90142E-03     130.373E-03     790.787E-03     669.699E-03        -1.32651     669.506E-03        -1.32631     790.787E-03     16.1006E-03     80.2564E-03    -15.2302E-03    -65.0157E-03    -40.3907E-03     55.6315E-03    -15.2302E-03     108.943E-03    -47.6279E+06    -63.2580E+06    -95.5369E+06    -88.6186E+06    -65.8154E+06    -51.9888E+06    -7.54033E+06         31.4093
            1998     7.85942E-03     130.475E-03     764.419E-03     611.890E-03        -1.22846     611.646E-03        -1.22821     764.419E-03     41.7853E-03     107.238E-03    -18.9511E-03    -88.2930E-03    -56.1979E-03     75.1430E-03    -18.9511E-03     144.764E-03    -24.5069E+06    -42.1255E+06    -81.1863E+06    -68.0166E+06    -55.2952E+06    -24.5069E+06    -16.3946E+06         34.0744
            1999     8.80203E-03     130.615E-03     733.025E-03     533.413E-03        -1.10494     532.446E-03        -1.10398     733.025E-03     68.5203E-03     139.982E-03    -23.5229E-03    -116.483E-03    -77.2528E-03     100.752E-03    -23.5229E-03     184.482E-03    -6.15793E+06    -28.3227E+06    -76.4072E+06    -57.8215E+06    -46.9084E+06    -6.15793E+06    -23.3939E+06         37.3144
            2000     9.72569E-03     130.797E-03     695.785E-03     443.987E-03    -965.078E-03     442.265E-03    -963.356E-03     695.785E-03     97.7242E-03     178.298E-03    -29.0820E-03    -149.232E-03    -103.790E-03     132.856E-03    -29.0820E-03     226.236E-03     5.82372E+06    -16.6508E+06    -76.5777E+06    -53.6438E+06    -39.5848E+06     5.82372E+06    -28.9121E+06         41.0760
            2001     10.6289E-03     131.028E-03     653.183E-03     358.311E-03    -825.263E-03     355.965E-03    -822.917E-03     653.183E-03     102.403E-03     219.694E-03    -35.7483E-03    -183.931E-03    -135.053E-03     170.817E-03    -35.7483E-03     262.991E-03     19.7152E+06    -2.03921E+06    -68.8186E+06    -46.0437E+06    -24.8141E+06     19.7152E+06    -31.1258E+06         45.3293
            2002     11.5049E-03     131.304E-03     606.002E-03     272.416E-03    -675.658E-03     266.530E-03    -669.772E-03     606.002E-03     140.090E-03     263.355E-03    -43.5810E-03    -219.739E-03    -170.550E-03     214.166E-03    -43.5810E-03     291.752E-03     33.7542E+06     8.61462E+06    -56.6091E+06    -36.6342E+06    -11.3603E+06     33.7542E+06    -29.8777E+06         50.0392
            2003     12.3523E-03     131.621E-03     554.277E-03     184.868E-03    -521.000E-03     175.597E-03    -511.729E-03     554.277E-03     159.109E-03     310.610E-03    -52.4739E-03    -258.115E-03    -207.186E-03     259.681E-03    -52.4739E-03     324.680E-03     53.0168E+06     34.1685E+06    -40.8503E+06    -27.9837E+06     25.3928E+06     48.9260E+06    -26.0793E+06         55.1720
            2004     13.1717E-03     132.005E-03     497.402E-03     88.6800E-03    -361.137E-03     77.8567E-03    -350.314E-03     497.402E-03     134.618E-03     356.989E-03    -62.2312E-03    -294.725E-03    -240.697E-03     302.962E-03    -62.2312E-03     359.303E-03     80.0928E+06     68.8624E+06    -25.5763E+06    -20.7728E+06     75.2893E+06     68.8624E+06    -21.3205E+06         60.6900
            2005     13.9695E-03     132.449E-03     438.329E-03     18.1614E-03    -216.309E-03    -8.40837E-03    -189.739E-03     438.329E-03     126.710E-03     383.854E-03    -72.6956E-03    -311.149E-03    -265.522E-03     338.227E-03    -72.6956E-03     341.966E-03     101.354E+06     80.3437E+06    -19.3367E+06    -16.3158E+06     84.4623E+06     94.2141E+06    -17.5864E+06         66.0485
            2006     14.7396E-03     132.816E-03     378.434E-03     20.6064E-03    -143.409E-03    -87.2494E-03    -35.5528E-03     378.434E-03     86.0150E-03     419.030E-03    -83.6422E-03    -335.378E-03    -292.492E-03     376.144E-03    -83.6422E-03     349.012E-03     111.319E+06     63.3194E+06    -12.3394E+06    -9.88981E+06     60.8698E+06     111.319E+06    -11.7196E+06         70.2605
            2007     15.4854E-03     133.333E-03     322.047E-03     118.614E-03    -160.359E-03    -158.390E-03     116.645E-03     322.047E-03     42.1869E-03     439.293E-03    -94.9520E-03    -344.312E-03    -316.761E-03     411.742E-03    -94.9520E-03     258.159E-03     124.779E+06     42.2276E+06    -4.80771E+06    -2.38113E+06     39.8010E+06     124.779E+06    -5.08360E+06         73.0144
            2008     997.275E-06     131.195E-03     740.312E-03     707.916E-03        -1.40984     715.126E-03        -1.40904     732.296E-03    -18.7593E-03     5.73514E-03    -2.72553E-03    -3.00960E-03    -2.85501E-03     5.60619E-03    -2.75117E-03     1.68197E-03    -139.225E+06    -257.667E+06    -268.127E+06    -262.176E+06    -141.564E+06    -261.278E+06     977.468E+03         24.8581
            2009     1.99453E-03     131.201E-03     748.298E-03     721.841E-03        -1.42113     742.985E-03        -1.42094     726.965E-03    -4.62041E-03     8.34871E-03    -3.19010E-03    -5.15845E-03    -4.25137E-03     7.44163E-03    -3.19010E-03     6.35569E-03    -110.420E+06    -221.033E+06    -228.212E+06    -222.962E+06    -115.671E+06    -221.033E+06     1.20766E+06         25.1222
            2010     2.98996E-03     131.217E-03     759.995E-03     730.895E-03        -1.43956     757.290E-03        -1.43938     733.423E-03    -37.9371E-03     14.4007E-03    -3.98965E-03    -10.4103E-03    -7.25531E-03     11.2456E-03    -3.98965E-03     16.3778E-03    -96.5781E+06    -190.185E+06    -204.441E+06    -186.446E+06    -101.275E+06    -203.483E+06    -3.42111E+06         25.5939
            2011     3.98001E-03     131.239E-03     742.879E-03     723.676E-03        -1.40433     731.229E-03        -1.40326     734.253E-03    -84.0142E-03     23.9969E-03    -5.32672E-03    -18.6699E-03    -11.7695E-03     17.0965E-03    -5.32672E-03     31.3701E-03    -93.9132E+06    -163.596E+06    -183.559E+06    -159.815E+06    -98.7330E+06    -182.520E+06    -10.3297E+06         26.3261
            2012     4.96574E-03     131.278E-03     726.073E-03     694.301E-03        -1.34673     692.811E-03        -1.34524     726.073E-03    -105.631E-03     36.9101E-03    -7.24256E-03    -29.6665E-03    -17.8135E-03     25.0570E-03    -7.24256E-03     50.9023E-03    -88.2145E+06    -136.230E+06    -149.203E+06    -132.575E+06    -99.2163E+06    -141.856E+06    -15.0573E+06         27.3797
            2013     5.94621E-03     131.338E-03     711.572E-03     658.435E-03        -1.29041     657.323E-03        -1.28930     711.572E-03    -82.9242E-03     53.4904E-03    -9.62458E-03    -43.8563E-03    -25.9285E-03     35.5625E-03    -9.62458E-03     75.4574E-03    -63.4894E+06    -97.0328E+06    -118.249E+06    -103.440E+06    -78.2988E+06    -97.0328E+06    -18.6749E+06         28.8926
            2014     6.91925E-03     131.422E-03     691.869E-03     609.354E-03        -1.21913     608.588E-03        -1.21836     691.869E-03    -43.9867E-03     75.1941E-03    -12.5602E-03    -62.6176E-03    -37.2906E-03     49.8671E-03    -12.5602E-03     106.740E-03    -40.9010E+06    -59.9333E+06    -98.9846E+06    -83.6486E+06    -56.6730E+06    -59.4971E+06    -22.9737E+06         31.0575
            2015     7.88026E-03     131.543E-03     665.964E-03     546.221E-03        -1.12315     545.856E-03        -1.12278     665.964E-03    -11.9960E-03     103.043E-03    -16.1877E-03    -86.8183E-03    -53.0416E-03     69.2665E-03    -16.1877E-03     145.180E-03    -27.0413E+06    -37.5299E+06    -90.2036E+06    -73.5109E+06    -48.0526E+06    -33.2113E+06    -25.6361E+06         33.8853
            2016     8.82765E-03     131.709E-03     633.526E-03     482.177E-03        -1.01532     481.442E-03        -1.01458     633.526E-03     17.5043E-03     137.677E-03    -20.6748E-03    -116.974E-03    -74.6210E-03     95.3233E-03    -20.6748E-03     189.552E-03    -8.87024E+06    -20.1032E+06    -81.7788E+06    -62.6670E+06    -38.1312E+06    -9.95398E+06    -28.5150E+06         37.2460
            2017     9.75593E-03     131.924E-03     594.698E-03     409.995E-03    -891.706E-03     409.076E-03    -890.788E-03     594.698E-03     38.1246E-03     178.680E-03    -26.2208E-03    -152.490E-03    -102.911E-03     129.101E-03    -26.2208E-03     236.118E-03     10.6625E+06    -6.82074E+06    -74.5640E+06    -48.6223E+06    -32.7625E+06     10.6625E+06    -31.8984E+06         41.0805
            2018     10.6600E-03     132.196E-03     548.928E-03     317.293E-03    -743.348E-03     315.487E-03    -741.542E-03     548.928E-03     63.8608E-03     223.565E-03    -32.9655E-03    -190.559E-03    -137.268E-03     170.274E-03    -32.9655E-03     276.957E-03       27.55E+06     4.18735E+06    -64.5747E+06    -39.0123E+06    -21.3750E+06       27.55E+06    -31.9258E+06         45.3685
            2019     11.5377E-03     132.526E-03     496.727E-03     231.890E-03    -594.027E-03     228.061E-03    -590.198E-03     496.727E-03     109.307E-03     270.349E-03    -41.0065E-03    -229.284E-03    -175.723E-03     216.788E-03    -41.0065E-03     308.691E-03     40.9996E+06     13.3875E+06    -55.3479E+06    -33.3727E+06    -8.58772E+06     40.9996E+06    -31.7986E+06         50.0684
            2020     12.3831E-03     132.900E-03     439.283E-03     160.504E-03    -450.208E-03     152.301E-03    -442.005E-03     439.283E-03     132.342E-03     319.341E-03    -50.2254E-03    -269.147E-03    -215.025E-03     265.220E-03    -50.2254E-03     339.935E-03     55.4109E+06     33.8295E+06    -43.9140E+06    -27.4433E+06     18.8092E+06     53.9604E+06    -29.8986E+06         55.1388
            2021     13.2021E-03     133.340E-03     376.305E-03     80.1555E-03    -297.018E-03     70.2217E-03    -287.084E-03     376.305E-03     117.662E-03     367.814E-03    -60.3978E-03    -307.406E-03    -251.386E-03     311.794E-03    -60.3978E-03     372.369E-03     77.2916E+06     67.4547E+06    -27.2150E+06    -21.2362E+06     65.6412E+06     73.1263E+06    -22.0611E+06         60.4826
            2022     13.9912E-03     133.842E-03     310.987E-03     22.7616E-03    -165.046E-03    -7.08134E-03    -135.203E-03     310.987E-03     101.707E-03     397.029E-03    -71.3365E-03    -325.683E-03    -277.784E-03     349.131E-03    -71.3365E-03     357.521E-03     104.820E+06     80.1529E+06    -16.3592E+06    -14.0067E+06     80.5153E+06     102.105E+06    -13.9779E+06         65.5049
            2023     14.7511E-03     134.267E-03     244.562E-03     50.0907E-03    -114.333E-03    -78.4569E-03     14.2148E-03     244.562E-03     79.8049E-03     437.618E-03    -82.8485E-03    -354.775E-03    -307.882E-03     390.725E-03    -82.8485E-03     373.408E-03     123.818E+06     59.4346E+06    -11.8316E+06    -9.70756E+06     57.3106E+06     123.818E+06    -9.83843E+06         69.2714
            2024     15.4851E-03     134.847E-03     222.005E-03     117.208E-03    -127.567E-03    -125.234E-03     153.517E-03     183.363E-03     49.2069E-03     453.584E-03    -94.7234E-03    -358.840E-03    -327.770E-03     422.513E-03    -94.7234E-03     283.795E-03     143.090E+06     30.3178E+06    -14.9570E+06    -12.4060E+06     27.7668E+06     143.090E+06    -5.67059E+06         71.6181
            2025     996.069E-06     132.200E-03     644.140E-03     624.401E-03        -1.26982     640.064E-03        -1.26777     626.432E-03    -3.14750E-03     8.12950E-03    -3.90391E-03    -4.22548E-03    -4.16068E-03     8.11149E-03    -3.95070E-03     149.618E-06    -124.702E+06    -235.403E+06    -239.620E+06    -236.439E+06    -127.737E+06    -235.549E+06    -17.2584E+06         24.7797
            2026     1.99143E-03     132.208E-03     633.528E-03     620.299E-03        -1.24935     622.334E-03        -1.24800     630.141E-03    -66.4376E-03     9.92529E-03    -4.33595E-03    -5.58874E-03    -5.27077E-03     9.60732E-03    -4.33595E-03     3.11123E-03    -99.1830E+06    -223.083E+06    -232.643E+06    -226.567E+06    -105.259E+06    -223.083E+06    -26.2771E+06         25.0472
            2027     2.98557E-03     132.223E-03     624.742E-03     606.074E-03        -1.23050     605.886E-03        -1.22868     623.104E-03    -87.8958E-03     13.8845E-03    -4.95005E-03    -8.93334E-03    -7.18107E-03     12.1323E-03    -4.95005E-03     10.9693E-03    -77.8901E+06    -203.894E+06    -230.684E+06    -209.020E+06    -88.0967E+06    -215.351E+06    -33.8790E+06         25.4977
            2028     3.97900E-03     132.254E-03     617.149E-03     600.018E-03        -1.20701     600.174E-03        -1.20454     614.520E-03    -112.178E-03     21.6131E-03    -5.94639E-03    -15.6654E-03    -10.6572E-03     16.6048E-03    -5.94639E-03     24.7996E-03    -69.6196E+06    -181.277E+06    -218.379E+06    -184.860E+06    -86.0555E+06    -198.361E+06    -41.3445E+06         26.1802
            2029     4.96694E-03     132.300E-03     605.399E-03     585.804E-03        -1.17064     583.197E-03        -1.16704     604.407E-03    -148.861E-03     33.8064E-03    -7.48737E-03    -26.3149E-03    -16.2898E-03     23.7813E-03    -7.48737E-03     44.6065E-03    -60.8282E+06    -159.336E+06    -189.410E+06    -156.180E+06    -88.4316E+06    -164.962E+06    -49.7624E+06         27.1828
            2030     5.94747E-03     132.370E-03     590.391E-03     559.136E-03        -1.12687     555.787E-03        -1.12352     590.391E-03    -144.977E-03     50.7972E-03    -9.56014E-03    -41.2326E-03    -24.6019E-03     34.1664E-03    -9.56014E-03     70.7764E-03    -39.7275E+06    -134.060E+06    -158.842E+06    -124.476E+06    -74.0943E+06    -134.060E+06    -52.6449E+06         28.7058
            2031     6.91922E-03     132.467E-03     571.508E-03     529.324E-03        -1.07411     526.199E-03        -1.07099     571.508E-03    -130.301E-03     73.1131E-03    -12.3644E-03    -60.7354E-03    -36.1883E-03     48.5660E-03    -12.3644E-03     103.584E-03    -28.6209E+06    -92.2749E+06    -126.032E+06    -95.4513E+06    -59.2017E+06    -92.2749E+06    -43.6074E+06         30.9348
            2032     7.88194E-03     132.607E-03     546.439E-03     478.909E-03    -995.256E-03     477.109E-03    -993.457E-03     546.439E-03    -89.1368E-03     101.442E-03    -15.9786E-03    -85.4120E-03    -52.0999E-03     68.1304E-03    -15.9786E-03     143.004E-03    -22.2880E+06    -44.6447E+06    -98.8266E+06    -74.0671E+06    -47.0475E+06    -44.6447E+06    -34.4207E+06         33.8101
            2033     8.83046E-03     132.794E-03     513.784E-03     414.883E-03    -891.674E-03     414.409E-03    -891.200E-03     513.784E-03    -45.1435E-03     136.267E-03    -20.4324E-03    -115.781E-03    -73.5625E-03     94.0487E-03    -20.4324E-03     188.168E-03    -5.93701E+06    -13.8675E+06    -83.7807E+06    -62.0122E+06    -31.2048E+06    -10.3682E+06    -33.4800E+06         37.1755
            2034     9.76125E-03     133.042E-03     472.989E-03     347.348E-03    -776.636E-03     347.120E-03    -776.408E-03     472.989E-03    -13.4781E-03     178.149E-03    -25.9333E-03    -152.236E-03    -102.279E-03     128.193E-03    -25.9333E-03     236.549E-03     11.7302E+06    -862.181E+03    -84.2115E+06    -58.6492E+06    -26.4244E+06     11.7302E+06    -36.2609E+06         40.9746
            2035     10.6678E-03     133.356E-03     423.651E-03     271.567E-03    -643.858E-03     270.900E-03    -643.191E-03     423.651E-03     27.4446E-03     225.639E-03    -32.6844E-03    -192.924E-03    -138.723E-03     171.438E-03    -32.6844E-03     280.654E-03     27.2736E+06     6.73042E+06    -82.3746E+06    -54.3185E+06    -21.3257E+06     27.2736E+06    -39.0617E+06         45.1773
            2036     11.5422E-03     133.736E-03     366.627E-03     195.472E-03    -501.000E-03     194.003E-03    -499.531E-03     366.627E-03     58.0280E-03     273.672E-03    -40.8378E-03    -232.808E-03    -178.567E-03     219.431E-03    -40.8378E-03     312.738E-03     44.6702E+06     20.6313E+06    -70.2782E+06    -43.7651E+06    -5.88186E+06     44.6702E+06    -40.8760E+06         49.7237
            2037     12.3887E-03     134.167E-03     302.949E-03     124.852E-03    -364.411E-03     118.867E-03    -358.426E-03     302.949E-03     92.5640E-03     323.567E-03    -50.2576E-03    -273.390E-03    -219.755E-03     269.932E-03    -50.2576E-03     341.073E-03     60.7607E+06     31.6722E+06    -56.0492E+06    -31.0367E+06     6.65968E+06     60.7607E+06    -37.6895E+06         54.5326
            2038     13.2014E-03     134.667E-03     232.786E-03     56.1922E-03    -221.488E-03     46.8814E-03    -212.177E-03     232.786E-03     92.5238E-03     371.529E-03    -60.6323E-03    -310.917E-03    -256.958E-03     317.570E-03    -60.6323E-03     368.082E-03     77.6904E+06     55.0992E+06    -33.8185E+06    -20.8393E+06     42.1200E+06     77.6904E+06    -24.3147E+06         59.4621
            2039     13.9898E-03     135.222E-03     170.969E-03     26.3427E-03    -107.917E-03    -13.0942E-03    -57.8663E-03     160.355E-03     79.6864E-03     399.778E-03    -71.6590E-03    -328.068E-03    -280.327E-03     352.037E-03    -71.6590E-03     359.267E-03     104.716E+06     74.8752E+06    -20.0828E+06    -18.2887E+06     73.0811E+06     104.716E+06    -12.0028E+06         63.9867
            2040     14.7548E-03     135.720E-03     154.156E-03     33.3632E-03    -74.7193E-03    -57.8431E-03     83.8933E-03     86.7496E-03     58.9108E-03     445.554E-03    -83.0763E-03    -362.449E-03    -310.208E-03     393.313E-03    -83.0763E-03     396.456E-03     128.638E+06     57.1709E+06    -16.4171E+06    -15.5149E+06     56.2687E+06     128.638E+06    -7.27013E+06         67.2659
            2041     15.4861E-03     136.381E-03     219.827E-03     13.9686E-03    -88.3088E-03    -86.6337E-03     211.540E-03     20.5799E-03     38.1679E-03     459.996E-03    -94.8095E-03    -365.183E-03    -328.999E-03     423.812E-03    -94.8095E-03     310.833E-03     160.273E+06     34.1567E+06    -18.1689E+06    -5.61743E+06     21.6053E+06     160.273E+06    -1.52305E+06         69.1922
            2042     992.989E-06     133.211E-03     528.579E-03     500.477E-03        -1.05557     515.870E-03        -1.05234     509.949E-03    -22.3902E-03     16.1795E-03    -7.82014E-03    -8.35692E-03    -8.31128E-03     16.1550E-03    -7.84129E-03    -1.42459E-03    -89.3159E+06    -169.084E+06    -176.224E+06    -171.029E+06    -94.3643E+06    -169.231E+06    -19.5016E+06         24.9434
            2043     1.98401E-03     133.221E-03     504.689E-03     481.246E-03        -1.02321     479.095E-03        -1.02106     504.689E-03    -96.8644E-03     18.3945E-03    -8.48948E-03    -9.90462E-03    -9.84025E-03     18.3301E-03    -8.48948E-03    -353.806E-06    -68.4434E+06    -162.133E+06    -178.194E+06    -166.984E+06    -79.6536E+06    -162.133E+06    -32.6004E+06         25.2408
            2044     2.97388E-03     133.240E-03     489.315E-03     457.199E-03    -986.627E-03     453.512E-03    -982.940E-03     489.315E-03    -143.096E-03     21.4935E-03    -9.37216E-03    -12.1235E-03    -11.7084E-03     21.0783E-03    -9.37216E-03     3.94421E-03    -49.9431E+06    -146.651E+06    -180.231E+06    -163.116E+06    -67.0574E+06    -146.651E+06    -43.6745E+06         25.7282
            2045     3.96130E-03     133.270E-03     480.157E-03     457.635E-03    -977.186E-03     455.425E-03    -970.600E-03     475.781E-03    -182.407E-03     26.0979E-03    -10.3747E-03    -15.7301E-03    -13.9693E-03     24.3371E-03    -10.3747E-03     13.2427E-03    -39.6102E+06    -138.785E+06    -185.544E+06    -160.599E+06    -64.5550E+06    -138.785E+06    -54.4118E+06         26.4241
            2046     4.94741E-03     133.323E-03     474.046E-03     461.511E-03    -976.137E-03     461.694E-03    -967.310E-03     465.037E-03    -218.412E-03     34.2258E-03    -11.5697E-03    -22.6619E-03    -17.6881E-03     29.2521E-03    -11.5697E-03     29.3876E-03    -29.5320E+06    -135.656E+06    -192.335E+06    -156.045E+06    -65.8217E+06    -135.656E+06    -67.2913E+06         27.4074
            2047     5.92943E-03     133.400E-03     458.418E-03     439.360E-03    -948.225E-03     436.812E-03    -939.313E-03     452.053E-03    -211.801E-03     48.3973E-03    -13.1834E-03    -35.2187E-03    -24.4599E-03     37.6386E-03    -13.1834E-03     54.4031E-03    -17.2638E+06    -132.572E+06    -192.995E+06    -146.866E+06    -63.3930E+06    -132.572E+06    -77.0173E+06         28.9011
            2048     6.90284E-03     133.510E-03     434.904E-03     416.743E-03    -906.551E-03     410.528E-03    -898.604E-03     433.173E-03    -196.062E-03     69.9074E-03    -15.5321E-03    -54.3693E-03    -35.5599E-03     51.0980E-03    -15.5321E-03     88.3736E-03    -16.0524E+06    -115.789E+06    -178.761E+06    -127.729E+06    -67.0846E+06    -115.789E+06    -74.6342E+06         31.0780
            2049     7.86267E-03     133.666E-03     408.547E-03     389.621E-03    -849.801E-03     385.168E-03    -844.862E-03     408.061E-03    -146.395E-03     99.1271E-03    -18.8785E-03    -80.2267E-03    -52.1114E-03     71.0117E-03    -18.8785E-03     130.116E-03    -10.2777E+06    -75.9411E+06    -144.704E+06    -98.8881E+06    -56.0935E+06    -75.9411E+06    -63.1014E+06         33.8584
            2050     8.80682E-03     133.876E-03     378.946E-03     340.369E-03    -763.872E-03     340.411E-03    -760.380E-03     375.412E-03    -107.403E-03     135.217E-03    -23.3585E-03    -111.841E-03    -74.7914E-03     98.1671E-03    -23.3585E-03     176.132E-03    -346.516E+03    -31.3661E+06    -105.908E+06    -72.0493E+06    -39.3439E+06    -26.2276E+06    -47.0389E+06         37.0964
            2051     9.73277E-03     134.148E-03     335.818E-03     273.150E-03    -645.743E-03     273.115E-03    -642.660E-03     332.770E-03    -73.3415E-03     177.911E-03    -29.0390E-03    -148.879E-03    -104.555E-03     133.586E-03    -29.0390E-03     223.307E-03     17.7397E+06    -167.230E+03     -77.518E+06    -53.7500E+06    -23.9352E+06     17.7397E+06    -34.2412E+06         40.7339
            2052     10.6351E-03     134.504E-03     279.364E-03     211.097E-03    -523.846E-03     208.751E-03    -521.500E-03     279.364E-03    -40.0269E-03     224.361E-03    -36.0105E-03    -188.365E-03    -140.068E-03     176.064E-03    -36.0105E-03     264.637E-03     43.3040E+06     11.0993E+06    -65.8472E+06    -44.0738E+06    -10.6741E+06     43.3040E+06    -33.4943E+06         44.7153
            2053     11.5094E-03     134.931E-03     218.337E-03     154.104E-03    -399.221E-03     154.336E-03    -398.324E-03     217.207E-03    -4.56122E-03     270.222E-03    -44.3069E-03    -225.926E-03    -177.858E-03     222.153E-03    -44.3069E-03     292.695E-03     57.9552E+06     22.6272E+06    -64.2639E+06    -42.6023E+06     965.527E+03     57.9552E+06    -36.8816E+06         48.9426
            2054     12.3508E-03     135.414E-03     151.228E-03     85.6843E-03    -261.327E-03     87.9519E-03    -259.674E-03     147.308E-03     29.4323E-03     319.354E-03    -53.8389E-03    -265.515E-03    -218.381E-03     272.220E-03    -53.8389E-03     317.750E-03     68.1608E+06     29.9594E+06    -70.3185E+06    -46.4790E+06     6.11994E+06     68.1608E+06    -40.7431E+06         53.2731
            2055     13.1607E-03     135.977E-03     96.5695E-03     17.4656E-03    -133.542E-03     20.5075E-03    -110.282E-03     70.2681E-03     53.4889E-03     361.907E-03    -64.2290E-03    -297.651E-03    -250.616E-03     314.872E-03    -64.2290E-03     339.114E-03     83.4485E+06     42.3881E+06    -72.4395E+06    -44.9144E+06     14.8630E+06     83.4485E+06    -43.5166E+06         57.5426
            2056     13.9479E-03     136.570E-03     90.8711E-03     1.70131E-03    -84.9623E-03    -16.3632E-03     32.4383E-03    -8.46507E-03     48.7638E-03     385.869E-03    -74.7908E-03    -310.984E-03    -266.415E-03     341.300E-03    -74.7908E-03     340.670E-03     112.690E+06     54.2350E+06    -42.4084E+06    -25.0998E+06     36.9264E+06     112.690E+06    -28.6769E+06         61.4241
            2057     14.7236E-03     137.136E-03     155.297E-03    -9.38214E-03    -120.368E-03    -36.2364E-03     150.489E-03    -88.7057E-03     2.18654E-03     433.060E-03    -85.0307E-03    -347.952E-03    -291.409E-03     376.517E-03    -85.0307E-03     402.988E-03     120.130E+06     40.1267E+06    -16.9310E+06    -8.54245E+06     31.7382E+06     120.130E+06    -2.50975E+06         64.2485
            2058     15.4847E-03     137.871E-03     261.072E-03    -41.7177E-03    -170.088E-03    -48.0946E-03     259.259E-03    -161.898E-03     4.48558E-03     452.485E-03    -95.5278E-03    -356.961E-03    -313.423E-03     408.947E-03    -95.5278E-03     343.704E-03     161.604E+06     38.6718E+06    -19.3246E+06    -3.11891E+06     22.4661E+06     161.604E+06     5.63621E+06         65.7880
            2059     985.854E-06     134.231E-03     380.904E-03     315.889E-03    -747.602E-03     368.885E-03    -743.024E-03     323.331E-03    -117.465E-03     30.6169E-03    -14.8951E-03    -15.7128E-03    -15.6088E-03     30.5573E-03    -14.9395E-03    -3.08424E-03    -56.7392E+06    -96.3454E+06    -111.455E+06    -104.061E+06    -61.7235E+06    -98.7550E+06    -15.0064E+06         25.2953
            2060     1.97078E-03     134.246E-03     357.177E-03     325.310E-03    -754.816E-03     334.772E-03    -748.539E-03     341.438E-03    -138.963E-03     34.1381E-03    -15.9481E-03    -18.1744E-03    -18.0291E-03     33.9927E-03    -15.9481E-03    -5.26003E-03    -35.7558E+06    -93.9223E+06    -118.971E+06    -105.855E+06    -48.8722E+06    -93.9223E+06    -29.8125E+06         25.6302
            2061     2.95178E-03     134.266E-03     336.741E-03     314.683E-03    -741.989E-03     311.510E-03    -734.372E-03     332.297E-03    -167.761E-03     38.2342E-03    -17.2725E-03    -20.9476E-03    -20.7468E-03     38.0334E-03    -17.2725E-03    -5.35329E-03    -25.1040E+06    -87.9756E+06    -124.502E+06    -104.467E+06    -45.1390E+06    -87.9756E+06    -38.9851E+06         26.1770
            2062     3.93011E-03     134.300E-03     331.138E-03     312.427E-03    -742.385E-03     308.614E-03    -728.787E-03     321.354E-03    -225.129E-03     42.3249E-03    -18.7328E-03    -23.5880E-03    -23.2721E-03     42.0090E-03    -18.7328E-03    -1.52869E-03    -12.3330E+06    -77.7094E+06    -128.784E+06    -102.556E+06    -38.5615E+06    -77.7094E+06    -47.8633E+06         26.9521
            2063     4.90585E-03     134.354E-03     323.019E-03     310.199E-03    -735.797E-03     304.321E-03    -717.099E-03     310.199E-03    -266.879E-03     47.3377E-03    -20.2771E-03    -27.0808E-03    -26.0504E-03     46.3074E-03    -20.2771E-03     7.72694E-03    -1.88805E+06    -70.6384E+06    -139.495E+06    -103.354E+06    -38.0290E+06    -70.6384E+06    -60.4224E+06         27.9963
            2064     5.87869E-03     134.436E-03     324.718E-03     296.577E-03    -735.721E-03     299.775E-03    -710.779E-03     296.577E-03    -300.583E-03     55.6329E-03    -22.0031E-03    -33.6465E-03    -30.3686E-03     52.3549E-03    -22.0031E-03     24.7274E-03     1.02915E+06    -69.7369E+06    -153.846E+06    -109.328E+06    -43.4895E+06    -69.7369E+06    -69.9958E+06         29.4523
            2065     6.84702E-03     134.553E-03     317.368E-03     277.499E-03    -721.066E-03     291.537E-03    -696.342E-03     278.607E-03    -291.165E-03     70.4396E-03    -24.1521E-03    -46.2709E-03    -38.2954E-03     62.4641E-03    -24.1521E-03     51.8704E-03    -777.898E+03    -76.4416E+06    -171.334E+06    -117.000E+06    -55.1124E+06    -76.4416E+06    -79.0366E+06         31.4584
            2066     7.80563E-03     134.725E-03     282.439E-03     252.359E-03    -666.856E-03     263.001E-03    -648.525E-03     253.467E-03    -236.847E-03     94.3067E-03    -27.1361E-03    -67.1485E-03    -51.9576E-03     79.1158E-03    -27.1361E-03     89.5917E-03     1.72280E+06    -75.5737E+06    -176.422E+06    -116.226E+06    -58.4740E+06    -75.5737E+06    -83.9215E+06         33.9884
            2067     8.74807E-03     134.956E-03     242.789E-03     218.629E-03    -600.162E-03     226.669E-03    -584.042E-03     218.629E-03    -208.976E-03     128.452E-03    -31.3783E-03    -97.0442E-03    -73.7273E-03     105.135E-03    -31.3783E-03     134.479E-03     767.820E+03    -53.8554E+06    -159.354E+06    -101.233E+06    -59.0534E+06    -52.1550E+06    -75.9418E+06         36.9769
            2068     9.66563E-03     135.257E-03     207.181E-03     168.945E-03    -517.198E-03     190.536E-03    -504.428E-03     172.820E-03    -175.747E-03     171.564E-03    -37.1250E-03    -134.410E-03    -104.194E-03     141.348E-03    -37.1250E-03     180.559E-03     13.3382E+06    -25.4772E+06    -124.608E+06    -78.6711E+06    -44.8640E+06    -13.2122E+06    -59.6914E+06         40.3529
            2069     10.5524E-03     135.644E-03     167.390E-03     107.899E-03    -417.400E-03     148.506E-03    -406.721E-03     116.104E-03    -143.439E-03     216.275E-03    -44.4261E-03    -171.843E-03    -137.654E-03     182.087E-03    -44.4261E-03     218.297E-03     44.3229E+06         500.125    -88.8389E+06    -59.3818E+06    -18.2752E+06     33.1415E+06    -45.0473E+06         43.9935
            2070     11.4134E-03     136.104E-03     110.842E-03     45.4370E-03    -294.968E-03     99.9056E-03    -288.362E-03     49.7675E-03    -79.3711E-03     259.908E-03    -53.0129E-03    -206.894E-03    -172.059E-03     225.073E-03    -53.0129E-03     243.691E-03     66.8005E+06     12.9725E+06    -65.7397E+06    -48.1602E+06    -4.60705E+06     66.8005E+06    -32.1972E+06         47.7619
            2071     12.2475E-03     136.634E-03     51.1481E-03     2.77959E-03    -185.968E-03     43.3387E-03    -149.506E-03    -25.8730E-03    -34.6081E-03     304.522E-03    -62.6838E-03    -241.813E-03    -207.058E-03     269.768E-03    -62.6838E-03     265.496E-03     100.708E+06     30.9302E+06    -51.7858E+06    -41.3420E+06     20.4863E+06     100.708E+06    -23.9019E+06         51.4887
            2072     13.0499E-03     137.240E-03     43.8782E-03    -17.5930E-03    -147.591E-03     1.00709E-03    -13.9275E-03    -108.386E-03    -15.9826E-03     335.834E-03    -72.7823E-03    -263.017E-03    -227.661E-03     300.478E-03    -72.7823E-03     281.626E-03     132.459E+06     59.2658E+06    -48.8871E+06    -31.0687E+06     41.4474E+06     132.459E+06    -30.9892E+06         55.0088
            2073     13.8517E-03     137.855E-03     108.000E-03    -22.0710E-03    -191.003E-03    -11.1825E-03     97.1111E-03    -191.003E-03    -28.4337E-03     350.531E-03    -82.1055E-03    -268.371E-03    -230.949E-03     313.109E-03    -82.1055E-03     294.732E-03     117.950E+06     36.4191E+06    -58.3221E+06    -28.5285E+06     6.62557E+06     117.950E+06    -36.8709E+06         58.1879
            2074     14.6546E-03     138.477E-03     203.896E-03    -27.1296E-03    -275.393E-03    -19.6581E-03     196.425E-03    -275.393E-03    -78.0410E-03     394.324E-03    -90.4855E-03    -303.815E-03    -251.019E-03     341.528E-03    -90.4855E-03     367.763E-03     96.6384E+06     8.26502E+06    -62.8374E+06    -26.9858E+06    -27.5866E+06     96.6384E+06    -23.2650E+06         60.5987
            2075     15.4536E-03     139.241E-03     285.933E-03    -4.52914E-03    -354.595E-03     324.027E-06     281.080E-03    -354.595E-03    -55.0414E-03     408.341E-03    -98.5125E-03    -309.882E-03    -260.156E-03     358.615E-03    -98.5125E-03     356.168E-03     138.525E+06     25.9477E+06    -41.9127E+06    -22.5873E+06     6.62221E+06     138.525E+06    -8.59068E+06         61.9575
            2076     976.684E-06     135.271E-03     194.719E-03     131.542E-03    -412.282E-03     175.941E-03    -408.045E-03     146.082E-03    -87.2826E-03     53.5707E-03    -26.1934E-03    -27.3669E-03    -26.9405E-03     53.4537E-03    -26.5028E-03    -5.69106E-03    -19.5548E+06    -34.9766E+06    -55.7343E+06    -36.8589E+06    -36.0206E+06    -37.3863E+06    -11.5653E+06         25.7972
            2077     1.94815E-03     135.288E-03     192.848E-03     157.802E-03    -451.995E-03     180.782E-03    -444.451E-03     162.324E-03    -137.792E-03     58.1602E-03    -27.6068E-03    -30.5386E-03    -30.2101E-03     57.8316E-03    -27.6068E-03    -10.6091E-03    -4.29462E+06    -28.8659E+06    -54.3062E+06    -38.2882E+06    -20.3126E+06    -28.8659E+06    -21.0433E+06         26.1623
            2078     2.91690E-03     135.314E-03     185.821E-03     163.946E-03    -473.981E-03     174.192E-03    -462.351E-03     163.946E-03    -165.313E-03     64.2220E-03    -29.4128E-03    -34.8045E-03    -34.2063E-03     63.6238E-03    -29.4128E-03    -15.2178E-03    -954.074E+03    -26.8311E+06    -66.1556E+06    -41.6278E+06    -25.4819E+06    -26.8311E+06    -30.3487E+06         26.7566
            2079     3.88161E-03     135.353E-03     172.284E-03     157.452E-03    -474.428E-03     146.110E-03    -448.254E-03     157.452E-03    -233.686E-03     70.8243E-03    -31.5571E-03    -39.2436E-03    -38.4396E-03     70.0203E-03    -31.5571E-03    -18.1962E-03     8.40636E+06    -22.8961E+06    -71.7226E+06    -45.4117E+06    -17.9046E+06    -22.8961E+06    -36.7495E+06         27.5949
            2080     4.84075E-03     135.413E-03     169.817E-03     144.511E-03    -478.481E-03     128.477E-03    -437.141E-03     144.511E-03    -294.735E-03     77.6760E-03    -34.0103E-03    -43.6128E-03    -42.7299E-03     76.7931E-03    -34.0103E-03    -18.0268E-03     14.2326E+06    -17.6981E+06    -80.0911E+06    -52.6089E+06    -15.5618E+06    -15.3859E+06    -41.8171E+06         28.7017
            2081     5.79496E-03     135.495E-03     182.101E-03     128.382E-03    -501.206E-03     126.084E-03    -445.189E-03     128.382E-03    -350.864E-03     85.0821E-03    -36.7591E-03    -48.2945E-03    -47.2728E-03     84.0604E-03    -36.7591E-03    -13.3024E-03     10.5862E+06    -17.4731E+06    -94.1453E+06    -62.5517E+06    -24.2777E+06    -14.2029E+06    -46.7223E+06         30.1218
            2082     6.74280E-03     135.619E-03     186.319E-03     108.717E-03    -499.856E-03     127.212E-03    -440.749E-03     108.717E-03    -359.672E-03     94.4062E-03    -39.8629E-03    -54.5265E-03    -52.7585E-03     92.6382E-03    -39.8629E-03    -2.43778E-03     12.0086E+06    -15.4653E+06    -109.772E+06    -71.5095E+06    -27.2114E+06    -14.5073E+06    -55.4860E+06         31.9088
            2083     7.68191E-03     135.795E-03     162.546E-03     81.9520E-03    -469.840E-03     106.564E-03    -413.858E-03     81.9520E-03    -330.071E-03     108.192E-03    -43.5537E-03    -64.6278E-03    -60.8843E-03     104.449E-03    -43.5537E-03     16.0239E-03     10.9310E+06    -18.9158E+06    -130.414E+06    -81.8258E+06    -38.5141E+06    -18.0588E+06    -66.2804E+06         34.1260
            2084     8.60925E-03     136.036E-03     133.420E-03     44.2487E-03    -429.914E-03     71.8277E-03    -368.322E-03     44.2487E-03    -315.578E-03     129.867E-03    -48.2622E-03    -81.6085E-03    -74.6950E-03     122.953E-03    -48.2622E-03     42.9233E-03     2.76804E+06    -28.8135E+06    -149.651E+06    -94.9736E+06    -53.1018E+06    -27.6211E+06    -72.3834E+06         36.8034
            2085     9.51457E-03     136.360E-03     124.628E-03    -4.77267E-03    -384.965E-03     62.9250E-03    -323.263E-03    -4.77267E-03    -290.059E-03     158.667E-03    -54.3554E-03    -104.336E-03    -94.0063E-03     148.336E-03    -54.3554E-03     74.6474E-03     1.79179E+06    -25.8067E+06    -157.629E+06    -99.3326E+06    -56.8403E+06    -25.4714E+06    -75.1579E+06         39.8395
            2086     10.3920E-03     136.775E-03     107.300E-03    -63.9013E-03    -308.739E-03     51.0380E-03    -252.477E-03    -63.9013E-03    -240.235E-03     190.527E-03    -61.8920E-03    -128.640E-03    -115.860E-03     177.746E-03    -61.8920E-03     102.456E-03     17.8773E+06    -2.84906E+06    -141.302E+06    -88.0752E+06    -43.5948E+06     5.39581E+06    -70.7407E+06         43.0662
            2087     11.2426E-03     137.258E-03     85.8976E-03    -116.944E-03    -235.015E-03     14.0978E-03    -146.235E-03    -133.924E-03    -201.139E-03     224.693E-03    -70.7124E-03    -153.976E-03    -140.127E-03     210.844E-03    -70.7124E-03     122.599E-03     44.7392E+06     7.23536E+06    -112.165E+06    -66.3876E+06    -37.9544E+06     44.1518E+06    -55.5880E+06         46.2981
            2088     12.0590E-03     137.824E-03     74.5534E-03    -109.719E-03    -238.603E-03    -15.8579E-03    -43.2863E-03    -214.624E-03    -170.111E-03     254.063E-03    -80.4239E-03    -173.680E-03    -159.058E-03     239.440E-03    -80.4239E-03     140.201E-03     93.0554E+06     24.4315E+06    -73.1001E+06    -39.1926E+06    -9.47605E+06     93.0554E+06    -37.5824E+06         49.3775
            2089     12.8627E-03     138.445E-03     96.4295E-03    -61.9326E-03    -300.142E-03    -14.6226E-03     49.1195E-03    -300.142E-03    -139.083E-03     266.279E-03    -89.6246E-03    -176.648E-03    -159.999E-03     249.630E-03    -89.6246E-03     160.543E-03     134.123E+06     52.8528E+06    -33.2955E+06    -21.8615E+06     41.4188E+06     134.123E+06    -17.1881E+06         52.2762
            2090     13.6684E-03     139.071E-03     169.033E-03    -38.8294E-03    -383.492E-03    -7.64012E-03     137.844E-03    -383.492E-03    -138.718E-03     272.207E-03    -97.2822E-03    -174.897E-03    -154.972E-03     252.282E-03    -97.2822E-03     180.045E-03     141.045E+06     56.0987E+06    -41.5208E+06    -23.8352E+06     38.4130E+06     141.045E+06    -6.47232E+06         54.9393
            2091     14.5016E-03     139.688E-03     241.692E-03    -16.7463E-03    -467.304E-03     9.44770E-03     215.498E-03    -467.304E-03    -146.451E-03     305.512E-03    -104.005E-03    -201.590E-03    -170.494E-03     274.416E-03    -104.005E-03     238.494E-03     138.415E+06     36.8440E+06    -59.8501E+06    -14.5815E+06    -8.42458E+06     138.415E+06    -18.5726E+06         57.0888
            2092     15.2957E-03     140.496E-03     295.586E-03     41.4813E-03    -544.027E-03     59.4585E-03     277.609E-03    -544.027E-03    -107.315E-03     289.304E-03    -88.1893E-03    -201.238E-03    -139.307E-03     247.936E-03    -108.752E-03     259.143E-03     112.660E+06     10.7252E+06    -40.4164E+06    -10.8650E+06    -18.8262E+06     112.660E+06    -16.0196E+06         58.6021
            2093     958.629E-06     136.338E-03     60.2756E-03     20.1528E-03    -180.008E-03     23.4307E-03    -136.642E-03     13.6323E-03    -60.9215E-03     86.4151E-03    -42.5607E-03    -43.8549E-03    -43.4126E-03     86.2379E-03    -42.8257E-03    -9.12618E-03     37.1831E+06     28.0320E+06    -17.3840E+06     31.7083E+06    -13.2515E+06     29.3742E+06    -10.7818E+06         26.4087
            2094     1.91772E-03     136.362E-03     63.8618E-03     9.51608E-03    -199.334E-03     7.88760E-03    -147.881E-03     14.0379E-03    -88.4408E-03     90.6594E-03    -43.9834E-03    -46.6763E-03    -46.2263E-03     90.2094E-03    -43.9834E-03    -15.4449E-03     33.9158E+06     25.5651E+06    -12.2595E+06     25.7445E+06    -4.82853E+06     26.3055E+06    -12.6377E+06         26.7945
            2095     2.86988E-03     136.396E-03     64.2103E-03     6.90005E-03    -216.658E-03     1.48286E-03    -153.931E-03     6.90005E-03    -92.8552E-03     99.4561E-03    -46.1538E-03    -53.2677E-03    -52.3760E-03     98.5644E-03    -46.1538E-03    -23.0445E-03     35.1798E+06     25.9337E+06    -20.9801E+06     16.5922E+06    -8.99338E+06     32.5346E+06    -16.0759E+06         27.4165
            2096     3.81393E-03     136.442E-03     53.5718E-03    -3.20845E-03    -220.890E-03    -21.0975E-03    -146.221E-03    -3.20845E-03    -156.298E-03     111.123E-03    -49.3383E-03    -61.8003E-03    -60.2411E-03     109.563E-03    -49.3383E-03    -32.5082E-03     39.7231E+06     20.6933E+06    -24.2635E+06     8.05633E+06    -5.63151E+06     33.7281E+06    -19.2720E+06         28.2749
            2097     4.74990E-03     136.509E-03     68.3719E-03    -17.9787E-03    -259.030E-03    -45.0868E-03    -145.571E-03    -17.9787E-03    -222.472E-03     124.942E-03    -53.3603E-03    -71.4992E-03    -68.9741E-03     122.417E-03    -53.3603E-03    -43.9792E-03     42.5242E+06     17.5619E+06    -25.9106E+06     658.548E+03    -4.81105E+06     38.3279E+06    -18.9891E+06         29.3947
            2098     5.67521E-03     136.602E-03     89.9263E-03    -38.3819E-03    -317.242E-03    -84.3554E-03    -142.960E-03    -38.3819E-03    -292.306E-03     140.023E-03    -58.2995E-03    -81.6685E-03    -77.7156E-03     136.070E-03    -58.2995E-03    -57.5378E-03     48.5612E+06     17.1291E+06    -31.4275E+06    -6.35445E+06    -7.94400E+06     48.5612E+06    -20.8785E+06         30.7691
            2099     6.58743E-03     136.730E-03     109.836E-03    -66.4243E-03    -361.358E-03    -123.955E-03    -127.567E-03    -66.4243E-03    -342.062E-03     155.191E-03    -63.9707E-03    -91.3080E-03    -85.2314E-03     149.115E-03    -63.9707E-03    -72.8691E-03     54.4632E+06     17.9281E+06    -41.9184E+06    -15.8591E+06    -6.96130E+06     53.2932E+06    -24.4970E+06         32.3904
            2100     7.48633E-03     136.904E-03     132.130E-03    -102.665E-03    -388.713E-03    -144.270E-03    -112.313E-03    -102.665E-03    -388.794E-03     170.410E-03    -70.3682E-03    -100.081E-03    -90.9169E-03     161.246E-03    -70.3682E-03    -88.9383E-03     54.0624E+06     13.6178E+06    -53.4609E+06    -25.7973E+06    -12.8759E+06     52.8925E+06    -27.6821E+06         34.3328
            2101     8.36603E-03     137.145E-03     143.425E-03    -147.344E-03    -391.203E-03    -145.202E-03    -102.576E-03    -147.344E-03    -437.348E-03     183.534E-03    -77.7293E-03    -105.932E-03    -92.9306E-03     170.532E-03    -77.7293E-03    -100.723E-03     49.3582E+06     8.38747E+06    -67.0736E+06    -32.2736E+06    -26.4125E+06     49.3582E+06    -30.3167E+06         36.6553
            2102     9.22309E-03     137.468E-03     167.545E-03    -200.735E-03    -383.637E-03    -125.658E-03    -90.4339E-03    -200.735E-03    -484.724E-03     192.189E-03    -85.8544E-03    -106.447E-03    -89.7412E-03     175.483E-03    -85.8544E-03    -103.139E-03     51.5034E+06     12.5476E+06    -74.4895E+06    -32.1604E+06    -29.0688E+06     50.7906E+06    -37.6781E+06         39.3128
            2103     10.0644E-03     137.867E-03     185.293E-03    -264.033E-03    -344.403E-03    -108.704E-03    -50.4062E-03    -264.033E-03    -487.223E-03     198.843E-03    -89.7754E-03    -109.106E-03    -84.7761E-03     179.396E-03    -94.6584E-03    -97.5935E-03     54.4680E+06     10.6727E+06    -79.5815E+06    -35.7852E+06    -31.8234E+06     53.1679E+06    -40.5521E+06         42.1421
            2104     10.8785E-03     138.358E-03     197.659E-03    -284.627E-03    -339.872E-03    -96.0999E-03     7.65452E-03    -338.394E-03    -460.658E-03     204.027E-03    -84.5415E-03    -119.510E-03    -80.7542E-03     184.774E-03    -104.045E-03    -82.6157E-03     63.0749E+06     15.1232E+06    -84.6526E+06    -37.1335E+06    -31.8085E+06     62.4875E+06    -43.7108E+06         44.8899
            2105     11.6687E-03     138.915E-03     221.479E-03    -238.842E-03    -421.082E-03    -78.9266E-03     61.5633E-03    -421.082E-03    -435.157E-03     198.289E-03    -70.7177E-03    -127.621E-03    -71.0163E-03     184.136E-03    -113.169E-03    -50.0710E-03     76.0190E+06     12.2562E+06    -81.5119E+06    -37.0659E+06    -32.1898E+06     76.0190E+06    -39.7443E+06         47.4013
            2106     12.4591E-03     139.513E-03     241.486E-03    -166.337E-03    -505.557E-03    -40.3539E-03     115.503E-03    -505.557E-03    -376.693E-03     184.325E-03    -57.8723E-03    -126.493E-03    -53.8911E-03     174.423E-03    -120.573E-03    -11.0249E-03     94.3516E+06     20.7868E+06    -64.8950E+06    -34.1568E+06    -9.95148E+06     94.3516E+06    -29.1027E+06         49.8157
            2107     13.3045E-03     140.119E-03     268.964E-03    -85.1206E-03    -586.830E-03     11.8533E-03     171.990E-03    -586.830E-03    -308.918E-03     183.703E-03    -55.8612E-03    -127.950E-03    -46.3775E-03     172.849E-03    -126.580E-03     4.03508E-03     141.014E+06     43.3854E+06    -40.2235E+06    -17.2964E+06     20.4583E+06     141.014E+06    -3.91625E+06         52.2151
            2108     14.1045E-03     140.777E-03     288.453E-03     4.23219E-03    -663.533E-03     70.2660E-03     222.419E-03    -663.533E-03    -234.382E-03     184.746E-03    -44.9480E-03    -139.973E-03    -38.7674E-03     170.026E-03    -131.434E-03     57.6447E-03     168.989E+06     60.5601E+06    -21.6479E+06     4.93248E+06     33.9797E+06     168.989E+06     873.158E+03         54.3519
            2109     14.9216E-03     141.475E-03     310.573E-03     89.3606E-03    -727.492E-03     120.073E-03     279.861E-03    -727.492E-03    -132.059E-03     147.415E-03    -7.46967E-03    -140.009E-03     6.33088E-03     126.349E-03    -132.743E-03     95.9850E-03     109.029E+06     31.1769E+06    -28.8889E+06     10.6943E+06     6.27329E+06     94.3491E+06    -3.37892E+06         56.1654


